sxx,syy,szz,sxy,sxz,syz,smises
1.221812391572466017e-01,4.291989881702628074e-01,-9.345802935956659674e-03,4.956629475916916189e-02,-1.073234237756979549e-02,2.167051562835516088e-02,4.013293385505676270e-01
1.144103345965309937e-01,4.107651478290825775e-01,-5.587721710923643226e-02,7.598858087833473135e-03,-4.921564749192473831e-02,-3.875299234853634388e-03,4.180602729320526123e-01
1.676625560436645623e-01,4.036200425292152394e-01,-2.216786333403630849e-02,3.803842229665452442e-03,-6.994402127002037617e-03,-6.679328719253465815e-03,3.699019253253936768e-01
1.183747507666240845e-01,4.830119977058538461e-01,-4.818001830991203160e-02,3.605767132472308123e-02,-2.959825013318178807e-02,2.805042568401987235e-02,4.799187481403350830e-01
1.735505060277992562e-01,3.957946163902252845e-01,-1.285693678783816907e-02,2.027440461986073500e-02,-1.656778274207976881e-02,-3.177157197781307722e-03,3.572884798049926758e-01
1.634657816005296027e-01,4.808201926508367530e-01,-1.542071913426343310e-02,1.338118724260685052e-02,-2.415896261593539901e-02,-7.729894086094134600e-03,4.381232857704162598e-01
3.479302633082590468e-01,3.073697452354688386e-01,-3.022604018872121490e-02,-2.038822330902318944e-02,-7.857702023103759620e-03,-2.329915995052419392e-02,3.638268113136291504e-01
3.358461405904397123e-01,3.051555048750576038e-01,-2.583499049666357350e-02,-1.426671111719161195e-02,-9.399510639565867090e-03,-2.077962445163639496e-02,3.504653871059417725e-01
3.460886156512766876e-01,3.003754557609600861e-01,-3.074055610253939586e-02,-3.579999493246480494e-03,-5.961985260349877448e-03,-8.119249867096471271e-03,3.566605150699615479e-01
3.464677532890456657e-01,3.057934385669598409e-01,-2.703885872040887040e-02,-4.156757517772933543e-03,-1.074683928594893359e-03,-4.771265050766890919e-03,3.550958335399627686e-01
3.359250066914240551e-01,3.064218241908234219e-01,-2.765716120827518831e-02,-3.580359019694104392e-04,-4.769075153923298810e-03,-2.048977885535155623e-03,3.498811423778533936e-01
3.319087642148348394e-01,3.168203327177510076e-01,-2.724686871793605136e-02,-6.009126531117202352e-03,-4.892230248771842552e-03,-7.107616605064166065e-03,3.523251712322235107e-01
3.330089950152443912e-01,2.997346016703704707e-01,-2.747516317582776590e-02,-2.068376887991939337e-03,-3.904150125528133355e-03,-4.123381053220550110e-03,3.452110886573791504e-01
3.145250582864019817e-01,2.931708872324474413e-01,-2.440944950157822313e-02,1.856176669111203256e-02,7.445116506762511181e-03,-5.900144001798268527e-03,3.307556211948394775e-01
3.271068365482594498e-01,3.314684148844229128e-01,-2.561860577800617600e-02,-1.846551994108304451e-03,1.999756907339136653e-03,-7.638447796766941519e-04,3.549601137638092041e-01
3.092487236926290128e-01,3.080268056387492903e-01,-2.777155825760196928e-02,2.841952142665268161e-02,9.756207229469213843e-03,-1.663184486085133099e-02,3.416295647621154785e-01
3.241978265099634271e-01,2.893601514634676075e-01,-2.984952153450587398e-02,2.246597725276698598e-02,7.230199884950871785e-03,-3.155688382084485388e-03,3.404847383499145508e-01
3.010650311279448599e-01,3.213729009830530448e-01,-2.676306275527925993e-02,2.560418305576023928e-02,6.201264363232138546e-03,-1.209973627068714440e-02,3.421439230442047119e-01
3.122738572409186619e-01,2.954719440141595488e-01,-2.403489616228135506e-02,1.922075821314475630e-02,8.846670913760895996e-03,-8.076328315454555512e-03,3.305662274360656738e-01
3.379804244479610031e-01,2.845522904958950328e-01,-2.780612829615755621e-02,4.623028621190693882e-02,2.567840585499703634e-02,-2.271402047892843654e-02,3.564389348030090332e-01
3.132754993970277013e-01,3.162715698284597754e-01,-2.923266272734173499e-02,1.717685134506264245e-03,2.054489520614197207e-03,-3.228678110011990853e-03,3.440926969051361084e-01
3.090526806597989062e-01,3.114774814381842116e-01,-2.501111940390801647e-02,2.800578060547221498e-02,9.202816823360035481e-03,-1.199004734753482231e-02,3.397835791110992432e-01
2.753203505907603765e-01,3.195124184789013277e-01,-2.549331792043940670e-02,3.645186892374243509e-02,4.275962478239144632e-02,-3.715265958500429261e-02,3.454673886299133301e-01
3.198307828678809139e-01,3.042644126132135196e-01,-2.340733239454140246e-02,1.130646210496035614e-02,5.054763061847378225e-03,-5.608989640418044972e-03,3.365505635738372803e-01
3.324011886276485583e-01,3.192197299310736702e-01,-2.634944767296421020e-02,1.164573599383574541e-02,5.679941294197197836e-03,-8.647707471320969369e-03,3.533764481544494629e-01
3.153253572536982574e-01,2.901571002871334293e-01,-2.998973054190537391e-02,2.772379690505989008e-02,2.063725649235282483e-02,-1.920799108646550901e-02,3.404046595096588135e-01
3.204566347366565870e-01,3.052927550338442875e-01,-2.783596347126954251e-02,1.056631197132791751e-02,8.026537184539432601e-03,-1.242093274299161353e-02,3.424138724803924561e-01
3.329007771211590638e-01,2.996627432725014195e-01,-2.540483819561942247e-02,1.378831674549725259e-02,5.772930689441921857e-03,-1.586757321376872434e-02,3.449695408344268799e-01
3.366009611014765257e-01,2.992246529301235691e-01,-2.942592702830487683e-02,1.247995877094082787e-02,1.272972005847606072e-02,-1.429999159219212147e-02,3.510823249816894531e-01
3.193260187128639238e-01,3.384897708870077127e-01,-1.869000692565511712e-02,-3.261465437191826862e-03,1.540786905618826697e-02,-2.249489556423868268e-03,3.490831255912780762e-01
2.907914699129537373e-01,3.446569434288359046e-01,-1.032707499280027807e-03,-1.303138599409117346e-02,1.062010920461009707e-02,7.868823279128590517e-03,3.237524628639221191e-01
2.902379947098929214e-01,3.544138203986872959e-01,-3.239935015722747447e-02,4.774637763325395058e-04,4.139415044494057332e-03,6.297655635003301770e-03,3.592909276485443115e-01
2.653721957793453434e-01,3.242928280499090543e-01,-1.002500838204309352e-02,6.745392598833431855e-03,-2.272167882804875709e-04,2.845538813481086633e-03,3.093586564064025879e-01
2.689208150556525734e-01,3.559865780354235509e-01,-2.089796372934568658e-02,1.536244201754422608e-03,1.642249554787008833e-02,3.552427592626757492e-03,3.430199623107910156e-01
2.800122373142354126e-01,3.554488712688734786e-01,-3.148518148567094888e-02,-4.270383840663602090e-03,3.152793728015499536e-02,4.385214570252180671e-03,3.596026599407196045e-01
3.101655553160067025e-01,3.557862805720080068e-01,5.802204492853818563e-03,6.438577844201586256e-03,-2.808052977896775826e-03,7.298409078140000172e-04,3.297775089740753174e-01
2.420385488794741247e-01,3.824351256482826367e-01,-2.520773270378826036e-02,-2.409001840297229392e-03,2.806497256404563018e-02,-6.603881188580502590e-03,3.621648848056793213e-01
2.974265018110069936e-01,3.571753757191054035e-01,-1.707229062640952533e-02,7.375844552102099605e-03,3.684660281114680164e-02,-6.484995459247668882e-03,3.544471263885498047e-01
3.305128417062199730e-01,3.162350784334494458e-01,-2.325663107919204164e-02,1.083393653232759754e-03,-1.501930691978021169e-03,3.945317696659303430e-03,3.469331860542297363e-01
3.299334715809957297e-01,3.243936355633653124e-01,-2.827873112972731362e-02,-5.008856462722187505e-04,-5.924948330176506772e-04,-1.255678943863650305e-03,3.554838597774505615e-01
3.306031694871251481e-01,3.256772168009647306e-01,-1.437412533483423127e-02,-1.433497392062980762e-03,3.538132032131981360e-04,-4.583867767534326176e-03,3.426424264907836914e-01
2.444424136668181535e-01,3.355777585898763737e-01,-2.065038193749046957e-02,-6.686006816019711418e-02,-1.849704091812226156e-02,-2.756715190048867128e-03,3.423436880111694336e-01
3.228692950089782632e-01,3.274712997412542181e-01,6.899107850957558741e-02,-3.762441650924151434e-03,-5.288815480889908285e-03,9.957395916808976788e-04,2.564625442028045654e-01
2.748954149367069943e-01,3.177514772541077948e-01,-2.785814304001349440e-02,-9.875020749084349736e-02,-3.998511774509336307e-05,1.253874959637017727e-04,3.684101700782775879e-01
3.223242272161814248e-01,3.264955104333496227e-01,-3.431810931631634753e-02,-4.233582708194654669e-04,-3.591156065692270496e-04,-1.373817457481447306e-03,3.587553501129150391e-01
1.762496918828412029e-01,3.582770987846779498e-01,-8.102217595830088492e-02,-1.187581254421593291e-01,-2.053595443683846680e-02,8.919113353746576517e-03,4.358527660369873047e-01
2.215827979095583433e-01,3.083075673370994085e-01,-2.394500350859760096e-02,-1.295155325726277951e-01,-2.326538767301471232e-04,5.393328661240709941e-03,3.735086023807525635e-01
3.768701838858877218e-01,2.515944603661818824e-01,-3.297848596079125394e-02,-1.301009277254604884e-02,7.654072716489998887e-03,-3.114873696798457076e-02,3.686734735965728760e-01
3.461365923829844982e-01,2.886772836757895422e-01,-2.720385855337315029e-02,1.960154480934906459e-03,4.931298974100794576e-03,-2.344568982477924363e-02,3.506655991077423096e-01
3.544053916791226611e-01,3.045616209523209772e-01,-2.951674383075478247e-02,9.159204658745081704e-03,-2.697049109516590215e-03,-1.402396380781820856e-02,3.627781569957733154e-01
3.535934662618110957e-01,2.527136412946375810e-01,-2.861139838433679472e-02,3.936281295593934554e-02,1.855395901295577715e-02,-2.702484195793415298e-02,3.543622493743896484e-01
3.569030150243631128e-01,2.744903612232861279e-01,-2.989217502361166123e-02,1.998452618810009004e-02,9.353495240372178623e-03,-2.328713743563298744e-02,3.572296500205993652e-01
3.540226222985081161e-01,2.823443085070279635e-01,-2.490560413614473223e-02,1.652939187166591398e-02,3.571776336921974834e-04,-1.376142010443145644e-02,3.506445884704589844e-01
3.549381782297702514e-01,2.924363874965750787e-01,-2.654974119986217018e-02,-4.224696170940100623e-03,4.533709912208206023e-03,-2.304941653829993206e-02,3.567980825901031494e-01
3.258267973286831376e-01,3.236553224302067822e-01,-8.078746188676266815e-03,5.094003171323983371e-03,4.784468130457496422e-03,-1.515281640701184387e-02,3.340776860713958740e-01
3.381998516537079169e-01,3.185335492255091383e-01,-1.197042362898964596e-02,2.793278420589166526e-03,6.925758857837915027e-03,-8.658446894000406888e-03,3.413380086421966553e-01
3.384043553549095362e-01,3.292743306048815932e-01,-2.264281122492942111e-02,1.519009898165522843e-03,6.231436083398619527e-03,3.027723317728552629e-03,3.567813932895660400e-01
3.438629192259252121e-01,3.145296291894218443e-01,2.248525457119154858e-02,1.309888762071526047e-02,4.069816585025584806e-03,2.319826012807389790e-03,3.087030351161956787e-01
3.525994455685828588e-01,2.280627884461476351e-01,-1.788188739258125826e-02,2.684980260140988617e-02,-4.725482032339098880e-03,5.431163755128452959e-03,3.300689458847045898e-01
3.259949645115596817e-01,3.337515658484971892e-01,-1.704442632160590998e-02,3.850760882897727964e-03,4.132371978065015397e-03,-5.566541833655809686e-03,3.472544848918914795e-01
3.238793431074085682e-01,3.364337326860238342e-01,1.723909050185642999e-02,1.498174240792516862e-02,3.501268380515775661e-03,6.069860283630290967e-03,3.144140541553497314e-01
3.120240284780053663e-01,3.333101851961977613e-01,-2.896702643807258504e-02,-8.518790890587256762e-03,7.465059879242234159e-03,8.316385295954679957e-03,3.529571592807769775e-01
3.380812625842677388e-01,2.806577647397278663e-01,-2.798801549213100759e-02,9.441794590725431993e-03,-4.006743203555417424e-03,8.497293069310475275e-03,3.417826890945434570e-01
3.231830516354741722e-01,3.333556952509352245e-01,-2.588665408437793025e-02,-3.279880765261002779e-03,1.325142061719282623e-02,1.202917305126573189e-02,3.556645512580871582e-01
2.994918119775775711e-01,3.368540697378066273e-01,-1.155666638487795606e-02,-1.991658038371079895e-02,1.048198114316266361e-02,1.560654946652396263e-02,3.346922397613525391e-01
3.369966209192535311e-01,3.031358338860110635e-01,-2.736724601582435357e-02,1.077437164515290639e-02,-9.481747381506488298e-03,1.156384344400138847e-02,3.501272201538085938e-01
3.145173673328875985e-01,3.268665456188372676e-01,-2.612027663422678003e-02,-2.312498714691961499e-02,7.849107522855254884e-03,1.636290713115537768e-02,3.506928086280822754e-01
3.238065865344760264e-01,3.238163370873038405e-01,-2.822186342876029097e-02,-8.027204313571343827e-03,1.204415540358403335e-02,7.658019749407194571e-03,3.531740307807922363e-01
3.073442990347186043e-01,3.285134005608232322e-01,-1.940974713388446404e-02,-3.070351789708053447e-02,6.788724788483805478e-03,6.065712394793410650e-03,3.423597216606140137e-01
2.405286894664935837e-01,3.067236341114903952e-01,-2.560465316183233031e-02,7.813312723128508497e-02,6.959388481573753910e-04,1.268797035372777951e-02,3.341020345687866211e-01
2.871191331113026046e-01,3.026034964659867765e-01,-1.728934008309737647e-02,8.023205268640566656e-02,-1.744334009487511980e-02,1.264144636916572292e-02,3.439791202545166016e-01
3.266705001028769040e-01,3.217717405509907813e-01,-3.397233737046070901e-02,3.097565592606403551e-04,1.677529574945767297e-03,3.594692569718285920e-04,3.582313060760498047e-01
3.140525361033373319e-01,2.852264322038230437e-01,-7.891072996024095509e-03,5.250845284029191651e-02,2.001459520434423342e-04,2.492462602679584166e-03,3.216961622238159180e-01
3.041939101086288400e-01,2.875232481412984820e-01,-8.416639695672079036e-03,5.409395931306006100e-02,-1.039725817961622938e-02,-9.226404493105821916e-04,3.192133605480194092e-01
2.653589282175283781e-01,2.942140960275103079e-01,-7.857600304856826590e-03,4.270924450759437663e-02,-3.186560979285188704e-03,4.210787081133501517e-03,2.981937229633331299e-01
2.651702347769181456e-01,2.950701437116377557e-01,-9.500265304534544208e-03,4.214780090954434177e-02,-4.202748389491456522e-03,4.212716960111224929e-03,2.999767661094665527e-01
2.612177993398114850e-01,3.276010299212229748e-01,-8.401792434632682216e-03,5.171517173095237230e-02,-3.315462081317606217e-03,4.608274768120843717e-03,3.211226165294647217e-01
2.704996538017933605e-01,3.041387548213244640e-01,-1.470928897885681597e-02,3.458106382018125841e-02,-1.178937708614249610e-02,1.715885603441807614e-02,3.113803267478942871e-01
3.352878147325263347e-01,3.294183430431712467e-01,-3.877205902089675416e-03,-7.965617007034634517e-04,-1.425725903856658817e-04,-6.984656696539305945e-03,3.364891707897186279e-01
3.295172055713385673e-01,3.174898109625037823e-01,-1.411300311726562673e-02,-2.590582833969318211e-03,4.517301994196407534e-04,5.391597638924971667e-03,3.379369080066680908e-01
3.289824768002080901e-01,3.147916570950768378e-01,-1.578408870836411904e-02,-1.065040702992696127e-03,2.789205702922329180e-03,2.114796375682165015e-03,3.379541337490081787e-01
3.516171916397925479e-01,2.933983954784688541e-01,-1.626641536585851644e-02,-1.678353513270490829e-02,-1.827454873829697244e-03,3.233839093526536738e-04,3.437519967555999756e-01
3.347167555573709041e-01,3.175023547654403644e-01,-2.218538782758619488e-02,-5.365280066497605214e-03,5.757397540894887943e-03,1.909151267539107178e-03,3.488959074020385742e-01
3.380606668839687412e-01,3.198469903849703866e-01,-2.957074060518033454e-02,-3.847437413770219902e-03,8.803209580816716978e-03,8.187645070675332246e-03,3.595367670059204102e-01
3.221898368748386532e-01,3.298610682910642078e-01,-3.342919108792891114e-02,-4.281417851582022815e-04,-5.099689163820323974e-04,-9.372261860874991305e-04,3.595215380191802979e-01
3.432155439773632577e-01,3.129801812836197072e-01,-2.496581115197787915e-02,-6.852027094797636872e-03,3.677368050849502430e-03,1.324797916727908816e-02,3.550317287445068359e-01
3.335441369952956703e-01,3.456446107807462642e-01,2.612571879031211353e-02,2.071796806094726873e-03,1.102467391034081361e-02,7.684731951564378709e-04,3.142478168010711670e-01
3.248250083930082632e-01,3.500652455226462290e-01,4.329463778917547190e-02,3.665206602848476714e-03,1.149298278227490686e-02,-1.348788963213710598e-02,2.966220676898956299e-01
3.425057497576678989e-01,3.353796133592540363e-01,5.462262084996116762e-03,4.544964666794301493e-03,-9.578801866179768171e-03,9.658221990706277252e-03,3.344612717628479004e-01
3.228247890431379941e-01,3.217939054973879554e-01,-3.559214276784913866e-02,8.002583942762145494e-05,5.843443713055587697e-04,1.138435896566804175e-04,3.579041063785552979e-01
3.308793383937590482e-01,3.343404814818871640e-01,5.566146967701884885e-03,1.066627800136047891e-04,-1.192908683514078659e-02,9.562915509679584952e-03,3.281278610229492188e-01
3.290885587578786797e-01,3.289271291655648799e-01,1.162034330027666984e-02,-1.410044696511023824e-03,5.042032139093551892e-03,-6.908272664262816651e-03,3.177424371242523193e-01
3.246767636030361004e-01,3.324278598665079132e-01,4.984523421284112188e-02,-3.383952885556243428e-04,9.525388465786054776e-03,-1.203980070911165115e-02,2.800537645816802979e-01
3.099858693097560791e-01,3.343583549726075743e-01,1.839775973444085500e-02,1.236138650379609710e-02,2.831357131312987451e-03,-5.338637890309486317e-04,3.052993416786193848e-01
2.927986786291390531e-01,3.462194920296133294e-01,3.172803576027755090e-03,5.037869476408273449e-03,1.009343846323186057e-02,4.382895562303141916e-03,3.203878700733184814e-01
3.164741545372161680e-01,3.502402940817176957e-01,-3.285652523112378431e-02,1.103171716310462520e-02,9.876653595896268956e-03,-4.745119792132616345e-03,3.683651983737945557e-01
3.356839280489578581e-01,3.380448128364720306e-01,-8.652139754340204547e-03,2.800371170650284118e-03,-1.718546351936813292e-03,2.068716801660067280e-03,3.455879986286163330e-01
3.236543867889611903e-01,3.425233171386406483e-01,-2.587536444120591694e-02,1.583544196657625828e-03,7.084287066045052983e-03,-6.549234737157234691e-03,3.597347736358642578e-01
3.200479050514905555e-01,3.258652712647278071e-01,-2.923847037215190903e-02,-7.775623410030617702e-03,7.637192980430414051e-03,7.760848124827171915e-03,3.529926240444183350e-01
3.178210839533784915e-01,3.251894673568273553e-01,-2.986394602975292467e-02,-3.775451270914270165e-03,6.547782712005788784e-03,1.039029909231152862e-02,3.521310985088348389e-01
3.185802625886220985e-01,3.244889307991292160e-01,-3.039146440631301793e-02,-3.276970826979019695e-03,1.653299696722788838e-03,1.246085664810789610e-03,3.520272970199584961e-01
3.147380472188243128e-01,3.292876064681223847e-01,-2.808943240161129729e-02,-1.137891255476541647e-03,9.059674970293697368e-04,5.400024782023202935e-03,3.504628241062164307e-01
3.454474931562400708e-01,2.663460201736352895e-01,-3.200521256794536251e-02,3.113742697591700276e-02,-1.687852028005735333e-02,3.106135102636975107e-02,3.542996048927307129e-01
3.185118224284685384e-01,3.292082932680247542e-01,-2.030832862714856968e-02,-6.673802094851763109e-03,-3.254020681092816957e-03,-1.426233646409527092e-03,3.445419669151306152e-01
3.349437155272976252e-01,3.262686143153928908e-01,1.607046432845621320e-03,1.173461777425416179e-02,-4.837840713203775921e-03,-1.480953609351986534e-03,3.298283815383911133e-01
3.265792971202821082e-01,3.209577305568920846e-01,-1.758915168101912729e-02,9.544338721454373106e-03,7.125541678070208482e-03,-1.398977396220367833e-02,3.428724408149719238e-01
3.408309009475233298e-01,3.218621727032727198e-01,-1.710181481440423146e-02,-1.159084209215802781e-03,5.548491797347637582e-03,-8.612222299549363719e-03,3.492921590805053711e-01
3.305743693205296374e-01,3.328990037392873802e-01,-1.237775451354364287e-02,1.950566623885483138e-03,-4.647351010310645653e-03,-1.995540022928987342e-03,3.442483842372894287e-01
3.343506229027595755e-01,3.325663189019193444e-01,-9.455553906481728443e-03,-1.271018887521130694e-02,-1.714732028428237950e-02,-9.722358735524669338e-03,3.453153967857360840e-01
3.294170662735124155e-01,3.269421289007946596e-01,-2.073997527015059017e-02,-2.776732485622911747e-03,1.927122710432848697e-03,-5.985950239652574993e-03,3.491292297840118408e-01
3.324888018781803067e-01,3.325557822859383506e-01,-1.039520901867702074e-02,-7.368973914011379620e-03,-5.732226777060553044e-03,4.662628956115103147e-03,3.433935344219207764e-01
3.266373486955718164e-01,3.363336479581046090e-01,-1.684866152876601797e-02,6.230212276381781773e-03,4.681008886505784970e-03,-6.391930341734772952e-03,3.488723933696746826e-01
3.033927155297990175e-01,3.095105494631457121e-01,-1.664720586731530116e-02,-9.390888167317701374e-04,7.620444457261245450e-04,4.019907858934209863e-03,3.232240676879882812e-01
2.648920783232401877e-01,2.698834349430831447e-01,-1.337756394515635106e-02,8.402777223141948137e-02,-1.081705605152722023e-02,1.007156872539775871e-02,3.173092901706695557e-01
2.898752694425266174e-01,2.682417691596280518e-01,-1.111665704352238215e-02,4.372810103740925464e-02,4.188355260207689973e-03,-1.018089167420938891e-03,3.005741536617279053e-01
2.972426037369370055e-01,2.883180115175462133e-01,-9.906833583755186856e-03,2.044563398584651678e-02,5.080648963167277814e-03,-2.022156857948819841e-03,3.049967586994171143e-01
3.034256371947387509e-01,2.733711975995031240e-01,-1.286157576377858214e-02,3.458452532119759421e-02,-5.591282928595417076e-03,1.050525569778418310e-03,3.084159493446350098e-01
2.939780387433587050e-01,2.669867429824083760e-01,-1.057091062927698055e-02,4.485075940332879790e-02,8.456193401188734230e-04,-1.440393247327823522e-04,3.021512925624847412e-01
2.894859966905575233e-01,2.914474469718996152e-01,-1.215262841828987361e-02,2.080696940614774545e-02,-6.853730432887119098e-03,4.748768476466216741e-03,3.051044344902038574e-01
3.270443774225380573e-01,3.303179667562335942e-01,7.996106543454423177e-03,2.129273490985638968e-03,-4.405488038852180092e-03,-2.836894430011952656e-03,3.208471834659576416e-01
3.427048062999419331e-01,2.656772867672536620e-01,-1.682592193414744752e-02,-3.410666189320349026e-03,4.857224547726934384e-03,-4.416456902034300038e-04,3.280367255210876465e-01
3.412815216344797231e-01,3.293096184054785103e-01,6.466754612310027239e-03,5.706805344906753022e-03,3.028539039488347285e-03,2.451420984090187799e-02,3.319095373153686523e-01
3.303744684775202778e-01,3.122574516314181592e-01,-1.559195516331318698e-02,1.995260252705208324e-03,-4.167071934314477838e-03,3.787575682385893507e-03,3.374317586421966553e-01
3.354355231306061502e-01,3.231395161143125749e-01,-2.975756388210429315e-02,8.569621216058203803e-03,-8.668264350557999473e-03,1.533944563678048441e-03,3.598326742649078369e-01
3.327547544579945726e-01,3.123647523563068962e-01,-7.498116548742800314e-03,1.376590180347255811e-03,2.123052736131829810e-03,6.497701350463292976e-04,3.305608630180358887e-01
3.347371068564541363e-01,3.235415231966288774e-01,-1.470092667276470810e-02,9.598853451756844679e-03,-3.427832977826381945e-03,5.159593449055851176e-03,3.445455729961395264e-01
3.353640021404121763e-01,3.146006649653617093e-01,-1.410461967201756539e-02,1.959788639045963524e-02,1.248879323248152902e-03,2.380933107742823698e-02,3.437453508377075195e-01
3.051140622282638715e-01,3.587367555312738210e-01,3.809953200161494968e-02,-3.614765103373063226e-02,-1.408951755061009850e-02,-2.451176063701940300e-02,3.079093694686889648e-01
3.360363739952282325e-01,3.074894387505267002e-01,-1.308382766899110483e-02,9.025336759730157379e-03,-6.887599592625628583e-03,2.197473818410338939e-02,3.384802639484405518e-01
3.115424166316259624e-01,3.392368103370193566e-01,-3.147327261448001900e-02,-1.992946877916251195e-03,-6.755749860430530773e-03,-4.048189400928743110e-03,3.579446375370025635e-01
3.054539696810917859e-01,3.368441093749264814e-01,-3.438460134393558909e-02,-3.497872827514784087e-03,-6.160409536899343931e-03,-8.767338872197730226e-03,3.571054935455322266e-01
3.817358299403116328e-01,1.865925556966123444e-01,-8.034812158859422349e-02,-1.389153176083127161e-01,9.851330286684842688e-03,2.540080277714063320e-02,4.706899821758270264e-01
3.204009276243036664e-01,3.189812928934365188e-01,-3.022420487193455685e-02,1.993237622546053470e-03,5.250794991533568393e-03,-3.481657713040794792e-03,3.501046001911163330e-01
3.190468179178571617e-01,3.190480066334822618e-01,-3.079893598478367078e-02,1.255316581240005155e-03,2.731552629876103904e-03,-4.201292439874042273e-03,3.499607443809509277e-01
3.192236690790359877e-01,3.222383096727696739e-01,-3.273280385328791731e-02,2.317511020005735747e-03,2.863556055238615505e-03,-1.376396383959533221e-03,3.535390496253967285e-01
4.091483381814391418e-01,1.962409347605093557e-01,3.427716493090213201e-02,1.716220483341471606e-02,2.956352749906991650e-02,-5.079763222905712972e-02,3.424791097640991211e-01
3.258966425720123961e-01,3.252895151430263976e-01,-3.022439096821777360e-02,-1.489747139659103597e-04,4.089087306267105357e-03,-3.936966141333761611e-03,3.559537529945373535e-01
3.228200732205266377e-01,3.188171259743852737e-01,-3.003313715668756712e-02,1.741354105100828293e-03,4.729729929296073478e-03,-4.512733962730277985e-03,3.510644733905792236e-01
3.261428034761529315e-01,3.291749808722670423e-01,-3.305420936240707763e-02,-1.922424940108624029e-04,2.191413139956289741e-03,-1.418399259837190918e-03,3.607511520385742188e-01
3.237971546918323451e-01,3.226557617458769567e-01,-2.999486490237024405e-02,2.445675859381853459e-03,7.259517399138154872e-03,-7.280674261460597096e-03,3.536967039108276367e-01
3.280666672284061613e-01,3.127262962193531060e-01,-3.242076136560473332e-02,1.025672142043443672e-03,6.031797402296335334e-03,-5.472490972891508668e-03,3.533534407615661621e-01
3.243357916531539598e-01,3.246793830007939086e-01,-3.277539026286555024e-02,1.109979395045052313e-03,7.745047292780627562e-03,-6.306710424950787326e-03,3.577068448066711426e-01
3.219025371313574690e-01,3.229931117131151219e-01,-3.000871630267534784e-02,1.770803098745442426e-03,3.416492429926132161e-03,-2.441325133552853070e-03,3.525461852550506592e-01
3.233268129655680889e-01,3.250672071658500251e-01,-3.314766881851508029e-02,4.747621669185349080e-05,3.983270369633863141e-03,-2.747311886418417944e-03,3.574461340904235840e-01
3.232784241776316958e-01,3.189344514220421312e-01,-3.330724833583725841e-02,9.528985515162302373e-04,3.086519657533896930e-03,-1.673964295006175745e-03,3.544896543025970459e-01
3.232755225058883131e-01,3.230584913226934307e-01,-3.364379311624302038e-02,-5.082278670083072549e-04,3.736716681689109844e-03,-3.630042705435334704e-03,3.569260239601135254e-01
3.207113943631802466e-01,3.197739313550566065e-01,-3.243785675652502420e-02,1.379007603695017172e-03,4.352349409122627417e-03,-2.826048364446772949e-03,3.528040647506713867e-01
3.447724314690158165e-01,3.228618627113147288e-01,-2.600331272818418027e-02,-2.726547995630108912e-03,-4.393569724894598287e-03,-6.287466719483685539e-03,3.605962097644805908e-01
3.282058230761337181e-01,2.731822123990377271e-01,-2.985728474141333133e-02,5.248315317887507214e-02,-3.517540126843751724e-02,2.120597812843337537e-02,3.533543646335601807e-01
3.154403774346455913e-01,2.907972345302545225e-01,-2.311809632468955766e-02,2.512407704738615910e-02,-2.267719824516163662e-02,1.345342008279514293e-02,3.329645395278930664e-01
3.058548948867955142e-01,3.206801458765305424e-01,-2.481056626428418399e-02,2.760399341960596831e-02,-1.754113514770034091e-02,1.983309574753998675e-02,3.447473049163818359e-01
2.962909058383682570e-01,3.069381879796583834e-01,-1.623279895305276832e-02,4.505092367912989088e-02,-1.463710163395399999e-02,1.707728340837206052e-02,3.297246694564819336e-01
2.939172698759802138e-01,2.733595292311653546e-01,-1.471781820126363827e-02,6.015309551562714185e-02,-1.249246785813630696e-02,1.030952603714660985e-02,3.177666366100311279e-01
3.165843039357076893e-01,3.235810953317421745e-01,-2.111906093577642363e-02,-1.902625103508081075e-02,2.069392921827003726e-02,2.222563559708329306e-02,3.468544483184814453e-01
3.182564623261838754e-01,2.901528971738061569e-01,-2.254247513710339046e-02,-2.995958272167189435e-02,1.427966472039397285e-02,1.248948593698161365e-02,3.333593904972076416e-01
3.198233851077197931e-01,2.996489448539722544e-01,-2.511479439199881813e-02,-3.731516857905101126e-02,1.486967477985885570e-02,1.797903416123799308e-02,3.438615202903747559e-01
2.332353755257047800e-01,3.158483024699322850e-01,-1.303288972502375520e-02,-7.413684026820729911e-02,2.788248233905088816e-02,1.835324415334725970e-02,3.280998766422271729e-01
3.193367548685497326e-01,2.931051173017807931e-01,-1.319704046779307527e-02,-3.844994699406986682e-02,1.394762002295626621e-02,1.267748997682217882e-02,3.287017941474914551e-01
2.606570241108728814e-01,3.258061139959049224e-01,-1.268655909679955451e-02,-9.302007667418385473e-02,1.303218116549698796e-02,2.424943672843513781e-02,3.535548448562622070e-01
2.860194981508157874e-01,3.268704163511923499e-01,-1.949124203844729286e-02,-4.613853234169874168e-02,2.236721301411322832e-02,1.366167855396226843e-02,3.404895067214965820e-01
3.470581422435218277e-01,2.340899379255697577e-01,-9.123928885667625943e-03,9.169476945536406132e-02,3.912620425066751229e-02,-5.500971568626780717e-02,3.718666732311248779e-01
2.594643691800416763e-01,2.743602120066727101e-01,-1.438933747938864194e-02,-8.103884711137249175e-02,1.571749246838806055e-02,1.100319011635583939e-02,3.163909614086151123e-01
3.582527002189814791e-01,3.258593777948313175e-01,-4.000376801718552588e-04,2.203230617907482591e-03,-1.146543950194287877e-02,-1.345320847750535072e-02,3.449856042861938477e-01
3.717638951663493896e-01,3.381783069385286833e-01,-1.085067056998789692e-03,-1.194788431650100485e-02,-1.186547701608559047e-03,-1.954370173436916630e-02,3.594444692134857178e-01
3.415349011129836243e-01,3.328913523701854116e-01,-4.591783525120712861e-03,-1.964279001656368383e-03,2.454820408512481031e-04,3.985755228596545019e-03,3.419737517833709717e-01
3.409531844197343231e-01,3.169869728630964056e-01,1.878817414429906352e-02,5.546856893336764771e-04,-1.298146273663344829e-03,2.687951963817862815e-03,3.109200000762939453e-01
3.438547766922484539e-01,3.240539059277409151e-01,1.854929471354779813e-02,-5.763198142525916175e-03,4.817934521850707457e-04,2.319461465545050085e-03,3.160551786422729492e-01
3.420003224821313581e-01,3.324934948762800491e-01,-4.642734212827265283e-03,4.069790065074603037e-03,-7.391804822776007131e-03,-1.555712878826083848e-02,3.433598577976226807e-01
3.521633214891107810e-01,3.163161814654876225e-01,1.755539957840107634e-02,7.824236359118448558e-03,-2.457056954763592836e-03,-1.234815812832626512e-03,3.185264170169830322e-01
3.496164395624252186e-01,3.459604096233526715e-01,2.035304911024327090e-03,8.076267406974983049e-03,7.566146029798129398e-03,-2.922838465448894182e-02,3.499793708324432373e-01
3.369454756998581102e-01,3.184490797734615963e-01,-2.496675214606583482e-02,-4.369159511547381775e-03,6.830064944086586959e-03,1.200673077202419128e-02,3.539183735847473145e-01
3.258066726709085148e-01,3.043794777653755501e-01,-3.120408551734152325e-02,-1.864906824809862626e-02,-5.641796840951782306e-04,3.212323836322826965e-03,3.483408391475677490e-01
3.292118265532760768e-01,3.192861617334857849e-01,-2.903213993858011488e-02,-4.907205294597758068e-03,8.406780882813517583e-03,7.602727019718118727e-03,3.540326356887817383e-01
3.185473568966264990e-01,3.176862275551773918e-01,-2.771155898604857337e-02,6.706587584911948702e-03,-5.531697024517144741e-03,3.053444273381544175e-03,3.461972177028656006e-01
3.293380987515118763e-01,3.141919726944185642e-01,-2.814441863201733174e-02,-4.856445648423044457e-03,8.388635518616932574e-03,4.687364252336533033e-03,3.506514728069305420e-01
3.123109944754303147e-01,3.260551774574981243e-01,-2.394049628261321616e-02,-2.462104092775656283e-02,7.314450062826136773e-03,1.848111047318259925e-02,3.476768732070922852e-01
3.185430033916437087e-01,3.299241936229745376e-01,-3.202426318159207197e-02,5.374659361143980119e-04,2.766115245749920827e-03,-2.853867646515975687e-03,3.564618825912475586e-01
3.220878857303420273e-01,3.284232104697476506e-01,-3.402627424876161766e-02,-9.040328875549493836e-04,2.922930545220001975e-04,1.247489404268626667e-03,3.593339622020721436e-01
3.373962798935665752e-01,3.170440781787044471e-01,-2.750456712390414449e-02,-1.893735884002695560e-02,1.341616828340255405e-02,1.769077333602858335e-02,3.587409257888793945e-01
3.239213217879386431e-01,3.381410352933041930e-01,-2.830268853774103865e-02,1.819936276812807521e-02,-1.839349296952632815e-02,1.064928316938358425e-02,3.627965152263641357e-01
3.080866100976107913e-01,3.301341357328324011e-01,-1.724820526368209261e-02,1.097595614770828162e-02,-1.460668023682873233e-02,9.560724993047487602e-03,3.387880921363830566e-01
3.270730791085829647e-01,3.311647926146613075e-01,-1.822420838627558659e-02,4.652171150487978066e-03,-1.122191256734968168e-02,9.523554022530415081e-03,3.483886122703552246e-01
3.284121448391781328e-01,3.322502605730763836e-01,-1.882435410103963647e-02,1.734983270229814491e-03,-2.424236655164023046e-03,5.467019100049168214e-04,3.492108285427093506e-01
3.266417224980144862e-01,3.231403556170849845e-01,-2.802754976095317430e-02,6.615070491323496449e-03,-7.181219833779770023e-03,1.033897282906968973e-02,3.537900447845458984e-01
2.872310793586388411e-01,3.575023277072009176e-01,-3.675744298373287422e-02,-1.060544772085300451e-02,-2.788420096807375098e-02,-7.762172318488930883e-03,3.681364655494689941e-01
2.782339419157211502e-01,3.605548308180444028e-01,-2.836591981582972655e-02,-2.861064515709517159e-03,-9.300691270053441234e-03,-2.268285994303357624e-03,3.554142415523529053e-01
3.025846638493758234e-01,3.735319570665085465e-01,5.018586300534949585e-03,-1.952835853728847326e-02,-8.004098198161491845e-03,3.121708216227834631e-03,3.406700789928436279e-01
2.375420139552930909e-01,3.868555494939263095e-01,-1.864297202804088283e-02,-3.779915140567636361e-02,-2.308655208313413476e-02,-1.989956633021617086e-02,3.650348484516143799e-01
2.593765325346841233e-01,3.596796865767873386e-01,-2.621067839565111024e-02,-9.076108910726262899e-03,-2.800707210286587298e-02,-3.462765163984033411e-03,3.505743443965911865e-01
3.233781206803047481e-01,3.414815143900762351e-01,-2.672554614120853378e-02,-2.790584784494632917e-03,-1.035077767296670517e-02,-5.349631083966595486e-03,3.600958287715911865e-01
3.035681730050671101e-01,3.615943203307250275e-01,-9.320349827757867800e-03,-1.991538064474991307e-02,-4.582160702960644608e-03,9.927194859263002626e-04,3.473870754241943359e-01
3.267906701607411479e-01,3.509523354496301151e-01,-2.624953708486021942e-02,-1.039941324923711503e-02,-1.126120235684344856e-02,-1.512384770973915866e-03,3.666919171810150146e-01
3.291656608268421769e-01,3.331994244258529303e-01,6.215907868975603656e-02,7.340836481611229302e-04,-1.046350851764472466e-03,1.405041839911323753e-02,2.701536118984222412e-01
3.326217948489966769e-01,3.063238430141643764e-01,-3.264679584371407706e-02,-1.166550260382244637e-02,-7.382442738361663821e-03,-2.520491278226843612e-04,3.536648750305175781e-01
3.345231212918462482e-01,3.198515368212783705e-01,-2.881543083140619688e-02,-4.102430467261087253e-03,-1.534477497738502560e-02,-1.042975775134433181e-02,3.577466011047363281e-01
3.241407575781611872e-01,3.234491824504071023e-01,-1.657360000089985741e-02,-3.154009498474321868e-03,-2.876794600860817491e-03,-4.813637226786653643e-03,3.405514657497406006e-01
3.267519759486713360e-01,3.313169553567059111e-01,-2.630801020957757030e-02,-7.350746872072332766e-03,-1.184710362713829387e-02,-1.030532634257579766e-02,3.566309809684753418e-01
3.243630618197848592e-01,3.224226721745506730e-01,-1.591214171339047634e-02,-5.333362383551449627e-03,-2.193426955358973411e-03,-5.851156393669300869e-03,3.396074175834655762e-01
3.806346278556721474e-01,2.433764504373829018e-01,-3.700647295291931149e-02,4.205308416113390235e-02,-4.320582551462643674e-03,-1.783650053249298886e-02,3.771671354770660400e-01
3.580049980075373783e-01,3.115693679347956158e-01,-2.451071293270640217e-02,-3.874021378985888740e-03,-3.450995969715143358e-03,-1.529557505983557796e-02,3.626221120357513428e-01
3.294411141350193084e-01,2.464172704145155546e-01,-1.362967707846587939e-02,-3.868483593964994888e-02,-1.123471529108432216e-03,4.397969895809841941e-03,3.172677755355834961e-01
3.410357724481233310e-01,3.118477369719309111e-01,-3.122553342506090290e-02,2.157005314205110748e-03,1.765442978794728741e-03,-3.890026356404837488e-03,3.586551845073699951e-01
3.433225961098005929e-01,2.622050777648758935e-01,-2.707270361644878442e-02,-1.673679672056001613e-02,-7.040509850830023973e-03,-1.050879739335350456e-02,3.391866087913513184e-01
3.424813928695662479e-01,2.633231745536942503e-01,-2.702643261078588321e-02,-6.526588395105420437e-03,-7.061826928371070337e-03,-1.230632810772606077e-02,3.380594849586486816e-01
3.351856804920247956e-01,3.054305378255902093e-01,-1.904012404988855711e-02,-9.729828563420686235e-03,-9.145770242247089690e-03,-4.649766023637581965e-03,3.412052989006042480e-01
3.500806717867808171e-01,2.905682758994161397e-01,-9.856135603322935257e-03,-9.770125688266580177e-03,-4.421395001562327580e-04,-6.232905061412667876e-03,3.347820639610290527e-01
3.503927544701915808e-01,3.112720021617508825e-01,-2.701492367952243456e-02,-4.552329610982640273e-03,1.837498263997393516e-03,-1.565620098459369336e-02,3.605692386627197266e-01
3.292072653358084633e-01,3.058306310923710747e-01,-2.914254251318323941e-02,-1.223674335428915488e-02,-6.787562875632936841e-04,-3.084843038678691633e-04,3.479007482528686523e-01
3.351298731061114755e-01,2.663527826968286605e-01,-1.126180076596683399e-02,-2.749397105181754924e-02,3.213948105297445134e-03,-1.760636521517207559e-03,3.212502300739288330e-01
3.544029870079561384e-01,2.788777091425920229e-01,-2.666742955639025969e-02,7.209125161770197319e-04,-1.449265285329834688e-02,-1.469412751635663060e-02,3.513085544109344482e-01
3.425758551801202367e-01,3.141607100073428582e-01,-2.582719296574131906e-02,2.975173646488759021e-03,8.365968688417586006e-05,-1.824435070163920800e-02,3.564900457859039307e-01
3.498655218948957257e-01,3.274678549778673453e-01,-2.832859377336535700e-02,5.473922126335797715e-03,1.053943360267441424e-03,-5.332830379817296964e-04,3.676354885101318359e-01
3.552355266442865922e-01,2.925693711063683256e-01,-2.992001927531928729e-02,4.478232779581328704e-03,-5.825440298265254814e-03,-2.648413520761806056e-02,3.611119389533996582e-01
3.628053560350004147e-01,2.888857816495267183e-01,-3.810382109226934100e-03,7.649901727893541198e-03,1.107751240690781937e-02,-1.439781520553029374e-02,3.375451266765594482e-01
3.871781160263946808e-01,2.904510845899977989e-01,-3.282256594629306967e-02,-4.063583154201927221e-03,8.638644915132180982e-03,-2.434633703327045151e-02,3.836442530155181885e-01
3.716403564444636931e-01,2.927821842745062519e-01,-3.218010866530918168e-02,-2.650347124003661885e-03,-1.382347370161054849e-02,-1.375045463252905567e-02,3.722990751266479492e-01
3.281886998247624532e-01,3.192393760196772234e-01,-2.568745601098565423e-02,-1.146464841344956888e-02,1.088467678945230846e-02,1.102768586674789109e-02,3.510783910751342773e-01
3.140833783410612590e-01,3.453576124251749313e-01,-2.688284433104606852e-02,-6.151803617948342628e-03,3.398862409212577776e-03,5.117179322847311730e-03,3.579472601413726807e-01
2.913060506368321256e-01,2.899825180519015611e-01,-1.233106171223136149e-02,-1.855810423247371624e-02,-3.223508114582345711e-03,-4.000196328559807099e-03,3.048077523708343506e-01
3.239609416386932672e-01,3.081119306845395700e-01,-2.737516332515768647e-02,-1.684183362660563593e-02,1.050555962167261902e-02,1.532848736928629080e-02,3.464200496673583984e-01
3.185993127212682907e-01,3.227091491912126853e-01,-3.022715841083939425e-02,-3.687855224412727416e-03,7.237447350416104271e-03,6.917434430181484267e-03,3.513857126235961914e-01
3.218590355561534722e-01,3.248610235159219983e-01,-3.305725744698709279e-02,-9.028266733293983329e-04,3.007140407766667380e-03,4.310585896248269634e-03,3.565464317798614502e-01
3.509393498330602990e-01,2.122070643198154527e-01,-1.238447968557038203e-02,-9.010841785431039641e-02,-1.049178683255266170e-02,-7.756989168994444898e-03,3.545637130737304688e-01
3.264645608009209554e-01,3.237615822798320386e-01,-2.915023481899223223e-02,-1.306726708611349961e-03,5.644550406181223119e-03,3.264311509074344086e-03,3.544582426548004150e-01
3.260928355245240606e-01,3.298697451120726210e-01,-3.226997437230880172e-02,-5.851929008141352031e-04,1.611300000143275771e-03,-6.323633745905104554e-04,3.602800071239471436e-01
3.271168994808226205e-01,3.203386469478932685e-01,-1.152731405395565623e-02,-2.336195302650175692e-02,-1.396829602286760001e-02,9.806572138404193867e-03,3.390304148197174072e-01
3.305723277079399836e-01,3.194016644273848793e-01,-1.436139889119261714e-02,-4.056139555583258491e-03,3.640147429174523004e-03,-1.980974281963247385e-03,3.396348059177398682e-01
3.300919604621077585e-01,3.260585399847276689e-01,-7.890532752954093620e-04,-6.066848422140118553e-03,-2.271953695713297902e-03,-7.989666447873132113e-03,3.293650448322296143e-01
3.399119598279272125e-01,3.197544409437927393e-01,-9.071458663370002284e-03,-5.968777477956021746e-03,-2.380606054573281612e-03,3.520352149343259577e-03,3.395911753177642822e-01
3.283171590996560862e-01,3.267153502737508153e-01,1.111822019813205054e-02,-4.068643709798091222e-03,7.574780524038713173e-03,-4.505779680543969823e-03,3.168475031852722168e-01
3.329581825897021119e-01,3.254162764135323793e-01,1.122270097417849000e-02,1.915424900344206080e-03,-1.096996354830167067e-02,-1.103862250060604110e-03,3.186216950416564941e-01
2.436820228286775969e-01,3.619322317591528448e-01,-4.047207994343626769e-02,-1.285711405874119615e-03,-1.892999626459974938e-02,3.404094346087208674e-03,3.597814738750457764e-01
2.171992386916428430e-01,3.663441789886496824e-01,-1.473214497936739531e-02,-4.933258997507470982e-03,-9.221705180174828362e-03,-1.080052298757698667e-03,3.331056833267211914e-01
1.887648931519900486e-01,3.690779326897906665e-01,-1.202382579915550753e-02,6.270858317260374036e-03,-2.789357467066647112e-02,6.438296968456710262e-03,3.340811431407928467e-01
1.805282576562972363e-01,3.875392759680402754e-01,-1.514650031400874286e-02,9.826325675767759796e-03,-5.285808998779389922e-02,9.023115656516693395e-03,3.613376021385192871e-01
1.494064958461116532e-01,3.839313475240173634e-01,-3.030367791907989661e-03,-3.828947293750169928e-02,-6.096525400578339804e-02,-1.276850361935406679e-02,3.605922460556030273e-01
1.858701490180837412e-01,3.686476774647202692e-01,-1.271490647288320286e-02,-8.574211700104925407e-03,-2.979507495753248164e-02,-7.413143475874222482e-03,3.349465429782867432e-01
3.170474113321611886e-01,3.174646768885676096e-01,-2.991698814658630412e-02,-6.863536243785774496e-03,4.877566319917564508e-03,3.639114737297462817e-03,3.475365638732910156e-01
3.150244681163995031e-01,3.321025826909085321e-01,-2.942903212611003294e-02,-2.899855293142949292e-02,1.422700082604001597e-02,1.198509624973343596e-02,3.583062887191772461e-01
3.058055041781295724e-01,3.319248305377415775e-01,-2.621541556680370699e-02,-2.068917931635468055e-02,1.641774363436886500e-02,1.309069513134138857e-02,3.495699167251586914e-01
3.759105841164513961e-01,3.275829623890338382e-01,-7.311121495926220515e-03,1.301634371840750676e-02,-1.459699666138379549e-03,-1.546276491817118875e-02,3.631889224052429199e-01
3.601842401548885908e-01,3.301997426611010811e-01,-1.835423278856743168e-02,2.874828607510957618e-02,1.682614652488373733e-02,-2.057768405592782721e-02,3.707279860973358154e-01
3.473644868085331017e-01,3.434959382171812736e-01,1.992835089043701324e-02,-9.070357281029714069e-04,-6.544656010987554007e-03,6.435521975292356894e-03,3.259108662605285645e-01
3.245619142210441899e-01,3.285827930239955119e-01,-3.231717914849879802e-02,5.240547867966002370e-04,8.094753791593656180e-04,1.359442503372640864e-03,3.589180409908294678e-01
3.712384256705476560e-01,2.955441762549511076e-01,3.264674454185353958e-02,5.192702469972113044e-02,1.090978599379393600e-02,-3.605911205385003288e-02,3.272485136985778809e-01
3.708844922300352787e-01,1.928510854353709114e-01,-1.028336993266174004e-02,-3.205230205252482256e-02,-3.712735162741167758e-03,-7.498368031025728908e-03,3.352853953838348389e-01
3.047906767508548054e-01,3.373661708711916951e-01,-2.498961698649646013e-02,3.401133622114783060e-03,-5.124353558032380615e-03,-3.136051300817797264e-03,3.474218547344207764e-01
3.166777999208513217e-01,3.331742810617962514e-01,-2.750664026507781967e-02,1.855639145020744618e-03,1.054661262891191942e-02,-7.618163173586593728e-03,3.534558415412902832e-01
2.930090765740183678e-01,3.395023176450240321e-01,-2.695956584500425190e-02,2.122565192125051153e-02,1.563135596103926855e-02,-7.677159240990008571e-03,3.488256633281707764e-01
2.989468644735514546e-01,3.350805089464558018e-01,-2.845005895384530858e-02,8.522987894392264341e-03,9.030073837146761206e-03,-1.025214403663059388e-02,3.479975461959838867e-01
3.234639330232554344e-01,3.320929758292924250e-01,-1.992322000013910244e-02,2.960784750871061667e-03,-4.106788856444697832e-06,3.304561578859399346e-03,3.478668630123138428e-01
3.232186909058917257e-01,3.189443757562592241e-01,-2.978703675040964005e-02,-6.730781199248483948e-04,-6.280412841333122068e-03,-5.747696102875172845e-03,3.511997461318969727e-01
3.031763057105354431e-01,3.312859333578426213e-01,-2.793408498637584003e-02,1.007286545827087813e-02,1.092904935642031658e-02,-1.084531013448051390e-02,3.474870026111602783e-01
3.217690249139824599e-01,3.271761213621778852e-01,-2.657764705503881664e-02,6.403782682323829606e-03,7.701855815675987330e-03,-7.114765485248412090e-03,3.517257869243621826e-01
3.211082282806623223e-01,3.139220277761436417e-01,-3.205120647835252301e-02,-5.403739599868871875e-03,5.936746427505104791e-03,3.783617309046777722e-03,3.499594926834106445e-01
2.970090221048421464e-01,3.013823782545899665e-01,-1.099908789778059059e-02,1.715537511799239759e-03,2.812796739223514584e-05,-2.362030740564884416e-04,3.102324008941650391e-01
3.239183976245921248e-01,3.226796179526747466e-01,-2.133375175633245302e-02,-4.765212839373536395e-03,6.091681061015078238e-03,8.841807818184115866e-04,3.448980748653411865e-01
3.255899458412209180e-01,3.238479549223543530e-01,-2.976049616039369572e-02,-3.411501304662994428e-03,7.376056790807186854e-03,3.885207637238331443e-03,3.548258244991302490e-01
3.114782750905593645e-01,3.106566626711760870e-01,-2.700946332091050395e-02,-1.525560614201023485e-02,1.047056454743382041e-02,1.517923148534275866e-02,3.406095206737518311e-01
3.005909041025763839e-01,2.932112384184752396e-01,-1.102633186473392368e-02,6.391645563396799318e-03,1.558337684621093023e-03,-2.400852839022847270e-04,3.082047104835510254e-01
3.095400715301064865e-01,2.941509303361854455e-01,-1.482566736390450446e-02,1.847518168516427278e-02,7.234910107222036584e-03,-9.042499956408508663e-03,3.191936314105987549e-01
3.068138605640025607e-01,2.720327012576841952e-01,-1.057749134441793304e-02,1.264631044396628476e-02,1.594015799934109462e-03,-1.324542406592745750e-03,3.023250401020050049e-01
3.078156713674224942e-01,2.764315736749204389e-01,-1.413976885239953685e-02,1.303069174242652006e-02,4.006579271759570272e-03,-3.369460065556426943e-03,3.084276318550109863e-01
3.160086188145808661e-01,3.062681321573560433e-01,-2.429192982429881353e-02,2.944022208169298077e-02,-2.023484819445956276e-02,1.934836312533374375e-02,3.428356051445007324e-01
2.881968561904403314e-01,3.230274630198847197e-01,-2.272352299045860002e-02,6.964048484098406266e-02,-8.054598385978314901e-03,2.761103450117053174e-02,3.546058833599090576e-01
3.019570502337364237e-01,2.910896164239917261e-01,-1.807005268856579083e-02,2.771297492676746271e-02,-1.009480696243083078e-02,8.144373415726114881e-03,3.191650211811065674e-01
3.204937606672427775e-01,3.234332701881018624e-01,-3.071617597999512506e-02,4.524115843466930409e-03,-5.740599455437324881e-03,8.099375016444582479e-03,3.531947135925292969e-01
3.234936088150984768e-01,3.081479098685340756e-01,-2.117036392756599383e-02,2.226390768255458522e-02,-2.240764137060515318e-02,1.950729085956198761e-02,3.433286845684051514e-01
3.209782417208506544e-01,3.126607653118019803e-01,-3.079855092780348080e-02,8.153439392828785298e-03,-1.028876928238036705e-02,8.927156440120100414e-03,3.487782776355743408e-01
3.198996500526510856e-01,3.094149083339098882e-01,-3.037192564066412692e-02,2.011957661998477545e-02,-9.072344908737603811e-03,1.149773940524082515e-02,3.478296995162963867e-01
3.216955174333331335e-01,3.170353106234441443e-01,-3.033023744308144254e-02,-2.517981134096358015e-03,-3.923877505200836988e-03,-3.319729730662353100e-03,3.498594164848327637e-01
3.181154721645954586e-01,3.220038214122529219e-01,-2.956221550622645244e-02,-4.005023325837167060e-03,-6.212193640610440097e-03,-7.192957053710829010e-03,3.500941395759582520e-01
3.228560905569491379e-01,3.230944232200428923e-01,-2.938212657772770742e-02,-5.212090302325112813e-03,-6.678374319349486901e-03,-4.366906063369983132e-03,3.527439236640930176e-01
2.905588947433269675e-01,2.922215886041270583e-01,-9.233447847721232282e-03,-1.793780649277932140e-02,-8.997562303045875034e-04,-2.806669054429161724e-04,3.022327423095703125e-01
3.187507301176642494e-01,3.184143335436987465e-01,-2.884167635096981930e-02,-1.223019588677084395e-03,-3.900075307736403443e-03,-3.982254670193652486e-03,3.475649058818817139e-01
3.188192032867311898e-01,3.095492176936883721e-01,-2.685249343050985504e-02,-6.647756823467418710e-03,-7.836889122053262990e-03,-6.402349111989988351e-03,3.417751789093017578e-01
3.194964669022000159e-01,3.232737880826092591e-01,-3.318800422372439329e-02,-2.696527065077257597e-03,-2.732860566601189728e-03,-2.717191456817783565e-03,3.546817898750305176e-01
3.590420932242950336e-01,2.407880538250131153e-01,-1.522951586318743722e-02,-4.919472921105731006e-02,1.102674578641759870e-02,1.562884075739194578e-02,3.437470495700836182e-01
3.579504108970288923e-01,2.287830148853644829e-01,-1.526885694440438535e-02,-5.592058522285735245e-02,4.555771296750761243e-03,1.194869972549459335e-02,3.429883122444152832e-01
3.898595701999135188e-01,1.766206753069622937e-01,-1.488578998633696693e-02,-4.602871787251848479e-02,6.079149842277514065e-03,2.221470580633193304e-02,3.618417680263519287e-01
3.630074372944873673e-01,2.230010543834932968e-01,-1.546775387003063162e-02,-3.485481366293070177e-02,1.286574616332991292e-02,2.261428580630101340e-02,3.398995399475097656e-01
3.391995089173339695e-01,3.418056708315435621e-01,4.519932968429041242e-02,-6.399107763042618906e-03,1.914947625708102869e-02,1.394992848571868435e-02,2.983552515506744385e-01
3.216192398865270197e-01,3.415785902491468295e-01,2.253295865420945621e-03,-1.064140080055615660e-02,1.765801778161699490e-02,7.718003892960957971e-03,3.319957256317138672e-01
3.270884198368398943e-01,3.667342919456681449e-01,1.614344422646701860e-02,-2.440530839666432694e-02,9.300310712564468368e-03,2.717139242826073151e-02,3.388915061950683594e-01
3.363127002468964122e-01,3.495259981568079599e-01,1.626131167910352393e-02,2.635098249526785300e-03,-7.645842533216306094e-03,2.068127445697228155e-03,3.271780312061309814e-01
3.274263932255510601e-01,3.363416063805541034e-01,8.225112002255202670e-03,-2.036090015041951140e-03,-1.145129725777574436e-02,9.632130413315039344e-03,3.248058855533599854e-01
3.231778371484693158e-01,3.342688103082459561e-01,4.217686164735770515e-02,-9.990729547862167367e-03,8.014587549697005028e-03,7.324902890347454072e-03,2.878441214561462402e-01
3.187041448380825703e-01,3.266812074819966383e-01,-3.540889976111474824e-02,1.258517524642471103e-02,1.124040053470695948e-03,1.798206356920351370e-02,3.601853251457214355e-01
3.155958317307110406e-01,3.384734277717508788e-01,-1.969730987672119182e-02,5.588234542642842202e-03,-5.491428318797023957e-03,5.565660659576634681e-03,3.476962149143218994e-01
3.156417951875544192e-01,3.270713582087552695e-01,-1.437827214668557785e-02,4.640105146756078915e-03,-5.300699098999500300e-03,4.478903952023594731e-03,3.361918032169342041e-01
3.134572830541467181e-01,3.302953816508142348e-01,-1.355012764473353948e-02,8.032757925316371880e-03,-5.384449069865763701e-03,7.120765893402663735e-03,3.363870084285736084e-01
3.202154867889864809e-01,3.216840239970012449e-01,9.638441254154084259e-03,1.737046956993301000e-02,-1.610920631971406516e-02,1.517038505810816042e-02,3.151039481163024902e-01
3.243283370916978381e-01,3.291198266451200727e-01,-3.317242455981755933e-02,-1.189065733099872475e-03,1.261233402693259439e-03,-1.477553075402277026e-03,3.599420487880706787e-01
3.258767202258023299e-01,3.371173483233945722e-01,1.900407795726641313e-02,1.141876817556891806e-02,-1.115083560593973545e-02,-6.298296279787225609e-03,3.140538334846496582e-01
3.152078783762873870e-01,3.364588322518747843e-01,-2.419332359051837300e-02,-1.993468173920326901e-03,-5.627219748341445379e-03,2.087316705295765018e-03,3.506813049316406250e-01
3.165349337413424502e-01,3.368668197319003577e-01,-2.998428045261439245e-02,-1.473241363082801588e-03,-7.180888830697706657e-03,1.300175583256451151e-03,3.573522269725799561e-01
3.158402810014700468e-01,3.306771889743623238e-01,-5.449719895844307160e-03,1.350455536295560883e-03,-3.525925709372014320e-03,1.831140803471091941e-03,3.290397822856903076e-01
5.054880237992194214e-01,1.820918186062130684e-01,-3.519960191626941848e-02,-4.832236916390741238e-02,5.834523381298631871e-03,4.283672793080484098e-02,4.844420850276947021e-01
3.189058249438581072e-01,3.291921959289070276e-01,-2.504744137116127201e-03,-2.722219873461579655e-03,-5.962759370300828180e-04,-3.518582391779744630e-03,3.267677426338195801e-01
3.122942730286255575e-01,3.350013819147394933e-01,-2.728622271243022479e-02,-1.444145922688474214e-03,-8.584445005196492118e-03,-5.663216376079090175e-03,3.519445657730102539e-01
3.147834569739766386e-01,3.334220379248886146e-01,-3.265733366843226460e-02,-6.286790977207190384e-04,2.303898487438445046e-03,-2.883774017615586046e-03,3.571839332580566406e-01
3.349402317077576630e-01,3.295158877026420630e-01,8.101590369865074859e-03,5.705963198813678722e-03,-9.404607495889239985e-03,1.336757658741908944e-03,3.247282207012176514e-01
3.362886274394955577e-01,3.289631754664961161e-01,2.248264888625173263e-02,4.066389458999817436e-03,-4.439146684102886035e-03,-4.525071149481684277e-03,3.104822635650634766e-01
3.360020441343291031e-01,3.206921889681361160e-01,-4.090623575021795633e-02,1.565813497935589563e-02,1.056651066720899583e-02,-1.173583354824656207e-02,3.714936077594757080e-01
3.263563544850406895e-01,3.320608627778239841e-01,-2.225375003901505777e-02,-2.612455520821936866e-03,1.289815736072656531e-03,-4.758744187652232810e-03,3.516299128532409668e-01
3.297065825237517345e-01,3.287327156164424058e-01,-2.226163576655992848e-02,-4.573828557367715835e-04,2.758176343848573516e-03,-2.061424284057164144e-03,3.515338003635406494e-01
3.312064520364023101e-01,2.527072969631964372e-01,-1.128512130287689930e-02,-2.978749120232433711e-02,1.461282671573808749e-02,2.382569588252697948e-02,3.187205195426940918e-01
3.317122775348238517e-01,3.398393348348798249e-01,-3.202877308791901578e-02,1.002141995154373112e-02,7.364206813167653749e-03,-6.077681978178140626e-03,3.686523437500000000e-01
3.457461264978587412e-01,2.368009376934229748e-01,-2.447193448357806722e-02,4.468650905267396167e-02,-7.807334897962397990e-03,2.411731797159237523e-02,3.413435816764831543e-01
3.258769658203565234e-01,2.415441238584376260e-01,-1.202034889275829799e-02,5.396621202471120482e-02,-3.737235901964833761e-03,5.106751974907555378e-03,3.188228011131286621e-01
3.067596258406295462e-01,2.905485973127133748e-01,-1.962743577221912061e-02,2.358008441149256340e-02,-1.454078322029511011e-02,1.766476512723875320e-02,3.236336410045623779e-01
3.044944549355218522e-01,2.661265340938138713e-01,-1.122367561967213545e-02,1.063052550092196957e-01,-3.942814981601748883e-03,1.584191694297194461e-02,3.517648875713348389e-01
3.291069021314099174e-01,2.678257027375482435e-01,-1.093822317193163252e-02,3.077615574207193117e-02,-3.687520677690611648e-03,1.247243978206218160e-03,3.184881210327148438e-01
3.016572982720206464e-01,3.011713959993849166e-01,-1.033500296859735101e-02,4.552643166652883822e-02,-6.371305957556607641e-03,6.153779995639322570e-03,3.219335079193115234e-01
3.009968867387581848e-01,2.736494815256186319e-01,-1.176364116534522886e-02,3.607741128757482180e-02,-7.466226101415527304e-03,3.886054037211130342e-03,3.068079352378845215e-01
3.584219670000793334e-01,3.114449083530922424e-01,-3.222507279725045359e-02,5.007161282709270914e-04,-1.209391465988435277e-02,9.820227105263586859e-03,3.703908026218414307e-01
3.503400949656122476e-01,3.100752227343337442e-01,-9.309691433006056505e-03,1.953344788835837884e-02,-2.752815839537852208e-02,4.722743389583490548e-02,3.558051884174346924e-01
3.049002936668789854e-01,2.880620064636488786e-01,-2.686376429105935548e-02,6.466688790248346919e-02,-2.223159747224819831e-04,1.633858952346068164e-02,3.436728119850158691e-01
3.491495008241123355e-01,3.040881524117386436e-01,-2.702158599843088038e-02,2.348142301086768302e-02,-1.037936419715196519e-02,2.280261344724952843e-02,3.607237637042999268e-01
3.314165592952970085e-01,2.904838966243071252e-01,-2.331477634210618599e-02,1.179345370988472627e-02,-9.101122470028571304e-03,6.047389180031484748e-03,3.372909128665924072e-01
3.326190934727886739e-01,3.000612010080384584e-01,-3.214314212860128195e-02,6.326827445233434467e-03,-1.431579206952587197e-02,7.830107427029730366e-03,3.509337007999420166e-01
3.472051147408030669e-01,2.871809426661602327e-01,-2.548431645218598995e-02,1.736930407805686860e-02,-1.268452476955626851e-02,9.839843303415441236e-03,3.490102887153625488e-01
3.387521025043948586e-01,3.003570656478902201e-01,-2.111266601218250716e-02,1.577422280915384556e-02,-2.875524156612714512e-03,1.607981407488125528e-02,3.445385098457336426e-01
3.473193493257313857e-01,2.990814146301860599e-01,-2.429397122218665550e-02,1.321498970274716939e-02,-1.402319651083812867e-02,2.524038078694621282e-02,3.542916774749755859e-01
3.027867879456651590e-01,2.898628839245571687e-01,-9.641853796053145853e-03,2.453992418206193266e-02,5.061090969351875538e-03,-2.277457690584230084e-03,3.092570304870605469e-01
3.226836326789727094e-01,2.503407064901748691e-01,-8.708463055502074779e-03,5.303421763958200696e-02,8.225539543441654985e-04,1.635024336523333705e-02,3.167368769645690918e-01
2.956264831351546052e-01,3.082563658624586922e-01,-8.812416128254146885e-03,2.107289658669972768e-02,5.178905181367207851e-03,-4.356458721167633108e-03,3.133004605770111084e-01
3.017846657612264227e-01,3.017145893745576402e-01,-1.385498096700679693e-02,4.981165000161300732e-02,8.829911475379138147e-03,-7.323263040922996757e-03,3.277875185012817383e-01
2.817165634074748626e-01,3.404204172211207635e-01,-2.513009261462711974e-02,5.896059167663608713e-02,3.793704913388507016e-02,-1.985690058520286211e-02,3.626895248889923096e-01
2.442907358881896696e-01,3.513572945908761680e-01,-1.869337799286666102e-02,3.638886076322878083e-02,6.401964297859785887e-03,-3.574479431994303374e-03,3.360274136066436768e-01
2.600353265123906965e-01,3.225976612039092029e-01,-8.500500834021956775e-03,9.401071870416606580e-02,2.890019298460919789e-03,2.300452141048674615e-03,3.455151915550231934e-01
3.271936865763678259e-01,3.303930717396341699e-01,-1.917823672560589610e-02,-2.940847165648694645e-04,6.545654062358009090e-03,1.471508059240068641e-03,3.481769859790802002e-01
2.874079118182616410e-01,3.269704633524516679e-01,-2.711595485846562958e-02,8.441040480036748894e-02,1.552891002407708575e-02,-1.297824288389310549e-02,3.681547641754150391e-01
2.657857080528411298e-01,3.018466632666886862e-01,-1.005069458979965247e-02,4.232814490517838868e-02,-2.304642208008635465e-03,-3.602122931433428352e-03,3.045700490474700928e-01
3.349354986402428014e-01,3.219985954618240775e-01,-2.637050546981517529e-02,1.438674035924409744e-03,-4.274848849640649866e-03,1.131513937181878073e-02,3.556407392024993896e-01
3.366745384665514873e-01,2.991614596900384337e-01,-7.641949029479455646e-03,1.947992287619569260e-02,-1.571450023587534633e-02,1.426811063075490368e-02,3.309602439403533936e-01
3.298544914353472857e-01,3.267277717620107325e-01,1.319264151627633219e-02,6.489708583051459825e-03,7.559445140728059554e-04,4.462457504951292987e-03,3.154079914093017578e-01
3.165230952256734009e-01,3.850742434612639542e-01,1.178382153221657624e-02,3.187432852667533394e-03,2.860769656308400494e-02,2.021187665490410679e-02,3.495236039161682129e-01
3.392759297607089719e-01,3.289857707401325770e-01,-7.544998142974573829e-03,-3.252413053418842272e-03,-8.993537218775621983e-03,3.233516282241179294e-03,3.422390222549438477e-01
3.449112560159538488e-01,3.206135337011457032e-01,-2.379344625252322043e-02,2.757704771351464617e-03,6.010399800635483729e-04,1.118867584961366797e-02,3.577349781990051270e-01
2.937037927773834545e-01,3.010018469925613283e-01,-8.831166467681422771e-03,2.501167668236178171e-02,3.023425802724998175e-03,-4.239581900415585053e-03,3.094295859336853027e-01
3.005810915183174670e-01,2.956737335496122387e-01,-1.355625441998237202e-02,-5.680837757188359968e-03,3.131082504562259904e-03,1.578545739579995111e-03,3.119270205497741699e-01
2.933169919036346385e-01,2.652284808983688125e-01,-9.268275677389054001e-03,4.337569450240917612e-02,4.907911916579000243e-03,-4.753045997768066966e-03,2.993860840797424316e-01
3.096685338366425566e-01,2.888687567402237755e-01,-9.081787702803184592e-03,2.247441221821916066e-02,-3.790365445436055629e-03,5.584520404757321345e-03,3.115387856960296631e-01
3.265647319327867337e-01,3.280332619931675131e-01,-2.665265912951628180e-02,-9.880695532831877681e-04,2.266532563521681497e-03,-8.720500701911071319e-04,3.539830744266510010e-01
3.015607674603791866e-01,2.649268983342937256e-01,-1.046818706634591867e-02,4.078011311653950005e-02,-4.208811569052508909e-03,6.067910137955385974e-03,3.040163516998291016e-01
2.843701043540163287e-01,2.837815250257827437e-01,-8.757823823924537621e-03,4.366113039809672858e-02,7.161015573406833909e-03,3.845543203835794475e-03,3.027687072753906250e-01
3.309368541690008714e-01,3.246987572999003868e-01,-7.912002167752785198e-03,-7.484438540235906461e-05,4.699222668849345128e-03,-4.580422163311025086e-03,3.359656035900115967e-01
3.304199214814012020e-01,3.299833451025792064e-01,-1.254816561715832446e-02,-1.022496429615853163e-04,-4.649687153650054056e-03,-1.069722936993715420e-03,3.428496718406677246e-01
3.227019281411523943e-01,3.345378243342114200e-01,1.263732092055436240e-03,-8.772396480485613116e-03,8.536288224674209307e-03,-3.234745121560019237e-03,3.282498717308044434e-01
3.312480953618237023e-01,3.288027318908379737e-01,-4.430166652143519013e-03,-5.447131321028330676e-03,-6.716695335444996390e-03,-1.535105904395134887e-03,3.348080813884735107e-01
3.257659890271305536e-01,3.346340514086854623e-01,1.493361719511579477e-02,1.647346125662833925e-03,-5.724554060618270573e-03,-9.645444573329954238e-03,3.159706294536590576e-01
3.303006174731088485e-01,3.280398613009662401e-01,-1.481201149531155559e-02,1.451191371925536489e-03,-6.161526016119476049e-03,9.624543703473280656e-04,3.441665470600128174e-01
3.475046702283685063e-01,2.918911214715737001e-01,-2.845290332982192139e-02,-1.539753734794947803e-03,4.875807321032193248e-03,-1.541906428866226392e-03,3.515881001949310303e-01
3.568284047643275336e-01,3.283983253677538738e-01,2.987457287323472266e-02,-7.270292675133224747e-03,7.776726292251101222e-03,-1.290186415477611107e-03,3.142558634281158447e-01
3.423080659603187081e-01,3.304131597999721004e-01,-1.866521764244233328e-03,1.533492026492046527e-04,-1.148079597303922582e-02,-4.453198806265100916e-03,3.390555977821350098e-01
3.182419488953927011e-01,3.382183033721761767e-01,-2.481760481067954438e-02,2.569582704355250500e-04,-8.792000013972385217e-03,-4.366734542312079295e-04,3.538002967834472656e-01
3.227679413010667853e-01,3.229068344846890981e-01,-3.420054616486631338e-02,-2.265754041490498569e-04,1.577442294865804380e-03,-2.152676958952684690e-03,3.570680916309356689e-01
2.878273278104999666e-01,3.388041075141561831e-01,-2.834751615241257183e-02,3.218706010302251237e-03,1.447540653652690983e-03,-3.484401993416395404e-04,3.445583581924438477e-01
3.255279980232762549e-01,3.552199338570612430e-01,-2.613226013160102612e-02,-1.146118318177262799e-02,-7.666710358616209836e-03,-1.884742490120371386e-03,3.681970834732055664e-01
2.794217465679841306e-01,3.567015829254049364e-01,-5.015293088355021744e-03,-8.068027437167488158e-03,-1.398175126940155027e-02,-6.554634249550343218e-03,3.313132822513580322e-01
2.834169454726169213e-01,3.488114647659724676e-01,-3.952511181686035879e-02,-1.950818820483395458e-02,-1.928853834493448119e-02,-1.183469421106273997e-02,3.638195693492889404e-01
3.003548351449612519e-01,3.342253673111313939e-01,-2.677514362036950701e-02,-1.162974574190616187e-02,-6.813789177915367118e-03,-4.826872907929684840e-03,3.462025821208953857e-01
4.700553735681062273e-01,4.062058408037553803e-01,5.246897859134980191e-02,-2.169386069653589030e-02,1.685385370565625068e-02,5.767373245336411547e-02,4.050126671791076660e-01
3.237213997281558897e-01,3.421784720194531726e-01,-2.635323562399122244e-02,-7.241181214396378435e-03,-1.331498367913360077e-02,-1.177349579016905706e-02,3.611914813518524170e-01
2.843161124293347997e-01,3.453286747114881483e-01,-2.753143012601841355e-02,-1.498951822125219394e-02,-1.214647942068136990e-02,-9.796519741743156540e-03,3.484287858009338379e-01
2.811337586544765399e-01,3.661079453095428260e-01,-3.605357374762382938e-02,-3.841396121571611678e-03,-1.290953960204974278e-02,-1.799674366402721076e-02,3.691842854022979736e-01
3.004771901452438776e-01,3.338128963303538255e-01,-1.041038676902883431e-02,-1.769876424609478915e-02,-1.481025610290650704e-02,-8.356588496306955466e-03,3.315618932247161865e-01
2.898686796497923490e-01,3.100601254204321533e-01,-7.030577240646346260e-03,-2.468412712122535976e-02,-9.195320594216961109e-04,-1.664226663590173683e-03,3.104681074619293213e-01
2.891998423946273156e-01,2.920264877382176549e-01,-7.855578300932170022e-03,-1.968882040123224458e-02,-8.163177566505278211e-04,-1.865568957817087970e-03,3.004412949085235596e-01
2.981321887383900915e-01,3.033851840964815194e-01,-1.205322704487940544e-02,-4.503201027077696761e-02,-9.342759609696256115e-03,-9.229639610170529973e-03,3.232229053974151611e-01
2.737705126268298872e-01,3.503704136004627268e-01,-1.125915896497992064e-02,1.070295247257216885e-02,-2.322508715243722446e-02,7.498823825802139291e-03,3.332765698432922363e-01
3.319584061025164234e-01,3.292158291369233214e-01,-1.484370920019867368e-02,8.020047439135424838e-03,-2.072832485999239263e-03,-4.347489530486920405e-04,3.457376360893249512e-01
3.193136580276015879e-01,3.294355575010823323e-01,-1.637508721413269419e-02,1.098762038216191325e-02,-8.633542334686621425e-03,2.177775857354332344e-03,3.417414426803588867e-01
3.314362547678673110e-01,3.334782538619415204e-01,-1.198197122428126815e-02,-7.481051544253623786e-03,2.762724559923692737e-03,9.008405942206102997e-04,3.447241485118865967e-01
2.945337348410149714e-01,3.394345548958066505e-01,-2.609869542211179505e-02,3.236589792441694514e-03,-1.356808803064656933e-02,6.433163935043455413e-03,3.463029861450195312e-01
3.256409815101922178e-01,3.362623601423933573e-01,-2.510124761854257147e-02,-1.955666724909590419e-04,-4.795981362307008555e-03,-3.781778291358524184e-04,3.562693297863006592e-01
3.133888058227346507e-01,3.369524055115283856e-01,-2.366409298117180815e-02,1.578276996847222807e-03,-5.349464907642326704e-03,-1.456405865663697652e-03,3.495737016201019287e-01
3.124490362803657995e-01,3.373599399066034010e-01,-3.032018021478766201e-02,1.014309043754085338e-03,-2.532203179136523988e-03,3.451532481069826113e-04,3.559110164642333984e-01
3.438853652489222701e-01,3.279305456165838573e-01,-1.371170186232362198e-02,3.169333833000756787e-03,-3.590649497743486195e-03,-9.138974180043404894e-03,3.503486812114715576e-01
3.306917750489263286e-01,3.267894402114855934e-01,-1.328310369228269394e-02,-2.693730227297324708e-03,-1.496942762093397307e-03,-8.507337548376783668e-04,3.420852124691009521e-01
3.296815415575830577e-01,3.256843741978379114e-01,1.236748021324238223e-02,2.169560200172186183e-03,3.436644858653588319e-03,3.531146205363716681e-03,3.154723346233367920e-01
3.012182265820516069e-01,3.341959172985987658e-01,-3.115818413215346028e-02,-1.991498508293190544e-04,9.276999841789526288e-03,5.177207047521150719e-03,3.505158126354217529e-01
3.291495558782338016e-01,3.226731475844042407e-01,-3.434240409553596107e-02,-3.882803557852472541e-04,1.713167489771487070e-03,7.457804471544981400e-04,3.603125810623168945e-01
3.291814606025028067e-01,3.282922970954817443e-01,9.504462615261499714e-03,-2.951085156651142138e-03,2.209338231591816831e-03,-8.312983645041578662e-03,3.196216821670532227e-01
3.269956245581262522e-01,3.273566789023580337e-01,9.138485774114440963e-03,7.467082384495721606e-04,3.651936120055328250e-04,-7.911911593742793417e-03,3.183361887931823730e-01
3.276356942824851792e-01,3.268515873475351663e-01,4.162833325522724559e-03,1.743104158963524730e-03,-2.903171900609709168e-03,-3.399413387195977538e-03,3.231883943080902100e-01
3.295879296603362874e-01,3.299506991763718200e-01,1.140139937923326241e-02,2.937877023926655992e-03,1.508523943722875566e-03,9.460318630875378526e-03,3.188407719135284424e-01
3.430409898634864674e-01,1.794684789926430657e-01,-2.438409049795875472e-02,-1.177895260474826900e-01,2.422945649391156000e-03,-1.381702557650031984e-02,3.793019652366638184e-01
3.395977631376241312e-01,3.275838658517551405e-01,-1.841423573499917365e-02,7.285751743818619577e-03,1.796312951973054635e-03,-2.925982036738462248e-03,3.524349927902221680e-01
3.305773119511037916e-01,3.216546849732724866e-01,-1.459623887304087320e-02,-1.470149715913606197e-03,-2.247150002893081450e-03,2.756139038756159204e-03,3.408650159835815430e-01
3.351254712945107572e-01,3.262908760960385179e-01,-2.334176984035166158e-02,4.337008549455709065e-03,-7.285267864203576541e-03,-1.026805064508769932e-02,3.548828661441802979e-01
3.274113184363110496e-01,3.271823624388974228e-01,-2.689440619911340202e-02,1.060305236442808576e-03,1.802247818603422338e-03,2.249224440248662367e-03,3.542312383651733398e-01
3.455984271464618285e-01,3.028369737880967083e-01,-2.800215585184134826e-02,1.628893474778914715e-03,4.877547160076901693e-03,-1.753739039572227041e-03,3.542863130569458008e-01
3.356692992510951212e-01,3.223601464130070871e-01,-2.566632572042498728e-02,2.223306708493905885e-03,-3.225543167715796966e-03,3.144129769694522375e-03,3.549749255180358887e-01
3.359683675169014561e-01,3.045422343686308708e-01,-2.490342078267845927e-02,5.718474156850624802e-03,-3.719751451651732597e-04,-4.390252131863123589e-03,3.464557528495788574e-01
3.319459915174408637e-01,3.069782288263159797e-01,-2.843545173987868657e-02,7.271997471284329800e-03,7.651583426304092717e-03,-8.873803759958789894e-03,3.493862748146057129e-01
3.290501378402048149e-01,3.224305606326613449e-01,-2.439467457770314041e-02,-4.343987131142234984e-04,-9.797475438092242105e-04,1.897597145965454566e-03,3.502022922039031982e-01
3.324587577834360319e-01,3.325074058314494430e-01,-8.695301330146953944e-03,-5.492915251850131152e-03,-1.623251136422619546e-03,5.642457090668301020e-03,3.414624929428100586e-01
3.081313969292859833e-01,2.944147199287178163e-01,-1.221623744685734758e-02,-4.167212195769880861e-02,7.559591606555182003e-03,6.438260515187396553e-03,3.223695755004882812e-01
2.174501881491555377e-01,3.270231682164203013e-01,-1.297981638486139788e-02,-8.968027122947604124e-02,-1.454344959947878775e-03,-1.560041188198616922e-03,3.383702635765075684e-01
2.078928650513968690e-01,3.505188162915159333e-01,-3.260566762899019810e-02,-1.154723498713165764e-01,1.017315352681063233e-02,9.749383292456862901e-03,3.912547230720520020e-01
3.195168756647602804e-01,3.342830017142888743e-01,-3.227155548766508231e-02,2.326333494130848091e-03,3.883263102380293992e-03,2.756189801066083727e-03,3.595162928104400635e-01
2.625682563681492332e-01,2.974788559905409691e-01,-8.538311567486717157e-03,-4.605602453787292772e-02,2.176555877398489089e-03,2.208453479046437642e-04,3.009316325187683105e-01
2.321907163682946917e-01,3.423995480387004853e-01,-8.709000953660728239e-03,-5.734687686767946102e-02,6.159821902248731676e-03,5.990568211883342403e-03,3.268262743949890137e-01
2.416852427140819548e-01,3.479387738577409128e-01,-1.996428013423243164e-02,-4.989630315761946211e-02,9.237790330611136622e-03,7.405896130672377786e-03,3.397660255432128906e-01
3.343108338914533850e-01,3.119908659078369784e-01,-3.099984995683977007e-02,-5.606719565124890052e-03,-3.047193530116943522e-03,-3.323330268467840180e-03,3.548966646194458008e-01
3.933142858698315258e-01,2.602239318426087800e-01,-9.275052868438549147e-02,-1.766454002483782704e-01,9.160553341399660376e-03,6.994267623007303925e-03,5.322507023811340332e-01
3.344342776267634765e-01,3.045455563629687612e-01,-2.957144456097915430e-02,-4.675275675421300056e-03,-3.056421320642500536e-03,-5.953563240146799405e-03,3.503052592277526855e-01
3.376692979337190259e-01,2.987594444791800141e-01,-3.208942747233003989e-02,-1.988146402200312302e-02,-9.038224781171463537e-03,-3.858134167849230217e-04,3.539485335350036621e-01
3.314013102355300444e-01,3.260158850546737153e-01,-3.111425305525086782e-02,3.085050924501239224e-03,-4.351224501660750157e-03,-3.399002382546431524e-03,3.600197732448577881e-01
3.101397238454688399e-01,3.354752907251188909e-01,-3.221858402261265630e-02,-7.167198100206537354e-04,-1.683028696728988563e-03,2.287358909654504970e-05,3.557175695896148682e-01
3.374251178265461615e-01,2.911249868481812220e-01,-2.754735611984865384e-02,-7.767518339289444579e-04,-1.086154496310410720e-03,-1.532976693134824667e-02,3.451966047286987305e-01
3.348091616121527947e-01,2.905150567252205440e-01,-2.777925308352968692e-02,-1.082404373726458986e-02,-8.623198521898422370e-03,-1.369134411938215980e-02,3.442509472370147705e-01
3.408681433153571416e-01,2.580239712319081224e-01,-2.142421613520367751e-02,-4.496530821268479583e-02,1.518902644046375879e-02,1.871548942372501523e-02,3.404609560966491699e-01
3.110801487007653909e-01,3.250059297849343665e-01,-2.380442840279517469e-02,-1.510990460591686568e-02,1.309964793817861017e-02,1.780978975282203336e-02,3.451904356479644775e-01
3.498402555946346082e-01,2.920206361109964344e-01,-2.691117423198138847e-02,-9.520530771394499631e-03,5.044214281799277479e-03,1.209586500372504189e-02,3.525454699993133545e-01
3.308495817684555251e-01,2.956034900438742063e-01,-2.733717032352420140e-02,-8.791114291959958860e-03,9.153724163429880975e-03,1.453135679755123907e-02,3.435579240322113037e-01
3.087886742712944166e-01,2.854247712873788090e-01,-1.054323061356685076e-02,4.356676780305052642e-03,-1.204438959183034815e-03,4.959408047807039362e-04,3.084152042865753174e-01
3.655915372714362288e-01,2.985248963797956234e-01,-2.188066887721737408e-02,-1.859870661109386258e-02,1.114989292428250796e-02,2.825749618014210263e-02,3.639400303363800049e-01
3.647360328101861837e-01,2.858243422916302290e-01,-1.897284465018042598e-02,-2.301108275048895438e-02,5.950961997967122406e-03,9.078239861507077365e-04,3.533803820610046387e-01
3.213834697530459361e-01,3.017192036482057027e-01,-1.754597809082483750e-02,-3.631529789224918064e-02,2.018969456192085121e-02,3.454512256669252379e-02,3.425703346729278564e-01
3.311702696087712172e-01,3.349368240779625472e-01,1.861362675580000015e-02,1.063977106166692603e-02,8.472501798940913764e-03,6.218925203622791519e-03,3.155219256877899170e-01
3.491355324489561762e-01,3.446399870040292579e-01,2.486255713173565751e-02,2.732196523112620512e-02,-4.413734673172201896e-03,-1.064731542709810089e-02,3.261186778545379639e-01
3.302309393935674020e-01,3.367111750287558047e-01,2.811304283445809071e-02,-5.951073598072766308e-04,1.657080649118908636e-02,2.999612888119073100e-03,3.068009912967681885e-01
3.299550453799454108e-01,3.317913789916995815e-01,-2.607869875890034272e-02,2.389610313823598096e-03,5.882344930320819801e-03,6.118403852458021396e-03,3.572820127010345459e-01
3.245897743885293174e-01,3.303115221707269011e-01,1.744061194970844553e-02,-1.474725327056085637e-03,1.160517598214441323e-03,-6.122783581201350633e-03,3.102479875087738037e-01
3.145197177778553677e-01,3.364240960039074912e-01,2.660602704646761185e-02,5.712163681021511022e-03,1.154155305799550203e-02,3.519066278658047105e-03,3.003586530685424805e-01
3.249420201523199325e-01,3.294362714392407021e-01,1.347683553829220893e-03,-5.557644203666669723e-04,1.231268984833952009e-04,7.464953146645492491e-03,3.261226117610931396e-01
3.288681768169959829e-01,3.369033826698076828e-01,2.388715282637896009e-02,-1.303361734069120653e-03,-2.742063307254216306e-03,6.230593091536712654e-03,3.093100190162658691e-01
3.397731630563221583e-01,3.317412772418032452e-01,3.053555294508780715e-02,-8.986939954790183326e-04,-1.008507628913666958e-02,5.296688000544390838e-03,3.059417605400085449e-01
3.246971772598811201e-01,3.276628778465769942e-01,3.760128795142536617e-03,5.849371253720202744e-04,-2.376236387122820665e-03,5.386094365488374933e-03,3.225929141044616699e-01
3.334714401582114518e-01,3.369388849179748568e-01,-1.140342636254890185e-02,1.612479951396652428e-02,1.023835689262899860e-03,1.452412410212759524e-03,3.477585911750793457e-01
3.384555394642455584e-01,2.657731286902165202e-01,-1.680886275173013034e-02,-4.422718679475978916e-03,6.993904784480631937e-03,-4.878049905049530082e-04,3.253923654556274414e-01
3.397234231027557172e-01,2.669226250975407222e-01,-1.697592012357293512e-02,4.160068599165788437e-03,-5.736106388418867746e-03,-4.824495706882042960e-04,3.266767561435699463e-01
3.169144123748853237e-01,3.376791176289292706e-01,-2.309461994013234376e-02,2.016129192041784743e-02,-1.119193171470212606e-02,9.496640164562279371e-03,3.535014390945434570e-01
3.052861966968726803e-01,3.448818814382174081e-01,-3.191594867242331102e-02,1.741022958136191276e-02,-1.130868281588078006e-02,1.101486861835401961e-02,3.609457612037658691e-01
3.408919780849952730e-01,3.239102549275701404e-01,-2.061519966599714704e-02,2.850798480885677333e-02,-2.494479090873395408e-02,2.386556689871959652e-02,3.617324233055114746e-01
3.241930857293938706e-01,3.198006579267486660e-01,-3.124528503411411196e-02,7.523465298245872457e-03,-8.106210505883055042e-03,5.567344350866971874e-03,3.539130091667175293e-01
3.138934600032673439e-01,3.158719662139630735e-01,-1.952530657681492143e-02,1.745322148208198684e-02,-7.725721239255965364e-03,1.337568258274876923e-02,3.368401527404785156e-01
3.456294068759792615e-01,3.104415148648551614e-01,-3.129040472221308877e-02,2.905460559542268062e-02,-1.640168416154251865e-02,2.334727115204663153e-02,3.674487173557281494e-01
3.271663357860293275e-01,3.255030913835726958e-01,-2.108532253471226414e-02,7.362711348012963841e-02,-7.811983678538099614e-03,2.318001996031198580e-02,3.725058734416961670e-01
2.903314524689208920e-01,2.885412994007479637e-01,-9.550012806331970028e-03,-2.080835710566118768e-02,1.151733417252908710e-03,1.098320604685144256e-03,3.011674284934997559e-01
3.000041000605574437e-01,2.668446500686700862e-01,-8.499589399132867484e-03,-4.141944761701327887e-02,-1.048188417941561378e-03,6.493975620491803259e-04,3.019859790802001953e-01
3.046349599989877088e-01,2.741860096436486427e-01,-1.235620379659085888e-02,-5.809996646479068105e-02,-2.748321810527245331e-03,-7.910002320240611118e-03,3.195241391658782959e-01
2.900884260052001840e-01,3.069129088955211970e-01,-1.232879278518303479e-02,-2.531707430099313164e-02,8.043668628836443332e-03,8.977634486430666541e-03,3.149380981922149658e-01
3.341470823925767886e-01,3.143553906906669804e-01,-2.960344279639012810e-02,-2.050866975895025528e-03,-4.164574828203833519e-03,-5.581220097892808027e-03,3.544926047325134277e-01
3.285955966229441305e-01,3.256116687539900578e-01,-2.573021174913067699e-02,2.931504620899467398e-03,3.630778876469944669e-03,-1.185820817810703028e-03,3.529418408870697021e-01
3.258442434166765600e-01,3.269348541456410517e-01,-6.657826155367363441e-03,-7.251928598823486390e-04,6.497770013773608057e-03,-3.196270931257219530e-03,3.332871794700622559e-01
3.305692782646688088e-01,3.414435536077067290e-01,-2.180383377073349949e-02,-5.347424914455212869e-03,-6.919835988569924970e-04,-4.617846292557292731e-03,3.581452965736389160e-01
3.266229533647190819e-01,3.230043303421620826e-01,5.714021032279470447e-03,-6.794354385570460821e-04,1.412920646489140668e-03,3.223671483223060092e-03,3.191753923892974854e-01
3.299750108591487652e-01,3.239829989656126119e-01,-5.333025621187481580e-03,2.797203781093239409e-03,3.284881985129682169e-03,5.035952594478958037e-03,3.325509727001190186e-01
3.334554957142497056e-01,3.138597354750879420e-01,-3.221136409524821831e-02,8.994481143115332870e-04,-4.333903939932997815e-03,-8.353118992451134166e-04,3.563587963581085205e-01
3.260475536446232891e-01,3.363004864005568750e-01,-2.543537152895530840e-02,7.857659405182827170e-06,-5.057331302723812143e-03,1.517007210461846639e-03,3.568371236324310303e-01
3.343250643703433722e-01,3.370432190108765269e-01,4.215306409167063340e-03,-3.615412337338179231e-03,1.183072326989509371e-02,2.049773463889435505e-03,3.321879804134368896e-01
3.268033770346325806e-01,3.282429321720920501e-01,-1.203433195532879751e-02,-6.208613377324073875e-03,-8.261265785088359181e-03,-2.540978747346536379e-03,3.400596976280212402e-01
3.269126102272479906e-01,3.305619371753911184e-01,-1.905268170277371609e-02,-3.806801025067201201e-04,7.066435927249296693e-03,1.168664646469949652e-03,3.480261266231536865e-01
3.190838411380003681e-01,3.284292819720313061e-01,-1.719614267902888627e-02,-6.543553366590145956e-03,-1.688651613948250092e-03,-6.424090699468900691e-03,3.414309024810791016e-01
3.220018251026540712e-01,3.346752471600974443e-01,-2.681068142626341633e-02,-1.058462912769396122e-03,-8.028609800135503780e-03,-5.682314914890419441e-03,3.557316958904266357e-01
3.258264907985439218e-01,3.253293479655788301e-01,-1.151129548392587632e-02,-9.177319523194017378e-03,-8.570143202605459004e-03,-1.318487740507932448e-03,3.377980887889862061e-01
3.191470348344592756e-01,3.323954541957762077e-01,-2.614251729372821242e-02,-6.279742064674118975e-03,-3.141792890661665102e-03,-8.851921939357755217e-03,3.526441752910614014e-01
2.891361452473673599e-01,3.581210325554085028e-01,-3.590183697992591072e-02,-6.483631726783385327e-04,2.550213467518573293e-02,8.038053428493847907e-03,3.673928081989288330e-01
2.879420713384513997e-01,3.336469603177743548e-01,-2.390205312450724429e-02,1.556951917190880011e-02,1.398779674238289673e-02,-9.134664824858798257e-03,3.393420577049255371e-01
2.854305975608368851e-01,3.421943138906949899e-01,-2.240913177274336809e-02,1.791818215575866069e-02,7.962982552077318282e-03,-1.273216356539924252e-02,3.422006368637084961e-01
2.361245198786785515e-01,3.423972125725576743e-01,-2.564607965319951055e-02,2.598822119795986263e-02,3.313762737931436747e-02,-1.242369891255079052e-02,3.367793262004852295e-01
2.948224344440931732e-01,3.393862831173342087e-01,-2.518641913129737731e-02,2.149266294203358227e-02,1.016739335850793194e-02,-8.126134799840926265e-03,3.471980094909667969e-01
2.742265444866037183e-01,3.740661733443145232e-01,-2.325439846569840596e-02,3.317064699344120932e-02,1.930085251493625711e-02,-1.329222866348078562e-02,3.648448288440704346e-01
2.489612208747103983e-01,3.521297808488093040e-01,-1.350571019109919613e-02,1.305575242307249403e-02,2.806710065800513063e-02,-3.234237159203632531e-03,3.309335410594940186e-01
2.796144278560573904e-01,3.449636348310294309e-01,-2.083247106151467354e-02,-3.857882016196274161e-02,-2.009257131975169045e-02,-1.232869999813524658e-02,3.468500077724456787e-01
2.962260321961800447e-01,3.019572157093768916e-01,-1.357924821785930214e-02,-4.728124496051164943e-02,-1.549932017761463700e-02,-1.902626847630377663e-02,3.260382413864135742e-01
2.622357787361061510e-01,2.872700201074930293e-01,-2.036091735274708769e-02,-1.017867182590649205e-01,-1.831548490098323587e-02,-1.102261984978870728e-02,3.464313447475433350e-01
2.126504310409853271e-01,3.496057939449251362e-01,-2.130758723523268339e-02,-6.834542346659820689e-02,-2.652265250743447364e-02,-2.128059699694206247e-02,3.507380187511444092e-01
2.510319311007261356e-01,3.780895517134076345e-01,4.245260009972678938e-02,5.749041951860647814e-02,-4.744474051053833991e-02,1.443927856265311144e-02,3.216278851032257080e-01
3.694708859182472271e-01,3.451325939645735197e-01,5.716015460233297985e-02,8.460888608869308013e-04,-4.615907912990778461e-02,2.610428562213007626e-03,3.113580048084259033e-01
3.202688978757622928e-01,3.451874275102593814e-01,5.677946131770272853e-02,8.795443131256392485e-04,-8.978856828132679088e-04,8.984491135851904644e-04,2.768041789531707764e-01
3.276357279940075862e-01,3.480676178789911535e-01,1.971156724791806036e-02,2.913236078012999743e-03,-1.041589895903606176e-03,5.595649763118528720e-03,3.188242018222808838e-01
3.395011070195562697e-01,3.501024373607879436e-01,2.989663142476006730e-02,2.045218949462672669e-03,-5.150338400063625421e-03,-9.014214388198289046e-03,3.155716061592102051e-01
3.396415498477378669e-01,3.815515759639160343e-01,1.607520602002820986e-02,3.046757180600696835e-02,-2.128744487549582773e-02,1.712142478881034657e-02,3.536043167114257812e-01
3.605263470371665724e-01,2.732982806576890189e-01,-2.945045409425636751e-02,4.739889999400991386e-03,3.465085303872362729e-03,-1.195194359716035375e-02,3.552543818950653076e-01
3.406116769368089381e-01,2.780933148818330314e-01,-2.886935971619555841e-02,3.804320459013869199e-02,6.852462486407930563e-03,-1.722081319386388476e-02,3.502824902534484863e-01
3.493223949540266715e-01,2.747534263935267895e-01,-2.657328611506643012e-02,2.026522170936170385e-03,-1.960944011141423180e-04,-9.887394206295528273e-03,3.451574444770812988e-01
3.016670404022935847e-01,3.014505259511083279e-01,-1.535288870242945691e-02,-8.967983906756550605e-03,-4.832553677021348554e-03,-5.749822088604657384e-03,3.175587356090545654e-01
3.590367756494389773e-01,2.516640874158180274e-01,-2.760974156427006831e-02,1.529539924339786555e-02,1.357366241782271415e-02,-2.684588771420623812e-02,3.506078124046325684e-01
3.439611848130512683e-01,3.079957124848735628e-01,-2.841016215897740338e-02,1.707776249674151231e-02,2.489388208895468996e-03,-8.398644071938304520e-03,3.573046028614044189e-01
4.001948999964214382e-01,2.896735301869224899e-01,-2.111159011267099705e-03,1.409859340178544126e-02,-1.343073550870046116e-02,-1.863597684221891815e-02,3.630166351795196533e-01
1.879327513712965581e-01,4.119513927321683533e-01,-2.510588363107330023e-02,-1.280572037382816941e-02,8.685345276562143543e-03,1.566525812337239828e-03,3.794997632503509521e-01
2.305668430682750736e-01,3.682997399066830768e-01,-1.254725205768875140e-02,3.669148392319303460e-03,1.059680425522991319e-02,1.776432589951169394e-03,3.345838487148284912e-01
1.687250488369801960e-01,3.682416293428045773e-01,-8.482339951546152834e-03,-1.370808282053688487e-02,2.064372832003044233e-03,-1.691326151641239870e-03,3.273380994796752930e-01
1.910033171252703832e-01,3.697591033518736192e-01,-2.654669060950132220e-02,-1.960921291917308226e-02,1.026652393426492546e-02,-8.610358265225780822e-03,3.462111353874206543e-01
3.224045897531887528e-01,3.174727466907660833e-01,3.246926950345424556e-03,2.489646878392990162e-02,1.033215263299595496e-02,-9.997625967470025535e-03,3.206111788749694824e-01
3.277471626900697044e-01,3.369613007249919190e-01,-2.189061614975426617e-02,1.194331497554590969e-02,1.284025856538196760e-03,-1.351792267337507806e-04,3.549450933933258057e-01
3.308514309879725390e-01,3.276409952365845757e-01,-8.969737947806866174e-03,1.590597970356110585e-03,6.468035348950508696e-03,5.599586074334904698e-03,3.385630249977111816e-01
3.326732610699926207e-01,3.664695333438228730e-01,3.046298923982679319e-02,1.863123156079980053e-02,1.133375720612093095e-02,-2.428723722781462452e-02,3.253969252109527588e-01
3.165668573170687949e-01,3.673083730802599867e-01,9.604280107795098997e-03,2.805630667979884529e-02,4.781090812664071446e-03,-1.805950362792524497e-03,3.388455510139465332e-01
3.180472584864481034e-01,3.506343210650570419e-01,-2.799436243434352822e-02,5.097188797531691622e-03,3.563491448910369608e-03,-3.531372467260812144e-03,3.636435866355895996e-01
3.165284823372886969e-01,3.352385273027614909e-01,-1.043446541232598279e-02,-1.097440359409359786e-03,7.685445519056002123e-03,-8.161172693402400993e-03,3.372728228569030762e-01
3.991178085147950583e-01,1.820877915129372193e-01,-1.546846258075856850e-02,-5.758970872547966580e-02,2.882095397469360346e-02,3.971273977304232150e-02,3.823337554931640625e-01
3.850111661889414894e-01,1.985851765443369388e-01,2.146005736870837399e-02,-3.272343284975946787e-02,2.507188799500502385e-02,5.892789670399745799e-02,3.386213779449462891e-01
3.964984438785224552e-01,1.986054563013663343e-01,-2.673782236374949717e-02,3.529149869130806388e-02,-2.750288588679741103e-02,6.037244135351958751e-02,3.891982436180114746e-01
4.202217856127876683e-01,1.726636169239088303e-01,1.628596758313471948e-02,4.263774607491211538e-02,1.463581811226990353e-02,9.915765621004200836e-02,4.000560641288757324e-01
3.683378560355671238e-01,2.414515210947922597e-01,-2.461335051541496677e-02,-1.587626264259861184e-02,-7.953145713190735641e-03,2.484017080159738045e-02,3.513512313365936279e-01
3.905329428974712025e-01,2.855119928684403119e-01,-2.004264549162107500e-02,2.032036883309992076e-02,-1.211678054218187986e-02,1.709620501532568143e-02,3.728789687156677246e-01
3.866382040058977121e-01,2.890735789724068749e-01,-3.144578829639144146e-02,-8.703518623228665221e-03,6.202755283411116524e-03,3.827488775284560579e-02,3.850460350513458252e-01
3.133012741780902832e-01,3.018841396792433796e-01,-2.514851583144839253e-02,-1.503976708379508795e-02,-6.722363332224617904e-03,-7.194916456707239720e-03,3.343410491943359375e-01
3.121926722227764128e-01,3.259714235268988403e-01,-3.047957635243259134e-02,-1.352250778429722744e-02,-1.066787257527254153e-02,-8.493590121851612648e-03,3.513433337211608887e-01
3.175592760415579807e-01,3.098257352816521371e-01,-2.556864968527536308e-02,-8.503838418744229938e-03,-8.882793149971790134e-03,-8.996481243489957980e-03,3.403519690036773682e-01
3.197603712641785556e-01,3.147714231430609466e-01,-2.426588467016724260e-02,-2.734844397366922863e-02,-6.195947721631366034e-03,-6.698824617061976960e-03,3.451901376247406006e-01
3.145559067880823734e-01,3.080202779928936652e-01,-2.616264379306129650e-02,-5.151419914167963514e-03,-9.964416538940019594e-03,-8.156481793236384711e-03,3.383520245552062988e-01
3.189120836284026761e-01,3.304757127359518876e-01,-2.736650253558225998e-02,9.419693962193607592e-03,-8.464514888168180734e-03,3.460166416172936587e-03,3.529360592365264893e-01
3.230365522145279833e-01,3.297116226228758995e-01,-3.306668380154828557e-02,1.023819563922326141e-02,-6.695760910349864321e-03,1.019378003707822021e-02,3.605437278747558594e-01
3.219103808164596736e-01,3.414737955046431850e-01,-2.823649029732536175e-02,1.556359703987910889e-02,-5.083555708331684124e-03,9.151012719978240256e-03,3.617886900901794434e-01
3.274270977720062370e-01,3.275089578617369490e-01,-2.955819563133102457e-02,5.681322803476844020e-03,-1.119342935873587387e-02,1.177107989006270783e-02,3.582682311534881592e-01
3.280323931784094316e-01,2.925559089945887759e-01,-2.917642939677655978e-02,2.449173322506472197e-02,-1.361476722815045844e-02,3.104116395163483699e-02,3.484687805175781250e-01
3.288108647601044598e-01,3.470683368772763955e-01,-7.407309192249134089e-03,3.319086339570087585e-02,-6.908926076687869726e-03,2.225137763954877432e-02,3.527718186378479004e-01
3.432518068311406489e-01,3.082161635508909314e-01,-1.991476774870235000e-02,4.542556272764278202e-02,-2.456484741871777303e-02,1.449722784942639869e-02,3.592004179954528809e-01
2.488146126437746908e-01,3.203802311994428109e-01,-2.277890398965720653e-02,-6.617071877553767911e-02,1.342521921869894129e-02,8.270830014879555769e-03,3.349672555923461914e-01
2.396712881290353203e-01,3.609977573445130039e-01,-2.220414911503459932e-02,-3.128801041549312406e-02,6.280161590421087271e-03,3.351400838968107698e-03,3.437442481517791748e-01
2.217958775689309325e-01,3.550333157705602982e-01,-1.245630544200407308e-02,-3.791646988353008368e-02,1.509645505073652083e-02,5.442589264154816357e-03,3.300348520278930664e-01
2.357940861364197227e-01,3.278785099796376334e-01,-3.303827808522694087e-02,-6.895165207485404180e-02,3.077120783552951544e-02,2.065915856043717275e-02,3.519796133041381836e-01
2.139193002837568580e-01,3.256861704518985157e-01,-1.100145141026767637e-02,-7.254031844853037203e-02,-2.352293215719440233e-03,-6.428251170785686001e-04,3.225275278091430664e-01
3.103709023540721090e-01,2.904032879857003646e-01,-1.369678153745970683e-02,-2.078512782983046869e-02,-4.573403516928148047e-03,-4.020740867984876760e-03,3.167886137962341309e-01
2.432661085436770565e-01,3.238776882370091315e-01,-9.669281419506930986e-03,-4.537377124718552923e-02,1.102998401062943922e-03,2.556048550813117774e-03,3.115503787994384766e-01
2.577207828194623129e-01,3.020997500722631957e-01,-9.059276453645404015e-03,4.097600958413547684e-02,-1.346859284497569330e-03,-5.336443725885042409e-05,3.000384569168090820e-01
1.994911407691437599e-01,4.844302413119737083e-01,-3.967649493838054653e-02,-3.175491361729265716e-02,-5.341879273189280991e-02,-1.204482741376063440e-02,4.675047695636749268e-01
2.984015543814785287e-01,3.254758503963280925e-01,-2.670785090391566974e-02,3.157455963079093889e-03,-7.863610097586849236e-04,7.519645093944257903e-03,3.397538065910339355e-01
2.805160124790389564e-01,3.083664379638331732e-01,-7.895856392719169392e-03,2.597698225567268010e-02,1.204488676977689054e-03,-9.518592954624517004e-04,3.066283166408538818e-01
2.957599649880356951e-01,3.112578907334102585e-01,-1.468545736406670632e-02,3.835220443368724669e-02,5.141454511436297121e-03,-9.670158143225950076e-03,3.258838951587677002e-01
3.013030193453266614e-01,2.995095321778484254e-01,-9.730671022252224134e-03,9.052977296941737070e-03,1.196838157153974277e-03,-6.497355035407248762e-04,3.105459213256835938e-01
2.957217240378052225e-01,2.918736453505936246e-01,-1.031387924317353488e-02,1.611083076451129414e-02,1.446893632335400498e-03,-9.232399736500520367e-04,3.054217696189880371e-01
3.071528166953604311e-01,2.882668351627122871e-01,-9.777204507467107675e-03,3.287682262703012226e-03,1.241632858789850757e-03,-1.520559654785549398e-04,3.079819977283477783e-01
2.940775436320334224e-01,2.956362147039046651e-01,-1.550115937630269780e-02,1.618141833985958788e-02,7.727410547142503708e-03,-8.955441015755922357e-03,3.122966289520263672e-01
2.956214811680598631e-01,3.073692289078447382e-01,-1.465921933396963084e-02,2.174140215067245016e-02,7.057531185847916617e-03,-1.063322876672410759e-02,3.193178772926330566e-01
3.190118986699043147e-01,3.279853627975353181e-01,-3.220431438506460298e-02,1.274606666326988770e-03,2.537825628910654954e-03,-2.428531032524064437e-03,3.558467030525207520e-01
3.298466137162733292e-01,3.851414341843690803e-01,1.767660639632095965e-02,-3.021447690976362087e-03,-1.841961809518529586e-02,-1.636427011991663065e-03,3.447060883045196533e-01
3.435625353312493635e-01,3.251598576657830919e-01,2.840856888315448914e-02,-2.574326161699681901e-03,1.277224959921087304e-02,-1.517580064373889176e-03,3.072086870670318604e-01
3.435005434334216234e-01,3.290607587328396866e-01,7.475685328112463557e-03,7.328857311727854720e-03,7.866139288930032317e-04,-1.102363933512286003e-02,3.298433721065521240e-01
3.302771629537851750e-01,3.320814420768614106e-01,-6.650701023532268330e-03,4.129170445889592325e-03,5.258636007676532930e-04,-5.334413962396219663e-03,3.380368351936340332e-01
3.262687691426557901e-01,3.275919741436561505e-01,2.059778888231578176e-02,-1.477978941297984237e-03,-7.599485209274042113e-03,1.876190694866517210e-03,3.066453039646148682e-01
3.370598184830504440e-01,3.282707074618028131e-01,4.544906022996081374e-02,-6.967593564918802065e-03,1.453096147831653591e-02,-1.416650279360036867e-02,2.897106111049652100e-01
2.042705791934580350e-01,4.239090454334440983e-01,-2.623478635736087305e-02,1.639982129462410135e-02,3.408247689656117296e-02,5.816618673621584690e-03,3.954678773880004883e-01
2.385603838274897581e-01,3.625041844272272051e-01,-1.855063180702429260e-02,1.770519972078500245e-02,1.334869239699605289e-02,-4.317229901321397410e-03,3.389194011688232422e-01
2.493929513986944402e-01,3.693218137611774532e-01,-3.022284947842818204e-02,-2.927985524586034470e-03,2.052783230853014521e-02,-3.607696867753696236e-03,3.569746017456054688e-01
2.324843232094261358e-01,3.810214035053631210e-01,-1.549715079227181880e-02,-1.462801279972767224e-02,2.826066491207542691e-02,-8.610888774746954660e-03,3.516431450843811035e-01
2.176017079818575728e-01,3.612335945130434878e-01,-1.536969906955878984e-02,2.150643592352799015e-03,1.161638482941683599e-02,8.568817026688875776e-04,3.298315107822418213e-01
3.244053256913248529e-01,3.267182432790747271e-01,-3.331918098331060341e-02,-2.514033397262079180e-04,1.182021254295350515e-03,-1.373586352544438945e-03,3.589005470275878906e-01
2.443924134733574394e-01,3.840154149571677333e-01,-3.533160338658861144e-02,1.992335298385082901e-02,1.930693646974860830e-02,-8.115741795656234575e-03,3.732327818870544434e-01
3.206236525519781666e-01,3.209654952463184552e-01,-3.361177868258019563e-02,5.630066295664540462e-05,-1.174672237725084495e-03,-1.342739508617828972e-03,3.544199466705322266e-01
3.657755884112761091e-01,2.186552084922563921e-01,-2.375264114770214707e-02,8.091102921271720039e-02,1.542642838051240355e-02,-2.766892554220722750e-02,3.724507093429565430e-01
3.214559557473922746e-01,2.760266760275770781e-01,-1.495780094547333183e-02,4.959938007006177429e-02,8.509238585598320401e-03,-7.098916677090176715e-03,3.281824290752410889e-01
3.625766103258539763e-01,2.041049916931919617e-01,-1.111186984027601188e-02,4.936705821659985449e-02,1.642388830780118361e-03,4.872383930720518980e-03,3.360475301742553711e-01
3.324607303134771152e-01,2.555433054248362756e-01,-1.468772590251984922e-02,3.430237653510517098e-02,1.442551563633876453e-02,-2.625388441795359351e-02,3.254975080490112305e-01
2.964731673657955424e-01,3.144697133697830216e-01,-1.854534370304722346e-02,-1.285507678763389561e-02,1.239724050569434091e-02,1.175042836625941889e-02,3.264978229999542236e-01
3.092876809495884727e-01,3.192915246237347793e-01,-2.934386229557298109e-02,-1.733670537459387068e-02,1.525836613562111567e-02,9.688352465699209132e-03,3.464689552783966064e-01
3.159064110031942207e-01,3.207200119712279029e-01,-2.927939386214739592e-02,-6.899921650088711861e-03,6.062761614624781470e-03,8.147061362394217646e-03,3.482674658298492432e-01
3.114344058850498920e-01,3.184321495488605658e-01,-2.936171798658859800e-02,-1.217085785266200024e-02,1.384057131013458758e-02,9.950976351884733423e-03,3.462541103363037109e-01
2.899578271261317730e-01,3.193676052679760291e-01,-1.924930419139289639e-02,-1.680151482818332057e-02,1.042700882808086406e-02,1.051808891347518447e-02,3.272195458412170410e-01
2.940884780523936870e-01,3.181484608698454952e-01,-2.382513991972501355e-02,-1.624274520220039125e-02,7.715708360063835460e-03,7.180665386509656016e-03,3.322976231575012207e-01
3.268303518862217261e-01,3.321381253313607784e-01,-2.559386999774390659e-02,-8.659226619995585589e-04,5.317038110163415342e-03,8.946446490002123988e-04,3.552338182926177979e-01
3.169069201190478080e-01,3.247833126080074684e-01,-3.237430154482676126e-02,-4.312882698618207208e-03,1.526211307306814518e-03,1.390498364985042834e-03,3.533823490142822266e-01
3.199205803223104105e-01,3.278305947703797352e-01,-2.512015883270887762e-02,-2.042601593691830211e-02,1.188690524505970660e-02,1.859491483204079448e-02,3.529275059700012207e-01
3.366395747195157773e-01,3.453717755938807144e-01,3.588085672741944676e-02,1.756440379385759958e-03,-1.942761880850758793e-02,2.202992990915691920e-03,3.071065843105316162e-01
3.200287983021265492e-01,3.295610629012308834e-01,-1.979865278100306769e-02,-1.455014500899769712e-03,3.095293743424201369e-03,6.916578785786748652e-03,3.449514508247375488e-01
3.178835549793935789e-01,3.377821770684175107e-01,-1.729756937943632833e-02,-3.557311741123486866e-03,7.141172301980186835e-03,3.103288574463550133e-03,3.458783328533172607e-01
3.007916151156278528e-01,3.416825390350374803e-01,-2.878928088896368087e-02,-1.760128008770718913e-02,1.751463542411527824e-02,4.393262885859944636e-03,3.545139133930206299e-01
3.373505266248454371e-01,2.549663802622511022e-01,-5.733387933765654587e-03,3.599338455513795276e-02,-4.498233935050252423e-03,3.343727590640001215e-03,3.165594041347503662e-01
3.313728596594895381e-01,3.258912986092697972e-01,5.150053364479695306e-02,5.503507369027792629e-04,7.312579716626434884e-03,-7.457619885615246903e-04,2.774660885334014893e-01
2.831307258317897757e-01,2.585868473552173086e-01,-3.023640594390708536e-02,8.810474339548989009e-02,-2.407841253232062897e-02,3.465540727023535411e-02,3.460343182086944580e-01
3.187730157297418154e-01,3.372384699813546494e-01,-1.413589555420358135e-02,1.102266851887167762e-03,1.412460073646125370e-03,-1.913654075143260413e-03,3.425452411174774170e-01
3.361020395861243348e-01,3.297506007945785744e-01,2.300915057685587461e-02,-9.592567442152017450e-04,-9.854746219928026477e-03,-1.190697696454177425e-03,3.104468882083892822e-01
3.198532683432478985e-01,3.374343895580556030e-01,-1.915712068395900025e-02,-2.883956578650214840e-05,1.054518930911839056e-02,-6.687969889872830143e-03,3.488052785396575928e-01
3.185762002683169003e-01,3.577254600768515758e-01,-2.030041917796762685e-02,2.218228095305893859e-03,1.334073719214181122e-02,-4.621319038121127817e-04,3.608131408691406250e-01
3.278718616378786255e-01,3.426859050906366222e-01,1.648335610693946185e-02,-5.455240305901368561e-03,-8.726592075816417410e-03,1.907935303476488223e-03,3.195682168006896973e-01
3.382930914133489009e-01,3.449499709569020522e-01,3.928618054154689454e-02,-1.724182486779465362e-04,-3.682835795994477985e-03,9.207736639582570284e-03,3.028779029846191406e-01
3.049981084417364152e-01,3.808388572390221105e-01,7.912956906823975789e-03,1.081090031057962107e-02,-2.676346556725807293e-04,-9.101523135937530581e-03,3.422600328922271729e-01
2.711109298179686378e-01,3.313436295251320218e-01,-1.680541884489256121e-02,-3.484374205231335897e-02,-1.006937772606841808e-02,-1.111956193115559537e-02,3.289120793342590332e-01
3.037132034611715325e-01,3.001500976931022469e-01,-1.573143821986927593e-02,-4.020068712265440630e-02,-1.351063631013238453e-02,-1.347330248791018051e-02,3.268942534923553467e-01
2.914360649978232631e-01,2.862281154741177502e-01,-1.842265259799538701e-02,-9.757443619763798981e-02,-2.616343032197431320e-02,-2.207334073703181784e-02,3.556731641292572021e-01
3.016471658197955596e-01,3.108403866184373809e-01,-1.471423782396757973e-02,-4.359377699374370613e-02,-1.265059254573889722e-02,-8.221191541940130881e-03,3.308497667312622070e-01
2.975631207331054240e-01,3.060347238184416008e-01,-2.379016933330310724e-02,-3.263272507367281222e-02,-1.665013178111961201e-02,-1.301611133147112520e-02,3.325608372688293457e-01
2.991991722402135290e-01,3.040780257708876611e-01,-1.727146884742886135e-02,-3.687573338691347430e-02,-1.031579913145873675e-02,-1.429720940695804361e-02,3.267008066177368164e-01
3.041325569849433474e-01,2.612767111894245264e-01,-8.648837043196661023e-03,3.603331845277406992e-02,-2.356629755396309148e-03,-1.840905968549135310e-03,3.003104031085968018e-01
2.865844735679808353e-01,3.116991962010349226e-01,-6.223252072368234966e-03,2.159368036284083775e-02,-3.474701283261709406e-03,4.461264749798180516e-03,3.085703849792480469e-01
2.897435068884252618e-01,2.906102618437484963e-01,-8.984563514320448308e-03,1.805369287336903647e-02,2.253466054055938087e-03,4.548087028314609474e-03,3.009206354618072510e-01
3.221111933225675461e-01,3.214723885227420697e-01,-3.511733891341947689e-02,3.646032015173345767e-04,1.385339529878881033e-04,9.547250668556542231e-05,3.569102287292480469e-01
2.894846240985278762e-01,2.922521521277881007e-01,-1.235144199474930149e-02,2.074592165634459029e-02,-3.655222253397570360e-03,3.659268106289213351e-03,3.054822981357574463e-01
3.282313912684750035e-01,3.268498954846763560e-01,-1.423607081915001515e-02,3.203440285608049470e-03,-2.674095503458652403e-03,-3.859982319176056761e-03,3.419205844402313232e-01
3.214098358783031295e-01,2.942479084851273297e-01,-3.607190800356294136e-02,-4.704836795916752384e-02,-9.838810486309352080e-03,-3.054182888474010760e-02,3.585394620895385742e-01
2.639428270108727381e-01,3.564332836746729183e-01,-2.322100299682181013e-02,-5.913244673768248971e-02,-2.789175128806463747e-02,-7.889690793448984885e-03,3.613696098327636719e-01
2.799273402831695123e-01,2.957065079925835782e-01,-1.713153862926658499e-02,-6.478514203469283583e-02,-2.299885266116269422e-02,-1.593682091672713949e-02,3.288167119026184082e-01
3.231782945026582254e-01,2.694555975558514671e-01,-2.172784518394507702e-02,-7.149569693724948383e-02,-2.313172660890646867e-02,-2.510930076393641519e-02,3.494977056980133057e-01
3.275436158742908166e-01,3.294734964762888185e-01,-1.970688031722356293e-02,-9.949596779573867487e-04,-6.761037699605807437e-03,4.049796112770916748e-05,3.484205603599548340e-01
2.949760787818703212e-01,3.339755444590840616e-01,-2.326195505199615821e-02,-3.375701940134177848e-02,-1.501644553167934271e-02,-7.799638786212992510e-03,3.456661701202392578e-01
2.893342855401990210e-01,3.073249247951642671e-01,-1.877919180129930532e-02,-3.064127624696618563e-02,-1.403749137035868386e-02,-1.080636303442767884e-02,3.233556747436523438e-01
3.169516726224179681e-01,3.345528256175883675e-01,-3.330092363662578991e-02,-2.513375374802307230e-02,-2.109489150225147755e-02,-1.548370509444537378e-02,3.648299276828765869e-01
3.223271529568632610e-01,3.268356262383479427e-01,-3.466610594695970771e-02,-2.525144533496278729e-04,-5.336318469084850875e-04,-1.376046416707786459e-03,3.592780828475952148e-01
3.230961983730903375e-01,3.240251479981637317e-01,-2.941956168775575198e-02,-4.639760484721583769e-03,-1.206099089289788991e-02,-1.062263826646772311e-02,3.541683256626129150e-01
3.314564449024165471e-01,3.107294252170055282e-01,-3.001941886278342020e-02,-6.250010543643613921e-03,-8.180400267737246434e-03,-5.928318005409075227e-03,3.521724939346313477e-01
3.202107425487065173e-01,3.229379985323013180e-01,-3.219460107338381616e-02,-2.621078555902741150e-03,-1.132411649879695552e-02,-9.590722708102721733e-03,3.547383844852447510e-01
3.266316025246963628e-01,3.133627193969274471e-01,-3.143350249678486530e-02,-5.129023567385044245e-03,-5.267059187187376210e-04,-1.189567239078147189e-04,3.517319262027740479e-01
3.255688436609314174e-01,3.307609921962704203e-01,-2.827063085410860821e-02,-1.672105728769955960e-03,-1.623809259476633468e-03,-6.142560561348702798e-03,3.566454946994781494e-01
2.098924260312434731e-01,4.443084855942977529e-01,-4.040748406496119660e-02,1.221950210715752605e-01,2.009278581453536813e-02,-5.882539948139462772e-03,4.715772271156311035e-01
3.144039304133382506e-01,3.233287708470568567e-01,-3.064461916416580389e-02,-1.941091909165297905e-02,-2.053000195260724914e-02,-1.704092727250437062e-02,3.542366921901702881e-01
3.181179814113582194e-01,3.406154053152847250e-01,-1.394016163611871972e-03,-4.089622946312064522e-03,-2.768167532006229523e-04,-5.705848209758495639e-03,3.315574228763580322e-01
3.283903457574914864e-01,3.283827115321957812e-01,-9.232524227627547653e-04,2.882869617535644725e-03,-6.101852313272529936e-03,-1.695314571824301517e-03,3.295302391052246094e-01
3.391314877991629673e-01,3.364707508751401122e-01,7.056153032194423247e-04,-5.988804552996109323e-03,5.936689741024308957e-03,9.328446133046565739e-03,3.378062844276428223e-01
3.405799164262898748e-01,3.175905498866690158e-01,-2.557750573940165140e-02,-5.172592402133041438e-03,-4.133688183678223618e-03,6.855772442066978070e-03,3.556045293807983398e-01
3.401672630590106827e-01,2.854983757236954078e-01,-2.623114910885432360e-02,-2.837195753706268659e-03,4.857741251492327453e-03,1.658388046344880934e-02,3.436945080757141113e-01
3.385560656362844867e-01,3.141819049740180447e-01,-1.902668938422447109e-04,-8.755001173662171985e-04,4.031874188744778015e-04,-1.699845295939877380e-03,3.272582590579986572e-01
3.280008173369142188e-01,3.288094043155095347e-01,4.356850904088249710e-02,-1.850169331864943544e-03,7.306978416230902607e-03,1.236280093960087298e-03,2.851445376873016357e-01
3.234303514951473169e-01,3.169507878100945586e-01,-3.375338413643946822e-02,-1.803304704566605510e-03,-2.368423142697240018e-03,-1.386899054393329715e-03,3.540341258049011230e-01
3.441225410901858073e-01,2.973442202115755828e-01,-2.942038797895057956e-02,-8.149391961083289962e-03,-8.851491615712494404e-03,-1.387965321252156506e-02,3.539223670959472656e-01
3.462533761653877606e-01,2.677194685972177357e-01,-1.932510786367155897e-02,-3.146824397444316496e-02,-7.634383775088540020e-03,-1.777943857831612573e-02,3.394095301628112793e-01
3.271031344820341524e-01,3.290819434126144305e-01,2.447705113998999149e-02,-4.461073098541780716e-04,-5.483492975546731471e-03,2.712131419986836111e-03,3.038061261177062988e-01
3.441264705123268097e-01,3.179447435553091061e-01,-2.474210428182826993e-02,-5.104262492655102512e-03,1.489118049183241459e-03,-1.149539073321485805e-02,3.571738302707672119e-01
3.803509759554107861e-01,2.163862379872739106e-01,-1.344008847317740285e-02,-1.626727112476274509e-02,6.785872471124409534e-03,1.256008673551447380e-02,3.446640074253082275e-01
3.643261812710990588e-01,2.329193070058136472e-01,-1.405390634626235702e-02,-2.949560487073431964e-02,4.789615923255074494e-03,1.198895708098582542e-02,3.373833298683166504e-01
3.548041581420982027e-01,1.986385351667180887e-01,-1.946946521167322586e-02,-6.999985963007576695e-02,5.448142393368479719e-03,1.359326301550495969e-02,3.483720719814300537e-01
3.567100167738320726e-01,2.296962755127796574e-01,-4.435111130191746187e-02,-5.656712498964260039e-02,2.516124365173446134e-02,3.326254483006955281e-02,3.753134906291961670e-01
3.374531320771567700e-01,2.504232373651839594e-01,-1.506691689881178853e-02,-4.145781826431187839e-02,4.068399980532705698e-03,7.993844502251686371e-03,3.264389932155609131e-01
3.108761217063211180e-01,3.448612212081312300e-01,-3.097479120031876310e-02,-9.892264984014873495e-04,4.500020653640760850e-03,-1.558835000056008101e-03,3.601469695568084717e-01
3.255567166145718616e-01,3.289727798952478133e-01,-2.391367120571794014e-02,1.795628306309517315e-03,3.920017807234263407e-03,1.076273088813256866e-03,3.512752354145050049e-01
3.202866980889742532e-01,3.426487050358089093e-01,-2.891042028716681034e-02,6.701092477869387580e-04,3.776107498318547352e-03,-7.674957426930840987e-03,3.612039089202880859e-01
3.266170463877139385e-01,3.268528951353621981e-01,3.827467281725330239e-02,-9.760327508517342449e-04,8.458891283164579958e-03,-1.867555727958537977e-03,2.888552546501159668e-01
3.472420682497238120e-01,3.247119024335396453e-01,3.535378950846546076e-02,3.466648508542748836e-03,-1.865678237471974724e-06,-2.721452047436510521e-03,3.013524115085601807e-01
3.550274269338362654e-01,3.467200976422439851e-01,5.917157828014402154e-02,1.055289569740557910e-02,-2.610257603099648289e-03,1.117176082275593563e-02,2.930373251438140869e-01
3.458415158428964076e-01,3.430827121048464212e-01,4.513374600018729699e-02,3.041424471800077776e-03,-5.001076396905106136e-03,1.948547617935904308e-02,3.014050722122192383e-01
3.289805975008845973e-01,2.824723744431240080e-01,-2.884274293278724088e-02,1.329710479607179238e-02,1.269817643108079111e-02,-2.006669863275113014e-02,3.402661085128784180e-01
3.222503670954413035e-01,3.239882853388740269e-01,-3.083067804882275165e-02,1.982639030648901835e-03,1.058205820237466399e-02,-6.755567640683036654e-03,3.546371757984161377e-01
3.143248847216666420e-01,3.052467684655074676e-01,-2.342891211354930503e-02,1.208631376870662570e-02,9.261392902112405845e-03,-7.952933419120631134e-03,3.346329033374786377e-01
3.262858471503128355e-01,3.183962546383526937e-01,-3.014138409974473354e-02,2.308515356175662447e-03,5.871291181469145970e-03,-1.672055963260343000e-03,3.527298569679260254e-01
3.253406595362501874e-01,3.184610194767284463e-01,-3.421370318675193145e-02,2.732262449571741005e-03,1.487951563154193144e-03,-7.233674209632904185e-04,3.562073409557342529e-01
3.279591294122302658e-01,3.025557666731002460e-01,-3.042264947784281692e-02,-2.833579547462334713e-03,-6.666295779616948289e-03,-5.628395839284154774e-03,3.467436730861663818e-01
3.183385095552590527e-01,3.206307365805451948e-01,-3.196770362413062228e-02,-9.354156466997864017e-05,-4.033092862314406461e-04,2.741869435020721779e-03,3.514907360076904297e-01
3.257933894915587270e-01,3.216592460818157861e-01,-2.850284461350433007e-02,7.300281500105804469e-03,1.863839402635681308e-04,-7.541634176026386360e-03,3.527163267135620117e-01
3.182185597075758432e-01,3.184585594541643472e-01,-3.422659190423871234e-02,1.030690476635358170e-02,8.825550527159418263e-03,-1.329439707902320585e-02,3.540971875190734863e-01
3.599231439967125468e-01,2.413605641693329917e-01,-3.813004175150691566e-02,3.280005176255363503e-02,1.386597891628211718e-02,-5.209972753696605341e-03,3.594370186328887939e-01
3.472492208885204490e-01,2.797435768149618696e-01,-2.773828084810678329e-02,-1.773689599591468549e-04,9.247133988719700992e-03,-1.315760585811580341e-02,3.473252952098846436e-01
3.176410154153870291e-01,3.250907772902383308e-01,-2.129869261770922506e-02,-5.150351795864530589e-03,-3.875836353484869538e-03,-6.770470215588616190e-03,3.431075811386108398e-01
3.254271826476667906e-01,3.258733767601597608e-01,-1.309972123034661151e-02,-1.870241714882378906e-02,2.447781751085839792e-03,1.088083309178492983e-02,3.408433794975280762e-01
3.276004318113321379e-01,3.337933054589883874e-01,-2.068503356174314356e-02,-9.726691093723590503e-04,2.446210819424273538e-03,1.077668654015581477e-02,3.519477248191833496e-01
3.255273452023092484e-01,3.275144739041034869e-01,1.766965500011433154e-02,1.961828579311060807e-04,5.035128365155614773e-03,1.763443976664075524e-03,3.089944422245025635e-01
3.152129100920053606e-01,3.295757998897576591e-01,-2.719691634977366990e-02,-7.676868039722860304e-03,1.060852495615542158e-02,5.888336570630445764e-03,3.506953418254852295e-01
3.255101556421794995e-01,3.435665463253478324e-01,-1.630718279521747860e-02,2.228713175335661468e-04,5.940884597422790500e-03,7.228613328298404139e-03,3.515677750110626221e-01
3.261623727756880475e-01,3.362044228135901980e-01,-6.376425909758010047e-03,-2.844018537327491769e-03,1.155025533366709368e-04,-4.874161366737331594e-03,3.378133177757263184e-01
3.308472791716994266e-01,3.363191251122586989e-01,-3.184673393760617532e-02,-5.893034101018555619e-03,7.865921314952152577e-03,-4.435741752128957791e-05,3.658569455146789551e-01
3.189063208219716783e-01,3.281508841380846864e-01,-1.014167407247471009e-02,-4.808702858103653006e-03,2.514192949698299765e-03,-7.451711347696708850e-04,3.339011073112487793e-01
3.321232107775443088e-01,3.312057725219951232e-01,1.739341709918057477e-02,-5.155585897382418230e-03,9.902026197875420446e-03,-3.423229682978242393e-03,3.149221837520599365e-01
3.624422711750214798e-01,2.851405567670162178e-01,-2.610802804425463308e-02,-7.402242190222463498e-04,-2.933698822938984093e-03,1.619646905453691818e-02,3.573873639106750488e-01
3.299895900117303382e-01,3.142684801998480992e-01,-5.945050588366806998e-04,1.544333180579594356e-04,1.218260264447493506e-03,-1.729879829153445478e-03,3.230314850807189941e-01
3.312839163020093736e-01,3.235870830295133338e-01,-3.244190745169212020e-02,-1.205520551746196330e-03,-1.158769756549171215e-03,2.549248767671334105e-03,3.599778711795806885e-01
3.310233478729869283e-01,3.252323825802521662e-01,-9.765529497919922530e-03,-3.524087987384005253e-04,1.355672610056057360e-03,-4.115861013696989028e-03,3.380145132541656494e-01
3.228959977390580827e-01,3.224261189641620673e-01,-3.558151125922817681e-02,-1.150782756675275539e-04,2.455834691701933199e-04,-3.020872220212483740e-04,3.582434952259063721e-01
3.397396959536628236e-01,3.186488449730106032e-01,-1.234115129977114700e-02,7.098590157157228311e-03,-1.049264855145810556e-03,4.144167611792982410e-03,3.423244953155517578e-01
3.450549295504681813e-01,2.911594883757604446e-01,-2.625850737876239682e-02,2.714618171396157055e-03,-3.198687782288292709e-03,1.447576069069461853e-02,3.484935164451599121e-01
3.348794275948974719e-01,3.159509482124720492e-01,-2.911967400633302949e-02,1.905372268753102900e-03,1.293840165177164358e-03,3.394283461553220665e-03,3.549847304821014404e-01
3.313174377822245553e-01,3.271577941013196211e-01,-2.374429797579727386e-02,-3.787154427567819299e-04,-1.153976346057682643e-03,2.859868340010965782e-03,3.530413210391998291e-01
3.307671499148850947e-01,3.271013751616218546e-01,-2.617803907945165376e-02,-1.684508355364121301e-03,-3.722219082224002915e-03,2.125345989897173184e-04,3.551971912384033203e-01
3.421216863640238470e-01,3.244899643915997722e-01,6.829981098131532313e-02,5.038345288962837662e-03,6.972023552122558546e-03,-3.996760375376849639e-03,2.659534811973571777e-01
3.236964325213103622e-01,3.248521703501045521e-01,7.583144255930970856e-02,1.605851304614936076e-03,4.637340759458055683e-03,4.345717087252654563e-04,2.485913783311843872e-01
3.287719817148764268e-01,3.278279748621487077e-01,6.348783469648477951e-02,-2.272005318029817443e-03,-8.005958174788276385e-03,8.819981871531412318e-04,2.652098238468170166e-01
3.212708615298758286e-01,3.283262603140403302e-01,4.282276630493320191e-02,2.426042353923696989e-03,2.278007392424000709e-03,-6.293698529986536776e-03,2.823114097118377686e-01
3.196710962481377760e-01,3.225519514801474807e-01,-2.968879302443333534e-02,5.471742552754442837e-03,-1.233494085315978844e-02,1.256448561006470906e-02,3.522597849369049072e-01
3.021052956405397838e-01,3.027246316944811610e-01,-1.687083209502723835e-02,-4.354206697989900096e-05,2.214312472539819792e-04,7.071593138215260133e-04,3.192888200283050537e-01
3.165304034293857649e-01,3.114344974890551621e-01,-2.777028541155970864e-02,1.094840904757400299e-02,-8.444162064412761431e-03,6.484436512464695351e-03,3.428032398223876953e-01
3.289529306744272130e-01,3.142393988139676186e-01,-3.203403600871504442e-02,3.218140538711345908e-03,-1.702909435954175600e-03,2.831144815675794876e-04,3.539162278175354004e-01
3.284301198989744708e-01,3.150990816308872344e-01,-2.672701940574975787e-02,3.195703595986079323e-03,-4.462569962271913625e-03,5.868438331797734379e-03,3.489604592323303223e-01
3.329814699009470136e-01,3.235240691288329695e-01,-2.484510009190890600e-02,9.683817830328114371e-03,-2.591277268040092629e-03,1.027998831586024453e-02,3.540673553943634033e-01
3.276989909571790260e-01,3.186259219818634580e-01,-2.138597987662704814e-02,6.787251090570829704e-03,-7.293576227392809842e-03,3.010794641108616512e-03,3.451091945171356201e-01
3.244853686041641594e-01,3.193650540669735749e-01,-3.225774584836249570e-02,9.166807591514448440e-04,-4.254913918642901256e-03,3.664138499162346383e-03,3.543477654457092285e-01
3.249002424566250768e-01,3.255449787232775338e-01,-3.197520750209933982e-02,-1.154785521174053102e-03,-4.022626207271591016e-03,2.671657838994016647e-03,3.573017716407775879e-01
3.326315267619809890e-01,3.223727380188330383e-01,-1.561468045025068974e-02,-6.679446583587989039e-03,-1.557987147586273758e-03,2.900563163893896818e-03,3.434740900993347168e-01
3.154007425078647064e-01,3.304018964931736968e-01,-3.097749022320231416e-02,-2.262778289554222624e-03,-5.649538311461550083e-03,-2.773738211971991919e-04,3.542743623256683350e-01
3.601772502412020627e-01,2.796855307474123142e-01,-2.654821920684505288e-02,-9.763239114999855937e-04,-1.589258042519986090e-03,9.172242318431311422e-03,3.537939190864562988e-01
3.312997825928406526e-01,3.261494737522761533e-01,-2.797242993450729798e-02,-7.076714591906603166e-04,1.841812228308796527e-03,4.064825305557493579e-03,3.568107783794403076e-01
3.318868143261086145e-01,3.156965606705295913e-01,-2.838459177345251105e-02,-1.944016930408979695e-03,1.156816651076574996e-03,2.148784091237272015e-03,3.524967133998870850e-01
3.314123428340477462e-01,3.166261352654446970e-01,-2.940416569369025401e-02,-1.860445538498684947e-03,3.094810692663153319e-03,4.270748208184364271e-03,3.537879586219787598e-01
3.337493246215362808e-01,3.175340981846709321e-01,-3.150313575308771874e-02,-1.502167177689391194e-03,3.028262889049608119e-03,6.600562532521849456e-03,3.576515316963195801e-01
3.116848303689396249e-01,3.167180838669757525e-01,-2.529121721594745908e-02,4.800763090576742713e-04,6.780666259975303518e-04,3.724941248231656860e-03,3.395850062370300293e-01
3.371616576333082982e-01,3.149305148525133324e-01,-2.589599638811773685e-02,-8.304458627176190995e-04,2.252518574179015326e-04,2.767844775127877889e-03,3.525040447711944580e-01
3.463461584214927447e-01,3.045369768047048176e-01,-1.616142984482288325e-02,-1.811478011478932088e-02,1.184158535546113444e-02,8.886038686124668115e-03,3.458982706069946289e-01
3.365885233496058726e-01,3.112491535981978252e-01,-7.380093690638106496e-03,-3.148378338163660990e-04,7.832624279057457317e-05,5.964802235796040847e-04,3.320269882678985596e-01
2.925872661216905035e-01,2.747747573987237568e-01,-2.678943442293779675e-02,6.933510976120837999e-02,-1.718023358321185343e-02,8.421291067818562417e-03,3.348883092403411865e-01
2.568404102321797389e-01,3.087362547667769630e-01,-9.514726994843153429e-03,4.221936266739117344e-02,-2.610487723268642771e-03,-1.583591382992383329e-03,3.046905994415283203e-01
2.226499209356465059e-01,3.297407851951361657e-01,-2.318284047652030555e-02,7.297344109711756399e-02,-7.490299036291287425e-03,3.688885150107665267e-03,3.382501304149627686e-01
2.426823611659459923e-01,3.317358198605704911e-01,-1.068112017146724546e-02,3.742924584485592815e-02,8.007997945104795845e-03,-7.803057684036286343e-03,3.150624632835388184e-01
2.527662839957892094e-01,3.339246089555801822e-01,-9.486924459723017344e-03,3.179850736915615372e-02,-6.255186110120896162e-03,7.315779447558880700e-04,3.159111738204956055e-01
2.223880436640604530e-01,3.213555376273160014e-01,-1.294145810153671250e-02,7.599452475385964911e-02,-1.426652745384891958e-02,1.103053419593620632e-02,3.267500996589660645e-01
2.726811207625338684e-01,3.312810461493655434e-01,-1.024647939010570052e-02,2.925950858026422213e-02,-1.158468592557134087e-02,7.380552989058423996e-03,3.212411999702453613e-01
2.885589492051565119e-01,3.106812382695159913e-01,-1.116160202483174047e-02,2.052588913119646197e-02,-6.421203383365537559e-03,8.797814854847362323e-03,3.139620125293731689e-01
3.051392897267681259e-01,2.993260606409344216e-01,-1.083840412147757393e-02,4.315579764142301461e-02,-3.172389831400433159e-03,7.432312124673174508e-03,3.222142457962036133e-01
2.751298877554407274e-01,2.981625123200321581e-01,-1.207827819895340715e-02,3.484474426135353992e-02,-4.865258777503554503e-03,6.910093544991174550e-03,3.057628571987152100e-01
2.870881648553558763e-01,3.559747509300694723e-01,-1.574546640655957730e-02,-4.575277429058843826e-02,2.368572707531011248e-02,1.717073224366061357e-02,3.551932275295257568e-01
3.481484124048404016e-01,2.646960989410823140e-01,-1.872288288060033890e-02,-4.660896177603558038e-03,-1.654489797465013548e-04,-9.507107382229244234e-04,3.331824541091918945e-01
2.753668701333126800e-01,3.429416662884544609e-01,-2.948236041399784901e-02,-3.531489786512147233e-02,1.476984523285863188e-02,1.336126670394754100e-02,3.507577180862426758e-01
2.965194950599862600e-01,3.072944119569417376e-01,-1.733363272896742968e-02,-5.453441426063791730e-02,2.623147702857741084e-02,1.729570198819924826e-02,3.374690115451812744e-01
2.420126477429918599e-01,3.276668053785821710e-01,-4.211188655662034819e-02,1.247501170356679900e-01,-1.200470295173187030e-03,-2.135601207688059278e-02,4.005748033523559570e-01
3.244679221335534658e-01,3.238648676938918336e-01,-3.301159940872189225e-02,3.515375735489171464e-04,-9.861252742340642988e-04,-2.323070535411816441e-03,3.572056293487548828e-01
1.922542969253067391e-01,3.747466727979347767e-01,-1.258724441449171616e-02,7.598016551343887703e-02,-1.040768940508562078e-02,2.353287770892880174e-02,3.632504045963287354e-01
1.128214067102274454e-01,4.066453631360538723e-01,-2.551848945043402872e-02,6.602007810424979917e-02,-3.282339978240170209e-02,2.210122158108412949e-02,4.048351347446441650e-01
3.265666777548068556e-01,3.224353202079836556e-01,-3.480560234938320785e-02,3.135260769603985640e-04,-1.690053797237648248e-03,-2.055002115877547575e-04,3.593369126319885254e-01
1.893222870269286318e-01,4.595025821791656195e-01,-1.398861045127069991e-03,8.591215625053479077e-02,-3.153040471480134110e-02,-4.056461801464576050e-02,4.369927942752838135e-01
1.943156493560606046e-01,4.057098146768561286e-01,-3.117753340570303400e-02,4.780973674387205274e-02,-2.649361327370652192e-02,2.334247848157136943e-02,3.921737670898437500e-01
2.123575402975770021e-01,3.681270732616315766e-01,-3.119511279509329382e-02,1.270515986137769615e-01,-3.388121532615931408e-02,-4.361859890188955584e-03,4.164700806140899658e-01
3.294414380916300678e-01,3.257193159880681921e-01,-2.299890702246881746e-02,-7.346889486919368217e-03,1.254255280088681021e-02,1.831861752846356342e-02,3.529260754585266113e-01
3.274194337302477331e-01,3.257815398735970924e-01,-1.322378160683365667e-02,-1.005683271797098641e-02,7.674575419586424953e-03,1.373810585937952980e-02,3.413632512092590332e-01
3.259359319534805843e-01,3.373769111190895176e-01,-7.348687109194534939e-03,2.442920887193367798e-05,-1.550172722462683046e-03,-4.164138814210483278e-03,3.392371833324432373e-01
3.367809336483231220e-01,3.281176664209534688e-01,-1.594132555151350772e-02,3.000545548189129910e-04,-2.806656208030972396e-05,2.610316903476638667e-03,3.485011160373687744e-01
3.160166798369945518e-01,3.371429362784351125e-01,-7.992890059708518402e-03,-4.494253820887415471e-03,-6.859762707092467195e-04,-4.150090103122510907e-03,3.352421522140502930e-01
3.203941638780645196e-01,3.450709000477484301e-01,-2.896403258419047444e-02,-8.212780768993607761e-03,1.138209548772729958e-02,9.643400027548875179e-04,3.631458580493927002e-01
3.401551493141437010e-01,3.294978968551974807e-01,-1.720167618421417077e-02,-3.884260758864204605e-02,1.093300252169934761e-02,5.202749552492109790e-03,3.591310083866119385e-01
3.529673448853756779e-01,2.442560208781299202e-01,-2.575117073147736857e-02,3.320774820190422472e-02,-7.847285873528850667e-03,2.310839616554421355e-02,3.452098965644836426e-01
3.818268514902647959e-01,2.446477480546712935e-01,-2.782492046298751243e-02,3.881964079065121365e-02,-5.752904561141589448e-03,2.428884291954001504e-02,3.699013888835906982e-01
3.377408501361948145e-01,2.835504865761330207e-01,-2.194209616501627269e-02,8.934225441851822991e-03,-4.587752420544606580e-03,1.372791650474579003e-02,3.371721208095550537e-01
3.859050960471049341e-01,2.363833443705677384e-01,-2.677653780211455836e-02,7.603682781546364580e-03,-1.378196932079180093e-02,1.736046449005309786e-02,3.641502857208251953e-01
3.649204734889547330e-01,2.883010135086875314e-01,-1.251422905322893686e-02,-6.696811949475717229e-03,8.539221879989004893e-03,1.382764981961921887e-02,3.468941748142242432e-01
3.401964058734517904e-01,2.938855754262466591e-01,-2.731524180900288257e-02,6.934399217908003218e-03,-6.794500770867225280e-03,7.740001873347649233e-03,3.473502695560455322e-01
3.310797823191989342e-01,3.355425602384510819e-01,-8.329529523968065563e-03,4.843828981492304814e-02,3.118140112056842078e-02,-9.147607702228388593e-03,3.562863767147064209e-01
3.420463332024037961e-01,3.285380432855118382e-01,-4.386571183165544063e-03,9.586293296743193457e-03,-1.565670153237663353e-03,-2.220870372508061338e-02,3.424634933471679688e-01
2.973189763935634722e-01,3.681502680779419334e-01,-1.481217468851470098e-02,5.989889341693475575e-03,2.072694094341080012e-02,-1.562554138829236328e-02,3.559220433235168457e-01
3.123422526924972686e-01,3.370040985718880111e-01,7.981633719531366911e-03,5.298682233500691743e-03,-3.525386542624032657e-04,-4.940504055602106329e-04,3.175452947616577148e-01
3.340754240650457563e-01,3.323451365099608923e-01,-1.599772530567744599e-02,6.636866099847749806e-03,8.043022632110307822e-04,6.819415668849398504e-04,3.494051396846771240e-01
3.280593298127313928e-01,3.274490167949124508e-01,3.855297689282277673e-03,2.921337780793401917e-04,-3.072511828161341579e-03,5.239195117102529373e-03,3.240704834461212158e-01
3.255861600640079789e-01,3.218665131356983622e-01,-3.490163974388124646e-02,1.142498696582272370e-03,-1.633782024035909620e-03,-2.627062843159120968e-04,3.586593568325042725e-01
3.613632680881866399e-01,2.256855186132913360e-01,-1.723814058966888219e-02,1.699929271627371400e-03,1.921787189271990655e-04,-1.378778718691849210e-02,3.331047594547271729e-01
3.622192658695769785e-01,2.584118357195281934e-01,-2.514876014208752841e-02,-5.455222803850972788e-03,-1.151779632308964213e-03,-1.226480433349342453e-02,3.480845093727111816e-01
3.486673869254210967e-01,2.661148105222030380e-01,-2.529455127202595577e-02,-1.756116170756711128e-03,-1.296480038517921953e-03,-1.234617356107594807e-02,3.409729003906250000e-01
3.278878154583360072e-01,3.228521909368324838e-01,-3.415930719913765068e-02,1.422176557391662162e-03,-1.091064801557359645e-03,1.837936783992958798e-04,3.595693111419677734e-01
3.255289723333859575e-01,3.136242659927088727e-01,-3.142974179345828234e-02,-2.748904568088818973e-03,-4.344262301270248108e-03,-5.484706790822985872e-03,3.513990342617034912e-01
3.227223056140018365e-01,3.170985715640491920e-01,-2.958188753560100914e-02,-2.608459464120963054e-03,-4.585118805891864532e-03,-2.984701894427034367e-03,3.496838808059692383e-01
3.263763360747279352e-01,3.247782865701593358e-01,-3.404933421484435119e-02,3.097430121491438846e-03,-1.351278683430203733e-03,-6.628171037588216370e-04,3.596787750720977783e-01
3.234174292591446842e-01,3.257034179485880365e-01,-3.073643283140764515e-02,-6.605052552944387255e-04,-5.335749826492415179e-03,-5.561656646905405003e-03,3.555549085140228271e-01
3.594408911981916699e-01,3.014044051799862900e-01,1.481649534363738141e-02,1.879316351669887454e-03,3.650222927252319907e-03,2.913379357069133604e-03,3.197021186351776123e-01
3.279040796942196967e-01,3.270976451111886063e-01,-6.695299832459561395e-03,4.328653785375867436e-04,1.490394961835338292e-03,-5.801324999143250838e-03,3.343587219715118408e-01
3.445113449408170880e-01,2.959251154374393789e-01,-2.541546011752968126e-02,4.682624459524331595e-03,9.034155719931833209e-03,-1.381216393002979853e-02,3.494510948657989502e-01
3.236079976458776652e-01,3.080901399971927579e-01,-3.055353905355226440e-02,-1.425445144481323400e-03,-6.247345552490687383e-03,-4.331687166216270646e-03,3.469219505786895752e-01
3.587469165881679856e-01,2.698463317552436402e-01,-1.819097589188417574e-02,2.045961881960416465e-02,1.884715784989297871e-02,-3.727509378032844989e-02,3.506639599800109863e-01
3.639700960971870014e-01,3.349887229908684594e-01,-1.174867728217732221e-02,1.429099110186757629e-02,5.385012882586471357e-04,-3.928841266089081949e-03,3.630090057849884033e-01
3.463268543574536951e-01,3.249838959385730197e-01,-1.029041246993830927e-02,-3.744567575123287397e-03,2.098105581986419409e-03,-7.433802447708813370e-03,3.467580974102020264e-01
3.660160293563862743e-01,3.019917137293226528e-01,-1.398212351462863046e-02,1.553730627475392520e-02,3.376151690890508844e-03,-1.693998784608095193e-02,3.546659052371978760e-01
3.273923446345345933e-01,3.262340617845077562e-01,-3.773847521556544793e-03,-1.020435060354029158e-03,4.648647525337143253e-03,2.487573735329953479e-03,3.307194113731384277e-01
3.224995851859017715e-01,3.231795567420305826e-01,-3.167693110139763180e-02,1.194395653546148845e-03,8.130202836807256736e-03,-8.152619072540640000e-03,3.550834655761718750e-01
3.216014213401947597e-01,3.368804442671990418e-01,-2.482109873909943421e-02,1.409063739571245124e-04,2.812493697110622377e-03,-9.580315850648788226e-03,3.547310829162597656e-01
3.171441251724886889e-01,3.327032957442224159e-01,-2.448024139171561808e-02,7.248905848859246714e-03,7.532399403447210921e-03,-5.153053223517262312e-03,3.502459228038787842e-01
2.843788688810869880e-01,3.340368273955643952e-01,-3.087796264237085975e-02,8.073128978200177705e-03,1.903731942146474551e-02,-8.521451249182679030e-03,3.449759781360626221e-01
3.172571913705899416e-01,3.321246047392465983e-01,-2.946449919258326000e-02,3.204239236697626995e-03,5.378409261334378411e-03,-3.740758774566963797e-03,3.546144366264343262e-01
3.156854337336012506e-01,3.330732185540115631e-01,-2.804707438379316908e-02,2.942972551548402298e-03,1.124194091298207727e-03,-7.825358491671191097e-04,3.527927696704864502e-01
3.030896229572502265e-01,3.790734512403410861e-01,-2.623982286074205694e-02,1.768562993526077293e-02,1.488074002489162342e-02,-5.004634938880925255e-03,3.754103481769561768e-01
2.420840024657904266e-01,3.390152017730923006e-01,-2.483213378938131655e-02,5.092806366985150324e-02,-2.467877394857377962e-02,1.380040312923729896e-02,3.416019082069396973e-01
2.327727067413205009e-01,3.069576477934990999e-01,-1.526064037951532781e-02,7.909055827614330791e-02,-1.384076809403993885e-02,9.938320895621027481e-03,3.241315186023712158e-01
2.324428319094916096e-01,3.553091604914164203e-01,-1.162122903069046087e-02,8.315445730435140625e-02,1.109923290416250799e-03,2.597704982815580922e-04,3.541165590286254883e-01
3.262379479802300919e-01,3.285819656477306228e-01,-2.997555380671879099e-02,-2.102171890114898790e-03,-8.750618593507731614e-04,3.486043186372667600e-03,3.574640452861785889e-01
3.257654907971133107e-01,3.245912303053461456e-01,-2.989756122126052684e-02,-8.148259607047147069e-04,-3.990213961072224674e-03,5.001791539158748252e-03,3.552531003952026367e-01
3.247162343142112606e-01,3.292255732682045632e-01,2.169359774376797279e-02,-1.002400798050367189e-03,-4.692340031764395507e-03,6.652899453220713875e-03,3.056326806545257568e-01
3.298866849338503160e-01,3.247413179618041101e-01,8.184218326368425389e-03,-1.710686931895047998e-03,-7.768173677725932411e-03,-2.240822351287773996e-03,3.194817006587982178e-01
3.285422204022150350e-01,3.231360521756780346e-01,5.142027017984734938e-02,3.852143159754008346e-03,-6.383067467066030898e-03,2.072288399218764367e-04,2.747626304626464844e-01
3.277673918444129475e-01,3.302137335527631778e-01,4.392405081010483658e-02,2.524288523307856216e-03,-3.898459761910779212e-03,4.568830963702929376e-03,2.852976322174072266e-01
3.238311331866075005e-01,3.269450110450828895e-01,4.105413827279361105e-02,-1.343992134755310659e-03,-9.329069036798811124e-03,2.974778546419179406e-03,2.848615944385528564e-01
3.275574037843538289e-01,3.270336992180816194e-01,3.337610221322992454e-02,-6.591342943928884526e-04,-9.644191939308670650e-03,1.905807350492520671e-03,2.944148182868957520e-01
3.255813730975932185e-01,3.268820265714936779e-01,2.448266875867985415e-02,-2.792029585408885555e-03,3.064130669937875119e-03,5.505473466443411984e-03,3.019871413707733154e-01
3.249868464401555190e-01,3.296897723629667043e-01,4.470352909390326590e-02,-7.907185602016625250e-05,-9.990415539092448519e-03,1.240942009831359338e-03,2.832014560699462891e-01
3.318577313996258216e-01,2.295995202261071066e-01,-1.809919002255219733e-02,-5.570502168504017082e-02,-8.842300293895240595e-03,-1.888058017200983790e-02,3.282586634159088135e-01
2.693458007143175736e-01,2.707431824700217149e-01,-1.940449245510827980e-02,-7.833349074210142760e-02,-2.303979186332173051e-02,-2.536262503567537560e-02,3.251351714134216309e-01
2.742279209753315516e-01,2.784644763620257590e-01,-2.665315127185521882e-02,-7.601673259703031760e-02,-9.522943842676009560e-03,5.590291473659311262e-03,3.309433758258819580e-01
3.319351720801615446e-01,2.589783683378008572e-01,-1.887670433577889884e-02,-8.953726634582985511e-02,-3.104931550848158222e-04,-1.868826613424046795e-02,3.576260209083557129e-01
3.169405411185465815e-01,2.901773714446927999e-01,-2.473228036696475951e-02,-1.001463845123652108e-01,6.930299927796467483e-04,9.578428234287732820e-04,3.720274567604064941e-01
3.004766444123633251e-01,3.376574682227850843e-01,-3.085412327739933680e-02,2.704659468070217451e-03,9.790496347593543452e-03,-6.153702206418846035e-03,3.520010709762573242e-01
2.833805794685230195e-01,3.902886784165550127e-01,-1.183889315468900083e-02,3.957825868735361657e-02,3.261949454786858965e-02,-1.271004476873986017e-02,3.721844553947448730e-01
3.001367963095106228e-01,3.550614903149958979e-01,-2.552557784156375686e-02,3.083051137942043485e-03,9.156557213841613101e-04,-5.287307314772214141e-03,3.564751148223876953e-01
2.791454361608760038e-01,3.348837819191786691e-01,-2.578969035840308899e-02,1.233784723804880364e-02,6.659871750755204031e-03,-5.902743527364201145e-03,3.373174071311950684e-01
2.487079332090852968e-01,3.595155560717734899e-01,-3.092250846483818316e-02,1.645120669076148220e-02,1.359359099376868454e-02,-8.984913769776160753e-04,3.504645526409149170e-01
2.249386701424088697e-01,3.953953266953215140e-01,-1.339642011163005852e-02,4.702848899650054898e-02,1.891778003482156439e-02,-2.168366126031575150e-02,3.682446479797363281e-01
1.915889601724285185e-01,3.841627795829281045e-01,-1.779231512352424938e-02,7.379204398299522849e-02,3.106849606899524628e-03,4.079122184422787935e-03,3.710272610187530518e-01
2.225825365041668169e-01,3.135952731915566671e-01,-1.451352127771327050e-02,7.753102471407555263e-02,-1.388944389286002508e-02,3.206352067977445274e-03,3.236037492752075195e-01
3.288526073188698939e-01,3.207146042687493148e-01,-2.007019879077320823e-02,-6.325451445191268562e-03,-6.915213608614280416e-03,-5.265583455578006855e-04,3.453087508678436279e-01
3.197211506346903653e-01,3.200276182364693023e-01,-2.943005949741273053e-02,-1.244291715899122595e-02,-5.625963366498202764e-03,-8.686717669650552073e-03,3.504275679588317871e-01
3.194230778050370367e-01,3.394153803249167489e-01,-2.986841099168363600e-02,-8.843567801268407622e-03,-5.960878391663366853e-03,-5.869584694051461007e-03,3.603220283985137939e-01
3.263755204625878314e-01,3.064326097038637675e-01,4.775505493918169586e-03,-1.774132530436089289e-02,-7.002437014205806914e-03,-1.208925263261929200e-02,3.145480453968048096e-01
3.309977611530136588e-01,3.223421880603779544e-01,2.091080093863662004e-04,-1.258416521536764778e-03,3.912580560347063592e-03,1.843041199980865108e-03,3.266400992870330811e-01
3.393438956704366571e-01,3.256016294550281853e-01,-2.537597148093179156e-03,-7.107624298269926005e-03,4.817850580287496264e-03,-2.220398248827917852e-04,3.355516493320465088e-01
3.265702729148715067e-01,3.261420896559213412e-01,4.572969173373103713e-03,-8.230589222728871765e-04,-2.963237727093804511e-03,4.505207505498932757e-04,3.218284547328948975e-01
3.143602496578499217e-01,3.277642433552699908e-01,-3.075054263987758718e-02,-2.495561305764513842e-03,1.691458480940915849e-03,3.848538019647376046e-03,3.521060645580291748e-01
3.143998257765856508e-01,3.231425440893092027e-01,-3.111548466566696480e-02,-3.350974513147034900e-03,3.000160652049849207e-04,4.820191508971769824e-03,3.501166403293609619e-01
2.865399018313156132e-01,3.299148477256178547e-01,-2.470674826989677220e-02,-5.043224782823240056e-03,5.849409391957473281e-03,8.941678418500517006e-03,3.356709480285644531e-01
3.034204822176091443e-01,3.334225022328254351e-01,-2.888996234866819668e-02,-3.154784709764366958e-03,1.334996640154695324e-02,1.200493704993038820e-02,3.497101962566375732e-01
2.934312092285719653e-01,3.212441896592650448e-01,-2.422536631744823254e-02,-3.767490493181792355e-03,5.848599009009707375e-03,8.238683553716472097e-03,3.329610526561737061e-01
3.016708736837587779e-01,3.425838706452949411e-01,-5.460685132552045573e-03,2.379391043934594649e-02,-2.069524568159764044e-02,9.347841613337916009e-03,3.343872129917144775e-01
3.297303618871951225e-01,3.291220939419277070e-01,1.136808929882410224e-03,-4.145824617384469279e-03,7.937011249333035881e-03,-6.597626183105740304e-03,3.288546204566955566e-01
3.025613100295468927e-01,3.377712281365813918e-01,-3.293001084082972096e-02,4.312137463542250332e-03,-9.122450863807615978e-04,9.820594753692884343e-03,3.549005389213562012e-01
3.099037379345082055e-01,3.498392515469261888e-01,-3.517101723676410718e-02,1.426653970631883150e-02,-6.924985361879397797e-03,3.177288417502772706e-03,3.677457273006439209e-01
2.613203565244044402e-01,3.605361778450644206e-01,-2.392620469694006768e-02,1.115271011373259943e-02,-3.791018122843084481e-02,1.107402761606291223e-03,3.524183928966522217e-01
3.242538788861871746e-01,3.219769373923075384e-01,-3.521334475853984958e-02,-1.063366137778201225e-03,-1.072980903005160734e-03,2.995054630091958567e-04,3.583441078662872314e-01
3.034953611611370672e-01,3.587440743795385356e-01,-2.726571419852635847e-02,1.039587967033282247e-02,-4.619660865422523834e-03,-2.188674716308901345e-03,3.621215820312500000e-01
3.258263066969104838e-01,3.284739388069229937e-01,-5.784394812430149191e-03,-2.526925410262295668e-03,-5.042208838096055509e-03,2.229527617984362279e-03,3.331080675125122070e-01
3.229736775435794183e-01,3.185240337837645375e-01,-3.010297711755871575e-02,2.355484594276218216e-03,-3.655450187653149722e-03,4.237241282015038156e-03,3.510305583477020264e-01
3.177279950071869585e-01,3.226760945598320385e-01,-3.234435551203296288e-02,2.318529497860881590e-03,-3.945981966510017300e-03,4.665230691233438788e-03,3.527541160583496094e-01
3.227216349882939816e-01,3.248039718974795598e-01,-3.421263946929628541e-02,-1.165401560778524899e-03,-1.490276112582024880e-03,2.173174223878703275e-03,3.580147624015808105e-01
3.190759847991880283e-01,3.166030601448447945e-01,-3.254588107012723608e-02,2.317370118930578947e-03,-4.282934452803583217e-03,4.322892199107836175e-03,3.505734205245971680e-01
3.224295591988302068e-01,3.260335343503094618e-01,-3.018846184118381681e-02,1.069367246068082030e-03,-4.359244480626357256e-03,5.123239165084912672e-03,3.546300530433654785e-01
3.243012532389950020e-01,3.226492840480600366e-01,-3.481655623580837133e-02,-1.469453749382611425e-03,-1.627963357825939735e-03,1.089689368092431124e-03,3.583197891712188721e-01
3.270805238207659671e-01,2.750153103506954300e-01,-2.200333088099942769e-02,5.451837917330693006e-02,-1.084215652518939060e-02,2.441899073404278295e-02,3.427148759365081787e-01
3.330977907558604900e-01,3.233598778457238421e-01,-2.741293574598677174e-02,1.511327088346813181e-03,-1.045488216735719969e-02,1.779707249976448385e-02,3.575432300567626953e-01
2.890620050238889571e-01,3.069684445455861943e-01,-2.564064808579161192e-02,5.479348709435281906e-02,-1.986450727535254285e-02,2.384304991814669913e-02,3.418915867805480957e-01
3.155341971321335426e-01,3.079893104037612073e-01,-2.749971270035994619e-02,1.333817431916501858e-02,-1.093703172992644031e-02,1.378354388466410292e-02,3.414726555347442627e-01
3.160955582261610886e-01,3.118691445610726753e-01,-3.011280840584992791e-02,1.701162234865264550e-02,-1.109575990382541746e-02,5.667514241639802150e-03,3.460473418235778809e-01
3.207260864042378312e-01,2.964526879866741238e-01,-1.865482869463433446e-02,3.034384856085600712e-02,-1.267496533590153213e-02,1.202082228690256466e-02,3.334792256355285645e-01
2.737301665391080885e-01,3.202334380181001139e-01,-8.962357548877808444e-03,1.680095884457422084e-02,2.976850550155756090e-03,-3.867307182299979315e-03,3.100677430629730225e-01
3.197262142527228512e-01,3.265211785796264254e-01,-3.279654049030167329e-02,5.864409699308266574e-04,1.831520763029121984e-03,-3.375511497319532653e-03,3.560324609279632568e-01
3.061173459825998755e-01,2.693967624010433770e-01,-1.476822701381463876e-02,3.142476206038794656e-02,-7.027175049666834969e-03,7.413544082916251332e-03,3.095293641090393066e-01
3.226104800501889969e-01,3.086858431208870934e-01,-2.762964749572133227e-02,7.152511492814761507e-02,1.363536240017187637e-02,-2.135586388723766799e-03,3.659290373325347900e-01
3.462380634446999839e-01,2.970911050392614494e-01,-3.050779694465197145e-02,6.345287160248810551e-03,1.161088883575220852e-02,-8.951397184812191418e-03,3.558125495910644531e-01
3.365433923870866928e-01,3.164102525674704625e-01,1.605896742870288607e-02,3.575554830338793268e-03,8.737266050132240849e-03,1.132198011467118546e-03,3.113430142402648926e-01
3.330120748775488027e-01,3.376244756868770902e-01,-2.280213687183860194e-02,1.063021080813620831e-02,1.242639068883005966e-02,-1.302976912278818941e-02,3.599691092967987061e-01
3.380253875378472772e-01,3.358302583739415370e-01,-2.772976326652001888e-02,7.959134250277164965e-03,1.225485773652330336e-02,-8.936058829316808130e-03,3.658673465251922607e-01
3.289144844287570923e-01,3.246257186744644363e-01,-3.305202073351531933e-02,-6.825988412744706316e-04,4.022376746895520508e-03,8.970698295977032636e-04,3.599140346050262451e-01
3.475004959285964423e-01,3.055411102639953302e-01,-1.617037521138853240e-02,5.420244489016756706e-02,1.011514589474080648e-02,-2.287385736859159913e-02,3.597888052463531494e-01
3.318875084423972832e-01,3.314464868715366608e-01,-1.662293394556488280e-02,1.508325813654434050e-02,1.508816540611047918e-02,-1.649907688539498096e-02,3.514088094234466553e-01
3.382539991637422139e-01,2.881177245857927671e-01,-1.688849676790279974e-02,2.774802618320487690e-02,1.210783034261742053e-02,-2.431492949604371206e-02,3.396433889865875244e-01
3.259727280909591740e-01,3.285720423037117310e-01,-1.833771423011471002e-03,9.784546295512350569e-04,1.451988360797120889e-03,1.223186725171594670e-03,3.291346430778503418e-01
2.624908198938917803e-01,3.590356263518911795e-01,-2.309937205822604200e-02,3.007445274948275168e-03,1.155410266359412942e-02,9.070857841527906265e-04,3.447970449924468994e-01
2.188646899343990870e-01,3.827035356571427127e-01,-1.816082640037280926e-02,2.685638387091501822e-02,1.483145149551988798e-02,-8.277915507743843770e-03,3.533942997455596924e-01
2.553011306537292247e-01,3.519752137279164028e-01,-1.827728349879084724e-02,1.086941124059521459e-02,1.239525828456871509e-02,-2.963375190251470691e-03,3.338872194290161133e-01
2.180241735103090606e-01,3.708106780262068192e-01,-1.856765264843238117e-02,6.487210198727506871e-03,7.844459595034342786e-03,-2.100113397337359869e-03,3.402815461158752441e-01
2.137301140523366894e-01,3.650595559925543521e-01,-8.797165958177144418e-03,-4.850420822140632734e-03,-2.285626432423391603e-03,4.371584796785013376e-03,3.259409368038177490e-01
2.616200792239066208e-01,3.600019186559175743e-01,-2.603176866048262372e-02,7.355301797924587801e-04,7.128599448647421517e-03,8.780763477584574341e-04,3.476760983467102051e-01
3.466196272315357763e-01,3.407610020726077327e-01,1.536297373562298119e-02,-1.322040576698920583e-02,-4.693120743324907113e-03,-7.140707574881389498e-03,3.294965326786041260e-01
2.970006302626765904e-01,3.800609330670947084e-01,4.428156609275438194e-02,1.091286237642463686e-02,4.055058805463959692e-02,-1.507939594808606343e-02,3.126169443130493164e-01
2.930157752002469085e-01,3.461029060200477847e-01,5.060239656546644538e-03,4.743261358239761125e-03,1.091726257679307734e-02,4.016466831770164683e-03,3.185856640338897705e-01
1.429253896078092056e-01,5.105309611311107387e-01,-6.628899880827959779e-02,2.663266369769186348e-02,-5.741396127521383730e-02,1.888918641805187836e-03,5.175331830978393555e-01
3.348217628986207561e-01,3.069033271292880283e-01,-3.167835204828189921e-02,-2.215083621450652032e-02,9.450186439723567630e-03,1.980709493927928014e-02,3.574724197387695312e-01
3.467025306659052841e-01,3.063033299195760950e-01,-3.315630505415395612e-02,-1.749865966169118423e-02,7.823658228416536381e-03,1.699356222808412128e-02,3.640706241130828857e-01
3.356175458364237807e-01,3.071239027625369822e-01,-1.497798430302552108e-02,-2.303125306414286963e-02,7.591140320249571347e-03,-3.814556209230944616e-04,3.398588001728057861e-01
3.314902042804053761e-01,3.043426405311576710e-01,-6.426433908632345204e-03,-4.016164064398114464e-02,3.709594370070243285e-02,1.773591925329584887e-02,3.400910496711730957e-01
3.044357878840034948e-01,3.063554135228736541e-01,-3.058702569577118058e-02,-8.895270462692261848e-02,2.512951355098641190e-02,2.623006676954534738e-02,3.749444782733917236e-01
3.232090353121641613e-01,3.053741380027775176e-01,-2.665957252358194807e-02,-2.785905002334821551e-02,7.339496828818383757e-03,1.328308565303560479e-02,3.456957638263702393e-01
3.305457980371069304e-01,2.536438116402219278e-01,-2.583306556869433002e-02,-5.031708248100601882e-02,1.644051889876485886e-02,3.533296730804618563e-02,3.430235087871551514e-01
2.161752215447836079e-01,3.536254998506852543e-01,-9.291751850771828858e-03,-1.801477333040742146e-02,5.326456023058598679e-03,4.403820522035421098e-03,3.191164731979370117e-01
3.375565795571939809e-01,3.050814298930380475e-01,-2.997324620399521855e-02,-1.380496597129138303e-02,1.513058005430538595e-02,1.321057483776286699e-02,3.549356460571289062e-01
3.252142125873856981e-01,3.263173692635337186e-01,-2.646890060147974455e-02,-5.759743594103809011e-03,-1.270308876590665230e-03,4.597698663850403357e-03,3.524740636348724365e-01
2.549713383055268734e-01,3.219736339224379407e-01,-7.953539054729757973e-03,-4.132278573146504208e-02,1.388941452902246613e-03,1.141070279901375186e-03,3.104315996170043945e-01
3.371289647724253769e-01,2.965882440136359821e-01,-2.622310293260887715e-02,-9.780024350024117338e-03,6.718161983705327536e-03,9.214396743113884361e-03,3.458537161350250244e-01
3.264006677594877281e-01,3.160326208048701013e-01,-3.135800195783472466e-02,-1.837410886227698690e-03,1.595009930591504343e-03,2.712576267538852580e-03,3.527454435825347900e-01
1.872240694181676046e-01,3.635150865564097944e-01,-3.269997444580535761e-02,-4.974170023496816279e-02,-7.470723222842156480e-03,-1.733285450472218242e-02,3.559595048427581787e-01
3.303461871151248674e-01,3.168251032525456479e-01,-3.147960317615217107e-02,-2.378533943528803648e-03,4.188311905855678779e-03,3.431545961011498499e-03,3.554059267044067383e-01
2.695587023113787950e-01,3.326369825169784300e-01,-1.298152252431461484e-02,4.446817494732947795e-02,-1.535176305830967397e-02,1.109882452556220853e-02,3.296040594577789307e-01
2.764289322429474560e-01,3.082853377660340621e-01,-1.555665164179306781e-02,5.736235477169163155e-02,1.778152366862553735e-02,-1.329441423520593205e-02,3.269894719123840332e-01
3.229765963185155520e-01,3.228165793002517048e-01,-3.575021893509877646e-02,3.464662555384077621e-06,-4.305145600961537609e-04,3.214156139645219347e-04,3.586480319499969482e-01
2.931303807857112420e-01,2.923323093213919255e-01,-8.646690524046568571e-03,1.781245001802408273e-02,9.802199292274253132e-04,-4.646786714574080435e-03,3.030655086040496826e-01
2.926603536418896367e-01,2.903001250430376490e-01,-1.003745076828960192e-02,1.955992588941751764e-02,-2.738519449439958580e-04,1.417865976337711990e-03,3.034322261810302734e-01
2.878575930351703893e-01,3.082798580813348455e-01,-1.083219636673446451e-02,2.336393180400455488e-02,7.464276800935405395e-03,-6.251845606739354737e-03,3.124973773956298828e-01
3.044061584946040622e-01,2.605270135568344414e-01,-1.058316930662928090e-02,3.863709678213143872e-02,-2.765151883132007174e-03,2.720262345464496186e-03,3.030607402324676514e-01
2.918655389109147125e-01,3.011861395005761000e-01,-9.523232123903935253e-03,2.623027299098863035e-02,-3.907373768978590015e-04,5.693207073985371582e-05,3.095088601112365723e-01
2.883904730558417007e-01,2.758377116599670664e-01,-1.015280443444357972e-02,4.339015407529785845e-02,2.480693395455207170e-03,-3.298823068930804413e-03,3.020552098751068115e-01
3.253726110778248914e-01,3.252479519256897267e-01,-9.376342246565888550e-03,1.333015652778863193e-03,-4.289029149439163927e-03,8.100376109261344174e-03,3.350709080696105957e-01
3.295824350871122688e-01,3.152401990606387150e-01,-2.678256076018575849e-02,-1.735945346486615572e-05,-5.176634512719561522e-03,3.334225023746683128e-03,3.495774269104003906e-01
2.303041034403696119e-01,3.661489270326973022e-01,-1.542362040600647743e-02,4.827287716625466851e-03,7.158676312327075762e-03,-4.882791639632293786e-04,3.353224396705627441e-01
2.797426705422635385e-01,3.516863866418356022e-01,-2.693711565319714674e-02,1.645290329644448837e-02,7.277132286109429943e-03,-3.056448921251034463e-03,3.497014045715332031e-01
2.602039267405140688e-01,3.439075175124935990e-01,-2.400393071677639489e-02,3.177137992029514107e-03,1.138190155322559363e-02,-2.196888604229853791e-03,3.346685171127319336e-01
2.324758023897771086e-01,3.505602509913452458e-01,-1.871430739748886074e-02,1.613124112258893308e-02,1.790826308629985333e-02,-9.398963271310047107e-03,3.297117650508880615e-01
3.324234001178609232e-01,3.002995580084394378e-01,-2.731328373353403283e-02,9.157195605216906023e-03,-9.219852331804648596e-03,8.441959157763778351e-03,3.458419740200042725e-01
3.295682057819138144e-01,3.164159239339968122e-01,-2.950740830009465632e-02,4.238001979153649575e-03,-3.233547519816800959e-03,6.742604124340047939e-03,3.529975116252899170e-01
3.242313766681472753e-01,3.180910740780480417e-01,-3.148579123483541409e-02,1.135890033843528968e-03,-4.671630501722336820e-03,3.043985054293653694e-03,3.528248071670532227e-01
3.116645299308924422e-01,2.937530556446350527e-01,-2.411913768228443611e-02,2.145585149543127734e-02,-6.582520011505707536e-03,6.517665751488687861e-03,3.296901583671569824e-01
3.276590507203273051e-01,3.172489213730562141e-01,-3.156579449331731180e-02,1.257157748226786368e-03,-6.101033792338736786e-03,2.203733591099551505e-03,3.543194234371185303e-01
2.883960965117260411e-01,3.346815816520923859e-01,-2.700950469544133314e-02,4.539841604749554616e-02,8.978913029448042787e-03,-8.027254110083750435e-03,3.504853248596191406e-01
2.958310004241347380e-01,3.264926100191984926e-01,-2.098240404807386050e-02,4.372343489738909905e-02,1.733400087400261205e-02,-4.454552225384005373e-03,3.431049883365631104e-01
2.548125494705412719e-01,3.369402900660402045e-01,-1.510538480648185300e-02,3.819262906053096096e-02,1.811583489581718165e-02,-1.331692169589750348e-02,3.281173706054687500e-01
2.353060651122660663e-01,3.442094439444856047e-01,-1.003567864210797023e-02,4.404387459720537218e-02,-2.175238958410766026e-03,1.500419745432980765e-03,3.234371542930603027e-01
2.124183522747533914e-01,3.503027891168933872e-01,-1.364333010134163859e-02,-3.991286739501339470e-02,-9.867712301912865205e-03,-6.434527761685815764e-03,3.263155221939086914e-01
3.148861384193970547e-01,3.076539894907739936e-01,-2.418728311288520505e-02,2.544021498756698918e-02,8.093343152621289976e-03,-9.383660881791664257e-03,3.390769064426422119e-01
3.310285301956997217e-01,2.701944526646422040e-01,-2.284544098171287230e-02,2.464450325292862065e-02,1.674459181809210759e-02,-1.920717380325643459e-02,3.334215283393859863e-01
2.749011638395097434e-01,3.050070465560495991e-01,-1.423315859473930911e-02,3.559615675719789152e-02,2.169952900553706598e-02,-1.156334067117868562e-02,3.143638968467712402e-01
3.225425863960522666e-01,3.226510559392514743e-01,-3.522375505820896091e-02,2.803218099046005671e-04,1.203564038942399230e-04,8.624208726538526350e-04,3.578240871429443359e-01
2.924165281110502335e-01,3.075520423612720933e-01,-2.510878092120194527e-02,2.022906558766434174e-02,1.009212292465337668e-02,-9.326059961117098493e-03,3.281027972698211670e-01
3.309121852192259405e-01,3.067347646795636207e-01,-2.770735830942464006e-02,9.716746331257649846e-03,8.340421185183235706e-03,-2.088653656005817587e-03,3.478894233703613281e-01
3.321166874030974103e-01,3.251585451883561850e-01,-2.072898924630414697e-02,-3.683799618706970827e-03,1.562906511640695930e-03,-2.221315165611388392e-04,3.494875133037567139e-01
1.352588065744832757e-01,3.665093604246359993e-01,-2.797800540405023795e-02,-9.005982427921654931e-02,3.063041099813638545e-03,-7.715353696356260296e-03,3.773734569549560547e-01
3.218094907934599402e-01,3.303444198300667933e-01,-2.729439274417738703e-02,6.996971988480980495e-03,6.778921787265539470e-03,-1.115653491841427786e-02,3.543784320354461670e-01
3.192572978834289921e-01,3.375972701746421389e-01,-2.834458872155160014e-02,3.333849840068870210e-03,1.275949214176729830e-02,-9.958835617199339463e-03,3.582704663276672363e-01
3.487338715545678092e-01,3.385800275156634620e-01,-5.990505861306200108e-03,4.206376700969195054e-02,5.936196883901727339e-03,4.271715947853698021e-03,3.574901521205902100e-01
3.326164020655209552e-01,3.048129171922425162e-01,-2.633924736482282092e-02,8.219729834544988942e-03,1.216645448286350802e-02,-1.219579817557495290e-02,3.474693596363067627e-01
3.254307673275413926e-01,3.190886096669345307e-01,-2.803365664926560363e-02,7.435425821884887251e-03,5.357533345215311459e-03,-8.201263603366910557e-03,3.509833812713623047e-01
3.167620532553417911e-01,3.579692551248922494e-01,3.954030421402271456e-03,4.134162548133677589e-02,-9.990900646176152991e-03,2.172776099140522402e-02,3.453693091869354248e-01
2.901713541161148324e-01,3.502540441468938726e-01,-2.661096274944091400e-02,2.482634955798455195e-02,-2.637720000054456088e-02,8.459592403845545699e-03,3.565741181373596191e-01
2.940383369434243499e-01,3.310003858612941552e-01,-3.064038110067865417e-02,3.999336230495113831e-02,-3.510503285746318508e-02,1.881254632853338743e-02,3.582464158535003662e-01
1.623666453452252134e-01,4.505855560644614899e-01,-4.214199474107274690e-02,-3.696796845521340032e-03,1.724368123474755501e-02,-2.449293521101368262e-02,4.319373965263366699e-01
2.199827927942248351e-01,3.574528936514498323e-01,-2.991467782673867815e-02,7.833955308962117781e-02,1.768676725859380169e-02,-4.903298621132614471e-03,3.675895035266876221e-01
1.891018239326150985e-01,4.250322760396155752e-01,-8.936810360769337214e-02,1.566164603432503577e-01,3.488511322693906708e-02,-1.374946901768354414e-02,5.260345935821533203e-01
1.769225701236719073e-01,4.211710935511608356e-01,-2.638674654416720000e-02,1.565338285286201614e-01,3.289047399284507345e-02,-6.870018716842078189e-03,4.770172834396362305e-01
2.038697725503524349e-01,4.298191800716079092e-01,1.464142797509598859e-02,4.452625372409939331e-02,6.091314660077618015e-02,1.501537709056194672e-02,3.838905096054077148e-01
2.101554248422198845e-01,3.553314931773309260e-01,-9.760939831489484630e-03,8.237221275293563072e-02,2.962091066567668421e-02,-6.800804423276158618e-03,3.528347909450531006e-01
1.837325966244049424e-01,3.889159989938310580e-01,-1.046818288486522919e-02,6.820634832308289375e-02,6.050779823481610559e-02,-1.350271571420842871e-02,3.809826970100402832e-01
2.107245086431258352e-01,3.596241737278739747e-01,-2.250087952085291776e-02,1.266103987265093378e-01,1.819981762290787120e-02,-3.623267218728863648e-02,4.053579568862915039e-01
3.137924243891735410e-01,3.041643458098213793e-01,-2.654591561437050218e-02,-2.578292185984785989e-02,7.793024623059793821e-03,1.166339140752259938e-02,3.394564092159271240e-01
3.281157415225822715e-01,3.156045875923884081e-01,-2.905017009270280393e-02,-6.767940662355668210e-04,3.854905384266466353e-03,3.300043314377873026e-03,3.511895239353179932e-01
3.233678013056881517e-01,3.071341791394338605e-01,-1.591695320598546237e-02,-2.068382162550610678e-02,2.450614666574256126e-03,1.100368874466200629e-03,3.334290981292724609e-01
3.354318274992754145e-01,3.274479101419172644e-01,-1.878409299926855902e-02,-1.823694105443726503e-03,7.440022441121733020e-03,7.191333922994658408e-03,3.507646024227142334e-01
3.309970718645712795e-01,3.138110845367209079e-01,-2.512203330468998352e-02,3.974570162967544593e-04,1.155167092745931290e-03,3.595473724489329712e-03,3.479068577289581299e-01
3.306180485326225549e-01,3.269013459853746251e-01,-2.541158043867577931e-02,-1.715703456193263465e-06,1.044755260291224848e-03,3.466547030915857926e-03,3.542414009571075439e-01
3.229172235249298528e-01,3.210876972734138524e-01,-3.402665207071534081e-02,-6.772608769142119843e-04,1.593611535101964677e-03,-1.234847583964046678e-03,3.560516834259033203e-01
3.251071065823361028e-01,2.972157185668407031e-01,-2.687400767813771796e-02,-1.623977116928024614e-02,2.861946443738394314e-03,5.177208388096212269e-03,3.402169346809387207e-01
3.317936449277056887e-01,3.005631815166901477e-01,-3.195665860765808941e-02,3.167666847690979448e-03,6.019778325594081145e-03,9.604985869878186755e-03,3.497786819934844971e-01
3.410239083238576496e-01,3.129707153950620491e-01,-2.634781073263289808e-02,-6.600616334222287121e-03,5.967862663824273321e-03,1.368075377126085198e-03,3.545224666595458984e-01
3.275479012506456455e-01,3.262625253098629385e-01,-3.185304438610109257e-02,-2.583846103600239818e-03,2.670741356203668905e-03,4.456921617866643238e-03,3.589007556438446045e-01
2.784265270977928086e-01,3.850256507741625089e-01,-3.409213223777779467e-02,-1.310765982485216641e-02,-2.050710740880609673e-02,-5.643577300885545094e-03,3.797605931758880615e-01
2.778410723923233072e-01,2.941934553806809238e-01,-1.605834139684106376e-02,3.597480703340995289e-02,4.598148019020646855e-03,-2.606746851198702732e-03,3.088957667350769043e-01
2.732668172693142328e-01,3.330446087067072125e-01,-1.448286439080817556e-02,3.033649089606534066e-02,-9.904280140521345976e-03,1.325444738332062777e-02,3.273477256298065186e-01
2.652163992890417266e-01,2.804925041708766775e-01,-1.602102204851549305e-02,8.001421620771881349e-02,1.474499467959873925e-02,-9.532569496877401488e-03,3.221113681793212891e-01
3.217039712239619376e-01,3.259650669493792674e-01,-3.302305277408645878e-02,1.233081610437580930e-03,2.454428448088232569e-03,-3.769968140530957808e-03,3.569680750370025635e-01
2.935082535370716061e-01,3.316784287764094064e-01,-2.668089612040233649e-02,2.840618787464367634e-02,-1.314323940233722531e-02,1.417219926653765123e-02,3.460364937782287598e-01
2.583490458473622908e-01,3.024184427678660025e-01,-1.015081691855829193e-02,4.185440628564081333e-02,-7.288843933605301936e-04,2.095069614093937778e-03,3.018891513347625732e-01
3.167914670426990043e-01,3.020950149631796422e-01,-1.957966324896709409e-02,3.639757726888349920e-02,-1.511264629849942871e-02,1.865058941672351200e-02,3.378181755542755127e-01
3.226131401838732149e-01,3.197905719679273728e-01,-2.389287753229563105e-02,6.571377083994673837e-03,-1.037480195954171638e-02,7.056171937322852986e-03,3.459742367267608643e-01
2.587654791233259255e-01,3.145319999158392443e-01,-2.820450057644990904e-02,6.696308439372772314e-02,-2.271640219687320536e-02,8.863934381859143660e-03,3.416152298450469971e-01
3.218275183772288939e-01,3.232788621164373044e-01,-3.516770438772565122e-02,-1.325588736534058184e-04,-2.211005951608183682e-04,8.186898460997454365e-04,3.577261865139007568e-01
3.222135777432300063e-01,3.340061360878453511e-01,-2.802025802716034963e-02,1.567574622662534084e-02,1.312869888634087510e-02,-9.460730644901584052e-03,3.584072291851043701e-01
2.835658561210445128e-01,3.339142216182033884e-01,-4.396023409764568401e-02,3.045623793173723309e-02,2.983226208782842337e-02,-4.791069326226485292e-03,3.630705177783966064e-01
2.899560846728465591e-01,3.547414028966396904e-01,-2.924754875621390915e-02,6.520321414065652355e-03,1.727466101937756224e-02,-8.449111720197534023e-03,3.577775061130523682e-01
2.793751698814376794e-01,3.338613143730501109e-01,-1.400055473136216366e-02,3.492517238269982061e-02,2.033088367556851184e-02,-1.238668663894530904e-02,3.322387635707855225e-01
2.773889055417813054e-01,3.605940163367452600e-01,-1.049391218164680284e-02,2.045758423176908397e-02,2.267782009970120347e-02,-2.029696107458919471e-02,3.432014286518096924e-01
3.201002420408599058e-01,3.288430122747112438e-01,-4.382098728657607412e-03,-7.067292006928857203e-04,-2.382893629700602069e-03,1.095320304183462377e-03,3.289745151996612549e-01
3.443175220444436024e-01,3.615699121794098136e-01,-1.311788350101589229e-02,1.594352873823721636e-02,1.914026758090024358e-02,-1.872915893294166759e-02,3.703218996524810791e-01
2.837333153362357474e-01,3.584111335885713512e-01,-3.696191094518436193e-03,6.307914130892482152e-03,4.908646809800774197e-02,-1.139565183369272740e-02,3.426288068294525146e-01
3.582635906361608669e-01,1.799672264723800874e-01,1.647556567451760601e-02,7.060860094587297076e-02,-3.113110613745340149e-02,6.405846806710430164e-02,3.432837128639221191e-01
3.782128426125180853e-01,2.001479610502445439e-01,-3.554574714943495306e-02,9.112594425388987826e-03,-2.211060581761515199e-03,2.703123846270292022e-02,3.628818690776824951e-01
3.790905569797128338e-01,2.069195425389941945e-01,-3.606459088814123470e-02,2.419121438524581003e-02,5.544867912736000694e-03,2.800450869894411526e-02,3.670417070388793945e-01
3.509244487645483135e-01,2.564829651549766498e-01,-2.155799334385755106e-02,2.629768528659244542e-02,-9.944604097646933191e-03,2.611213339979704881e-02,3.419086039066314697e-01
3.623902660533949160e-01,2.145453962371638157e-01,-1.771476061743235131e-02,4.604076696677580210e-02,-1.715966549770802860e-02,2.059331014512257377e-02,3.444651365280151367e-01
3.764915058661877367e-01,1.871988556888984079e-01,-8.519764939791257818e-03,4.189071728811234741e-02,-1.423388717996586922e-03,5.735956992940930387e-03,3.414013087749481201e-01
3.881755320987074764e-01,2.186302801264613793e-01,-2.584171194308426678e-02,3.400671363384257656e-02,7.738485218130967958e-04,1.208885605081223488e-02,3.658835887908935547e-01
3.585738696956125571e-01,2.276221475128105687e-01,-2.265842262437248178e-02,1.494302139887220687e-02,-8.793068388779533978e-03,2.006623249573001588e-02,3.386342823505401611e-01
3.579805343529807171e-01,2.120362004676135670e-01,-6.066193101275763055e-03,4.925361087917050351e-02,-2.445989330791097094e-02,2.388456507301277287e-02,3.338910639286041260e-01
3.372794572092086551e-01,3.213512295770341032e-01,-2.625015154315932242e-02,-6.895738652682104758e-03,-3.688134111780419586e-03,-6.353706655483176181e-03,3.562606871128082275e-01
2.778243069666727072e-01,3.151658553271277086e-01,-1.540959230120064749e-02,7.412252280445390251e-03,-5.903175484420321653e-03,7.198391101682026678e-03,3.142533004283905029e-01
2.886718031565314591e-01,3.173937265744214420e-01,-1.478975942158355927e-02,1.748411044755928193e-02,-5.994109042771895469e-03,7.346198189300672324e-03,3.206503391265869141e-01
2.814835001466082232e-01,3.279400754232416615e-01,-2.135589879449514839e-02,1.871004063639678666e-02,-1.403111331481473288e-02,1.663761889257555152e-02,3.322800695896148682e-01
2.643159163689645652e-01,3.304787230928672992e-01,-1.532240614332042172e-02,8.897884562431920483e-03,-5.327017280143417008e-03,7.329435393944630853e-03,3.186857104301452637e-01
2.822264572820334383e-01,3.302243286856927362e-01,-2.210519748577696730e-02,7.099558911552448712e-03,-8.448315671844099095e-03,8.012305386859458478e-03,3.317932188510894775e-01
3.216192904189538737e-01,2.958383974213323886e-01,-2.546263127185105501e-02,2.980391367045230611e-02,7.670288115942748390e-03,-1.590922210583047003e-02,3.402690887451171875e-01
3.368139076541574184e-01,3.038860745478582093e-01,-2.732622426698877449e-02,-2.768646028055064823e-02,1.243057830090452467e-02,1.136061130988291583e-02,3.533303141593933105e-01
3.062140939483807278e-01,2.785310607433094110e-01,-1.304945489148506832e-02,-2.893930452727110081e-02,7.731978357377312233e-03,6.381159409453188332e-03,3.109201490879058838e-01
3.091645693347330748e-01,2.918839004463341658e-01,-1.110529785109456991e-02,-6.411440037007908044e-02,7.961802086479126406e-03,1.639475453087946982e-02,3.326641619205474854e-01
3.211871028766135061e-01,3.218323495059896011e-01,-2.613601897462050627e-02,-1.910488712490024388e-02,1.310066941395260885e-02,1.821327358652458442e-02,3.513728976249694824e-01
3.225722792882772527e-01,2.838123891914406949e-01,-2.798446401661480731e-02,-1.812998793118183322e-02,1.323037335132788705e-02,1.803597070213306189e-02,3.365886509418487549e-01
3.067062527470419964e-01,2.454907282025403092e-01,-1.893786929828222831e-02,-8.483273333861476861e-02,1.593303015925328237e-03,2.446746715639632483e-05,3.338477909564971924e-01
3.192662942401546800e-01,3.342055961693378152e-01,7.337580993989512024e-03,-9.019209586217200036e-03,1.788337179569010962e-02,1.287986297691181767e-02,3.223101794719696045e-01
3.332084560388065553e-01,3.316402466395663717e-01,4.089368361390394169e-02,-9.769602830689425726e-03,-6.666427442047845320e-03,6.800619206554513879e-03,2.924899756908416748e-01
3.577028345657939923e-01,3.354125531826981921e-01,7.102963190719430164e-03,-4.138337542295893808e-04,1.290217839152813656e-02,1.165503854001458638e-02,3.413349986076354980e-01
3.346501337666823450e-01,3.325689090252320623e-01,-1.226032703274185232e-02,-3.908503692263309848e-03,-1.848024571525671818e-03,-6.587168432189529840e-03,3.461436927318572998e-01
3.388656921048511239e-01,3.355306896928910154e-01,1.927014793472953125e-02,6.266936228733773102e-03,2.399294978935381708e-03,3.103850571839721854e-03,3.181989490985870361e-01
3.154023918603777177e-01,3.214587522946524278e-01,-2.729910178175526392e-02,1.074162634286016972e-02,1.184442859895626539e-02,-1.072722336412778102e-02,3.473740816116333008e-01
2.666892055557965602e-01,3.669757934887512008e-01,-1.194366004321936736e-02,-4.658350383181075749e-02,2.760796484958339889e-02,3.276668000331887931e-02,3.572876155376434326e-01
3.211758161796766653e-01,3.445320992876977351e-01,1.671452977149462393e-02,-4.463463270383973003e-03,-4.875452731731937800e-03,2.674900767845274797e-03,3.170265257358551025e-01
3.149494189795033483e-01,3.464122532813542765e-01,9.610169512495408961e-03,-7.278000600906785883e-03,1.955930785265824409e-02,-2.242018604982398515e-03,3.242691755294799805e-01
3.310611641366636437e-01,3.308714871731180951e-01,4.556504869016614334e-02,-6.818823083317488223e-03,-1.355043296733538828e-02,-1.120911801817449198e-02,2.872650027275085449e-01
3.368329873856452661e-01,3.351524775265000700e-01,1.812256777906592897e-02,-2.251965236677862508e-03,7.346365299936998515e-03,7.271291148612652605e-03,3.184011578559875488e-01
3.046391178760707308e-01,3.330122794680794307e-01,1.692443966865242455e-03,-1.897030696358336516e-02,-9.540360318783922336e-03,-7.326507270778420851e-03,3.204543292522430420e-01
2.785513135167961285e-01,3.460185362048824875e-01,-1.652505842479171094e-02,1.312976286198938927e-02,-1.998072903531671052e-02,2.679378367985489791e-03,3.365505635738372803e-01
3.186806526888776303e-01,3.244113135872781495e-01,-3.102572738457071155e-02,1.362728709481199818e-03,-4.747957852232864706e-03,4.491363016711495855e-03,3.527961969375610352e-01
3.167538326654299463e-01,3.255554503099143959e-01,-3.299054605274531760e-02,1.649337291599406365e-03,-1.874645295799983553e-03,2.524494907584232117e-03,3.542805910110473633e-01
3.064708719404878878e-01,3.227992715026578585e-01,-3.051043936751668406e-02,1.912826913019682190e-02,-1.567790184998043429e-02,1.029393353340577778e-02,3.485374450683593750e-01
2.621768410099144520e-01,3.313265501486431508e-01,-1.446515087840219427e-02,2.322537751678241391e-02,-1.559099804124892269e-02,6.951304882856128645e-03,3.208342790603637695e-01
2.582369383439655497e-01,3.623982943716839711e-01,-2.844558996178830901e-02,5.994430012433837884e-02,-2.336569992699449178e-02,1.575396474990979970e-02,3.688632249832153320e-01
2.459549558409786507e-01,3.969437246449112888e-01,-4.280967080867675856e-02,-2.583139443827527776e-02,-1.982761380477132684e-02,-6.143227421203282558e-03,3.912508487701416016e-01
2.357006726810603192e-01,3.954202015907056222e-01,-3.811453024988872840e-02,2.392459178538266194e-03,-4.190755152074612105e-02,1.419335232295024750e-02,3.874390125274658203e-01
3.221060399778733485e-01,3.461386173805179878e-01,-2.487698194099061122e-02,-5.163310864908727052e-03,-9.395636562179442500e-03,-1.000539580300893218e-03,3.600853979587554932e-01
3.179871229560750079e-01,3.606348107889915666e-01,-2.471030585354894171e-02,3.261333364544224608e-03,-9.158424322932566183e-03,-2.253042950571974888e-04,3.662776350975036621e-01
2.776844521221308315e-01,3.573040362530208736e-01,-2.445223798643797464e-02,1.619855530412783479e-03,-6.944326048441447699e-03,-3.291071098332788540e-03,3.490943908691406250e-01
2.917391235894646329e-01,3.760006455394301339e-01,-1.872499183474091167e-02,3.576285444624786869e-02,-2.874707804081675852e-02,7.364095454373276173e-03,3.689538836479187012e-01
2.437166280031424492e-01,3.402193650595130014e-01,-3.951740995727637262e-02,-4.125506329131788108e-02,-1.714206959577568162e-02,3.480797698872061235e-04,3.505067825317382812e-01
2.845657563079705410e-01,3.415876871490882705e-01,-2.081966045617084093e-02,-2.683644124840052492e-02,2.449404976155671737e-02,1.591506100292255227e-02,3.444499075412750244e-01
2.826124350053597079e-01,3.930458316836303867e-01,-1.146241015681029318e-02,-1.600426448655734718e-02,2.202756451869766416e-02,-3.166308245697553071e-03,3.652469813823699951e-01
3.320966043962468861e-01,3.349061368509823056e-01,-7.774398870028398356e-03,-8.507764838291860532e-03,-9.864563411150554378e-03,-4.129652937307472238e-03,3.421042263507843018e-01
3.349153538325292390e-01,3.055319796362439000e-01,-2.894748135485789020e-02,-2.109870480394924683e-02,9.354485538586105459e-03,6.406958564897225275e-03,3.525466918945312500e-01
2.876998638080195958e-01,3.555506783905376667e-01,-1.119842454594094372e-03,-9.157081151675808273e-03,9.186897133709110916e-03,1.124510634670279098e-02,3.293953835964202881e-01
3.322848030620782489e-01,3.643188893034935982e-01,1.052356205307358739e-02,9.815817052867745890e-03,9.148793420539473586e-03,-4.398551866427702697e-03,3.397969901561737061e-01
3.110738766210597861e-01,3.202641782209567078e-01,-2.781551661216788429e-02,7.516580568613560887e-03,-8.097903368410427211e-03,9.621530044759471836e-03,3.445125818252563477e-01
3.035498197760888583e-01,3.053506224736010077e-01,-2.003246877531439374e-02,8.015566381699139320e-03,-4.963018551286890734e-03,4.696175733638415992e-03,3.249988555908203125e-01
3.165123771318201773e-01,3.109724952489800742e-01,-2.450959002147104493e-02,1.842198272643588361e-02,-7.233178300888234297e-03,1.661422287033500686e-02,3.412339687347412109e-01
3.189290188560862660e-01,3.085724609060040979e-01,-2.773356943834240362e-02,1.032619721198715923e-02,-1.008928361496172835e-02,8.723308610020009263e-03,3.428491353988647461e-01
2.927144149391253114e-01,3.159943811014412351e-01,-2.232045822085990117e-02,1.967683913652345379e-02,-7.283675491334744463e-03,6.721327125982807550e-03,3.295134902000427246e-01
3.414997108262775583e-01,3.331064098046105926e-01,-1.197898348965137361e-02,6.064289317379873302e-04,-3.542983556239414971e-04,9.961299168632583873e-05,3.493598401546478271e-01
3.538643679811498965e-01,3.356760992945816424e-01,-8.999579657258643950e-03,2.796620367810389446e-02,-1.380206057206742783e-02,1.636618740087812315e-02,3.593362867832183838e-01
3.333968604854450346e-01,3.316780027331797109e-01,1.014749044532708977e-02,5.463594129394580556e-03,8.187493794232421698e-03,-9.392605893948387588e-03,3.232534825801849365e-01
3.282228552632056040e-01,3.285238157680115401e-01,1.892496781203814593e-02,-2.477607400309988009e-04,6.248337442983112290e-04,-9.728777100125190341e-03,3.099091351032257080e-01
3.494188152853536233e-01,3.453848306893685938e-01,2.554750113385068078e-02,-1.070359282574664776e-02,-2.164312262431999229e-02,3.120945495711926771e-03,3.246237933635711670e-01
3.347401835904179057e-01,3.400011069381101425e-01,-9.871966190788089568e-03,6.238857532537264716e-03,7.568916277830961548e-03,-2.943779850693532645e-03,3.477252125740051270e-01
3.139072037864714115e-01,3.276182109317298807e-01,-1.805693007023628782e-02,1.030135440322760797e-02,-1.524352382827197545e-02,1.122957130884169943e-02,3.410769701004028320e-01
3.298848251046153646e-01,3.531028976594347002e-01,-1.076006386190958564e-02,5.734771803102678596e-03,-5.210322705958696753e-03,9.415748568096547061e-03,3.534589111804962158e-01
3.235800777966532094e-01,3.290907822841628305e-01,-4.818427853691825691e-03,3.296372084443648098e-02,-2.570929336988278437e-03,1.837357062162926422e-02,3.376063704490661621e-01
3.432169330396745432e-01,3.305678119413454907e-01,-1.104532372656874539e-02,5.580119319154196698e-03,-9.080552471966827147e-03,-9.613972312919251851e-04,3.486032187938690186e-01
3.256257752148596363e-01,3.484368290592634310e-01,-2.172416173672095385e-02,1.135300763812465558e-02,1.658467800343682444e-03,6.849534115839400793e-04,3.598500788211822510e-01
3.200710370032532337e-01,3.143552781973430466e-01,-3.222751272521054422e-02,4.321704215329876106e-04,-4.792933917167618851e-03,1.042878846146976391e-03,3.495797812938690186e-01
3.100739939722728655e-01,3.615148983026618135e-01,-2.135256833208315497e-02,4.294771606433826772e-02,-1.819055751038048743e-02,1.513606628394988975e-02,3.698001205921173096e-01
3.286252887286623681e-01,3.244040392234802672e-01,-1.202586729439497626e-02,2.982193266489854833e-02,-4.427734611350576943e-03,2.690754271771539363e-02,3.457194864749908447e-01
3.101686948022347456e-01,2.334624513121306144e-01,-1.324838705979369813e-02,6.368514561553317854e-02,6.649069594176768190e-03,-7.084839759329510621e-03,3.132490217685699463e-01
3.276282356956389252e-01,2.574097561792227928e-01,-1.156095059274492298e-02,1.804814716726207274e-02,-8.027232485968252866e-04,-7.301737196862469886e-03,3.119321763515472412e-01
3.663246875997243079e-01,2.200556053552953362e-01,-1.896267437232998510e-02,6.848014947000634345e-02,6.762111634126468686e-03,-1.485016841209982688e-02,3.582634925842285156e-01
3.441432389087316079e-01,2.511762349783948634e-01,-1.056492533120345634e-02,8.652959147763830683e-03,3.176856073639927527e-03,-1.165879552971668676e-02,3.196048736572265625e-01
3.596599814913525872e-01,2.370195420815328913e-01,-1.057802748591474273e-02,1.509697317995263577e-02,2.896452227322465853e-03,-1.054016475511615133e-02,3.282573819160461426e-01
3.523794302629016939e-01,1.932982456425168527e-01,-1.263437901158323551e-02,4.037916686788761006e-02,8.546824510125349689e-03,-1.749062610455278180e-02,3.263486027717590332e-01
3.710044608600833738e-01,1.993039008748197505e-01,-1.712941705869550080e-02,4.007082918809790756e-02,3.710917135530272977e-03,7.994255334466800200e-03,3.442909121513366699e-01
3.328377430992300878e-01,3.228463417703693605e-01,-1.230147171710280207e-02,8.100651435064441450e-04,-4.520314975221332611e-03,-2.371794184572464936e-03,3.403713107109069824e-01
3.368707587240657997e-01,3.252962132072582113e-01,-9.521779637334137902e-03,-8.064615110019183672e-04,7.578299708060171405e-03,-4.527263643430552882e-03,3.410984575748443604e-01
3.252514934631756671e-01,3.262590375432005141e-01,-2.421817566362394203e-02,1.377168053840111038e-04,-2.096493587152709753e-03,6.752672715097459040e-04,3.499954044818878174e-01
2.940360361417843071e-01,3.075151399186704104e-01,-1.494134039044509032e-02,2.263611779958502740e-02,6.135938555172956721e-03,-9.718717958916153060e-03,3.189779520034790039e-01
3.258169501098724385e-01,3.050495943797867371e-01,-2.100222636249718389e-02,-2.044768967227788073e-02,1.670382903453977849e-04,-3.567634148826962989e-03,3.388287127017974854e-01
3.362424154660895170e-01,3.118338815579732581e-01,-2.974538252885244871e-02,-2.323609162006793748e-03,-3.704301263059150973e-03,-6.380419783473355658e-03,3.546676039695739746e-01
3.178427994808463719e-01,3.189071091753242770e-01,-3.117528459471419211e-02,4.914200326989846953e-04,3.412272039505593289e-03,-3.941418239536626129e-03,3.496690988540649414e-01
3.424943828187876349e-01,2.915067130321034594e-01,-2.788306876119589495e-02,-2.763808868861060333e-03,-3.215967743826538688e-03,-1.391319508532158633e-02,3.486103713512420654e-01
3.500525974493857162e-01,2.917215676385762069e-01,-1.199744361134463810e-02,-7.896257801460243933e-03,5.694102452364765803e-03,-2.297672571518972334e-02,3.394585251808166504e-01
3.346109335274451979e-01,3.152369143170716814e-01,-2.630751279685347721e-02,1.796664682606028893e-03,3.223098721206445021e-03,-1.582704939313169662e-03,3.517007231712341309e-01
3.029039640701755021e-01,3.054170930973160725e-01,-2.233354131857429037e-02,-1.110260067113101254e-02,-6.064981552993595031e-03,-6.249330844981221267e-03,3.274147808551788330e-01
3.088103425215185105e-01,3.280690188650328132e-01,-3.090693889747944678e-02,6.327285388749862363e-04,2.715717343779320420e-03,-5.661222971102729089e-03,3.499152958393096924e-01
2.978631189144506641e-01,3.133668387342228856e-01,-2.523139341792818291e-02,-2.023456429988336122e-02,-7.933550255072162327e-03,-6.003877204941905806e-03,3.334139585494995117e-01
3.001353299415300269e-01,2.667159696545559067e-01,-1.337166853595145311e-02,-3.839463442778597718e-02,-5.230432983323547724e-03,-5.023437978452842574e-03,3.057883381843566895e-01
3.121450987622432227e-01,3.036591921908243785e-01,-1.972030376539560259e-02,-1.445918157971670323e-02,-5.829809150349639889e-03,-5.287838884409722107e-03,3.289430439472198486e-01
3.099589871026831034e-01,2.440490728353489347e-01,-1.538119569129603459e-02,-9.078104336116225859e-02,9.906745693634420522e-03,1.851070329309460402e-02,3.388113975524902344e-01
3.062954524731258954e-01,2.133441592071119997e-01,-2.980489682371453841e-02,-1.450752509248636468e-01,1.867893501417271576e-02,2.023953268244954931e-02,3.946878910064697266e-01
2.594028696568782544e-01,3.219525069458700761e-01,-1.166775843292811032e-02,-3.865348733019150634e-02,-1.614027115198239052e-03,-3.704624812893563338e-03,3.144493103027343750e-01
2.880319684551471138e-01,3.009186657212521432e-01,-1.260009229257486041e-02,-1.551622091119793725e-02,-9.606793622481464567e-03,-1.118312368926253735e-02,3.095063269138336182e-01
3.167058115897019022e-01,3.045109154147443986e-01,-2.693833446682117327e-02,1.235530786569028448e-02,1.091888284960593203e-02,-1.220888897318853257e-02,3.395763635635375977e-01
2.659805287247252181e-01,2.963491073495749806e-01,-1.412473346782067152e-02,-4.404978091477453062e-02,4.927512562612578265e-03,6.431898567122705697e-03,3.064403831958770752e-01
2.676162633215102282e-01,3.415142485010601026e-01,-1.041231662558211868e-02,-5.273851929448597486e-02,-2.727287415561505460e-03,-2.569550152711736792e-03,3.342046141624450684e-01
3.222321320261062882e-01,3.293379110991288550e-01,-3.414609399924209421e-02,-3.061027716701150594e-04,-3.724901988592420137e-04,-1.543603676129608410e-03,3.599946200847625732e-01
3.352825824259025866e-01,3.257080846654883954e-01,1.602922793264235923e-02,-2.688019355892311540e-03,9.129020576680808852e-03,-5.624618742842977300e-04,3.150084614753723145e-01
3.109340162113838346e-01,3.258929616584701483e-01,-2.661129048145913223e-02,7.323265446490898750e-03,5.537156718083885432e-03,-4.985185956322412369e-03,3.457417488098144531e-01
3.266850208383678678e-01,3.365084798354283091e-01,-1.639219269077202279e-02,-2.808417687864590926e-03,-8.570142043573857407e-03,-1.006521385375691450e-03,3.484475910663604736e-01
3.302922361194010059e-01,3.444571129142810495e-01,-4.737557860411967248e-03,-1.811729847175038062e-04,1.454388623043920961e-03,1.087677170713829576e-03,3.423466980457305908e-01
3.238259533040466209e-01,3.373405332707316018e-01,3.171859272269658692e-02,1.219733067283285816e-02,-1.617079904258387699e-02,6.234020562360195359e-04,3.011462092399597168e-01
2.710053914822126431e-01,3.860436768890534998e-01,-1.712730801788195367e-02,1.636104643366466382e-02,-2.750644573240874219e-02,2.394737057231995092e-02,3.663247823715209961e-01
3.206038746102038428e-01,3.385965919266087920e-01,-2.547800643446593294e-02,4.886608533896530902e-03,-9.987133635354361605e-03,6.856636204460337704e-03,3.561393916606903076e-01
3.279229868248135782e-01,3.434585768127091931e-01,-1.280253549723844864e-02,-3.263214911268842895e-03,4.794451525674349457e-03,-2.455403164975744536e-03,3.489234745502471924e-01
4.939836290067226576e-01,3.086727360210183013e-01,1.902499709524074767e-02,-2.043185210374339963e-02,-1.775284215048011927e-02,-8.183269618846994442e-02,4.406795501708984375e-01
3.502460160646712062e-01,3.426440756807449528e-01,1.005432147920568009e-02,-1.092082751659747067e-02,1.740132836239625252e-02,1.117008411599694148e-02,3.388843238353729248e-01
3.432077012436812735e-01,3.272358764566446476e-01,-5.374164385260282728e-03,7.946511414888791577e-04,-3.760875649761862265e-03,-4.455151381671136612e-03,3.410290181636810303e-01
3.478410713142200406e-01,3.014619273311646142e-01,-3.971747388306273718e-03,2.275041231504672246e-02,2.313059154400225192e-02,-1.515891436666581132e-02,3.368288874626159668e-01
3.538068119102160125e-01,3.158429533200973194e-01,-2.064585171701197042e-02,1.092243007298002340e-02,2.146281269299030181e-02,6.617128738923221771e-04,3.594183623790740967e-01
3.397723751511324553e-01,3.247059002238651959e-01,2.585394462208853716e-02,3.667287359809148599e-03,-8.219744143310829532e-03,6.802983742005420942e-03,3.072849214076995850e-01
2.694654639739012536e-01,2.275949889089993183e-01,-1.967215921718779015e-02,1.759551467934169222e-01,5.452744264511991991e-03,-1.463015405005544355e-02,4.084841907024383545e-01
2.299681701745296403e-01,2.955081694578418627e-01,-1.103433020403826736e-01,1.533645101231938812e-01,6.787982237617120555e-04,-8.782640416360598321e-03,4.617425799369812012e-01
3.632060183017571942e-01,2.810325448066414156e-01,-3.962469026773271508e-02,6.883453015847511292e-02,-9.863199811320043711e-03,1.962477738598267241e-02,3.893390297889709473e-01
3.050458405642270110e-01,2.883920689274963589e-01,-1.587111091028739485e-02,1.000339352079329114e-01,-5.915503471752802094e-04,-5.568182544694718662e-03,3.578197658061981201e-01
2.678841328775900532e-01,3.203391168361531816e-01,-1.344995858468961414e-02,3.772508714594854928e-02,2.325090869975436972e-02,-1.563386487878453551e-02,3.213757574558258057e-01
2.988709439849149274e-01,3.356358057862263156e-01,-2.912621091529388195e-02,8.150724974930126029e-03,9.568350822290133326e-03,-1.033393055126588522e-02,3.489798009395599365e-01
2.604639416453400913e-01,2.832777012974614927e-01,-1.727412593847416078e-02,7.800491819560338713e-02,3.075976499502342497e-03,-1.867044673323372530e-03,3.198254108428955078e-01
3.251884754976067660e-01,3.381949766098766297e-01,-1.130682869365326471e-02,-2.316538907705298876e-03,-8.504285905187992586e-03,3.485004480735764661e-04,3.435233831405639648e-01
3.282871610952826091e-01,3.347554431910710893e-01,4.122577780239233824e-02,6.251916956819043858e-03,3.646571680705363531e-03,1.126563666297663267e-02,2.912743687629699707e-01
3.233599828151580979e-01,3.252299420224409321e-01,5.982819388954180306e-02,-5.461437425172873663e-04,-1.348445321591946414e-03,1.552019425419165575e-03,2.644973993301391602e-01
3.344142078033939258e-01,3.200130793308433308e-01,-1.919762796128493543e-02,-2.764210727791770444e-03,-4.606924545506725817e-03,-1.367688641438068880e-04,3.467606604099273682e-01
3.171194641213930243e-01,3.291521456976992943e-01,-3.323862552820480709e-02,-2.358500449025028797e-02,-2.253585642247198789e-02,-1.324222684865235082e-02,3.617039322853088379e-01
3.285485465631114987e-01,3.095890450019279094e-01,-1.003980097185500076e-02,-2.553003109061040277e-02,-1.500657273658130737e-02,-1.321469571878744996e-02,3.342706859111785889e-01
3.548008981087873437e-01,3.475652216560161101e-01,2.906998386861470163e-02,6.169865899874952403e-03,-6.262527578962897093e-03,3.441667568019048280e-03,3.225887417793273926e-01
1.537171925164487196e-01,4.352028816231124364e-01,-3.001950104582107315e-02,-1.313815501338846670e-01,1.760519979872213550e-02,-1.808762476030192565e-02,4.673406183719635010e-01
3.629062046446334122e-01,2.393572376548979141e-01,-3.603692016021634026e-02,3.632727221491033331e-02,-1.353129778830880654e-02,3.038310438554358076e-02,3.638800084590911865e-01
2.031876304978063041e-01,3.443934577018984422e-01,-3.668227990728067933e-02,-2.080468521729648135e-01,1.221723339277331569e-03,-7.207180806159179873e-03,4.912824928760528564e-01
1.862776461855299437e-01,3.610047283800098539e-01,-2.219838452423608666e-02,-1.042209826801741845e-01,3.331419529627602932e-02,2.169647225337193591e-02,3.843773901462554932e-01
1.321152275801937281e-01,3.647736360211629725e-01,-4.210213211008775880e-02,-1.391931031714004896e-01,7.585825968737443595e-03,7.034687779570864864e-03,4.283223152160644531e-01
2.033119022358543249e-01,3.731526988844626747e-01,-3.535103948047249589e-02,-9.977285897924559332e-02,-1.491759398962063700e-02,-6.750495169439570467e-03,3.962433338165283203e-01
2.034390482231228647e-01,3.702246370648761831e-01,-1.316917108920651058e-02,-9.925458976205493722e-02,-9.235248701685376191e-03,-2.964096368607947599e-04,3.750656545162200928e-01
3.585440323799702900e-01,1.916827332592512811e-01,-1.240324409653520421e-02,5.046891797608243913e-02,-1.521378914026130270e-03,1.363343929160410438e-02,3.342958688735961914e-01
3.562561502253435153e-01,2.683021837864758008e-01,-1.680220613761862491e-02,-2.337295186718745671e-02,-1.445745315545560010e-02,-1.924316198148239704e-02,3.427437841892242432e-01
3.551325602611173915e-01,3.196010988296861810e-01,1.954543846890224867e-02,-2.307106075569237674e-03,-3.451300695274243588e-03,7.368562674988215870e-03,3.196433782577514648e-01
3.363100276882883266e-01,3.279259276987594451e-01,-1.524240409199570379e-02,-6.629770124743214130e-03,2.426331641269120591e-04,3.429257305770480341e-03,3.476769626140594482e-01
1.930182765470016548e-01,3.734369989750951913e-01,-2.125929220387334784e-02,6.624673149582115117e-03,2.205127691947859209e-02,8.971553121809800260e-04,3.445552587509155273e-01
1.624605645358007111e-01,3.768291689491932717e-01,-1.174932069396442125e-02,-5.122456804868803608e-03,-6.851770814795591323e-03,1.392179242746948310e-03,3.374514579772949219e-01
1.562499374133632657e-01,3.830380913666101006e-01,-1.167675537320642110e-02,1.295404658761037094e-04,-5.936726716341474662e-03,2.058337741620465920e-03,3.432703316211700439e-01
1.505340936049109346e-01,4.440485571162868794e-01,-3.880172081519434046e-02,1.359879519459520790e-03,9.218197787210866828e-03,8.728752355819878114e-03,4.219723045825958252e-01
1.491576070893224082e-01,4.012136252189625329e-01,-7.578813026118846885e-03,1.952249306203665546e-02,-1.929598822104422982e-03,-7.260572480137113954e-03,3.590509593486785889e-01
1.400032919275037702e-01,3.983823990419611549e-01,-1.776981764684076870e-02,-6.315299527400790270e-04,2.282482576402214414e-02,-5.669195939727845156e-04,3.660361468791961670e-01
1.513374521690254160e-01,4.274712856705525921e-01,-3.398095675183976372e-02,-1.506519118564420909e-05,1.155395029736838892e-02,-4.480773184125911744e-04,4.026991128921508789e-01
2.831896853237679812e-01,3.945348809664285250e-01,-4.033020356047406496e-02,3.944587616544315695e-02,2.851520179135570709e-02,-1.539069025011690836e-02,4.011273682117462158e-01
1.452113046928742157e-01,4.038716233142101153e-01,-3.516838579962131006e-02,1.405343743410406021e-02,9.628844838547156310e-03,2.330892392174195235e-03,3.833875358104705811e-01
4.276903296258228737e-01,1.673793606689038538e-01,-8.916655516194238462e-02,-8.324093321146749935e-02,8.980260350856097973e-03,1.773041052865888950e-02,4.715204238891601562e-01
3.918495332217610261e-01,1.443388101938966606e-01,-3.410180350233762980e-02,-4.740273772005705599e-02,1.135538220476483597e-02,8.335900399113327711e-03,3.802695572376251221e-01
3.923090417392274265e-01,1.749627371297087786e-01,-1.320938026044615743e-02,-3.332050526210363767e-02,9.683883413858210189e-04,-1.628134185642581000e-02,3.573170900344848633e-01
3.948591421109952648e-01,1.182873661910072288e-01,-2.340775499998765108e-02,-5.016928579073759442e-02,-8.285677393010696876e-03,-1.251828160274097261e-02,3.794539272785186768e-01
3.708738414658033222e-01,1.312070520288864950e-01,-4.610880858373439528e-02,-8.462786014526432754e-02,1.956785052345226539e-02,3.400240495203482507e-03,3.924879729747772217e-01
4.245325173831853149e-01,1.772119127678909445e-01,-4.844934983711940424e-03,-1.310992934510952015e-02,-1.638062602282388397e-02,-3.864290415135888251e-02,3.809711337089538574e-01
4.614697240710579629e-01,6.026339781719763922e-02,-1.088535634890623882e-01,-2.962855666417831685e-02,1.498885982816954704e-02,1.025732092191871184e-02,5.109217762947082520e-01
5.058525910619258159e-01,8.400114174972822534e-02,-4.987896345313447277e-02,-6.003126151770010743e-02,-1.331074824310537509e-02,-2.007133218902146590e-02,5.146954655647277832e-01
3.456046885817075642e-01,3.220319541746464731e-01,2.461155067083237169e-02,1.637953104267932548e-03,6.555917427578348243e-03,1.308968439402691253e-02,3.109285831451416016e-01
3.431223533213110244e-01,3.277197510406879566e-01,1.538080002704095284e-02,-6.433764272265778735e-04,2.717302140192152590e-03,1.694992835055366895e-02,3.216970264911651611e-01
3.317560309524169582e-01,3.251897342146818914e-01,2.381558835902761184e-02,9.273762448733990568e-03,5.284202815688280805e-03,1.431232552374220139e-02,3.062755465507507324e-01
3.305863560005142809e-01,3.281666586214124215e-01,2.787698991960185779e-02,-3.762569746756440001e-03,-1.003520886591305296e-03,3.422029835658623939e-03,3.016404807567596436e-01
3.401637162036825202e-01,3.319138460700167825e-01,4.298819963137814892e-02,1.642824964655913936e-03,-5.795574618359785636e-03,6.099100785354972555e-03,2.935134470462799072e-01
3.425472400974286513e-01,3.153157298810084774e-01,2.291568830143825286e-02,9.448273575494558346e-03,5.629660687556260930e-03,1.651222055526452509e-03,3.075270652770996094e-01
3.181701361215068524e-01,3.212282962912579309e-01,-3.167707049916054785e-02,3.394960200414837755e-04,-5.442771675487804257e-04,-2.404410084692309643e-03,3.514127135276794434e-01
3.245282398466826090e-01,2.658105462210592074e-01,-1.580221436586284889e-02,-3.201798709416889266e-02,-8.535226394876787442e-03,-7.663707570316755265e-03,3.205610215663909912e-01
2.867726216524565386e-01,3.080175138259765855e-01,-1.061582163068902629e-02,-3.825262572451455442e-03,3.210498152727711226e-04,1.594269885215047469e-03,3.086438775062561035e-01
2.908613852546185763e-01,2.908013845581669532e-01,-9.173148435407063594e-03,-1.867132263986429411e-02,-4.150496514536337195e-03,-3.560275643921947779e-03,3.018911778926849365e-01
3.249731117290777793e-01,3.060178148333699277e-01,-2.724229464149721669e-02,1.910929441927365809e-03,7.277217005603584324e-03,-1.294380967127748902e-03,3.433853685855865479e-01
2.913722955171986206e-01,2.823923049809997643e-01,-1.297166839123234383e-02,-4.050319996162701774e-02,7.642928409646223414e-03,9.005008891592182138e-03,3.087279200553894043e-01
2.986183463798091076e-01,3.067453514009529369e-01,-9.524173652389611444e-03,-4.704122925125604759e-02,2.079338019294862169e-03,5.823396963122995200e-03,3.229171335697174072e-01
2.974227039624172120e-01,2.686497044235269804e-01,-1.273035685737530787e-02,-3.976589120492145940e-02,3.872733901945392236e-03,4.076588059828947265e-03,3.048566877841949463e-01
2.923881415333894340e-01,2.716075031376179449e-01,-1.372616120399142159e-02,-4.033831434578832170e-02,7.823083815706736305e-03,6.976014508610178279e-03,3.049388229846954346e-01
3.016013285230509933e-01,3.717698387786892988e-01,-2.957543557532876788e-02,-6.128663473308959553e-02,-4.129086107588081367e-02,-3.566743173136693174e-02,3.975415825843811035e-01
2.898113261697675691e-01,3.159980413696377721e-01,-2.369474945205152228e-02,-2.712401067095358137e-02,-1.707758958205842642e-02,-1.311073817420009731e-02,3.328351676464080811e-01
3.204940520088771505e-01,2.933322429444211732e-01,-2.589506277091813136e-02,-4.640273056815632374e-02,-1.450189030241083067e-02,-2.630749776139829424e-02,3.471043705940246582e-01
2.837530243074134484e-01,3.375133498609228511e-01,-2.130175714291585032e-02,9.120787732095644949e-04,-1.497186087134880911e-02,1.394494730613373215e-03,3.361982107162475586e-01
3.308757378124753679e-01,3.133697572150819233e-01,-3.850461212737121830e-02,-2.683314807743091002e-02,-1.930167960655285869e-02,-2.013410792278591543e-02,3.671182394027709961e-01
3.071727321436137914e-01,2.650008226038278458e-01,-9.516361397030465019e-03,-3.876815957663653361e-02,1.415167295621135371e-03,2.805080591789776197e-03,3.053745031356811523e-01
3.545247974022315285e-01,2.137342734095926677e-01,-1.509695993944276671e-02,-8.678011576859918919e-02,1.786827084778465444e-03,1.060763503180965628e-02,3.568507730960845947e-01
3.018281320291642533e-01,2.577027067170883923e-01,-1.311853787945119199e-02,-3.804522427121707212e-02,-1.145576509125797874e-03,-8.597569052985400140e-03,3.030005097389221191e-01
3.189794187218653043e-01,2.547904864915720435e-01,-1.141171306663843477e-02,-4.274865251646378650e-02,-5.602111252640816150e-03,-7.570437012734504596e-03,3.127610683441162109e-01
3.015061843561801513e-01,2.673057871827740906e-01,-1.125652209716346275e-02,-3.505332360487978943e-02,9.637462919258345511e-04,-3.790191144027115801e-03,3.033573031425476074e-01
3.405266777964268132e-01,2.311850475252732462e-01,-1.155804000980131807e-02,-5.382733720366879304e-02,-7.430804279450470631e-03,-3.989502432312217080e-03,3.260786235332489014e-01
3.363223680100427826e-01,2.418155076754596178e-01,-1.788077141693641958e-02,-5.044974902461295957e-02,9.683187720615946473e-03,1.671897904966706053e-02,3.311679065227508545e-01
3.997220213724402282e-01,1.602668290942509399e-01,-1.592394175565051140e-02,-7.809252179295382568e-02,-2.548906170280936575e-03,5.065243290605513267e-03,3.859579861164093018e-01
3.508835317012908850e-01,2.620833796324067988e-01,-2.671596933062397872e-02,-1.746684332252518637e-02,1.060739950058264131e-02,1.889219794154397072e-02,3.453397154808044434e-01
4.047158659764402144e-01,1.689170467162951772e-01,-2.963502845511475914e-02,-2.115807116169860988e-02,7.665965736557103782e-03,1.858320538568049296e-02,3.799969255924224854e-01
3.950907070113524600e-01,1.864619220777102848e-01,-1.895886024007259474e-02,-6.757086400469612675e-02,-1.197775632323205396e-04,1.718255849523554757e-02,3.783696293830871582e-01
3.987769389191147540e-01,2.564895135402545101e-01,-4.446489147181781343e-02,-4.213990262990865293e-02,2.968171440406301709e-02,4.491553516529597778e-02,4.094677567481994629e-01
3.788157798813433508e-01,2.669843768741345102e-01,-2.897253921018744238e-02,-3.292699508383083173e-02,-7.254755234439448641e-03,2.630541196295716269e-02,3.723981976509094238e-01
3.225087535162740049e-01,3.251618708294038429e-01,-3.343354161883718700e-02,6.602898938820246806e-05,-1.665378626063131965e-04,-6.627280066533395696e-04,3.572782278060913086e-01
3.985689946295093988e-01,1.848105567590778153e-01,-3.095398372623062166e-02,-2.386305459260168460e-02,2.134510693656366601e-02,4.899438691742270813e-02,3.855451047420501709e-01
3.177313777462977828e-01,3.091479864254602639e-01,-2.372579436193028579e-02,-8.172641806054314895e-03,-9.807078284251070921e-03,-8.851515488418519942e-03,3.383190333843231201e-01
2.750716086540375138e-01,3.256466474733231697e-01,-2.287171440874541384e-02,-4.676536858861694151e-02,-2.053609139423073424e-02,-1.934974887349392297e-02,3.396262526512145996e-01
3.377018053136980891e-01,2.925589518533650568e-01,-3.062775271315948400e-02,-2.678742324039579820e-02,-2.917111565917437227e-02,-3.281555201260091814e-02,3.591841161251068115e-01
3.040102776780591043e-01,3.170784581227060195e-01,-2.627736349250306414e-02,-1.486141697576747606e-02,-1.562076617352350927e-02,-1.031645163377750696e-02,3.395450711250305176e-01
2.912737541857097767e-01,3.242842210516366785e-01,-2.743583366278426472e-02,9.631296082873903180e-03,-2.120439826166973379e-03,-6.128057727409118305e-03,3.370321691036224365e-01
2.855837132133300926e-01,3.394825149554648869e-01,-2.393660063218522316e-02,1.062167837461526487e-02,1.358519949279991812e-02,-1.078823570127653009e-02,3.415142297744750977e-01
2.854953551246945387e-01,3.363161833739213846e-01,-2.389006368700230531e-02,9.679805864849146818e-03,1.408653338381344808e-02,-6.236102170928126132e-03,3.391435742378234863e-01
2.922623310620952597e-01,3.321106898639663019e-01,-2.437230512780252933e-02,1.980466108437892517e-02,1.536314644773482604e-02,-9.888197033670585029e-03,3.415272235870361328e-01
2.851774891167444537e-01,3.373280333654541385e-01,-2.565743076354620733e-02,1.445953105649058074e-02,9.180625384169496112e-03,-5.881791057976900119e-03,3.413679897785186768e-01
3.239559502469638308e-01,3.241032621508019851e-01,7.578430685643031128e-02,8.866964522371307417e-04,4.691178504463900181e-03,5.585715037963585828e-04,2.483849078416824341e-01
3.484480690398781277e-01,3.472863839932641694e-01,5.597017473922658026e-02,-9.709833918804564729e-03,8.469785312488401982e-03,5.196422324346821990e-03,2.928889989852905273e-01
3.276885911485397096e-01,3.272185907559935769e-01,4.729842518717955469e-02,2.583818337451115974e-03,-2.770335215938020575e-03,-6.420496331709968883e-03,2.804528474807739258e-01
3.236684632197963651e-01,3.262709817162833814e-01,6.125519840183504816e-02,2.213032061636712854e-03,-3.841876656185927788e-03,-6.880109614147648239e-03,2.641049325466156006e-01
3.491984839055558565e-01,3.401860257907289853e-01,7.981496308194876987e-02,6.170311602086486075e-03,1.571705667383579627e-02,-8.185060012100216524e-05,2.666012346744537354e-01
3.544596096598507939e-01,3.541733351566775934e-01,7.925767807240968743e-02,-2.535898169586311111e-03,1.020480142994875661e-02,1.136404695927679259e-02,2.763630449771881104e-01
3.704878248645481764e-01,3.446959368131767287e-01,7.251280080506739001e-02,-4.720467464794806702e-03,-5.438918614195523485e-04,3.139917791253975850e-03,2.861228883266448975e-01
3.306004444543650944e-01,3.367611435012930476e-01,6.030335122564789430e-02,9.999783368475016060e-03,8.870403900224641588e-04,-3.607595751813717083e-03,2.740530669689178467e-01
3.271962568378131708e-01,3.404410357676437293e-01,5.946362765672083550e-02,4.292987659061126698e-03,-4.655709499427937437e-03,-2.468085739534103297e-03,2.748469412326812744e-01
3.239881091902328536e-01,3.253060582254225785e-01,6.094830017234273423e-02,3.805258922665912398e-05,2.445526775814984254e-03,-1.227287012159788884e-03,2.637438476085662842e-01
4.099541147519863982e-01,4.088659603855895330e-01,6.240437459086772831e-02,-5.101908043341617238e-02,4.767106907481198641e-02,2.421425444975387319e-03,3.675021529197692871e-01
3.300510140257188474e-01,3.530948759186414154e-01,2.134974963591268482e-02,-1.844297532059858144e-04,1.480542037832124035e-02,-8.308638768272294875e-03,3.221893310546875000e-01
3.277509117471186229e-01,3.305949444922462455e-01,3.902054317286718366e-02,2.344632254429028333e-03,-7.393201949038334317e-03,6.834798472873728457e-03,2.907148003578186035e-01
3.394435627247754939e-01,3.565715256452092197e-01,4.293474264037580590e-02,2.459803374642103094e-02,6.352912010036381937e-03,1.465384878854280801e-02,3.096286654472351074e-01
3.230777340580388013e-01,3.311626143153798552e-01,5.027436756984282606e-02,-4.500548105413603459e-04,-5.560717221564275350e-03,-5.556392255947997447e-03,2.772699296474456787e-01
3.199148905489026529e-01,3.257122960632289344e-01,5.123447415709769803e-02,4.411123866678007439e-03,-7.449784252039043375e-03,-6.104220508546661858e-04,2.720412015914916992e-01
3.286488656184623491e-01,3.263988176578401235e-01,-3.163957150947485641e-02,9.357129982528245883e-04,3.582878140486731033e-03,4.673264794631964286e-03,3.593171536922454834e-01
3.238439489449780329e-01,3.161962960456782823e-01,-3.013705210373668342e-02,-2.447634664981455065e-03,3.474997482374972500e-03,2.689577817896141726e-03,3.503281474113464355e-01
3.297196428348827535e-01,3.180536883926839975e-01,-3.081886704798689203e-02,-1.609558380540331533e-03,5.940457791336994746e-03,6.012004776571070949e-03,3.551621437072753906e-01
4.479029606895285065e-01,1.624022618996123768e-01,-4.732462890788174947e-02,1.419101502292012262e-01,-5.137330889068134065e-02,-2.048352229438492669e-02,5.049406290054321289e-01
4.040748125967948967e-01,1.937111505770963693e-01,-2.769550672199891372e-02,5.263798732950937531e-02,-6.333914513228960149e-04,6.888662026818024621e-03,3.851045668125152588e-01
3.326556572634096209e-01,3.268121556731469202e-01,-1.732407624238055388e-02,-4.348555263185891959e-03,5.359543631840968901e-04,-7.218117122564723584e-03,3.474028706550598145e-01
3.505811482461261841e-01,2.117804547220553668e-01,-1.353528903441172937e-02,4.914757644597839842e-02,1.914699250030138696e-03,-5.010268259791219800e-03,3.296051621437072754e-01
3.253064205616689186e-01,2.250933456019443835e-01,-1.958252052911274577e-02,6.775602096952630660e-02,1.328473665439216210e-02,-1.733950689451122310e-02,3.311083316802978516e-01
3.554405395969379433e-01,2.259701011707594409e-01,-1.906569754632855829e-02,5.294693948395645666e-02,1.358510354656239545e-02,-1.916757497429003726e-02,3.443777263164520264e-01
3.280068284499909614e-01,2.239141677456753521e-01,-1.377384770790160418e-02,6.291543041538774639e-02,-2.657787579885175465e-03,2.218393703939192454e-03,3.224646747112274170e-01
3.259288924352072847e-01,1.659305607224503265e-01,-2.927426031183108512e-02,1.353050355018357576e-01,-2.194669427081907820e-03,-6.500447638459086290e-03,3.872988522052764893e-01
3.461955872917312771e-01,2.424153322690582313e-01,-2.106419627368144587e-02,1.015267275795948831e-01,9.720647291154000877e-03,-7.747759523730696728e-03,3.727228939533233643e-01
3.256111167702550602e-01,3.280544121280912773e-01,-2.942456024445497254e-02,-1.559665375874654978e-03,1.451408675680754788e-03,-1.378712215112597151e-04,3.562828004360198975e-01
2.432950173462005705e-01,3.528935657920967417e-01,-1.085126227229507578e-02,3.467149763388710504e-02,6.282546000364178269e-03,-4.521889402727686559e-03,3.290020227432250977e-01
2.463512167579119949e-01,3.420260686933321859e-01,-2.180808655091501236e-02,6.903570656068069855e-02,1.877396953928757439e-02,-1.423827852320212403e-02,3.502606749534606934e-01
3.245127401076750573e-01,3.248119636190428539e-01,-2.880740353677938015e-02,-6.640860033824328812e-05,-3.489407420407555048e-04,-9.242228890261686971e-04,3.534740209579467773e-01
2.762164013057818446e-01,3.249122564836229854e-01,-2.055728426020456134e-02,-3.536493742349292729e-02,1.394780236532070471e-02,1.497909110027248990e-02,3.315212428569793701e-01
3.255933181338643290e-01,3.170867735952839217e-01,-2.749621069483956792e-02,-5.043740497055077335e-03,1.043915493253932091e-02,1.043380130501943802e-02,3.499583303928375244e-01
3.262018155505367889e-01,3.282405882490085913e-01,-2.909439426609392032e-02,1.310126074994535320e-03,5.214422643822614820e-03,5.143112168048176100e-03,3.565529286861419678e-01
3.097702559692141477e-01,3.200492185114511279e-01,-3.000233212526670634e-02,-4.246153146865225617e-03,8.451928225613103765e-03,7.490051010686547307e-03,3.456591963768005371e-01
3.160836593937170202e-01,3.252196946237597697e-01,-2.808864732737226255e-02,-8.230288213186245233e-03,6.650972750762649752e-03,5.824558579968544189e-03,3.494568765163421631e-01
3.197595927956919937e-01,3.228048586281237475e-01,-3.083629206926677413e-02,-2.309930602109975997e-03,2.203791442741607782e-03,4.686403182632642092e-03,3.522653281688690186e-01
3.195215511002780784e-01,3.235461658696774379e-01,-3.247169041813402490e-02,-1.933070097961445653e-03,3.036891418516682144e-03,4.595082790665834353e-03,3.541670441627502441e-01
3.106219782096029669e-01,3.407481429863277178e-01,1.825450244320617199e-02,8.807315466139288215e-03,-2.443937032513979549e-03,6.608296851019694433e-03,3.091534674167633057e-01
2.954912505875589290e-01,3.339502803894932592e-01,-2.633200165428381534e-02,-1.674687876199241858e-03,-6.159025671841584582e-04,-6.304055162771288016e-03,3.428630828857421875e-01
3.348080424335353467e-01,3.394930790348917315e-01,-3.798508401663097667e-03,-1.459363593432033744e-03,2.239885167736719099e-03,-3.181892664670362119e-03,3.410491943359375000e-01
3.251846322469172379e-01,3.324388224311849438e-01,2.338223804050162946e-02,-1.596330612459519183e-02,-1.565829468432010721e-02,-2.895198906262845019e-03,3.079802095890045166e-01
3.243121621524835962e-01,3.259739025513300748e-01,-3.090666401499614357e-02,-1.028752959448478747e-03,4.508181705559261454e-05,6.085518370042157553e-04,3.560586273670196533e-01
3.043743718679079446e-01,3.779080196215075516e-01,1.845008254247129664e-02,6.029247169848781472e-03,-6.706173459586228618e-03,-2.514767053346945135e-03,3.293142914772033691e-01
3.296609038291885563e-01,3.359852005267877639e-01,1.301922397459040481e-02,3.194456373565315405e-06,3.574054415468868630e-03,7.349008180971963733e-03,3.201637566089630127e-01
3.202695128014864667e-01,3.450968164676850303e-01,-2.446224874676380945e-02,-5.313925532933362747e-04,-1.429297039788859393e-02,7.090646701319477897e-04,3.586507439613342285e-01
3.232719382205975212e-01,3.193690636115656400e-01,-3.180773083237095622e-02,9.510687327521337182e-04,4.453773001348273336e-03,-3.043071589320949302e-03,3.532718122005462646e-01
3.319674181241474287e-01,2.913718351799754469e-01,-2.611285092377488293e-02,3.026376772471022630e-02,-1.520306817051681955e-02,1.776558665890197800e-02,3.460071384906768799e-01
2.582544350890444429e-01,3.394623985328825144e-01,-1.991195219468031019e-02,3.812030529424181163e-02,-1.776483700932672896e-02,1.152211422966729557e-02,3.350598812103271484e-01
2.411103850697069728e-01,3.325859562430277805e-01,-6.485925115642610095e-03,3.454242898569041820e-02,-3.210182877551445366e-03,6.972839433916039158e-04,3.097299337387084961e-01
2.819340877189844830e-01,3.156976351810193426e-01,-2.422890788641873794e-02,1.059879021569710977e-01,-4.983357154803936054e-03,5.329123295212779415e-03,3.729248046875000000e-01
3.390983747121893987e-01,2.977457393867005697e-01,-3.096691495374431780e-02,-3.099917521693554886e-03,4.249391023312082231e-03,6.151019496289690525e-03,3.514991998672485352e-01
2.718361616386029134e-01,3.273891734255255925e-01,-1.510922548358145656e-02,2.346282681437556611e-02,-5.198942388429713540e-03,7.480512870859130393e-03,3.213486373424530029e-01
2.703018549984742558e-01,3.370333956846982559e-01,-2.403933372579222794e-02,6.232519859372792626e-02,-1.011809797111468123e-02,5.163204345214740705e-03,3.503884673118591309e-01
2.742235332529086023e-01,3.126355471298614130e-01,-1.958427567298590133e-02,5.178856528526372405e-02,-1.529241152329398508e-02,9.375932599427202335e-03,3.287791311740875244e-01
2.977311397746559285e-01,2.927340469537763057e-01,-1.067312895626298941e-02,6.017349362761902076e-03,-2.456968246532646206e-04,1.271686147304560322e-04,3.061141967773437500e-01
3.207827510611515054e-01,3.183406816778917570e-01,7.204785640132513325e-02,-5.118503846658070200e-04,1.615508441819592288e-03,-6.214302881734560906e-04,2.475426346063613892e-01
1.878545757801582117e-01,4.031257042633900056e-01,-2.550880757499587870e-02,-1.406009744344559461e-03,7.382777800406776537e-03,2.030933191471500070e-03,3.714544177055358887e-01
1.074434365336672942e-01,4.736127054887805943e-01,-7.819713343979484144e-02,-5.451685073075804473e-03,-3.030493671960661842e-02,-1.802673651421810366e-02,4.902422428131103516e-01
1.336013821940150725e-01,4.045467869487389123e-01,-1.035786766166760242e-01,8.446225440388986649e-02,-1.223384557022039534e-02,1.689332223507315767e-02,4.654410779476165771e-01
5.123301288527647157e-02,4.144450720660567411e-01,-2.823151274314911197e-02,8.117764947509558196e-03,2.162575792923594406e-02,1.569806537005918878e-03,4.107410311698913574e-01
1.134451482699694036e-01,3.970479506818472837e-01,-1.821794324774997365e-02,9.091537251321013535e-02,-2.234138582489672478e-03,-1.404998025396133948e-03,3.999043107032775879e-01
3.302668204792417184e-01,3.022887943901715335e-01,-3.106274893733396159e-02,-1.714870826647433080e-03,5.946934579176251304e-03,6.376588152255411278e-03,3.485246598720550537e-01
2.027749708739223222e-01,3.947687799918846441e-01,-1.428357374432756566e-02,-2.656199025534822233e-02,2.679820778854396374e-02,1.089727627785255087e-02,3.609393835067749023e-01
1.392962588950944491e-01,4.077297976887983566e-01,-2.296719741904956757e-02,-6.080991131106168457e-02,2.958126276020345627e-02,1.435095827773281117e-02,3.953219950199127197e-01
1.572929251031786047e-01,4.187463448018507450e-01,-1.630914195055224725e-02,1.769979404773640904e-03,6.612141882557263928e-02,-2.660130609310092098e-02,3.989145755767822266e-01
2.137044953000570013e-01,3.937258319425436248e-01,-2.764847879492976501e-02,8.637419870988233273e-03,3.423000026572967786e-02,-3.502472353280213207e-03,3.713264465332031250e-01
9.124533848363290678e-02,4.175662011476304891e-01,-3.862501828616579647e-02,3.537168273032914589e-02,-1.564210767841400784e-02,-1.049508161091391133e-02,4.129757285118103027e-01
1.167367167193169991e-01,4.475817126787359768e-01,-5.115482960956754810e-02,-5.851664759977419361e-02,3.730164860206964909e-03,-9.129431535213452034e-04,4.511196017265319824e-01
3.129276070645200525e-01,3.324522172065319525e-01,-2.662370335596356274e-02,1.414271264560563925e-03,-3.620425208092784355e-03,3.642692376644446860e-03,3.498443067073822021e-01
2.836639721945217185e-01,3.522266537014543397e-01,-2.467441646350998496e-02,5.254610744170349311e-03,-1.284081784960895700e-02,1.402309903422272125e-03,3.485646247863769531e-01
3.149992407553714457e-01,3.310585566368714483e-01,-2.685545717914653019e-02,4.616647742383452871e-04,-3.696843187844762752e-03,2.990583953114458668e-03,3.502584099769592285e-01
3.192826773045850941e-01,3.148585347539291091e-01,-1.559038648288346707e-02,-3.288177661786001460e-02,-7.780022169040227281e-03,-9.951809409790330838e-03,3.382312059402465820e-01
3.262019065382433247e-01,3.068446235972009384e-01,-2.960651851690004888e-02,-5.643406265603425655e-03,-1.065275014575702527e-02,-9.383101841905864063e-03,3.475441932678222656e-01
3.177423074626591348e-01,3.224763633844336397e-01,-3.223486127501665188e-02,-3.935485438634345710e-03,-1.061780878817029580e-03,-2.137891411309088188e-03,3.524582087993621826e-01
3.050354718493305528e-01,2.911109743053667542e-01,-1.965419823405156752e-02,-3.015947093290603093e-02,-1.043913768420923205e-02,-1.410237646497171544e-02,3.236486911773681641e-01
3.219046359550279957e-01,2.951376351487940419e-01,-3.147165806028395796e-02,-2.154700622234812998e-02,-1.283951703154359754e-02,-1.586385473484368605e-02,3.446372151374816895e-01
3.211118981308532239e-01,3.214283411300679072e-01,-3.112591046956483809e-02,-1.880865103045540124e-02,-1.281991429388862694e-02,-1.242353689903908515e-02,3.552469909191131592e-01
3.189792614058943876e-01,2.898410583977845123e-01,-2.166627284597799630e-02,-2.547462508048068536e-02,-1.256132037842557642e-02,-1.737036888143130009e-02,3.320964276790618896e-01
3.046262845158337340e-01,3.244333526507371390e-01,-2.875000077457967596e-02,-1.242602287539676734e-02,-5.289039920324731942e-03,-1.103880337199209319e-02,3.450332880020141602e-01
3.182695700007843742e-01,3.340066212596928263e-01,-3.075230724395519588e-02,1.255002902414688619e-03,2.922925420901362637e-03,-7.423976875931224137e-04,3.571953475475311279e-01
3.177312520331337375e-01,3.314542663877152462e-01,-3.096880643526372934e-02,1.644169223848011740e-05,3.330272853546993941e-03,-2.729838258797171249e-04,3.558072149753570557e-01
3.239957746924822524e-01,3.318959144021180752e-01,-2.919511217111375734e-02,5.613070896894786473e-04,2.464431980638772009e-03,8.475621490285095315e-04,3.572363257408142090e-01
3.266807441107221210e-01,3.390497331560897720e-01,-2.328084967020810359e-02,1.006624977493650709e-03,5.721636183528755124e-03,1.026247461397348810e-03,3.564536273479461670e-01
2.985885901610636495e-01,3.358296303873592459e-01,-3.169697439699697972e-02,-2.286677380901219509e-05,1.018592046502615756e-02,-6.642117452853961695e-04,3.508392870426177979e-01
3.109793405657207410e-01,3.350852220865857545e-01,-1.923019433458372784e-02,-1.166678020365351752e-03,4.080059462336658137e-03,3.051015981719389612e-03,3.430180251598358154e-01
3.356377714560531134e-01,3.582019668692261183e-01,3.295108440217914270e-02,1.286809364766439492e-02,-7.601547074677673932e-03,5.120899011277961141e-03,3.157642185688018799e-01
3.279643476005292269e-01,3.304265699535748890e-01,5.580756923783139478e-02,-1.975218892933338754e-03,-6.863568710651474745e-03,1.224436632654517590e-02,2.744964361190795898e-01
3.246945292529155314e-01,3.276476207679220876e-01,-2.827529354179286747e-02,-1.588005104728634157e-03,-7.065447807186422177e-04,2.671762143380305293e-03,3.544985949993133545e-01
3.323903642324235186e-01,2.842243574404197948e-01,-2.309682551280078933e-02,6.273975539510860677e-03,-8.462919896591859087e-03,8.954671360160823892e-03,3.348764181137084961e-01
3.568811550409798361e-01,3.678670611785214151e-01,3.431406825121580129e-02,8.458048624609963706e-03,3.691216235993501852e-03,-1.968186057060735197e-02,3.303506076335906982e-01
3.713974558994196928e-01,4.969112573986269599e-01,5.325113504411910226e-02,1.261891674465905402e-02,2.669283174564537550e-02,-1.332118641543560827e-02,4.000626802444458008e-01
3.295718577973196783e-01,3.452186861582379751e-01,5.667639509176461421e-02,3.684282633492038002e-03,-7.089080831168745149e-03,1.032497819230126547e-02,2.819539010524749756e-01
3.431110231839293312e-01,3.335890920322407416e-01,4.218203104991311014e-02,-2.204711400775508957e-03,-1.665578264645313847e-02,-3.120891210206054155e-03,2.977575361728668213e-01
3.654845218238010895e-01,3.556221335078948442e-01,6.081975638085709845e-02,5.560334302881266835e-04,-1.314433048410009342e-04,8.219100221676130594e-03,3.001946210861206055e-01
3.281280818411487776e-01,3.576548004895593325e-01,8.087986377905073687e-02,3.669079334312707295e-03,-3.941343947745935480e-03,-1.290613797363785592e-02,2.643683552742004395e-01
3.291833346143693273e-01,3.552897582383857111e-01,7.748667801002045996e-02,-2.191160088833598186e-03,-5.399333644346747917e-03,8.269648838660865683e-03,2.662905752658843994e-01
2.571173045351154429e-01,3.510902154829145250e-01,-2.112002579193228424e-02,-1.794861136170004118e-02,2.077672913909046556e-02,1.244498571835982517e-02,3.392930924892425537e-01
3.191554618751428207e-01,3.442643389445321778e-01,-2.547052868943086579e-02,-1.681540027454389921e-03,-4.336269603470855119e-03,2.026077881454727177e-03,3.579495847225189209e-01
3.274130435898248148e-01,3.507189499457701309e-01,-1.143303779737478432e-02,-2.066350181976181824e-02,9.576807062259889633e-03,2.202425125699363287e-02,3.553424179553985596e-01
3.167245401873121646e-01,3.295563383401096114e-01,-3.223916425502315608e-02,-4.203611523918630161e-03,9.860859993576732638e-03,1.039320960749891276e-02,3.564925491809844971e-01
3.426868849920552407e-01,3.189940726135192528e-01,-3.003588784393121380e-02,-9.875238120314348486e-03,1.192602285751148856e-02,1.129072513653925532e-02,3.629799783229827881e-01
3.057642001763201667e-01,3.360150036536215801e-01,-2.688605725578349648e-02,-4.788232786543276595e-03,5.223712475084605483e-03,4.412848192367330863e-03,3.490605950355529785e-01
3.443281372273445662e-01,3.226199446878191268e-01,-2.895345863137693820e-02,9.533974151511725656e-03,-7.702876871744861187e-03,8.035916798822524340e-03,3.638015091419219971e-01
3.133685716905379448e-01,3.197953091835341599e-01,-2.008265804335213067e-02,2.207969814348080193e-02,-2.004168493966506856e-02,2.372296918836543436e-02,3.431179225444793701e-01
3.284142290621787086e-01,3.301821936372936750e-01,-1.072980846422846857e-02,-2.778655014089764612e-03,-3.908048845076117061e-04,4.231866468980090799e-03,3.401451706886291504e-01
3.434636888973677249e-01,3.463362329521108562e-01,1.553266765851818443e-02,2.797946623672786098e-02,-2.618305605875632675e-03,-3.860886801031936967e-03,3.330207765102386475e-01
3.255482302705541287e-01,3.334571198827791516e-01,2.495997391454377046e-02,-3.354292747549359258e-03,-6.748737411675300932e-03,2.951103671443292952e-03,3.049421012401580811e-01
3.276518534987015174e-01,3.242043254871134761e-01,2.507977711676528942e-02,1.614889456529056740e-03,-8.006671934130172447e-03,2.108337711436835717e-03,3.012177050113677979e-01
3.255433729032415902e-01,3.567724728497020936e-01,-2.057302063658478231e-03,1.556238331806658257e-02,-1.478641210618480799e-02,7.417653357562892236e-03,3.465193808078765869e-01
3.361399364871762163e-01,2.991560384718381371e-01,-3.202267324004734461e-02,-1.224779500881880041e-02,9.882433264088769445e-03,2.014926818801330427e-02,3.539158403873443604e-01
2.931108122876704969e-01,3.565981066154803036e-01,-3.076141476782565110e-02,-2.024911030955511490e-03,2.249217162652969795e-02,5.042308530021639978e-03,3.620661497116088867e-01
3.084867247707946403e-01,3.444566662698302917e-01,-2.789691789276735334e-02,2.304935985429775250e-03,1.345901493125596822e-03,-9.055236178245745782e-04,3.557686507701873779e-01
3.109664477662478221e-01,3.447294097341268015e-01,-3.101888770566532672e-02,-2.588332800203606548e-03,1.974564059755530652e-03,3.414395490197329533e-03,3.601487278938293457e-01
3.331630114835207879e-01,3.327208945068992341e-01,-9.289025678715923107e-03,3.415432421305474378e-03,2.254659907839661522e-04,-1.197660134329749625e-02,3.429105579853057861e-01
3.173584193422445687e-01,3.317917679485013482e-01,-2.229816086629413108e-02,1.649408928185187341e-03,2.508628019603999573e-03,-4.352259631142910319e-03,3.472191989421844482e-01
3.185630828361756262e-01,3.193660963161835120e-01,-2.945169692147101004e-02,2.164766254289517133e-02,9.336365122225194491e-03,-1.148559958261638134e-02,3.513652086257934570e-01
3.180312743262837527e-01,3.248801432764831243e-01,-3.325303480454228078e-02,1.632695043208173564e-03,6.962452028986289981e-03,-6.254434246081942705e-03,3.551397621631622314e-01
3.295441554518760974e-01,3.214859216793320984e-01,-2.255296627089722894e-02,1.252638696161858340e-03,2.834673872774617562e-03,-2.541721492712118759e-03,3.482071757316589355e-01
1.404523538720801601e-01,4.563682060633101889e-01,-1.193336573205729945e-01,1.335628572262027580e-01,-1.338140882109324463e-02,-2.875632266143487818e-03,5.508549809455871582e-01
3.439348042266719419e-01,2.938897348055520276e-01,-2.737681223421381538e-02,-6.156641437754750007e-03,9.936921906715011701e-03,1.241298849295994003e-02,3.502380549907684326e-01
3.067764601562943949e-01,2.891160826373508907e-01,-2.092449715696356738e-02,2.420042618994988279e-02,1.107219872079999966e-02,-9.376822712799911044e-03,3.229566812515258789e-01
3.127402445255122454e-01,3.191619649731133324e-01,-2.723297545261477159e-02,9.112963078475970480e-03,7.188748911964100603e-03,-4.127681012130693383e-03,3.438917398452758789e-01
3.034671169932475210e-01,2.942275652083172766e-01,-2.048204135006181925e-02,2.239802916503434368e-02,9.449792700358393069e-03,-1.294147215394936268e-02,3.229715824127197266e-01
3.031483794064416259e-01,3.117500188647721049e-01,-2.494840767952513638e-02,2.081013824131945286e-02,9.112813186158096740e-03,-1.332041585122619061e-02,3.355953991413116455e-01
3.222994759251334163e-01,3.527046747027657858e-01,-2.432271069384756013e-02,4.494912492648809113e-03,4.641450515647667883e-03,-4.378146202380042056e-04,3.629550337791442871e-01
3.095928771677279867e-01,3.227217392623821235e-01,-2.910872500880562486e-02,4.550062594420901940e-03,5.821399151818724797e-03,-7.168477715208700779e-03,3.459130525588989258e-01
3.019689066330655258e-01,3.070043785474875775e-01,-1.644838898131525950e-02,3.586818875744516438e-02,1.773858529853239441e-02,-6.130672143594910473e-03,3.285340368747711182e-01
3.096862797728915373e-01,3.162687466049377560e-01,-2.774585914719790436e-02,5.692100499530758188e-03,5.035831939897229652e-03,-5.619896824260293793e-03,3.411641120910644531e-01
3.028306466174955913e-01,3.258560152485766581e-01,-2.244141130488733205e-02,3.031494290282515242e-02,2.145866966145454358e-02,-1.357214649450112776e-02,3.442566096782684326e-01
3.469792660801011008e-01,2.705845294713920546e-01,-2.708520951299034363e-02,2.795313278424119488e-03,2.738982392476958534e-03,-7.629331528328936636e-03,3.426432609558105469e-01
3.237948965500371812e-01,2.545491140846813938e-01,-2.540677610279912235e-02,4.797681359675567275e-02,1.915070707912207987e-02,-3.116921175885318737e-02,3.368622362613677979e-01
3.484912804222335403e-01,2.802667043990543783e-01,-3.887567112913409284e-03,-2.237619726066271408e-02,-2.773388567101968578e-03,-1.931553589952722874e-02,3.277635872364044189e-01
3.438209603240883760e-01,2.900599384355399546e-01,-2.911130211994766848e-03,-2.945524953753989039e-02,2.643884036251091963e-03,-2.303547527374429776e-02,3.296792805194854736e-01
3.306262320908458507e-01,2.842917108307199126e-01,-2.369571122783423189e-02,-8.015913369291763346e-03,1.104518831864607226e-02,7.823054160614444780e-03,3.346878290176391602e-01
3.464179996700286757e-01,2.931376756721022492e-01,-2.790408945512115602e-02,2.414444160361452598e-04,-4.161110577291097720e-03,-1.411057582746176250e-02,3.516550362110137939e-01
3.308325078946756648e-01,3.196249192085895974e-01,-4.949571734862823202e-03,-2.391351237468100632e-03,-6.432059868449743929e-03,-1.893758262123197223e-03,3.305509686470031738e-01
3.611230594617939604e-01,3.654669972180916160e-01,1.458630380422301642e-02,1.800877604670042889e-02,2.058060961466670960e-02,-1.994268353216352430e-02,3.536222577095031738e-01
3.227308377230526659e-01,3.324471461299680075e-01,-2.702140854160914318e-02,-4.212433815701302313e-03,-9.518977881071968503e-03,-6.170061589761828905e-03,3.553288877010345459e-01
3.464643109409198396e-01,3.482592954232809901e-01,-1.204537266804348028e-02,-2.716857660407937664e-02,-9.878639274232501113e-03,-2.034384249774418355e-02,3.645884096622467041e-01
3.353405917217169296e-01,3.450259576298399522e-01,-7.634187612442777660e-03,-3.057374443325789563e-03,-3.118019942262276537e-03,4.054678344378853921e-04,3.480015099048614502e-01
3.102189490951138273e-01,3.198557197809258623e-01,-2.481461268376197737e-02,-1.183416266098119085e-03,-8.513031350406948580e-04,-3.918138998065168535e-03,3.400315046310424805e-01
3.210378394826020609e-01,3.519465256938141828e-01,1.478597481027188465e-02,-2.301418492088880968e-02,-5.434718571497137649e-03,6.246861007352449632e-03,3.255856633186340332e-01
3.273143724113616870e-01,3.333078305176186418e-01,6.173745054467522086e-03,-3.783212872352445695e-03,3.368101959085268750e-03,-5.925431898881851865e-03,3.244599699974060059e-01
2.412847105992453889e-01,3.091529993491616835e-01,-1.515889561320188372e-02,-7.023822089509408617e-02,1.912330291184260664e-02,1.451851129798299202e-02,3.229605257511138916e-01
2.692440126137685130e-01,3.142390789003086105e-01,-3.783417598686797390e-02,-5.155716369167887003e-02,1.629373447377217843e-02,2.508235478356654960e-02,3.475583791732788086e-01
3.105811369498177599e-01,3.572990808209698388e-01,-2.422376788259172908e-02,-4.284021720924491988e-02,1.719996446027900402e-02,2.442998150590825965e-02,3.716209530830383301e-01
2.849309761627364379e-01,3.391798860451901154e-01,-1.529015480640524838e-02,-2.920787823539753442e-02,9.378661518046539636e-03,3.104144141559632159e-03,3.349842131137847900e-01
3.176507757302795554e-01,3.070673968299205692e-01,-3.767011007481943508e-02,-4.940973774542718744e-02,1.534831584964001586e-02,1.530131908011687220e-03,3.614445328712463379e-01
2.748812090841575850e-01,3.328784542598234308e-01,-2.840077920006067735e-02,-1.742732501885187538e-02,2.188424994388088810e-02,1.269730469882872186e-02,3.402421474456787109e-01
2.886225981417769315e-01,3.342727537330241749e-01,-2.589971798192819419e-02,-2.924873661042388245e-02,1.595007830486549691e-02,1.439322221617609157e-02,3.454234898090362549e-01
3.223969847595475891e-01,3.223772686609598925e-01,-3.319089191337648570e-02,-1.357686088845208626e-03,1.806660708714756883e-03,2.658020478236643950e-03,3.556293547153472900e-01
3.080417695464185979e-01,3.256384719246032677e-01,-2.779386646947265560e-02,-1.451446571412003117e-03,5.513652036971352158e-03,7.587221110124059073e-03,3.453621864318847656e-01
3.295078611273486446e-01,3.240780881244009204e-01,-2.799682162838681987e-02,3.534129737516643137e-04,-4.738275373414988401e-05,1.170483843701345056e-03,3.548272848129272461e-01
3.234821139362994424e-01,3.247574630053579603e-01,-3.335063311059008329e-02,2.047616631829048323e-04,2.835708634951089255e-03,3.810854228856268375e-03,3.575669825077056885e-01
3.088785683763153322e-01,3.226226672357014325e-01,-2.796687234284675472e-02,-1.768127141678417676e-03,5.431276181310311889e-03,8.046025675891618767e-03,3.443478941917419434e-01
3.433747849532648999e-01,2.304924077386326375e-01,-1.499848191520988805e-02,-5.551621353627729516e-02,-2.318239591416152746e-03,9.842913240067427752e-03,3.320733606815338135e-01
3.506808450824899226e-01,2.433315914299014060e-01,-2.451173831162656302e-02,-1.053514967748438169e-01,4.435217849068381554e-03,1.079315566899050928e-02,3.817355036735534668e-01
3.503640858144673187e-01,2.984214838185373919e-01,-2.982662343128270055e-02,-9.414759503185526207e-03,1.423471653907122311e-02,2.083404299610483804e-02,3.600984215736389160e-01
3.270097660818387375e-01,2.300093766474562429e-01,-1.731568750625378517e-02,-7.694493323438297838e-02,7.952448295927701596e-03,5.604100106422284927e-03,3.355814516544342041e-01
3.570467619391213265e-01,2.179874564723337793e-01,-1.387316021384557563e-02,-3.454841150324871463e-02,-1.148130750053142453e-03,-6.712117938845082489e-03,3.302409648895263672e-01
3.142340469834035699e-01,3.159888276642488503e-01,-2.805505361364166172e-02,1.534883213576460678e-03,-4.169787534359970654e-03,3.329341131995352566e-03,3.433045744895935059e-01
3.450278561220920803e-01,3.526937825157075990e-01,2.617878586637495397e-02,-7.071453093201764128e-03,1.510792385014650234e-02,-3.997908584677198362e-04,3.240416944026947021e-01
3.108026072155032349e-01,3.169244810640268750e-01,-2.811853645109108069e-02,9.495546014298424098e-03,-6.642108890141325966e-03,8.147250085524474633e-03,3.429020643234252930e-01
3.027602834711288216e-01,3.272599791593594487e-01,-2.537058981216647191e-02,2.763329642354876714e-02,-1.270002310073512462e-02,1.876857416054156930e-02,3.466131389141082764e-01
3.172183746858472375e-01,3.046605652451480628e-01,-2.736998274888929883e-02,2.899691871230875712e-02,-1.425951578595990865e-02,8.362392088512722935e-03,3.433858156204223633e-01
3.156585227452399778e-01,3.226590464323618179e-01,-3.025659830888793866e-02,2.540159337498016246e-03,-2.792081063250564585e-03,4.288194520394147426e-03,3.496080338954925537e-01
3.497443888458280914e-01,2.882234759988081541e-01,-2.442383483832696878e-02,-1.058798885540528610e-02,1.886730379333570505e-03,5.950878043857501555e-03,3.481676876544952393e-01
3.553645395402371676e-01,3.277973762366588328e-01,1.098920226143493273e-02,-9.595220992092786186e-03,-1.013934328474940362e-03,1.449182731815115872e-02,3.328215777873992920e-01
3.641684092217972735e-01,3.486929850236099582e-01,1.622837175494681872e-02,4.552952851634981153e-03,-7.691590766824320941e-03,4.563902401670648888e-03,3.409096598625183105e-01
3.305266223512609569e-01,3.111816491087691094e-01,-5.695229895691739097e-03,-1.782446583176614235e-03,-6.720893230049489956e-05,1.178158221966385489e-03,3.269998133182525635e-01
3.575428396159391342e-01,3.152304218722698503e-01,-2.700243591026932344e-02,-1.721514032216250011e-03,-2.862066389951040124e-03,1.199563414029555450e-02,3.658681809902191162e-01
3.719364624189752666e-01,2.959946855096153295e-01,-1.207754535500463189e-02,1.136112409405946704e-02,5.900140075489656959e-03,4.904431175423611729e-04,3.529356718063354492e-01
3.425270170929126667e-01,3.098356171373350398e-01,-5.107221863275862583e-03,-4.804939185690985416e-03,5.864461394522148957e-03,1.332622629507663331e-02,3.335548639297485352e-01
3.462107285186363792e-01,3.375671889315487451e-01,2.751952991692230288e-03,1.065332141995937142e-02,-2.911024970338434940e-03,1.170022894432794594e-04,3.397585749626159668e-01
3.147278260835957853e-01,3.128466824380353728e-01,-3.185462319299148248e-02,-2.684890888778385110e-02,4.361709559758102789e-03,6.189687990689573920e-03,3.490065336227416992e-01
3.302830245425371070e-01,3.128015624991254962e-01,-2.750684568330930002e-02,-4.828561693366532903e-02,2.156205642343168513e-02,2.555015542126655784e-02,3.638848662376403809e-01
3.261687091984774023e-01,3.208340704255848719e-01,-2.730059540826715314e-02,-3.300933335395447171e-02,3.328451824135603837e-02,2.179389868441160630e-02,3.620783388614654541e-01
3.039118239120173204e-01,3.416890471727330736e-01,-2.715907156967925506e-02,-1.858336288992142385e-02,2.226323554041962152e-02,3.747149653272993826e-03,3.551156222820281982e-01
3.300374153061668148e-01,3.138102900565269970e-01,-3.259039653365258804e-02,-2.579224768531167972e-02,1.369339681686026870e-02,2.947938059558499746e-02,3.619988858699798584e-01
3.119699247151350718e-01,3.210804933999610866e-01,-3.060739867437445305e-02,-6.728108564701257982e-03,7.971005371674789661e-03,9.163830197568900021e-03,3.480540812015533447e-01
3.373486952289376783e-01,3.346590438176232363e-01,-2.160693456693574266e-02,7.146461708371689217e-03,-9.011680438162084084e-03,-1.418609481280568496e-03,3.581812381744384766e-01
3.284652516113314991e-01,3.323128713950560531e-01,-7.116494206890422447e-03,8.746076183715433688e-03,-4.636751500447706432e-03,6.801929162542832020e-04,3.379592597484588623e-01
2.679699278215563751e-01,3.213776980806652972e-01,-1.943794225709410961e-02,-3.071471187136540909e-02,1.946000651493840980e-02,1.297661093463496618e-02,3.244640529155731201e-01
3.168938668436830364e-01,2.978301341583805550e-01,-2.484658017357266324e-02,1.492674952185007314e-02,9.716077206114205611e-03,-8.520886506033074903e-03,3.343718945980072021e-01
2.551135504852826141e-01,3.213565835457878883e-01,-1.345581692872918622e-02,-3.276251068572156450e-02,1.701486623161408904e-02,1.276433475895965945e-02,3.144613504409790039e-01
2.896471463514223577e-01,3.062859445121322022e-01,-1.436324614936143607e-02,-4.634444588055925546e-02,8.623897279636966520e-03,3.295100472151128550e-03,3.231975436210632324e-01
2.621066832318612039e-01,3.088954954092287819e-01,-1.029087488646066029e-02,-3.471223482660991400e-02,1.351136790267746385e-03,1.790727350939549109e-03,3.045729696750640869e-01
3.131923815445813997e-01,2.894149758924930982e-01,-8.191117781234519279e-03,-1.925610923638880478e-02,-5.101494350186048382e-03,-3.373695160710496899e-03,3.121468722820281982e-01
2.898614947038169465e-01,3.064561682730446712e-01,-1.182763985116058736e-02,-4.599399956704152553e-02,9.759837287585743787e-03,4.512518229964982905e-03,3.209226429462432861e-01
2.820638131892620470e-01,3.270471245449664277e-01,-1.516506941322073865e-02,-1.746877803488850259e-02,7.195130549374995250e-03,7.353152037647742514e-03,3.239935636520385742e-01
2.819441133212002848e-01,3.111025043086553254e-01,-1.290135248208695851e-02,-1.460026871896746500e-02,8.458896983695755531e-03,-1.803245706490982231e-03,3.118416368961334229e-01
2.857101489692170926e-01,3.360218795901986910e-01,-2.727172077757950008e-02,3.382201616575442049e-02,-3.430154021278202653e-02,2.516213333000185889e-02,3.536899089813232422e-01
3.024521896631761630e-01,3.491265595031703417e-01,-2.824101615931898235e-02,-1.702431280312799357e-03,-6.302737129319329647e-03,1.430695890498627585e-03,3.565184473991394043e-01
3.551939113380014335e-01,3.601411279041532021e-01,4.748689097285924143e-02,5.763651112758907090e-03,1.499390555761018033e-02,-2.211353183039931405e-02,3.138017058372497559e-01
3.192954596541008883e-01,3.348666481722706312e-01,-2.737985000297066263e-02,2.629383564475230774e-03,-1.519786747643539146e-02,6.976940951381829271e-03,3.559270799160003662e-01
2.347798031976397470e-01,3.336549054766829725e-01,-1.280342125264744002e-02,-5.297962997994334899e-02,8.610650658253322584e-03,1.645380129180450948e-03,3.228074312210083008e-01
2.579885808563930349e-01,3.255938539330375248e-01,-1.353104237461669190e-02,-3.934225384643096068e-02,-7.206316698196667085e-03,-8.364105726032869392e-04,3.185135424137115479e-01
2.976479246069972384e-01,3.043638335117352378e-01,-1.152891057780858208e-02,-2.356211278380310192e-02,6.417571057349297572e-03,6.706795762108249542e-03,3.156514465808868408e-01
2.854343914507355140e-01,2.893362701475650223e-01,-2.391374843960997199e-02,-5.527522302655482611e-02,1.774999739781878486e-02,1.997645643726453021e-02,3.289786577224731445e-01
2.940039733301906821e-01,3.053841620028445170e-01,-8.124619360096008158e-03,-4.441281666570012776e-02,4.851737393940726457e-03,4.478899071754229889e-03,3.176440894603729248e-01
2.580665757961074225e-01,3.276567521701633234e-01,-8.520481861515771804e-03,-3.326306796154727963e-02,3.590078855455031050e-03,4.875975237432918219e-03,3.128778934478759766e-01
2.980179353608240489e-01,3.349024958784456718e-01,-3.109319132192014945e-02,-5.547392067295176324e-03,-9.891900849934069651e-03,2.927091075153472142e-03,3.496073484420776367e-01
2.808724553704936566e-01,3.325356835737128813e-01,-2.757197627294730169e-02,1.566263607230717822e-02,-9.683081969743927153e-03,4.163410860476950311e-03,3.388385176658630371e-01
3.108223462219501521e-01,3.353571317501739535e-01,-2.842467036211354658e-02,1.973948152397942031e-03,-2.269595935177208361e-03,-2.117182156384804850e-03,3.522136211395263672e-01
3.203426274580547517e-01,3.355317510536161008e-01,-3.224885363708637764e-02,-1.115309736829341557e-03,-5.120916033974472203e-03,1.113733060550389786e-03,3.605456054210662842e-01
2.853853475764881464e-01,3.495543798675559977e-01,-2.738630910894560011e-02,3.306760702186152708e-03,-7.131738024367628888e-03,3.168471238180943679e-03,3.496133983135223389e-01
3.232455453105055887e-01,3.321586786458532448e-01,-3.289623852265249893e-02,5.075924581251304571e-04,8.208822135896371526e-05,-1.552358204049271667e-04,3.606821596622467041e-01
3.213223189190508866e-01,3.296022115041128409e-01,-3.142456279279778886e-02,1.775360640216998038e-03,6.699274105173463542e-03,-6.897010430392379148e-03,3.573603630065917969e-01
3.273191784040433983e-01,3.380076335342364069e-01,1.135696579215333957e-03,1.564381500672832508e-03,4.983684543940022742e-03,1.122406256045615320e-03,3.317859768867492676e-01
3.251677429061439750e-01,3.294063705736489656e-01,-1.533843008917762374e-02,-8.518931513213548034e-04,-2.733231488120867539e-03,2.294789518684069857e-03,3.427040874958038330e-01
3.131036687969770416e-01,3.367627067523166207e-01,-2.565455830970633788e-02,2.113429611795587283e-03,3.480763697786218563e-03,-2.669434075228237745e-03,3.512872159481048584e-01
3.151882202740755035e-01,3.296434407700284397e-01,-2.453961210010338623e-02,3.176245705116255923e-04,2.318197671056497402e-03,-2.681322245715088773e-03,3.472359180450439453e-01
3.139036370803277576e-01,3.378274081625752823e-01,-3.165764389990152750e-02,1.298281063461189950e-03,3.666098828482876500e-03,-3.875385959951986245e-03,3.582492172718048096e-01
2.956381403849254186e-01,3.455239368545495182e-01,1.934707356573131531e-02,1.116607790075437381e-02,-1.003236198521129108e-02,-5.132120838617177869e-04,3.054261505603790283e-01
3.127952871483830055e-01,3.290900924119709581e-01,-3.688510157559193869e-03,-2.867405763864333285e-03,4.903090129783142895e-05,9.527867775404080981e-04,3.249799311161041260e-01
3.304619895947850106e-01,3.402201145697376639e-01,2.556858966046407500e-02,6.623594946406467093e-03,1.270910590029361228e-02,-2.504932535680781062e-03,3.109105825424194336e-01
3.399020565895967683e-01,3.530059357300611711e-01,2.056399591689789252e-02,2.615185169883378624e-02,-6.736559502906337704e-03,-8.628872168000144716e-04,3.294286131858825684e-01
3.146514552423407274e-01,3.401111897608400936e-01,-7.540562240866355292e-03,3.475256139115432200e-03,7.180370341488784237e-04,-3.254013056783871052e-03,3.357504606246948242e-01
3.301485699867346968e-01,2.555402515759690463e-01,-2.094640418716392505e-02,-3.935422580380635443e-02,1.451045610500912436e-02,1.949104962182117429e-02,3.302379548549652100e-01
3.446301580639195561e-01,2.608515381896409635e-01,-2.229731805116155763e-02,-3.649017445084502820e-02,1.355617951413860302e-02,2.041462972879238766e-02,3.416286408901214600e-01
3.639301445310496597e-01,2.323893924438838465e-01,-4.109864180796415911e-02,-5.617076647877795176e-03,-4.438158933259727301e-04,9.224436815967615444e-03,3.583629727363586426e-01
3.719069274056042151e-01,2.301643527959388869e-01,-1.597046048927744377e-02,-2.210676163614120129e-02,5.629079797931856380e-03,9.153979526478828871e-03,3.425983786582946777e-01
3.873841909451425369e-01,2.225660689810380621e-01,-3.829872534788025806e-02,-2.868868135220972032e-02,1.721088924003455131e-02,1.442575906028223734e-02,3.770845830440521240e-01
3.868258903618368993e-01,2.127473308611456115e-01,-1.394731147299524410e-02,-3.039546646686101111e-02,2.260363280909060552e-02,1.930794194920900861e-02,3.557798564434051514e-01
3.450746045386757777e-01,3.049159590583067070e-01,-3.161518286367245856e-02,2.213558184859612445e-03,5.250676274958645607e-04,-1.726624435730605414e-03,3.583364784717559814e-01
3.343879817529629150e-01,3.273756134899238335e-01,-5.440533272688979904e-03,4.114231780118744221e-03,-1.677749470560445291e-03,1.227607375823661605e-02,3.371363580226898193e-01
3.553728992299869383e-01,2.787973214677211820e-01,-3.491290654527504089e-02,-7.071411599698927339e-03,7.396403698371201325e-03,-5.235389816431471055e-03,3.587433993816375732e-01
3.317771116112850915e-01,3.140560139435752407e-01,-3.174651921765028750e-02,5.114713480477007038e-03,8.185057406948206826e-03,3.969578619808884963e-04,3.553890287876129150e-01
3.459423851665787142e-01,3.189772738690410114e-01,-2.571198964167442647e-02,9.897623842994651006e-03,3.288022449914801198e-04,-7.519355082054022567e-03,3.595778346061706543e-01
3.731908193634908555e-01,3.151321647783690838e-01,-2.838106589945071923e-03,2.640920711332891274e-02,8.065413386684034628e-05,-2.447903120510893163e-02,3.561275899410247803e-01
3.310455300107258969e-01,3.267999352855194273e-01,-2.704157489245156976e-02,-2.141085919655064378e-03,4.403038527437546507e-03,-3.256696451689757542e-03,3.561289608478546143e-01
3.247431127665521000e-01,3.299291418362051420e-01,-3.147871398453178093e-02,-3.388714580562854220e-04,1.236488346646360485e-03,-5.763899384144765105e-04,3.588511943817138672e-01
3.400828629135039249e-01,3.095299943497372697e-01,-2.434510130698253061e-02,-2.946178311274747115e-03,-2.391673659708628359e-04,-4.480547971357114190e-03,3.502760827541351318e-01
3.389479289951670138e-01,2.606877857523988151e-01,-4.218684150864271398e-02,7.758927144454173808e-02,7.146327096096012285e-03,-2.762483171973304993e-02,3.769132494926452637e-01
3.709681746373378886e-01,2.507038952945647159e-01,-2.473611508960216199e-02,5.803590824264820425e-02,1.725640232888627293e-02,-1.882976677343457805e-02,3.681274652481079102e-01
3.190531187793830270e-01,3.243089355276114749e-01,-3.117511141583234613e-02,1.411183090837759418e-02,9.766080488596385473e-03,-1.357343311337958630e-02,3.549146950244903564e-01
3.314845630271583410e-01,2.825758625621561659e-01,-1.936400070767774206e-02,3.202811443618339138e-02,1.784720389096150842e-02,-1.954257349039785485e-02,3.369064033031463623e-01
3.372419149673497873e-01,2.628936736158323795e-01,-1.953618325520672938e-02,3.272152397490935699e-02,8.302279403244926248e-03,-1.958107387607584213e-03,3.312443494796752930e-01
3.321690995885264175e-01,2.662585193702940445e-01,-1.390408224845926521e-02,3.172315780481830411e-02,6.822981720585399174e-03,-6.917709068681877210e-03,3.234242796897888184e-01
3.337272097011343419e-01,2.360256695633136670e-01,-1.885460270362393498e-02,4.599028181066470294e-02,1.205249008198618771e-02,-1.662525076568693166e-02,3.271422386169433594e-01
3.529688777275618028e-01,2.191452069139206982e-01,-1.870593228967931676e-02,4.027312868829212300e-02,1.268998992385185140e-02,-3.023382338626488808e-02,3.382354080677032471e-01
3.534003185053215534e-01,2.535822741787542300e-01,-1.375580460178738029e-02,2.391128820781076442e-02,9.627089984657088637e-03,-9.933968823779214599e-03,3.322767019271850586e-01
3.232968920525245982e-01,3.249000928119306075e-01,-3.313929150251546107e-02,1.788426688762772480e-04,5.546901543925192128e-04,-2.511378166949599961e-04,3.572421669960021973e-01
3.214486807256156098e-01,3.198186580819272762e-01,-3.351260792323912385e-02,2.102466059483179984e-03,2.485921099443353603e-03,-2.670450370337553586e-03,3.542241752147674561e-01
3.238562208943868703e-01,3.229412420085316926e-01,-3.036819333895338091e-02,2.290451918154239909e-03,3.363249282774366435e-03,-2.706279539962321620e-03,3.538690507411956787e-01
3.205506543301278044e-01,3.191327334304486785e-01,-3.166748787369272344e-02,1.930646049205263400e-03,4.229785196123879952e-03,-2.898420057898287803e-03,3.516393899917602539e-01
3.243001672704484140e-01,3.267894829509914723e-01,-2.891076362659680821e-02,2.414707761766193188e-04,4.617127051304677904e-03,-3.446284898600499979e-03,3.546028435230255127e-01
3.442858831453082247e-01,3.113703395403105145e-01,-2.284041769515937625e-02,2.363392999238440526e-02,1.311725871594842177e-02,-3.686705035955683413e-02,3.606250286102294922e-01
3.177865933699915435e-01,3.256281433742352349e-01,-3.040817631598019544e-02,1.174253151415242209e-03,-4.303587609047011819e-03,6.719458639864209562e-03,3.524579703807830811e-01
3.190010427134503113e-01,3.309303692278223741e-01,-3.313592226175399169e-02,7.995187466646075413e-05,-2.630004974966466090e-03,3.094873246031261491e-03,3.583196997642517090e-01
3.038965822094670810e-01,3.293415391679181403e-01,-3.040155822331602753e-02,3.379590519983322050e-03,-5.338255894599900318e-03,5.786662720564608557e-03,3.480360805988311768e-01
3.205284946540786217e-01,3.243797404091903758e-01,-3.334339234464472890e-02,5.540317438448840934e-04,-3.228921305351244338e-03,3.773239343414738767e-03,3.559184074401855469e-01
3.066619783722310810e-01,3.260890971920638037e-01,-3.052082625854249387e-02,1.136278910951952223e-03,-5.358416199368739793e-03,6.508379554790907559e-03,3.476164937019348145e-01
3.314369991489121148e-01,3.252798949935155060e-01,-1.388815608125631984e-02,-4.918756473960353426e-03,-7.434131756339114674e-03,-1.318316408705165130e-02,3.433961868286132812e-01
3.330668013702076102e-01,3.302662105827525174e-01,2.480405746652794563e-02,3.368170578166808024e-03,7.030162164129861134e-03,5.366650243022622578e-03,3.073095381259918213e-01
3.583140114187978731e-01,3.303545216194933021e-01,4.171244989922168189e-02,-2.201699037571521606e-02,1.027379237152660323e-02,1.164768365130588361e-03,3.064983487129211426e-01
3.681234554513410084e-01,3.477878577843348529e-01,4.336714733319346760e-02,-8.432935006448420701e-03,1.020066237440483276e-02,1.647027725132052620e-03,3.159267604351043701e-01
3.382988932697624240e-01,3.203528954149312824e-01,4.093836930035238408e-02,-3.469485227961342094e-03,-3.979157109762185979e-03,5.454987803215964777e-03,2.891051471233367920e-01
2.911336147624638548e-01,3.275051865033464793e-01,-1.602601871328834804e-02,2.338031762368760966e-02,8.145667354334766921e-03,-6.557554656582263546e-03,3.298632800579071045e-01
2.926156389159065285e-01,3.024963341588409182e-01,-8.563653890789224565e-03,-5.314308377615650780e-02,-4.179618026027378565e-03,-3.006620234397827315e-03,3.198977112770080566e-01
3.475263053109278744e-01,1.601272281718297830e-01,-2.611005523664769457e-02,-1.288522971678829898e-01,-7.144159949746493876e-03,2.457408577280016659e-03,3.932981193065643311e-01
2.149944137216051598e-01,2.365951610977443109e-01,-2.949742421393200531e-02,-1.863900997829876227e-01,-6.815110149875781148e-04,3.724588397089698827e-03,4.120568931102752686e-01
1.902325433686512801e-01,3.878438523602888433e-01,-3.977707126695342876e-02,-1.722937767932127273e-01,-2.383049073676507534e-02,7.151911269045968175e-03,4.778281152248382568e-01
3.745124130962693698e-01,2.104539309090338595e-01,-3.035029451527529454e-02,-1.853343379712643346e-01,-2.633662175077735451e-02,5.642188175240991227e-03,4.791979193687438965e-01
3.163393468757624838e-01,2.777452586793878186e-01,-1.016143528816959574e-02,-1.025621016652197015e-01,4.690543827257173280e-04,4.009322921190397460e-03,3.565067946910858154e-01
3.553944652531920712e-01,2.613387240416460422e-01,-2.813445423023192005e-02,-7.544669772464020208e-02,-1.589661691501039267e-02,-1.740728794886958058e-02,3.723057508468627930e-01
2.663972321709448532e-01,3.512908755338068900e-01,-1.803096209157378782e-02,2.205434169264815225e-02,1.315900638810150146e-02,-1.005299151876853057e-02,3.384292125701904297e-01
3.122799350021303599e-01,3.422495737686704897e-01,-3.079873088081588883e-02,1.056791300713926050e-03,2.565828114171079307e-03,-1.483176660681908817e-03,3.590442836284637451e-01
2.812996758530634800e-01,3.363577540007962052e-01,-2.397831078275675099e-02,7.811704452890285214e-03,1.256470410239925693e-02,-7.618578651182173270e-03,3.374387025833129883e-01
2.919599292179518857e-01,3.427417194162583614e-01,-2.902285319223130156e-02,3.506766412422836904e-03,1.281487477027599617e-02,-1.453968573877673391e-03,3.499210178852081299e-01
2.996661124578580138e-01,3.425443321349348480e-01,-3.097787774778840153e-02,2.903278168722025956e-03,6.719950145000342170e-03,-1.642289345578956195e-03,3.542742729187011719e-01
3.202858318117633996e-01,3.207437988806349227e-01,-3.435798252655813956e-02,1.731529231502813002e-04,9.406822124012404526e-04,-1.361558211702314659e-03,3.548847138881683350e-01
3.022457943621467691e-01,3.372241371484272499e-01,-3.096902680336424685e-02,4.395111012829827635e-03,6.771821694377730579e-03,-4.351231959203352706e-03,3.523680269718170166e-01
2.938276268044746620e-01,3.370984189603418169e-01,-2.560276466548988550e-02,3.016709727792678351e-03,2.760449024696154515e-04,-5.871258861218068940e-03,3.433090150356292725e-01
3.323048816785976189e-01,3.113858253577661550e-01,-2.898599123436873537e-02,2.291023981939350248e-03,3.554602359597657663e-03,-1.794280276494580797e-03,3.513888716697692871e-01
3.417458256479758427e-01,2.855069114451876944e-01,-2.088403898997218122e-02,8.818063979543183661e-03,7.344914538278653551e-04,-9.092974579993275824e-03,3.387510478496551514e-01
3.322591584884993510e-01,3.208933366485639538e-01,-2.295446045496601917e-02,2.246610446103018688e-03,4.191570422067959073e-03,-2.100910704993803457e-03,3.497852087020874023e-01
3.306950279275618909e-01,3.180528423206746558e-01,-2.967656983201999443e-02,1.811014235862338454e-03,7.202630325663705001e-03,-9.630468799150845860e-03,3.548455238342285156e-01
3.420058306867583831e-01,2.856740433099104193e-01,-2.831533798937393986e-02,9.034101492188898255e-03,2.060671086732205216e-03,-9.874596185919291488e-03,3.464105725288391113e-01
3.431509854162744788e-01,2.954809679145198320e-01,-2.328876381849193100e-02,3.062970436977513998e-03,7.616702330325554604e-03,-1.373198454256571548e-02,3.461939096450805664e-01
3.261399355581692250e-01,3.263105689207361215e-01,-3.128661981060665287e-02,-1.587625842121309812e-03,2.197188334647963513e-03,-2.154176962987206737e-03,3.575622141361236572e-01
3.436147491491026162e-01,3.204224688741914018e-01,-2.767415171642392813e-02,-1.055663536132867356e-02,-1.317545991315925182e-02,-1.195242295451565649e-02,3.620303571224212646e-01
3.342509179302788347e-01,3.163365758816510942e-01,-2.761366352931371448e-02,1.644544840108447606e-03,-3.377599884720309392e-03,-7.524176465886521677e-03,3.535484671592712402e-01
3.293243733672843176e-01,3.238011627891921318e-01,-2.683513598721873339e-02,1.774357814217756863e-03,-5.521244846613528219e-03,-4.663349617798027806e-03,3.536652326583862305e-01
3.372584327673014970e-01,3.061497552600498384e-01,2.464632898194180077e-03,-2.152562125089621872e-02,-4.399666590856691692e-03,-1.074187966757640667e-02,3.231624066829681396e-01
3.428718142770895705e-01,3.207441517378860629e-01,-2.967020410942222686e-02,-1.232315360739188320e-02,-1.070779845913936296e-02,-1.140505008458671775e-02,3.636254668235778809e-01
3.254269999908935840e-01,3.345427917714637323e-01,-2.016751998688171010e-03,-1.178288350856883729e-02,-2.272980703978860414e-02,-3.109823439040383317e-03,3.350863754749298096e-01
3.258805115634456073e-01,3.371485906477734718e-01,-3.791589630825858981e-02,-8.042015689757662025e-03,-1.319942526786027984e-02,-3.935406271511686198e-03,3.705903887748718262e-01
2.492903107767860116e-01,3.496150653172623857e-01,-1.608278208505414808e-02,-4.049014282209620341e-02,-1.306414764139179549e-02,-6.661806804624806171e-03,3.356708586215972900e-01
2.818183893387226080e-01,3.482196766196674065e-01,-1.883291948870702281e-02,-1.806296595622012766e-02,-4.320436928004084409e-02,-1.503962500911579236e-02,3.493153452873229980e-01
3.059169249050460726e-01,3.129749378565305218e-01,-2.675272608624454374e-02,-3.560508884293563103e-02,-1.228938775351368605e-02,-1.344395472249962538e-02,3.433152735233306885e-01
2.856504003859888785e-01,3.368047067530822725e-01,-2.599419921578183246e-02,-8.430270989083632829e-03,-1.392520307322844125e-02,-1.368538547191117463e-02,3.421080112457275391e-01
3.050373867387579097e-01,3.486049136743017973e-01,-2.971985046372896400e-02,-3.396539464185977658e-02,-1.253148171043451387e-02,-1.190806875848637696e-02,3.645580112934112549e-01
2.721673901023622388e-01,3.433720464285342500e-01,2.920792951063200249e-02,8.476269423018865934e-02,-7.805351880698528644e-02,1.756356615211220745e-02,3.495080471038818359e-01
2.998057479800964598e-01,3.737455603293526885e-01,-4.525546474342612147e-03,1.273836367956426505e-02,-1.532411739758024298e-02,3.361225135357609039e-03,3.490157723426818848e-01
3.188685291955234424e-01,3.429278761171767886e-01,-1.398693936422587547e-02,-9.227646368059584051e-05,-1.255337132315856134e-02,4.480142583991594991e-03,3.462844192981719971e-01
3.095574694943558081e-01,3.491069745549972847e-01,-3.226859904196788253e-02,1.479910771157229299e-02,-7.462751008991225406e-03,5.469044525457110277e-03,3.644751310348510742e-01
1.919942729434492845e-01,4.686374527935644463e-01,2.530167114087975011e-02,9.391672471077655571e-02,7.396954549235465470e-02,-4.773310962986065942e-02,4.473735988140106201e-01
3.181158286299491378e-01,3.829094117954552345e-01,2.683006141408789125e-03,3.293295298940228377e-02,-5.613484164093358007e-03,1.499291212123153236e-02,3.579898476600646973e-01
3.242465106802682739e-01,3.153791686957267970e-01,-2.920314201808124621e-02,2.386422238818347499e-03,-1.047195220910606892e-02,8.961090598296611587e-03,3.499401509761810303e-01
3.219247611476486193e-01,3.220481671564528470e-01,-3.123703651187673125e-02,9.806641591282560730e-03,-5.758944921730301675e-03,6.533121593877228017e-03,3.539532423019409180e-01
3.076380106429223993e-01,3.211711675849567849e-01,-2.359716095588207385e-02,8.632880449956328167e-03,-5.041680975085730682e-03,5.981566678071249983e-03,3.388063013553619385e-01
3.041495754916853089e-01,3.153661215787421646e-01,-2.407979815364380549e-02,1.470776557691412523e-02,-8.861712228428868590e-03,8.405043925702572818e-03,3.356164693832397461e-01
3.054520322608204053e-01,3.231134619344474546e-01,-3.186757820746724534e-02,1.053773850638296469e-02,-5.317774452971133631e-03,6.921293348467474731e-03,3.472976684570312500e-01
3.244619106521374752e-01,3.231631889894542864e-01,-3.538780689610460106e-02,-1.043514422773797901e-04,9.466584050741075730e-04,-4.286483254771646491e-04,3.592066764831542969e-01
2.305636566687822853e-01,3.537445535780867623e-01,-1.715520422673749712e-02,2.652608238805365115e-02,-1.257511651628620379e-02,8.361769734598895401e-03,3.314324319362640381e-01
2.945832805603885718e-01,3.453672690376913268e-01,-2.858190459440371201e-02,2.332212006085860462e-02,-1.345530626991362812e-02,1.229792080073347817e-02,3.550422191619873047e-01
2.406726846221521887e-01,3.753150235277555868e-01,-2.659574891468213798e-02,1.314030812660178793e-02,-2.200440272131053490e-02,9.797372550053511792e-03,3.574984967708587646e-01
2.551651803555565756e-01,3.362552169740883334e-01,-2.585471142855988447e-02,3.582119587413889333e-02,-3.318475554489642293e-02,1.642888651174493828e-02,3.410257697105407715e-01
3.292908403459454125e-01,3.264016383353511852e-01,-9.022241671214570324e-03,2.910829602511701749e-03,-6.937110981753587084e-03,-2.390064380012015682e-03,3.371551036834716797e-01
3.238683526929579393e-01,3.109929372191252428e-01,-2.844835006147888867e-02,2.594964065872618075e-02,-1.875113294740253164e-02,2.005206051653690355e-02,3.521900475025177002e-01
3.302170150124017489e-01,3.413068978465132464e-01,2.838346442444764084e-02,5.156588513543459984e-02,-2.866156170414507071e-02,-2.049152881238576300e-04,3.240609169006347656e-01
3.342941037479587596e-01,3.314350018670340625e-01,-2.573221803966704857e-02,5.797625254012794133e-03,-1.170114159331330124e-02,1.367332125893773280e-02,3.600975573062896729e-01
2.840015329537943778e-01,3.529597987438146123e-01,-2.923578532012038877e-02,5.446071556187927556e-03,-7.596408768310481882e-03,3.122671422422418266e-03,3.532201945781707764e-01
3.256262232582252114e-01,3.254217517655813574e-01,-3.392788845493402428e-02,-9.059748286659734424e-04,5.880307977443838090e-03,-3.079601488886956912e-03,3.596391677856445312e-01
3.200752555622944917e-01,3.206916868759835393e-01,-3.089393577440605054e-02,1.845694219124012925e-03,1.587620540798031013e-03,-3.900421635012202813e-03,3.513680696487426758e-01
3.274485737676322561e-01,3.182378059494567202e-01,-2.968266800340899070e-02,1.353459738436813432e-03,7.575848706841493800e-03,-5.709268670103435396e-03,3.530064821243286133e-01
3.248528843267421973e-01,3.110929717569421160e-01,-3.026186714591214133e-02,3.946968416137899664e-03,6.680852315693164463e-03,-6.976471572840235030e-03,3.489070534706115723e-01
2.665133977108222751e-01,3.275327672112666177e-01,-1.738384579471846658e-02,1.886386929804828930e-02,-8.379277502194993135e-03,1.078143612108143842e-02,3.213582634925842285e-01
2.556428524017343995e-01,3.317966146876937250e-01,-1.425230691406831340e-02,1.475991517745255110e-02,-1.448511151708512315e-02,1.108895565922074153e-02,3.175661265850067139e-01
2.602451646642286454e-01,3.525960620692162317e-01,-1.612192570079729048e-02,1.381686758310352731e-02,-1.179447445430468859e-02,6.777618608630211344e-03,3.340030908584594727e-01
2.318986608848419284e-01,3.484839641224800610e-01,-1.857454282677750701e-02,-7.648391086654431938e-05,-1.788042156883194386e-02,4.501052886725044264e-03,3.264205455780029297e-01
2.680796707148935809e-01,3.409782686378161065e-01,-2.333964474039118553e-02,1.006132815751521054e-02,-1.128226212939492656e-02,9.622494147960892336e-03,3.353309035301208496e-01
2.642081428229034468e-01,3.469626083523313365e-01,-1.931179849690983774e-02,4.112381120941280017e-04,3.320583451155594327e-04,4.352648705225510561e-03,3.327943384647369385e-01
2.389122473315847262e-01,3.529554127594891622e-01,-1.880193002937022295e-02,-1.785967787445264660e-02,1.544741939003404715e-02,6.460968922571913055e-03,3.325822949409484863e-01
2.204068459388013046e-01,3.681794767020561965e-01,-1.580923571380113413e-02,-1.355650695771874401e-02,1.057188909509230827e-02,7.636689907480179217e-04,3.367928862571716309e-01
2.576338833501118364e-01,3.482807014076237384e-01,-2.459968206415091840e-02,-1.099636320380305461e-02,1.076395460657750963e-02,3.505977936746189263e-03,3.379399776458740234e-01
2.710967826338251951e-01,3.485930694127484797e-01,-2.396235687308412299e-02,-4.983237001895919789e-03,1.097463815040216478e-02,3.255999403950361748e-03,3.411732614040374756e-01
2.320579138500328265e-01,3.583127434629200803e-01,-2.151645709253802163e-02,-8.849182712661263911e-03,2.633557276190234137e-02,6.128590516146347617e-03,3.386495709419250488e-01
2.472072870297172820e-01,3.602805220083524773e-01,-1.885233875620498378e-02,2.580490315176257876e-03,2.585500210026079335e-04,2.133143783248281009e-04,3.371614217758178711e-01
2.245803996868413477e-01,3.599439196072932168e-01,-1.375020296828222133e-02,-9.091384058477318137e-04,1.637460711021509682e-02,1.014216599939463418e-03,3.289315700531005859e-01
3.260003196416556559e-01,3.274064395553299422e-01,-2.833695902203420269e-02,-4.434488080931275021e-04,2.773077633418765883e-03,8.459830525656562763e-04,3.550787568092346191e-01
3.236808773772548165e-01,3.290759112635448513e-01,-3.375766262794138717e-02,-1.422626007765171070e-03,1.827458640732964419e-03,-7.194921787110500431e-04,3.601908683776855469e-01
3.153002276875313536e-01,3.290733288095117892e-01,-2.253863121432339578e-02,3.624077110606301749e-03,6.039084064268305206e-03,9.863093899563460691e-05,3.451474010944366455e-01
3.280555162573071115e-01,3.298581172220812485e-01,-2.989329766681725342e-02,-2.116690554072556563e-03,8.825926978481999849e-04,-1.608234550370193265e-03,3.588863015174865723e-01
3.265773701912524363e-01,3.303171994197927619e-01,-3.127436559350144085e-02,-1.220272994700914194e-03,2.010609038694310784e-03,-3.480456547771295164e-03,3.598097860813140869e-01
3.278930417962617749e-01,3.269312583961332397e-01,-2.146241590135039567e-02,2.527792677763357867e-04,-2.963056877065209024e-03,-2.857728557256195966e-03,3.489486873149871826e-01
2.999043863152647815e-01,3.057306266729660771e-01,-1.693932760698180218e-02,2.304933757230624887e-03,-8.493796309556516993e-04,4.344212155332370304e-03,3.199134469032287598e-01
3.301082233294431179e-01,3.010722022918044805e-01,-2.877477939070235968e-02,-9.604773132418134227e-03,1.242878625425377498e-02,1.218142691148795843e-02,3.469941020011901855e-01
3.278530044886065475e-01,3.260797489822037654e-01,-2.424478138163083107e-02,5.946019269527409593e-04,2.088194114646016453e-03,7.546695299270056185e-04,3.512370884418487549e-01
3.294131131327434625e-01,3.187160997415809938e-01,-2.420607386895118340e-03,-9.231254745549919913e-03,1.255813984281844119e-02,1.328276814328830345e-02,3.285368680953979492e-01
3.268140104027847936e-01,3.234186340982812546e-01,-3.123851663486693075e-03,-1.048517294133054396e-03,-1.521447862814501910e-03,-5.048797424097703837e-03,3.283854126930236816e-01
3.194219692893591200e-01,3.199831171242048522e-01,-2.978061680652233090e-02,-1.510275804633239016e-02,1.007318442151278366e-02,1.273021694514919408e-02,3.515872359275817871e-01
3.641973046461630670e-01,2.518569699586094002e-01,-2.559059855520717797e-02,-2.767601026675763076e-02,6.000170758745094514e-03,2.581790571139293972e-02,3.537960350513458252e-01
3.055653105148437021e-01,2.857430109184330158e-01,-2.293439775403566250e-02,-2.835265473993887203e-02,1.072813058203044706e-02,9.921625466496631143e-03,3.237986564636230469e-01
3.302608238507717120e-01,3.182184548880362396e-01,-3.106830705173346807e-02,-3.332940137317454664e-03,6.322746257164692935e-03,4.169603120296625116e-03,3.557497859001159668e-01
3.451072265370457304e-01,2.939364592211164973e-01,-3.846801505037633628e-03,-6.136928302995725559e-03,6.059550873565153727e-03,7.263615908562098995e-03,3.269748389720916748e-01
3.411091783079787110e-01,3.137660159509801372e-01,1.928273921339818120e-03,-5.802588300803369209e-03,5.057413926360760856e-03,1.715805039528819562e-02,3.279908597469329834e-01
3.291600555410330586e-01,3.257614975066970842e-01,-2.631530544144550232e-02,1.032958602512974245e-03,1.051767116473114683e-03,2.142408341304468354e-03,3.538169860839843750e-01
3.299494974038132966e-01,3.381208461698869128e-01,-2.478887962153941693e-02,-4.596964555493398934e-03,8.450075215926743100e-03,4.511995734981602904e-03,3.593653440475463867e-01
3.494169909079299918e-01,2.614931784258093250e-01,-3.026885174845983517e-02,-7.522411266763698312e-02,2.698742333109675762e-02,4.300474719035323606e-02,3.784411549568176270e-01
3.498388778229898355e-01,2.659228323913712111e-01,-1.135217206566252468e-02,-2.697346725476208740e-02,9.360391093659855069e-03,2.461563652773626765e-02,3.338479995727539062e-01
3.512833120678008347e-01,3.173877104060249255e-01,-2.588649318174843228e-02,-5.740938702353304279e-02,3.222602589184600519e-02,2.828576102752199464e-02,3.821320235729217529e-01
2.975424992621910625e-01,3.085841066059794580e-01,-1.198898614960564046e-02,-2.008903451976104537e-02,3.385118462051161549e-03,3.839603086460455575e-03,3.172360360622406006e-01
3.151246591313578982e-01,3.333902966059587580e-01,-3.219191250562453144e-02,-9.471540254188202251e-04,-1.081224686931272268e-03,-2.597175588773808965e-03,3.568372428417205811e-01
3.389481582508374613e-01,2.424984553477740612e-01,-1.403313282864232514e-02,-4.778965558916890149e-02,1.398141857662455259e-02,1.359614948986881053e-02,3.283990919589996338e-01
3.288354177159319436e-01,3.248323379856191684e-01,-3.268759014512034877e-02,5.255684349744832104e-04,1.422293680065648581e-03,2.806272065085136129e-04,3.595480918884277344e-01
3.093389171092492118e-01,2.955244922521580442e-01,-1.414528582703836190e-02,-1.667052184305216692e-02,5.061041429679030701e-03,3.100180128181510234e-03,3.182821273803710938e-01
3.143765566958875990e-01,3.009052213108688867e-01,-1.979727870395270317e-02,1.259028829042484199e-02,9.876813521462999429e-03,-7.717559303816444796e-03,3.290877342224121094e-01
2.955825999167355222e-01,3.135195078695803272e-01,-1.607267112781571305e-02,1.621012683314989461e-02,7.515183567990173924e-03,-9.204467546984888837e-03,3.228819966316223145e-01
3.349549749850359581e-01,3.495239254231512493e-01,-1.580119760207093771e-02,3.987345132891001454e-02,2.243580463762578220e-02,-1.424137335578634124e-02,3.677506148815155029e-01
3.011958536369201411e-01,2.626965557762911407e-01,-9.432652535542401795e-03,3.877422701711483871e-02,2.436461110961798786e-03,-1.046026790526599290e-03,3.009064495563507080e-01
2.525641267509654564e-01,3.103893021884127634e-01,-1.131452946225305900e-02,4.021750108739086810e-02,2.788603299866082227e-03,-1.630159718127832322e-03,3.051526844501495361e-01
2.912974903235983626e-01,3.109839207413656048e-01,-1.172583085837072825e-02,1.978837987335562570e-02,3.343373542895143949e-03,-4.064247240081356703e-03,3.153315186500549316e-01
3.283009897570905444e-01,3.232788576069901554e-01,-3.191755143972782593e-02,-4.254433888180500755e-05,-3.404753109912451916e-03,2.783329872934395526e-03,3.578149974346160889e-01
3.278251039586812521e-01,3.235873686112995529e-01,-3.354733253232361490e-02,3.660608826848330238e-04,-2.409062100273464888e-03,2.443496703128232583e-03,3.593220412731170654e-01
3.283613016839765364e-01,3.147715641699608824e-01,-3.246530466460473274e-02,4.712499270114453088e-05,-3.667890313496450626e-03,-4.433599130265829355e-04,3.542851209640502930e-01
3.278108220488609170e-01,3.236271541406057217e-01,-2.619545476692988761e-02,3.876840289516893636e-04,-1.198502197453016989e-03,1.007080073130983298e-03,3.519441783428192139e-01
3.348427747584568070e-01,3.267727720655396739e-01,-2.436721162504967841e-02,4.349160783045956987e-05,-5.689226338332503425e-04,2.357315830778105616e-03,3.552685678005218506e-01
3.770037484916768378e-01,2.874836455029947668e-01,-5.929869392118647387e-03,2.314170988380292657e-02,-5.352110990864046396e-03,2.062194984353567587e-02,3.511980772018432617e-01
3.302865889724070914e-01,3.266258141308413521e-01,-2.439872703982406965e-02,-2.126490916657218858e-03,-6.463621000614526565e-04,3.001679742980273378e-03,3.529284596443176270e-01
3.282373803104545740e-01,3.230438060927647292e-01,-3.169697683340927385e-02,8.399350289924910665e-05,-2.501323780148119891e-03,1.431703692701773861e-03,3.574007749557495117e-01
3.335720809577727985e-01,3.181713260200632609e-01,-3.184640769092725310e-02,7.863444582256943322e-06,-2.643978088201561893e-03,2.721428161688610112e-03,3.580269813537597656e-01
3.081030444518745859e-01,3.043162717750226842e-01,-8.888260325758207125e-03,4.128236030771170045e-02,1.955620362195866629e-02,-2.518514904705060689e-02,3.278114795684814453e-01
3.157386791870713805e-01,3.277654638121300090e-01,-3.285167603094976685e-02,-1.154870765123542092e-05,-9.677695767396042592e-04,-4.381527239203993063e-03,3.548417985439300537e-01
3.238972171114260501e-01,3.194203492389628418e-01,-3.326205674353471808e-02,-5.699079043423210030e-04,-3.309481237000469565e-03,2.266926782588853800e-03,3.550113737583160400e-01
3.439870098834559853e-01,3.195643156681308161e-01,-1.184952674218645030e-02,-1.497974888239351219e-03,-5.389923100878846532e-03,2.036166332742775711e-02,3.462128043174743652e-01
3.683270206942854119e-01,3.064679682170893815e-01,-1.329670537802421504e-02,-1.553871778359510944e-02,-1.300091340359887243e-02,4.936788124561586333e-02,3.666051328182220459e-01
3.307839922144594769e-01,3.275085163736555782e-01,-2.221568491135794687e-02,-2.033451523024836795e-04,-2.998110103505605031e-04,4.530668082174366118e-03,3.514615595340728760e-01
3.297921168670153169e-01,3.252257484744683902e-01,-2.271552836815962650e-02,-5.762753160299412649e-04,5.766868000751238562e-04,3.038092749913633844e-03,3.502891659736633301e-01
3.328407715323742910e-01,3.278199398724613300e-01,-9.161796446117864701e-03,6.318985399000024913e-03,2.200452487259225032e-03,-8.482225644138636014e-03,3.400352597236633301e-01
3.380252245565253943e-01,3.138094730004468147e-01,-2.945444761966642400e-02,-1.126785353173280707e-03,-1.988885201751088190e-03,4.769238660374564356e-03,3.561078906059265137e-01
3.301836156066518257e-01,3.278459723948862758e-01,-2.270199238395212427e-02,-7.066652403521424698e-05,-8.632440147843243629e-04,4.803213776877654842e-03,3.518241941928863525e-01
3.342196111370571154e-01,3.140349861981008295e-01,-2.384718452132558730e-02,4.053077705478047896e-05,-6.254817706360324154e-04,2.292527453511581520e-03,3.484375774860382080e-01
3.207054159417848105e-01,3.110724502414226045e-01,-2.316052986942038205e-02,6.661016062422635275e-03,9.215282756184293989e-03,-8.253550073681238317e-03,3.400240838527679443e-01
3.133766067015508749e-01,2.966527650944710826e-01,-2.196253721628615985e-02,9.458060866294550756e-03,6.181341263804722777e-03,-4.999320558346347261e-03,3.279967010021209717e-01
3.025178942691782447e-01,3.045379794798840911e-01,-1.471599075002291701e-02,1.744748943540276251e-02,3.517061110976384478e-03,-5.209752928177039354e-03,3.198656439781188965e-01
3.042158969009437497e-01,2.695863537237869201e-01,-1.460091653802902956e-02,3.564065371692192591e-02,8.973580384749215225e-03,-8.511290893888343034e-03,3.099557459354400635e-01
3.096992949883486945e-01,3.175773286588972066e-01,-2.348483894132818994e-02,4.697996487136647283e-03,7.931715520747076309e-03,-7.802011252973924116e-03,3.378403782844543457e-01
3.211695647744576831e-01,3.117358945620597455e-01,-3.238049793368863449e-02,6.460531107300826470e-03,9.967748197524776282e-03,-1.049340915833254888e-02,3.500071167945861816e-01
3.256687167478528044e-01,3.213648597107145455e-01,-3.237477389923612558e-02,1.417342362132840462e-03,3.293836673230272384e-03,-1.526364340403348627e-03,3.559750914573669434e-01
3.256164360940305702e-01,3.199489477667037396e-01,-3.211521395323052586e-02,-4.664151929339802874e-04,3.575171787982794717e-03,-2.417096817521497201e-03,3.550114631652832031e-01
3.198084219454944144e-01,2.784358471421998216e-01,-1.945786908946195437e-02,5.831331804115612305e-02,1.828882607115115203e-02,-1.461380965553810141e-02,3.385593593120574951e-01
3.179106886502611751e-01,3.280002092665061930e-01,-3.038111378094535131e-02,2.265130639573019293e-03,2.747937187401506415e-03,-5.621968595388468319e-03,3.536324799060821533e-01
3.229491455105226727e-01,3.225364652850256086e-01,-3.013216633710585901e-02,2.953082198237436985e-03,4.488931426852811601e-03,-4.601541521695002961e-03,3.530878126621246338e-01
3.054580873101527261e-01,3.207273587693773020e-01,-2.900402495289022831e-02,1.064770531278915605e-02,9.924184897363361527e-03,-7.669571452370306172e-03,3.435361683368682861e-01
3.166374279439363448e-01,3.271113840002441986e-01,-2.112275289636786346e-02,3.047664977380387403e-03,5.415772977546682611e-03,-5.788656285344281720e-03,3.434322476387023926e-01
3.260960650596973487e-01,3.286265349658158974e-01,-2.820597862673729361e-02,-2.062089382023657522e-03,3.120151814527227178e-03,-1.532070682687216613e-03,3.556429445743560791e-01
3.256018668983417519e-01,3.276993643366510889e-01,-1.300972513479950465e-02,6.943535185961203712e-03,-1.453944729539319780e-03,-1.694836598061895492e-03,3.399000465869903564e-01
3.299313148398317352e-01,3.344981098542954001e-01,-9.254895361623605154e-03,6.207950810282871455e-03,-4.551011085440046303e-03,2.637417118431863248e-03,3.417831957340240479e-01
3.295587671820906506e-01,3.225784625013812801e-01,-2.280596078158425577e-02,8.818128900409017042e-04,-5.508675530555229294e-03,2.431476668517488018e-03,3.490861058235168457e-01
2.997052244863327997e-01,3.245777605592011783e-01,-2.545512192240559357e-02,1.884006030256793127e-02,-1.384278600248651028e-02,1.066596215252879794e-02,3.411985635757446289e-01
3.417693672117938508e-01,3.431220504180519937e-01,-9.100375887452216705e-04,1.297108499008943483e-02,-9.492053522952572167e-03,2.779032631306997334e-02,3.478311300277709961e-01
2.977678778258927572e-01,3.598444283919067788e-01,1.322891119450569919e-02,1.809835674721084128e-02,-9.426426473162576730e-03,-5.878008787166692610e-03,3.222297132015228271e-01
3.243589670189003238e-01,3.308160705154028491e-01,-1.045993723163973765e-02,2.533406193742276762e-03,6.385802268575306736e-05,3.361647805050193335e-03,3.381723165512084961e-01
3.283115837940971393e-01,3.359239407102471153e-01,1.120211732441647734e-02,3.022224163077323134e-04,4.290056655177370247e-03,-5.724952382271835880e-03,3.212228715419769287e-01
3.296931590301866999e-01,3.300096911110423914e-01,-3.554018900612604392e-03,2.095446836146448027e-03,5.191808157218935149e-04,3.885894291710164684e-03,3.334944546222686768e-01
2.806425643876270248e-01,3.078674569211148904e-01,-1.415166189521488427e-02,-1.186233510692811036e-02,-4.363216617304353090e-03,-5.553710744732751926e-03,3.102295398712158203e-01
2.885646966474111896e-01,3.103796863605369216e-01,-1.162377342382817091e-02,-1.967875972195389997e-02,3.497882256705799314e-03,5.227256434865190302e-03,3.137165307998657227e-01
2.987636398959817585e-01,3.002376789373036869e-01,-2.005340018520918033e-02,-1.403517085509277396e-02,-7.748082823740110731e-03,-7.723828231824237181e-03,3.210396468639373779e-01
3.193206263868327843e-01,2.901740121699217800e-01,-1.991364551424826268e-02,-2.592941850521104930e-02,-1.340715075525787149e-02,-1.646808733480540840e-02,3.307744562625885010e-01
2.740504857451276366e-01,2.775901285922008355e-01,-2.276677670471399795e-02,-8.385676846011320962e-02,-9.302078532304650094e-03,-3.145304010251389476e-02,3.368782997131347656e-01
3.065418458711867133e-01,2.749846955655836367e-01,-1.591352064768414287e-02,-3.108157247800311107e-02,-7.312497392025310919e-03,-7.432517827389642506e-03,3.130844533443450928e-01
3.800881996961470999e-01,2.056038678455128499e-01,-1.666126122831049217e-02,-1.850793610250298787e-02,-1.421988953844284531e-02,-1.209762399297443711e-02,3.474214375019073486e-01
4.311319032731366629e-01,1.648981202460496065e-01,-2.847513070296592286e-02,-1.155402118586473965e-02,-7.757509343322360014e-04,-7.292962064124339575e-04,4.001999795436859131e-01
4.435133054241642281e-01,5.578517502667548755e-02,-2.930473278512152335e-02,-2.164657012478060638e-02,-1.832210440348169822e-02,1.444191501554012262e-02,4.400041699409484863e-01
4.338303768678817840e-01,1.309743197034653750e-01,-1.788422380006304824e-02,-9.164408344445050536e-02,-2.319411231673422502e-02,8.897707432565611294e-03,4.312895536422729492e-01
3.419844907402628253e-01,2.622007844321746495e-01,-1.715588319194802369e-02,4.763768159212122127e-02,-6.564965995602368640e-03,7.862436646861228201e-03,3.373669981956481934e-01
3.792843393654076189e-01,2.113017424727635096e-01,-1.782189569648848226e-02,2.994305740501460728e-02,-3.258360641642545161e-03,1.084276431819167913e-02,3.496839702129364014e-01
3.580833039219654679e-01,2.060363261676821378e-01,-1.378245567919919590e-02,1.880381754297587651e-02,-6.391988863537436359e-03,9.887661705618963279e-03,3.260950446128845215e-01
3.896834967272220784e-01,2.185513372874098581e-01,-1.560762478367544448e-02,5.020072602701648040e-02,-1.733381133983620190e-03,3.099832086584535309e-02,3.669343292713165283e-01
3.776124848228947783e-01,2.542570087884885588e-01,-2.710987188934579906e-02,3.280966887423573258e-02,-3.814423140379269786e-03,3.227991829527174228e-02,3.680911362171173096e-01
3.548365314462645914e-01,2.541710461945009825e-01,-2.781499357011713025e-02,2.592262826585077506e-02,-8.210762524036931825e-03,2.974999209755424881e-02,3.505842387676239014e-01
3.412465930941627201e-01,3.258599795432067237e-01,-6.012747909290017123e-04,1.304458993611075455e-03,5.425158620704885297e-03,3.109170978539694662e-03,3.346031010150909424e-01
3.417375904089199889e-01,3.341621422852506518e-01,-5.349248057886113461e-03,-2.571556376039159462e-03,3.432141701727843899e-03,-6.254369246450030596e-03,3.436129391193389893e-01
3.772412544896408537e-01,2.972433606853395194e-01,-1.810552788070321495e-02,5.962715949749734096e-03,-1.170883715480147517e-02,3.558257925668113775e-02,3.679512739181518555e-01
3.832362356396337155e-01,3.032030164767410829e-01,-1.797903029149755527e-03,1.586952128746459828e-02,-2.463211109086211117e-02,1.058295769722714455e-02,3.560236394405364990e-01
2.902714923796592128e-01,3.538882139138075367e-01,-2.851770088099719880e-02,-1.124067962119132272e-03,1.786474159482423496e-02,7.632848438639852975e-03,3.564968109130859375e-01
3.028900700920870159e-01,3.124853450219243212e-01,-2.418518971190283806e-02,4.236915071451513061e-03,-4.261026240390401384e-03,6.387004177380482643e-03,3.323242068290710449e-01
2.915317347210429899e-01,3.424800910192234982e-01,-2.401931423848222003e-02,3.234268190933745589e-03,1.265659165682396677e-02,-2.573030632990839020e-03,3.446401357650756836e-01
3.132784777920139541e-01,3.385721887195449753e-01,-2.538369170823265297e-02,-1.608246157960258830e-03,3.974414069934018544e-03,2.216071357663312608e-03,3.520905375480651855e-01
2.881649532134690772e-01,3.397468487939337423e-01,-2.578109348862514527e-02,-5.443708854283930282e-03,-7.540001499853965028e-04,-3.836586081931845325e-03,3.428578674793243408e-01
2.943529386218534105e-01,3.581877750120003312e-01,-2.337971251005585560e-02,6.395232580714593426e-03,2.033655384433532849e-03,4.840906996173330963e-04,3.541851937770843506e-01
3.131671424775826496e-01,3.315426276076266499e-01,-2.675195185091280847e-02,-3.063214696063080739e-04,4.752377523220845459e-03,-5.418462228743989653e-04,3.495679497718811035e-01
3.431565123623627755e-01,2.482313492054842030e-01,-1.427260181602935107e-02,3.694185393256330108e-02,-3.485335578709379892e-03,9.434938560274115649e-03,3.274674713611602783e-01
3.291970302268257820e-01,2.650746839468778315e-01,-2.371712897896235961e-02,2.314321384938840265e-02,-9.562106560460454860e-03,1.063338455358421759e-02,3.290147781372070312e-01
3.273142048167006490e-01,2.628449647643932297e-01,-1.504278168202188848e-02,2.559386754354286975e-02,-9.099751801621711392e-03,6.032028057065003807e-03,3.187723457813262939e-01
3.306228045742077293e-01,3.240527748664403518e-01,-3.175621817187687657e-02,1.772514480733342285e-04,1.747882148282931805e-03,2.282988608068098595e-03,3.591737449169158936e-01
3.630105104126928328e-01,3.551192230745778833e-01,7.396523832806514709e-02,-8.593684665705456777e-03,6.158295472901215845e-03,1.148857508854405490e-02,2.864608168601989746e-01
3.681665398826868829e-01,3.623515552739666745e-01,6.347526734558431305e-02,-2.316517754457643637e-03,-8.121546226102876326e-03,-1.168444689540771089e-02,3.028570115566253662e-01
3.667939838314455692e-01,3.714996655557061267e-01,6.426999800388780160e-02,-4.177684178748630782e-04,-1.112589652237526427e-02,-4.172731090348041211e-02,3.139456510543823242e-01
3.763983807585331576e-01,4.591192943290440809e-01,5.854904938533386782e-02,-4.327250982009064190e-02,-3.110338600767666162e-02,-4.776072405081757330e-03,3.778252899646759033e-01
3.524593195761020481e-01,3.704512158762441887e-01,5.802720112502299243e-02,4.039768685322331007e-03,-3.537896646376017607e-04,-4.419379463243883893e-02,3.134006857872009277e-01
3.766017191987459656e-01,3.817746247256513792e-01,6.398385849992513363e-02,1.027054229872402871e-02,1.974964956249108949e-02,2.744613920953241359e-02,3.211234807968139648e-01
3.232605066123504511e-01,3.247259285642084548e-01,-3.536724606455751707e-02,-5.908976974598065474e-04,-5.588208475902884482e-04,1.202033048501348258e-03,3.593714833259582520e-01
5.069117563238785262e-01,4.819427591976185310e-01,4.393862727570252424e-02,-3.786058931538256386e-03,2.828426127539997517e-02,-3.808125300555825071e-02,4.584769904613494873e-01
3.315474363858170181e-01,3.056738138250555403e-01,-2.193259406477646167e-02,3.476841957963608398e-02,-3.165094857146153601e-02,3.280212158424355290e-02,3.554315567016601562e-01
3.225593746957752805e-01,2.922595914081160262e-01,-1.948317750728009723e-02,3.199713304069858044e-02,-1.373391088376936867e-02,1.671018628754873669e-02,3.346974253654479980e-01
2.997918262592466077e-01,2.959548692939224512e-01,-1.964310733210439253e-02,2.518988354402617799e-02,-1.281449192591769572e-02,1.214989823154528914e-02,3.219733238220214844e-01
3.011205664594897025e-01,3.015233625040923959e-01,-1.050115115075400674e-02,4.516028730011658471e-02,-5.972828003843973221e-03,6.135249854809250031e-03,3.218261599540710449e-01
2.983335367125559690e-01,3.078982041500087918e-01,-2.568759958340199878e-02,8.635168204102655620e-02,-2.649433832732212349e-02,2.490251494386339776e-02,3.667648136615753174e-01
2.916186888859908510e-01,3.121631823761832347e-01,-2.022838172766250331e-02,2.205147642774935718e-02,-1.685612486965598969e-02,1.507118342260550456e-02,3.272155523300170898e-01
2.748345320884912346e-01,3.153096350116461055e-01,-1.833667628214524781e-02,2.592994247376701616e-02,-7.786769769932357262e-03,8.024189836286586136e-03,3.191330134868621826e-01
2.987205591998542964e-01,2.674501047552327315e-01,-1.125949374394125124e-02,-3.991757447912006040e-02,2.255506172679880381e-03,5.025527318664124721e-03,3.037161827087402344e-01
3.036348206905657987e-01,2.747640513511500626e-01,-1.483071695954060742e-02,-3.238619222330482023e-02,-1.536749635026759056e-02,-1.335834995701706482e-02,3.121696412563323975e-01
2.389377575244595597e-01,3.546919899593663494e-01,-1.421158075363657125e-02,-3.446493818483225419e-02,9.546713873647225818e-03,4.242198570183553993e-03,3.326824903488159180e-01
2.618555871632040066e-01,3.067750912846810007e-01,-1.613825207273525408e-02,-6.595604687689048118e-02,-1.251454675207244564e-02,-6.449667242171268355e-03,3.247012794017791748e-01
2.893469382966566417e-01,3.111219981396592948e-01,-8.342402161355538803e-03,-2.127758557805989673e-02,-4.401685095128076222e-03,-3.128860685706043830e-03,3.114819526672363281e-01
1.930578431999758759e-01,4.080903720741316798e-01,-3.154529476595011039e-02,6.420974856156393129e-02,8.514915073266045645e-03,4.115105654824633731e-03,3.970132470130920410e-01
3.155449431842613506e-01,3.183047579227298307e-01,-2.586803377574839469e-02,-1.830479091665517498e-03,6.315167467716941135e-04,-6.353896921246199488e-03,3.429942131042480469e-01
3.178161635654103145e-01,3.205631477331504220e-01,-3.286951412763905456e-02,1.298210300894199476e-03,-2.303406041793710449e-03,1.627593429745612021e-03,3.521082699298858643e-01
8.969701243384135825e-02,4.044651735123175329e-01,-1.214703122791255252e-02,7.499261841621120139e-02,-7.857428093987751244e-03,1.396999832280415230e-02,3.989371359348297119e-01
3.151368396341697187e-01,3.271802181168724788e-01,-3.252627438802635496e-02,5.373022903107992987e-04,1.338102382325983837e-04,4.424017489264125448e-03,3.539228141307830811e-01
2.521743552286593859e-01,3.420307736803415155e-01,-1.657097747255548148e-02,6.077543798800176533e-03,1.142895374302878081e-03,-7.003787915633411139e-03,3.235870897769927979e-01
3.173254318256125694e-01,3.249226679340330715e-01,-3.034263388853095100e-02,2.295387209735393844e-03,2.792779347755726567e-03,-3.865588529605411272e-03,3.516477644443511963e-01
5.711108453090757431e-02,4.442398950504501398e-01,-3.660233831349402056e-02,6.575087411838848039e-02,7.623556898839808221e-04,1.259757118290365935e-02,4.564838111400604248e-01
4.865312828764641884e-01,1.405468599554586806e-01,-3.209654585341475963e-02,-7.913067085769323605e-02,-2.496300406481815129e-02,1.578788638731690869e-02,4.802552461624145508e-01
3.240986126656576483e-01,3.266839057598518448e-01,-3.438839206981667007e-02,-2.097500882453003112e-04,8.543326162294582679e-04,-1.448258553894459172e-03,3.597985804080963135e-01
3.087709882808895578e-01,3.263513992951062592e-01,-3.189797787845491395e-02,-9.591206866060176389e-04,4.102370139707061389e-04,5.056573144945408077e-03,3.499049544334411621e-01
9.534836232532299671e-02,3.931110930881181464e-01,-3.034674581338719923e-02,1.253384629764079106e-01,1.284222920877206575e-02,-4.832882205381788983e-03,4.354116022586822510e-01
3.208498484231238068e-01,3.179354571054862633e-01,6.705752413574816995e-02,-1.643144123295289859e-04,3.398829762002126349e-04,-5.792259615602262431e-04,2.523505985736846924e-01
3.210365170196137208e-01,3.260188728605318831e-01,-3.378021708289280500e-02,-1.458873941489929925e-04,2.585783292384716617e-03,-3.788560318599387602e-03,3.574223518371582031e-01
1.501131404685610016e-01,5.052428181205399493e-01,-5.670841354630795639e-02,-2.567379683378959859e-02,4.220206043224391385e-02,-7.551113827707602033e-03,4.998322129249572754e-01
3.401816884215471681e-01,3.140290149403909270e-01,-3.170121315736526557e-02,2.697375035846781718e-04,-3.536260916523893374e-05,4.356691351980922049e-03,3.596001863479614258e-01
3.454088702366261421e-01,2.935244917051008651e-01,-2.946757061705762570e-02,1.296972607271686465e-02,-7.416826524901603580e-03,1.480257446987327113e-02,3.536963760852813721e-01
3.430418971949147910e-01,3.275272840537382102e-01,-3.059471951955161639e-03,-3.250829465896693839e-03,5.991393230342616748e-03,-3.106845222288403402e-03,3.388592302799224854e-01
3.312924272512399737e-01,3.161471682989826504e-01,-1.209395193641585320e-02,1.627087195361266812e-03,-3.484719987056354457e-03,3.119016965573759466e-03,3.361792266368865967e-01
3.345713144646065285e-01,3.152854111546573024e-01,-1.252592621419018615e-02,2.206007033370520169e-03,-2.225276403310510846e-03,2.367045992404598516e-03,3.379358351230621338e-01
3.248448929414025077e-01,3.186132944942196010e-01,-2.946202151146179449e-02,1.924594506457703424e-03,-2.829584205974211217e-03,4.250611612688505458e-03,3.513597249984741211e-01
3.287009248651105442e-01,3.177638529998879635e-01,-3.078106211556980165e-02,1.522080242460662099e-03,-4.408989667619120020e-03,3.464563812152878300e-03,3.542830944061279297e-01
3.778313444875522342e-01,3.266489755023490593e-01,-8.215310002657488786e-03,1.025586745473880748e-02,9.306619229204145163e-04,1.256772040439023581e-02,3.642593324184417725e-01
3.203530945867492097e-01,3.220360744303856770e-01,-3.423305197535969624e-02,7.651111110863960093e-04,-1.761875387013430621e-03,2.555794081941798086e-03,3.554737567901611328e-01
3.464180724622286101e-01,3.216974360274011402e-01,3.537525714157763179e-02,6.025715070206131771e-03,1.214657097420730920e-02,1.154694613050891334e-02,3.010334074497222900e-01
2.886535862641588790e-01,3.119814161218776305e-01,-6.915387155530028362e-03,-2.382352031588887489e-02,3.151635555114217033e-03,1.403468519944603811e-03,3.107065856456756592e-01
3.229233998591893862e-01,3.234260887801393980e-01,3.461775863128940811e-02,1.684096899216092590e-03,6.847267435307374979e-04,3.732800428913590068e-03,2.886469066143035889e-01
1.297564613193636363e-01,5.075535411980146572e-01,-6.983624807577454296e-02,-2.228654851634418593e-02,-7.394675104197832513e-03,6.884323936444721598e-04,5.095379948616027832e-01
3.169595662685498194e-01,3.040323875140664711e-01,-3.011840116756217545e-02,-2.432167685244069483e-02,1.327454590384277364e-02,1.086592314198697555e-02,3.446751534938812256e-01
2.723574009834852094e-01,3.324321158101631868e-01,-1.821341001842768925e-02,-1.803361633740564740e-02,4.213837156223612830e-03,8.327072412533385523e-03,3.267005383968353271e-01
3.144659124790675775e-01,3.023626837238721499e-01,-2.168991855720711626e-02,-1.294268727362663657e-02,1.069772391662324705e-02,9.641922075850390891e-03,3.319690227508544922e-01
3.236656074021472818e-01,3.232039124153728848e-01,2.924469762876230616e-02,3.890081473033184007e-04,4.882024473805667009e-03,9.745757324465479515e-04,2.943174540996551514e-01
3.151433249280658488e-01,3.264902277354211346e-01,-3.214847327221243001e-02,5.376702718926572267e-04,1.337106066840519462e-04,4.270523109618549508e-03,3.531807959079742432e-01
3.226202334427021867e-01,3.289078173660463511e-01,-3.125652356444286184e-02,-1.177458374706960706e-03,4.195234828940638079e-04,7.592172553652405726e-06,3.570686280727386475e-01
3.368234123782597456e-01,2.649353138533724339e-01,-1.796102566227605890e-02,-4.041489259607946791e-03,4.548767509102186191e-03,-8.501968125760147243e-04,3.250359296798706055e-01
3.115572794711980453e-01,3.329448691951575334e-01,-2.943417186629251892e-02,-2.595781244667729609e-02,1.312402647233264046e-02,1.165414422030614308e-02,3.563301563262939453e-01
3.247506055008139159e-01,2.714718795533013207e-01,-9.758818823368792250e-03,6.855516527792895193e-03,2.823321019557211483e-03,-1.591568542651574519e-04,3.115732967853546143e-01
2.704981700833000713e-01,3.312042358891200688e-01,-1.778189916555839023e-02,-2.403816083397769185e-02,9.670252083920582997e-03,8.666789586919956476e-03,3.263898789882659912e-01
2.148685395520462671e-01,3.736290672046786998e-01,-3.987913372867313289e-02,-9.325867625159925400e-02,3.409292171049886633e-02,-3.968874994672911584e-03,4.002136290073394775e-01
2.418714806225243374e-01,3.439034267294057701e-01,-8.722651061823238905e-03,-7.878380328526963378e-03,-5.155316946037368951e-04,3.458048782605527283e-03,3.146417438983917236e-01
2.097347627620052557e-01,3.600935020390655383e-01,-5.242206073177324566e-03,-8.525228108419741213e-02,2.281990962234357184e-02,1.010474681038475882e-02,3.532972335815429688e-01
3.323006121715733618e-01,3.227438332615652494e-01,-3.265122705922304802e-02,3.513462195900380274e-05,-9.571796805652092819e-04,-2.690104919510489362e-04,3.602726459503173828e-01
2.889745136867223341e-01,3.627363741928079088e-01,-2.522800621947005051e-02,-4.645939694618736460e-02,1.675754044634501089e-02,2.391799434520864090e-02,3.692888915538787842e-01
3.256920866489002586e-01,3.290426152931787973e-01,-2.955788379641458019e-02,-2.213473167931763637e-03,-1.715146998914902909e-03,6.776106162100927572e-04,3.569719195365905762e-01
3.200506204000205246e-01,3.258229265265245589e-01,-3.429288806670052758e-02,-2.276811530609278416e-04,-1.691984754332753272e-03,2.998664205450621203e-03,3.573146164417266846e-01
3.159165913612789756e-01,3.330981462911405955e-01,-3.121020034173491164e-02,-1.887883132327128777e-03,-3.444894408626253488e-03,-1.972517984941872006e-03,3.561100363731384277e-01
3.249510068630737658e-01,3.324783268645980505e-01,-2.471777922790166504e-02,2.961584214582429044e-04,-3.328569912518441424e-03,-7.326285016557014963e-04,3.535422086715698242e-01
3.006932091951970420e-01,3.451841846155340177e-01,1.923750538780771846e-02,-6.569016878572451340e-03,-1.501178352508243663e-03,-3.240970342779414363e-03,3.064094185829162598e-01
2.835020908480112567e-01,3.466227356009846661e-01,-1.057303551985272483e-03,-5.815250788240518103e-03,-1.945400617397793214e-02,-3.503774356230042724e-03,3.227901756763458252e-01
3.177986983338028093e-01,3.247501188016266305e-01,-3.018921614998434921e-02,1.274231471668953912e-03,-4.180186175561240690e-03,4.778285258340466378e-03,3.516940474510192871e-01
3.066763964324972225e-01,3.725009257602851509e-01,-1.911372236746800013e-02,-2.105504911741291202e-02,-3.194014957302335894e-02,-4.568012696496511274e-03,3.692832589149475098e-01
2.981301349094532815e-01,3.700423201773588300e-01,-7.031493434504904050e-03,-2.663226221060729926e-02,-1.604030115990167857e-02,-1.664062547631742044e-03,3.509242534637451172e-01
2.942997953959344826e-01,3.334248155848613671e-01,-2.400217347755559394e-02,-4.736285768277991373e-03,-1.519861933105444256e-02,-5.336451846110635416e-03,3.408023118972778320e-01
3.174983744393610197e-01,3.322348102422266192e-01,-1.089482217682746779e-02,-3.697589012408176307e-03,2.593686397853431618e-03,-3.865340864154484177e-03,3.361615836620330811e-01
2.916161316561322048e-01,3.462527015308555223e-01,-2.912362512268321102e-02,-1.320693498948523684e-02,-9.994447814598701046e-03,-3.949672464901151855e-03,3.524954020977020264e-01
3.244844829365924332e-01,3.276912589899420580e-01,-3.187232238185910838e-02,-1.479848967252266967e-03,1.722375263953029520e-03,-1.888985896638778993e-03,3.580075204372406006e-01
3.225265191840612777e-01,3.243617098355349171e-01,-3.347745019344466888e-02,8.754338701471673246e-04,-2.481464953982944355e-03,3.820250718793499409e-03,3.570155203342437744e-01
3.300232594749888948e-01,2.682590463470081454e-01,-1.513190221399435265e-02,-2.886537516445897983e-02,-8.019858358742741611e-03,-9.154962302965549345e-03,3.233770132064819336e-01
3.220227873677481423e-01,3.278543923454303455e-01,-3.257143878744578336e-02,2.438667402937458187e-04,-1.019785452084026947e-03,-1.212263300251026832e-03,3.575564622879028320e-01
3.243764126401157410e-01,3.227973022563695449e-01,-3.552124349618632215e-02,-2.024379304382603259e-02,-1.671992886514784421e-02,-1.264380869399855944e-02,3.626405894756317139e-01
3.134967146108889602e-01,3.302403072045425603e-01,-2.919942226577149080e-02,3.369212833930028232e-03,-4.918759356262077109e-03,3.762416660246605416e-03,3.515793681144714355e-01
3.009378996103379555e-01,3.140820322599405801e-01,-1.474721645843263262e-02,-1.090020475915576270e-02,-4.631396965799547405e-03,-6.227175097301078377e-03,3.232899606227874756e-01
3.190198824403676636e-01,3.122252191248676700e-01,-3.041331883388606605e-02,6.050792753964334258e-04,5.100363194105800128e-03,-8.281981591501835251e-04,3.462031781673431396e-01
3.069041251835109563e-01,3.160441101852647372e-01,-2.706829047507913755e-02,1.734595380026159039e-02,-1.801019363546296076e-02,8.492441926771386942e-03,3.417100012302398682e-01
3.076206783852121207e-01,2.765298426189233272e-01,-1.538464608352285712e-02,-1.005962406005017906e-01,-8.912699943246036455e-04,1.192761251615733452e-02,3.550275564193725586e-01
2.694159251306619263e-01,2.823173938955230167e-01,-8.830911314704981141e-03,-5.131537292072170520e-02,-4.621362503363010406e-04,-6.939319267573218790e-04,2.984617650508880615e-01
3.252912811247790636e-01,2.850092118910791950e-01,-1.698232443528208124e-02,5.295609222133415561e-03,6.092582822970427948e-03,-5.469131110848132228e-04,3.243189156055450439e-01
3.094764015149131797e-01,2.999696559098342652e-01,-1.168143162609358576e-02,-1.752426321782943677e-02,-9.811518148774969750e-03,-1.126499361651207148e-02,3.190146684646606445e-01
2.900450461736018837e-01,3.103597396296346456e-01,-1.194711857477520622e-02,-2.088055758686818003e-02,-1.009732842938402229e-02,-9.885474541300551254e-03,3.156799972057342529e-01
3.089594954472369426e-01,2.904457752076974320e-01,-1.223064461543149628e-02,-1.898325857236034947e-02,8.886520101717377759e-03,7.691242084551581058e-03,3.147298991680145264e-01
3.190135347109335218e-01,3.468216223989930569e-01,-2.724199540422322929e-02,3.737346624444049317e-03,-1.152575983637416784e-02,-1.238368681887027419e-03,3.615797460079193115e-01
3.422589906427598860e-01,2.393659160295166788e-01,-7.878589009742587024e-03,-7.918706160211117992e-03,-3.101413667935105142e-03,1.816140786844454335e-04,3.120475113391876221e-01
2.829016071656114129e-01,3.536674196486537247e-01,-2.645115509262527254e-02,4.549483426546030267e-03,-8.080210470139058757e-03,-1.701855366714002428e-03,3.505212962627410889e-01
2.676973674668114422e-01,3.385037901319321585e-01,-1.979241622894234442e-02,3.216065735966423117e-02,-2.411628809404068458e-02,1.533407332516447188e-02,3.370061814785003662e-01
2.998235439623612164e-01,3.349265851846888742e-01,-1.319084484340346530e-02,-1.572838732377994722e-02,2.141127669189804572e-02,1.733843686306814347e-02,3.364778161048889160e-01
3.291600424280512471e-01,3.167350677246464352e-01,-1.042786887204266710e-02,2.153893239579045878e-03,-3.921906940784208526e-03,2.211720473208481866e-03,3.336610496044158936e-01
3.216892062800286722e-01,3.290885483089717178e-01,-3.024324602152292374e-02,-9.792352715436200127e-04,-1.148069729972190809e-03,-1.579497937961921910e-03,3.557099699974060059e-01
2.645005174438299633e-01,3.418140623400139910e-01,-2.764350451920838392e-02,2.500690086496238154e-02,-3.365858099976629103e-02,1.151937074671729490e-02,3.458106815814971924e-01
3.256150531317283936e-01,3.311198958904795764e-01,-3.147585294396115785e-02,3.697879870046007190e-04,-1.616622059756502115e-03,3.073918464585811364e-04,3.598867654800415039e-01
2.660897536070304659e-01,3.620919333759257119e-01,-2.746985119898470717e-02,3.810967031204781988e-03,-3.196425194606186682e-02,1.592168168177157325e-02,3.569947183132171631e-01
3.066565249787982506e-01,3.060548123939593190e-01,-2.085911484215713374e-02,4.548133194694973895e-03,3.961380844404617865e-03,-4.059994713918196191e-03,3.274574279785156250e-01
3.262113614679397200e-01,3.272261729088296045e-01,-2.820992282237999582e-02,-1.693145854234656168e-03,1.396328815254164156e-03,-2.654353810340695941e-03,3.549799025058746338e-01
2.563608811642951735e-01,3.658773550258672680e-01,-2.194764633537291121e-02,5.663546632683301787e-03,1.345888939775484287e-02,-3.243098306896301155e-03,3.472751975059509277e-01
2.942134119354680166e-01,3.479408391102979947e-01,-2.816785199690899355e-02,3.472579585301458285e-03,-1.424910578464578907e-02,5.786407058925969495e-03,3.533875644207000732e-01
3.054732046069486007e-01,3.002702682391637512e-01,-1.714575742637419742e-02,-3.282205587998424968e-03,3.616517033985124693e-03,1.076320944764780482e-03,3.201664090156555176e-01
2.848744049947802837e-01,3.320246208916364239e-01,-2.693847078325381506e-02,2.133011644175557969e-02,1.286417674714289243e-02,-1.584995724250419860e-02,3.417125940322875977e-01
2.693685250709681456e-01,3.231202659113097120e-01,-8.182712450782003710e-03,6.396173466749682096e-03,-2.001669029670310020e-04,2.598520636213340253e-03,3.081978559494018555e-01
3.039890883681595213e-01,3.034931505008207075e-01,-1.578305754112144244e-02,4.447417239969167491e-02,1.617512499651973731e-02,-1.769149521937003755e-02,3.312908113002777100e-01
3.117408586642819168e-01,2.838284363825733791e-01,-1.313233378669337315e-02,8.620048582020790884e-02,3.709494171285494801e-02,-1.145798516001406489e-02,3.522317707538604736e-01
2.851311907670783796e-01,3.402020851633302811e-01,-2.795114171994045327e-02,-1.622227228479515646e-03,-8.591454020136521461e-04,-4.134868738590870632e-03,3.440297544002532959e-01
3.391900365068120093e-01,3.153605320030388737e-01,-2.523285247018103306e-02,3.248312631257990052e-03,-2.651587415573852195e-03,-9.819226502401972798e-03,3.535956442356109619e-01
3.334604045255254445e-01,3.229188419870442917e-01,-3.178001874289673734e-02,-4.447635480232005334e-04,-2.552217672177747778e-03,1.541845273831532774e-03,3.601232469081878662e-01
3.225434224299859043e-01,3.305219853619177361e-01,-3.298540947675485113e-02,5.282539984585491420e-04,-6.864412289314534210e-04,9.858145501288214079e-04,3.595916926860809326e-01
3.275960496527688948e-01,3.265883817421013635e-01,-1.225687355682358870e-02,-1.843335258467568023e-04,-5.985257911459647461e-04,-3.146588288290949349e-03,3.393957018852233887e-01
4.907782832842090270e-01,5.011897705815602233e-01,4.040629650749633095e-02,-3.735207020462405145e-03,1.924566374958123008e-02,-1.253488620318574977e-02,4.574459195137023926e-01
3.119195035670906391e-01,3.095764256752235877e-01,-2.544564015013389691e-02,1.426080655714476132e-03,6.528530373684544733e-04,1.241959349777804593e-04,3.362107574939727783e-01
2.815052167211055112e-01,3.380099583309701394e-01,-1.822358040025140458e-02,7.119045196817236354e-02,2.249269987742292740e-02,-6.554465890346359777e-03,3.561139106750488281e-01
2.343689164238123845e-01,2.816557672191325468e-01,-1.210194201186134966e-02,9.608892181636023710e-02,3.305517940805443537e-03,-9.892178657013020113e-04,3.199589252471923828e-01
2.735886866298453124e-01,3.251303445015909510e-01,-1.353335449041190297e-02,3.555857403477084844e-02,2.152117042068591585e-02,-1.404949117519735217e-02,3.250680565834045410e-01
3.297650273108282959e-01,3.285341708109768000e-01,-5.114008758624000173e-03,9.240394270608038012e-04,-8.071629440243927771e-04,-8.289604783929255391e-04,3.342751562595367432e-01
3.267497104812879805e-01,3.189277681421299748e-01,-3.395146771968018951e-02,7.529730598820759575e-04,-3.088788815270263922e-03,2.630330650046803012e-03,3.569260537624359131e-01
3.378703140672987826e-01,3.430010655960744614e-01,4.951447631839633878e-02,2.499034394621971623e-03,-1.770294397222998278e-02,-1.669664991816031605e-02,2.940240502357482910e-01
3.316837602900635229e-01,3.373542770254844281e-01,4.880363219038943989e-02,-1.022455375564706960e-03,-5.577557258967079899e-03,1.104232789946995447e-02,2.865652740001678467e-01
3.932383740710505560e-01,2.958869928543459427e-01,-3.362252464611498182e-02,-2.169887307604605534e-02,-3.000533814942710209e-03,2.221566089016838857e-02,3.912188112735748291e-01
3.613878823972987986e-01,2.154517116284427047e-01,-1.593899323931260992e-02,-3.663327149662400778e-02,1.726262743660922014e-02,1.905183044043483667e-02,3.385501503944396973e-01
3.873954576977223230e-01,2.483332101864706432e-01,-3.432100186991007829e-02,-4.301521524556660425e-02,1.484970114417277429e-02,4.063066390267618122e-02,3.869150578975677490e-01
2.971767130379834865e-01,3.019616438837979810e-01,-1.041004716251373030e-02,-1.450694198614096509e-03,3.423926853013585861e-04,1.630030918657530449e-03,3.100305199623107910e-01
3.712078439891649539e-01,2.674657283328844004e-01,-2.197270379952717678e-02,-3.287109080088730650e-02,-2.868868301845415095e-03,3.559021253012110281e-02,3.628087639808654785e-01
3.205923429708613659e-01,3.230497339293686987e-01,-3.412793937895700069e-02,2.872216260617514792e-04,1.228732098511958531e-03,1.755272824537476703e-03,3.559750318527221680e-01
4.553371816933069471e-01,1.522245746961857493e-01,5.779216956858457266e-03,-6.373128347603795874e-02,-1.100008929991802900e-02,4.378528860508423826e-02,4.195383489131927490e-01
4.022965032552638931e-01,1.222830947240160643e-01,2.278247123640042560e-02,-1.016604387223472156e-02,2.035009848474307603e-02,4.318464374029516023e-02,3.511645793914794922e-01
3.573449535788580933e-01,1.203985601236053221e-01,-3.472117572921487594e-02,-1.000167004061249115e-01,-1.616572075538471112e-02,-1.571588996119963055e-03,3.843984901905059814e-01
3.629851207323467888e-01,2.191234822122207770e-01,-1.729245705422233215e-02,-8.496589267482706695e-03,3.554052375770404195e-03,1.269215337670271358e-02,3.336728811264038086e-01
3.854116083926939496e-01,2.071127634618950553e-01,-1.348300993271597803e-02,-2.687325902283994438e-03,-5.220768530940689614e-03,6.168689428862140882e-03,3.464138209819793701e-01
3.844730704794918630e-01,1.763725274465009485e-01,-1.660604504451004826e-02,-4.249027793637207007e-04,8.106360732780896680e-03,3.859871105334521796e-02,3.540801703929901123e-01
3.232427660689481952e-01,3.245867117386658784e-01,-3.458130866430217387e-02,-1.696285916003074348e-04,1.270619338163026944e-04,-1.160259025124491753e-03,3.585037589073181152e-01
3.187000128911388064e-01,3.167399233939892644e-01,-3.165183566023713202e-02,1.157385778366436984e-03,5.447417138567945934e-04,1.877654983477859932e-05,3.493829667568206787e-01
3.449039812489216317e-01,3.232283762381564229e-01,-4.437290461647314110e-03,4.003078635156442390e-03,-5.503546152950195697e-03,-4.958787207689079567e-03,3.393371105194091797e-01
3.356310019355448482e-01,3.202808982538484783e-01,-2.899507487141239626e-02,1.557122385237753176e-02,1.209794056457454831e-02,-1.276166378163401914e-02,3.595077097415924072e-01
3.243466024425192273e-01,3.277197698430366346e-01,-2.863255277757972839e-02,-8.337442817910507582e-04,4.277379845408935122e-03,-5.000307347852812369e-03,3.548637926578521729e-01
3.185334237120308054e-01,3.214346385645180382e-01,-3.122254642294067239e-02,1.153863030874532946e-03,5.431327968087189305e-04,2.539793127117979162e-03,3.512500524520874023e-01
3.271092387665027190e-01,3.321686404682742122e-01,-2.678979342582313294e-02,3.166259433649024936e-03,4.266499069565353464e-03,-1.112725060992315537e-03,3.565796315670013428e-01
3.084085617299964222e-01,3.338813806379077320e-01,-3.056921987401717278e-02,2.023126082056195046e-04,-2.150014219276773230e-04,5.457050652867172398e-03,3.525324463844299316e-01
3.247954746397641590e-01,3.275399727747557721e-01,-1.079843183685028074e-02,-8.471636352502145799e-04,-4.514185063265020378e-03,-1.009011351121937277e-03,3.370729684829711914e-01
3.309124114199575861e-01,3.135303850299472894e-01,-3.194586344595820582e-02,-1.168560286006590121e-04,4.234290082866896433e-03,-1.483981313192963419e-03,3.545722663402557373e-01
3.353938065456756323e-01,3.269525591826825117e-01,-2.684562812770083240e-02,-1.010413733699305023e-03,4.563888339525215554e-03,-3.220248660889385092e-03,3.582283854484558105e-01
3.357319162360508646e-01,2.938046465463718393e-01,-2.605075424797378969e-02,9.463154926780282389e-03,8.760086489888310735e-03,-1.371598578061087974e-02,3.442953526973724365e-01
3.239168003125948436e-01,3.365291564857635365e-01,-5.201548459236204902e-03,-1.829135346126673726e-03,8.009196392920240291e-04,9.475238274418512630e-03,3.360211551189422607e-01
3.300052243941432595e-01,3.162659057669586216e-01,-2.523900347528562627e-02,2.309130309411568799e-03,7.056366633677173836e-05,-3.089289440786699512e-03,3.486417233943939209e-01
3.164073622222325355e-01,3.226979165711300057e-01,-3.128522153385768223e-02,1.074384650588621447e-03,6.887022326063483744e-04,4.588806546269452377e-03,3.509771227836608887e-01
3.222547321145450283e-01,3.264426463291962843e-01,-3.499269944036823010e-02,4.611569507826635385e-04,-1.445415223860975517e-04,1.377150260357364302e-03,3.593685925006866455e-01
3.431510009688535923e-01,3.275625107982539364e-01,1.408265385677312520e-02,-5.178041423309671801e-04,2.760699461477025135e-03,8.493011767021902553e-03,3.219306766986846924e-01
3.229621551475663210e-01,3.242201645597905246e-01,-3.535071086032623433e-02,-5.407992484983465038e-05,2.404885260858502494e-04,9.534831823000909081e-04,3.589475750923156738e-01
3.433640470430438518e-01,3.144064012746421444e-01,3.143048802694889399e-02,-3.833619184345438136e-03,-1.045855333611341552e-02,-1.227019920923592793e-02,2.998868823051452637e-01
3.415922095823682447e-01,3.308946803163089756e-01,-5.829376092495341943e-03,-3.276351179088796139e-02,-1.655711446180348776e-03,-1.277549350050343445e-02,3.475886285305023193e-01
3.581949422081862067e-01,3.158351845171250560e-01,5.399365233624386917e-03,-2.605949985200613911e-02,6.065314600426001054e-03,-2.950501528989095922e-03,3.368805646896362305e-01
3.500216010921542442e-01,3.152321639099820993e-01,-3.359098812218239138e-02,-5.546240002717455625e-03,-9.158687443853208085e-03,-8.552800974385252331e-03,3.682208955287933350e-01
3.889888921125368437e-01,2.831515770026230561e-01,2.394212226675462851e-03,-4.167967653252831021e-03,-2.426476231800102357e-02,-2.257903080273408400e-02,3.508400321006774902e-01
3.370788077475175282e-01,3.139329815301004634e-01,-3.629038273854920393e-02,-1.680741076512591581e-02,-3.716155207944430404e-03,-6.074360594495305417e-03,3.637278378009796143e-01
3.313006923123799075e-01,3.225936920283973275e-01,-2.988239204161532991e-02,-5.488036478811194642e-03,-1.091238195673198408e-02,-1.003597683785526287e-02,3.579580485820770264e-01
3.234688434313237049e-01,3.264969812089733026e-01,-3.416268406461198115e-02,1.743177289992739562e-04,6.698683840075844156e-04,1.429615887979068063e-03,3.591656982898712158e-01
9.307180054254172996e-02,4.062623743083217387e-01,-2.799977827918004314e-02,-7.405698742712253646e-02,2.541454370710933587e-03,1.503902562328742268e-03,4.088332355022430420e-01
3.240178327192232421e-01,3.237405108193528447e-01,3.731062877186144822e-02,3.700529731271896480e-03,-7.879140046952387913e-03,4.165883136865197560e-03,2.870557010173797607e-01
2.849391767806961906e-01,3.466687367086543903e-01,-2.693240041328409662e-02,3.055998322297097196e-04,-6.799923140242633297e-04,-4.047881306786526873e-04,3.468836545944213867e-01
3.299888160905594114e-01,3.123917884040251502e-01,-2.735004252316775020e-02,-4.137405874466886305e-03,-4.139415804753296575e-03,-4.857536607139655363e-03,3.491219878196716309e-01
3.324512310860119890e-01,2.881862352631329727e-01,-2.037174983864017963e-02,2.711929175198714986e-02,7.957138169076364773e-03,-1.816954385664193081e-02,3.379533290863037109e-01
3.191461350177017264e-01,2.997909242784693729e-01,-3.610669103175645489e-04,3.413500662492163773e-02,1.337348339290244346e-02,-1.175163977932571630e-02,3.173669874668121338e-01
3.358214827245383782e-01,2.887154602224458744e-01,-2.507029629443674468e-02,1.028059447869919367e-02,8.462036232675653954e-03,-5.330724153552087938e-03,3.407034277915954590e-01
3.737837977202220774e-01,2.353450237128777156e-01,-2.351644701311284003e-02,5.209543182159281915e-02,1.823365546721105596e-02,-3.362349936283409030e-02,3.667994439601898193e-01
3.232743373696232991e-01,3.312990884477600151e-01,-3.308289770301581223e-02,2.984864614155679054e-04,-7.039104079767070790e-04,1.676014427579629123e-04,3.604391515254974365e-01
3.280598821874889937e-01,3.236591380753318092e-01,3.882838410386119099e-02,-6.881682965491316747e-04,-3.985316121785147971e-03,3.419952131679447702e-03,2.872029840946197510e-01
3.589199585043556517e-01,2.242177570727173497e-01,-1.848762368778661402e-02,2.272483021962904901e-02,3.396181703768656052e-03,-7.280087050680076645e-03,3.338957726955413818e-01
3.596719739306285524e-01,2.589782976977665907e-01,-1.814730359704369578e-02,3.676108620045082098e-02,3.176854011467747981e-03,-1.585693907670619046e-02,3.459499180316925049e-01
3.249023065718547598e-01,3.274949147285660112e-01,2.050163694185011543e-02,1.031843508478514238e-03,-5.535273580189861709e-03,2.754692571938245019e-03,3.058979511260986328e-01
3.205089771466462234e-01,3.036339922765402544e-01,-3.533727093412772358e-02,4.317895367338722007e-02,2.353523337863346401e-02,-2.486077349146813623e-02,3.605767190456390381e-01
3.602290765323127308e-01,2.836480381466692235e-01,-2.940145652969347601e-02,3.003251327993106123e-02,5.097072560210681898e-03,-4.354513743116988217e-02,3.692027032375335693e-01
3.168233723073882180e-01,3.260913333915107515e-01,-3.289013733291443198e-02,7.297657265347555651e-05,-3.328000295701068461e-04,-5.137338466550091937e-03,3.545505404472351074e-01
3.284377324478680027e-01,3.273529996929440133e-01,-2.663199506652311199e-02,-9.047653080372377275e-04,9.328730541574110566e-04,-2.135240541925680600e-03,3.545550405979156494e-01
3.128095340699159621e-01,3.377863711762190135e-01,-2.832883401814950686e-03,-7.910330845584302587e-04,-2.363936054228986611e-04,-2.501571783383713977e-03,3.288746774196624756e-01
3.249482492862506011e-01,3.274340766736942854e-01,2.193410228032252607e-02,-1.653801604522708683e-03,-4.864141005287140294e-03,-3.186276376814604731e-03,3.044447898864746094e-01
3.176923104864259328e-01,3.296663593921045354e-01,-1.112745929837202774e-02,2.598093070775537011e-03,-1.730290336141805359e-03,3.961274453092298795e-03,3.350812196731567383e-01
3.251187744276996527e-01,3.301009045678444664e-01,-3.115625096056995336e-02,2.458633478483874374e-04,1.044192715136218032e-03,5.641049998139418750e-04,3.587981760501861572e-01
3.029166150929069601e-01,3.909447278962147054e-01,-2.575148893477391399e-02,2.230372881638981522e-02,-1.398187074152000900e-02,-9.829257592909129010e-03,3.835001885890960693e-01
3.285005988882270245e-01,3.278147716573343029e-01,-6.168520316085723820e-03,2.167713188257041398e-03,2.345397033658228481e-03,1.294642996994387800e-03,3.343800008296966553e-01
3.366709736743069836e-01,3.419864280944132640e-01,2.362545096727564076e-03,3.813172317095245116e-03,-3.000488648706673821e-03,6.314990872920246863e-03,3.372797667980194092e-01
2.876829506188182117e-01,3.391857877718870706e-01,-2.290975678990544995e-02,5.579341592969477587e-04,-1.609254339283192753e-02,-2.435391187953714624e-04,3.404332399368286133e-01
2.805204645659543639e-01,3.120290927884078469e-01,-1.418775529950477843e-02,1.237828133265400123e-02,-4.905606108861476980e-03,6.047848563796183116e-03,3.126870095729827881e-01
3.025774141578180254e-01,3.055812824772700664e-01,-1.848949643708205914e-02,1.193048398997925523e-02,-7.271337216473964735e-03,9.313208542147486529e-03,3.238877356052398682e-01
3.104575309505052116e-01,3.186202613750903079e-01,-2.982039233624184105e-02,4.548696055610585223e-03,-1.025302433272401968e-02,8.933610259866104145e-03,3.453261852264404297e-01
3.178119744372943645e-01,3.040331886075620660e-01,-1.761667146633338898e-02,8.539527318702753306e-03,-9.721628079851803508e-03,9.144176276022762326e-03,3.298993408679962158e-01
3.122495818362903686e-01,2.912340481305114026e-01,-1.701100375527275776e-02,1.863329936567368478e-02,-9.332836256124266497e-03,1.058157562311181840e-02,3.218282461166381836e-01
3.368481798817875572e-01,3.048673563774967898e-01,-1.330078732646644557e-02,1.723047556102162356e-02,-3.198962108040931309e-03,1.786532238677784878e-02,3.380945026874542236e-01
9.746625161568543694e-02,4.488561267283698308e-01,-4.903686577176288863e-02,-5.341621056050431526e-02,-4.973643244089166228e-03,7.413340400091070551e-03,4.530084729194641113e-01
3.224826644399622633e-01,3.207759890208036202e-01,-3.535493788846250096e-02,-1.650595923732953608e-04,1.467069296241700160e-04,-8.387304275368022812e-04,3.569904863834381104e-01
1.052807751433414013e-01,4.333343534605622605e-01,-5.822368431219895890e-02,-8.981125149252455753e-02,2.416030968349225025e-02,2.552306716704805158e-03,4.625580608844757080e-01
3.093237388119740028e-01,3.394763897522725671e-01,-3.202150748577045625e-02,-6.725367609415163405e-04,-1.850934772690552427e-03,4.384070276613559860e-04,3.573939502239227295e-01
3.053963840278393627e-01,3.261966239700884174e-01,-2.593908952107404353e-02,7.436748682761731236e-04,-1.108371562272313836e-04,-7.226554613857197329e-03,3.424413502216339111e-01
1.237193012268106573e-01,4.314196704178390740e-01,-1.254204464087743665e-01,-1.115653973618827566e-01,-1.660963300534322451e-02,3.169409971488180988e-02,5.240154862403869629e-01
8.807789333015030031e-02,4.919694578905688953e-01,-6.868020582489658965e-02,-4.198297169757984199e-02,1.918921834882767255e-02,4.610309565052630489e-03,5.074159502983093262e-01
3.206666980162329872e-01,3.612394327793175819e-01,4.220841155145244050e-02,-1.862826355518278770e-02,-4.513081415674307859e-03,4.087679079676971930e-03,3.027131557464599609e-01
3.409775753757434691e-01,2.338343291644522093e-01,1.191762493683412583e-02,-8.524231177807628512e-02,-4.860899181487036286e-02,-3.956255983925115877e-02,3.436370491981506348e-01
3.384781123728325958e-01,2.376993528571197389e-01,-4.362397282084448658e-02,-9.272907144377426358e-02,4.896724174357591601e-04,-4.437119562439314352e-02,3.864631354808807373e-01
3.536879015279955629e-01,2.495522674163730970e-01,-2.044898110136891822e-02,-1.957182084999951541e-02,-3.580922893923722209e-03,-2.893687701150362765e-02,3.399431109428405762e-01
3.247939572895510718e-01,3.222526242077559111e-01,-3.476419630077973166e-02,-5.724298803178632603e-04,1.112023991398216520e-03,6.439499253186419913e-05,3.583008050918579102e-01
3.809652182218269401e-01,2.669276508356898669e-01,-2.421104632405729484e-02,-3.738574561519003581e-02,-1.122231305541412753e-02,-2.235567617273749932e-02,3.701854646205902100e-01
2.566871177769238788e-01,3.736886128727411327e-01,-2.639206567777765966e-02,-1.843072329943665211e-02,1.976211206861816505e-02,8.331164396661665597e-03,3.596425652503967285e-01
4.450229921433351832e-01,1.510836878338702727e-01,-1.300905226494997180e-02,-3.681647191498834543e-02,3.367801194772256611e-03,-3.366842236664820825e-02,4.111704230308532715e-01
2.798631804861391181e-01,3.144438626345474885e-01,-9.808657171034962374e-03,2.370635708710171208e-02,5.057195354319960964e-03,-2.841227363822443515e-03,3.113030195236206055e-01
3.255279836459303855e-01,3.272482189140133446e-01,2.282689585864405846e-02,-2.420189316430367259e-03,3.509067298610705436e-03,9.124433609097428247e-03,3.040656149387359619e-01
1.915809535656864682e-01,3.571732816912994157e-01,-2.098341680010196164e-02,-6.930048389146702126e-02,2.664968789559766030e-02,1.082119892457287375e-02,3.531190156936645508e-01
3.247691694350764435e-01,3.225828768399294222e-01,-3.540467828273574646e-02,-2.504936616515749618e-04,9.420550950735373866e-04,-4.196618170379732941e-04,3.590903878211975098e-01
2.670186024335486352e-01,2.822343781348738423e-01,-1.764980439718635830e-02,-7.750448240541256417e-02,5.134205640309682205e-03,8.917961033947973196e-03,3.223935067653656006e-01
3.234002185268243235e-01,3.264372596251131631e-01,-3.244844504068583602e-02,-4.420824350382810070e-04,5.462247645994901604e-04,-1.579510436205732024e-03,3.573894202709197998e-01
3.277185773151627957e-01,3.279029435368954193e-01,-1.563972558876319807e-02,-2.672287421372764558e-03,2.918579775457895951e-03,-2.161415213918133071e-03,3.435392975807189941e-01
1.799589716125387651e-01,3.934814524625359078e-01,-1.405939432590339044e-02,-7.923820217310956204e-02,-4.758699806786957469e-03,-4.079809146923157881e-03,3.789672851562500000e-01
2.546876115778844429e-01,3.309464061292296533e-01,-7.969545624713914034e-03,-3.936342309284205504e-02,3.185845530236115514e-03,5.258279453190088139e-03,3.155882358551025391e-01
3.267844741399370534e-01,3.175110558082545054e-01,-3.372927940488890108e-02,-1.847471245165351560e-04,4.797582809900197143e-03,1.571879288963766853e-04,3.560648858547210693e-01
2.697829721632697408e-01,2.937137556747065337e-01,-3.112582759705587176e-02,-8.939793541323295956e-02,1.313887873541245629e-02,1.276827004909504050e-02,3.511448800563812256e-01
2.481663877267519525e-01,3.497369853438419551e-01,-1.811352594791204584e-02,-7.903698324376383366e-02,6.130162741229096095e-03,2.376361317015255464e-02,3.589083254337310791e-01
3.272963202176258912e-01,3.303388629307074109e-01,-3.626310839899338223e-03,-2.901016935418717496e-03,4.623543536959998958e-03,-2.689980683256619053e-03,3.326213657855987549e-01
3.606357694138438430e-01,2.842038615886787190e-01,-2.880580948152625109e-02,1.253926382825873605e-02,3.430307961003636105e-03,-1.313036410927174123e-02,3.588384687900543213e-01
3.747832497462099122e-01,2.879417412423873057e-01,5.999171501827246789e-02,-3.461895140799120529e-02,5.528689437637475564e-03,-4.432451934913379799e-02,2.981263101100921631e-01
3.879938958122314263e-01,1.833394033524286815e-01,-1.031778591150492308e-02,-3.170288315422414155e-02,-1.194822237824300255e-02,-6.222758316667348355e-02,3.661689460277557373e-01
4.148377365460437782e-01,2.972967994297880390e-01,3.079403253092177772e-02,8.188522105883330043e-03,-5.642358032987148525e-02,-7.344304843464155574e-02,3.769592046737670898e-01
3.270069076373298689e-01,3.267741434256855593e-01,-3.232225133623178870e-02,-1.572036420887110066e-03,2.117660811833520489e-03,-2.047274627023574524e-03,3.592593669891357422e-01
4.009480856170927199e-01,2.221072983535050671e-01,-5.575328598903944721e-03,-6.712941692961674200e-02,-1.808258096612574972e-02,-4.364073356529223763e-02,3.804680109024047852e-01
3.478179896728367249e-01,3.370109986461000129e-01,2.335452856751535355e-02,1.875182438606385130e-03,5.014077043758665558e-03,1.085318252813205139e-02,3.198846578598022461e-01
3.223857926738581403e-01,3.232750132499090379e-01,-3.488248865024695666e-02,-8.244471801669336886e-05,3.399031059851099991e-05,-1.226581906547053380e-03,3.577200770378112793e-01
3.255609787832126067e-01,3.172999328328781066e-01,-2.080906722362149686e-02,-4.219773315550466412e-03,-7.013821221400347652e-03,-4.954624447402054994e-03,3.427152037620544434e-01
3.315608001062559929e-01,3.275082440206176781e-01,-2.318100877306084051e-02,1.963316502252269611e-04,-5.405404331273955471e-04,-5.296129831145335830e-03,3.528536558151245117e-01
3.621932453040346278e-01,2.869993728205023631e-01,-1.961686534025960937e-02,-3.165473833530150355e-02,-9.762341812491847140e-03,-3.092921861869081177e-02,3.590057492256164551e-01
3.223967975658857399e-01,3.420418291095915220e-01,-7.807792713132005735e-03,-1.243020018472534849e-02,-1.890624424354555091e-02,-1.046538023270261221e-02,3.431797325611114502e-01
3.877984395994528710e-01,2.979010325103650381e-01,-6.879663884883258085e-03,2.742551526460180545e-04,-1.011622150625614974e-02,-4.600838160476316586e-03,3.588071167469024658e-01
3.164106708000555268e-01,3.192406376539796420e-01,-2.244779214367581543e-02,-9.088076314983341980e-03,-2.467878176779833999e-03,-4.721709323569923608e-03,3.407711386680603027e-01
2.930512872509331568e-01,2.869840360693975412e-01,-9.850003784028171783e-03,1.934546256024748806e-02,3.089055880862092308e-04,-7.948558413305328212e-04,3.017832934856414795e-01
2.776849584102460966e-01,3.010174999656530792e-01,-1.698752883014931214e-02,5.771569768575028625e-02,1.923575134886350291e-02,-1.349433830885359530e-02,3.254249095916748047e-01
3.180925258936447841e-01,2.420829133629873731e-01,-1.611365419090471374e-02,5.725811355442674000e-02,1.480051569041145043e-02,-2.093420680866852832e-02,3.222975432872772217e-01
3.004981604368650583e-01,2.666615458611897860e-01,-2.633548363149434968e-02,7.115605074768197036e-02,2.287654009479151568e-02,-3.121989347508468890e-02,3.414525091648101807e-01
2.815260262966302052e-01,2.483943231508820015e-01,-2.217378941465331099e-02,9.362604964306844857e-02,1.442796714738087821e-02,-9.761064473199238326e-03,3.323808610439300537e-01
3.139109361413143229e-01,2.867848739124526647e-01,-1.555151592637674107e-02,2.057556810019018148e-02,4.706907653415703247e-03,-5.145863978334472115e-03,3.189988732337951660e-01
2.977266403203307488e-01,3.080675420889512628e-01,-2.697320169777292498e-02,7.050494145275340574e-02,-6.157088652513021711e-03,-2.421111939984278358e-02,3.545133471488952637e-01
3.057947024876119801e-01,2.794370637991955286e-01,-1.318136006260020587e-02,5.775062445979843584e-02,1.114032366558908443e-02,-1.806164078999084391e-02,3.246373236179351807e-01
2.804084879655578399e-01,3.075344691259211394e-01,-1.158770435459521853e-02,2.767017041036598513e-02,5.011585412357808314e-03,-4.187687821910786659e-03,3.103919327259063721e-01
3.030009431821745203e-01,2.715469841413973295e-01,-1.729639948232544744e-02,3.477001608909910391e-02,1.622196328261978418e-02,-1.836553526693391822e-02,3.145366609096527100e-01
1.874875456376133565e-01,4.020318556319775749e-01,-1.135262351394145108e-02,1.521243662718657652e-04,-2.857817414607115650e-02,-4.200141413325048784e-03,3.615657985210418701e-01
2.480860584457842410e-01,3.914091182671805003e-01,-5.383472255028931563e-02,1.040594877989280825e-02,-3.894340581908151827e-02,1.157442047317238650e-04,3.998056054115295410e-01
1.571973488129549679e-01,3.855811927490023772e-01,-2.025780866360690768e-02,2.050287356437276165e-02,-1.373992676533816563e-02,-2.701743921832462300e-03,3.550024926662445068e-01
1.986562166622747871e-01,4.832699097085574325e-01,1.076559759616246836e-02,-3.007325024684525533e-02,-3.198161942104962852e-02,3.917913156673200753e-03,4.190606176853179932e-01
3.229746531351130323e-01,3.226456693468728876e-01,-3.556325312537891858e-02,4.459719727059220239e-05,2.296687694694372341e-04,-3.430590967413486522e-04,3.583742380142211914e-01
2.003420942918375802e-01,3.931527786747248676e-01,-5.188907713054663473e-02,-5.373451468539605647e-02,-4.713612858064272770e-02,1.455674866187240193e-02,4.066850543022155762e-01
1.965754826847963821e-01,3.887388080575149840e-01,2.002163710444163081e-02,-5.178533764641014836e-02,-2.721468973194811000e-02,-3.457165811784236077e-03,3.351538777351379395e-01
1.692935448594626857e-01,3.937759223795874730e-01,-2.162600492732769109e-02,-8.950387705108708847e-02,3.248479129473656746e-02,2.099587939339375708e-02,3.977710306644439697e-01
2.688846219515001468e-01,3.951189354743088189e-01,-2.104664650534049386e-02,-1.924339050251754057e-02,-2.153711842238318838e-02,-1.747782785871747346e-02,3.741836547851562500e-01
2.241140048336487944e-01,3.540814451960268561e-01,-7.762366974234408135e-03,-2.736950089440655376e-02,-6.766488212894207661e-03,-1.294736910354482226e-03,3.212230205535888672e-01
1.811346958905708515e-01,3.965023371903291238e-01,-1.962352111888820971e-02,-6.964954918242255433e-02,-2.836619585496912357e-02,-6.580629903402015687e-03,3.834330737590789795e-01
1.865119824847093766e-01,3.685949698698317567e-01,-1.392734972031003937e-02,-5.009082806164976559e-02,-8.898512751610002450e-03,-5.991999119407834772e-03,3.430732786655426025e-01
3.257074609579026503e-01,3.266154786598497450e-01,-3.237941918740033787e-02,1.310019116404994742e-03,1.180802902101864456e-03,1.582603654982848475e-03,3.585652410984039307e-01
2.287410980618670153e-01,3.459906233647785934e-01,-1.295584786856998627e-02,-5.075474187805678605e-02,-1.182268667162287429e-02,-5.658587329464711234e-03,3.297684490680694580e-01
2.678930324410938035e-01,3.524452014260829324e-01,-2.052482239331085423e-02,-1.992907178746202573e-02,-1.174501347018748303e-02,-1.744864673296339305e-03,3.410788178443908691e-01
2.670558949748494393e-01,3.426197909992826918e-01,-2.310877395294963499e-02,-2.367599036575446930e-02,-1.477289260084682643e-02,-1.362542466523458846e-02,3.387103974819183350e-01
2.750829289378319831e-01,3.322125459502870415e-01,-2.773637125992500785e-02,-2.893321443754658800e-02,-1.861932526251382052e-03,-3.163943741686465073e-03,3.388437628746032715e-01
3.335388073043919488e-01,3.325041508466827223e-01,2.107561491761292261e-02,-1.163792868469016835e-03,-4.300959906948474687e-04,-5.922466000652780276e-03,3.121231794357299805e-01
2.522671641894480565e-01,3.443486372178016230e-01,-2.496903979292883213e-02,-5.269482754894702636e-02,-1.814041659189827640e-02,-1.272316538106223194e-02,3.473763465881347656e-01
2.496774460860107792e-01,3.623060797658357313e-01,-2.031134695752678798e-02,-5.038651361998333633e-02,-1.399495875760821580e-02,-3.002945251607312682e-02,3.562259376049041748e-01
3.041266893071000177e-01,3.258020648707581346e-01,-2.862986637611034113e-02,-1.991885246118099521e-03,-3.541220360914015776e-04,6.097590836453287665e-03,3.442865014076232910e-01
2.727151346905513085e-01,3.349835490139325134e-01,-2.776953335786189192e-02,-4.702129746469976834e-02,-3.147497028348854309e-02,-2.742148809612745056e-02,3.531854152679443359e-01
3.097799991686521204e-01,3.007579432380606543e-01,-2.191138672208736704e-02,-9.253082688907147621e-03,9.800635034125147402e-03,9.831252921096458181e-03,3.285468220710754395e-01
3.132097961682402953e-01,3.265723135078265615e-01,-3.071796127302545143e-02,3.647735703722129871e-04,6.734958671169947184e-04,4.800481013429070895e-03,3.509009778499603271e-01
2.297725537188529121e-01,3.875803590445268676e-01,-2.171028341699757225e-02,-4.026395462645260270e-02,-1.194508342443324073e-02,-1.999517814749748185e-02,3.665022552013397217e-01
2.239146697688098875e-01,3.860245554523880074e-01,-2.415169797288502229e-02,-4.951826339238261238e-02,1.755370014578026133e-02,-5.300541691926979014e-03,3.693175017833709717e-01
3.280910903154112268e-01,3.277422596621366591e-01,-8.835098121915407887e-04,-9.573660237771754872e-03,1.168155574241410387e-02,1.688935573356250761e-02,3.311340212821960449e-01
1.730064771961213332e-01,3.721667954214273322e-01,7.441112146984285580e-03,-6.614851979824550032e-02,8.238719402037636419e-02,2.679507849867903899e-02,3.683673739433288574e-01
1.437893582761193834e-01,4.513676390683012962e-01,-2.777037615168445606e-02,8.798200538973535018e-03,1.552214349997168771e-02,1.987955025456864672e-02,4.230198860168457031e-01
1.945206431212007092e-01,3.804942507013809871e-01,-3.125277344068086438e-02,-1.871682799882756765e-02,1.435424045600444676e-02,6.075617839031008036e-03,3.596214056015014648e-01
1.971477037836105173e-01,3.915677029891370120e-01,-2.703969851784468470e-02,-4.333362132826381469e-02,3.945795934211882017e-02,-1.234719046343318513e-03,3.767683804035186768e-01
3.244328287799427279e-01,3.153305564385727733e-01,-3.125794124663358597e-02,-1.475577482794526631e-03,6.402442976519308500e-03,5.394508940033843633e-04,3.514136672019958496e-01
3.450477879915634372e-01,2.409113561507579826e-01,-4.741490341322526780e-02,-6.311394812958061318e-02,3.777293327766065301e-02,2.504579969671935982e-02,3.769801855087280273e-01
2.064520056113299529e-01,3.975024132723334880e-01,-1.466755088534821283e-02,7.033707365171216336e-03,2.847937547976397976e-02,1.726846801730104117e-02,3.620985150337219238e-01
3.189073080039097619e-01,3.320842235699330014e-01,-3.155277041734352861e-02,-2.516582348615442025e-04,2.963700553971005021e-03,1.634448422764150878e-03,3.572792112827301025e-01
2.260982099464252104e-01,3.552266436885089251e-01,-1.942439613264823617e-02,-2.678835130408729198e-02,1.693644207727133810e-02,7.311498878892238110e-03,3.344147205352783203e-01
3.953961587115573661e-01,2.010555622514271779e-01,-6.012244843484310097e-03,9.085152359299118741e-02,-2.664500323684086680e-02,5.335348783226537620e-03,3.845312595367431641e-01
4.591130179563004399e-01,1.600081252040787549e-01,-3.112142731248757066e-02,6.471239682663131043e-02,-1.011440238401555350e-02,4.478383406947863965e-02,4.494983851909637451e-01
4.425419893629835011e-01,2.486203580124484169e-01,-7.193116539794902620e-03,7.180439266313445867e-02,-9.182246512906952832e-03,3.608633062232355360e-02,4.150676131248474121e-01
5.008292031659232757e-01,2.191483067153354447e-01,7.188823965251389669e-03,4.185520544948578142e-02,1.712817715974297023e-02,2.683779342503734081e-02,4.384887516498565674e-01
3.911119892839885481e-01,2.152393567652143291e-01,-1.208118246475145541e-02,7.440493638219738970e-02,-2.133001330352587641e-02,3.505990032530779954e-02,3.797973990440368652e-01
3.249736712924494175e-01,3.289511446839988307e-01,-1.613134681294109418e-02,-1.331735922401765335e-03,-5.786795979109929378e-03,2.620431943719811821e-03,3.432951569557189941e-01
3.270846520540853786e-01,3.283255175810765869e-01,-2.095756767068571169e-02,8.806421635559117094e-04,3.276757892221137183e-03,1.142155765295774185e-03,3.487194478511810303e-01
3.677378126751353338e-01,2.286268208263812773e-01,1.467196006371188077e-02,5.819476072619961249e-02,-4.199597617449380565e-02,5.376539444516197086e-02,3.449855744838714600e-01
3.269828043323043110e-01,3.242548565732887300e-01,1.557224671370971425e-02,-6.517238376058399332e-04,-6.304537481682690077e-03,-1.437598107034480889e-03,3.102598488330841064e-01
3.326010107814012517e-01,3.349166424406762599e-01,-2.428467062557015943e-02,-3.782456405385646592e-02,-2.458818987810753795e-02,-4.542544728054062619e-02,3.748271763324737549e-01
3.344025921752038499e-01,3.173356317766702905e-01,-1.168679412425635555e-02,-3.122730679669002713e-03,-5.727231857854201032e-03,2.098888018518073068e-03,3.380877375602722168e-01
3.161883192686574251e-01,3.193499932350802317e-01,-1.888902602868014480e-02,-8.937018438438741608e-03,-2.976086918155376130e-03,-5.618969423013381835e-03,3.372048735618591309e-01
3.242335730009162087e-01,3.222179822679491212e-01,-3.400654144592762940e-02,3.617832606407096058e-04,-2.978875747386637140e-03,-1.731619498864601318e-03,3.572869896888732910e-01
3.101023466229121395e-01,3.139654278619374295e-01,-2.636308048483523847e-02,2.456268012104021511e-03,1.192918569702042329e-03,-7.364229453648970733e-03,3.386868238449096680e-01
3.284115956356158383e-01,3.176168515381034285e-01,-3.156592199163005263e-02,-2.546076802614967091e-03,-4.921905331506594601e-03,-3.867318331547885298e-03,3.548964262008666992e-01
3.601182937268435080e-01,3.154286558443541999e-01,-2.713999940692854440e-02,4.163531851581338261e-03,-9.767702836272755974e-04,6.507745161798919424e-03,3.672078847885131836e-01
3.854617434380740448e-01,2.914451559197407393e-01,-6.547429231849810627e-03,-1.391419252997882355e-02,8.478065537889652864e-03,1.092988808683797476e-02,3.561035990715026855e-01
3.485540065072253446e-01,3.054778856011653998e-01,-2.605612205461785291e-02,-1.486362275418036741e-02,1.163865261087599669e-02,1.715156580119891680e-02,3.577753901481628418e-01
3.545532432787859012e-01,2.843048526289084776e-01,-2.611209770383979278e-02,2.215054909195679402e-03,2.678024125359307773e-03,7.569057145509058490e-03,3.511522710323333740e-01
2.320606644936092089e-01,3.710763562350368749e-01,2.297309204432801399e-03,4.539772067048043064e-02,4.434860102530738257e-02,-2.050517923671226275e-02,3.426396250724792480e-01
3.082750489629877411e-01,3.028207744005117497e-01,-1.605949146086721457e-02,2.921343365693307740e-04,3.802527055062184837e-03,-8.218391501360635103e-04,3.217130601406097412e-01
3.584852590893299884e-01,2.681438206230950527e-01,-2.655628650158284310e-02,-9.215105233791679937e-03,7.358867622136043042e-03,1.241462200370011155e-02,3.500185012817382812e-01
3.438618712469727612e-01,2.978728505902574208e-01,-2.529153625555316531e-02,-1.138327189280692944e-02,3.332973306705721509e-03,1.689031903198437087e-02,3.502715229988098145e-01
3.133107475623760907e-01,3.192450560659629843e-01,-3.100401815818790152e-02,1.351848530919478632e-03,3.109201845846281710e-03,-4.191553395383238942e-03,3.474454283714294434e-01
2.043883734307568867e-01,4.550786829821103496e-01,-5.566947558650597871e-02,1.149227936748572765e-01,2.245172166703475816e-02,-1.106367600137467787e-02,4.870019555091857910e-01
3.503774975982473783e-01,3.055782804366165006e-01,-2.948787612884620768e-02,-1.458030069964010370e-02,1.423248355315214451e-02,1.730131182991609048e-02,3.625333905220031738e-01
3.677935124830679081e-01,2.348115192915816718e-01,-2.332671702520328072e-02,-1.173286785772539344e-02,-4.506478302486062850e-04,2.083101487808652549e-02,3.469332456588745117e-01
4.084838260677441935e-01,2.064084765017170364e-01,-2.381682213685479277e-02,-5.062033320841460848e-02,1.248116748727593102e-02,6.225060104726103799e-02,4.001761972904205322e-01
2.978856797764197761e-01,2.728863957032389709e-01,-1.549149766919924454e-02,3.721885870800372559e-02,9.959987177393525223e-03,-5.104898072205522885e-03,3.090752661228179932e-01
3.256416593096683743e-01,1.889949882040433127e-01,-2.133471968289069043e-02,7.805215081880378936e-02,-1.407080306867519205e-02,1.340264731951256241e-02,3.332581818103790283e-01
3.337040951210676898e-01,3.175511578300057036e-01,-3.329634434897035811e-02,4.420953877312308990e-04,4.285395333090759838e-03,4.815418878302649705e-04,3.592749238014221191e-01
2.915101198162971530e-01,3.069232173872888381e-01,-1.669537011103236490e-02,2.062630269731156180e-02,8.263062459719592093e-03,-7.808566169083954595e-03,3.188144862651824951e-01
2.643232011350551414e-01,3.205369805457193300e-01,-1.556444428254136203e-02,9.723161174563203779e-02,2.101298777787435294e-03,-4.018996340350089631e-03,3.544774949550628662e-01
3.047929901820762844e-01,1.863640458565117841e-01,-2.684625121904871126e-02,1.531270810639010493e-01,-8.980000460216991387e-03,1.446076299417110161e-02,3.949016034603118896e-01
2.995161066189162002e-01,2.722415600358372156e-01,-1.654834884803077499e-02,3.626936612360578960e-02,5.345606429159368775e-03,-6.540860587042175191e-03,3.101299703121185303e-01
4.029303535106625311e-01,3.058374013621436016e-01,-3.112963509585897626e-02,2.964212304368203654e-02,-5.909457078171156952e-03,2.757834552885363166e-02,4.008907377719879150e-01
2.866960467752046604e-01,3.087614080502764091e-01,-9.104991680515511776e-03,-3.613837766101799139e-03,6.729517288363715466e-04,2.714025942628739505e-03,3.075300455093383789e-01
3.432657157253826141e-01,3.381190593281857559e-01,9.528932179514892908e-03,1.149473858951045695e-02,7.656442645414895205e-04,1.784659530496740185e-02,3.332307636737823486e-01
3.274744208513288291e-01,3.268723420181431361e-01,1.139350753499135394e-03,1.465686192821745448e-03,-8.178699991441560138e-04,-3.745472690676275411e-03,3.261119425296783447e-01
3.181199356651214782e-01,3.306330506897496857e-01,-2.781682267910010053e-02,5.960930737442277950e-03,-7.196761496907899680e-03,8.946531225346429639e-03,3.530717492103576660e-01
3.279655400600116621e-01,3.385847184301840618e-01,-5.872589846818293546e-03,-6.870266417121969216e-04,-5.920551740029216317e-03,1.036555402194506113e-02,3.399038910865783691e-01
3.120986076177247881e-01,3.381983610900516357e-01,-2.885564311640284596e-02,1.588105495614401327e-03,4.950407962491677923e-03,-2.785332239610487440e-03,3.548720479011535645e-01
3.258328214071433138e-01,3.011338145782765929e-01,-2.547405278385506122e-02,2.179141465224721311e-02,-1.516705325639876659e-02,2.550547144390945264e-02,3.455660939216613770e-01
3.749938169757430773e-01,2.469332616857072560e-01,-2.611946459330552472e-02,2.419485315183730542e-02,-1.163773408858156770e-02,1.008914989553274383e-02,3.583188951015472412e-01
1.746845836857759682e-01,3.815928448503166925e-01,-8.560923347404686412e-03,-1.920646137065497652e-02,2.718424444973112277e-03,3.691180567603574887e-03,3.398156166076660156e-01
2.895830326567580548e-01,3.344685665974929112e-01,-2.822679691967158733e-02,-9.551836623577214785e-04,-4.047478556126178715e-04,5.075263285735363318e-03,3.425833582878112793e-01
3.091924828626915756e-01,3.137998476656205793e-01,-2.559320624368291441e-02,-5.985291808958279275e-04,6.239388487203303317e-04,4.119361483016553173e-03,3.371918201446533203e-01
3.530925767588303232e-01,2.742045799440336329e-01,-2.980116421114570313e-02,1.500627143564101443e-02,-9.800939994131211211e-03,1.240320835552159544e-02,3.522079885005950928e-01
3.323931410491500760e-01,3.277598307178987147e-01,-9.961131851516341618e-03,-2.345340899250343471e-03,-4.085254233103847825e-03,1.407994814145260409e-03,3.401679098606109619e-01
2.424800725124806045e-01,3.593082126604908999e-01,-1.863505367249862488e-02,-2.701024397949642643e-03,3.356732220307997072e-04,4.420965566317289729e-03,3.352855145931243896e-01
3.393476876836182266e-01,2.943854764185809270e-01,-3.867975369130496888e-02,1.758949604989561155e-02,1.654912041408006934e-03,6.609715858910112686e-04,3.589806258678436279e-01
3.280618664849150323e-01,3.258592372265026182e-01,-3.066641547089621334e-02,-1.110497771902818577e-03,-4.606511279458675584e-03,3.295689729151782005e-03,3.577717542648315430e-01
3.232191409700722051e-01,3.015063187494759767e-01,-2.579508307182259985e-02,3.124759102387190263e-02,-1.410515009327737400e-02,1.901608362691215720e-02,3.454203605651855469e-01
3.264795920384959693e-01,3.017928399288388741e-01,-2.599418437075493027e-02,-2.341596071933180808e-03,6.405585858621940139e-03,-4.170400397989042218e-04,3.410070836544036865e-01
3.040660953756434415e-01,3.247678199413737143e-01,-2.614531840673842145e-02,-1.977182861445825768e-03,-3.891154920710625438e-04,6.809876722553013378e-03,3.412556052207946777e-01
3.257528433944362756e-01,3.329452254412612056e-01,-2.347083217852016790e-02,-9.059263108107052515e-03,-2.970820234123709887e-03,-1.133796555180720429e-02,3.538064360618591309e-01
3.274206822091282887e-01,3.247628512846667537e-01,-3.690179379461783205e-03,-2.000802503474564432e-03,3.805145698329049329e-03,-2.298405395119841686e-04,3.298742771148681641e-01
3.319234903579116880e-01,3.199549475737404336e-01,-2.902410870547769695e-02,2.270805008428511667e-03,-2.675019623732835181e-03,2.706580179086914232e-03,3.551975786685943604e-01
3.303986318096235331e-01,3.262977083362440522e-01,2.348221326448735047e-02,-2.656186085380907581e-04,-4.367473295138548338e-03,9.890318504322231918e-03,3.054615557193756104e-01
2.830151680360487587e-01,3.247897011003758605e-01,-1.796627635364483888e-02,-4.341106042466317746e-03,-4.900624094267699241e-04,7.210836313826074484e-03,3.242245316505432129e-01
2.895002212016140053e-01,3.381950527917426674e-01,-2.875598697492498523e-02,-2.288649857450961601e-03,-1.637234547768034597e-04,6.655611599575585006e-03,3.454045653343200684e-01
3.316090568337336508e-01,3.269829192882353075e-01,-2.383405409506761385e-02,3.077928128391051437e-03,-3.289276199958446768e-03,-3.649005413401780560e-03,3.532954752445220947e-01
3.325519165337393890e-01,3.116163212607842570e-01,-2.771808294327005040e-02,-1.943998000725803699e-03,-4.302110215530955545e-03,-8.117546852633520868e-03,3.506491780281066895e-01
3.348208398771210792e-01,3.148886318306968191e-01,-3.178091749712641523e-02,-6.779528932283094417e-03,-4.583415526244632478e-03,-4.048595153152790248e-03,3.574031889438629150e-01
2.848704201399487879e-01,3.503057910144313780e-01,-2.759023815697822513e-02,-4.214487754127757904e-03,-3.486377000329491998e-04,4.372489149928036369e-03,3.499577641487121582e-01
3.569971028862152229e-01,3.048514863466836866e-01,-2.485213316634099501e-02,-1.071736633248206345e-02,-1.020916607499641748e-02,-2.114128962180701968e-02,3.614060878753662109e-01
3.342907479369692236e-01,3.205074882768979561e-01,-2.241978616241951938e-02,1.214439947865908042e-03,1.370345857169517467e-03,3.011471545399452211e-04,3.500372469425201416e-01
3.313022956614691261e-01,3.273600830808441331e-01,-1.050362678400226790e-02,3.465731954310528710e-03,3.504732607778237880e-03,5.933191267130854749e-03,3.401144742965698242e-01
3.209326961628312658e-01,3.183414852289885855e-01,-3.212719945047917691e-02,-2.798563043858677871e-04,2.630480999187435626e-03,-4.091073312988126277e-04,3.518019914627075195e-01
2.903313938873790523e-01,3.340667645451127488e-01,-2.696599175829353379e-02,1.065455296431801072e-03,-1.458486668259663041e-03,-7.409840788310660675e-03,3.415289819240570068e-01
3.309393679655993070e-01,3.214196298850071076e-01,-3.504535701711511408e-02,2.922374138472689630e-03,-5.416465236106603534e-03,3.288030207582556992e-03,3.615210056304931641e-01
3.089381560894196022e-01,3.114758003072520820e-01,-2.077283880550048756e-02,3.031409214664386453e-02,1.321047916657283085e-02,-2.147065429602335387e-02,3.379583060741424561e-01
3.123986910296675523e-01,3.114314698087689015e-01,-3.083637821707918558e-02,7.390703022159805444e-03,6.145763516397139727e-03,-6.521373718409248336e-03,3.433424234390258789e-01
1.720372192310096748e-01,4.028696548279457890e-01,-7.104036681564118716e-03,-6.271362824101682021e-04,3.539035778713450330e-03,1.327060596575091326e-03,3.560489416122436523e-01
2.120778930077049373e-01,3.710510686501975464e-01,-6.516575891153675304e-03,2.964786684539632081e-03,-8.314633177988747315e-04,-2.473849596540844253e-03,3.284105360507965088e-01
1.863154674924330789e-01,3.890427730232217662e-01,-2.152329844919678714e-02,1.408708328697988454e-02,6.831239566414814592e-03,-1.417998555331364055e-02,3.574471473693847656e-01
2.208057506964721806e-01,3.653803126576589677e-01,-6.276883836608349032e-03,-8.790705477664818510e-03,-2.553041411307492223e-03,-2.096759218774211977e-03,3.249050080776214600e-01
2.209674914364199994e-01,3.744056790909220389e-01,-1.109943466439461401e-02,5.498442490479970961e-03,8.464292048425931664e-03,-2.275197948355726484e-03,3.366414010524749756e-01
3.108371856039641168e-01,2.732022060848747214e-01,-9.612581489578414518e-03,1.016676825577237861e-02,-1.013859262439504357e-03,3.778018508921429154e-04,3.039044737815856934e-01
3.054761323211171442e-01,3.243749097835662010e-01,-2.666878181752763144e-02,1.186843828727677554e-03,2.544763617579027214e-05,-8.494046431509080092e-03,3.423086404800415039e-01
2.549553631732449643e-01,3.568893545014827362e-01,-2.176145928881192959e-02,6.917655649598894192e-04,1.463219819832296820e-02,3.301660145234020221e-03,3.403616249561309814e-01
2.251760169870307970e-01,3.671204975763884271e-01,-1.720333993186431987e-02,6.982536730383719775e-03,1.093181824546943584e-02,-3.350384095052795150e-03,3.374001383781433105e-01
2.302158644962648548e-01,3.656575951048923745e-01,-1.093531145416551387e-02,4.776394261775544596e-03,7.291539702864294203e-03,-1.977006902098083635e-03,3.307566344738006592e-01
3.027084322027978613e-01,3.257211809258857560e-01,-2.676099624811109634e-02,1.978338672493397832e-03,1.952910725096093712e-04,6.276155105082747467e-03,3.417480289936065674e-01
2.131722565565724314e-01,3.662833201245400683e-01,-6.988741622567323786e-03,3.959730424944276662e-03,1.108114270694340745e-03,-2.249830056364250479e-03,3.250982165336608887e-01
1.744619171222932530e-01,3.903424455526344761e-01,-2.402179155969202951e-02,-2.455135486591011537e-02,-6.254498606145487798e-03,4.063218628938633330e-03,3.616962134838104248e-01
3.164931720684409644e-01,3.307596371229488685e-01,-2.371375047429619132e-02,-1.360776101660462556e-03,-3.139361875154758359e-03,-1.859595219602854692e-03,3.476252555847167969e-01
3.154366448447329940e-01,3.438191746239991353e-01,-2.982490206954505063e-02,8.041009979937450633e-03,-2.288561618001164286e-03,1.857540801439743752e-03,3.605974614620208740e-01
2.874664584316840577e-01,3.511907686667246065e-01,-2.896845362412586722e-02,7.944732063608406225e-03,-8.503298481490265473e-03,2.849710973662273293e-03,3.532521426677703857e-01
2.712499419224581598e-01,2.993855453348086004e-01,-1.318865279536449164e-02,-3.678042592281303980e-02,-8.204234897740636523e-03,-6.783777887184899713e-03,3.067542314529418945e-01
3.200645850931833625e-01,3.139951604642685634e-01,-3.016681458859493681e-02,-9.294724410939031369e-04,4.505770036195747008e-03,1.529957955045406449e-03,3.473379909992218018e-01
2.818186717363894700e-01,3.569433459029798250e-01,-2.652304855249743021e-02,-2.585679217432746303e-03,-6.442702818603270910e-03,-1.640083290861857248e-03,3.521861135959625244e-01
3.153151926763229085e-01,3.321058970474647376e-01,-3.154879207778493733e-02,4.072808588911417706e-03,-2.999294830846079875e-03,2.835789996591794350e-03,3.556986451148986816e-01
2.912225731298476727e-01,3.776797513944540885e-01,-6.893580611887162313e-03,-3.209612956120437739e-03,-1.828304692111592730e-02,-9.017400355273055834e-03,3.512834012508392334e-01
2.864713566409725076e-01,3.094691016973971087e-01,-1.256723785383243031e-02,4.231484394752168393e-02,4.827091066853419002e-03,-1.107886337921677039e-02,3.203746974468231201e-01
3.174074734389997765e-01,3.206429060707777778e-01,-2.089061262713876044e-02,6.293883261919811477e-03,6.550268714671763325e-03,-4.770429122146278844e-03,3.403915762901306152e-01
3.185703208481256987e-01,3.196807173166003047e-01,-2.859559626525384757e-02,8.998222176516860321e-03,1.590964870465286923e-02,-1.854854180014033765e-02,3.506355583667755127e-01
3.287113241224725591e-01,3.373342593859646743e-01,-7.487174718110611860e-03,3.527629583567555398e-03,1.239374907103460259e-02,5.705170004167495201e-04,3.413237929344177246e-01
3.025159864468788262e-01,3.083060308489771750e-01,-1.672623854351917849e-02,-2.642097627050404591e-03,-6.870240049944195378e-04,-2.307883359821220068e-04,3.222112059593200684e-01
3.326396799606072818e-01,3.192082565485050982e-01,-2.385827404755661019e-02,1.279124731702078674e-02,9.262964443086640562e-03,-7.425110036381987223e-03,3.512784838676452637e-01
4.823682684851469116e-01,3.027739220458068314e-01,3.258514520699168360e-02,-6.038225625546615738e-02,-3.602390626272063134e-02,-8.732392914285114216e-02,4.375935494899749756e-01
3.308434407610651995e-01,3.001288294037798288e-01,-3.278793839437041391e-02,4.530875481155670348e-02,2.228041511665919058e-02,-2.408786491127356405e-02,3.624788820743560791e-01
2.960430433787912818e-01,3.139400454640501881e-01,-1.785688579867664161e-02,-2.390101312185229435e-03,-6.498185186574413001e-07,6.973143824783144783e-03,3.234723210334777832e-01
3.221757016387220562e-01,3.255709221166143141e-01,5.196270597063132324e-02,-3.537524364599062320e-05,-2.723422251109838734e-03,-2.254532314916265438e-03,2.719954550266265869e-01
2.922315284131057900e-01,3.383926038424149296e-01,-2.684445153014014540e-02,-2.313015483219935282e-03,1.001497483307848884e-03,-2.639632907677915297e-03,3.445419967174530029e-01
2.426495657088216240e-01,3.517713241160363991e-01,-1.948817048068593460e-02,-4.298209852830364372e-03,2.376320572781056163e-04,1.908500865798290849e-04,3.305818736553192139e-01
3.327278588579667962e-01,3.270385687261003205e-01,5.940702098558692246e-02,-2.420047761304190844e-04,-6.942197402087738750e-03,2.363428937191174375e-03,2.708194255828857422e-01
3.235265765972232255e-01,3.206326172857326684e-01,4.366761438702362885e-02,6.317641855610670997e-04,6.988798063620401541e-03,-1.239061782874590527e-03,2.786966860294342041e-01
3.232594859660407605e-01,2.637490261182022233e-01,-9.074174346039465267e-03,-8.703468260874815468e-03,-3.007267591548486510e-03,1.048026570822463107e-04,3.073503673076629639e-01
3.227966747650249935e-01,3.253708093077290475e-01,4.107712990162187827e-02,3.771058187902720168e-03,-3.126123404608053841e-03,7.571872943747417345e-03,2.834461033344268799e-01
3.269695369543625940e-01,3.276934103501620843e-01,5.074917697893149837e-02,4.303288939672188316e-04,3.929430513413293032e-03,3.811129006463140692e-03,2.767464816570281982e-01
3.200924243749534437e-01,3.262553171480472303e-01,-1.926791180535616932e-02,-4.080168909303244149e-03,1.783354882336821460e-03,6.759924965186158916e-03,3.427702486515045166e-01
2.716194654024297050e-01,3.426332062227203656e-01,-1.766814228875079884e-02,-4.689252607413959932e-03,-6.448418703101135288e-04,6.902371186751516188e-03,3.308833837509155273e-01
5.112479329205763534e-01,1.324311555676082608e-01,-5.691906880182695527e-02,-6.399407888591936155e-02,-5.088778958569939968e-03,1.407249701419480310e-02,5.138503909111022949e-01
3.172992853216417553e-01,3.406619890893532454e-01,-1.890794575870960448e-02,-3.375665822679560502e-02,2.493609664174365609e-02,1.578489433091383176e-02,3.570255935192108154e-01
2.870314378939958222e-01,3.437826190725451481e-01,-2.296028716797396396e-02,-1.399651456178825637e-02,9.108079711845837312e-03,7.472646041050132366e-03,3.433832526206970215e-01
3.297172515949657878e-01,3.241961113403765138e-01,-3.002600082985587560e-02,7.483516822361884055e-04,3.270066067950139405e-04,-3.841582728867775666e-03,3.570795059204101562e-01
2.747399785716203580e-01,3.225720126452562009e-01,-1.002990190036359697e-02,7.170165704243138677e-03,8.719718347321751221e-04,-2.800635958187064518e-03,3.117417991161346436e-01
2.800018429782692997e-01,3.580157041982367505e-01,-2.750680625060478168e-02,-7.511131460318504552e-03,8.832226559034398947e-03,2.216152067302255661e-03,3.536321222782135010e-01
2.241227490749007623e-01,3.582592377981675957e-01,-2.012177858498234717e-02,-3.499565730428877419e-02,8.483033743054811324e-03,1.012754209738408843e-02,3.385376930236816406e-01
2.516532906408751047e-01,3.589360355898696398e-01,-1.869658523393538663e-02,4.859472738623235805e-04,2.696531681565530959e-04,2.010768313076584097e-04,3.370512723922729492e-01
3.195261586691380273e-01,3.540628007420610901e-01,-2.912764406804596584e-02,-7.231235971478009936e-03,1.049097498972047932e-02,4.338357362702464567e-03,3.678819239139556885e-01
2.176775241340784262e-01,3.631066586409189556e-01,-7.753696606766780075e-03,4.488781461319756548e-03,7.704409092097737159e-04,-4.406177249891276779e-04,3.237529098987579346e-01
3.605901989317978895e-01,2.493393843308120694e-01,-8.344165355845506449e-03,6.152318419204415301e-02,3.856811493823061876e-02,-2.443190669689927416e-02,3.536292016506195068e-01
2.886677887805121911e-01,3.399682465087155991e-01,-2.942521279597903883e-02,-6.642430624599399494e-03,1.794838544553064436e-02,7.644656402006365370e-03,3.484355509281158447e-01
2.609405613287901771e-01,3.782957161997329565e-01,-2.458338290767322909e-02,-2.274557308296294711e-02,2.984160384057386872e-02,7.960082082646511431e-03,3.649898469448089600e-01
3.201740458330853412e-01,3.213118879307066411e-01,-1.076753438469563173e-02,-3.571154871458987606e-02,-5.086723212389741670e-03,-1.626956352196421568e-02,3.385230302810668945e-01
1.053846025461903091e-01,4.048797496653403494e-01,-2.247967739301751089e-02,-4.510287216749513800e-02,-1.825858716052547806e-02,-7.216285961885647755e-03,3.893590867519378662e-01
3.266675087291660562e-01,3.220710962237236519e-01,-3.465952316074288886e-02,-2.061267888329437878e-04,1.240831297910075914e-03,1.300238371265042094e-04,3.590575754642486572e-01
3.146702513224773901e-01,3.079715059627490814e-01,-2.534990415764284966e-02,-4.221106910651057026e-04,3.995081348570345484e-03,-3.605978899703268076e-04,3.367932140827178955e-01
2.885645868599366337e-01,3.092145138323303399e-01,-1.079086886168517667e-02,4.015246542031961942e-03,4.734480811186086947e-04,-1.531250070223348246e-03,3.102867305278778076e-01
3.143325743943766182e-01,3.343532979591608001e-01,-2.104130717028834807e-02,-4.424286346272549714e-02,-3.017533560381496088e-02,-1.457133230991185593e-02,3.589314818382263184e-01
2.615352198764637204e-01,3.401230401838638562e-01,-1.516110217101918067e-02,-4.952515950074284218e-02,-3.420299768445063393e-02,-8.823208009866956997e-03,3.399752378463745117e-01
2.983165182843683372e-01,3.139418091210675055e-01,-1.621235648291449727e-02,3.158581959383126910e-03,3.174585044423790985e-04,-3.739890823096208433e-03,3.227373063564300537e-01
3.124330017359942535e-01,3.285807332456711638e-01,-2.733981787694828025e-02,-1.965555173794827394e-03,-8.618379433283390734e-03,-5.980844408937072490e-03,3.486181497573852539e-01
3.083519963623957416e-01,3.281803815177133932e-01,-3.265950164972031278e-02,-3.923598766027589814e-03,-2.249300178434189817e-03,-3.771257019849295466e-03,3.514935970306396484e-01
3.267178998097560738e-01,3.198982138827190513e-01,-3.410175436561041495e-02,6.590402649262697837e-04,3.125644173468600934e-03,-2.131583642574176856e-03,3.575204908847808838e-01
3.041742198319117296e-01,3.040719428860940710e-01,-1.897568654071876693e-02,-3.861806839313516176e-02,-1.235046312071493881e-02,-1.238413367079148342e-02,3.313375711441040039e-01
3.191414169880881779e-01,3.222024449329153883e-01,-3.074770412396707342e-02,2.128431112174257369e-03,3.022259746497273514e-03,-2.385189021485073935e-03,3.515122234821319580e-01
3.225866701647453483e-01,3.256460786407245345e-01,-3.384936805736754595e-02,2.298039913936240366e-04,-3.090834226617886552e-03,-3.652564119717621304e-03,3.580716848373413086e-01
3.160721242069152725e-01,3.354984986619150567e-01,-2.136066161096894511e-02,-1.176638962353335031e-02,-1.239712253660555166e-02,-2.770156357826685564e-03,3.488449454307556152e-01
3.010676192736797541e-01,3.315954234284919644e-01,-2.835607282509500227e-02,-8.377455514802397557e-03,-6.647931450066489438e-03,-9.515275984309751883e-03,3.465880155563354492e-01
3.153267773712237210e-01,3.467487631781803747e-01,-2.870075834253127400e-02,-9.411333717569267052e-03,-1.936825222003022914e-02,-1.369233136350819953e-02,3.634636998176574707e-01
3.196409741431024409e-01,3.187442658716542199e-01,-3.349755999755071878e-02,-1.929637716850135781e-03,-2.531046467533343541e-03,-3.440476751284033720e-03,3.527844548225402832e-01
3.083833838557664131e-01,3.216396110689750953e-01,-3.014192902345844138e-02,-1.285535063894055387e-03,-7.872185208429824041e-03,-6.801500332831085863e-03,3.458212614059448242e-01
3.195771112302723815e-01,3.285131663783185108e-01,-2.700349555821279779e-02,-4.598629335680384442e-03,-9.304928321707889999e-03,-5.370550190218005386e-03,3.517168462276458740e-01
3.589461539987263694e-01,3.694261604682961830e-01,3.420851256232632087e-02,-2.190571068353523027e-02,-2.705761617397950142e-03,-1.637046835403908537e-02,3.335163295269012451e-01
3.444737575633142757e-01,3.448294894371345398e-01,4.880442284403291309e-02,-6.368272094084231200e-03,-1.269665960212287836e-02,1.282313479877547450e-02,2.976982295513153076e-01
2.650501280447961627e-01,3.722488369694386678e-01,5.212285794797363869e-02,-1.705172600674584316e-02,-4.402060870974337792e-02,-1.491432558984182553e-02,2.949714362621307373e-01
3.740809250860737678e-01,3.829073308193934322e-01,4.745257325431326278e-02,1.008673191648411585e-02,-2.197747060994632157e-02,-2.442235383287627917e-02,3.364380300045013428e-01
3.296154664584352023e-01,3.547598086014010499e-01,4.868740260266499198e-02,-1.434824691468431640e-02,-6.729428094609726926e-04,-1.597765450080335797e-02,2.966502904891967773e-01
3.473841288878212752e-01,3.635619704051009649e-01,5.249198317463907304e-02,3.403528865499783236e-03,-7.618075006400300622e-03,-8.769988600671197940e-03,3.040286302566528320e-01
3.199461827642935963e-01,2.725690161438575898e-01,-1.422537740468376999e-02,-3.247966966208989253e-02,1.569657831157524400e-02,9.701333915819516929e-03,3.197958767414093018e-01
3.264253140326210945e-01,2.703228968189983483e-01,-1.429754045126460649e-02,-7.867167776105858656e-02,7.033465131545791650e-03,2.353284722134524679e-02,3.471334874629974365e-01
3.221943537737400609e-01,2.275614144162416141e-01,-1.488711051318475365e-02,-6.234135782774873069e-02,1.070071415892655600e-02,1.226419008746742340e-02,3.211454153060913086e-01
2.003033636609635182e-01,3.735161918129027425e-01,-1.689647986779213573e-02,4.944509117316791408e-03,1.812529069395059367e-02,2.809801618463670693e-03,3.404157161712646484e-01
1.065110584695842383e-01,4.524878494277005947e-01,-8.319451396375021623e-02,-2.570302501971385989e-02,4.330908983304911780e-02,-1.092389942211503991e-02,4.788411259651184082e-01
2.645145675377664207e-01,3.247965068734658400e-01,-8.770716013759283225e-03,-8.035367897605127235e-03,5.613308570555826122e-04,-2.765686324007098768e-03,3.082377612590789795e-01
9.870073726041586615e-02,5.144987902726478879e-01,-2.549203902759358820e-02,5.003610045649641534e-03,2.246424500855674286e-02,1.268995118647984165e-02,4.919584691524505615e-01
9.709653968365361543e-02,4.099144085635759160e-01,-2.069613447549073504e-02,-7.087754867368876999e-02,3.281977320285540956e-02,1.006342475052560137e-02,4.088812768459320068e-01
1.620773382478795099e-01,4.097507390460722321e-01,-1.576634505763979677e-02,-6.207421938384786834e-03,1.861504756414738768e-02,1.802518831347866548e-03,3.717291355133056641e-01
2.669923742535779687e-01,3.227345547182355334e-01,-9.365069616830951071e-03,-7.983521012088571830e-03,5.300802228022656170e-04,2.383023277459195548e-03,3.083739280700683594e-01
2.888922456272247086e-01,3.100823253251085987e-01,-1.039934730600361457e-02,-4.677814080009871749e-03,-5.514068684320336949e-04,-1.912708608107853946e-03,3.105543851852416992e-01
2.699079456356118234e-01,3.946446042874856008e-01,-1.728274497184884018e-02,4.499808935905367201e-03,4.676023438164708668e-02,1.661894570825007966e-02,3.759119510650634766e-01
2.686980812847676314e-01,3.044587059240642102e-01,-1.109538488473080231e-02,-5.091044605104742826e-02,-1.243096555289469746e-03,-1.275879230754571256e-02,3.127897381782531738e-01
2.157898968211426904e-01,4.042421514921362147e-01,-2.999803419368135549e-02,-5.076314916513527398e-02,4.679403467942819944e-02,1.394698334131213441e-02,3.963944315910339355e-01
2.092537570784060719e-01,3.967516154458040623e-01,-1.641228168783245844e-02,-6.065499187352706156e-02,2.579677353649613078e-02,7.027233530944576416e-03,3.762634098529815674e-01
2.978065958859789086e-01,3.100565942733472524e-01,-1.715888497634682208e-02,-3.680819279831643205e-03,-3.058967134163655338e-04,-6.767972387322120260e-03,3.215431272983551025e-01
2.461043207047829973e-01,3.442560560462181174e-01,-9.144423309717042425e-03,-7.719954509173187346e-03,1.156818849016964801e-04,2.841743484979748074e-03,3.162939250469207764e-01
4.474678993676569072e-01,2.353644242481519600e-01,-2.505834361337000438e-03,-1.055777669348705317e-01,-1.264597613987982275e-02,4.506069250655463099e-02,4.382173120975494385e-01
4.046466747898622707e-01,1.795538538318081079e-01,-1.437989159500771552e-02,-5.535793739628735999e-02,1.041566427224955085e-02,1.914451309219775132e-02,3.775561749935150146e-01
3.253243770428640991e-01,3.018694700711067602e-01,-2.717268974669076465e-02,-2.424803752906001548e-03,7.562524254809490504e-03,-3.485654950431322000e-04,3.416520357131958008e-01
4.405930870363040652e-01,1.666338630591608361e-01,-1.044961233304830817e-01,-1.572573028582530952e-01,-6.483942744017126905e-03,-1.903230645483026950e-02,5.461190938949584961e-01
3.589086129616864129e-01,2.387518794256917876e-01,-1.275258295314085633e-02,-5.032834322208917105e-02,-2.273301234831516787e-03,3.484136890454891770e-03,3.399453461170196533e-01
2.821682702545846855e-01,3.351450782967170805e-01,-2.262484279983700830e-02,-1.871517747592892425e-02,-1.745029641376952267e-02,-1.630576638190230770e-02,3.385473191738128662e-01
3.510269599356972692e-01,2.319254524592852806e-01,-1.946399680517243991e-02,-1.062164262081887744e-01,3.975398344419026064e-03,2.128718415359350316e-02,3.775914609432220459e-01
3.907363368579620522e-01,2.482588779597401651e-01,-2.529841898034962400e-02,-3.068603959228909800e-02,2.128437236415856026e-02,4.145087782413135052e-02,3.787448704242706299e-01
3.835928889967618050e-01,2.395819574376860661e-01,-2.742943370924930124e-02,-7.338100534057910920e-03,-1.679980677047020416e-03,2.931334228228995795e-02,3.650131821632385254e-01
5.088757084218552551e-01,1.360717703722849614e-01,-2.544227118872016691e-02,-6.580442316291515437e-02,-9.503476199405154132e-03,3.015886336594943151e-02,4.911954104900360107e-01
2.477086938317586140e-01,3.586625863554461224e-01,-1.515362882981610704e-02,3.273179119004207722e-03,2.739253879039947256e-02,-5.504868246942624770e-03,3.360759913921356201e-01
3.212468663766339105e-01,3.401304893046716571e-01,-7.419368808356641143e-03,2.045363944298611222e-03,-6.117567889033082365e-03,-5.121570429975926160e-03,3.388037979602813721e-01
2.090626569748278707e-01,3.653246317540669308e-01,-9.080549653028180401e-03,-2.675347270441650639e-03,4.336107119194132498e-04,1.928541841437034828e-03,3.257682323455810547e-01
2.944675645225257599e-01,3.433269015683766967e-01,-2.913085958319103219e-02,-3.360822338610193992e-03,1.862620094315058095e-02,-3.496346782835359039e-03,3.521723151206970215e-01
3.187260451150978335e-01,3.321119604079054710e-01,-2.738152969005103188e-02,-8.997164297226138870e-04,2.017853497906283051e-03,4.228118784952805340e-03,3.530876338481903076e-01
1.239063109238252025e-01,3.835801203357596667e-01,-8.889644994733131300e-02,1.748462679645159945e-01,-2.451174922564224035e-02,3.343036131914417508e-02,5.146296620368957520e-01
3.271523945611393147e-01,3.284294048501419927e-01,1.096763170184350544e-02,-1.294256987431439271e-03,7.270532268626792374e-03,-6.045611739086439833e-03,3.172561526298522949e-01
3.200416042235482705e-01,3.282483902757646343e-01,-3.113608947537951921e-02,-7.227071240814193082e-03,1.184371565866917768e-02,7.659059832948521968e-03,3.564108014106750488e-01
2.218014373053418531e-01,3.597085314364131259e-01,-6.900251633982862343e-03,5.198325656373898110e-03,-2.767099858285560865e-04,6.365687672276680153e-04,3.208503127098083496e-01
2.935187429622390098e-01,3.585562392674335186e-01,-2.277123464224087290e-02,6.927877602723243530e-03,9.568660843321710741e-03,1.094410874602784380e-03,3.539239764213562012e-01
3.105694839882496283e-01,3.334647145986219807e-01,-2.477027346861404578e-02,1.852325816900118015e-03,2.721055972290613040e-03,-1.137292329561224048e-04,3.474005758762359619e-01
2.603459686490425251e-01,3.447239148243064211e-01,-1.585246114173602394e-02,6.861395171998145928e-03,3.902420330988823675e-04,9.508589066688232644e-03,3.272967934608459473e-01
3.075842708704612516e-01,3.298365844596390928e-01,-2.183335321929127937e-02,-5.806595307266703733e-03,1.388453238344468290e-03,-3.034703731801912502e-04,3.412457406520843506e-01
2.841207058656784468e-01,3.396858490074052273e-01,-2.248694665049380537e-02,-3.492993534582237991e-02,2.059345512186255486e-02,6.654992662911005802e-03,3.452504575252532959e-01
3.282196938729213254e-01,3.402106800870425274e-01,-4.621451845034624251e-03,-2.103579623316230614e-03,-2.147502901188697369e-03,-7.380052916870898441e-03,3.392766118049621582e-01
2.592889448930429386e-01,3.235764452712219796e-01,-9.739527247101420482e-03,7.021914412326283120e-03,2.370348401764622642e-04,2.626993605746421982e-03,3.065504133701324463e-01
3.008962558373946550e-01,2.996251259381879639e-01,-1.324121587512686049e-02,9.627695960938169664e-03,2.593182583146430315e-03,-2.346251040202908429e-03,3.140054643154144287e-01
3.485336566929949642e-01,3.587403389962252609e-01,-1.463279546854873159e-02,1.499812669017131228e-01,2.048899917576675611e-02,-3.481844343611073533e-02,4.561581909656524658e-01
3.014468879811365021e-01,3.018530208597883235e-01,-1.678693936029138079e-02,-1.880468864596541436e-04,-6.900786367602983543e-04,3.529814320639745374e-04,3.184400796890258789e-01
3.174727942817393567e-01,3.063365201244689917e-01,-2.326546747114802138e-02,1.613387834390699396e-02,1.304101194602832157e-02,-9.115662773841877800e-03,3.375980257987976074e-01
3.265013567788608295e-01,3.270075843289707573e-01,-1.040697721577443779e-02,-1.976141449955511487e-03,2.186962236776653166e-03,-3.576808058348573700e-03,3.372572958469390869e-01
3.195117522850557945e-01,3.438343765505967875e-01,-2.020793440533477647e-02,-4.973667525772027670e-04,1.425478069010428263e-02,-1.656904273856627105e-03,3.533871769905090332e-01
3.026981776811699110e-01,3.021745121123582956e-01,-1.696450858228668035e-02,1.996345247848145717e-03,-2.942440761127613786e-03,8.987703586861350629e-04,3.194643259048461914e-01
2.969638081595175061e-01,2.993560377351269786e-01,-1.113612113093367939e-02,1.338387293494173319e-03,-4.575628386080193518e-04,-1.239795168118085179e-04,3.093127608299255371e-01
3.296331011145369194e-01,3.261352729368183212e-01,-2.247379725491691072e-02,-9.175115914247997367e-04,4.957859871542682866e-03,-6.609791380845519461e-03,3.506668210029602051e-01
3.299174507551533297e-01,3.238891770216342225e-01,-2.885487298780045617e-02,-4.272669807307353769e-04,4.607214552184197448e-04,2.084281533277672349e-04,3.557983338832855225e-01
2.978213427418860415e-01,3.330134019840035320e-01,-2.364140986968399361e-02,1.154353371681433003e-02,2.413362386620648370e-04,-6.864296811033667508e-04,3.410147726535797119e-01
3.258657344346811979e-01,3.282817279093158125e-01,-2.523186604495852858e-02,-2.207973210509378819e-03,3.715008231283554920e-03,-2.107674762063822555e-03,3.524102270603179932e-01
2.558427902808716459e-01,3.268250481725726297e-01,-1.739193857838208790e-02,-1.796009640586075998e-02,-9.011939415110867616e-03,-8.177564763893960254e-03,3.170212507247924805e-01
3.309946869655751023e-01,3.185266364899619895e-01,-1.020375207349288882e-02,4.161969064342224862e-03,9.931833405863038644e-03,-9.891894190491879249e-03,3.360940217971801758e-01
2.946938511318437648e-01,3.401007945349034944e-01,-2.842345399564918940e-02,1.829069301516313487e-02,1.172810914073205667e-02,-1.219974908147104797e-02,3.507151901721954346e-01
2.978448028502651557e-01,3.081621784794290608e-01,-1.692016550896260907e-02,1.595902473012778856e-03,-9.696497274869543027e-04,4.159929234405720239e-03,3.201458454132080078e-01
2.961226351772108245e-01,3.370993007236943173e-01,-2.784965367767727740e-02,1.023302168563181014e-02,-1.343139954876631549e-02,1.227767156613802924e-02,3.481666445732116699e-01
3.226498711771290662e-01,3.107534239391808728e-01,-3.203212625198806340e-02,4.579592582265964995e-03,6.660887966788878005e-03,-5.700181319480670562e-03,3.493062853813171387e-01
3.682622486167120290e-01,3.021309839769710237e-01,-2.885774623874887146e-02,1.558356868595914962e-02,-2.166750068468293374e-03,-1.452225817982421251e-02,3.703928887844085693e-01
3.252888871471940613e-01,3.238386884354369499e-01,-3.487412568957976022e-02,-8.589119778186439427e-04,-1.158869650506318821e-03,1.687025290648721003e-03,3.594606816768646240e-01
2.918357199299034255e-01,3.115772248306368786e-01,-2.671055996602089699e-02,7.689501643771620709e-02,1.786888487173370066e-02,-1.838751517377907110e-02,3.575762510299682617e-01
3.213215370441943053e-01,3.294805292232954597e-01,-3.172409101451689750e-02,6.320576517753075498e-04,7.042029771134617096e-03,-6.414892306348520500e-03,3.575775623321533203e-01
2.971555635246988514e-01,2.992769637175328734e-01,-1.052117383097339598e-02,-2.134298719011892310e-03,-3.381713405854089543e-04,-1.137263949830078207e-03,3.087718784809112549e-01
3.143367646140746707e-01,2.938227734929217405e-01,-1.508711774092255653e-02,1.624667056134459706e-02,6.500533548740428276e-03,-6.888445631147139744e-03,3.213162124156951904e-01
3.171773985942550889e-01,3.292866972830692518e-01,-3.916128314951125566e-02,2.245303660359715056e-02,1.330949085726687402e-02,-1.065554722941820104e-02,3.658187687397003174e-01
2.957414034911046707e-01,3.206570766102215808e-01,-2.967937200377826490e-02,1.698895472326172884e-02,1.223976887771036776e-02,-9.599951540723333093e-03,3.409095704555511475e-01
3.801960412473043283e-01,2.841151795742614117e-01,-4.786474855627342873e-02,-3.427795200481531523e-02,-4.456039191584612938e-03,-2.139786936944093262e-02,3.953444361686706543e-01
3.569216919535653787e-01,3.208356395190277710e-01,-3.531819665339308578e-02,-3.368614594188897027e-02,-4.018475073077048404e-03,-3.033357004707506674e-02,3.836835026741027832e-01
3.371021167110764827e-01,3.206271596946522751e-01,-1.032580181642120398e-02,-2.113870142809954125e-02,-1.475206332047634787e-02,-3.776532345358415456e-03,3.424761593341827393e-01
3.277346176321754845e-01,3.266423642699071705e-01,-2.026034821652039630e-02,2.023296969398293791e-03,-1.083658931953894629e-03,-8.708411044856469337e-04,3.474761545658111572e-01
3.292803467343463630e-01,3.197793780370528083e-01,-2.356172689222643668e-02,-7.789272565935697473e-03,-7.193409923316705645e-03,-6.321200964910461337e-03,3.488446474075317383e-01
2.900771396492795029e-01,3.136173875916480891e-01,-2.317627530249563583e-02,-1.849374492368793810e-02,-5.403688143683296405e-03,-5.390866141458007001e-03,3.275007605552673340e-01
3.372054271005936465e-01,3.253299380404132135e-01,-1.713336644717206037e-03,-1.032481962239605727e-02,-1.508376291725694457e-03,7.536661959967235966e-03,3.338849544525146484e-01
3.242427378309868935e-01,3.257051113552082988e-01,3.430657974672046695e-02,-8.474556567509340145e-04,4.512419998141354118e-04,-3.304366829232301735e-03,2.907311916351318359e-01
3.031598234519752855e-01,3.249180779063844393e-01,-2.641454325193692831e-02,-2.330703728380963125e-03,-6.892952909377247916e-04,-7.168730402093843358e-03,3.412265181541442871e-01
3.182130827531428063e-01,3.209649349180766498e-01,-3.165066840550800897e-02,-1.054942512335627384e-03,-5.557105041812045480e-04,-9.773872021321533464e-06,3.512538373470306396e-01
3.301145120374411324e-01,3.197854665273240915e-01,-3.100692754142844731e-02,2.848217951439746109e-03,1.049110974516425038e-03,-5.624392486432963981e-03,3.562413156032562256e-01
3.225821312368389870e-01,3.263919513920743309e-01,-3.416489399652167247e-02,1.967761356102515043e-04,-1.204502561769236688e-04,-1.266402078199491393e-03,3.586740493774414062e-01
2.472580498309172037e-01,3.286439530680966836e-01,-7.766195132792919065e-03,-1.676871463393860007e-02,-3.362007463271999945e-03,-3.819585003181373908e-03,3.055121302604675293e-01
3.537556833504276188e-01,2.822879216735147967e-01,-3.952673832613712301e-02,-2.467253254509190266e-02,-2.956000842489217573e-03,-1.852421273060735757e-02,3.668154180049896240e-01
3.384399727517142242e-01,2.756967029373157407e-01,-2.548527588775661989e-02,-2.176847719305227691e-02,-1.574586256697605574e-02,-3.505001938671499506e-02,3.455363214015960693e-01
2.948340761167435597e-01,3.088070391610342469e-01,-1.891593966850152464e-02,-5.594153132876372725e-02,2.621931989424532497e-02,1.397252001219400318e-02,3.391972184181213379e-01
3.790273933290024821e-01,1.653866123225022633e-01,-8.769124169952791092e-03,5.118351920738369379e-03,1.375094067798733957e-03,3.841754165537681395e-03,3.366124033927917480e-01
3.205311540288772743e-01,3.610839103585494758e-01,7.194673012611813023e-03,-4.308402759385207559e-02,1.599764737011466487e-02,-1.469184331984845545e-03,3.447809219360351562e-01
3.368520568507443746e-01,3.407499832152839359e-01,6.884485782981231150e-03,2.267454236876439381e-03,1.306038301615251038e-03,1.271043545471743424e-03,3.319719433784484863e-01
3.353118026639878568e-01,3.339966398042868434e-01,-5.841401077368635342e-03,-1.439258709869068158e-03,-6.974222291456926058e-04,-4.877441698181825443e-03,3.406135737895965576e-01
2.715949903054005188e-01,3.160201717461151305e-01,-1.940268576846446158e-02,-5.471659415962003281e-02,2.384124554069058655e-02,1.603240593138091641e-02,3.332250118255615234e-01
3.521445194237351473e-01,2.930706281751535025e-01,-2.370615228292022314e-02,9.581897367099388024e-03,-1.160328021023289066e-02,1.518705740871415140e-02,3.520252406597137451e-01
3.413633598998632168e-01,2.676943577651538231e-01,-2.257468230128245601e-02,9.123680573815861478e-03,-8.292236841013900586e-03,9.078314154319621840e-03,3.343206942081451416e-01
3.497187654285729419e-01,2.671018730990703527e-01,-2.050213290420382917e-02,9.158729134038841660e-03,-2.397618271045019993e-03,8.192121330273850061e-03,3.373022377490997314e-01
3.512594536761967090e-01,2.186714299002995576e-01,-1.529795539590897424e-02,2.541765572979617915e-02,-2.242970812048931083e-03,3.190412681213694937e-03,3.245405852794647217e-01
3.326795273275787723e-01,2.592347410495597360e-01,-1.403115333722038116e-02,1.434774477215093255e-02,-7.775543552094610691e-03,1.127579047857161891e-02,3.183060288429260254e-01
3.342220836795336547e-01,2.596364850471395425e-01,-1.410758975219558731e-02,2.708011843073957620e-02,-3.114160122437370504e-03,1.112930727670748479e-02,3.217403888702392578e-01
3.273584861569233118e-01,3.286479450782447409e-01,-6.160285284544375628e-03,1.293416764234783670e-04,-4.489832914162808844e-04,3.354529447132966261e-03,3.342168629169464111e-01
3.428453808394537616e-01,2.440717708292045318e-01,-1.079974106402945000e-02,-8.624189308959199357e-03,-1.550163967353638617e-03,4.904146502230121493e-04,3.164195716381072998e-01
2.144366886812038020e-01,3.461462183791523817e-01,-7.750194638309254591e-03,1.867561791763499429e-02,1.081791974492339820e-03,-3.750962384225522105e-03,3.115615546703338623e-01
2.675043336212635237e-01,3.387402187811954235e-01,-1.685274277662632270e-02,-4.453236050361759207e-03,3.733679795702762308e-04,6.754107359862165753e-03,3.261697292327880859e-01
3.302270892617569231e-01,3.277634256004195445e-01,-8.899185601403097889e-03,-3.728203276648440513e-03,-1.041908357281085820e-03,5.328370220399013951e-03,3.380936682224273682e-01
2.524531215145470187e-01,3.502347295734096200e-01,-1.987854669089367254e-02,2.229630532435719018e-03,-4.549328285472151721e-04,-1.468424690521859277e-04,3.322204351425170898e-01
3.401626320154139682e-01,3.152217554738034333e-01,-1.276677027165756817e-02,-4.870787248194490687e-03,-3.860405723405965252e-03,-4.143825713599610244e-03,3.413887023925781250e-01
3.343676255915588591e-01,3.134042014288466738e-01,-2.916441468484867738e-02,-1.253596252780125224e-03,3.546511250187819918e-04,1.674193279257014033e-03,3.535358905792236328e-01
2.957217297129213773e-01,3.346316839642217156e-01,-2.709521487195359901e-02,-1.771179952098730481e-03,4.168732287998903885e-04,6.937941546163325923e-03,3.441509902477264404e-01
3.324450370723545101e-01,4.753212365827477193e-01,3.715268200071192295e-02,8.480809702085960466e-02,7.563135220037672801e-02,-3.911638572774651934e-02,4.394647479057312012e-01
3.441231767562593635e-01,3.152709190405836859e-01,-3.177845984028399018e-02,6.525853373777584484e-04,-1.734065843537546474e-04,5.099879773612442206e-03,3.624476194381713867e-01
3.464297400454499076e-01,3.151965427186081969e-01,-1.161565611285969579e-03,2.520475293785604670e-03,8.819599984857987712e-03,3.556878103555493036e-03,3.335104286670684814e-01
2.412158861279672939e-01,3.452723389713018287e-01,-1.655724018808732434e-02,-4.830227490604856525e-03,-1.051371850679040307e-02,-6.393240008007708766e-03,3.234530985355377197e-01
3.389165030395953071e-01,3.164395746238243823e-01,-2.613926172884978305e-02,-9.731644264779756512e-04,5.375350995137111697e-03,5.336190871846107665e-03,3.545991182327270508e-01
3.610287186364670164e-01,2.784707520194639740e-01,-1.283586430303274017e-02,5.142373331702070755e-03,-3.566986594850606995e-03,1.900705618396278732e-02,3.419449627399444580e-01
3.516632250249973612e-01,2.375048322374725962e-01,-1.891022810340939331e-02,9.880839953856166563e-04,-5.016963212297903367e-03,2.865680365553600960e-04,3.288334608078002930e-01
3.306854044573540596e-01,3.333353840161323300e-01,-1.122917116732669029e-02,2.513863955486081718e-04,-3.656671783375241638e-03,2.396158987454262684e-04,3.433061838150024414e-01
3.090872871389739873e-01,2.949091425059440219e-01,-1.641854519201829676e-02,3.397027418815013432e-03,4.213164141086248732e-03,-7.994882649136403948e-04,3.187942802906036377e-01
2.289029621252101632e-01,3.552598459880310089e-01,-1.688435359575252148e-02,-1.599482424525995247e-02,-5.136166026397663738e-03,-7.022372542513079414e-03,3.292855322360992432e-01
3.425217975760068700e-01,2.102991752878010934e-01,-2.707578743258992615e-02,5.683683152807131322e-02,-1.284963493554052739e-03,1.398138292992588856e-02,3.398509919643402100e-01
3.144387784751732640e-01,3.003516647030192166e-01,-1.645720921380794399e-02,2.289421813980968383e-03,-3.050171998354704421e-03,3.476364598230087880e-04,3.241499960422515869e-01
3.385806318922786051e-01,2.658644389224746329e-01,-1.992648615415226754e-02,3.159662718012763022e-02,-1.119866637368693851e-02,1.009040912978337139e-02,3.338000178337097168e-01
3.167664648270133720e-01,3.206356401307226545e-01,-2.347689510801620472e-02,7.785786503246865456e-03,-2.400303795352173777e-03,3.679428939885240595e-03,3.425444960594177246e-01
3.420499370062222155e-01,2.843115494378310459e-01,-2.540438205548484207e-02,2.549056777840855159e-02,-2.175336710963635470e-02,2.703863076684891870e-02,3.502889871597290039e-01
1.967922268047042900e-01,4.758214793718540947e-01,1.196188533432016032e-02,4.267249971457925950e-02,-4.091186282407411473e-02,4.097133666464876367e-02,4.232171773910522461e-01
3.590241887008310817e-01,2.735732680722312571e-01,-3.939459973100103984e-02,6.671172646020420705e-02,-1.972954242516109652e-02,3.830493040932350657e-02,3.884778916835784912e-01
3.167744127655262032e-01,2.967687668341539853e-01,-2.277336024239101642e-02,1.641106867180371076e-02,-7.463717240759139976e-03,7.770493594037275811e-03,3.317472934722900391e-01
3.386978122151268478e-01,2.900918921257921168e-01,-2.867822285348881062e-02,8.766988450632829527e-03,-5.703671444943392461e-03,7.733304654621049080e-03,3.463793098926544189e-01
3.317061650438955511e-01,3.151465461448380023e-01,-3.222184446224146681e-02,1.681097533182874040e-03,-4.571423437600576241e-03,3.868883813462311444e-03,3.561002314090728760e-01
3.350222365535530655e-01,3.160349423227756249e-01,-2.381769351872042861e-02,1.565899581839170314e-03,-4.774881516785693149e-04,4.443206137465079142e-03,3.498292267322540283e-01
3.158826527336664469e-01,3.392072212837607958e-01,-3.700042763475455687e-02,4.662798965608071916e-03,-8.321041528453499217e-03,-1.093692575854829157e-03,3.654830753803253174e-01
1.533178279809132016e-01,4.658152654928520153e-01,-9.040051524735104316e-02,1.207713111742827472e-01,3.519376275045976027e-02,-4.486025756138626794e-03,5.298565030097961426e-01
3.148316258149934099e-01,3.007002776371319186e-01,-2.599542709040328359e-02,2.476665685412858271e-03,-7.265095087103639465e-03,5.484991832021554126e-04,3.342515230178833008e-01
3.233024851423820234e-01,3.356248585674075358e-01,-2.867407408911329392e-02,-6.558197191713992756e-04,-2.876084557789165656e-03,4.102141426403186318e-03,3.584035634994506836e-01
2.871315900180765324e-01,3.388549141602282821e-01,-2.584315954482285793e-02,7.716564853857195427e-03,-1.389517772844950719e-02,7.136610500405554496e-03,3.431140482425689697e-01
3.166988390611453763e-01,3.339149051195354767e-01,-9.531172982325891718e-03,2.670801789448625386e-03,-2.667106408274141498e-05,-7.132548854524560110e-04,3.352040350437164307e-01
2.989584228979177416e-01,2.991470579847821387e-01,-9.621036036670055358e-03,-1.016734680196317714e-02,-1.275071827372919434e-04,5.389505704056101777e-04,3.091772496700286865e-01
2.522838176189602377e-01,3.413465604797611963e-01,-2.635609664820628972e-02,3.953470431638020366e-02,-3.182935735336499955e-02,1.538972748800834268e-02,3.447138667106628418e-01
3.172247376455942236e-01,3.344456995818197997e-01,-1.873663192919469700e-02,3.980059432428156851e-03,-1.428564718927045505e-03,1.655768405729333764e-03,3.449841439723968506e-01
3.265471124388297786e-01,3.293901845669245931e-01,-2.908722214796830019e-02,2.160191140768163726e-04,-3.608885501053258824e-03,2.641904331151647377e-03,3.571485877037048340e-01
4.383115786002104164e-01,1.584035609872610495e-01,-9.544442670658170869e-02,-1.658625627531861713e-01,-1.485290021129605231e-03,1.894221492554344285e-02,5.453948974609375000e-01
3.037797460767331925e-01,3.305323384286416033e-01,-2.695400656899069047e-02,7.455181210877511594e-03,-9.642461993066940920e-03,1.093604316409433307e-02,3.460534214973449707e-01
3.193125394118798699e-01,3.270787667650720265e-01,-3.343726433407914755e-02,1.035153843134512973e-03,-2.774240056156523308e-03,3.651722545358367447e-03,3.567892611026763916e-01
3.048027600219714861e-01,3.224412215628545408e-01,-2.362560318153777983e-02,1.138985021397653785e-02,-6.889105634338957632e-03,5.663122948226450952e-03,3.385218679904937744e-01
2.872755711989969929e-01,3.101428097022835284e-01,-1.031839345091145610e-02,4.254332139672351368e-03,-1.691768765609139632e-04,1.646740907250889268e-03,3.097624182701110840e-01
3.238963196450341808e-01,3.218317449151436582e-01,-2.481700377777687483e-02,4.398383118393237555e-03,-2.351976500511871512e-03,9.935658434232770390e-04,3.477972149848937988e-01
3.090088427322389419e-01,2.870910652607320812e-01,-8.661388337150965899e-03,-3.691126598604404195e-03,-2.766480761770331257e-03,-9.919565147946509190e-04,3.074067831039428711e-01
3.101733713817056981e-01,3.082794202253388294e-01,-2.443222491754770687e-02,6.118621135386535619e-03,-3.833734945041388127e-03,3.262364649538061594e-03,3.339447677135467529e-01
3.188283867604744248e-01,3.238828364688878247e-01,-3.353421088393429561e-02,2.214650269099439212e-03,-2.821999400493574450e-03,2.989186100373589661e-03,3.550089597702026367e-01
2.763079740745250645e-01,3.414285911748614621e-01,-1.905978302649882772e-02,-3.883592360244080173e-03,-5.234543037903973718e-04,-4.942795007029485328e-03,3.329214751720428467e-01
3.076348868563835715e-01,2.871916012718860323e-01,-1.033012129986624061e-02,-4.068633835313996243e-03,-1.254523858665779982e-03,-6.093077785776263196e-04,3.083422183990478516e-01
3.201058335780914699e-01,3.230544810318654592e-01,-3.288669196750884649e-02,2.280857509173002656e-03,-4.407727898832473033e-03,3.931825135286746986e-03,3.546456396579742432e-01
3.493129921712420094e-01,2.913060610752860602e-01,-2.792732211608212056e-02,-2.345317152167388473e-03,3.129978589284335036e-04,3.832638525235961035e-04,3.518660962581634521e-01
3.296882311874966831e-01,3.294455239300462246e-01,5.708505680543746186e-02,-7.200618431736446499e-04,1.104638973831828996e-03,-1.010995785067008226e-02,2.730535566806793213e-01
3.134322936031693763e-01,3.010380460246663281e-01,-2.324925129413646374e-02,-1.481220195694100961e-02,-7.496122237597781755e-03,-6.908079761716786130e-03,3.321221172809600830e-01
2.763395782020034996e-01,3.381831745283273571e-01,-1.767827341374186845e-02,-5.024012748424592709e-03,-2.537998326152164720e-05,-5.889669111451303202e-03,3.295967876911163330e-01
3.223686424496033376e-01,3.072804782917121780e-01,-2.585217922134347424e-02,6.698674239246608583e-03,-7.051291124641893490e-03,4.317532301503028067e-03,3.414250612258911133e-01
2.938418524977211566e-01,3.141113175870956509e-01,-2.263471770538844074e-02,-6.370702839709202134e-03,2.899756438872257841e-03,5.275311476429941047e-03,3.274348080158233643e-01
3.187359257335158902e-01,3.229470701703668900e-01,-3.174597739485782166e-02,2.454775531640240481e-04,-5.780112304672306058e-04,-2.587205772617170302e-03,3.526364862918853760e-01
3.372686391105810810e-01,2.757925602697194334e-01,-2.912093741474675035e-02,-5.486673037459331714e-02,1.343383617024991247e-02,1.158933063658171107e-02,3.542200624942779541e-01
3.118988465222521933e-01,3.010597756880608600e-01,-2.155105779277610711e-02,-1.829896238112635118e-02,1.012373558871334546e-02,9.520059092428536165e-03,3.305691480636596680e-01
3.342095794875937775e-01,2.984425001009541889e-01,-2.494663585478251733e-02,-1.771659480548747403e-02,8.501055681990154003e-03,1.783260752799977616e-02,3.457440435886383057e-01
3.191313197038438410e-01,3.103685713054292750e-01,-2.681566513182656597e-02,-1.432492645453352365e-02,1.200976100545562975e-02,1.559609989716698869e-02,3.442421853542327881e-01
3.398264106434176757e-01,3.326833284292202708e-01,-1.328386942942128002e-02,-4.787586302977431263e-03,-3.230635959415788933e-03,-1.059543969909777610e-02,3.502177298069000244e-01
3.232055702841315492e-01,3.266250073914394592e-01,-3.462416905320164773e-02,-9.914830764228501248e-05,2.556088044074771899e-08,-1.025628684008256502e-03,3.595560789108276367e-01
3.125280204390996075e-01,3.078974617561309746e-01,-2.646840539374334389e-02,6.676477292850122730e-03,-5.766636844398275591e-03,4.192088773074141225e-03,3.371297717094421387e-01
3.061203338708630706e-01,3.215379589746968358e-01,-2.941748641282751486e-02,7.658222729631986025e-03,-9.679354221282852541e-03,6.665329474169473002e-03,3.443643748760223389e-01
3.228892961123698280e-01,3.298847564662836795e-01,-3.294580518207479436e-02,3.464155720201310602e-04,5.500295374401687051e-04,-5.907653924394554298e-04,3.593871295452117920e-01
3.277734804089488252e-01,3.270378685976779720e-01,-2.962683041336983125e-03,-7.894412116170113417e-04,2.617829941116438697e-04,-3.535712492263887088e-03,3.304288685321807861e-01
3.290940842232391583e-01,2.890880660245399025e-01,-2.364958255780533203e-02,3.696124190001332660e-03,-8.066998093340585832e-03,6.668771055559994526e-03,3.350915312767028809e-01
3.300692031648865266e-01,3.241394669669502848e-01,-3.359056197373611052e-02,-1.240204535447996448e-03,1.103361726902909144e-03,6.294930328563804432e-04,3.607445657253265381e-01
3.278194846830069231e-01,3.051090035715614546e-01,-2.954302613321319049e-02,4.437891733610447795e-03,-5.326111217208631850e-03,6.194398214274115209e-03,3.469397127628326416e-01
3.100007143469687976e-01,3.272523875599689380e-01,-3.010409275903025428e-02,1.303838779822019678e-02,-7.969386166798245533e-03,6.103919730519986701e-03,3.502121865749359131e-01
2.743780330547181956e-01,3.237801294853781542e-01,-1.608811270009358196e-02,-5.662948439755558470e-03,-5.021246544444110498e-03,-7.176550813849606053e-03,3.185704648494720459e-01
3.166538309212043045e-01,3.329775480272211263e-01,-3.097514407549517568e-02,1.187217339796269857e-04,-2.233626002115914055e-03,1.061069829939655616e-03,3.560974001884460449e-01
3.275644027392541346e-01,3.176202524917481340e-01,-2.945824013297954069e-02,1.649628291620020438e-03,-4.554358162227726582e-03,3.355567237362327114e-03,3.523037433624267578e-01
2.973106441990119864e-01,3.185262361775172968e-01,-2.745236329343272996e-02,2.277138188582477490e-02,-1.636769692432588769e-02,1.645092392946093801e-02,3.405618369579315186e-01
3.254221416966187608e-01,3.223787166014023819e-01,-3.272096300560814464e-02,3.776219318520668972e-03,-9.783469611807434074e-03,4.206371391774110964e-03,3.571677207946777344e-01
3.184039432624936605e-01,3.157251417108796199e-01,-3.219293744857926187e-02,-7.020560288887895285e-04,-5.422310814725580901e-04,-2.863522464976199760e-03,3.493037819862365723e-01
2.912247847580643478e-01,3.394380362710027743e-01,-2.684991969017305746e-02,-6.899840350710816040e-04,1.603395164134172480e-03,-4.744456811385543149e-03,3.448305726051330566e-01
2.990744365560980556e-01,2.943522277255009034e-01,-1.323894607680850544e-02,-1.336704143708800779e-02,4.438236786674498897e-03,3.700927082252914238e-03,3.110038042068481445e-01
2.869385881075989242e-01,2.944094535399631174e-01,-1.458543658717892377e-02,-4.019174971707947797e-02,4.521781239063929134e-03,1.150392961605864635e-02,3.138943910598754883e-01
3.250658133662274185e-01,3.246657251686940193e-01,-3.249615070900285785e-02,-7.033621732227994050e-04,-1.664779385638231763e-03,4.085955276850706478e-04,3.573764860630035400e-01
3.253864348793898964e-01,3.272163436225695166e-01,-3.103986016123827518e-03,-1.475180553390151609e-03,1.434306600924729674e-03,-3.624511862111778632e-03,3.294882774353027344e-01
3.111501093571323318e-01,2.889680695965347601e-01,-1.121200005374595188e-02,-2.058298860481678344e-02,2.797560132661343867e-03,2.505383131097664324e-03,3.139618039131164551e-01
3.172000564682004309e-01,3.010839276293009736e-01,-2.521855308392750850e-02,-2.381311537785431656e-02,7.474112893694438535e-03,1.762749018530439943e-02,3.388107717037200928e-01
3.024615476103509892e-01,3.139339754076722611e-01,-1.982976317441345615e-02,-1.688638251764952233e-02,1.172677266848610837e-02,9.982391596625240712e-03,3.305566608905792236e-01
3.227972480280227874e-01,3.299429510449417013e-01,-3.376770670082554493e-02,-2.480126268468400971e-04,1.330231305873069085e-04,1.333421581679168372e-03,3.601987063884735107e-01
3.150496882756398387e-01,3.321442814021980383e-01,-3.227109763320470948e-02,-3.094037954370312707e-04,-1.832773881186705416e-03,-1.749712173808772118e-03,3.562033176422119141e-01
2.955572506483825079e-01,2.689598444916396769e-01,-2.175942601689062617e-02,-7.156631679248338929e-02,2.301486590562565326e-02,2.068402392984678220e-02,3.334595263004302979e-01
3.175097844973809869e-01,2.788014191387035989e-01,-1.719845022815250091e-02,-2.588612161155978003e-02,6.434727091573831312e-03,6.894764626280783584e-03,3.207008540630340576e-01
3.737824010970209887e-01,1.684796175528203155e-01,-1.016919344529035318e-02,2.151301161067015882e-02,-4.050055592284087548e-03,1.116221100696416189e-02,3.354894220829010010e-01
2.897288865388994439e-01,3.261029631145768715e-01,-2.426875767960773311e-02,4.036331244620348924e-03,-7.096368264187213372e-03,8.941025239035716582e-03,3.343332707881927490e-01
3.701366082332705476e-01,2.028897200024891434e-01,-1.044494720550251388e-02,2.498892352233428142e-03,-1.645285237062037772e-04,-5.223422872461565801e-03,3.305501937866210938e-01
3.296731972921314036e-01,3.225869664263901204e-01,-2.914762114321975406e-02,1.480957784501100885e-04,2.733598921586496196e-04,2.165015164647916346e-04,3.553313016891479492e-01
3.732579109139105289e-01,2.033499036698664941e-01,-1.118874052437610067e-02,8.370989965293239993e-04,2.317063128235891806e-03,-5.506593283349679388e-03,3.338511288166046143e-01
3.684694388591322478e-01,2.174160428925739075e-01,-1.249112798436757821e-02,8.357432629483180567e-03,5.670314680554476572e-04,-1.035095998937913576e-02,3.330684900283813477e-01
3.652083402162801251e-01,2.162211500944898890e-01,-9.059995339868981423e-03,1.484840454007359603e-02,4.397395433475640922e-03,-6.859656772110196525e-03,3.276787698268890381e-01
3.090139694786338542e-01,3.136136082185860818e-01,-2.535554851399909881e-02,1.160983519706621468e-03,8.088666940813088024e-04,-3.354121239061163065e-03,3.367519378662109375e-01
3.711507542146820771e-01,2.135968033978160596e-01,-8.316101388751023782e-03,-2.012948673846869877e-03,-2.837932374557449334e-03,1.844921099436567071e-03,3.302701413631439209e-01
3.247871335289430617e-01,3.296574425861044100e-01,3.864022293145041864e-02,-1.304900666112983245e-03,6.708970588329832632e-03,1.989850416984362551e-04,2.888557612895965576e-01
3.262524502126546988e-01,3.255176100705223785e-01,1.635129692853454220e-02,-3.540711095890834541e-03,-4.255431811195984140e-03,-8.630913682489348496e-03,3.100434541702270508e-01
3.182578183742585387e-01,3.392751592870429378e-01,-2.911587424553072068e-02,1.626303467646681919e-02,1.021594629385784436e-02,-1.138072753961997911e-02,3.604250252246856689e-01
3.155188874715306180e-01,3.380248861280851780e-01,-1.162788372187698038e-02,-2.055238507985820973e-03,-2.955501957325699100e-04,6.466089812188738524e-04,3.389815390110015869e-01
3.011751054981262610e-01,3.853790118867609360e-01,-1.660346800493758823e-02,-3.825532831686323521e-03,3.719112176703850969e-02,-8.956439074924434779e-03,3.731833398342132568e-01
3.031107280878560517e-01,3.259589555185141707e-01,-2.589556467177175914e-02,-2.167955720114454234e-03,-6.250121667158972574e-04,-6.394011412188242531e-03,3.412071466445922852e-01
3.195697152846753153e-01,3.438522811271600421e-01,-7.175515721382946799e-03,3.222177818737316339e-03,-4.294216043839995875e-03,-4.071995930155000894e-03,3.397388756275177002e-01
3.107731205547506481e-01,3.156776685926438453e-01,-2.478457112468468448e-02,-2.136567462369113723e-03,-7.871341066916169018e-04,-1.231388810662553126e-04,3.380597233772277832e-01
3.253665266830366720e-01,3.591869254447729309e-01,3.827878701632184133e-02,2.183268191032075589e-02,-2.850008509293719405e-03,-1.740208850386403688e-02,3.092498481273651123e-01
3.089248829531451301e-01,3.162541640532608445e-01,-2.521557840713956056e-02,1.383278852212549166e-03,7.560689957674716650e-04,-3.669624795356161377e-03,3.379355370998382568e-01
2.942050634726295355e-01,3.382056903320824204e-01,-2.437143946237263492e-02,2.175934050207332677e-03,1.263306543610543883e-02,-3.643055892103517438e-03,3.434784114360809326e-01
2.871162549936293051e-01,3.416218961282415645e-01,-2.528387067201379179e-02,2.025297329082526715e-02,5.528897859915319138e-03,-6.615468548982591374e-03,3.450301885604858398e-01
3.307700077412063511e-01,3.015516380251957451e-01,-2.762723704007125081e-02,-1.057971569437100683e-02,-1.086300612681476326e-02,-1.039609353785794950e-02,3.461857140064239502e-01
3.178390318981491047e-01,3.251182555575300448e-01,-3.173589730726705804e-02,-1.772344516169495083e-03,-4.157058684101632047e-03,-5.688863349172968049e-03,3.534948527812957764e-01
3.267853843076555242e-01,3.279461300302569660e-01,6.878276878885453138e-02,-1.898305064834236808e-03,3.104431254789485027e-03,-5.950041746202936778e-03,2.588669657707214355e-01
2.983521118991334098e-01,3.157824471060208804e-01,-2.498297258260018250e-02,-1.359655401020532645e-02,-7.818978927619549615e-03,-9.250444442239800363e-03,3.338861465454101562e-01
2.397252731424496797e-01,3.366693596682614475e-01,-1.175954478020330152e-02,-5.801935212965116107e-02,-3.341658871168732593e-03,-2.558637025109025426e-03,3.273753225803375244e-01
3.266317965848707372e-01,3.244546478449178428e-01,1.298564576568053686e-02,1.661585949382466884e-04,-7.652058771973701753e-03,-7.718550981360981431e-03,3.131297826766967773e-01
3.119068262818346371e-01,3.142503739439002630e-01,-2.796699847968919794e-02,-3.333170351442831317e-03,-5.175776883634993289e-03,-3.783459731535133985e-03,3.412812054157257080e-01
3.297393729909989246e-01,3.260747409045053891e-01,-2.078874726321602862e-02,1.362076080321188327e-03,-4.721819568304763855e-03,-8.028761500130942447e-03,3.490912020206451416e-01
3.281363291841695728e-01,3.267584930712531532e-01,-1.647901572582319285e-02,-3.181569060112102339e-03,3.596887364031266503e-03,-2.530598551405127510e-03,3.440569639205932617e-01
3.287956794860765197e-01,3.272112698419555321e-01,-3.258236542769737953e-02,2.286929832473246632e-03,3.685249756379763977e-04,1.662003915599255055e-03,3.606222569942474365e-01
3.173092434037126375e-01,3.377893770978040444e-01,-1.531117954483285359e-02,-6.859604777405936549e-03,-4.842753945420321011e-03,1.474690274881846523e-03,3.436363339424133301e-01
3.062962018877384285e-01,3.276056709479871487e-01,-2.688276583599158442e-02,-7.743303317330795313e-03,-8.735664020276742714e-03,-8.599150329991121083e-03,3.452431559562683105e-01
3.250762159218436032e-01,3.213534682742655302e-01,-3.455950400333385186e-02,3.486346873857724439e-04,-1.837961754127450309e-03,-9.214150762688388735e-04,3.578070998191833496e-01
3.292171032424382471e-01,2.308648686520883009e-01,-1.753118836259093261e-02,-5.701091550126080598e-02,-2.878226144374880762e-03,4.572317230463037764e-03,3.250267207622528076e-01
2.963117891423806549e-01,3.366342308809038286e-01,-2.715024467885820969e-02,2.141496105433047387e-03,6.007207087247272426e-04,6.231703442012567935e-03,3.455831408500671387e-01
2.868973801865379869e-01,2.902055906230684990e-01,-1.018954897376644908e-02,-2.093967095249927787e-02,1.145443046797806194e-03,1.215949163630012557e-03,3.009621202945709229e-01
3.414705522209608435e-01,2.765029806847029148e-01,-2.111698803788045198e-02,-9.401932091139832137e-02,2.332666466731109917e-02,2.212650918436146266e-02,3.765024840831756592e-01
3.261250272539688577e-01,2.782570711464069091e-01,-2.276377288260994503e-02,-1.591664620381172401e-02,1.322325438522645689e-02,1.514893075777315815e-02,3.305861353874206543e-01
2.791457627515073203e-01,3.310600445735035757e-01,-1.584834732694503923e-02,-3.299082683983226016e-02,-5.264460318150717029e-03,-9.266869790527414857e-03,3.296012282371520996e-01
3.270470717999279797e-01,2.970592590318222870e-01,-2.386555304257911847e-02,-2.154973589841926301e-02,1.191908210435986895e-02,2.063013819293294665e-02,3.414850234985351562e-01
2.931919132250572213e-01,2.759165858608617627e-01,-2.775693510014110021e-02,-6.540563173657755469e-02,9.503180716394891286e-03,1.251729351056111994e-02,3.336716592311859131e-01
3.227862873858230452e-01,3.171060466063098104e-01,-2.551600603632703246e-02,-7.157859320042510298e-02,2.280934884520104469e-02,1.633928554157779156e-02,3.702708780765533447e-01
3.120252667498170096e-01,3.144889106340277851e-01,-2.889796433905847395e-02,6.778969745044716166e-03,5.999981180309410349e-03,-6.653341682681002123e-03,3.427146077156066895e-01
2.552641241233647440e-01,3.584194521533961009e-01,-1.931979861473573368e-02,-7.300194653736818019e-04,1.277005549733880273e-03,-5.750139716360917665e-04,3.381857872009277344e-01
3.302673647065362261e-01,3.268304486711017809e-01,-2.415228927698589989e-02,1.436412667828586894e-03,4.892205539020045126e-04,2.987476704342177224e-03,3.527615070343017578e-01
3.177252581227977268e-01,3.247945817198567009e-01,-3.056179156325730673e-02,1.888171396182500555e-03,1.604891366139956244e-03,-3.133423685636608450e-03,3.519429862499237061e-01
3.036994476814318666e-01,3.136099469802067219e-01,-2.072686982949420442e-02,2.238668328410939150e-03,3.744126869611443149e-03,-5.136980551519418868e-03,3.297000825405120850e-01
2.882170267301952804e-01,3.281090163342469390e-01,-2.365894849674382572e-02,1.943996080693535800e-02,6.919593515452667452e-03,-6.814104750003898911e-03,3.357320725917816162e-01
2.915269271285395591e-01,3.137105849311024319e-01,-1.902675210898241431e-02,3.825163538426664712e-03,1.008729578219697475e-03,-6.138849410811580108e-03,3.224669396877288818e-01
2.738421895182061028e-01,3.557318146594175001e-01,-1.609908670820758836e-02,1.863163544188097681e-02,3.707275658142657193e-02,-3.106271469763806272e-03,3.459892570972442627e-01
3.258595176269744043e-01,3.250992877378284795e-01,4.858582249708734424e-02,3.205409543944007667e-04,5.272960472051677408e-03,3.794184566599377584e-03,2.771234214305877686e-01
3.087616774153063015e-01,3.196818991592093040e-01,-2.364450942839213532e-02,-7.506236267627369382e-04,1.201370206681012798e-03,-7.179306415217436704e-03,3.382361829280853271e-01
2.697945109861875634e-01,4.701671348661018435e-01,1.885209496415610197e-02,-6.343956367969867671e-02,6.359188651919926716e-02,1.519099589181756998e-02,4.222571551799774170e-01
1.983387882060959062e-01,3.991565403211508878e-01,-1.045405387659045782e-02,-4.564463864326401277e-02,3.719396330634855679e-03,-2.830724695915525467e-03,3.635483086109161377e-01
3.298542043297142401e-01,3.250276016156044556e-01,3.868701135219396181e-02,1.182287118919894946e-03,-4.920792837777273991e-03,6.022663944851139317e-03,2.891054153442382812e-01
3.277186083388636262e-01,3.228547799105129235e-01,3.981339739697595248e-02,3.385141076108468851e-03,3.313852453619589317e-03,-3.389154482252305055e-03,2.856825590133666992e-01
3.203421514503297374e-01,3.222130000975739761e-01,5.724950606426199018e-02,-2.650812097694726227e-03,-2.918821324085291418e-03,-1.773177767581062914e-04,2.641215324401855469e-01
3.300594780701926467e-01,3.305329627153383854e-01,5.615663119289396321e-02,2.489430352428252105e-04,2.162374238901881678e-03,9.095740546575832933e-03,2.746180891990661621e-01
3.244416233258805571e-01,3.183472679163938390e-01,6.971155342120705090e-02,-1.207616994478343051e-04,6.146637268211675893e-03,-7.168062087224830441e-04,2.519663870334625244e-01
3.260012507930355463e-01,3.199631902855133436e-01,-3.294440748928045837e-02,-3.915854156521344142e-04,-4.028109475095074596e-03,2.655212805048689714e-03,3.560637533664703369e-01
3.269396405550071272e-01,3.281203240380446418e-01,-1.454860716148526079e-02,-2.862454150035969713e-03,-2.797204944934407380e-03,2.304408664103821825e-03,3.421736359596252441e-01
3.146894294458574270e-01,3.024420365447364478e-01,-2.177907856005525944e-02,-2.619284871336624316e-03,-5.829401349135224751e-03,-3.534723962620851551e-03,3.307570219039916992e-01
7.773158179162342751e-02,4.945961708724986305e-01,-5.299020228568679380e-02,-6.672308647192891351e-02,-1.856351928653228456e-02,-1.790005734936605392e-02,5.105962157249450684e-01
3.276158601776630874e-01,3.272517256964334043e-01,2.957258004986090816e-02,1.872342688436286207e-03,1.739495143992105756e-03,-2.797910919293537151e-04,2.978946566581726074e-01
3.998439347934621413e-01,1.760873743014861048e-01,-2.782289516725430789e-02,-3.625045011814531648e-02,3.716495062067256064e-03,4.817101371795527373e-03,3.759334981441497803e-01
3.391498815722435722e-01,2.732204324761873249e-01,-1.820253858956868975e-02,3.362475799285385460e-03,5.020672339947548739e-03,-1.860678226799855964e-03,3.295562565326690674e-01
3.262811296299819586e-01,3.290278687727231088e-01,-2.275386562595455020e-02,2.018404634151050800e-03,8.321624316976222735e-03,1.922916190611001150e-03,3.507459759712219238e-01
3.288737366791341099e-01,3.292989231680722439e-01,-1.270676841975379445e-02,5.733000090911656490e-04,2.422269002763243091e-03,4.708427206538075109e-03,3.419177532196044922e-01
3.437331706582174018e-01,3.204342211899741666e-01,7.925372427496024663e-03,4.628663324448736144e-05,-6.199532824956494395e-03,1.888242397528571564e-02,3.266048133373260498e-01
3.456086269372266040e-01,2.584640025384580264e-01,-2.641847109840728125e-02,-2.477919568128181260e-02,8.214280593167594055e-03,2.513145608221271921e-02,3.428081274032592773e-01
3.583190302634995383e-01,2.608362559951939441e-01,-9.618361325760993452e-03,9.101622988740043149e-03,-6.767700077108833832e-03,4.374509384977481874e-02,3.393229842185974121e-01
3.242049884900863876e-01,3.245388254780040560e-01,-3.560096160215941996e-02,8.989008768191713086e-04,-4.417508602359346542e-04,-1.046327427335287273e-03,3.599817156791687012e-01
3.277615659016025473e-01,3.280823810579777677e-01,-2.503261543474344375e-02,9.235129606934915861e-04,-7.944867432018470248e-04,-1.851796752598502786e-03,3.529755771160125732e-01
3.283025166943946416e-01,3.238241164467547950e-01,-3.350126648642987037e-02,-1.204119493446918440e-04,-2.479956231990200228e-03,-1.748951824731412828e-03,3.596239686012268066e-01
3.329299746375946611e-01,3.065442008772220617e-01,-1.284789738795530378e-02,-2.389129681626100260e-02,2.048841521061816121e-03,1.157185832617023576e-02,3.365436494350433350e-01
3.270742506932984850e-01,3.293839295182954263e-01,6.418825787162962815e-03,-7.591527455400354945e-05,4.467166940984676309e-03,7.283772590575352934e-04,3.219119906425476074e-01
3.403704899065363443e-01,3.343995466275358486e-01,1.759944980822719662e-02,2.248130614984981436e-03,-3.273837600895542019e-03,-2.155537328762754338e-03,3.199231326580047607e-01
3.313641457895847298e-01,3.226228509738256478e-01,-3.346340346122614329e-02,1.375188535059632079e-03,-4.670486838694239986e-04,6.299812378448692860e-04,3.605468273162841797e-01
3.007795576823094064e-01,3.377714090825122972e-01,1.624191079963291373e-02,-1.083115362295907803e-02,-7.720848961161642238e-03,-3.306155805369784175e-03,3.056455552577972412e-01
3.245913662068340422e-01,3.262032646145041070e-01,-2.582272595072995780e-02,-6.698953077974319605e-04,-2.252645071628129811e-03,-2.224382955611541295e-03,3.512675464153289795e-01
3.229402744983098650e-01,3.401634358267127123e-01,-2.782391203870340779e-02,-5.444097842394150268e-03,-9.402883268482684770e-03,2.712002032298059875e-03,3.602077662944793701e-01
2.369033084464321759e-01,3.655592620713195018e-01,-3.688680584601455870e-02,-5.766994060123878385e-02,-3.445444277412399673e-03,-1.175579094790500699e-03,3.698044419288635254e-01
3.264185585284128943e-01,3.322062979555409634e-01,4.755849246026622179e-03,-1.130543995708512515e-02,-1.559616114407250467e-02,-9.626123937669300162e-03,3.267311453819274902e-01
3.310385107641887203e-01,3.272036762250505326e-01,-2.736678545120141415e-02,-1.670508865255292130e-03,5.862533984046215891e-04,-2.111368177040709969e-03,3.565352857112884521e-01
3.200090401171657994e-01,3.287205557170054804e-01,-3.202938195591620296e-02,-1.307964393870906215e-04,-1.097670555750040631e-03,-2.476575457337561442e-03,3.565049767494201660e-01
3.221935667295210415e-01,3.241955712648924570e-01,-3.536380400876712460e-02,9.641848861186259683e-05,-2.085501652648369180e-04,-9.447511987856683406e-04,3.585665225982666016e-01
3.163079723664700138e-01,3.314093655446618270e-01,-3.157617235257198507e-02,-1.387758536299243733e-03,-1.109444383567336758e-03,-3.706720164316571788e-03,3.557466268539428711e-01
2.901421869336255344e-01,2.883831764161426947e-01,-1.074771579950101197e-02,-2.073911620068165026e-02,-1.491207624218038189e-03,-1.156983707187433062e-03,3.021747469902038574e-01
3.152453812143952705e-01,3.323760206204512957e-01,-3.188505871599536801e-02,-2.550371079350970084e-04,1.070842113248625773e-03,-2.998234357885962847e-03,3.560479879379272461e-01
2.640968843182660564e-01,3.177745878467018725e-01,-1.682537507317879988e-02,-1.014968134357657897e-01,-2.432804452105541762e-02,-1.332757471462835304e-02,3.606814742088317871e-01
3.153842515742427688e-01,3.336644981310147307e-01,-3.211283346622922918e-02,7.757373909227608267e-04,5.880258664505439575e-04,4.306091454183904634e-03,3.570702970027923584e-01
3.131984318945070234e-01,3.023510848179050137e-01,-2.005569460103437396e-02,-1.384981695742859911e-02,-9.109773627636033252e-03,-6.585767829501345400e-03,3.294170498847961426e-01
3.315621995658230570e-01,2.469926179147649559e-01,-2.601615927687114804e-02,-4.944869912041006260e-02,6.532378855181032035e-03,-1.769149016946329998e-03,3.350327908992767334e-01
3.249551452422712039e-01,3.327950025776652554e-01,-3.296025232572302732e-02,2.733411220692945841e-04,8.758813012153530194e-04,1.213479925611163834e-03,3.619086146354675293e-01
3.052056797101068142e-01,3.062946152372326702e-01,-1.994098020748047428e-02,-2.651627967913586671e-03,-5.491185324261152641e-03,-3.111643911423483001e-03,3.259082734584808350e-01
3.317750491652331490e-01,2.799289743556868659e-01,-1.985568683217905916e-02,-1.908439707205163496e-02,-1.519760397369751895e-02,-1.535719169710823319e-02,3.325576484203338623e-01
3.324763908417553981e-01,2.378386367482393238e-01,-3.241004464460595091e-02,-5.094480286772738731e-02,-2.029332170695038844e-03,-3.280815208469712446e-02,3.443747758865356445e-01
3.256827687769880963e-01,3.166309352921980458e-01,-3.200749106909459019e-02,5.172138191421112204e-04,-4.685540354231144608e-03,4.551791781349795864e-04,3.533465564250946045e-01
3.318820671174265713e-01,2.176776747138111923e-01,-8.824615577619820961e-03,-5.845206168770183952e-02,5.444968560081936892e-04,1.153224530257711874e-03,3.169673383235931396e-01
3.430264223756752107e-01,2.682313947593876757e-01,-3.785206786161982029e-02,-3.277364961609451066e-02,-2.550589030140977195e-02,-2.007258009498051610e-02,3.585493266582489014e-01
3.696437104987304600e-01,2.665881252092749953e-01,-2.271567502185967147e-02,-2.617506869228265753e-02,5.595099216121065568e-03,-3.241766795164688353e-02,3.597687482833862305e-01
3.667013499070368443e-01,2.359993101551842165e-01,-1.887266567390061267e-02,-1.133767088054778507e-02,2.799788871698781836e-03,-3.504943688511603928e-02,3.456147611141204834e-01
3.182618420309747398e-01,3.195728383907799341e-01,-2.842461305848947850e-02,-1.099744236477161359e-02,-5.293637765467151812e-03,-7.982925850971850368e-03,3.482611179351806641e-01
3.488564971551082472e-01,2.770470087570160445e-01,-2.582298280206618557e-02,-2.337806251823556364e-02,-4.337855267345347952e-03,-6.025052074279552486e-03,3.470457196235656738e-01
3.385361140002254299e-01,2.830109829282853040e-01,-1.590638398142271703e-02,-3.185500125913070385e-02,-7.849303604021348746e-03,-2.443307025466735782e-02,3.377159237861633301e-01
3.581226501853425059e-01,2.898658752431435004e-01,-2.241559569495493731e-02,-5.387265803630385264e-02,-2.299071858173389743e-02,-2.571554329728100580e-02,3.684703707695007324e-01
3.186792301571418351e-01,3.157428910229068686e-01,-3.165349804255784827e-02,-1.067878173377975791e-03,-2.963235090369452742e-04,2.462490013022882265e-04,3.488793671131134033e-01
2.832583856518350318e-01,3.369815112083553998e-01,-2.491124894460056138e-02,-7.986380491343430740e-03,-1.130765713859778476e-02,-7.732726267306602730e-03,3.393594920635223389e-01
3.296430387567658160e-01,3.063662179367062643e-01,-3.020451321967715375e-02,-9.504308241351186806e-03,-1.227891178962096236e-02,-1.021479253306454595e-02,3.502745926380157471e-01
3.156577438825076687e-01,3.455448848630117142e-01,-2.740570930120200810e-02,-4.692147568563127813e-02,-1.949680145004139761e-02,-1.320235799423337408e-02,3.702797889709472656e-01
3.249563148717035110e-01,3.293777958610182299e-01,-3.300355053876694034e-02,-1.327985511585391622e-04,-1.166251024523991871e-03,1.254727597490270120e-03,3.602032661437988281e-01
3.031257818289199713e-01,3.085284643614965572e-01,-1.811099676572139328e-02,-5.472360323941938276e-02,-4.628419078869125403e-02,-3.783589610264162517e-02,3.530766963958740234e-01
3.178411334632397778e-01,3.232937024222272138e-01,-3.217906068621190219e-02,1.568948317937587684e-04,-4.143588105982802636e-04,4.446450105713906607e-03,3.528629839420318604e-01
3.272088592606560709e-01,3.355936103539451376e-01,8.572842477271275241e-03,-2.677783771525772184e-04,-2.859757838903840589e-03,8.372416416906993883e-03,3.232737779617309570e-01
1.389719242126581378e-01,4.287987320505259325e-01,-2.329128270323610472e-02,-7.736001003781081686e-02,-1.674385383841542341e-02,-5.284868363750797569e-03,4.198043942451477051e-01
3.904770137658311047e-01,1.982434201441516664e-01,-1.124743713289333424e-02,7.127425678384392838e-02,-2.814592813574691779e-02,3.719435605948707285e-02,3.779923915863037109e-01
3.399628145580746441e-01,3.267969728735425350e-01,-2.789682287144767958e-03,5.223001785618769377e-04,-6.425263055235447794e-03,-2.051655063152580706e-03,3.365669250488281250e-01
3.015473926035184826e-01,3.375167185517916613e-01,-5.362981287355822468e-03,-2.077757357806469737e-02,-4.791795585087495549e-03,-5.800212036272396447e-03,3.286214470863342285e-01
3.333317067721395799e-01,3.142517835789132574e-01,-3.197805547553239647e-02,8.131184043608612991e-05,-2.416660621817128766e-03,-7.074120094561667888e-04,3.561800420284271240e-01
3.656888192340631560e-01,2.105620282092145468e-01,-9.451935883355078172e-03,1.190325477612724260e-02,-1.287969801691528403e-03,9.046030266454794036e-03,3.275302350521087646e-01
3.099653147752604032e-01,3.542988993811231335e-01,-2.869318811082302578e-02,-1.660295146589137530e-02,-1.765025819569786963e-02,-8.683995795454032413e-03,3.655910193920135498e-01
1.846941590634667563e-01,3.876156386299501877e-01,-2.426105866264152700e-02,1.533320885600327615e-02,-7.973120416431377436e-03,1.166938211757974006e-02,3.585323691368103027e-01
3.361226092797284792e-01,2.421354079789296287e-01,-1.137521571624380834e-02,4.639803446481453181e-02,-6.250108867499332664e-03,8.098304699506014490e-03,3.220252394676208496e-01
1.941823685715311221e-01,3.485558212878405726e-01,-2.302669253091929602e-02,6.887257842879809799e-02,2.079675344263135633e-02,-1.712136992731814328e-02,3.477779328823089600e-01
1.795493934105732714e-01,4.052675469324217850e-01,-2.089773292866509147e-02,7.104878212833765083e-02,2.540461424920794145e-02,-6.591467029325242047e-03,3.918961584568023682e-01
2.844915939137801497e-01,3.292687904003636645e-01,-2.146771939243199978e-02,-1.954568703481336656e-02,-2.257524437789793902e-03,-1.172360332328651125e-02,3.330012261867523193e-01
1.668945264223500313e-01,3.835159733900836976e-01,-1.052500641426898365e-02,3.594782654882484885e-02,-1.536813291638447704e-03,2.774359495024805982e-03,3.474799692630767822e-01
2.119643504405150369e-01,3.571219571196899700e-01,-1.107858656980473255e-02,3.111235872034957134e-02,1.083139854461867904e-02,-6.643284647880489009e-03,3.264713585376739502e-01
4.000291572666603290e-01,1.843127334216661251e-01,-1.446246101022655162e-02,5.757810243390275307e-02,-7.565677653200647036e-03,1.832569367929798299e-02,3.742314279079437256e-01
2.975359960500935652e-01,3.351609094642007958e-01,-2.398717043803955118e-02,-1.094716495701561140e-02,-9.260418180680463074e-03,-7.783377698429056954e-03,3.430577218532562256e-01
3.366694277389558065e-01,3.043958556754494116e-01,-2.962386880785733423e-02,1.612540228959758251e-02,-8.467112815521926628e-03,3.523815464566595283e-03,3.527367115020751953e-01
3.184128016727783006e-01,2.639000765871838960e-01,-2.034521886596754592e-02,6.251377933650899277e-02,-1.684119935227335746e-02,1.569657274883237003e-02,3.355233967304229736e-01
3.409628360427603977e-01,1.984868960691130724e-01,-2.443086196547683553e-02,6.991545685411908184e-02,-1.082728538734877878e-02,2.347144508001338878e-02,3.441236317157745361e-01
2.904657884814639823e-01,2.727237817743860537e-01,-2.221151481800351379e-02,6.727698086872668792e-02,-1.140519242098527418e-02,1.485103582128813153e-02,3.273603916168212891e-01
2.965711940858165585e-01,3.447266592628250859e-01,-2.611254842489868500e-02,2.129698677710297611e-02,-1.622110188939554845e-02,1.677665626104790642e-02,3.535210788249969482e-01
3.305620646651741823e-01,3.152643813199444978e-01,-3.179272333448626697e-02,2.326096624576889059e-04,-4.436421655986051357e-03,-1.361493207192183952e-04,3.550367355346679688e-01
3.026091903447503118e-01,3.140198541640149554e-01,-2.158099000966681724e-02,1.742398254245301498e-03,3.240803289454023683e-03,-6.580422316578756967e-03,3.303017020225524902e-01
3.268933392407780136e-01,3.271578057491991709e-01,8.200022494193714984e-03,1.834358003338580623e-03,1.088659979117223781e-03,-4.722102254288739094e-03,3.189519345760345459e-01
3.258031715641181991e-01,3.210554572701587173e-01,-1.024357515561036269e-02,5.897782256410152510e-03,1.017360491158668129e-03,5.114297248651189336e-03,3.339766860008239746e-01
2.632311259575679241e-01,3.529959625329706085e-01,-1.301720518583154851e-02,1.647881585504756483e-02,-1.472735517405003060e-02,4.308241775410721723e-03,3.326999843120574951e-01
3.245927529137565548e-01,3.306362479724015424e-01,-3.297358925959442688e-02,7.103161693640615195e-04,-2.144453297742714322e-03,2.949900965153075174e-03,3.606835007667541504e-01
3.091738732460134753e-01,2.898707809331916296e-01,-1.185568249069401947e-02,5.655010190485806193e-03,-1.982375107981732693e-03,5.542880078096132021e-04,3.120006024837493896e-01
2.999916478795746633e-01,2.989802020642375879e-01,-1.267508961702668024e-02,1.118563218721860437e-02,-2.043308414459963501e-03,9.749357176298668968e-04,3.127874732017517090e-01
3.271984169064037218e-01,3.271022838697463797e-01,-2.584192865867243616e-02,1.963230186713199425e-03,-3.121590338046737346e-03,-3.044104249070062485e-03,3.530894517898559570e-01
2.898836567886233784e-01,3.314041302946364453e-01,-3.063483301905017830e-02,3.743454405450357542e-02,-3.124617998932757365e-02,2.382378797081436198e-02,3.558087348937988281e-01
2.646613829849930877e-01,3.089458762584166296e-01,-2.850854831305918435e-02,6.374812175677001258e-02,-3.180669243399145835e-02,2.348098110481545639e-02,3.431809246540069580e-01
2.741197446428416118e-01,3.366909409875640247e-01,-1.660960209493805850e-02,2.774806048874921965e-02,-7.420911361914534453e-03,1.188990627777339326e-02,3.309519290924072266e-01
3.232979283782000945e-01,3.303367561515129225e-01,-3.289164148486545258e-02,5.367583356600851485e-04,8.059710351696594197e-05,-1.046953478942657875e-03,3.597664237022399902e-01
3.319536020004882904e-01,3.038405750693782270e-01,-3.257089666632667635e-02,7.384856270215320317e-02,-2.134567004404587520e-02,1.492874879796254536e-02,3.765858709812164307e-01
3.267133777722819876e-01,3.284917325045796921e-01,-2.933894889582214227e-02,-2.118275871890524164e-04,-3.609611950095670090e-03,1.979876867089828095e-03,3.570162355899810791e-01
3.087989424383086323e-01,3.208827748771056476e-01,-2.338334088504312458e-02,-5.878207738782763141e-03,7.131398180764023272e-03,8.107099564676338230e-03,3.390553593635559082e-01
3.145306200860559231e-01,3.388106130802905902e-01,-1.524648530113817402e-02,4.890982418677224282e-03,-6.453012325028637843e-03,1.836984660247633315e-03,3.428647816181182861e-01
2.554434216908271771e-01,3.499701344893187405e-01,-1.968843139036619005e-02,-2.476541824167404968e-03,1.287969410916381787e-03,-5.018200025067509271e-03,3.327747881412506104e-01
2.957052037397485678e-01,3.370603230184914256e-01,-2.617951981171229292e-02,1.317800771363382070e-02,-1.335611302952482808e-02,5.568962959698957674e-03,3.460935950279235840e-01
3.200549866624696760e-01,3.041443240430893313e-01,-2.735935315102769327e-02,3.241708257502485396e-02,-1.002904114372641514e-02,6.947145226447818019e-03,3.449948132038116455e-01
3.318744196687221093e-01,3.044778737556113057e-01,-3.621756323872471484e-02,2.873986253772974758e-02,-1.804273735848877652e-02,1.272889624629071868e-02,3.606916368007659912e-01
2.834702315079701274e-01,3.481109223760693316e-01,-2.946326470182417112e-02,1.115732721101014326e-02,-8.139249657759443576e-03,9.020822157586044429e-03,3.509278595447540283e-01
3.582929113464561333e-01,2.047756673594798016e-01,-1.783655453203170094e-02,1.016402696393721578e-01,-5.589881142959444299e-03,1.896884216011237786e-02,3.734487593173980713e-01
3.225021663801360128e-01,3.270270707566456103e-01,-3.482473540867073170e-02,-1.757453750397994197e-04,1.196832001978810991e-04,1.201936264483074567e-03,3.596169054508209229e-01
3.405912601388847993e-01,2.636953369774938105e-01,-2.574265949771467610e-02,3.362035287630153052e-02,9.295373677491978320e-03,-1.478304386742163544e-02,3.409541845321655273e-01
3.138265225812520987e-01,2.392999978276865447e-01,-2.180492425366120646e-02,7.489240063868879416e-02,8.979994794437501718e-03,-4.908055504002657894e-03,3.321596384048461914e-01
2.831616776291984716e-01,3.294477883310111821e-01,-2.852478077730585815e-02,6.008322800850134093e-02,3.188033059825185617e-02,-3.590188597105466173e-02,3.625789582729339600e-01
3.417413277526628601e-01,3.216772307165119416e-01,-5.585848638143320333e-03,-9.250580636318936779e-04,1.275837539150172142e-03,-4.000584248747542267e-03,3.378244936466217041e-01
3.256469832749425142e-01,3.288118129329924977e-01,-1.852220751261293707e-02,1.926835366821820841e-02,1.598118662582474411e-02,-1.910439411655092887e-02,3.500380218029022217e-01
3.253231510440766083e-01,2.814329913292875629e-01,-2.296992144492893129e-02,2.890001894423060991e-02,1.187686772117797947e-02,-2.298207958450661226e-02,3.353522121906280518e-01
2.996146377234191194e-01,3.118604263330756465e-01,-2.195452655029156430e-02,8.202911573295043612e-03,4.705968456359306724e-03,-5.951698369928959918e-03,3.284343481063842773e-01
4.009081539614780532e-01,1.630648615149075109e-01,-4.433746876587643659e-02,1.433568980859824260e-01,1.038685922594701633e-02,-2.806579513746422505e-02,4.617951214313507080e-01
3.210270952134647304e-01,2.313829863027050959e-01,4.387603699079117847e-03,1.019617397434650352e-01,1.772324150278082114e-02,-2.244517583492387433e-02,3.369778394699096680e-01
3.795245643841879124e-01,1.934901987268258794e-01,-1.050499602770640917e-02,9.675490551703565256e-02,6.829147307932915099e-03,-5.238153973232532318e-02,3.881093561649322510e-01
3.839466935806713499e-01,2.369438451599595041e-01,-2.854603727600665830e-02,1.624927517016837852e-01,4.014132156414708386e-02,-2.570692794483493346e-02,4.659942984580993652e-01
3.469228830474971326e-01,2.567654142761115477e-01,-2.611189157522308957e-02,1.275155426748486032e-01,2.632908871155755989e-02,-1.339157031383679877e-02,4.062631428241729736e-01
3.307274069323782317e-01,3.336588704187770649e-01,2.781716959721661220e-02,9.923639134472590773e-03,1.606231081077655679e-02,-2.509893033498455332e-03,3.061690628528594971e-01
3.166825763219267564e-01,3.244594470371411354e-01,-3.217683406282070835e-02,1.024016670327813862e-03,-1.300920714951374747e-04,3.873697923562008719e-03,3.528804481029510498e-01
3.223266092416230411e-01,3.209376144603686698e-01,-3.533327750415360402e-02,-3.778566641012720572e-04,-2.387741900381774428e-04,-2.504911329342835669e-05,3.569682538509368896e-01
3.273985965807624798e-01,3.441851509963391731e-01,1.772813780971510544e-02,2.174565843062633858e-03,1.354713091646600042e-03,3.861366186824009145e-03,3.184969425201416016e-01
2.727861628668433180e-01,3.528882411082630566e-01,-3.068810087022019739e-02,-1.977265952523650852e-02,2.429350620686328982e-02,1.244962661744952390e-02,3.552889823913574219e-01
3.330755529732141729e-01,3.386039557103022735e-01,2.190224037054069872e-02,2.999175365906452031e-03,-6.226384179944177352e-03,-5.410484503239967186e-03,3.143418431282043457e-01
3.229782352806034318e-01,3.225715098579952644e-01,-3.576515373119243391e-02,-1.269057760226517293e-04,-4.290953817335350245e-04,3.733825181269618100e-04,3.585416078567504883e-01
3.134529295962498185e-01,3.142307755560594384e-01,-2.880412223345801825e-02,2.775187245963071231e-03,-2.003443768532570633e-03,3.070414593789116443e-03,3.427391946315765381e-01
3.260614616744136329e-01,3.338901494461762320e-01,3.439714234371574197e-02,-3.102712423010611006e-03,7.870146090428326024e-04,-3.085518183856437655e-03,2.957566678524017334e-01
3.300479155555642308e-01,3.303601654603129933e-01,6.756363464998971224e-03,-3.561507905971816011e-03,5.220728258116908924e-03,4.340225869197982434e-04,3.236338496208190918e-01
3.297600876495159761e-01,3.301176840310958704e-01,-1.296389215784385374e-02,2.623634245962341979e-04,-4.018358864583137374e-03,1.376418029607776429e-03,3.429821431636810303e-01
3.449959123373306236e-01,3.773639719224491929e-01,1.296933639360761670e-02,-2.474592050088405496e-03,1.032158053074295340e-02,-5.907365394083022650e-03,3.499700725078582764e-01
3.047326588292252336e-01,3.021315847613115224e-01,-1.763029416943537320e-02,1.674526893694891006e-04,-8.355247875419452097e-04,-8.333926169867094909e-05,3.210737407207489014e-01
2.896052597152573571e-01,3.218852176431954426e-01,-2.670684659951180762e-02,-2.028374054047875352e-02,1.465238997760493628e-02,1.602018964827574624e-02,3.375710248947143555e-01
3.234392337746565538e-01,3.222390599925225585e-01,-2.664464623756374051e-02,-1.162371506300485975e-02,1.867804295433228914e-02,1.796855675332701546e-02,3.529313802719116211e-01
3.237993028742523482e-01,3.242151737631646657e-01,-4.188286231378801627e-02,-6.623639409964049429e-02,1.211761998332297301e-02,2.266438677813104735e-02,3.860298097133636475e-01
3.022850567841494085e-01,3.078766407329416865e-01,-1.632127178250294963e-02,2.279513082246669917e-03,7.097716410637544809e-04,-2.381614963175065418e-04,3.214654624462127686e-01
3.343464682825173506e-01,3.231330552126046030e-01,-2.194335887604059732e-02,-5.050493947947744255e-03,9.956340377123467159e-03,1.851867516842650718e-02,3.528111279010772705e-01
3.025066131201160635e-01,3.014263396171155129e-01,-1.663415532313430867e-02,1.917487593491130210e-03,7.131689188509183390e-04,-3.603476434091702676e-03,3.186828196048736572e-01
3.897279902711290323e-01,2.514968321515004268e-01,-3.145558870021303299e-02,1.607582768175861154e-01,-3.621955857638250835e-03,1.842033279942751831e-02,4.656927287578582764e-01
3.014145499703819731e-01,2.975843150260802372e-01,-1.078046661881776336e-02,1.767150558804672558e-03,1.378165809738836085e-03,-1.454103321944051272e-04,3.103220164775848389e-01
3.254595449620572012e-01,3.247264292412029851e-01,-3.505917432206040463e-02,-8.156342015396068120e-04,1.402082223559328626e-03,-1.420022872775986850e-03,3.601720631122589111e-01
3.052572504667123710e-01,3.371539629114255199e-01,-2.583886977736696289e-02,-4.235970250868987402e-03,3.864642552115249083e-03,9.104422422075137897e-03,3.486405313014984131e-01
3.024073351650100605e-01,3.021477500127060511e-01,-1.610691748203355034e-02,1.896878607476816133e-08,-9.214001745905666752e-04,-2.262532543191246690e-04,3.183887898921966553e-01
2.273055381672436093e-01,3.423999483899193286e-01,-1.651205395655469532e-02,-4.414441745109458359e-02,2.512206440311525596e-02,1.408248622394015458e-02,3.302881717681884766e-01
3.212781679466073514e-01,3.204361608423215158e-01,-3.423475407154619177e-02,4.570858653434078022e-04,1.246321859167719929e-03,-1.013928211012404910e-03,3.551044464111328125e-01
2.854517009020005602e-01,3.470681685699690266e-01,-1.721687143895103689e-02,-1.733012932130495107e-02,1.105566902819882930e-02,9.540686969701622430e-03,3.399926126003265381e-01
3.247493581576930688e-01,3.222417592362546990e-01,-3.457605092004847891e-02,-1.386752165084782934e-06,6.241062571828026465e-04,-7.441264241439160716e-04,3.580821454524993896e-01
3.264943360056284938e-01,3.287597690556229302e-01,-2.516128286327556918e-02,-1.619743599780842924e-03,3.782863625736128301e-03,-2.053720442459445582e-03,3.528836965560913086e-01
3.096645282878565664e-01,3.118840900857538512e-01,-2.318680568370956596e-02,-3.982320163405479382e-03,4.729348407074031140e-03,5.049740193730397654e-03,3.342527449131011963e-01
3.194858906151356037e-01,3.111523710468745429e-01,-3.077058571321580893e-02,-4.682689973968291730e-03,6.806121376302320947e-03,5.691441472888733588e-03,3.466008007526397705e-01
2.990724131716275824e-01,2.976717382720077687e-01,-1.107768190363206395e-02,1.099638547382557254e-03,6.616141075073528311e-05,-1.944440333366793342e-04,3.094581961631774902e-01
3.087025710077937468e-01,3.023722989709161091e-01,-1.741590061401521172e-02,-2.401082555666584923e-03,-3.545180555070231413e-04,-6.429857945004380931e-04,3.230291306972503662e-01
3.159298379904750265e-01,3.224938979673405703e-01,-2.746335929347901161e-02,-2.747763422348945168e-03,6.251823518667223856e-03,7.917417602806557653e-03,3.471944630146026611e-01
3.087584509535212240e-01,3.052967532345608470e-01,-2.124108518362330389e-02,-5.930322861006443250e-04,-3.010583752642325903e-03,-1.463051042122106302e-03,3.283351659774780273e-01
3.233740518257832708e-01,3.192979737463378931e-01,-3.419906592402546797e-02,1.125774459301169105e-03,2.590566012914763318e-03,-1.457342647090791032e-03,3.555952310562133789e-01
3.124534893402112767e-01,3.187346851191493746e-01,-2.752712973771284655e-02,-6.613676118354777991e-03,2.614722929742679860e-03,4.359728405236881592e-03,3.434683680534362793e-01
3.027906629296489571e-01,3.368734715705390959e-01,-1.944570211428414686e-02,-2.527412416394330189e-02,2.072405691633725719e-02,5.929999727823344162e-03,3.453851938247680664e-01
3.300117747578962812e-01,2.750856679362757018e-01,-2.331710022328328802e-02,-2.649809178254218522e-02,8.171487616850490673e-03,1.012949731892148764e-02,3.332653343677520752e-01
3.357610226102176743e-01,3.041908969000498009e-01,-2.958870359303253372e-02,3.164928540585276208e-03,4.249302307604990898e-03,-5.495526106699633213e-03,3.508814275264739990e-01
3.303127319773779824e-01,3.271590586377733922e-01,-2.511058391344148100e-02,2.809004477500773658e-03,6.534982954586167868e-03,5.705107236163504611e-03,3.542093038558959961e-01
3.305668999885688075e-01,3.148581588122027486e-01,-3.209360824507784260e-02,-3.280038488194816047e-04,-4.335479405798065879e-03,9.856228789444157208e-05,3.551467359066009521e-01
3.184076010283856117e-01,3.071805654298944144e-01,-2.821982204923340065e-02,-1.079444679981769566e-02,8.234803349229912958e-03,1.927792973861739909e-02,3.435883224010467529e-01
3.194021130347021176e-01,3.165365359564980552e-01,-3.153165866922588711e-02,-1.103037207641020812e-02,1.066014092100630098e-02,4.876648561839292892e-03,3.506199717521667480e-01
3.415330322340368041e-01,3.028895223421301797e-01,-3.059942151929231913e-02,-9.513932229385710631e-04,4.444012675184467152e-03,9.133351913535456973e-03,3.548346161842346191e-01
3.299083368667149463e-01,3.228512063849138247e-01,-3.386023340069230225e-02,-2.629154909193577496e-04,1.281558059615645452e-03,4.314409975597124089e-04,3.602997362613677979e-01
3.422902291676749864e-01,2.761485408013008569e-01,-2.444508622338648074e-02,-3.616710930449486099e-03,5.621319430383756900e-03,7.958520936298663778e-03,3.390237092971801758e-01
3.556115119270049085e-01,2.899012442312680626e-01,-3.280051850501669586e-02,-1.093579928413605622e-02,5.505640079219686379e-03,3.572153205201907683e-02,3.659738898277282715e-01
3.106120952103309518e-01,3.079716760448547586e-01,-2.554273239412954699e-02,5.003703553876982010e-04,9.639487190701402988e-04,-4.170510216982833279e-03,3.349256217479705811e-01
3.098672812703314738e-01,3.197564387877820380e-01,-2.493234530147020456e-02,1.274820638772447340e-03,9.848357659260848027e-04,-3.779238965332305279e-03,3.399266302585601807e-01
3.702032782387968401e-01,3.208518188447707642e-01,3.257638278595653691e-04,-2.094608358773622156e-02,4.665908198179701677e-03,1.622397419190144130e-02,3.509446084499359131e-01
3.311618540730099092e-01,3.331619404992435252e-01,1.143522575659181029e-02,6.601051960127413479e-03,-5.021221169939659758e-04,-6.653028850275155039e-03,3.211430609226226807e-01
3.259385431686714907e-01,3.239990279705823317e-01,2.753991432941460538e-02,-7.708559458518960783e-05,3.510912488276797614e-03,-1.109331448264341954e-03,2.975020110607147217e-01
3.357817506066054225e-01,3.219183384408306203e-01,1.115100939347379860e-02,5.823194718176681606e-03,-1.852899422633785907e-03,-4.681030226780497246e-03,3.182052671909332275e-01
2.910621056014355279e-01,3.510350431435901308e-01,-2.893629759462795770e-02,1.067441662993160942e-02,1.671701926089873974e-02,-4.313294655393427532e-03,3.555601239204406738e-01
3.090108377959625563e-01,2.892418188499856213e-01,-9.802913066629254102e-03,3.747930895437397852e-03,2.866349844671337889e-03,-1.673310396060320780e-04,3.095113337039947510e-01
3.331560525820711494e-01,2.817783587019205283e-01,-2.512703232163582268e-02,7.507849412202314415e-03,9.917489705282962059e-03,-8.613008144905049887e-03,3.365789651870727539e-01
3.676542018518791366e-01,3.135898919231974169e-01,-3.145418643293124150e-02,-2.890179129639105365e-02,1.009702965298281234e-02,2.949850787601903182e-02,3.821716904640197754e-01
3.853921865180214290e-01,2.437051545544236530e-01,-3.901102459566535563e-02,-8.002444338355392539e-02,1.322322760565811973e-02,3.964029686124341534e-02,4.055998325347900391e-01
3.322368021502335456e-01,3.244143232198291038e-01,-3.276401340424406339e-02,2.177706444735775290e-04,1.200477429983556280e-03,3.228685733078959209e-04,3.611597418785095215e-01
3.444026208242707554e-01,2.422206922483702285e-01,-8.379551545829089232e-03,7.530542584257268746e-03,-2.476055739053172836e-03,-3.387869963493393959e-04,3.147019445896148682e-01
3.290919202140072941e-01,3.228456807402823037e-01,-3.306465215226744858e-02,-6.026629626470522791e-05,1.268995134903439089e-03,2.336413749013992668e-04,3.590811789035797119e-01
1.345727909442597514e-01,3.812605025723995733e-01,-3.203041601471787181e-02,1.131834861570837625e-01,3.987348855517330523e-03,-1.176582911253087373e-02,4.106152951717376709e-01
3.285472828120666877e-01,3.328144750987760414e-01,2.355854523255068722e-03,-1.638700064728877248e-04,8.554944864166881156e-04,4.149997562956520697e-03,3.284279704093933105e-01
3.287135058809798061e-01,3.302618731158917242e-01,-9.807794445309991893e-03,1.844007218382393270e-03,-7.308000462930919552e-03,-6.120585184989021064e-03,3.397146165370941162e-01
3.287194834921690068e-01,3.285050874840221291e-01,-1.478608831123803813e-02,8.312699800503752044e-04,2.947767454104372169e-03,5.109863064866005007e-03,3.435534238815307617e-01
3.356817332192109093e-01,3.303241266818212063e-01,2.426487948640976278e-03,-1.619010418757623349e-03,2.344192790296766114e-03,-1.293308245994144229e-04,3.306458890438079834e-01
3.257311454496663039e-01,3.174818440922908547e-01,-3.211674484679322150e-02,1.136360427113578550e-04,5.069303739009667527e-03,-3.016285218834902733e-04,3.539047539234161377e-01
3.633487494017764163e-01,3.465185545991903426e-01,-4.296530219041194698e-04,-1.615210031057000631e-02,8.084117169113204382e-03,5.022934890286353919e-03,3.571413457393646240e-01
3.983167260771235951e-01,1.743720768190963888e-01,1.686489616664935132e-02,3.363086332433411901e-02,3.180730351160041686e-03,-4.725091575287962420e-02,3.469207584857940674e-01
3.360622162968145421e-01,3.100686367680343669e-01,3.428761377616257322e-02,-8.313907822652890842e-03,-1.580368045985565580e-03,1.821163174457711073e-03,2.900416851043701172e-01
3.703236682172726946e-01,4.079875914813645421e-01,5.936609287841576599e-02,-5.856250768873476516e-03,-4.834944235274573135e-03,2.101818993300381272e-02,3.336515724658966064e-01
3.688515548300105307e-01,3.691292131740671056e-01,5.063070111926515349e-02,9.371332429601461622e-03,3.026410089518530300e-02,2.613582935328368981e-02,3.262106776237487793e-01
3.121256718833166355e-01,3.043247876740977631e-01,-2.155291817035948077e-02,3.794468232493718347e-03,6.125368324731468236e-03,-3.528977890260116042e-03,3.301399350166320801e-01
3.147751733495208204e-01,3.010431262335260261e-01,-2.191532528189124585e-02,2.331037008919861590e-03,6.963447198934224341e-03,-2.449246104908105615e-03,3.303110301494598389e-01
3.265243240979783801e-01,3.029365914531955695e-01,-2.529737643312984785e-02,-1.871858095401610338e-03,-5.768495552106485749e-03,-3.962306597916454920e-04,3.408035039901733398e-01
3.181493156954408597e-01,3.237750507016006196e-01,-3.093785872567403339e-02,1.961069406209078273e-03,2.727595474428530942e-03,-4.690386699450679181e-03,3.520756065845489502e-01
3.390982313221280187e-01,2.989798532399627340e-01,-2.915399542269767053e-02,1.753530886097202229e-03,3.330592110398762455e-03,-6.350475029781702668e-03,3.501556813716888428e-01
2.984772284209766813e-01,3.091202409049109145e-01,-1.663491824061608115e-02,4.422363177390763872e-03,3.643094394620223801e-04,-6.358256167899197647e-03,3.208473622798919678e-01
4.784338380309837158e-01,3.807011134409349351e-01,5.024726288437836308e-02,-2.278564355832963031e-02,2.040923362415527492e-02,2.728744115073976698e-02,3.950804471969604492e-01
3.473174315425011094e-01,2.550652260218602696e-01,-2.494089857371567520e-02,1.478768429357025724e-02,1.247316640569789102e-02,-3.011417008964821507e-02,3.414504826068878174e-01
3.025851110113467746e-01,3.094586591408423626e-01,-1.767732992288281735e-02,-4.736604921278686313e-03,-1.044095771815409853e-03,-4.354196073582463321e-03,3.239507079124450684e-01
3.324849083408820127e-01,3.231830182505919247e-01,-3.268577245771464579e-02,4.253443632275392180e-04,3.451771107896571306e-04,2.338510909371983447e-04,3.606112003326416016e-01
3.271668422474837135e-01,3.265653136002242274e-01,-2.676367026471904165e-02,-1.999554053346975883e-03,5.964862692321668556e-04,-2.351483900235512570e-03,3.536720573902130127e-01
3.301792990181367515e-01,3.244730605087924880e-01,-3.275081625284204101e-02,5.907787792034779190e-05,1.995068770813949359e-04,3.329456138501810450e-04,3.601115345954895020e-01
3.249635896053542083e-01,2.999011375083392439e-01,-2.563185698925277145e-02,2.574567798200026302e-03,6.656289790102890361e-03,3.386214568791975563e-04,3.389862179756164551e-01
3.284729788422676156e-01,3.332453994984680978e-01,-2.847669520439050084e-03,-3.253431149981435462e-03,4.098768084107009581e-03,3.398308475107640787e-03,3.339073956012725830e-01
3.207465613405004468e-01,3.210514034509572290e-01,-2.119077286144355199e-02,5.040933860781579741e-03,5.935692769647579400e-03,-3.115908124107031208e-03,3.423981964588165283e-01
3.802769667241565066e-01,3.220157214913946242e-01,5.091949638927256716e-03,3.661097097086185581e-02,1.341190298214307852e-02,-7.055457152928357699e-03,3.563839197158813477e-01
3.303395184638314719e-01,3.230465438820547819e-01,-3.314466090212808691e-02,3.077060589861934097e-04,-5.779394272249152456e-04,4.859722269857787939e-04,3.598958849906921387e-01
3.363938698348210576e-01,3.156632547382224874e-01,3.684406320227570641e-02,2.061183125244381992e-02,1.767009968382844687e-02,-1.029538569699390768e-02,2.940734922885894775e-01
3.326805719820040697e-01,3.304013063164875086e-01,-6.237376467941840863e-03,-1.420490500359564276e-03,5.338936451130473111e-04,-3.040052941585200987e-03,3.378353416919708252e-01
3.278908598946007613e-01,3.197417278031516319e-01,1.406689033293309632e-02,2.809020887785869955e-04,1.178773078495850592e-03,-6.385348720966046304e-03,3.100342154502868652e-01
3.266956428106306820e-01,3.224105357239971381e-01,-3.426180624678784592e-02,3.066611205250128862e-04,-1.361474318612646353e-03,-2.275638974123607753e-04,3.588424324989318848e-01
3.050351409457123242e-01,3.147111059430189872e-01,-3.415975036408550047e-02,4.194364903542697337e-02,-4.043720297376004330e-02,1.405141586921245314e-02,3.594502508640289307e-01
3.025299975311862011e-01,3.160545185120795519e-01,-2.190515825130756600e-02,1.427088830170375119e-02,-8.627170169756441520e-03,8.234942745003808948e-03,3.329663872718811035e-01
3.475384229803088476e-01,2.882551111677491562e-01,-2.706572639780219225e-02,7.522483448162243591e-04,-7.914854450443160449e-04,2.223697735008805729e-03,3.487884998321533203e-01
3.246952615914997509e-01,2.803939263446664221e-01,-1.745168044156683584e-02,4.496272985929514188e-03,7.176220967684339425e-03,-6.323797216272626903e-04,3.226234912872314453e-01
2.859142329871238730e-01,3.136225518889323438e-01,-1.335952838979639901e-02,2.094389461702140728e-02,-4.465226574786356623e-03,5.014221499727218936e-03,3.163480460643768311e-01
3.154353788572945572e-01,2.769680080768340824e-01,-1.508825304597402606e-02,2.714280705059875232e-02,-7.470339159003957889e-03,6.926654655793829801e-03,3.170690536499023438e-01
3.115492686157533830e-01,2.988107511246252956e-01,-1.732017750212933027e-02,1.829414349353439967e-02,-1.152198467594182756e-02,9.625447647067316911e-03,3.252818882465362549e-01
2.137600277148221095e-01,3.347215448641306934e-01,-1.625291325416849952e-02,7.922514481432003930e-02,-2.404206882159337991e-02,2.106584402615363505e-02,3.424260616302490234e-01
2.846023632354733879e-01,3.120003307852365904e-01,-9.271416917591396301e-03,5.066020044682742474e-02,4.365589268156243319e-03,-1.707065038383919322e-03,3.208259344100952148e-01
2.929606121998090118e-01,3.267643608686137680e-01,-2.509424884690553137e-02,1.334484538215193914e-03,1.059935123796742519e-03,-7.319457058361425635e-03,3.364854753017425537e-01
3.175481722770617798e-01,3.210135524734953893e-01,-2.498143455545856484e-02,6.159894287026753019e-03,6.306781444669460994e-03,-5.615356825490486897e-03,3.447510600090026855e-01
3.295235269789745791e-01,3.258896289733815288e-01,-3.251423665869279667e-02,-1.119298604443549048e-04,-8.602514169346697596e-04,-1.470706610516395044e-03,3.602466881275177002e-01
2.918851931171353442e-01,3.198325411338822644e-01,-2.119628500708375940e-02,1.909911396595698890e-02,1.093256368747291297e-02,-1.115742896400576979e-02,3.307222723960876465e-01
2.651858168671997196e-01,3.288127322180835477e-01,-1.675311903776682820e-02,1.259432552276016672e-02,6.977014716950016848e-03,-1.051832608743132925e-02,3.200478851795196533e-01
3.196376940600894612e-01,3.262629307360562225e-01,-3.337204497527590519e-02,-4.119134805099971056e-04,2.677348146808353202e-03,-4.124846722616065664e-03,3.564710319042205811e-01
3.209084902151159713e-01,3.210044699409388413e-01,-3.348565479049131488e-02,1.840384811008902860e-03,1.930847590030470521e-03,-2.066263549912232978e-03,3.544903099536895752e-01
3.083708606639219418e-01,3.108347494911323228e-01,-2.517502988667644215e-02,-1.102537620777380460e-03,2.602668901201301557e-04,-8.646478466683446638e-04,3.347937464714050293e-01
3.287460404055759788e-01,3.261190035425968747e-01,-3.243999180910478453e-02,1.274441187218591396e-03,-1.363499032801720979e-03,-1.087930719396463814e-03,3.598991632461547852e-01
3.344431996107997129e-01,2.618848229154816520e-01,-2.895274596844366055e-02,7.635298808268425885e-02,1.461191359553079376e-02,-1.844584146760074386e-02,3.607000410556793213e-01
3.259861478482620756e-01,3.244349784478921528e-01,-3.499062558289101066e-02,3.220170139796688395e-04,-2.029782155612668091e-03,-7.522770404879503209e-04,3.602236509323120117e-01
3.084264390426380564e-01,3.196388396613131788e-01,-2.306026112595144228e-02,2.020362462099902640e-02,6.914188103821149525e-03,-8.924345690090039127e-03,3.396068513393402100e-01
2.866422080724057575e-01,3.406915278832181038e-01,-2.364276647075938542e-02,2.947305532497788289e-02,3.077440913111833751e-02,-1.439075622601059326e-02,3.493382930755615234e-01
3.282447953829825127e-01,3.251600078619497625e-01,-2.766931025845645320e-02,-1.285128409541058366e-03,-3.779141205394040935e-03,-2.686540089107991233e-03,3.544797599315643311e-01
3.308751368492208744e-01,3.252744689273117662e-01,-1.527687743755845595e-02,2.291566445539592722e-03,-4.996417793026099174e-03,2.694007945275192321e-03,3.435495793819427490e-01
3.302697759605358052e-01,3.410090043861868647e-01,1.732283566625639204e-02,2.763186417812663314e-03,1.399849398969975518e-02,1.132927350239386257e-03,3.194159567356109619e-01
3.425178435421928347e-01,3.199155062708025077e-01,6.547980587116114526e-03,1.448597528011830518e-02,1.704620116560817689e-02,-1.428436821419886392e-02,3.284909129142761230e-01
3.197161215038262783e-01,3.315972871107372155e-01,-1.335401089623178272e-02,1.716463347719503034e-03,-1.136692612156690483e-03,3.458321233943567521e-03,3.392384648323059082e-01
3.177696756860535765e-01,3.270384599246852764e-01,-2.681041207782683400e-02,4.004078011070599623e-03,1.163568308975767435e-02,-6.890040956263175469e-03,3.501597642898559570e-01
3.336889803423195855e-01,3.452759483654699868e-01,-2.239977432971190785e-03,8.106817854861341974e-03,-1.020182223410082828e-02,7.067028910133928664e-03,3.428325355052947998e-01
3.243115262222016626e-01,3.215796170481993732e-01,-3.510666633660330938e-02,-2.079748773408441644e-04,-1.024608075355540370e-03,-2.439150707223333562e-04,3.580648899078369141e-01
3.230249857259335777e-01,3.216189494732811793e-01,-3.507416492041520728e-02,9.300933532896017296e-05,-1.642871410036823897e-03,-2.670533384314342502e-04,3.574098646640777588e-01
3.094578746664123914e-01,3.250745242289555526e-01,-3.059487719656220350e-02,5.555826068720244593e-03,7.148303427391550918e-03,-6.741179501544648615e-03,3.486724197864532471e-01
3.206108894902631734e-01,3.294984922618363621e-01,-3.032427255017733358e-03,-8.043815525465764817e-04,2.283406357814806841e-03,-4.754028556447470119e-03,3.283074498176574707e-01
3.227714810407464330e-01,2.863127869391783320e-01,-1.857331597417236080e-02,-5.588629857899314428e-03,-7.674563948175169154e-03,-6.752319005865261301e-04,3.250727355480194092e-01
3.204438595484884744e-01,3.182426536118214133e-01,-3.168877715070417267e-02,-1.137237844839748000e-03,-9.525191610694988561e-06,-5.565273890513563635e-04,3.510440587997436523e-01
3.209835051612112689e-01,3.489957019094315216e-01,-3.075180699340776536e-02,8.952787824363693872e-03,1.456530358975196594e-02,-9.249144326398592991e-03,3.680880665779113770e-01
3.121660814554294006e-01,3.113488032365147040e-01,-2.365436770481407769e-02,7.199117534395726992e-03,8.592212241316522434e-03,-8.256291072319702981e-03,3.362782299518585205e-01
3.197002629148333885e-01,3.189325003101384226e-01,-3.232303978189299265e-02,-1.040845313635504815e-03,-4.643250057394082350e-03,-4.771084335328348619e-04,3.517375886440277100e-01
2.864375570548886030e-01,3.505551541753949563e-01,-2.651261635810936435e-02,9.032102902049211554e-03,1.017629072152836413e-02,-6.177987444515970275e-03,3.504060506820678711e-01
3.204550736110303721e-01,3.205301580118786742e-01,-3.382025293313559167e-02,-9.221868923803465076e-05,-1.366681583084318474e-03,-1.211863171267154194e-03,3.543270230293273926e-01
3.424770650217535684e-01,2.632683039267417202e-01,-2.135957162712362467e-02,-1.182683476733511520e-02,-9.153318628264798390e-03,-4.696842266607933331e-03,3.325195312500000000e-01
3.296338082257034285e-01,3.030328664202002198e-01,-2.400885267860736194e-02,-1.093583639382113976e-02,-7.935805341300812901e-03,-6.744151806938446930e-03,3.421223163604736328e-01
3.252078548250828538e-01,3.030188646729126134e-01,-2.652402224754901727e-02,-2.192607920900022100e-03,-7.028261068956214060e-03,-6.411329487443405634e-04,3.414190113544464111e-01
3.157659665920582448e-01,3.105943626120545864e-01,-2.514396785239900178e-02,-1.097130127406343051e-03,3.928131032558376638e-03,-8.619147181785054637e-04,3.384307920932769775e-01
3.240438444314305277e-01,3.194315392610977966e-01,-3.443194575058627915e-02,-3.771535240316194475e-04,-2.357436152564968985e-03,-1.930850787632669169e-03,3.562317490577697754e-01
3.147724552504083118e-01,2.904299236782340587e-01,-1.774534418231227262e-02,-7.209150776059576951e-03,-5.780148894262857918e-03,-4.715883319888473815e-04,3.214391469955444336e-01
3.051913085109199120e-01,3.096754753032864849e-01,-2.161067403102659434e-02,-4.105580960901069817e-03,-4.294939966557798430e-03,-4.931262833559845772e-03,3.293386399745941162e-01
3.033633627086195217e-01,3.047990055699330014e-01,-1.787413987344352306e-02,-3.081660096755748767e-03,-8.438749938184323795e-04,-3.095010801507690982e-03,3.220499157905578613e-01
3.049714063413694332e-01,3.036496662073737696e-01,-2.212363574243453312e-02,-3.556806740636037772e-03,-4.751656149346177721e-03,-2.981872554739670427e-03,3.266388475894927979e-01
3.215028834366677191e-01,3.229962912030674982e-01,-3.518201454083305646e-02,3.192945443397412738e-04,-8.159051410749013696e-05,-9.036040521567121264e-04,3.574378192424774170e-01
2.965350999333727922e-01,3.156203983521388423e-01,-1.884091257742195880e-02,-1.460563202158955687e-02,-7.158083330962817896e-03,-1.087281081348995780e-02,3.270988762378692627e-01
3.157732083995523076e-01,3.187592257776709070e-01,-3.208882286787223537e-02,-1.381318679541544865e-03,9.253637394973368297e-05,-4.458670247287487985e-04,3.493736982345581055e-01
3.045335331709716487e-01,3.082753424026677957e-01,-1.763569691684405139e-02,-6.882039686489237369e-04,-8.740137364182207647e-04,-3.124594293142663858e-03,3.241072595119476318e-01
3.223892995495011293e-01,3.294182962119771574e-01,-2.676802942118564066e-02,-3.381599735352493088e-04,6.033480599975960543e-04,1.629832104018148753e-04,3.527265191078186035e-01
3.098669897034388998e-01,3.210303564326042469e-01,-3.125077310582294321e-02,2.264748332050581497e-03,2.288652700681193149e-03,-3.906335000638209466e-03,3.469450175762176514e-01
3.243834024898779034e-01,3.304380585551713878e-01,-3.174453213106626093e-02,6.699050048498043052e-04,-1.112305150472446850e-03,-1.754342061708973098e-03,3.592134416103363037e-01
4.270549481050887608e-01,6.971072216809424960e-02,-3.092229579332497758e-02,-8.178265976004737633e-03,1.036783201458126719e-02,2.913554850159870944e-03,4.175297915935516357e-01
3.228953483410566538e-01,3.307603359766314588e-01,-2.716106468455481426e-02,6.002751039755634512e-04,3.967838255914716509e-04,1.688231195141453992e-04,3.540567457675933838e-01
3.302715325721751194e-01,3.211333918341386373e-01,-3.011184502154834464e-02,-1.826322129696328778e-03,2.037002933046487291e-03,2.327706606287927114e-03,3.559566736221313477e-01
3.248885137093666664e-01,3.302864817958910959e-01,-3.231621941260859332e-02,4.869751326396212429e-04,-9.124628213752421875e-04,-9.791901598373783672e-04,3.599425256252288818e-01
3.300333908237308433e-01,3.176371042095054720e-01,-3.276214542648595018e-02,4.431371597723516220e-04,2.749772504731563122e-03,4.820205712767159246e-04,3.567925393581390381e-01
3.179411507346403543e-01,3.322628066462519625e-01,-3.127382704979686512e-02,-9.246461263644541618e-04,-1.844241164835977703e-03,-1.646205597174499498e-03,3.566208779811859131e-01
3.324912915085284637e-01,3.150545776243516283e-01,-3.169550250715713613e-02,1.132935775739405716e-03,-1.310167826903818199e-04,9.626069980188764908e-04,3.557984232902526855e-01
2.408776843358092501e-01,3.463340281543791921e-01,-1.012246429523261382e-02,7.618150957695950937e-03,-2.318696554677017344e-04,2.953309982658097570e-03,3.174777328968048096e-01
3.186538627156805248e-01,3.304848512767964985e-01,-3.203038822263623575e-02,7.791981642983576229e-05,-2.295840126504947957e-03,1.739865254877167276e-03,3.567818105220794678e-01
3.187160963743268516e-01,3.299951196788638019e-01,-3.178759395193669901e-02,1.962636721080994690e-04,-2.572385510059708395e-03,2.059151774951684371e-03,3.563230037689208984e-01
3.246478253335637332e-01,3.303237925315076762e-01,-3.201107230233940504e-02,-3.804695871462278290e-04,-1.440297427143527034e-03,1.362880625316625210e-03,3.595474958419799805e-01
3.190061326744147441e-01,3.287600628897993649e-01,-3.185685953490446920e-02,-2.144055462134194156e-04,-2.555345997802665678e-03,1.885175162464038535e-03,3.558829426765441895e-01
3.247138790749224957e-01,3.285694594036741023e-01,-3.165599001350483110e-02,-2.670964332257964695e-04,-1.612366914176076478e-03,1.832051910724164174e-03,3.583384454250335693e-01
3.195284816648507609e-01,3.224182247756355313e-01,-3.090174927616481937e-02,-2.070689567151508606e-03,-5.830968427844465327e-03,-6.890853859062117184e-03,3.522494435310363770e-01
3.197298981046282074e-01,3.081672670106026524e-01,-2.432950107105733006e-02,-1.242739143325588243e-03,-3.407786658407473395e-03,-7.493886487680201294e-04,3.384870588779449463e-01
3.105854914881159834e-01,3.083389313963676992e-01,-2.432068790727781593e-02,3.900044958758005467e-05,-7.652884093528833321e-04,6.149995818410378590e-05,3.337912261486053467e-01
3.012658205893230523e-01,3.143623679370101121e-01,-2.195636590338678751e-02,-1.090750852890939523e-02,-5.876583629519220066e-03,-6.705517414377721620e-03,3.308664560317993164e-01
2.942737950632063337e-01,3.141073429652526672e-01,-2.232699370954399631e-02,-6.006426353007599320e-03,-3.948235209283996842e-03,-6.823779386483028175e-03,3.274193704128265381e-01
3.383686546775821480e-01,3.152400129122574501e-01,-3.131458147655336033e-02,1.513295875023586362e-03,3.742483751797401792e-04,1.550664375173494043e-03,3.586988449096679688e-01
3.019983725980975309e-01,3.148013460998498880e-01,-2.188591552523544426e-02,-1.479064511497846235e-03,-3.196011847470707663e-03,-6.075615072101968848e-03,3.306955993175506592e-01
3.386781265841097843e-01,3.149087891797668903e-01,-3.238995577141490223e-02,1.088374633065019052e-03,2.566807487014400972e-03,9.670088728239889693e-04,3.598091006278991699e-01
3.128665142200646176e-01,3.225034811264795853e-01,-3.015937106681593205e-02,3.790484390426702142e-04,-2.063011747031037301e-03,-4.346927913836022908e-03,3.480449020862579346e-01
3.120943876667205963e-01,3.227331193049632896e-01,-3.019162206227243850e-02,-4.455674336007280772e-03,-2.410364977106518435e-03,-4.345023321523936756e-03,3.479195535182952881e-01
3.036794951601573533e-01,3.129349128285714432e-01,-2.189415175288386695e-02,-2.686422088510726034e-03,-3.650188792030293738e-03,-5.171608577868827723e-03,3.305132985115051270e-01
3.342260678222650494e-01,2.965546653598695181e-01,-2.637522606052458696e-02,-2.687367201809329198e-03,-6.407735292312209500e-03,4.942831459553959734e-04,3.435311317443847656e-01
3.590492401798573985e-01,2.416691629887128545e-01,-1.877302690486054582e-02,3.083353422720389557e-03,4.991941685936422853e-03,-5.969609274928242866e-05,3.350854218006134033e-01
3.263150018428144783e-01,3.174461219804496359e-01,-3.219607284445821782e-02,-1.790282924561299185e-04,-4.573273433957912235e-03,-3.583151071619232702e-04,3.542491793632507324e-01
3.185871969955670346e-01,3.202288118270724127e-01,-3.191771901523390853e-02,1.199652244173340888e-03,-4.844961891744550223e-04,-2.777882325181481749e-03,3.513686954975128174e-01
3.161119658761211704e-01,3.149948952097610388e-01,-2.897564292951304576e-02,-8.842625412806323203e-04,-2.468049421116541749e-03,-1.479539426541927197e-03,3.445698916912078857e-01
3.338281117476702420e-01,3.147709612458355344e-01,-3.226251223347142982e-02,5.134812923476611470e-04,-2.805460399207477477e-03,1.337673909952917857e-05,3.569779694080352783e-01
2.886270069630079149e-01,3.063089631622467612e-01,-1.014570994029631579e-02,4.767866445856754239e-03,2.902145975387407199e-04,-2.665361209238489588e-03,3.081402778625488281e-01
3.233288513917985108e-01,3.226326599791864980e-01,-3.551908111278087588e-02,-8.363790011091147764e-05,4.380012402375080380e-05,-2.212711700417266739e-04,3.585005998611450195e-01
3.259057995008145525e-01,3.230443190362062844e-01,-3.386280465163063469e-02,-1.158896024338029393e-03,3.368219994812305870e-03,-2.293529584148814270e-03,3.584215641021728516e-01
3.245926813899643326e-01,3.231274658571291480e-01,-3.457547514051134696e-02,-4.743662608901468253e-05,4.862142345714003935e-04,-4.859305444715801038e-04,3.584397733211517334e-01
3.299525488863374045e-01,3.124480133552739458e-01,-2.399583362993226721e-02,1.678598065307024875e-03,4.149606236077276779e-03,-3.298762528878864102e-03,3.456630110740661621e-01
3.151385893820727313e-01,3.130570749007218767e-01,-2.900362854175492222e-02,-1.127584166419563294e-03,-3.470649415470818469e-03,-2.392672311093915153e-03,3.431894183158874512e-01
3.223726018455979059e-01,3.321752467770088812e-01,-3.304172323533163813e-02,1.859239814366985954e-04,1.947302777764776287e-04,-6.607582187485412043e-04,3.604177534580230713e-01
3.250545967692201055e-01,3.239183035822819634e-01,-3.488378889238863412e-02,8.974451358506770320e-04,-1.159336493538186408e-03,-1.481961840995008398e-03,3.593897223472595215e-01
3.247763007326475715e-01,3.222476571668891343e-01,-3.531382706300650876e-02,-2.010905578577113200e-04,9.904630295283092887e-04,-5.333456113980225522e-04,3.588379323482513428e-01
3.453595987335660311e-01,2.512665865700652867e-01,-1.739549367131967839e-02,-1.045705149295024158e-02,4.384765313022499084e-03,-8.803681819261713641e-04,3.266497850418090820e-01
3.528741778163623222e-01,2.319403748551151501e-01,-1.463834082382584056e-02,-1.574055293891915563e-02,5.109717686736858951e-03,1.263250906142173932e-02,3.264140188694000244e-01
3.311912169584475540e-01,2.812571465278318472e-01,-2.414815865262137651e-02,-5.743303168963658986e-03,8.321406538903508565e-03,1.101647847432174303e-02,3.341956436634063721e-01
3.383118696071012454e-01,2.777093316295968228e-01,-2.401238521612020227e-02,-3.544507429454072690e-03,8.803684855802315287e-03,1.056879491545159068e-02,3.370445966720581055e-01
3.279111273343386923e-01,2.709473196990579424e-01,-1.455496240102277516e-02,-2.762444365748765313e-02,6.308248781968318897e-03,9.453771891849519285e-03,3.220194876194000244e-01
3.295081938251259723e-01,2.651636859129719026e-01,-1.570762247204735007e-02,-9.256061810623609359e-03,6.920891761385787946e-03,2.751671187955826488e-03,3.186296820640563965e-01
2.998656627955589293e-01,3.005361767288623476e-01,-1.227275386529805279e-02,-8.998590668513484908e-03,3.961467722353518781e-03,2.376881891527848033e-03,3.129650056362152100e-01
3.017502518993345206e-01,2.996554391817244922e-01,-1.330782231445529207e-02,-7.790449737891537007e-04,2.423876793761425234e-03,1.253586510085308954e-03,3.140543699264526367e-01
3.150619942930725781e-01,3.154807249754815190e-01,-2.857438333684389486e-02,8.446087065776695306e-05,1.525265350726224796e-03,-2.454518100730477929e-03,3.438823819160461426e-01
3.214736308338293491e-01,3.243268525070867603e-01,-3.438911534430597050e-02,-1.376841455741178478e-03,-1.383079512496683278e-03,-2.640929076003667528e-03,3.573431670665740967e-01
2.994178398251222672e-01,2.967860892243610049e-01,-9.712144353542201403e-03,-1.134307894867228909e-03,8.113427321311628766e-05,1.210630972536247255e-04,3.078289330005645752e-01
3.009382190997323403e-01,2.934295946260424559e-01,-1.082651563500922065e-02,-5.947416283616934266e-03,1.820006814404827311e-03,5.266805761723656427e-04,3.082686960697174072e-01
3.145216713630993310e-01,3.143498837495384279e-01,-2.897543508398195411e-02,-1.321188701000594211e-03,2.418434703279459530e-03,1.345025873977251157e-03,3.434523046016693115e-01
3.140957646174773465e-01,2.920969550078662547e-01,-2.398845873091418057e-02,-7.009744708371980909e-03,5.748515371327482699e-03,4.053016064284363854e-03,3.280903398990631104e-01
3.396382925888435933e-01,2.833945138232711880e-01,-2.778984390147348771e-02,5.745054391233568418e-03,-1.216995508243063533e-03,1.848563998184648335e-03,3.429503738880157471e-01
3.291129597684149255e-01,3.256345364772985085e-01,8.534082353959804301e-04,-1.016149145812523342e-03,2.393175649783984421e-03,-7.015165936014226486e-03,3.267912566661834717e-01
3.127988310684348683e-01,3.036628511635347527e-01,-2.346025863542228196e-02,-2.634239257999137270e-03,5.187271654084201974e-03,4.607085150270886359e-03,3.320343494415283203e-01
3.191517205817531178e-01,3.116516881346989010e-01,-2.960293815761272374e-02,-4.611375007142964194e-03,5.112173905678783076e-03,6.272190347326436245e-03,3.454426229000091553e-01
3.133433156491414739e-01,3.141998906792784485e-01,-2.285715770736440611e-02,-8.196723657044780939e-03,5.663267391420738310e-03,4.707958633792341460e-03,3.371702134609222412e-01
3.391177307369383498e-01,2.884365853190826723e-01,-2.629969702970727519e-02,1.837704360304343119e-03,-4.609308377432251580e-03,2.084908877010214785e-03,3.430242240428924561e-01
3.253996247508756934e-01,2.804238974840337906e-01,-1.889445204211298579e-02,4.509300289897082842e-03,6.809897867750653970e-03,-6.598360367528592358e-04,3.244653940200805664e-01
3.272718849082728587e-01,3.229415038371268309e-01,-3.180101610431473880e-02,-2.247794269736835522e-04,3.956258856425233831e-04,2.879041990978837553e-04,3.569286167621612549e-01
3.427785821263680255e-01,2.731405495263151684e-01,-1.836988379764398216e-02,3.883386519140515254e-03,6.737758741323028079e-03,-1.908073640537342498e-03,3.321450948715209961e-01
2.956959233800808273e-01,2.458172132162073642e-01,-1.206976566066456091e-02,-1.589961185141514355e-01,-7.660445627235404342e-03,-3.519316151650836444e-02,4.019796848297119141e-01
2.655262114738529688e-01,3.267149672980405040e-01,-1.646709330811346739e-02,5.249470784671200416e-03,2.315506393312019833e-04,8.319344830568396396e-03,3.175052404403686523e-01
3.281344924406600638e-01,2.994362596497093798e-01,-2.689346254751812104e-02,5.347074705589690245e-03,-6.273258409760605961e-03,-4.799185079272548027e-04,3.418834507465362549e-01
2.606267650459799246e-01,3.377563214402138914e-01,-1.994676050649799026e-02,7.649925459514043263e-03,7.637706233888679657e-04,3.986709791541074611e-03,3.263984918594360352e-01
2.345770936969130971e-01,3.386777772895351868e-01,-8.578301771410279386e-03,4.722931038221997446e-02,1.017371776381560753e-04,-1.393461393736209787e-04,3.193212449550628662e-01
3.310559750666224321e-01,3.216285236179330376e-01,-3.185897961745084994e-02,-1.126098285377654523e-03,3.489374073102717837e-03,-2.393026556760969280e-03,3.583745062351226807e-01
2.408388056335166727e-01,3.451859012781419156e-01,-7.778518196578959598e-03,7.589994506118287118e-03,-1.734111768705468514e-04,3.551156731665739471e-03,3.144075870513916016e-01
3.282576199939438721e-01,3.227631989037533788e-01,-3.043458771489554460e-02,-1.239035844426758374e-04,1.595563453817919804e-03,5.153665209194405704e-04,3.559887111186981201e-01
3.273689980999815452e-01,3.225093814964644645e-01,-3.446365722678981780e-02,-1.105357189641949017e-03,1.003453065940461278e-03,3.546567507458136203e-04,3.594373166561126709e-01
3.963029401822777409e-01,2.546903549936136990e-01,-5.752457387342468920e-02,-1.341959331379414533e-01,5.864308915316551220e-03,2.197273832425229029e-02,4.661792218685150146e-01
3.460457025798631681e-01,3.237632543694928255e-01,5.184821309621479024e-02,8.184769498936577542e-03,1.403269802322083988e-02,7.916155208527387438e-03,2.854346632957458496e-01
2.376336141781513478e-01,3.543427507899640783e-01,-1.627625204479710153e-02,-7.643302420925023391e-03,-9.922602358481554322e-03,-7.108436055278480672e-03,3.291611671447753906e-01
3.027008811689181345e-01,3.267243299713351590e-01,-2.735423811146156514e-02,1.992343253919900449e-03,1.862404909536038403e-04,6.477825208401225519e-03,3.429000973701477051e-01
3.146499465710044796e-01,3.083733996139436662e-01,-2.566004975103280961e-02,-3.207976497189663108e-03,-6.589752539714202953e-03,-1.119860806724930864e-03,3.374599516391754150e-01
3.269700598397732860e-01,3.249976645370279416e-01,3.995672740103969889e-02,6.523058863190536825e-04,-5.183584309728491747e-03,7.655768543080133243e-03,2.864823937416076660e-01
3.188473267335770744e-01,3.278245127529338943e-01,3.000262393739447364e-02,3.423787489540159462e-03,-1.405309311690783325e-02,5.269800777175613626e-03,2.946452200412750244e-01
3.870887246331446430e-01,2.665156539032169647e-01,-2.621849910669368788e-02,-2.796171613072970241e-02,-1.403955588696880093e-02,-2.873279277722170719e-02,3.754206001758575439e-01
3.279542590742580144e-01,3.293066693102097986e-01,2.181490367948762943e-03,-3.052288482422517955e-03,-2.817820866555371690e-03,1.482990691465574254e-03,3.265404701232910156e-01
2.645868822292839484e-01,2.796418816601223822e-01,-1.549319830961776168e-02,8.212606273290419534e-02,1.115701559290043464e-02,-8.884324688787624894e-03,3.220751583576202393e-01
2.928768031994020693e-01,3.098924419525743157e-01,-2.459024155544151102e-02,2.375220784191734227e-02,7.658463159850260535e-03,-1.044056159210774576e-02,3.296547234058380127e-01
3.206118200678187979e-01,3.210940200478503148e-01,-2.352790384314704109e-02,5.230863075885623832e-03,5.041166306787975802e-03,-1.984433780062093335e-03,3.446280062198638916e-01
3.155343407959190216e-01,3.144663729422601528e-01,-2.866868879103159906e-02,3.831948344879102658e-03,2.824291305215562067e-03,-3.381817789384065562e-03,3.438190817832946777e-01
3.140790520068090785e-01,3.096580921477914972e-01,-2.528867486966382416e-02,3.762704980277170488e-04,3.595847327913398363e-03,-6.957738951433145146e-04,3.372392952442169189e-01
3.201434773461917516e-01,2.972510079429304675e-01,-2.159342807424183275e-02,3.254160740284833299e-03,5.852752723820730044e-03,-2.657415767765909653e-03,3.311203718185424805e-01
3.002636737675443146e-01,3.020749143475830456e-01,-1.967066454958160682e-02,-3.731734325704381960e-02,-9.830254796039179094e-03,-1.693924307519155750e-02,3.290428519248962402e-01
3.447065053122542189e-01,2.296265526099045273e-01,-1.782980466447647849e-02,-4.290564640402908664e-02,-1.735518471183557232e-02,-3.477509987754869719e-02,3.361688852310180664e-01
3.224286819679311189e-01,3.030574989241650030e-01,-1.894813001623230075e-02,-3.616635686304745662e-02,-1.642905556652332968e-02,-1.397452902388079087e-02,3.400295972824096680e-01
2.845447643653100100e-01,3.488384195686758393e-01,-2.778817731405208713e-02,-5.488661234770495076e-04,1.058536169168381455e-03,-5.178179439796611223e-03,3.490720093250274658e-01
3.087991840078775918e-01,3.085360891153505758e-01,-2.490862297832688310e-02,-1.085338710866365916e-03,-3.654643165847606869e-03,-7.448642742519226336e-04,3.336441814899444580e-01
3.126686936899544245e-01,2.697677566606933031e-01,-1.698296065255727738e-02,-6.627021277348141282e-02,-1.518038585248231848e-02,-2.352852191509134314e-02,3.345080912113189697e-01
2.885178015104853388e-01,3.065868760238109614e-01,-2.983683215478050155e-02,-8.298701523705181993e-02,-1.952815375140969176e-03,-9.772568392579627367e-03,3.583113551139831543e-01
3.312576769769189355e-01,2.603145901167677190e-01,-1.396610477308082854e-02,9.928119151907317461e-03,-5.973563087285450011e-03,5.652452363374168079e-03,3.165750205516815186e-01
3.077857618467355616e-01,3.082973703988435843e-01,-2.090731071798249130e-02,-1.151085436578049362e-03,-2.685547561180689959e-03,-2.328143354105217337e-03,3.290128111839294434e-01
3.421397043251629411e-01,2.656519287814332886e-01,-1.757176347140348982e-02,-3.255968498468577582e-02,-2.681626016575419658e-02,-3.489373429725612513e-02,3.416425585746765137e-01
3.274243221169442775e-01,3.264444328864631872e-01,-6.458381743513624818e-03,2.395980637974898415e-03,-2.773023261374032555e-03,-2.403958640613899477e-03,3.334802687168121338e-01
3.065869663399338751e-01,3.183107837172532983e-01,-2.571014788272391050e-02,3.420285493279307497e-03,-4.223733439200657962e-03,-6.535933748555427560e-03,3.386316299438476562e-01
3.077019178042426084e-01,3.083406467037670962e-01,-2.032595305651618833e-02,6.170067700524895686e-04,2.975767988719710527e-03,-3.041360195910555037e-03,3.284321427345275879e-01
3.701820811963931757e-01,2.572195223043171608e-01,-2.428824852589989147e-02,-2.449469869329699151e-02,-1.315032738213986474e-02,-1.898446204593076322e-02,3.566609025001525879e-01
3.493910521158628546e-01,2.677695558281892318e-01,-1.996172176145069588e-02,2.720206733952356109e-03,-2.983001015812699989e-03,1.072097984795961599e-02,3.366453945636749268e-01
3.219686886573427942e-01,2.820693247929420555e-01,-1.344338193424041150e-02,1.527025164812505220e-02,-6.220304339820100295e-03,6.688342271547596807e-03,3.188421428203582764e-01
3.105260665378705709e-01,2.897192710655028813e-01,-1.141766131418786578e-02,-3.347270060933796483e-03,-2.541614473643632761e-03,1.815433506966088715e-04,3.121460676193237305e-01
3.037068306253535854e-01,2.988319623908325395e-01,-1.649004209097407192e-02,5.222667837993936676e-03,3.985762955051931969e-03,-9.362976935678328288e-04,3.179952800273895264e-01
2.754289952413073728e-01,2.867259775934136168e-01,-2.426910785169578144e-02,6.338627598057344770e-02,6.252675440089097182e-03,-1.429338051245438238e-02,3.257543742656707764e-01
3.541094095502910211e-01,2.371812435440642797e-01,-1.272493354117454345e-02,8.161458557096842523e-03,-8.237066140276236292e-03,8.813543860975707467e-03,3.255499601364135742e-01
3.135691662192628959e-01,3.197128839095054742e-01,-2.852173063904828165e-02,1.100284110478592621e-03,2.467374517792788290e-03,-4.747572693553277559e-03,3.453333973884582520e-01
3.258008465216314375e-01,3.264641187842963754e-01,-2.990590666752199200e-02,-5.399812892836190108e-04,4.384975566906250399e-03,-4.199844749662296102e-03,3.561953604221343994e-01
3.071620384346637200e-01,2.893377240067466771e-01,-1.089919877220787980e-02,3.469806820146033310e-03,1.403038269573663420e-03,-3.047451727182515766e-04,3.096025586128234863e-01
2.999899712983424838e-01,2.942921604095305455e-01,-1.360256099728807122e-02,6.762374653361451562e-03,2.907610335168766581e-03,-1.364902757952480162e-03,3.110531866550445557e-01
3.564392183646424295e-01,2.330208049685694172e-01,-2.408303990747387435e-02,8.788397944780514115e-03,-3.469666363464448799e-03,3.580689937549959290e-02,3.423157334327697754e-01
3.208305236967860519e-01,3.323935526248025796e-01,-1.863139287346207706e-02,-4.655158378180300829e-03,5.275252953169543534e-03,5.235008634324130744e-03,3.457224667072296143e-01
3.567515762030409876e-01,2.649878623017004053e-01,-2.878093021683095221e-02,2.989859703717470240e-03,8.658181551062978923e-04,1.575353383978263244e-02,3.499308228492736816e-01
3.446471559106970561e-01,2.373747629716695118e-01,-8.549222378383652954e-03,8.878596857991557026e-03,2.621545354212596185e-03,1.787068612046063462e-04,3.140446245670318604e-01
3.643657352504343638e-01,2.333928693611993510e-01,-2.233245104339276477e-02,6.002632279249110747e-03,-6.953120057159957457e-03,3.706887170944134224e-02,3.470127582550048828e-01
3.091928146433440827e-01,2.877720791464682959e-01,-1.055306877742456795e-02,5.238563411059619403e-03,-2.400691881315880020e-03,1.555892102379880198e-04,3.097527623176574707e-01
3.719151473720883616e-01,2.591865585429907748e-01,-2.185243243895021448e-02,3.357864909334560416e-02,-5.231977848457081137e-03,3.196729932567488747e-02,3.604194819927215576e-01
4.608983902563793533e-01,1.857439652539591146e-01,-5.245947816877027936e-02,-7.735725837446355557e-02,1.103504775497284388e-03,3.718138580822002298e-02,4.691449999809265137e-01
3.185239492617565893e-01,3.209270293540423258e-01,-3.193891368961113142e-02,-3.843155138392284186e-04,-3.649454049175690756e-04,2.659163054715499470e-03,3.517019152641296387e-01
3.224730783403139123e-01,3.269219671869251220e-01,-3.397821905643844120e-02,-1.757270332096472513e-04,1.196513024852324423e-04,1.563050338575640037e-03,3.587068319320678711e-01
3.234121334865630026e-01,3.121101145561310797e-01,-3.102014041387762822e-02,2.079246002475835381e-03,3.217426094599158161e-03,-5.654002205318242212e-04,3.489830195903778076e-01
3.631316398584878424e-01,1.937349664258923299e-01,-9.292097473747651382e-03,4.837678660032584954e-02,-1.142657581546331451e-02,1.346173632124871879e-02,3.350576460361480713e-01
3.378661452547461197e-01,2.714122801046087163e-01,-1.855318444241066400e-02,-2.972628930535195935e-03,-6.447641813817570240e-03,-1.299149525737570325e-03,3.285143971443176270e-01
3.225793085044804664e-01,3.246723401312993085e-01,-3.381595361666575594e-02,4.646651694522599060e-04,1.668930091960013932e-03,2.086308156274955042e-03,3.574772179126739502e-01
3.599692782052068551e-01,2.470813419974429992e-01,-1.864718724782912784e-02,-1.913872244958359046e-04,1.623588543182057737e-03,1.552028526939309679e-03,3.367018401622772217e-01
3.194236626447140570e-01,3.232625774843919664e-01,-3.382061360283195040e-02,-7.529296351887255654e-04,9.413612663703704647e-04,2.412046609280912336e-03,3.552100062370300293e-01
2.918123790517528904e-01,3.252908482720348049e-01,-2.453829259416479003e-02,-3.488755281020014185e-03,4.951081031947983727e-03,9.020611311777702174e-03,3.348785638809204102e-01
3.188250464513888160e-01,3.120425990914036385e-01,-2.551447683685967305e-02,5.186185780972892099e-04,3.584431653194224739e-03,-6.947241269022971268e-04,3.410587012767791748e-01
3.225388534471824165e-01,3.231305409554922070e-01,-3.542517591448238190e-02,6.067576074948513305e-05,2.718146824189993441e-04,1.399251535871523814e-04,3.582606315612792969e-01
3.376679252750905413e-01,3.100475623363615485e-01,-3.069049856238084684e-02,-7.093179376739103042e-04,9.260442814921830343e-03,-1.095688751969205350e-02,3.562240302562713623e-01
3.445943511233037215e-01,2.853531750632539721e-01,-2.321077460045037344e-02,8.144678062797830118e-03,8.414641293340031566e-03,-9.938736006760345854e-03,3.430869877338409424e-01
3.244971530399737847e-01,2.672997333789615682e-01,-1.009964680858485564e-02,7.911691163301905194e-03,1.959628107964572763e-03,-2.550182420880249502e-04,3.103030622005462646e-01
3.820763726751033040e-01,2.919506796823723715e-01,-2.786665289799095113e-03,-8.158334399927381735e-04,1.319444155168954247e-02,-1.483324146378197858e-02,3.503434062004089355e-01
3.414415130523631992e-01,2.713786736632385344e-01,-2.021245961519446688e-02,-2.153493334836003789e-03,-5.470902570044853912e-03,-1.686177634930638089e-03,3.323794901371002197e-01
3.493574684894931170e-01,2.877223744481487433e-01,-2.699004766921953014e-02,-1.636348042258187110e-03,-1.536672854704105662e-03,2.147419724054174060e-03,3.496699631214141846e-01
3.647770513952180993e-01,2.005808292668329884e-01,-6.546416625566903180e-03,1.967838726941181695e-03,-3.848026518116459509e-04,2.275306531292605123e-04,3.223101496696472168e-01
3.237054375964890651e-01,2.665464699906316404e-01,-8.960999848069722828e-03,6.637768597049401725e-03,-3.195754764224106610e-03,1.340873864719388346e-05,3.083537817001342773e-01
3.969858206144178947e-01,2.933375648836903382e-01,-3.607590530496374015e-02,1.765470999579255018e-02,3.853871619112142228e-03,-1.790087170665837640e-02,3.941323161125183105e-01
2.919536067813625624e-01,2.899301584044042257e-01,-2.430354393247516342e-02,-1.318038128775171347e-01,-4.509463878230917516e-02,-1.412310595795619392e-02,3.977416753768920898e-01
3.448331489163346530e-01,2.950034165184444168e-01,-2.905619388466570974e-02,1.165148929234168960e-03,3.475051292410447253e-03,-6.572240337743003730e-03,3.518740236759185791e-01
3.254256547887058870e-01,2.862010072280619655e-01,-1.741805796329676248e-02,-4.963191977936757225e-03,-5.769179344415885716e-03,-4.599082372529545077e-04,3.252796530723571777e-01
3.251515638329072755e-01,3.225421589255467736e-01,-3.450594020286593122e-02,-1.179870872891158841e-04,7.244009729099800537e-04,4.292786809637189581e-04,3.583629429340362549e-01
3.243519932788988536e-01,3.222230170678632710e-01,-3.523793384790499528e-02,3.775650112339326288e-04,1.163008992211185273e-03,6.322414636312719037e-04,3.585381209850311279e-01
3.251922737847032230e-01,3.230926415938221163e-01,-3.499106339043886460e-02,6.592313446093751384e-05,7.000900530554356963e-04,7.005906315005449572e-04,3.591422438621520996e-01
2.351836530009807080e-01,3.920398638581232831e-01,-3.943848252607737304e-02,2.646933475431434424e-02,-4.034531278135463500e-02,5.770423226104501660e-03,3.875337243080139160e-01
2.895572737099746941e-01,3.419802664216310406e-01,1.307553973040481710e-02,2.581206997041774615e-02,-2.231302023911702070e-02,1.054722930569876663e-02,3.122666478157043457e-01
2.247523980574850089e-01,3.531845680935181697e-01,-1.693483727195235766e-02,2.527504211869367745e-02,-1.191752741973101971e-02,8.430701416111519020e-03,3.293990790843963623e-01
1.761169755039429241e-01,3.858507411505976981e-01,-8.962267281330371649e-03,2.058940670375157198e-02,-4.923647318099825306e-04,4.507004530833203784e-04,3.439957201480865479e-01
1.771553382491737050e-01,4.194217962397208121e-01,-3.256257490593422732e-02,-6.136184545634691060e-05,-3.662768391098680798e-02,1.508029420715186787e-03,3.968801498413085938e-01
3.024270865328662072e-01,3.025503900514872613e-01,-1.681000924405684493e-02,-3.086942407440932193e-03,-3.179486983086528447e-03,-5.556288619387966636e-04,3.193924725055694580e-01
1.958138938611793667e-01,3.794926702699430443e-01,6.224718505107418309e-03,-6.098578320549884191e-02,-3.730210505928478054e-02,-2.870168039469567917e-02,3.497269749641418457e-01
3.059777629015822953e-01,3.307111190513701837e-01,-2.959669909776257990e-02,-1.694542678619541907e-03,-7.985661816757839981e-03,-7.177121637109567208e-03,3.491078615188598633e-01
3.225089605687026517e-01,3.302675017935543522e-01,-3.377699046871207589e-02,2.221472245563014636e-04,2.965187637718147510e-05,-1.368583611610528971e-03,3.602358996868133545e-01
2.362614670263399330e-01,3.627198804142690580e-01,-3.085191932519712465e-02,6.859665076469230720e-04,-2.814674125419192041e-02,-2.536504368152081492e-03,3.514505028724670410e-01
1.132231682937078210e-01,4.467047179714084271e-01,-1.438527090691288368e-02,-1.913942279616197978e-02,-3.450118838425388079e-02,-2.224119918726630632e-02,4.197652637958526611e-01
9.477586407665668233e-02,4.345508267004470349e-01,-3.923667796282856446e-02,6.166396487956855854e-02,4.885640406727073150e-04,5.288592425821775356e-03,4.363856613636016846e-01
3.181365091980565274e-01,2.863177659567029965e-01,-1.664704569367250753e-02,1.183299277122850345e-02,-9.757501668124023142e-03,2.841146751771866236e-03,3.212008178234100342e-01
3.411931133511720837e-01,2.216899804757932191e-01,-1.241584674017567891e-02,1.002360180157601255e-01,-1.637343670981510893e-03,1.341271680908481638e-02,3.574247360229492188e-01
4.025264146198766491e-01,1.921239495138734876e-01,-5.776745710627873009e-02,1.009152077994083518e-01,-3.404174424534560373e-02,3.347233817812088341e-02,4.434884786605834961e-01
3.279855674209437577e-01,3.285009098448603559e-01,-2.437621255052302427e-02,1.726310574455941743e-04,-3.172568598804947643e-03,4.659654148785155364e-04,3.526636064052581787e-01
3.024071215077334118e-01,2.966128077638052751e-01,-1.143655062043869020e-02,-2.587837431204457507e-03,7.888453824757443950e-05,-5.853750928009255391e-04,3.110210001468658447e-01
3.202544860482906541e-01,3.323980389476456354e-01,-2.070443342436542600e-02,2.131437482489569480e-03,-6.421449588453882924e-03,-5.185101754980741239e-03,3.475038111209869385e-01
2.933358976235446725e-01,3.159755074299755995e-01,-2.466903811926698942e-02,8.581274080040205213e-03,6.074552681691252698e-04,-6.717788882893331072e-03,3.304491043090820312e-01
3.372977888518071676e-01,2.598576941463479617e-01,-1.526073513923212333e-02,3.460122623144694376e-02,-9.964767151573484041e-03,1.167858648788193399e-02,3.275532126426696777e-01
3.308287088107959573e-01,2.735158687338922201e-01,-1.709166936218253774e-02,9.480322980893227114e-03,-5.294392597966526316e-03,-2.658550680110252054e-04,3.236463665962219238e-01
3.831657330048253707e-01,2.605331880839028558e-01,-3.520288695743351015e-02,2.981650373371574902e-02,-1.087298581595337772e-02,3.484476287406676476e-02,3.813523948192596436e-01
3.207297460231505193e-01,2.890183556975045032e-01,-2.613759955629826881e-02,2.362819459067925718e-02,-1.543977068336404440e-02,1.686654400539842197e-02,3.369961380958557129e-01
3.300489647525533532e-01,2.217352141634736373e-01,-1.874726898713954815e-02,6.131519473246445362e-02,-1.180339489635071418e-02,2.159509181284176293e-02,3.297073245048522949e-01
3.082356427132526555e-01,3.073186219737491509e-01,-2.141260611513395862e-02,-3.188184622291819685e-04,3.347962897899529368e-03,2.636947916012935371e-03,3.292739093303680420e-01
2.849285168862700224e-01,3.064473084945344428e-01,-1.036174909472162287e-02,4.154357404687379109e-03,-9.049811115965821417e-04,1.152779053960632663e-03,3.067114353179931641e-01
3.154497068462366327e-01,3.151919698135471348e-01,-2.919575358578507807e-02,-3.385364069094319432e-04,2.072882065815423273e-03,1.197753122298806684e-03,3.445421159267425537e-01
3.125028499133467585e-01,3.134709530306272751e-01,-2.294641718680132114e-02,-1.611355566966093077e-03,5.197932940074604692e-03,5.519668246590268314e-03,3.362025320529937744e-01
3.154724417095109423e-01,3.300991442400699194e-01,-3.174144452841706765e-02,-1.392225208876391362e-04,7.256530922428320110e-04,2.740812637184344806e-03,3.547875285148620605e-01
3.376912982739195268e-01,3.263331528422708239e-01,2.112882366775151177e-02,-3.069208282946963087e-03,-3.931438487724561899e-03,-6.337594879968507129e-03,3.113524913787841797e-01
3.217760792764171596e-01,3.247226493416517923e-01,-3.501301732806111344e-02,-4.158268298669006748e-04,-2.332123859324700392e-04,1.603548203978437219e-03,3.582831919193267822e-01
3.105628601131958932e-01,3.130374702850817759e-01,-2.555919867234679455e-02,-1.805043403828625586e-03,7.471591878071687492e-04,3.875725723853536142e-03,3.374499082565307617e-01
3.696519702186517042e-01,3.167065982751137709e-01,4.507923245412615021e-02,-4.361532138726542662e-02,-3.531059669681874819e-02,-5.655691067305572417e-02,3.316768109798431396e-01
3.246454033229013159e-01,3.283107510544698848e-01,4.198010194404747097e-02,-6.208011061137541642e-02,-6.024922036700505051e-02,-4.438921794080343680e-02,3.306238055229187012e-01
3.446746059483031255e-01,3.690726757733862606e-01,4.738470570927544312e-02,-1.230731271006142886e-02,-1.226207211737907234e-02,-2.099087912992845389e-02,3.137788772583007812e-01
3.255477404897434424e-01,2.450785474072426640e-01,-1.144792872467237377e-02,8.093306633772773609e-03,-3.814047857706137114e-03,1.284080635943541521e-02,3.060366213321685791e-01
3.875462679695784729e-01,3.442619994904819181e-01,5.453458762701424156e-02,-1.306049806143746994e-02,-6.400487309956662610e-03,-2.227362127494357177e-02,3.169844150543212891e-01
3.475423684454016504e-01,2.571451276370063099e-01,-1.557145473626225796e-02,-1.915974117811700475e-02,6.059170103730745355e-03,1.529180185158037809e-02,3.303207159042358398e-01
3.303797109912302021e-01,3.258036809968929415e-01,-3.087396432533737189e-02,7.975440554278522692e-04,-1.541598030495325105e-04,-8.072707443856414660e-04,3.589930236339569092e-01
3.071157055180702145e-01,3.091103772766751745e-01,-2.063479757713795881e-02,8.276907828499242750e-04,-1.716583630030999851e-03,3.083017537172201214e-03,3.288123011589050293e-01
3.222384232394215897e-01,3.233086315947682476e-01,-3.557968700858407662e-02,1.742910982820987159e-04,-5.559182825999615246e-04,-5.385915782174474946e-04,3.583570420742034912e-01
3.234326414364998570e-01,3.225366254837983004e-01,-3.582807400699367095e-02,2.331312269766478459e-04,-5.040409484534789280e-04,-4.874630664946315696e-04,3.588158190250396729e-01
3.186261752165757133e-01,3.146194024911017073e-01,-2.842168132739383846e-02,-1.300941129374929292e-03,-3.134333242381192805e-03,-3.092563802286362774e-03,3.451535403728485107e-01
3.220765487795626547e-01,3.201581937644200626e-01,-3.422320737800782497e-02,-8.107117889480869657e-04,-2.787719367511638877e-03,-1.566326530600060029e-03,3.553903996944427490e-01
3.222425514606321317e-01,3.228031739049658233e-01,-3.542463914180554729e-02,-3.111129530394808281e-04,-2.889228714263166278e-04,2.164064495221156349e-08,3.579486012458801270e-01
2.963881440306708748e-01,3.341329677985366842e-01,-2.744667683455587204e-02,2.335790507397003234e-03,6.129528691134086783e-04,4.854278566518072970e-03,3.443906903266906738e-01
3.302819618064340990e-01,3.241990716986644094e-01,-3.035505515867675808e-02,6.159160590720770805e-04,4.005072631587502496e-04,1.641127742978252309e-03,3.576479256153106689e-01
3.204188648115601223e-01,3.202515444001124978e-01,5.510297166752956000e-02,-5.314582438921131198e-03,-1.452666277194695869e-02,5.438943260227164806e-04,2.665836811065673828e-01
3.223059560054370998e-01,3.209883110435460818e-01,-3.555280536229959987e-02,2.776701389106611749e-04,-2.827571876927378338e-04,-9.564482645182394941e-04,3.572062551975250244e-01
3.629783495739173360e-01,2.079310816239442194e-01,-8.900123416816896338e-03,-3.676308718789257808e-03,-8.104610885519800438e-04,5.289180939189549362e-04,3.236013948917388916e-01
2.367210384981301430e-01,3.452836329023056261e-01,-9.362343038526982353e-03,7.899695243857635454e-03,6.936777005042343370e-04,-2.980464375063568254e-03,3.150771856307983398e-01
3.057107424177720745e-01,3.043042188176219298e-01,-1.379744952671976832e-02,6.104156256258507808e-03,4.762250943262121179e-03,-4.626199663178943294e-03,3.191897571086883545e-01
3.014301617946317235e-01,3.001524868777492028e-01,-1.336672810939260048e-02,8.246193372297039737e-04,2.366097086952896871e-03,-1.523696398224808112e-03,3.142010569572448730e-01
3.055896728493140979e-01,3.050961835762996954e-01,-2.100258220893794214e-02,3.816171292666203051e-03,3.109484747141541376e-03,-4.394589960631775476e-03,3.265458643436431885e-01
3.934418647726929397e-01,2.962982148726659437e-01,-3.010754455362185666e-02,-2.677544362437959957e-02,4.175548777965458827e-03,2.069981375438615170e-02,3.888114988803863525e-01
3.064969621725229798e-01,3.049981501726158339e-01,-2.115553478337720006e-02,6.605152209037422339e-03,4.939657034495485537e-03,-4.559267207848108176e-03,3.273129463195800781e-01
2.992744330803094877e-01,3.046729312672531442e-01,-1.736775859967948366e-02,5.658418501764513747e-03,9.442500219748233220e-04,-4.092560574149375907e-03,3.196088075637817383e-01
3.348912317420277285e-01,3.291319380781021486e-01,-2.757568571056037698e-02,-6.636762936373984470e-03,1.267670524294666748e-03,-1.217414892684245313e-03,3.598183989524841309e-01
3.449425679808041378e-01,2.392580071720442347e-01,-5.732562180281397524e-03,-7.190054854564904493e-03,-6.593355422329056454e-04,6.573062262315717500e-04,3.118317127227783203e-01
3.006781274478280697e-01,2.953400981103472822e-01,-1.434922079630068792e-02,-1.474014167525465255e-02,3.961599050458148620e-03,4.497035778920758543e-03,3.136059045791625977e-01
3.066581918371839577e-01,2.879642458115423964e-01,-1.115456079159399261e-02,-3.970652549349041813e-03,1.408999516343467304e-03,5.649658677892640136e-04,3.089780807495117188e-01
3.087024698087947328e-01,2.952372218573707241e-01,-2.690698309091996143e-02,-8.706307793446027565e-02,2.970221908662223562e-02,3.209030546735187200e-02,3.698268830776214600e-01
3.551385770250671259e-01,2.403782739190235551e-01,-1.414723274964721500e-02,-2.719873032390522638e-02,5.191323158584939743e-03,1.222286890651484888e-02,3.315281867980957031e-01
3.292770724944121818e-01,2.814743430969918192e-01,-2.433922468390081750e-02,-8.056178489015941233e-03,7.427825115415637863e-03,9.048212923496314064e-03,3.332140445709228516e-01
3.307658989306857533e-01,2.983664186458214185e-01,-2.705966087289748967e-02,-4.275748726214548788e-03,6.929961790468069580e-03,-6.662775534606006503e-04,3.430681228637695312e-01
3.425860785151568777e-01,2.700234296276776136e-01,-2.510462552200948272e-02,-2.614420163120375392e-03,5.602186618058160525e-03,1.401600580975975209e-02,3.383565843105316162e-01
2.503569953862557207e-01,3.581201951301894448e-01,-1.828926298162705799e-02,-2.660545044990464316e-03,1.931544362191454011e-04,-4.299154770627503126e-03,3.358730375766754150e-01
3.208693918494213149e-01,3.188375938973646018e-01,-3.225555585356323918e-02,2.116332363994839327e-03,3.389774251658393689e-03,-2.416305504565896978e-03,3.522063493728637695e-01
3.231701387062017039e-01,2.654942858455147103e-01,-9.512575375268783606e-03,-5.709950584724754821e-03,-4.368938448538396691e-03,6.039186599621826140e-04,3.081763982772827148e-01
3.229811948592736237e-01,3.205975923435942510e-01,-3.412115279627880859e-02,-8.402316470657545874e-04,1.408035459793264632e-03,-1.517328095347004677e-03,3.559375703334808350e-01
3.157446704958159489e-01,3.152923698605251679e-01,-2.851987879604045428e-02,3.445345514731702080e-04,2.473069413253119273e-03,-1.524329854894788472e-03,3.440759479999542236e-01
3.202414801082075768e-01,3.208093322177870133e-01,-3.437589406740590436e-02,2.003374957777072753e-04,8.696918763360727373e-04,-1.229487234533229887e-03,3.549113869667053223e-01
3.187641822993670382e-01,3.200094429132238072e-01,-3.206999591179640618e-02,-1.037485220298905953e-03,4.274268882802414191e-04,-2.573820336413150042e-03,3.514921069145202637e-01
3.277705072856949009e-01,3.225332993697501149e-01,-3.434842910321705967e-02,-6.833969789102142421e-04,1.149823476688284453e-03,9.703887147044687369e-05,3.595364391803741455e-01
3.237899724956319059e-01,3.275489660751745857e-01,-2.752405934105381369e-02,-1.264670196926600968e-03,-2.371987621447250582e-04,-2.088348155848056102e-03,3.532340824604034424e-01
3.229279734037295846e-01,3.248458147478600622e-01,-3.355894457174754542e-02,-1.731698744525432348e-04,1.069349029542201839e-03,-2.683086861059985357e-03,3.574848175048828125e-01
3.159600236157460440e-01,3.058712538132986603e-01,-2.611518789906588922e-02,6.521382780127180784e-03,-6.787094654860687838e-03,3.957346432261995769e-03,3.376075923442840576e-01
3.196840264981120061e-01,3.248925473809636255e-01,-3.355671999068191025e-02,2.943580680866509443e-04,1.261262352547961934e-03,-2.673804837712917375e-03,3.559108078479766846e-01
2.753815880272804106e-01,3.137413949730003537e-01,-9.464376969251675487e-03,1.382682545022440035e-02,-3.625099245740437447e-04,1.861807104029818008e-03,3.067893087863922119e-01
3.231231164098952169e-01,3.281396275033995891e-01,-3.385584984993983415e-02,-1.195259913269802830e-03,1.075178615367808127e-03,-2.411004423599710442e-03,3.595485091209411621e-01
3.335561297385184476e-01,3.239769308285999072e-01,-3.176051519594061401e-02,1.734070124204070088e-03,3.178202920302390048e-03,3.844042668400068571e-03,3.607384562492370605e-01
3.250224615906409653e-01,3.232224913278166634e-01,-3.279394780090461037e-02,1.254164193215708402e-04,2.708715817161842961e-03,1.549063856398690941e-03,3.569608032703399658e-01
5.097559328322376349e-01,1.818177532697914378e-01,-3.906741251575873708e-02,1.139757054415557920e-02,-6.970201710698537001e-03,-3.798255458603330692e-02,4.833568930625915527e-01
3.254611827257063439e-01,3.206732794112576168e-01,3.444712779769493194e-02,-2.231903859059058189e-03,2.747174577444614057e-03,-1.284812207233766582e-03,2.887235581874847412e-01
3.282003841192907556e-01,3.248834826049626923e-01,-3.355148822410553011e-02,9.754175303144205396e-04,6.910721634880157005e-04,7.333527924741415878e-04,3.601130843162536621e-01
3.280007378693551301e-01,3.229005762729774132e-01,-2.903429859298506388e-02,1.941080917919350206e-04,1.401075919955484294e-03,-5.205689124488999727e-04,3.545220792293548584e-01
3.271093221624170599e-01,3.238436038749338830e-01,9.257798156820373769e-04,-9.370097677451369282e-04,4.254920931244214263e-03,-9.263886196502144890e-04,3.246546983718872070e-01
3.226884456578015259e-01,3.250852872913218006e-01,-3.396497546532137313e-02,-2.470429554295603888e-04,1.543021922825931879e-03,-1.271739804019685711e-03,3.578748703002929688e-01
4.675561749839424186e-01,3.322831793197749684e-01,4.320453470973315002e-02,2.780964540549175218e-02,-1.399502028849855702e-02,7.792317311921007073e-02,4.026084244251251221e-01
2.975977620362432741e-01,3.145065007139282720e-01,-1.549283362064540759e-02,2.822515523015639745e-03,-7.729466208358723445e-04,7.997409289167579233e-03,3.222160041332244873e-01
3.224260339268070208e-01,3.224404131874006874e-01,-3.525706359810129586e-02,-6.562940608838609699e-04,1.009496091518954144e-04,-7.579924528944846944e-04,3.576945364475250244e-01
3.213454737798495109e-01,3.248890393278878186e-01,-3.410285504682980529e-02,-8.524453468952517422e-04,9.337911197083955447e-04,-1.583602419074772207e-03,3.572505414485931396e-01
3.623837954477828749e-01,2.183421451920480316e-01,-8.478218422912436880e-03,-2.997213119619690763e-03,1.845858874707093349e-03,5.931747330284091544e-04,3.238908350467681885e-01
3.267924431875000035e-01,3.251204372240781293e-01,4.286685554730595982e-02,5.481638389654295207e-04,-1.161998923968372973e-03,-1.150513789651895318e-02,2.838025093078613281e-01
3.205339364187778095e-01,3.233120530153221206e-01,-3.429893201171643757e-02,4.169917504103821818e-04,1.347497710754452923e-03,-2.031071684802667875e-03,3.562557995319366455e-01
3.197443726063631808e-01,3.233081317932506304e-01,-3.415930716612231022e-02,9.701247006324792768e-04,-1.822805699350103044e-03,2.805174373408181234e-03,3.557501137256622314e-01
3.300106493037587851e-01,3.247382495562576299e-01,-3.218045690312842932e-02,-6.429772658075753660e-04,4.869578808465223427e-04,-3.428066418247078260e-04,3.595871031284332275e-01
3.226406546511598195e-01,3.276678920042171983e-01,-3.376543415627134004e-02,-1.050363237182371737e-03,-2.780798471074216759e-04,-1.052866741314176452e-03,3.589556813240051270e-01
3.239828073792126450e-01,3.296650954641552334e-01,-3.220065926872689444e-02,-2.691024741231322608e-04,1.689146920851323889e-03,-2.078299315259472639e-03,3.590885996818542480e-01
3.263042655081680454e-01,3.242027331759345654e-01,3.471818378586027931e-02,2.123390923157175510e-05,2.952633129579766268e-03,-4.604884507167400802e-04,2.905871272087097168e-01
3.225906816836804358e-01,3.302071939610192741e-01,-3.288256778105208555e-02,-7.373604987538950103e-04,-4.728070447482998480e-04,-9.602649599289318685e-04,3.593491017818450928e-01
3.293772650426238791e-01,3.291091203545449817e-01,2.057006131205310617e-02,-7.497855551792487021e-04,-7.072566137553684337e-03,6.064294968735709293e-03,3.090974390506744385e-01
3.228321704431352246e-01,3.194626576416845776e-01,-3.381492391864460156e-02,-9.523906137053259318e-04,2.818787707448031695e-03,2.218684931277146825e-03,3.550325334072113037e-01
3.240681611172431253e-01,3.287597747824602124e-01,-3.039602273990343884e-02,-7.429543763607495202e-04,-1.145217704399470416e-03,-1.224359273756446716e-03,3.568472564220428467e-01
2.930824595228985752e-01,3.116071804700099035e-01,-1.371685530588204194e-02,1.813417618056980055e-02,-4.346029280584566383e-03,6.844338881141750867e-03,3.183333277702331543e-01
2.981942121384356659e-01,3.393975684551255867e-01,-3.064853317163629409e-02,3.110394745502733597e-03,-5.378026705942056708e-03,4.303498142385209745e-03,3.515053987503051758e-01
3.557145818799595238e-01,2.644984245058292771e-01,-1.700640363980601699e-02,-4.025530623640741733e-03,4.464225366406743105e-03,-8.459540186000722188e-04,3.366804122924804688e-01
3.129238520827435921e-01,3.300263683242915524e-01,-3.152352561635296535e-02,1.954398442640526649e-03,-3.687608560436844707e-03,5.847892963682438036e-03,3.535282909870147705e-01
2.831813215437303799e-01,3.369119153345773165e-01,-2.200380870003268430e-02,3.200701242887107369e-03,-7.896808726394885167e-03,7.920590264043526549e-03,3.358998894691467285e-01
2.859614576259975061e-01,3.319742682026102232e-01,-2.250308992835617361e-02,4.385971936807371921e-03,-7.320792782641630768e-03,6.533867466574452311e-03,3.343761861324310303e-01
2.940252718946868571e-01,3.241867766406563711e-01,-2.643904068552804798e-02,1.838126148321674383e-02,-1.677758260709269478e-02,1.388400433694710924e-02,3.401604890823364258e-01
3.573307522674739611e-01,2.183709905618636815e-01,-6.147330060218031411e-03,-3.003575756991970491e-03,4.537968697621759268e-04,5.918467447682076478e-04,3.177200555801391602e-01
3.278365955794101394e-01,3.311433179724282971e-01,-2.793875144664920152e-02,3.959472013930782214e-04,1.946402447054662675e-03,-3.856958065137740862e-04,3.574573695659637451e-01
3.452852568129881616e-01,2.364597439947926927e-01,-8.450963918968379396e-03,-9.095579886335029146e-03,2.644570099023706936e-03,-1.395621663887398119e-04,3.142387866973876953e-01
3.445211569784689676e-01,2.647610847636031606e-01,-1.857744980856620987e-02,-8.061770770248555262e-03,8.072301021649045880e-03,-3.648552174852310258e-04,3.311077654361724854e-01
2.586334169866169597e-01,3.590548704051930717e-01,-2.545430666081485716e-02,9.030534250970233962e-03,-2.989571508643657644e-02,1.803881921609253730e-02,3.510283827781677246e-01
3.288386313458151466e-01,3.298467987220706776e-01,-2.252397782828180484e-02,6.997804948937158499e-04,-1.867014422955520824e-03,-2.329332281802283695e-03,3.519078493118286133e-01
2.673189214355734533e-01,3.510838381115995999e-01,-1.995581065033044665e-02,-2.289147626572331402e-03,1.663282939174434358e-02,1.911835859843787067e-03,3.383245766162872314e-01
3.230199997864848793e-01,3.267876958294029244e-01,-3.452790321022267128e-02,1.406939628196714870e-04,1.993292348093014127e-04,1.191689552246089252e-03,3.594527244567871094e-01
3.144869383534734109e-01,3.568352566478077414e-01,2.140607549286294153e-02,4.193649810433329461e-02,-1.838501602718366212e-02,3.967325983015275795e-03,3.262491524219512939e-01
3.236336532551696843e-01,3.292472153979417726e-01,1.890392992084136137e-02,3.079799041533396074e-06,7.705416926707446545e-03,2.306611411171880042e-03,3.078902661800384521e-01
3.155998452730844339e-01,3.386607728304281140e-01,-3.119281194668802049e-02,-2.316113870146937863e-03,-4.287101644239728164e-03,1.432629949775296051e-04,3.589785695075988770e-01
3.256037314338006694e-01,3.329686257747963563e-01,-2.191107876643896835e-02,1.339891799741141018e-02,-3.709245591308847709e-03,-5.569134449093393439e-03,3.522117435932159424e-01
2.242724617964077516e-01,3.244790038363896123e-01,8.512651975358692669e-03,-9.557207387952608435e-02,1.115460682517889143e-02,1.318754289084680953e-02,3.263606429100036621e-01
3.267021212567892130e-01,3.309109875263479550e-01,-1.544542687047037455e-02,-2.028400584174171357e-03,3.150514896814839063e-03,-3.934601708976037302e-04,3.443331122398376465e-01
3.140194376556132427e-01,2.901245281673475729e-01,-1.176899142363332929e-02,-1.768007695059757925e-02,-5.764875626419765919e-03,-5.387479360596992943e-03,3.163051009178161621e-01
3.254868966938770924e-01,2.902141757177388870e-01,-2.149260625239082789e-02,-2.240353111718390577e-02,-1.725845982335753523e-02,-1.594682469981308776e-02,3.355029821395874023e-01
3.249940588591275215e-01,3.304007220195352978e-01,-3.143250531224514588e-02,4.612842591526748076e-05,1.305224340574230287e-03,-4.514664313436414457e-04,3.591683804988861084e-01
2.995358241976264768e-01,2.973150997269651263e-01,-1.138987181104988977e-02,-1.041343803618114674e-03,5.975924365153981622e-05,4.293654899215104985e-04,3.098274767398834229e-01
2.989723876316471851e-01,3.008693700694313744e-01,-9.256132061834176916e-03,1.028712747134729807e-02,3.190539347020192307e-07,9.910464477863650465e-04,3.096991181373596191e-01
3.090302269271800739e-01,3.005437025167960741e-01,-1.724888950819353228e-02,4.067959228739543263e-03,-6.139651441553867564e-03,5.056411335833414702e-04,3.223733901977539062e-01
3.015294899994072075e-01,3.042507049370046790e-01,-1.601120884883805440e-02,1.309119195255391277e-02,-7.997302658148634086e-03,1.012073022698560011e-02,3.204947710037231445e-01
2.965302661993949873e-01,2.993916320117862573e-01,-9.829879308183991915e-03,1.356025873360804102e-03,-5.160519273392710294e-05,-1.081452486884540280e-04,3.078098297119140625e-01
2.995443210165674164e-01,3.018576077752057607e-01,-1.298151664324201371e-02,9.184827665437646400e-04,-1.318577434377799602e-03,2.382037367085249827e-03,3.137283623218536377e-01
3.089628014776254483e-01,3.199137178247732360e-01,-2.673643878535583718e-02,4.962539417754204462e-04,-4.559277466856531008e-04,6.310229221024273201e-03,3.414834439754486084e-01
3.000854805699065264e-01,2.914805347999970264e-01,-1.066684963303479727e-02,7.990023138491625029e-03,-1.621137873603864304e-03,2.886864383284412183e-04,3.068659305572509766e-01
3.278531361609245964e-01,3.263593946715456773e-01,2.381772164904352729e-02,2.440886565838720681e-03,1.836262004703928400e-03,4.987380691967546222e-03,3.034604191780090332e-01
3.222557780179259868e-01,3.226678976181506231e-01,-3.388763277608050628e-02,2.518879704489246796e-04,1.481358402809841148e-03,-1.456999080010950177e-03,3.563680946826934814e-01
3.200258284655354002e-01,3.227440858354077013e-01,-3.403414461175643946e-02,2.029556903726116687e-04,1.211968158501100599e-03,-1.465646461237509910e-03,3.554423451423645020e-01
3.214884907684273374e-01,3.226729216443015025e-01,-3.511221112916115827e-02,-8.987544740353459237e-05,9.100570589169603450e-05,-7.421323285274240714e-04,3.571967780590057373e-01
3.388315624602027953e-01,3.143416574069578528e-01,-3.176057249657177062e-02,-1.915236716000452352e-03,2.604861012027895589e-03,-8.768297719071456008e-04,3.590211570262908936e-01
3.225725724842236630e-01,3.226433307520127358e-01,-3.524270743176577403e-02,1.015484960448215083e-04,5.605937718072327800e-04,-5.490350090303537395e-04,3.578532934188842773e-01
1.868723498256227855e-01,3.735276273055734841e-01,-3.324994759963526003e-02,1.919567917537324531e-01,1.172033070084373477e-02,-2.231921425043613405e-02,4.866515994071960449e-01
3.222615679908626962e-01,3.226749050465962387e-01,-3.528186587971546273e-02,3.017938053682964281e-04,6.653851559551161171e-04,-6.582522242226840521e-04,3.577543497085571289e-01
3.237976421312427355e-01,3.307766105734059048e-01,-3.316418057703782174e-02,-1.420115297024354553e-03,4.939907558865378563e-04,8.320984492049710458e-04,3.605142533779144287e-01
3.224945068218628696e-01,3.317627568726931320e-01,-3.264807562838481503e-02,-2.838068051537449995e-04,-5.530137248976129500e-04,-1.405538905134527130e-04,3.598679304122924805e-01
3.240318464571196877e-01,3.303502223811388139e-01,-2.980669276836195314e-02,5.675401985426664154e-04,-9.657904899356051145e-04,1.646355688921234846e-04,3.570450544357299805e-01
3.227946278536583669e-01,3.294564006205054629e-01,-3.331228988829151860e-02,-1.912022877627316561e-04,7.970434911012701836e-05,1.316770119972662106e-03,3.594915270805358887e-01
3.225591967830514495e-01,3.306713100091370761e-01,-3.297482460142533989e-02,4.428262122053662399e-04,-4.505149898411269817e-04,7.399567775230232345e-04,3.596626520156860352e-01
3.209218025417044928e-01,3.220911937021496696e-01,-3.540968285203555110e-02,-3.719139798834623770e-04,-1.103419584146978633e-03,3.114153194751269078e-04,3.569237291812896729e-01
3.393168488450712950e-01,2.884847470827280880e-01,-2.707736447909797617e-02,7.196054041649282019e-04,-4.516051004138612289e-03,-4.867036789115165287e-04,3.439003825187683105e-01
3.240134386553202850e-01,3.301406453721477119e-01,-2.902599089962989987e-02,5.178884733238602349e-04,-1.031633294966226256e-03,4.501598264692775069e-04,3.561490178108215332e-01
3.493048615433828608e-01,3.726426210583175802e-01,4.213721330186906422e-02,-7.314487914251779910e-03,-1.457081577134149673e-02,-1.997403911138980609e-02,3.225826025009155273e-01
3.553124075693014361e-01,3.447597422946593881e-01,5.943983975338168468e-02,-4.338186889305832052e-03,-1.573527820694610099e-02,4.273978681424843093e-03,2.922049760818481445e-01
3.233645964395879258e-01,3.224821060988875554e-01,7.675067743840413570e-03,4.145365722021643676e-03,-2.017705825996400464e-03,5.241026444134751737e-03,3.154809474945068359e-01
3.328251594560917570e-01,3.256379440725646335e-01,2.008909177465786899e-02,-2.491848552460329720e-03,6.838674935740201785e-03,5.559329633601137709e-03,3.096117675304412842e-01
3.273139580244830982e-01,3.254488598033052349e-01,4.434479335806817968e-03,-3.638931807455046165e-03,1.165838663725381544e-02,2.006037123230415033e-03,3.226639032363891602e-01
3.298660251469670568e-01,3.259013884695838303e-01,-3.349097178884560821e-02,-5.524127492293214427e-04,1.262850161417911846e-03,8.161274022015931441e-04,3.614016473293304443e-01
4.155282213480111508e-01,1.887171273500292401e-01,-2.204979403002196858e-02,2.763042866499086734e-04,6.796830015837397598e-03,-2.436361871047715635e-02,3.815623521804809570e-01
3.269633150803649135e-01,3.263912113351953859e-01,-3.158615659836122580e-02,-1.438310598499101776e-03,-1.864245078311888059e-03,2.017696079637028121e-03,3.583040237426757812e-01
3.296949676870152279e-01,3.274330448393935056e-01,9.238564010035810181e-03,-2.995230987388187473e-03,5.964955787977409968e-03,1.300510500034868927e-03,3.195486068725585938e-01
1.399231961378822053e-01,3.933205253019383396e-01,-1.672168526009967793e-02,6.181841458547410531e-03,2.937783135776921625e-03,-8.248035559298341063e-04,3.585858345031738281e-01
3.278880059976959638e-01,3.322817428986328259e-01,3.818300465903456953e-02,-2.039588738264025165e-03,6.374337342123169090e-03,-5.337325938855286452e-03,2.923029661178588867e-01
3.420446746332286847e-01,3.539394654137864027e-01,8.200102563790589993e-02,9.663225666398702826e-03,2.032691951402168084e-03,-1.403028313036928931e-02,2.678440213203430176e-01
3.089159830316606792e-01,2.958941964552112003e-01,-1.719171182228829142e-02,-2.183879239248343474e-03,3.418441280783559959e-03,1.244014641650225675e-03,3.198801279067993164e-01
3.277958278761443633e-01,3.268428973107551094e-01,7.363736696600448051e-02,-2.359660722983721037e-03,4.517839039668352860e-03,6.113131036603474972e-04,2.538391053676605225e-01
2.620171377538564883e-01,3.466799230818387034e-01,-1.952047701158035609e-02,-1.082694956661270705e-02,6.896253279098958763e-04,-3.449143741518990308e-03,3.326496183872222900e-01
3.235901451476221324e-01,3.243051763777222707e-01,6.306918967270386256e-02,8.642061614898325327e-04,2.671417854918400545e-03,-3.051911891868803236e-03,2.609780728816986084e-01
3.290715015474724447e-01,3.253493937986763895e-01,6.192293368872398007e-02,-2.238450096657639693e-03,5.525301665137175196e-03,-3.668010908950493625e-03,2.655839622020721436e-01
3.600043722592598527e-01,2.123487059605935756e-01,-8.845984362483988450e-03,4.323940158173618376e-03,-1.492134478619533162e-04,-6.823892232076265779e-04,3.216325342655181885e-01
3.258920126128492800e-01,3.311563093049274542e-01,-3.144619848712751353e-02,3.067030019230978241e-04,1.355743820438248771e-03,1.622175786566756991e-04,3.600073754787445068e-01
3.253529287727994213e-01,3.334281529955768764e-01,-3.065502941578410190e-02,8.825995349906782476e-05,3.373707594522340307e-03,-3.875431252740088985e-04,3.601615428924560547e-01
3.230058558676348612e-01,3.300449443436777042e-01,-3.336602044510925125e-02,-8.882187406423075471e-04,-4.267428197427098843e-04,-9.979651239704298051e-04,3.599512279033660889e-01
3.252671290739002075e-01,3.292183250896033586e-01,-2.885265573098119707e-02,2.960557095430170981e-04,-5.033965335710668086e-04,-9.674859091732444186e-04,3.561171889305114746e-01
3.176982072618866892e-01,3.279448341944218304e-01,-2.980374630828827587e-02,9.868900572990611450e-04,2.032883350474078664e-03,-4.482804562934052627e-03,3.528440594673156738e-01
3.212657817009814121e-01,3.087259884127855347e-01,-3.048458984131274807e-02,2.598215800185940585e-03,5.095848212887835009e-03,-8.296742778106091240e-04,3.457960486412048340e-01
3.219316075775811581e-01,3.253885249159899073e-01,-3.481945315490542203e-02,-1.040727999878149866e-03,8.923901471484591102e-07,-1.229546404045582563e-03,3.585028648376464844e-01
3.196995538381365298e-01,3.262304758264651938e-01,-3.351508796859953287e-02,9.775931607410599106e-04,1.413173131307489394e-03,-2.587996513236267247e-03,3.565655648708343506e-01
3.301467553925541143e-01,3.227948035498542922e-01,-3.232202760556451837e-02,-1.301957667339855972e-04,3.464632948915603145e-05,-5.257617730565416559e-04,3.588505387306213379e-01
3.204279113623625386e-01,3.285455702304934666e-01,-3.344091648918581794e-02,-4.553026425339394513e-04,1.542067873558629560e-03,-2.904021399817601021e-03,3.580428659915924072e-01
3.298741482404528025e-01,3.265458125877784834e-01,-1.243682751510677420e-02,-4.105620257830195355e-05,-3.738618550565684815e-04,-3.107593046677198639e-03,3.407021462917327881e-01
3.295474311063390505e-01,3.269719900415126168e-01,1.801070410536234623e-02,2.729131532042679102e-04,-3.453513847500198019e-04,-8.665057818759721794e-03,3.106207549571990967e-01
3.074979052496690790e-01,3.109866710468598416e-01,-2.444852113443898856e-02,1.264864105280855524e-03,7.192612749982543762e-05,9.803410538297213043e-04,3.337160348892211914e-01
3.271946034182267038e-01,3.299471532078490088e-01,-2.624818993004360279e-02,1.081479771370872766e-03,2.228364731312925621e-03,7.332802895390385777e-04,3.548552691936492920e-01
3.297175225272538368e-01,3.196657347147111583e-01,-3.239432401627395652e-02,-5.757661322351921053e-04,2.044284426091294571e-03,3.253596747887485107e-03,3.572554290294647217e-01
3.304817454001697241e-01,3.245982484121974210e-01,-3.176289334033405298e-02,5.252624257952950458e-04,1.049175791965638777e-04,1.138450901952125236e-03,3.593456149101257324e-01
3.280111963968810329e-01,3.236797522207354172e-01,-3.352012442662180569e-02,3.703624934103470333e-04,3.335595989349495784e-04,9.004623298954439557e-04,3.593896031379699707e-01
3.300167992309936960e-01,3.189339116328616663e-01,-3.217735063843790710e-02,-2.801745318968579430e-04,2.521487072761143672e-03,2.982682534880345265e-03,3.568463027477264404e-01
3.295537551511290575e-01,3.258177580481217417e-01,-3.060985371883864770e-02,3.068294384804086112e-04,-7.001806780272311836e-05,-1.054007931229773883e-03,3.583152890205383301e-01
3.335183743978990534e-01,3.243425936927356590e-01,-3.114136976837442172e-02,1.279070074033121962e-04,4.607238130422184707e-04,1.675056941622262222e-03,3.601721525192260742e-01
3.303878849895706682e-01,3.247057960883057981e-01,-2.928756857107003841e-02,3.776235286459917817e-04,1.953377463184794458e-04,-1.407669428665103695e-03,3.568774163722991943e-01
3.270167340322414629e-01,3.241272064066839653e-01,-3.441545001310677976e-02,-1.479482333882689029e-04,-1.472545759948107932e-03,1.105950361656820452e-03,3.600103259086608887e-01
3.246828442195086595e-01,3.055838526116274600e-01,-2.675037041106065328e-02,2.102064460771483744e-03,-7.957054998537160806e-03,6.979829804737325716e-04,3.425824344158172607e-01
3.257813505195343851e-01,3.054929801436920833e-01,-2.512677999567280995e-02,1.845214748562159709e-03,-6.611835195700021227e-03,3.870792537657352845e-04,3.414243459701538086e-01
3.312291935839183354e-01,3.249389813028059626e-01,-3.088451366405023379e-02,1.078010177472385272e-04,-2.118804912899257718e-04,1.212472874892542556e-03,3.590162992477416992e-01
3.323449995902041376e-01,3.187722654774521880e-01,-3.143254289750385677e-02,3.316483056020646841e-04,6.696577015314955899e-04,3.517572784171228012e-03,3.572389483451843262e-01
2.962781880465303330e-01,2.958818005772786419e-01,-1.475441505796065700e-02,-1.462846944090987963e-02,4.863314741337284620e-03,3.174116542957136980e-03,3.120277225971221924e-01
3.063906859008859729e-01,2.952475318667352466e-01,-1.430402107557868230e-02,-4.982429595252226007e-03,4.710209973418486365e-03,2.462695072748965260e-03,3.155232667922973633e-01
3.394450693447204070e-01,2.884812008593188870e-01,-2.707012929194679840e-02,7.422606587338096990e-04,-4.452869908042320947e-03,-4.652855715773461780e-04,3.439672291278839111e-01
3.333389468874449202e-01,3.314122508926465316e-01,-1.416091345005865421e-03,6.796502070879818780e-03,7.159388754236450242e-03,-9.261511866436325513e-03,3.346182107925415039e-01
2.945679809346531952e-01,3.182632091915448824e-01,-1.963508689075968427e-02,-1.611211875295295165e-02,4.465303493973888163e-03,7.329012056139683380e-03,3.282223343849182129e-01
2.868325221155091365e-01,3.048734528163903335e-01,-2.278006694439529967e-02,-2.904082612634158872e-02,1.038306095209826085e-02,1.203263657187184955e-02,3.241280913352966309e-01
3.062386184905260822e-01,3.050239634167049574e-01,-1.971662955021113994e-02,-6.668059330054402697e-03,5.285368039805081464e-03,6.411185263981582921e-03,3.258724808692932129e-01
3.600523100636197071e-01,2.637963176670256038e-01,3.183496266436539046e-02,4.946367038286431789e-02,4.637610776750672459e-02,-6.242083638440346777e-02,3.329868316650390625e-01
3.392415922834255970e-01,2.616280615081118532e-01,3.036851197808229652e-02,8.976132062961579561e-02,5.332669214656494960e-02,-6.394746761558453563e-02,3.498914539813995361e-01
3.616080357472680751e-01,2.272476597807852050e-01,-2.045167944582998443e-02,3.706869998899359718e-03,1.201054545357614330e-03,-3.353471511686876433e-02,3.407461345195770264e-01
3.675939737853964884e-01,3.300357272999291935e-01,-2.523554114262399617e-02,2.828012534324633037e-02,1.383902571217151059e-02,-1.898628531395468028e-02,3.808240294456481934e-01
2.628295269377595167e-01,3.242005260862083071e-01,-9.018707243681145513e-03,4.190296665974161706e-03,-2.483503564625039184e-03,3.303787860428508260e-03,3.073359429836273193e-01
3.360143913610541544e-01,2.951406740327041645e-01,-2.650579359397434165e-02,-2.663072143465214370e-03,6.560942318810060112e-03,-4.271609976141512778e-04,3.441292643547058105e-01
3.262752994267461570e-01,3.168680968701980127e-01,-3.167278356864872135e-02,-7.662965947592833508e-05,4.604259705258104823e-03,5.468019363160141270e-05,3.534284234046936035e-01
3.267603913850090080e-01,3.024257057000580562e-01,-2.645475067184752116e-02,-2.659466011337014747e-03,5.972337752383883799e-03,3.601571556143221562e-04,3.418864607810974121e-01
2.012441976697264823e-01,3.627962077880526048e-01,-2.035776862367835727e-02,-4.119318453823126586e-02,-2.803304229963927627e-02,-2.723713355954169787e-03,3.442051410675048828e-01
3.268164777290728518e-01,3.165849200791022722e-01,-3.169229675784240863e-02,2.205655883416582017e-04,-3.970110991966892960e-03,3.967158708995758296e-04,3.535718023777008057e-01
3.301447295043237196e-01,3.246824771789917907e-01,-2.860959424062772816e-02,3.326913958007199747e-04,4.936970976617250338e-04,2.509481640362176301e-04,3.560563921928405762e-01
3.211162827005109577e-01,3.190518269366141579e-01,-3.377008310375673172e-02,-3.436210219544115832e-03,-2.894508018784356079e-03,-2.368439892909675413e-03,3.539679944515228271e-01
3.254372000806172172e-01,3.246984369104312096e-01,-3.519535467838769138e-02,1.487789602701931760e-03,-1.454134423360898360e-03,-1.192511920007904109e-03,3.602876961231231689e-01
3.265609315118891409e-01,3.024376367344577821e-01,-2.662713236615235624e-02,-2.660577925739678832e-03,5.789492840262750253e-03,3.595503810600040651e-04,3.419442474842071533e-01
3.162875525096924267e-01,2.959366391954735276e-01,-2.445455686569636411e-02,-4.608403884867910347e-03,5.870071117672203721e-03,-4.922245295882556092e-04,3.312895298004150391e-01
3.551016246922253927e-01,2.561938512672262691e-01,-2.169913622794256147e-02,-5.539066844453462146e-02,-9.744827990344694449e-03,-2.199751077646047021e-02,3.541665971279144287e-01
3.225722294901768872e-01,3.269247554811300915e-01,-3.265168907755031102e-02,-4.780081710896415129e-04,-4.946965461081778524e-05,1.644835542620564674e-03,3.574323952198028564e-01
3.249851069518633340e-01,2.654650030204283029e-01,-1.021427746396097458e-02,-7.090207158305453228e-03,2.559837693473632821e-03,1.975485382742563035e-04,3.100334703922271729e-01
3.226234143130766174e-01,3.217667436711005857e-01,-3.519855467383040115e-02,5.359462481188592611e-04,-1.144388471027373011e-03,-1.325145597413184256e-04,3.574011921882629395e-01
3.230128565023912546e-01,3.202455942107600428e-01,-3.363232048265366037e-02,-3.088442915589963058e-04,-2.483757470993095285e-03,-1.342696714987296142e-03,3.553036749362945557e-01
3.232828814026285080e-01,3.202828670859309557e-01,-3.397523399975418967e-02,-2.718434542572592690e-04,2.718356351286040518e-03,1.861396006989524381e-03,3.558136820793151855e-01
3.252536781327393101e-01,3.235641740901371577e-01,-3.460505960766868672e-02,3.608559954163582137e-04,8.923060561098593172e-04,6.418912490634941237e-04,3.590225577354431152e-01
3.325005367611729712e-01,3.145210317869494565e-01,-3.188980540917563111e-02,-2.842352676725319583e-04,-5.670680357871396354e-04,-9.390448394458560241e-04,3.557469248771667480e-01
3.285761170063379311e-01,2.974364201637322846e-01,-2.252161097425686709e-02,-1.383780865776042257e-02,8.643127707882699087e-03,5.036663456372124370e-03,3.379066288471221924e-01
3.342170191960092129e-01,2.952748898486114992e-01,-2.902959272625901810e-02,-2.819872033963023977e-03,4.432416711519520172e-03,-6.055112059728633145e-04,3.455472290515899658e-01
3.352960437195144361e-01,3.177534224751045189e-01,-3.198682107770445260e-02,1.419870951858581047e-03,-8.394634791650380876e-04,5.914520682779343848e-03,3.589908778667449951e-01
3.297754894884026289e-01,3.197777182048464617e-01,-2.660211635767420479e-02,-2.276508285614431415e-03,3.317768733455195036e-03,1.005611213083777711e-02,3.519856929779052734e-01
1.319494128936837818e-01,4.377687434352711682e-01,-7.723747017001519888e-02,-7.718571884020825058e-02,-4.135902479396979387e-02,-1.072836038290659287e-02,4.739281833171844482e-01
4.027748502333085567e-01,7.408995727383758945e-02,-3.461740341729807602e-02,-1.088551913574005714e-01,2.160271445029396647e-03,5.361996379916337922e-03,4.372986853122711182e-01
4.247779569937489841e-01,8.970302104595996584e-02,-2.493734430142230396e-02,-3.100822422409033746e-02,-2.388877874898100769e-03,3.190174694095762598e-02,4.120504260063171387e-01
1.833579976152601154e-01,3.963939697172165766e-01,-3.006612201274486140e-02,-7.600770072545559586e-02,-7.934830952569849744e-03,-2.080787342176790115e-03,3.923449814319610596e-01
3.987942952339807445e-01,1.179001102654395061e-01,-2.385319804727892290e-03,-1.098854202862946106e-01,1.625484583535951807e-02,2.421002004456055887e-02,4.073488116264343262e-01
3.092741421214563191e-01,3.110860927734581671e-01,-2.641539677589330171e-02,-6.121759173023689181e-03,-3.926173954350361574e-03,-4.608565424785693830e-03,3.369293510913848877e-01
2.666256213435335698e-01,3.047438671866786741e-01,-1.304075911893839979e-02,-3.639846352465968965e-02,6.674646222777848477e-03,6.453979071498038705e-03,3.075058162212371826e-01
2.917343555188540161e-01,3.154499230576248148e-01,-1.791541194767770628e-02,-9.215227812757995768e-03,-5.856819735712379561e-04,-5.375101006320045366e-03,3.226939737796783447e-01
2.921748454966091035e-01,3.092572987057223832e-01,-1.343508654604175234e-02,-2.631437843841383413e-03,-2.045134913754264195e-03,-5.081511659208341053e-03,3.146753907203674316e-01
2.994929260036332530e-01,2.969906813893400388e-01,-1.002869478274970305e-02,-9.048652922388515304e-04,-1.541785301886455773e-04,2.324158407757547396e-04,3.082824647426605225e-01
3.165869645431803603e-01,3.106642774667404128e-01,-2.364195641718286334e-02,5.899497015793201511e-05,4.953230241566052190e-03,9.377668646611557511e-04,3.374195992946624756e-01
3.508807562997757756e-01,2.613523622590060991e-01,-2.687854037805398333e-02,1.530129867254648385e-03,-2.787102877716702339e-03,-1.813569882736710062e-02,3.433864712715148926e-01
3.624995799173530431e-01,2.462019035557593549e-01,-1.856038192057490877e-02,-3.568950282714751336e-03,-9.818193444000786457e-04,1.239775471901830581e-03,3.383211195468902588e-01
3.613683074598236233e-01,2.322102544520960876e-01,-3.833592000961807966e-02,7.154929983625149190e-03,7.737347041677581846e-03,-3.000856845411926238e-02,3.575681447982788086e-01
3.334370175726467656e-01,3.151866380653730593e-01,-3.191547419685403231e-02,-4.871528238778835866e-04,-3.074648521520532626e-03,-6.915715648692793722e-05,3.566185534000396729e-01
3.273061399258341830e-01,3.246502201462139192e-01,-2.973616680639518117e-02,5.893011409489116960e-04,-3.177894315453609099e-03,4.642621699169246358e-03,3.558566868305206299e-01
3.230404028303918151e-01,3.247354829779680596e-01,-3.312596771984996358e-02,-3.623183258250308922e-04,-5.320396638581423874e-04,1.552309558598026756e-04,3.570187687873840332e-01
3.994912965166597107e-01,2.374203235109039745e-01,-2.920514022528647446e-02,3.052528626130085465e-02,4.696927280540140644e-03,-2.823056171600254668e-02,3.818649649620056152e-01
3.953211302912170710e-01,1.895658114035331798e-01,-1.945029055507083160e-02,1.191342415937390355e-02,9.246195118682463618e-03,-6.944497863879797554e-03,3.603555262088775635e-01
3.189205773695195090e-01,3.161126965211771278e-01,-3.139252995742436436e-02,1.582763180029413737e-03,-3.215797180662051565e-03,8.593051264280290565e-04,3.489760458469390869e-01
3.643404516379985525e-01,2.213730843550307248e-01,-1.556106426788969599e-02,5.367194473066374313e-04,-3.014044628797031382e-03,-1.774360399232499316e-02,3.338022530078887939e-01
3.325743558263979383e-01,3.529518393250868358e-01,-2.825943714526202299e-02,3.461907280709695944e-02,-1.261227952759745585e-02,4.063709397067975272e-03,3.769500553607940674e-01
3.387268100249670733e-01,3.136484823723458271e-01,-3.155480057881090983e-02,-1.903266236963202778e-03,-3.579264413011658724e-05,-1.071228378221771634e-03,3.584210574626922607e-01
2.964428508188810540e-01,3.422240923333295104e-01,-3.003154205773000962e-02,1.038624930397505537e-02,-1.243807237037372615e-02,9.000305716790611352e-03,3.530702590942382812e-01
3.065482683189816870e-01,3.432290076223216690e-01,-1.992714056297928416e-02,5.204441822249020189e-02,-2.693566043204187813e-02,1.032752777748393441e-02,3.612886071205139160e-01
3.275287429040000253e-01,3.244383700871036891e-01,-3.572130580232479868e-03,-1.964552712166969545e-03,-3.632852274958683209e-03,-5.264119099673348397e-04,3.296454548835754395e-01
3.328523074722596897e-01,3.138278216886913885e-01,-3.203563832617734031e-02,-5.342586162868590222e-04,-3.166746864727453502e-03,-1.047810856899489881e-03,3.558055162429809570e-01
3.180988845453917024e-01,3.291542902807904625e-01,-2.910746149389831228e-02,8.790618914072804470e-04,-2.073439856195994583e-03,4.242785222959248072e-03,3.529620170593261719e-01
3.287859139565221245e-01,3.280108328262635320e-01,-9.112503461693177709e-03,-1.503774058459237707e-03,-4.210572807203587058e-03,2.911638540679585985e-04,3.376007378101348877e-01
3.252619190691137252e-01,3.281600126607821521e-01,-1.378027900822551000e-02,-5.259480351149492918e-04,1.553790900577628736e-03,-2.102038192036433713e-03,3.405318260192871094e-01
3.336303947779266643e-01,3.154286625442972447e-01,-3.196812476667640346e-02,-1.210717039249347305e-03,4.319762369691008269e-03,-5.083831725158136474e-04,3.569316565990447998e-01
2.135957599252881201e-01,3.649874449272841881e-01,-7.541636723428390976e-03,-5.753607510884997493e-03,-2.651495099312446094e-03,-2.855660045963594358e-03,3.247220814228057861e-01
3.212803153519141475e-01,3.262364471137396693e-01,3.415511597187570469e-02,-2.101190401245459777e-03,1.082888725481564529e-03,-3.409678306338294763e-03,2.897242009639739990e-01
3.256057255309454668e-01,3.286224418709645101e-01,-2.089854743995411823e-02,-1.122208140020181186e-03,2.357705585503121551e-03,9.513728389621718944e-04,3.480557203292846680e-01
3.264603632504187170e-01,3.168868459501557600e-01,-3.231972377885730663e-02,-1.178662632865568353e-04,4.378774308141374604e-03,2.090555376873972206e-04,3.541718721389770508e-01
3.303513411540681122e-01,3.230097862442605772e-01,-3.290467056479162711e-02,-2.660978970229734486e-04,-5.836661316187100089e-04,-5.467569828089173870e-04,3.596444129943847656e-01
3.228652868409357390e-01,3.304018381311922825e-01,-2.812010176892093538e-02,5.483796726190655769e-04,-1.650770171177367608e-03,1.909460239675683790e-04,3.548266589641571045e-01
3.223147573902527818e-01,3.338770529664482623e-01,-3.254509476144670788e-02,5.673392054680431165e-04,2.054158145007888448e-03,2.386282683502723156e-03,3.608225286006927490e-01
3.275301183658803073e-01,3.298146150025597634e-01,-1.836500593376930168e-02,3.418543390510476510e-04,-1.382010709977531549e-03,3.208026526743081226e-04,3.470522165298461914e-01
3.237282667418770465e-01,3.305238519259493524e-01,-3.162925111441347581e-02,7.218125939108549103e-04,7.229319117666377836e-04,1.233135376500651623e-03,3.588142991065979004e-01
2.930725901928170063e-01,2.999226237873656720e-01,-1.042891353832867130e-02,4.953496319065986246e-03,-1.209331454364150158e-04,-1.082744431738864345e-03,3.071095049381256104e-01
3.005991827562490837e-01,2.925436414609143831e-01,-9.873539675914033698e-03,6.079395886894871370e-03,1.227672579076160252e-03,8.584681241016686737e-05,3.067125678062438965e-01
3.281266069599163560e-01,3.224911391972233865e-01,-3.199696447509886577e-02,5.939602808838529997e-04,-1.194665341198645320e-04,5.261877403827647627e-04,3.573418557643890381e-01
2.927147787912224297e-01,2.999321351208016351e-01,-1.103278820807007676e-02,5.632505612203914623e-03,3.555633700492713740e-04,-1.773440418073166623e-03,3.075905144214630127e-01
3.301287016656082596e-01,3.155383462650894755e-01,-3.222913787983092138e-02,-3.067231853933246179e-04,2.476879759313841810e-03,-4.972967060919995840e-04,3.553147614002227783e-01
3.167029271923315625e-01,3.170383284487031661e-01,-3.191298154168495382e-02,2.525873040428983606e-04,2.288791936755430259e-04,3.424370556437760600e-04,3.487847447395324707e-01
2.990657908467365678e-01,2.970600601300662502e-01,-1.039671569294886577e-02,1.062449815708402766e-03,3.150009671100485921e-05,-1.161797032875293826e-04,3.084701001644134521e-01
2.947795613663433123e-01,3.834726529929634031e-01,-3.028195761489815840e-02,1.137747402685108716e-03,-1.871104729756534885e-02,-5.244529080423217075e-03,3.788124620914459229e-01
3.288940776814394673e-01,3.221271948891109016e-01,-3.284910569547028203e-02,1.749845611435272511e-04,1.131089837829509382e-03,-3.471406322940202019e-05,3.584131300449371338e-01
3.219630361998518930e-01,3.230122406061711748e-01,-3.535288457727783773e-02,-4.468351703667890629e-04,4.385962162236166210e-04,4.952852265201362382e-04,3.578443527221679688e-01
1.913335570125000717e-01,4.543085863947469716e-01,-2.073712000403385436e-02,-9.353644703801966553e-02,-4.926708432269036320e-02,-2.331645265470042722e-02,4.528344571590423584e-01
2.208904598494469684e-01,3.689176043421850126e-01,-8.418032129681313203e-03,-1.118205165305838182e-02,4.624372329248398476e-04,1.892665861616372840e-03,3.298860490322113037e-01
2.228867240724441978e-01,3.790853321555640587e-01,7.286318895359439329e-03,-8.519005885196082040e-02,-4.200581255568501537e-02,-1.370313996987071632e-02,3.635751008987426758e-01
2.984878260749842527e-01,3.361593959435756895e-01,-2.874379937492282933e-02,-1.506866385271109915e-02,-2.178246541661044144e-02,-7.263027425274857021e-03,3.508417010307312012e-01
3.079597197537974340e-01,3.834533474680236198e-01,-2.305742567330482107e-02,-9.300042879786963451e-03,-2.194456119509075043e-02,-2.441887730628021155e-02,3.791494965553283691e-01
2.549948703350784496e-01,3.540539669823521418e-01,-1.930407764442551577e-02,-1.399778655409360251e-02,-3.635450679778126637e-02,-1.223636256516518958e-02,3.423833847045898438e-01
3.854863999236424754e-01,3.224122866083339312e-01,-9.027061023679672225e-03,-7.417193955825204452e-03,2.856551079327431485e-03,-4.552275418169794523e-03,3.674062192440032959e-01
3.332718645687214876e-01,3.331002540287918978e-01,9.702927824006557511e-04,2.567106613939498620e-03,4.583522852677021468e-03,3.937312922014662639e-03,3.324103355407714844e-01
3.300523281817455690e-01,3.256118850366253037e-01,-1.396462746461130111e-02,2.023400784583780174e-03,-3.438159308654959324e-04,-2.327369003940650896e-03,3.418606221675872803e-01
3.288423603235630654e-01,3.291724253367006026e-01,-8.610322441416323747e-03,3.421766897510720822e-03,-1.577449826702119603e-03,5.554486766575356116e-03,3.378179371356964111e-01
3.300495877991053151e-01,3.258781733225084576e-01,-9.910903372515544874e-03,-2.834942723033598397e-04,1.009242947818175546e-03,-4.149244794116496368e-03,3.379753828048706055e-01
3.304397655264623701e-01,3.234674446624517530e-01,1.565226960569734982e-02,1.386686285069887439e-03,5.684070806420864815e-04,-5.116995077216587341e-03,3.114968240261077881e-01
3.282839059437527296e-01,3.278975022856811528e-01,1.471939278330008927e-02,2.976879610094173949e-03,-3.408279434448978698e-04,-9.268727986059216092e-03,3.138253390789031982e-01
3.297328795671475299e-01,3.270876551943073807e-01,9.527947154740423752e-03,-2.554335592703895104e-03,1.764670110806477793e-03,-7.963114425131641999e-03,3.192339837551116943e-01
3.213355062584244415e-01,3.289595329111899558e-01,-2.284409677127338667e-02,1.177536452779880290e-03,-2.680771833611209336e-03,4.914520977549346505e-03,3.481952548027038574e-01
3.807484185077730787e-01,3.352746351054115004e-01,5.535359981809678809e-03,1.514482749393014291e-02,-2.378392201246010487e-02,2.335906629996772899e-02,3.602948784828186035e-01
3.172424640438718524e-01,3.306199665004262989e-01,-2.694721252543183510e-02,6.189490072552037044e-03,-7.173008152262744762e-03,9.154539698329607414e-03,3.518104553222656250e-01
3.276740423792990908e-01,3.276898952069456361e-01,2.204894719009695137e-02,-9.369301102031936737e-04,-3.935426354326109800e-03,2.646740507636767114e-03,3.057476878166198730e-01
3.263170156958160595e-01,3.264805899846976445e-01,3.936254037995476351e-02,8.828501172401981192e-05,4.385334464198021448e-03,-8.559291984898154473e-03,2.875192761421203613e-01
3.237923935155457289e-01,3.268600662382951105e-01,1.838173205403187405e-02,-1.064354967503450180e-03,-4.602070112945037643e-04,-8.969302910352956390e-03,3.073554337024688721e-01
3.349576553403880719e-01,3.344962240805236520e-01,1.737521002787711932e-02,1.276311422435355211e-02,-1.619339814950320790e-03,2.054661810492891007e-04,3.181335628032684326e-01
3.273274863421823389e-01,3.267701734585068962e-01,-2.493106396763358767e-02,-2.195132301624878098e-03,-2.584977888209167261e-03,2.427836078293246942e-03,3.520543575286865234e-01
3.288336675975794821e-01,3.253706727638225882e-01,3.978393573470673239e-02,-2.625604339535355259e-03,2.737699037847694285e-03,-8.530533087217781474e-03,2.877885401248931885e-01
3.228258202166492952e-01,3.218244160250112729e-01,-3.494126873759553775e-02,-1.957726376224382288e-04,-1.641633442200323865e-03,2.095885301168843901e-04,3.572790920734405518e-01
3.303835096289594597e-01,3.251079089492894814e-01,-2.968934464381817184e-02,4.326543362081449644e-04,-1.493677598385288155e-04,1.520186568804396301e-04,3.574652373790740967e-01
3.325733739132591404e-01,3.225798016415266090e-01,-3.218100571894882966e-02,-7.665147973632674948e-05,3.183080881584882701e-04,-7.905429785872654554e-04,3.598647415637969971e-01
3.277076321135008463e-01,3.275801390017878956e-01,-2.020218154892960971e-02,2.282113233620558772e-03,-1.113524109064097014e-03,-9.264342761351175527e-04,3.478775918483734131e-01
3.309053240197198376e-01,3.258338102345599285e-01,-3.208979575724382749e-02,2.329929238047702650e-04,2.306026200506383010e-05,-1.122305798153576742e-03,3.604916036128997803e-01
3.304239698774336098e-01,3.226684435266272688e-01,-3.292203713708316548e-02,-4.244024017340938468e-04,-1.096871510014486286e-03,-8.792052031379518628e-04,3.595399856567382812e-01
3.303127987769937657e-01,3.260713224419453105e-01,-3.237922712740123887e-02,3.829480293357349387e-04,-9.876630746036463467e-04,-1.538798129782402565e-03,3.606045246124267578e-01
3.325941617401462214e-01,3.176295575443841002e-01,-3.100373890021967949e-02,-8.142878406139782924e-04,-9.056099416736755961e-04,-1.672297840579366202e-03,3.563693463802337646e-01
3.324181667455696765e-01,3.253260875220073123e-01,-3.212622499955136712e-02,4.281667911221349312e-04,-1.907148516206708024e-03,-2.353446968058003474e-03,3.610894680023193359e-01
3.322657753980639006e-01,3.227438985122418336e-01,-3.259595233187215224e-02,2.058874414800465060e-04,9.397964787593081435e-04,-5.840360287964014782e-04,3.602004647254943848e-01
3.294486723355676272e-01,3.252574746176540854e-01,-3.226059897504282570e-02,1.918436378541874855e-03,-2.621243044649025460e-03,-1.656581003841239462e-03,3.596874475479125977e-01
3.287036146743904097e-01,3.250679282592123243e-01,-3.048348720223859054e-02,1.532895883825404620e-03,-1.242075185778940228e-03,6.940863735133879792e-04,3.574014902114868164e-01
3.281358793467032964e-01,3.243216575511588262e-01,-3.373430822119297123e-02,4.553718146607757837e-04,-3.932135484849150426e-04,-6.240745777490886576e-04,3.599813580513000488e-01
3.224035904947192832e-01,3.248812717404208072e-01,-3.408648205175007773e-02,5.433584470633712107e-04,3.715758872394214589e-03,3.468545974024495569e-03,3.578449189662933350e-01
3.299750113474349544e-01,3.221285881274571494e-01,-3.374249763193507001e-02,3.126798668185711916e-04,1.225703707568360102e-03,-1.492643507067521584e-04,3.598652184009552002e-01
3.234798538732564510e-01,3.247754730888973151e-01,-3.381070950176612300e-02,1.945105415430997578e-04,-1.946140159420198842e-04,5.427572691966928717e-04,3.579416871070861816e-01
3.263943334873226076e-01,3.218119796566205615e-01,-3.480344498514789664e-02,2.666128461901784755e-04,1.136682182202578299e-03,2.557191449064192840e-04,3.589345216751098633e-01
3.224347178206381503e-01,3.246677950128329382e-01,-3.505873326560790537e-02,5.372210450741279680e-04,2.641810180598179068e-04,9.339151961509626655e-04,3.586203455924987793e-01
3.235400457484980397e-01,3.248105286354724952e-01,-3.466526813562603726e-02,1.094211157311448905e-04,6.277265117800151766e-04,5.660432038234125898e-04,3.588452935218811035e-01
4.230265461041056718e-01,9.316623043593576237e-02,-8.262274317736270635e-02,2.160319678882361219e-02,3.518890009644018435e-02,2.890224837540996891e-02,4.531184136867523193e-01
3.260518489127420816e-01,3.283641174692637499e-01,-2.763730464607114246e-02,1.462710613419415185e-03,1.933060780567380597e-03,1.440360495256370757e-03,3.548845350742340088e-01
3.158442318627951440e-01,3.150568941766296316e-01,-2.844880646926689627e-02,1.651732072243566104e-04,-2.133443886101270108e-03,1.445052017350919801e-03,3.439291119575500488e-01
3.185077807424344654e-01,3.140773497915652079e-01,-2.878741134599352436e-02,3.071554440413714823e-03,-3.487319114489398440e-03,2.911517158738963565e-03,3.452319800853729248e-01
3.221285240049095444e-01,3.224910859443586020e-01,-3.538190139079269714e-02,-2.407655597587181535e-04,4.414609553139213716e-05,-2.558660507588228293e-09,3.576920926570892334e-01
3.180232383099488302e-01,3.192790561682721795e-01,-3.378391136978250997e-02,1.677909748435108157e-03,-1.699305581473207387e-03,1.316612582113801163e-03,3.524683713912963867e-01
3.195525285747136679e-01,3.198498459775661606e-01,-3.010932154322984444e-02,3.786558939446702811e-04,-4.297548224823821879e-03,4.547116990499103228e-03,3.499790430068969727e-01
3.179767707203907667e-01,3.209835868602718412e-01,-3.350381671265337258e-02,1.486435259357090852e-03,-1.762692177267174845e-03,1.955105146741696436e-03,3.530324399471282959e-01
3.233807853140170385e-01,3.276538102597044144e-01,-3.313153427643375504e-02,4.160616722141390750e-04,2.799999017884649555e-03,3.441863558668379654e-03,3.587509691715240479e-01
3.239854002388843357e-01,3.276258161257868950e-01,-3.308467652148508464e-02,2.073466405982331132e-04,1.076240983096456464e-03,5.125818725798680789e-04,3.589102625846862793e-01
3.233331631023793618e-01,3.276029331068604500e-01,-3.232161358897603365e-02,3.957295368183660639e-04,3.563113595544126081e-04,4.697532557663640341e-04,3.578108847141265869e-01
3.223753589013484966e-01,3.248604997374048287e-01,-3.368284958179473820e-02,5.341563513649492207e-04,2.616659160085701118e-04,1.655065699018256524e-04,3.573088645935058594e-01
3.190152573554243531e-01,3.249264077576894394e-01,-3.356529218998821618e-02,-1.816167721182975793e-04,2.918271608057354961e-03,3.772118902770471745e-03,3.556690514087677002e-01
3.220788989100310529e-01,3.276870813231781421e-01,-3.426216738321463673e-02,9.006696413126548829e-04,-4.658667853351257078e-04,1.234608729138700909e-03,3.591886460781097412e-01
2.544282591569193563e-01,3.360219783474465705e-01,-2.837829709464670391e-02,3.711806283090685055e-02,2.219746641122665592e-02,-8.008281051301135989e-03,3.398766815662384033e-01
3.596359620735439799e-01,2.648513821047421835e-01,-3.181527824281038530e-02,5.404731300511370073e-02,2.842781131412236775e-02,-2.621546581648634411e-02,3.719733357429504395e-01
2.874781992120354346e-01,3.335642934316704888e-01,-2.353687375075380617e-02,1.344921884470308068e-02,7.329507807900653357e-03,-8.656241416281677814e-03,3.378111422061920166e-01
3.215602166353362379e-01,2.967752654288781655e-01,-2.166850962974320449e-02,1.133815427607880004e-02,5.852915406705340613e-03,-4.988811350567089360e-03,3.323799669742584229e-01
2.584836799899387638e-01,3.283241276565767586e-01,-1.691417901093000831e-02,1.516632099585343840e-02,4.136902522035721536e-03,-8.954652688090368115e-03,3.177066743373870850e-01
2.769663421198045317e-01,3.227890785713197763e-01,-1.651003609327930666e-02,6.049380422276600007e-03,4.854694621040702047e-03,-7.878225678670679535e-03,3.194411993026733398e-01
2.791848105948467884e-01,3.137914174361062791e-01,-1.692406037716448486e-02,9.445340761536509186e-03,5.700477536845573005e-03,-9.042151038342428199e-03,3.158097863197326660e-01
3.296706152750165653e-01,3.239746004484632680e-01,-2.796412044955820519e-02,-6.979682610219981606e-04,1.765796874619649903e-04,7.175640776909665780e-04,3.548253774642944336e-01
2.792822971811247390e-01,3.046848559456675209e-01,-1.580269960217042802e-02,1.186783870105389584e-02,3.556762478930546034e-03,-5.237647433333148667e-03,3.094497621059417725e-01
2.937066646844247453e-01,3.129943125775713209e-01,-2.212068340355891061e-02,7.366181861800364869e-03,4.015859347047209642e-03,-6.790796014384521337e-03,3.264352977275848389e-01
3.901410955632806932e-01,3.156232840951465057e-01,-2.680767531014416338e-02,2.486111390093647538e-02,-3.377989898084560356e-03,3.593787170368764605e-02,3.925457000732421875e-01
3.590807170683255056e-01,2.287538413742153387e-01,-2.816788082266907800e-02,3.124681532151711832e-03,-4.060028643566970796e-03,3.670615141797214237e-02,3.472728729248046875e-01
2.411985426962700574e-01,3.444633956041184830e-01,-8.643316704127435024e-03,-8.775938432830232214e-03,-6.096697250418951948e-04,-3.497984139351001647e-03,3.148862421512603760e-01
3.474097011289153381e-01,2.796020269815433501e-01,-2.709718054579451918e-02,3.412512213433103146e-03,-1.913852678281491911e-03,8.855572839977647256e-03,3.460347354412078857e-01
3.948569914572108708e-01,2.603401405588243733e-01,-2.767755562166121508e-02,3.235011247761961778e-02,-3.931724527043699638e-03,2.833111772518077248e-02,3.812953233718872070e-01
3.591199242156355442e-01,2.949459145472765886e-01,-2.752128875081391590e-02,8.391757501280637781e-04,-3.734654742439340921e-03,7.564410122606030941e-03,3.591838479042053223e-01
3.299127411133819243e-01,3.262901774923991916e-01,1.933824110476758951e-02,2.247710325879346497e-03,-1.933231539137835603e-03,-9.162404459714683716e-03,3.092293441295623779e-01
3.416456953455050405e-01,3.525823476681747559e-01,1.318094156965288200e-02,1.094486869919913084e-02,7.668744844368319963e-03,9.895555083577447369e-03,3.353066742420196533e-01
3.220553862899241948e-01,3.370868276376577377e-01,-9.991544113266859206e-03,-1.210638756848232862e-02,1.616638753982217735e-02,1.886302079619336936e-02,3.431667983531951904e-01
3.278572436720649241e-01,3.273671447016863745e-01,7.678703929314883991e-03,2.300481544879312296e-03,-1.671185929565978173e-03,-5.831758869369303364e-03,3.201310634613037109e-01
3.213699482725176915e-01,3.234422965189609478e-01,-3.507251471329148051e-02,1.269382182627934352e-05,1.019556382369741441e-04,-7.199228247664903567e-04,3.574853539466857910e-01
3.306734798303394562e-01,3.182360282091695192e-01,-3.136060490285363933e-02,-6.708774379110897491e-05,-1.460664061100225980e-03,2.800304406421865334e-03,3.560203909873962402e-01
3.014754573531627790e-01,3.035458142739121401e-01,-1.729174873498789955e-02,1.703234378466324771e-03,3.542391135183027735e-03,-7.257595449022270469e-04,3.198823332786560059e-01
3.306679347116787682e-01,3.247027096361227994e-01,-3.190470313317431139e-02,-6.197519067823960065e-04,-7.857502336282719919e-04,1.304180961637055628e-03,3.596383929252624512e-01
3.307579735261799714e-01,3.222634825125630931e-01,-3.278014925229891241e-02,-9.145620412361464991e-04,-1.050435912303172414e-03,-3.323436123192138056e-04,3.593747317790985107e-01
3.245946072039054831e-01,3.226243893878626423e-01,-3.519013479930943600e-02,4.665936443708757186e-05,9.792470161179239827e-04,-7.788738707574333021e-04,3.588102459907531738e-01
3.209066629757459932e-01,3.217612032509153397e-01,-3.540175647090826327e-02,4.567724889320649704e-05,9.381451043058402616e-04,-9.776068325607986003e-05,3.567402064800262451e-01
3.315977367690883804e-01,3.226822912321322123e-01,-3.238287467436132272e-02,-2.056199101588139684e-04,6.977195548118572828e-05,-4.738436307697960919e-04,3.596069216728210449e-01
3.239041013270595459e-01,3.312408140469422779e-01,-3.095442000993942067e-02,6.223193084039606564e-04,-1.096859149767574586e-03,-4.800631191737188275e-04,3.585907816886901855e-01
3.225565978065642048e-01,3.303886924285722171e-01,-3.103842738890025266e-02,-6.765982330890508165e-04,-7.750422152774490625e-04,-3.681966442108382080e-04,3.575804233551025391e-01
3.178919783846199110e-01,3.322289563421182979e-01,-3.080196510505131546e-02,1.709216231780572655e-05,-2.355945277435263045e-03,-9.131082577075809014e-04,3.561058640480041504e-01
3.242037889165632070e-01,3.305319792604476947e-01,-3.262707828937042032e-02,1.578547364073451477e-04,-9.470402107273594031e-04,-6.984350097052645769e-05,3.600405454635620117e-01
3.118126780378899232e-01,3.130275857141345264e-01,-2.560213597329788482e-02,-4.563773643866699675e-03,5.457527128519284836e-03,4.576875804796732075e-03,3.383412957191467285e-01
3.186324382282414991e-01,3.138954702166453781e-01,-2.776176219258913447e-02,-1.749510434987381746e-03,3.354922257596306898e-03,3.187507674519099443e-03,3.441568613052368164e-01
3.283287094482448820e-01,3.199796540593521921e-01,-3.144063820435222256e-02,-2.109351416053393321e-03,4.787378022188866315e-03,-3.294471484914348030e-03,3.558294773101806641e-01
3.064512090517217957e-01,3.081086680995617777e-01,-1.976504610841320342e-02,-3.393032478903627511e-04,1.525613545111708259e-03,2.795317493643945019e-03,3.270951807498931885e-01
3.315121469657780207e-01,3.184575303761443821e-01,-3.219022158974491066e-02,4.658810112774293150e-04,-2.535111205357743445e-03,-3.457420859660101462e-03,3.574320077896118164e-01
3.132764398198819578e-01,3.140853447178908464e-01,-2.807487662453353461e-02,-1.652730728296372686e-03,2.851928993012693009e-03,3.185587988539044166e-03,3.418487012386322021e-01
3.095910602758971120e-01,3.135301999055486455e-01,-2.487382815447000683e-02,-2.048847553931558083e-04,9.002861581624164652e-04,3.900923715334511828e-03,3.365233838558197021e-01
3.228879875581729952e-01,3.225236279039282450e-01,-3.545796228705067055e-02,-9.551497991515840995e-05,2.571721727410341608e-04,-1.771211317730122072e-04,3.581643700599670410e-01
3.271619669892457671e-01,3.243909277055568863e-01,-3.511569489014204626e-02,-2.531964788224189632e-04,1.175175425505249399e-03,-1.131781940224836028e-03,3.609114587306976318e-01
3.234252996757175924e-01,3.222893424774778692e-01,-3.513526143010836655e-02,-7.042320507228379874e-04,8.918148565277402235e-04,-1.422303467932594452e-04,3.579994440078735352e-01
3.229750634786070496e-01,3.221542425927744202e-01,-3.517110698073241948e-02,-4.297174629063555329e-04,8.919362920287379629e-04,-1.422281404278897155e-04,3.577406704425811768e-01
3.224275009356920574e-01,3.224301164772057637e-01,-3.530551482124097418e-02,1.755216876552579471e-04,1.377343499222781443e-04,5.819892731085582129e-09,3.577345311641693115e-01
3.225736632657976166e-01,3.226599390521756594e-01,-3.546816539969099846e-02,7.602967076131350382e-05,3.807771537194992099e-04,-3.467624363371744249e-04,3.580861091613769531e-01
3.231670674395578091e-01,3.219984196036377866e-01,-3.483307361966339610e-02,-1.803146009094280943e-05,1.677698879193325384e-03,-1.978032872840232610e-04,3.574292361736297607e-01
2.634392934360068050e-01,3.093206632280406376e-01,-9.447447630541311314e-03,4.120014065124976560e-02,-5.743870605815191294e-03,-4.248038207919347525e-03,3.071451783180236816e-01
3.291263539496249169e-01,3.249107381543394069e-01,-3.264596066556177401e-02,-2.755052294303840434e-03,2.025510328103010370e-03,-2.021812908782012318e-03,3.597488403320312500e-01
3.314862491683884249e-01,2.541257857426950650e-01,-1.800535436397540656e-02,1.202991800875072466e-02,1.052374662076109406e-02,-1.165158756672303973e-02,3.197903633117675781e-01
3.201157874698546957e-01,3.231895422380780536e-01,-3.435580106653277066e-02,-3.342091531670001993e-05,1.226337714980633596e-03,-2.215495462352954151e-03,3.560454249382019043e-01
3.075803799900351243e-01,3.126158135870057420e-01,-2.199748659271300033e-02,-3.228959773759662241e-03,4.326465966304671520e-03,4.977764685691986671e-03,3.323676586151123047e-01
3.220216082438539518e-01,3.226102648620137181e-01,5.896505117360992254e-02,2.005593809410341228e-03,-1.102650562563265010e-03,-1.748714953286920060e-03,2.633986175060272217e-01
3.049734470555848787e-01,3.039106235830686398e-01,-1.372771569231498456e-02,-8.055226293028091775e-03,4.005273687592301839e-03,4.515213347247154334e-03,3.186483681201934814e-01
3.000992215859243917e-01,3.058181698158073392e-01,-1.676247504247158071e-02,-2.265831080773349649e-03,7.192136583048947679e-04,3.649597696471401469e-03,3.198485076427459717e-01
3.003903433144029522e-01,3.021296681644446425e-01,-1.242550837101932815e-02,-7.209524229637210863e-04,1.026036573200240663e-03,2.212730336874920312e-03,3.137200474739074707e-01
3.732228613943727735e-01,2.151304851466435408e-01,-1.781029039089307431e-02,6.680677968122002153e-03,1.375848953294727707e-03,-1.117600357904740931e-02,3.414601683616638184e-01
3.226072509779537301e-01,3.264867342518489313e-01,-3.489523734233548891e-02,1.939169442190937865e-04,-9.178531363385783351e-05,-1.575726448254710643e-03,3.594684898853302002e-01
3.248111402102579759e-01,3.221061527214984510e-01,-3.449110681179978766e-02,2.962981509175651893e-04,5.540092790583884316e-04,6.593471913093508626e-04,3.579608798027038574e-01
3.281901860840863439e-01,3.229001668799546532e-01,-3.383839064643295869e-02,9.150601798991291058e-04,2.654877134284681396e-03,1.954867865722281078e-03,3.594616353511810303e-01
3.297987417495061857e-01,3.258498063661007804e-01,-3.168759436934490137e-02,1.508325158050793349e-04,5.303908040361926014e-04,-6.900716094146362205e-06,3.595294058322906494e-01
3.167980365974246704e-01,3.334253996118802243e-01,-3.172174351483594834e-02,5.809054097204031627e-04,2.410869135226314575e-04,-2.212381493816253323e-03,3.571461141109466553e-01
3.285361842701594037e-01,3.234177994297381953e-01,-3.349645576470883235e-02,4.498007625754063413e-04,3.256414705243368055e-03,1.210484804539505715e-03,3.595519661903381348e-01
3.150333434240037422e-01,3.387605461803012696e-01,-3.084795724144806517e-02,1.401277535312905366e-03,1.219307968416363580e-03,6.507396215720579347e-04,3.583507537841796875e-01
3.110354624865990236e-01,3.083728049917284775e-01,-2.540567822251668662e-02,-9.737518696974448336e-04,-7.564696587665601388e-04,-4.051500817578677915e-03,3.351980149745941162e-01
2.191174737950888074e-01,3.330982042538128685e-01,-1.412283103138536888e-02,-7.832637617429412391e-02,-9.440942758089650860e-03,-3.043975783798210776e-03,3.356751501560211182e-01
3.229586568239058986e-01,3.288474256332518664e-01,-3.398768783019376349e-02,6.248292971735433998e-04,7.792793651643529834e-04,-1.607774939428713388e-03,3.599417805671691895e-01
3.269912726550793236e-01,3.226061294035075244e-01,-3.414590350151608389e-02,4.342688868726593196e-04,1.485155064464503986e-03,6.880617401239756811e-04,3.589766621589660645e-01
2.863005599909969057e-01,3.251206820473255821e-01,-1.697196825208366344e-02,-4.378534672958629692e-03,-1.308797964392848781e-03,-6.058256472538026648e-03,3.246953487396240234e-01
2.875367349198809652e-01,3.490924254257575798e-01,-2.709148282013651432e-02,1.796819579849324652e-03,1.355151611564698157e-03,5.367685742024179592e-03,3.496409654617309570e-01
3.191477680498477909e-01,3.335896350853854164e-01,-3.219225087704005728e-02,6.722300026232576288e-04,3.588622941043733468e-03,-1.134900329967992050e-03,3.588401377201080322e-01
3.240455762582639121e-01,3.301139379322204359e-01,-3.156636947261123871e-02,1.400076924400706308e-04,8.700138370871451443e-04,-2.731879901943800454e-03,3.587190806865692139e-01
3.169231682911731740e-01,3.300640163916280234e-01,-3.250921031925471660e-02,-9.064143758072969561e-05,1.367244057573556535e-04,-4.256776714821918980e-03,3.562610745429992676e-01
3.239777427191428694e-01,3.313925469273108493e-01,-3.159808825292365064e-02,4.466284561632566705e-05,1.758978487134310554e-03,-8.961069779532088945e-04,3.593568801879882812e-01
3.183069411292278605e-01,3.326464524553036650e-01,-3.231046997152342559e-02,-3.057471876304229566e-04,3.908203745459912400e-03,-8.688533853905641311e-04,3.580701649188995361e-01
3.278675744426943206e-01,3.199786674995473423e-01,-3.370327432296740811e-02,-1.232468201361278527e-04,2.519022026379914413e-03,-1.751310397117888116e-03,3.577311933040618896e-01
3.280009900905324627e-01,3.200928907517285871e-01,-3.330696323553769544e-02,-4.072179501381388220e-04,2.756301566620198307e-03,-2.183739467505621534e-03,3.574721217155456543e-01
3.278668239904195536e-01,3.239337671495073900e-01,-3.303551487335701364e-02,-5.354251635378215945e-04,6.879003160544392087e-04,-7.044383334575984954e-04,3.589572310447692871e-01
3.181023971697823360e-01,3.264596504578711200e-01,-3.213966098546353067e-02,-2.151367020205937242e-04,-3.710835617663413148e-04,-3.984597203378358737e-03,3.545625209808349609e-01
3.181458953091103048e-01,3.257258017603958389e-01,-3.270127692787752616e-02,-4.166469183808887066e-04,-4.962774368526432986e-04,-4.622025403497194949e-03,3.547899723052978516e-01
3.300620037693619002e-01,3.254996170124192512e-01,-3.059761962150364667e-02,4.080426833143734619e-04,-1.930726524183360685e-04,-9.793681531175049953e-04,3.584050834178924561e-01
2.954011161800988994e-01,3.378480125939239409e-01,-2.670197035205432168e-02,-7.428334927834844090e-04,-7.417191747040739660e-04,-4.539934465332932587e-03,3.453831970691680908e-01
3.271742547128920764e-01,3.225813365261003263e-01,-3.336207734733018238e-02,-5.523323290015297923e-04,1.566072795313111108e-03,-1.860111919658760345e-04,3.582736551761627197e-01
3.033533880521440684e-01,2.975762966344334126e-01,-9.744029550867644440e-03,-8.645313109660711023e-03,-1.346298576143074984e-03,-1.090126605525579620e-03,3.106248676776885986e-01
2.977479070253703508e-01,2.992586497880851404e-01,-1.003219321423409749e-02,-1.089620696729407152e-03,-4.372358942412353793e-04,-9.214608976647399347e-06,3.085449337959289551e-01
3.027471680810033261e-01,2.983127839634891476e-01,-1.346908644335789718e-02,-9.220494513871621556e-03,-3.053709986195517114e-03,-2.926314228156766221e-03,3.145137131214141846e-01
2.917374094567480869e-01,2.982075711128958084e-01,-1.155319788947040127e-02,-7.553060920182820895e-03,-5.661452185414590126e-04,-1.725755871993804895e-03,3.068720102310180664e-01
3.187831564334950296e-01,3.352510339991918165e-01,-3.220756566313290326e-02,-4.723548909181166490e-04,-3.225107374682631336e-03,1.020528396942342424e-03,3.595563173294067383e-01
3.187619461969489754e-01,3.307856156580544216e-01,-3.251848388426212266e-02,-1.412264762860725859e-04,-3.542313906123638854e-03,1.542468898759701392e-03,3.575066924095153809e-01
2.983714564130856006e-01,3.331291751731612627e-01,-3.077060198234432553e-02,3.424089804604661170e-04,-7.111274652000777914e-03,2.328162868242622269e-03,3.480677306652069092e-01
2.755892754081546991e-01,3.931275209522525627e-01,-2.265965205809411520e-02,-1.316983574774044374e-02,2.372138838147082665e-02,-8.677368942952439629e-03,3.745098710060119629e-01
3.128247632287881608e-01,3.351466987526920960e-01,-2.614721885532758638e-02,1.990020403905095030e-04,4.721234376728146442e-03,8.769293425534451696e-04,3.507649898529052734e-01
3.266301118388740266e-01,3.253362997255876965e-01,-3.189088083003405183e-02,-1.284088569622543648e-03,3.862852990985360564e-03,2.042956434353136643e-03,3.579627871513366699e-01
2.892639580605012029e-01,3.602311849870873939e-01,-3.263269177991595660e-02,-1.248005360219234423e-02,1.949693800997167811e-02,9.189825097934643458e-03,3.651834130287170410e-01
4.673491204013037192e-01,3.517910996009615543e-01,5.218829459609522492e-02,8.446650736254821532e-05,1.144243668127043964e-02,-4.988078586546966509e-02,3.815679252147674561e-01
2.650062979665816498e-01,3.464925083590415511e-01,-2.380631163866284150e-02,3.971061984107117316e-04,1.144708203080418291e-02,-2.881496294619746885e-03,3.376469314098358154e-01
2.981845208615401255e-01,3.358796579096352541e-01,-3.146317739029433347e-02,3.046963903899035345e-04,6.742842373796766736e-03,-1.435587609285118556e-03,3.502249419689178467e-01
2.910181258251883230e-01,3.488513813351766801e-01,-2.758176730361577844e-02,1.631683745905792952e-03,1.316155065891289229e-03,-4.226722595375037063e-04,3.511267006397247314e-01
3.230040146958914615e-01,3.222838992633559330e-01,-3.554590729276810301e-02,7.389078864593229571e-04,-1.040282036355895954e-03,-1.745872264596107215e-04,3.581973612308502197e-01
2.652889015197149591e-01,3.448180696389787636e-01,-2.369294500923596614e-02,6.102396461849858870e-04,1.097247272840952415e-02,-2.107426844661604900e-03,3.364424407482147217e-01
3.250864172292979304e-01,3.222364171519093712e-01,-2.956156746511071076e-02,3.274305420508803049e-03,-2.539194043226026751e-03,4.473088382755064686e-03,3.533894419670104980e-01
3.229601348521220494e-01,3.164816039804579928e-01,-3.278560636664484829e-02,3.074717399079050003e-03,-3.811075835452018036e-03,2.478482638063929551e-03,3.526792526245117188e-01
3.253128217839934555e-01,3.245266474874280993e-01,-2.913494196350202570e-02,-5.872246983686047134e-04,1.009166757715606981e-03,4.248450275135049587e-04,3.540618717670440674e-01
3.225990374512087144e-01,3.158938721925689808e-01,-3.198702859697680201e-02,-1.736461187107571531e-03,-4.077554775894328548e-03,3.464900015500993751e-04,3.513658642768859863e-01
3.181374037012633105e-01,3.195166186103549077e-01,-3.011069501404126103e-02,5.120360262168271483e-03,-3.956871510105004069e-03,4.328090880518715815e-03,3.492001891136169434e-01
3.237486514679647209e-01,3.199020974800557138e-01,-3.325554079476536473e-02,5.845105135897572021e-04,-3.124788138046341590e-03,2.582762584594504914e-03,3.551673889160156250e-01
3.250216136111634402e-01,3.236936588030973061e-01,-3.506515361473538928e-02,8.742371034002307997e-04,-1.482967319369590635e-03,-5.677155801286765373e-04,3.594383299350738525e-01
3.251899458257806463e-01,3.249777359495712448e-01,-3.400559554566826015e-02,1.093050243643791698e-03,-1.950338620840225395e-03,-1.910121909936310196e-03,3.591256141662597656e-01
3.317801616603910375e-01,3.258108590487657774e-01,-3.253990604987680446e-02,-7.727336088174229650e-04,-1.374237491637069159e-04,9.006033161398839483e-04,3.613783121109008789e-01
3.239295141876720185e-01,2.747665807864110299e-01,-1.042274423624461877e-02,-6.479154337692220531e-03,2.771312868183651006e-03,5.063273341288571702e-04,3.129224181175231934e-01
2.990184111904539144e-01,3.007149145796276790e-01,-9.170131229081279756e-03,-8.721305480312434300e-03,9.399502788846231293e-04,1.021298697263816257e-03,3.094185888767242432e-01
2.987985761669529894e-01,2.920750691589828474e-01,-1.022840280710135552e-02,-5.023533502741171775e-03,5.911487256556831923e-05,-1.530293537057066455e-05,3.058444857597351074e-01
2.951014356355906032e-01,3.042952052036930199e-01,-1.426790787068063504e-02,-5.201815333414609548e-03,3.139116001100977771e-03,4.688980779712775826e-03,3.143483400344848633e-01
2.994356170479836599e-01,2.998290778870772999e-01,-1.283029655191075813e-02,-9.095655709628891472e-03,1.994544332446670457e-03,3.021731591765473585e-03,3.129225671291351318e-01
3.290919841809636370e-01,3.221757478302810784e-01,-3.363630745363777041e-02,2.470035247568773081e-04,-1.176283781193979269e-03,2.692817016117019630e-04,3.593264222145080566e-01
3.266309820696133848e-01,3.236124990618152175e-01,-3.424380946102667522e-02,6.189781837455031422e-04,-1.759480065895531768e-03,-3.198533970535038878e-04,3.593899905681610107e-01
2.991926793526433204e-01,2.918859612742186749e-01,-1.131929230061914926e-02,-5.878898534222729011e-03,1.585462267758449900e-03,4.804001688948082629e-04,3.071061074733734131e-01
3.242797411479058645e-01,3.350625424094166860e-01,-3.176172613219732654e-02,4.637712793741705824e-04,-9.830932632170956767e-04,1.039942281223293430e-03,3.615628778934478760e-01
3.230008858119226001e-01,3.305345208456419437e-01,-2.994929541011490115e-02,-6.500779552621952905e-04,5.740853086177991798e-04,2.560448321311004386e-04,3.567800819873809814e-01
3.265039506743347419e-01,3.022974943200735787e-01,-2.413618644502596444e-02,-2.193101989244564121e-03,-7.927178042316471510e-03,-2.140336053432821488e-04,3.394846022129058838e-01
3.245269394972659649e-01,3.313713375548372753e-01,-3.060832131478810614e-02,2.362160578088133762e-04,-4.010422172426542585e-04,-1.052271180148402945e-03,3.586120009422302246e-01
3.224688429229665698e-01,3.306732147975232072e-01,-3.295120977215318381e-02,-5.061856599449903989e-04,4.958558808321239433e-04,6.711687644247059164e-04,3.595964014530181885e-01
3.264649312791931268e-01,3.248133230096775237e-01,-3.069141535141178823e-02,1.143583814574310881e-03,-1.574798566179241160e-03,-1.504250714285727732e-03,3.563588857650756836e-01
3.478658650066625002e-01,2.882158507521225821e-01,-2.771238002025136482e-02,-3.678207851702839509e-03,-3.768637314971433512e-03,1.040850721365163848e-03,3.497146666049957275e-01
3.235818282183957617e-01,3.295141082896232421e-01,-2.803044234154317138e-02,-1.169384897910409962e-03,1.775263301687433513e-03,3.074823268482029435e-04,3.546351492404937744e-01
3.223478312088769449e-01,3.221472881680301770e-01,-3.559417894078248379e-02,3.864322598112006324e-04,-8.195192782832538608e-04,-2.595646870317526729e-05,3.578452169895172119e-01
3.273996479295963047e-01,3.231237671305826620e-01,-3.398610117862871371e-02,-7.984970256154915076e-04,-2.661610176157758537e-03,-1.784762716319322502e-03,3.593124151229858398e-01
3.286021683807988092e-01,3.227544719533950723e-01,-3.337175750537871299e-02,2.758750268050896935e-04,-3.679640868603044172e-03,-3.267906952955381382e-03,3.591872751712799072e-01
3.233383911476238048e-01,3.195764856489309302e-01,-3.360256751296189504e-02,-6.254897592010485053e-04,-2.359832272873965252e-03,-1.502821806946073434e-03,3.551096618175506592e-01
3.291851611548701761e-01,3.230876199134066207e-01,-3.407634376047585789e-02,-4.596838165999244091e-04,-1.727024823108311074e-03,-7.062686079141177213e-04,3.602668046951293945e-01
3.225014115282754390e-01,3.224515503647693571e-01,-3.368569162530812844e-02,-3.418082137107555582e-04,-2.749137391068280211e-03,-1.348349061270950541e-03,3.562021553516387939e-01
3.259680239706248539e-01,3.227009094285884228e-01,-3.312765899484096388e-02,2.323711809682418110e-05,-2.315163821438810058e-03,-5.975124707787015255e-04,3.574973046779632568e-01
1.947333101979686065e-01,4.021205691890744061e-01,-3.125762038705459656e-02,-9.809262307226961075e-02,-3.591355314193449277e-02,-2.960642101664423716e-03,4.167867004871368408e-01
3.310008863197513862e-01,3.309198933702833800e-01,-1.017095153343186564e-02,-4.548889491706738231e-03,-3.305230154035185362e-03,-1.739098038703311725e-03,3.412836492061614990e-01
3.283327102156193833e-01,3.233374834316107282e-01,1.030507951096529262e-02,-2.404646902586444254e-04,1.858609534210626472e-03,-6.253807168597136368e-03,3.157622218132019043e-01
3.234087516909702198e-01,3.232809774254042923e-01,-3.582574733466756256e-02,4.776698033032794827e-04,-3.828437045238300700e-04,-3.371469916279620630e-04,3.591726720333099365e-01
3.271618789874178868e-01,3.259164540393972853e-01,-2.942413401917515214e-02,-7.586953543859861185e-05,3.052424424471530820e-04,2.049002029243776092e-03,3.559830486774444580e-01
3.311330778698172717e-01,3.269917015911544822e-01,-2.534095570206662540e-02,-2.095182357739210771e-03,-5.898739300405255858e-04,2.885862718961180844e-03,3.544767796993255615e-01
1.418873700437066343e-01,4.307460036945352511e-01,-5.445692139144173161e-02,-1.240777385166299540e-01,-3.966073374681677866e-02,-3.242864601353396582e-03,4.792102575302124023e-01
3.184311434112989669e-01,3.207656789177800172e-01,-3.181450896143364626e-02,1.111069631319547540e-03,5.709035054015194552e-04,2.260996175305646322e-05,3.514254093170166016e-01
3.222234105917486380e-01,3.229682381594518592e-01,-3.513596940205518382e-02,7.172093989688811363e-05,-2.030421687137035829e-04,-1.438269986325481625e-03,3.577412366867065430e-01
3.230004651201670574e-01,3.227970241090923342e-01,-3.588055969518141874e-02,2.090835487523934758e-08,-3.121202191900355203e-04,-2.542303756905022372e-04,3.587800264358520508e-01
3.224837672152624513e-01,3.250502983927189282e-01,-3.333898714968436261e-02,-1.093321626862479260e-04,7.322481960375701966e-04,-8.937360216399177861e-05,3.571152687072753906e-01
3.153755743262051103e-01,3.133207275761330513e-01,-2.867105436993927503e-02,2.586899813834650855e-03,2.936387158374439369e-03,-1.786021490665439318e-03,3.431047201156616211e-01
3.137005409040984349e-01,3.141241232568399155e-01,-2.878218346312996778e-02,1.968673450907522469e-03,2.038282413963545935e-03,-3.468850072611601946e-03,3.427825272083282471e-01
3.186224346903437366e-01,3.155156654404088767e-01,-3.234247073985768717e-02,3.648067286968519540e-04,5.426512314609078461e-04,-2.829149692192232338e-03,3.494580686092376709e-01
3.223393547536380077e-01,3.227058416863866630e-01,-3.527795260165797475e-02,-1.202142115513275876e-04,5.242731404125216838e-04,-5.569828717638333499e-04,3.578031957149505615e-01
2.131007052723795092e-01,3.642852691295063172e-01,-8.990878958227310758e-03,-2.146845433667936287e-03,-1.647719459383551236e-04,-1.512650270051145874e-03,3.252368867397308350e-01
1.765700671352283257e-01,3.765463227045502403e-01,-7.809415200620734021e-02,-1.846734555102821085e-01,-5.586586718331579271e-03,1.537539554946706910e-02,5.088092684745788574e-01
3.127842580865028976e-01,3.199061117945528054e-01,-3.099347153687936895e-02,1.005876270462660246e-03,3.003653049983511479e-03,-4.407693319488866640e-03,3.475205898284912109e-01
3.225833259628833605e-01,3.270006778371959411e-01,-3.294794169115725091e-02,-4.767405954987697812e-04,7.577144435134595089e-05,-1.521970601405190499e-03,3.577710986137390137e-01
3.688539100006500426e-01,4.620427466158741892e-01,4.274121716172518681e-02,4.783282566743717046e-02,6.492885845962931279e-02,-3.934796653546045186e-02,4.118005633354187012e-01
3.290642539881715734e-01,3.231395800208404778e-01,-3.358626767090680532e-02,2.379137665538215169e-03,-2.421691150437554896e-03,-6.677548858535176058e-04,3.597746789455413818e-01
3.201007803387954098e-01,3.212702743280700934e-01,-3.412298388253254267e-02,5.481830248016640247e-04,1.250134157395233316e-03,-1.565553062248175925e-03,3.548282086849212646e-01
3.256012737867435280e-01,3.223615870340897915e-01,-3.352410557764207155e-02,9.546221398110642242e-05,4.179675070362202927e-03,-3.288826512841594180e-03,3.576352298259735107e-01
3.242295578968837355e-01,3.230013452918552019e-01,-3.442568865681835955e-02,-2.211119890028370011e-05,1.110854453926441885e-03,3.312387298345163513e-05,3.580479025840759277e-01
3.285344686002151238e-01,3.272404588158934757e-01,-2.646002633781305291e-02,-1.420541418179533527e-03,-1.970221853133914615e-04,-1.861060993521969440e-03,3.543726205825805664e-01
3.223525649090581702e-01,3.199284037282306148e-01,-3.402185970455889885e-02,2.540142592042522979e-04,1.468097590527579115e-03,-1.209488291957251226e-03,3.551841080188751221e-01
3.257358859696311559e-01,3.268622842257471461e-01,-3.184569530386122116e-02,-1.254250564396807441e-03,1.754383749675130118e-03,-1.910455615289125778e-03,3.581808805465698242e-01
3.110454841834657258e-01,3.093150655238121050e-01,-2.291707673821857805e-02,8.798617974906707342e-03,8.442067518319291280e-03,-8.174301497782174991e-03,3.340697586536407471e-01
3.174239849148902115e-01,3.194380929671154501e-01,-3.162304854463909853e-02,1.786175536992679145e-03,3.461630089048163095e-04,-2.403246273738102005e-03,3.500973582267761230e-01
3.187535865395582091e-01,3.234622048247215442e-01,-3.336256927105929471e-02,1.317855008598726486e-03,2.320094797818149628e-03,-3.355804231018768343e-03,3.545717000961303711e-01
3.261608683396646224e-01,3.259920624084640117e-01,1.700160334302860954e-02,2.296337072639184889e-03,5.207738998944537283e-03,-3.224805284629945340e-03,3.092825114727020264e-01
3.230796384507699237e-01,3.253311843822813132e-01,-3.475440216773251212e-02,-3.758753350597136595e-04,5.884331623068910942e-04,-5.608363494035630437e-04,3.589684665203094482e-01
3.254799892043800935e-01,3.299812711694287692e-01,-3.101206913926773945e-02,1.234075016648236071e-04,-2.671178086939183464e-04,5.123452749062860098e-05,3.587642610073089600e-01
3.983397176865061118e-01,4.543967555566433281e-01,4.542366908676725989e-02,4.863572262983952704e-02,3.100841365403282190e-04,-2.024878026455880636e-02,3.947178423404693604e-01
3.213281108720687507e-01,3.245685321262971046e-01,-3.490722101768667374e-02,-2.793517126061505771e-04,1.249974668574472148e-04,-1.354177397362657347e-03,3.578746318817138672e-01
3.265334706815962162e-01,3.230755198662166316e-01,-3.505541473872397784e-02,5.932280252611343363e-04,-1.397475192223349236e-03,8.468886486849359397e-05,3.598819971084594727e-01
3.146972396420478768e-01,3.352895702742872963e-01,-2.987964983793850449e-02,5.098766735338530753e-04,-6.283050708853467337e-03,-1.346159754576980257e-04,3.554886579513549805e-01
3.298588521012781327e-01,3.254892597200930715e-01,-2.884393607926755143e-02,2.480565577271993775e-03,-7.877848310448799709e-05,-1.345093501963981562e-03,3.565715849399566650e-01
2.190952274471296701e-01,4.132493318014202055e-01,-2.985259692185307512e-02,-4.858494547896810047e-03,-3.263599588476243790e-02,1.585117998691134384e-03,3.889456987380981445e-01
3.104282441788072666e-01,3.146938982791517292e-01,-2.612026718024454408e-02,-2.538515649290090312e-03,-1.095889526984663003e-03,-7.126833358151252532e-03,3.389601707458496094e-01
2.656049241726803345e-01,3.580619548092696114e-01,-3.097801003263406239e-02,-2.243321233072300878e-04,-1.737392991372255571e-02,1.299093193671964830e-03,3.533294498920440674e-01
2.960106329862363661e-01,3.370909710024834749e-01,-2.207446052916456347e-02,-8.494403673764252052e-03,-5.907245693377027873e-03,-1.932637908608009648e-03,3.409767150878906250e-01
3.395331458061910945e-01,2.921289964694750441e-01,-2.966870926408921028e-02,-1.810129943160280076e-03,3.359367327120828511e-04,-1.570519339668707479e-03,3.479554951190948486e-01
2.937819481905981078e-01,3.432238226592210228e-01,-3.071475629054534751e-02,1.313738313033336724e-03,-4.696232616498131895e-03,4.836790832975716280e-04,3.519351780414581299e-01
2.670309857143287058e-01,3.463351451559103511e-01,-2.889265782427502538e-02,6.281611360584321178e-04,-1.548929461402020862e-02,2.535061549665092108e-04,3.435826897621154785e-01
3.248742548291813081e-01,3.259346798552854585e-01,2.032417666581728954e-02,2.148175460982789699e-03,-2.531117000765074031e-03,-3.193386524762031452e-03,3.051859736442565918e-01
3.198781773545495977e-01,3.118535494762992299e-01,-2.764969177855702842e-02,-5.740385885008933084e-03,-5.143167720140177229e-03,-2.878754612765454558e-03,3.438812494277954102e-01
3.232857771918389855e-01,3.350826877378947355e-01,-3.140995807670426965e-02,-2.728573376891250827e-04,8.485978559274207165e-04,1.381711462541194242e-03,3.607501387596130371e-01
3.234816695002304399e-01,3.311228604338710690e-01,-3.230305316305082108e-02,1.116163223987150102e-03,3.063574404307813689e-03,1.546940197509035506e-03,3.597205281257629395e-01
3.227200520609588286e-01,3.306482824842500445e-01,-3.330385657065820793e-02,9.530855966361109592e-04,-7.505702864099502184e-04,5.226885468999074077e-04,3.600607514381408691e-01
3.231730213553082320e-01,3.302366698413231605e-01,-3.315695532094936615e-02,-3.223084116360446861e-04,-8.794690359010460439e-04,-7.550105582803323568e-06,3.599174618721008301e-01
3.203532563404714040e-01,3.185076218466091347e-01,5.861867740523152293e-02,-9.328522570374437033e-04,-1.022386014557280206e-03,-1.551645528071317077e-03,2.608415186405181885e-01
3.172809597722833219e-01,3.352668123944756995e-01,-3.145236517318308889e-02,5.806803915765201005e-04,2.778139220116748395e-03,1.437162070150529341e-03,3.581075966358184814e-01
3.259125585560602723e-01,3.300041424455298911e-01,-3.111156308121057479e-02,6.170073416572056024e-04,1.043667682755754786e-03,5.638920093663547795e-04,3.590948581695556641e-01
2.520158410657263870e-01,3.435015754309513891e-01,-1.760816385697411279e-02,-6.126486018306223288e-03,8.916961066056947396e-03,8.380553087437490195e-03,3.260296583175659180e-01
3.197174334314660804e-01,3.224982856597844449e-01,-3.458478773106044013e-02,-6.738315075445970147e-04,-1.112325848492015743e-03,-1.599692290972833282e-03,3.557187318801879883e-01
3.195912423462973218e-01,3.204582239461519766e-01,-3.246184696355167154e-02,3.471889466226882326e-04,3.699783174761557113e-03,-2.640969683278138018e-03,3.525758087635040283e-01
3.209045148699582461e-01,3.202178153899744029e-01,-3.408877341183363940e-02,3.839795366156740467e-04,1.607938189462180915e-03,-1.285898107179174552e-03,3.546689748764038086e-01
3.274060497016721971e-01,3.258203010845815983e-01,-3.056836580754571098e-02,2.180882974439842491e-03,-1.600460792581256649e-03,-1.531693118738947697e-03,3.572247624397277832e-01
3.249735232552923847e-01,3.244585685027611688e-01,-3.321876774121837461e-02,5.604131187537211064e-04,-1.341879613532435392e-03,1.043211797151018830e-04,3.579440116882324219e-01
3.251372759417521241e-01,3.278247282827166376e-01,-3.367277670809123991e-02,3.516718462533511766e-03,-2.975172505837974258e-03,-3.163932420723202747e-03,3.602913320064544678e-01
3.245298304389961364e-01,3.263442175420463998e-01,-3.492263006511084344e-02,6.293609357687525571e-04,-5.002431907742059362e-04,-1.775238084117328067e-03,3.603788912296295166e-01
3.265802263410296780e-01,3.231620049146015083e-01,-3.239566664691900799e-02,1.343642195832066852e-03,-1.677287311581566933e-03,4.286711659914650826e-04,3.572992086410522461e-01
3.233476489158490508e-01,3.167545044677816946e-01,-3.239798937571061743e-02,1.155024959530953112e-03,-4.237184541667022609e-03,-1.847475874063729171e-04,3.525775372982025146e-01
2.863523073510035877e-01,3.243507776630295547e-01,-1.788391306091727251e-02,-4.574889315864693294e-03,-1.500137714199858453e-03,-6.896217904229950957e-03,3.252326548099517822e-01
3.209635779408244738e-01,3.238078386398582920e-01,-3.043117771548936590e-02,-2.825639464187471028e-03,-4.270830922798118066e-03,-4.614306082874594650e-03,3.530274331569671631e-01
3.186181420163980982e-01,3.254956190997890797e-01,-3.318591650969557327e-02,-8.578204657738353230e-04,-3.160472435422067433e-03,-3.837635793599319771e-03,3.554001748561859131e-01
3.212251109980291397e-01,3.242760565507718518e-01,-3.493801209320654411e-02,7.534817672404724533e-05,-5.363109649509427245e-05,-1.672182332470367565e-03,3.577101230621337891e-01
2.959796627357392240e-01,3.080540143261655261e-01,-1.635561637133867152e-02,1.404107498899475476e-02,7.689241095010447731e-03,-1.277547462514732300e-02,3.205133974552154541e-01
3.277290524759273183e-01,3.060953927815285858e-01,-3.154038224387906153e-02,1.543372332110435176e-03,5.117232182426189810e-03,-4.272790560659450992e-04,3.490794897079467773e-01
3.215078425554070973e-01,3.266171924949542449e-01,-3.477614433268974570e-02,1.028069384221337633e-03,-9.990021213572954092e-06,-1.558220530672228300e-03,3.588805198669433594e-01
2.915447305753702811e-01,3.437778102382343937e-01,-2.410222992946492448e-02,1.319952280464095195e-03,1.214732174609801235e-02,-2.674983064576559513e-03,3.454242050647735596e-01
3.121092008531731743e-01,3.494931345609244566e-01,-3.713486989833331142e-02,5.329186085607548473e-02,1.296589908940961981e-02,-1.595402739244589779e-02,3.823782205581665039e-01
3.201129339829680842e-01,3.195149823007805145e-01,-3.358741621145658329e-02,1.292535269064618063e-03,2.312972538212317540e-03,-2.842448644656404670e-03,3.534658253192901611e-01
2.629018286892216283e-01,3.216897194103764401e-01,-9.847986086936821870e-03,-3.297814554230424355e-02,9.359062789744489229e-04,1.386441887473567267e-03,3.116952478885650635e-01
3.185898491296533241e-01,3.296240870611503171e-01,-3.007817859835323904e-02,2.704470444186894782e-03,2.886450445560563745e-03,-4.195105098501354830e-03,3.544547557830810547e-01
3.054710174031435299e-01,3.047298163949156979e-01,-2.200440442847143019e-02,-4.444639206786230728e-03,-4.271056446176696789e-03,-4.060355405011062749e-03,3.273552060127258301e-01
2.925671568020600244e-01,3.390038834394308864e-01,-2.557100663349984315e-02,3.423136118908798840e-03,-9.944020056190095141e-04,-7.086711935369610638e-03,3.439917862415313721e-01
2.493990695735903151e-01,3.468831737195557929e-01,-1.762091345537306064e-02,1.628510572960195028e-03,-1.082745799800016121e-03,-6.507770837959528766e-04,3.268727064132690430e-01
2.944898555058656497e-01,3.247198786061379350e-01,-2.590276387124595958e-02,8.453549793081867325e-02,2.200318405894984009e-02,-1.366300697002614806e-02,3.697322905063629150e-01
2.456426632137007071e-01,3.495371285799944161e-01,-1.445392373397208496e-02,3.642991088064622546e-02,1.321304831806674115e-02,-1.027199350787431215e-02,3.320972621440887451e-01
3.240208179421826262e-01,3.276254114298997600e-01,-3.308916658602603644e-02,-3.409294714927953965e-04,7.248108500170729988e-04,-3.510574236059197609e-04,3.589290380477905273e-01
3.137227502710961402e-01,3.155043301549274037e-01,-2.924572915210801871e-02,4.659920844966541735e-04,-1.486981292105074570e-03,2.356931605212577146e-03,3.438975512981414795e-01
3.207908510513781675e-01,3.204600383025587584e-01,-3.393047729579376504e-02,3.679860295343633956e-04,-9.915257033576698950e-04,3.019008512603271136e-04,3.545611500740051270e-01
3.453917966718756949e-01,3.284176375554150873e-01,-4.780510999906950609e-03,1.151198795126374443e-03,1.452496851081398613e-04,-1.427673655878854879e-03,3.420161306858062744e-01
3.270868760276225973e-01,3.267997291165120055e-01,-3.180307977363128202e-03,1.861415020451278202e-03,-1.805034339950965664e-03,-3.696989091333812393e-03,3.302163481712341309e-01
3.178856584437338428e-01,3.173908578843303574e-01,-3.203265110610140076e-02,9.520937075252417295e-04,-2.655569098685564046e-03,4.736274904590079987e-04,3.497062623500823975e-01
2.740011842949450771e-01,3.088214336380797898e-01,-1.592510508676248104e-02,3.001731547487562074e-02,-4.928166755417618533e-03,6.408374765654974853e-03,3.134711980819702148e-01
2.453816639752549322e-01,3.295548498325167053e-01,-8.882378495487425196e-03,2.014862347020330430e-02,-4.347403398515387041e-03,6.095112117882034615e-03,3.074468970298767090e-01
2.246907011914552055e-01,3.400200902715131424e-01,-6.961573795555647814e-03,5.463469835481399306e-02,-5.814000110351540129e-03,9.444406820361278283e-04,3.205290734767913818e-01
3.285140738348651945e-01,3.182761075199063150e-01,-3.378102968333693279e-02,-6.663355969635870657e-04,-2.447593077898230045e-03,-2.366569564622508694e-03,3.573366701602935791e-01
3.449983877963912482e-01,2.390878565982283432e-01,-1.440996349544465538e-02,-2.939471431704557269e-02,4.820337510544299604e-03,1.686492541047808144e-02,3.253327608108520508e-01
4.700683760521129906e-01,3.154453220187042328e-01,3.922496418716134303e-02,5.151878365841529306e-02,1.922614982750917023e-02,-7.145263475995425329e-02,4.090280532836914062e-01
3.972511390114178975e-01,2.315214456190897163e-01,-8.568736499770829296e-03,6.458997416212909626e-02,1.723904810876108334e-02,-3.128072810711482465e-02,3.758221566677093506e-01
3.273538434243365436e-01,3.264271922435613149e-01,2.473246727790895383e-03,-2.952242574478952143e-03,-3.321356761348095814e-03,2.898236338310480973e-03,3.245483934879302979e-01
2.907516424716991010e-01,3.398061564773978138e-01,-2.758425023319480140e-02,-1.793528566518043973e-04,-9.384823683881109548e-04,4.995046413652255192e-03,3.455972969532012939e-01
4.011504573530592088e-01,4.419082801377824943e-01,4.943052947537518449e-02,5.893054677069482772e-02,-9.224343270539904494e-02,7.395828630683849714e-02,4.382441341876983643e-01
2.803423693721375232e-01,3.266806999010177237e-01,-3.158198922880595116e-02,7.318371133439800780e-02,-3.220420758149934726e-02,2.095460775763169359e-02,3.665982782840728760e-01
3.227280990804355376e-01,3.161262449290280774e-01,-3.306899329848178581e-02,-2.162674945011784818e-03,-6.557506471843308621e-03,-5.691301565640502491e-03,3.528830409049987793e-01
3.612963976288900425e-01,2.079016846519780026e-01,-6.335809962616234525e-03,-3.465854259218241473e-03,-3.670718704524794196e-04,1.994737305291623152e-04,3.198860883712768555e-01
3.161179606405294384e-01,3.347789178538330690e-01,4.147032326273139557e-02,-4.021160852191800819e-03,4.618858154748533423e-03,-5.435806692872537614e-03,2.847909629344940186e-01
1.508585535002603950e-01,3.585858039193217106e-01,-3.786986881133280747e-02,-1.398486054026458481e-01,-2.667698560900686605e-02,-7.095639537693482560e-03,4.230035245418548584e-01
3.336553957876143839e-01,3.444608454270925435e-01,4.190713580357594004e-02,1.366423108083580917e-02,-1.279410689338560982e-03,-8.411838707455729022e-03,2.986027300357818604e-01
3.298807821573765953e-01,3.245644878372184738e-01,5.059533417711195580e-02,-1.384238193202768112e-03,6.969966588458391789e-04,3.679925051646245129e-03,2.767520546913146973e-01
3.294064699521357942e-01,3.267374175338269571e-01,-2.344174729170062088e-02,1.586909920906449684e-03,-3.696215381391232922e-03,-3.386474190520738069e-03,3.516392409801483154e-01
3.184425903322262164e-01,3.305141172758108148e-01,-3.042290663862801114e-02,6.471555078779522114e-04,-3.153929844358271430e-03,-4.427186927669678543e-03,3.551817834377288818e-01
3.180652905071968961e-01,3.201732436105107493e-01,7.199546782112042909e-02,-9.602394045233289977e-04,1.652648536376649093e-03,-6.447693280136031560e-04,2.471552342176437378e-01
3.233057720264306267e-01,3.271559958287242331e-01,4.614280881398552525e-02,1.788478376846125949e-03,-7.755598989872739381e-04,-6.106280203238672807e-03,2.793287038803100586e-01
3.277778722233730679e-01,3.277739857224606368e-01,-2.576168562775285609e-02,2.626950564116767913e-03,-3.069695502936485316e-03,-2.984755006835004745e-03,3.536446690559387207e-01
2.566403308121661397e-01,3.322011212874118602e-01,1.588690919490770570e-02,-7.613085243418098169e-02,-4.870412479105088593e-02,-1.561492800961706250e-02,3.272592723369598389e-01
3.192461711663472923e-01,3.216870412530029588e-01,3.693237936572243973e-02,-4.897732807823323119e-03,5.203987851471313791e-03,-4.289683268915734922e-04,2.838131189346313477e-01
3.277220600972974851e-01,3.268317046161673955e-01,-1.553804244542106305e-02,2.508258422612096982e-03,-2.351541662729065164e-03,-1.850208140244594471e-03,3.428824841976165771e-01
3.268571709711877715e-01,3.263201088043378162e-01,2.034132554823125938e-03,2.169355966642998700e-03,-2.521639616429828621e-03,-3.312857168523789322e-03,3.246566951274871826e-01
3.226925801901051605e-01,3.260387366747592996e-01,2.019304120432710570e-02,1.071096795890835339e-03,-3.281324022027940195e-03,-3.174449408883876604e-03,3.042948544025421143e-01
3.282765126563192970e-01,3.232087527711736130e-01,4.307470237254951151e-02,1.620030080889945084e-03,7.693363366564440198e-03,3.674309290520677996e-03,2.831013202667236328e-01
3.249827164691471149e-01,3.349111223996018571e-01,1.084500528427329025e-02,1.013087729925580670e-03,-3.647388445533391102e-03,-6.531255754318889169e-03,3.194853961467742920e-01
2.789711978505666767e-01,3.384300035332488132e-01,-2.488644254715174919e-02,-4.618789198811608550e-03,-8.796487688744601685e-03,-8.825419626687938668e-03,3.383217751979827881e-01
3.206158375852393716e-01,3.382761291085993882e-01,-3.125457105530560220e-02,-7.240037400547419399e-03,-1.559253490973683178e-03,-4.608806163426993306e-03,3.613406717777252197e-01
3.364502512918454702e-01,3.286150449985150712e-01,-5.253554774017621387e-04,-7.584977905249383826e-04,-6.303520995741268042e-03,4.407227221606349480e-04,3.333094418048858643e-01
3.307243337669404926e-01,3.295315319441378121e-01,-1.066076563976209313e-02,-2.329730910409010675e-03,-6.741795256639486868e-04,4.375473932146220837e-03,3.409003913402557373e-01
3.262909546852803544e-01,3.273590710367227374e-01,-3.216173454665474662e-02,1.983249354228587731e-03,-1.937623876146997264e-03,-2.082106458890830084e-03,3.590381741523742676e-01
2.817915974020228642e-01,3.289752302285985364e-01,-2.522536609366499150e-02,-9.021294526369180028e-03,-1.019536994981106934e-02,-1.003309493710003580e-02,3.344097137451171875e-01
3.259936451161928872e-01,3.280125841186177227e-01,-2.447064873178941835e-02,1.424958280589121856e-03,-2.150809559798337947e-03,-1.454159071651387738e-03,3.515155315399169922e-01
3.274075316755596932e-01,3.297161249288692586e-01,-2.427135150908313332e-02,1.167297566556086416e-03,-2.795128238432074020e-03,-8.630393372072801264e-04,3.528810143470764160e-01
3.491610476308970035e-01,2.482461753690788919e-01,-1.904078098013550768e-02,-2.638016177875564944e-03,1.283280077836469182e-04,3.342194742191505674e-04,3.295764327049255371e-01
3.029939588504269588e-01,3.282199486349016704e-01,-3.205500001279229516e-02,-1.068077787602115646e-03,-7.047601022583319455e-03,-5.498390129037250204e-03,3.486964702606201172e-01
3.182036321792502398e-01,3.287892156862142201e-01,-3.190242821895999947e-02,-3.342761791867804484e-03,-3.906030737469839108e-03,-5.733855851703517116e-03,3.557672202587127686e-01
2.978148853099540916e-01,3.382377369216040264e-01,-3.178458373632719880e-02,-2.740005408704973295e-03,-5.758495529111780191e-03,-3.768390225677955424e-03,3.517922163009643555e-01
3.207810850268774661e-01,3.194380727902635941e-01,-3.324655480923402462e-02,-2.913114820585114249e-04,-2.064545103278208563e-03,-2.978848722667740406e-03,3.534141778945922852e-01
3.276361874570390409e-01,3.221766577086238592e-01,-3.184101323643476200e-02,-8.179486944923348524e-05,9.574090374358452710e-05,-3.110991177885264478e-04,3.567792475223541260e-01
3.246433968398618752e-01,3.211249584082667141e-01,-3.521286784761351596e-02,2.623446561898207089e-04,7.625785648855276525e-04,-3.098003733984056827e-05,3.581127226352691650e-01
3.309117014335947182e-01,3.372190654584580893e-01,-1.641692614572581865e-02,6.544689631729150997e-03,1.583638050254435395e-02,-2.112647563366787731e-03,3.517981767654418945e-01
3.290117206475184908e-01,3.251076267133350406e-01,-2.975139990105776788e-02,-2.363320640251887882e-03,2.252792673736217412e-03,3.969103579828133616e-04,3.568725585937500000e-01
3.270287548815491996e-01,3.233071835569715780e-01,-3.199096942482304584e-02,-3.150252685212441128e-04,3.627864965927848732e-03,-2.607283107987028777e-03,3.572577238082885742e-01
3.248061876595161879e-01,3.288245243953897279e-01,-3.232043662501674075e-02,-2.022056814036228231e-04,1.100232536200316169e-03,-1.265905747698789713e-03,3.591645658016204834e-01
3.273111109566458898e-01,3.243285477693309549e-01,-3.360007216946575559e-02,-4.351204436581767058e-04,3.496321826131256329e-04,-9.523008018996135518e-04,3.594342768192291260e-01
3.015156992700747107e-01,3.283910675587212724e-01,-2.712190614286241752e-02,-7.078070067783591782e-03,3.920704293591382008e-04,7.036072701367436337e-03,3.433023393154144287e-01
3.272466778077357530e-01,3.221442614449360198e-01,-3.545820562266965847e-02,-5.536690354152810738e-04,1.468473870608324886e-03,1.003454184294013865e-04,3.601910769939422607e-01
3.287729895244393408e-01,3.181624644158508874e-01,-3.157918615529775597e-02,3.520273143315939390e-04,4.734389296958839768e-03,-2.637136546530768118e-03,3.552903532981872559e-01
2.952228517750513093e-01,2.991362780502184737e-01,-1.291361553414172025e-02,-6.487672101437235231e-03,1.845137334536826141e-03,2.794462602085064258e-03,3.103694319725036621e-01
3.082387439438862287e-01,3.077896608656780497e-01,-1.925042994405706809e-02,5.195605488652233102e-04,3.530387278974894249e-03,-2.361824003366621433e-03,3.273487985134124756e-01
3.253635809384809452e-01,3.268016098962030491e-01,7.423468780219572016e-03,-2.107231710738198538e-03,3.628257670438327434e-03,-3.544591099411728129e-03,3.188035488128662109e-01
3.072690496826465667e-01,3.078369215351137722e-01,-1.942012236863102648e-02,2.580251365545221306e-06,2.712153519993626850e-03,-3.172728062749802843e-03,3.270533978939056396e-01
3.046273509021980574e-01,3.048002549007415851e-01,-1.974636242334476544e-02,3.438674902054524030e-03,3.118784442724131974e-03,-3.508721193346699130e-03,3.246167004108428955e-01
3.284188936396312264e-01,3.285452214371341606e-01,-2.801133673634392807e-02,-1.403263505838492050e-03,1.979783776388608068e-03,-1.555048592873744737e-03,3.565283715724945068e-01
2.942898077086396613e-01,3.046602973816872062e-01,-1.511254572140163788e-02,3.627101162900760352e-03,3.128068661490018484e-03,-3.833794420245391181e-03,3.148951232433319092e-01
3.769420504384793924e-01,3.762121658297036819e-01,4.588245295354792530e-02,-2.176273869776652881e-02,-1.985651741508610846e-02,-1.630256255727227307e-02,3.357981145381927490e-01
3.654670623560372089e-01,3.073036568903638743e-01,-6.908137979099587822e-03,-2.789942520166967949e-02,3.417682838143472172e-03,-9.946113876620657490e-03,3.507913947105407715e-01
3.727825088041514245e-01,3.161941538743711089e-01,-2.008169490215372388e-03,1.588414542874612423e-02,5.266044942093667074e-03,-1.933543935035742303e-02,3.527367115020751953e-01
3.222718836881846016e-01,3.227091625322461299e-01,-3.530569010558531895e-02,9.363920132636313523e-05,5.641043123939300111e-04,-6.751710321505060165e-04,3.577997088432312012e-01
3.264883116282926157e-01,3.287178709329516280e-01,-1.645940651925778542e-02,-3.016934209256395393e-03,3.667272340497788018e-03,-2.611488707384010226e-03,3.441959321498870850e-01
3.499074515687622400e-01,2.882946202700934490e-01,-2.928574821178869803e-02,-1.897049336998665129e-03,-3.373803551070568498e-04,1.819382175552599181e-04,3.524651527404785156e-01
3.264910635540230199e-01,3.247176470558453820e-01,2.036566410940665595e-02,1.673640711290822359e-03,-4.516704731881503176e-03,-1.625360052532233077e-03,3.053695261478424072e-01
3.781721377193959510e-01,3.311224533795792402e-01,1.181059722880073437e-04,6.326917516049623000e-04,-1.128469648939119108e-02,-2.794457970991715175e-03,3.574323058128356934e-01
3.742511467555658666e-01,3.239927585085038975e-01,2.082143921016851862e-02,-1.226691516993164491e-02,1.029289226139148972e-02,-2.088264359412350408e-03,3.323522210121154785e-01
3.294346321889526363e-01,3.288796818127783794e-01,-7.790939813729774732e-03,2.651886381072836481e-03,4.337404452214980305e-03,1.701243203969047884e-03,3.370763659477233887e-01
3.185761568253963061e-01,3.173585659945460380e-01,-3.200509500019649289e-02,-1.325696003360529642e-03,-2.811840820576816478e-03,-5.907253266864539911e-04,3.500169515609741211e-01
3.269293249730575446e-01,3.263667506018113063e-01,2.041753138524643463e-03,2.231462281807091580e-03,-2.495606086232457412e-03,-3.295616874565758265e-03,3.247086107730865479e-01
3.614769487716015806e-01,3.464523619822271194e-01,4.639141270544122619e-02,9.676146249583402609e-03,-2.103476949466911647e-02,-1.663874541987546418e-02,3.117842376232147217e-01
3.693976559237768242e-01,3.754365117694974385e-01,4.776585501117278088e-02,-9.088820329946602217e-03,-2.350065707349278596e-02,-1.949643433537959214e-02,3.293490111827850342e-01
3.820450586921882996e-01,4.249203121052154142e-01,4.900177837630539934e-02,-6.721105342693213872e-03,-4.099416243351441946e-02,-7.458446550178193801e-02,3.858769834041595459e-01
3.283255450327435820e-01,3.246646589928808280e-01,-3.363832929397519989e-02,4.066499279071501263e-04,-8.765013888232953002e-04,-1.082820936821637372e-03,3.601561486721038818e-01
3.796185084411263788e-01,3.422403195957169353e-01,2.735599873737276644e-02,-2.691918091259582618e-02,8.082569681596867006e-03,-2.638783259350217531e-03,3.386884629726409912e-01
3.264729517042346818e-01,3.275687089586880596e-01,-1.051873549359855220e-02,-7.381117843796891924e-04,4.067418794969454576e-03,-3.949489570952458852e-04,3.376175165176391602e-01
3.227287617951597465e-01,3.220015901625181143e-01,5.672085606567328631e-02,-5.306422736667711082e-04,-2.408560552692114859e-03,1.282697947895504887e-03,2.656886875629425049e-01
3.814168542072041701e-01,2.749634558647583993e-01,4.369297347806047616e-02,-1.175220113402395891e-02,-5.904048614314352274e-03,-2.745608850817037733e-02,3.036746978759765625e-01
3.545813743365816006e-01,3.837726692841515463e-01,5.635585726002190210e-02,-1.320945255097148024e-02,3.548855963430415806e-03,2.371324550025806499e-02,3.174025714397430420e-01
3.272112967331399225e-01,3.269982910389374053e-01,-1.078587444618281377e-02,-1.451613741739831917e-03,1.485741451844398760e-03,-1.337317529189893271e-03,3.379178047180175781e-01
3.452101989153246731e-01,2.364514950053341613e-01,-8.081418718502153542e-03,-9.094544213255249809e-03,2.792696481600426533e-03,-1.419863538955622206e-04,3.138335049152374268e-01
2.522606826277845604e-01,3.588917144428395156e-01,-1.930599611544528416e-02,3.934887119609781908e-03,-4.325004295925353689e-04,4.484178600385298023e-03,3.379103541374206543e-01
3.377149640525336505e-01,3.350855186472524450e-01,1.002548263705532738e-02,-3.759110934672691209e-03,7.181616010567823567e-03,-4.301001561842628346e-04,3.266853988170623779e-01
3.091745042462772375e-01,3.351773579506476253e-01,-2.366010256947137513e-02,1.659169489950591651e-03,1.298782266050138795e-04,-2.036433591073397945e-03,3.465983569622039795e-01
3.581804486716126945e-01,3.592345886253396348e-01,6.756528190589411453e-02,3.638239632825920715e-03,-5.063427858644085205e-03,-1.528822366269865993e-02,2.925447821617126465e-01
3.295671492783083245e-01,3.173272768775550201e-01,-9.826834894246155860e-03,3.547849101759008826e-03,-4.346938700401150983e-03,2.334255518944791576e-03,3.336086869239807129e-01
3.211717624973770557e-01,3.271123817870634776e-01,3.989903728383958903e-02,-2.733175773125996830e-03,3.399522683796586068e-03,1.520733130387703913e-02,2.856071591377258301e-01
3.267427954358348430e-01,3.219510522649524087e-01,-3.430030867996983202e-02,-2.775967474507796181e-04,-1.337687286946481497e-03,-1.658863045433247663e-04,3.586791455745697021e-01
3.270409513460084128e-01,3.235927474652058877e-01,3.103363117260757309e-02,-5.792772870039984787e-04,-3.809870455780171340e-03,7.410459332794338411e-04,2.943768501281738281e-01
3.626224718095221178e-01,3.392247065742142742e-01,5.394364897468961750e-02,-2.173071139551353056e-03,1.696859249325928520e-02,1.139682155224401409e-02,2.997921109199523926e-01
3.249426104406263338e-01,3.283289298512070964e-01,-3.223378186542311119e-02,5.135225109505964832e-04,-8.996249628017762576e-04,-1.300839360763685233e-03,3.588930964469909668e-01
2.070399120774354118e-01,3.781282193130437452e-01,-1.500151491981274732e-02,2.019858915245268186e-02,-3.378244352361046282e-02,1.662781082454271170e-03,3.481641709804534912e-01
3.392540017087226079e-01,2.884638385427361618e-01,-2.867698969856888325e-02,-9.888853056200695105e-04,9.746444968749398349e-04,9.102561527025387856e-04,3.453604578971862793e-01
2.295093848212680920e-01,3.649927890970825484e-01,-8.056569437857513671e-03,8.651918297936938770e-03,5.825396725187051948e-04,2.379469865998163746e-03,3.274479210376739502e-01
2.306298363162484488e-01,3.595425422872059462e-01,-1.296523476502711714e-02,4.300439724133778632e-04,-1.197163034337444566e-02,-3.225803074458183069e-04,3.283144533634185791e-01
3.250872348285488433e-01,3.262269221708851141e-01,-3.230949269623561992e-02,7.382422070315511472e-04,-1.940415172123253606e-03,-2.084944515072476023e-03,3.580042123794555664e-01
3.274749631529123572e-01,3.274144502178164551e-01,-2.441473972916871626e-02,1.893347037759912904e-03,-2.522154629072030554e-03,-1.312498459689741617e-03,3.519091904163360596e-01
2.310870974028845226e-01,3.679535437229345396e-01,-1.231599777161188070e-02,-8.631634569222288236e-03,9.002748665015653309e-03,3.444723540479103108e-03,3.343552947044372559e-01
1.847249200418193960e-01,3.719836647305572175e-01,-1.248775296355825182e-02,2.556292414671208421e-02,9.600695794657432974e-03,-3.972554983005940205e-03,3.364115357398986816e-01
1.366582196332899735e-01,4.629949040536421312e-01,-2.901036613860669133e-02,9.084167201772973960e-03,8.825177283108203569e-03,-5.792502542892031397e-03,4.342664182186126709e-01
2.149176051540487853e-01,3.627559013187015013e-01,-7.273609724213758732e-03,-3.200824683688734324e-04,1.591489931403596361e-03,3.712642558312752739e-04,3.226170837879180908e-01
2.021539528002805897e-01,3.751874210470737547e-01,-6.809888786429296736e-03,4.177250016296872245e-03,5.151926624298508103e-04,-1.932484957800036270e-03,3.314039111137390137e-01
3.181482487329654329e-01,3.146064006356979470e-01,-2.625069867376883526e-02,-1.720749004411937112e-03,5.728743540456116175e-03,-3.802408021084036278e-04,3.427989780902862549e-01
3.214953263891611179e-01,3.221696322902878329e-01,-3.424969041330505615e-02,1.226621417556254985e-03,2.150878458959358096e-03,-1.445400752765735276e-03,3.561172783374786377e-01
3.244751127149281267e-01,3.304012618462395245e-01,-3.139117254847947902e-02,1.419674019423402286e-04,1.034672717681121715e-03,5.944090974146856460e-04,3.588720858097076416e-01
2.856432212056067010e-01,3.113337739457677777e-01,-9.153818752539094605e-03,-2.169444345467113830e-02,2.558368529558836119e-03,2.004866924646481890e-03,3.107771575450897217e-01
3.181155764934691654e-01,3.238771181571630797e-01,-3.058066413427895647e-02,1.839834880734798721e-03,2.689825960826815535e-03,-5.567221338877890828e-03,3.517898917198181152e-01
3.065300069594224519e-01,3.231521556869069167e-01,-2.861538795142284930e-02,8.847658597293540580e-03,1.279365443103904799e-02,-1.286639711902897928e-02,3.455315828323364258e-01
3.232964545665575895e-01,3.238911850497305789e-01,-3.478851588543632745e-02,-9.109346254863174338e-04,-3.877288849970758011e-07,-1.189427310353200016e-03,3.583920896053314209e-01
3.233010769378039106e-01,3.242557496964031394e-01,-3.519628827771470458e-02,-3.957012630016142323e-04,5.527493226236636272e-04,-1.184742757915913103e-03,3.589834570884704590e-01
3.283922024801431694e-01,3.265489849467768657e-01,-2.567752764268749210e-02,-1.168946392056290778e-03,2.539340721498632714e-03,-4.131909545755068215e-04,3.531856536865234375e-01
3.524778994617236427e-01,3.275551443437008658e-01,6.549957428177613505e-02,8.737691192201808843e-03,1.373132787973570246e-02,-9.189181837550386509e-04,2.768079340457916260e-01
3.254086959722873873e-01,3.228163224625779648e-01,-3.439741468131818358e-02,-7.268223787437791926e-04,2.857831356508264663e-04,-3.067882209072127198e-04,3.585199117660522461e-01
3.225445122162651779e-01,3.248239859441749422e-01,-3.522054303008256837e-02,-2.720840589600603235e-04,5.197522798624855693e-04,-1.098268876686938440e-03,3.589166998863220215e-01
3.228052869810882908e-01,3.248145399999491922e-01,-3.519224523307401542e-02,-3.618226262136823418e-04,4.311029675040853586e-04,-1.046145507490189690e-03,3.590122759342193604e-01
3.182349871954646137e-01,3.220396114600164728e-01,5.700784114897994304e-02,1.874730938209749815e-05,-3.451697432237714686e-04,3.028028086047957704e-03,2.632030248641967773e-01
3.083451298636103455e-01,2.920365476716788034e-01,-6.880415061437550328e-03,-2.364467524891005618e-02,-2.270931864228252234e-03,-1.507923075070164050e-03,3.101479411125183105e-01
2.899953374512610482e-01,3.102143653859783523e-01,-8.815474200049577824e-03,-2.081676398461040911e-02,-3.727167124065536470e-03,3.645781479425892280e-04,3.115773797035217285e-01
3.270646341200648122e-01,3.257317299806980482e-01,1.042157260155496257e-03,-9.234395743895151918e-04,4.256088902147937836e-03,-6.767438952646744011e-04,3.254476189613342285e-01
3.236733417967964654e-01,3.326000306532377326e-01,-3.243928403843870933e-02,5.901819073596662228e-05,1.412823749363409116e-03,2.528669230550844790e-03,3.606937527656555176e-01
2.832738151712801411e-01,3.268751704027759719e-01,-2.343907256718189003e-02,-2.280759897969035499e-02,-1.601075183879177577e-02,-1.814886249969322254e-02,3.356556296348571777e-01
2.575899966866170843e-01,3.350131248940182438e-01,-1.491775875016235209e-02,-2.483859743969814987e-02,-1.163097085605748274e-02,-9.074589968750860006e-03,3.222684860229492188e-01
3.304804342929770211e-01,3.274384992521166549e-01,-2.084168181640114192e-02,5.438039013032373772e-04,1.357438975214516437e-03,8.589612931419521313e-03,3.501364588737487793e-01
3.442271286739376768e-01,2.422514292034025907e-01,-9.396713758810820716e-03,7.584190244429049252e-03,-3.075988934527034303e-03,-1.333971236769914423e-04,3.155769705772399902e-01
3.209735466552704475e-01,3.230349713489715779e-01,5.723251752834915274e-02,1.920740468757077199e-03,-2.610457184722928415e-04,3.056016233197878483e-03,2.648519575595855713e-01
2.733787528745927897e-01,2.819897391023777899e-01,-1.851856759934264463e-02,-7.146498967035980199e-02,-6.145487218441120052e-03,-9.798942496898270516e-03,3.217371702194213867e-01
3.228019178985140347e-01,3.277775810130820755e-01,-3.406424198617591381e-02,1.264146226039674888e-03,2.103488155322126563e-04,-1.018509331151713597e-03,3.593910038471221924e-01
2.708038735182123902e-01,3.098178511255702539e-01,-9.806261461108412014e-03,-1.266001366024980222e-02,-1.110272943284477693e-03,-1.489080114870168980e-03,3.028250932693481445e-01
2.707726067760584665e-01,3.054908951248233584e-01,-1.013979247023344410e-02,-3.530661307701640772e-02,2.361018469354850768e-04,1.643773935667851641e-03,3.059704005718231201e-01
3.902802403190482883e-01,2.177690494487533601e-01,-2.101230781498605871e-02,-3.213982496350957507e-02,-1.010937901582295573e-02,-2.249825393507557877e-02,3.645450770854949951e-01
3.241346109453215885e-01,3.299565916202989446e-01,-2.834276959028150800e-02,7.497164554653957484e-04,8.179361379072707912e-04,-4.986141728874302634e-04,3.554303944110870361e-01
3.266003653946471519e-01,3.247366009715153545e-01,-3.417526482127225540e-02,1.203043120658669899e-03,-1.760569683690072244e-03,-5.941743953440151681e-04,3.598677814006805420e-01
3.662205083851969301e-01,2.079097236769017754e-01,-1.821130948291163620e-02,-1.545014754838601803e-02,9.483564183930368215e-04,-8.967508568115470369e-03,3.360810875892639160e-01
3.238192647555463433e-01,3.252015380688544344e-01,2.069645236616685091e-02,2.135645429984294949e-03,1.735192913184994187e-03,3.018668672790237976e-03,3.038986623287200928e-01
4.196395086615221093e-01,1.122169209528185441e-01,-1.025591463288624827e-01,-1.191827548296132966e-01,-5.576569670445516783e-03,-1.764929057708375382e-02,5.003057122230529785e-01
3.653747060838929972e-01,2.345386104369352465e-01,-1.531289057418219746e-02,-9.360136991962576120e-03,-7.406869680863663362e-04,-1.576979267546989305e-02,3.365174531936645508e-01
3.304830567027794430e-01,3.255304346624209311e-01,-1.246713516713340852e-02,1.837689568793447010e-04,-1.916834418584875709e-04,-3.296492145499327689e-03,3.405490815639495850e-01
3.642871968832850360e-01,2.122920672215691806e-01,-9.278230245295893130e-03,3.331646550402586095e-03,1.819888554739338207e-03,-5.571034387486914399e-04,3.254499733448028564e-01
3.283353317091463053e-01,3.252820208198407004e-01,-2.677187462949620622e-03,9.610121413966927692e-04,-3.138504276356539942e-03,-1.983225942198409489e-03,3.295634090900421143e-01
3.246215687679794848e-01,3.237087749246154167e-01,-3.513533491436582334e-02,1.569410401825592147e-03,-1.679664710219226729e-03,7.997743358074603319e-07,3.593234419822692871e-01
3.537407407482469623e-01,2.316667239756394214e-01,-2.068196280409448362e-02,-2.265615350323977456e-02,-7.184161624529127738e-03,-1.392372748857954000e-02,3.341608941555023193e-01
3.566382893032264967e-01,2.309342449202116121e-01,-1.766913340969411550e-02,7.091521004733418454e-03,-6.396591520507727280e-03,3.504415341885961906e-04,3.303476572036743164e-01
3.435249171022001224e-01,2.687578378173822169e-01,-2.047790354672393565e-02,-8.285078252450008354e-03,-3.390952567362164223e-03,-1.394538731100737790e-02,3.342103958129882812e-01
3.559707723341692942e-01,2.166494538778168943e-01,-1.024707736846841577e-02,-1.230931893581101687e-02,-2.539276972655617106e-03,-7.661387316230883031e-03,3.211759328842163086e-01
2.929290068863575902e-01,2.747270042294097658e-01,-6.077817331964274761e-03,-1.110245192094508060e-01,4.720333505008831448e-02,5.335866321320797967e-02,3.694578707218170166e-01
3.255364209963332867e-01,3.300757459064724286e-01,-3.262304683270106365e-02,4.482704704092474327e-04,-6.392812771342556554e-04,-7.953662001759736035e-04,3.604557514190673828e-01
3.123672568085477108e-01,3.380452405311529795e-01,-3.143978490976578888e-02,2.838688551418098484e-04,2.089744099718138411e-03,2.680736432252822481e-03,3.573874831199645996e-01
3.248813248965408684e-01,3.295055615819120209e-01,-3.108076448506419398e-02,-4.489349712286404889e-04,-2.672388390148738987e-04,5.120984697104243120e-05,3.582977354526519775e-01
3.679732337295200106e-01,2.167362056878026633e-01,-9.478631105972384896e-03,-1.429001098471767428e-02,-4.286581922929740690e-03,-7.363019045688518234e-03,3.302850723266601562e-01
3.557836430866213595e-01,3.210267862466666400e-01,2.221495196529482685e-02,5.666934235337885151e-02,-9.351330554027295974e-03,1.521191353575289743e-02,3.338758945465087891e-01
3.900467911603612281e-01,1.903656175703981601e-01,1.146476330232396035e-02,7.111558427868107379e-02,-3.681489270554749033e-02,6.861171726571047014e-02,3.754493594169616699e-01
3.583220959356862023e-01,2.645327268760633843e-01,-2.191638756458214043e-02,-4.724398295717975593e-03,-5.245928775886607096e-03,-1.112911702484936302e-02,3.438553810119628906e-01
3.271480225803706787e-01,3.280073551936494303e-01,-2.417423442786867382e-02,1.305559696180837398e-04,-2.979014746213801135e-03,3.893807555834735441e-04,3.517912626266479492e-01
3.337860890801285230e-01,3.024568242626702874e-01,-2.989800501950518052e-02,2.471655763624514002e-03,-5.273364995665476285e-03,4.773071675913712411e-03,3.493190407752990723e-01
3.404133257940291646e-01,2.846378232426648447e-01,-2.431005155193916023e-02,5.489625023710040588e-03,-4.142672547826496861e-03,1.549843087650528903e-02,3.415463566780090332e-01
3.022609271935996489e-01,3.020018952884064301e-01,-1.219163177737300763e-02,1.698389007396857966e-06,-2.391783427514372617e-03,-2.721053398568203802e-03,3.143857419490814209e-01
3.788807532961912528e-01,2.558353946856214423e-01,4.968391139240277421e-02,-4.980767470569530918e-03,1.451771283820308713e-02,5.294913903910727915e-02,3.035162687301635742e-01
3.770109575830102866e-01,3.285430776030885403e-01,-5.973388352014330493e-03,-3.262524878115015750e-03,1.385221018606051660e-03,1.062847176816784922e-02,3.617185056209564209e-01
3.226364636879541226e-01,3.268114674990135748e-01,-3.481427584129578867e-02,5.748937628348515334e-04,-1.264202779454587486e-04,1.618230506954242707e-03,3.595688045024871826e-01
3.240920097192931393e-01,3.217286362908355346e-01,-3.495106392526925454e-02,2.659801054376377582e-04,1.520137852438886153e-03,1.877758581883856679e-04,3.578773736953735352e-01
3.696947681994983137e-01,2.931502939932544849e-01,2.618053606250814180e-02,3.762270807401939254e-02,-2.117332001146638928e-02,1.434130993404285175e-02,3.221417665481567383e-01
3.239740052794655156e-01,3.315773893624623381e-01,-2.896189079972874558e-02,2.464186901545950244e-04,-8.961701438423310111e-04,9.827525249691124100e-05,3.568020164966583252e-01
3.422371952549089213e-01,3.278969789822986369e-01,-1.455759514509646912e-02,2.513183668960283432e-03,3.368930110496247583e-03,-4.375880159584698281e-03,3.500029742717742920e-01
2.860434912936083984e-01,3.059445422537417913e-01,-1.809639924248884757e-02,-2.868670374837335030e-02,9.405259077156235409e-03,9.552310106156676819e-03,3.193081915378570557e-01
3.336941065207759682e-01,3.192579319951965866e-01,-3.162155661661092410e-02,-5.703525173930879986e-04,4.890767116163649737e-04,3.755359716800176721e-03,3.583771586418151855e-01
3.178900874049135350e-01,3.286053311795905651e-01,-2.792809619314765013e-02,-4.269913790710853745e-03,2.562709291650245007e-03,5.536872111137522770e-03,3.515351116657257080e-01
3.362419748491132232e-01,3.043418742509179098e-01,-2.866621938960836613e-02,-2.868298155041908593e-03,6.604820256920599124e-04,4.623513829789370998e-03,3.501786887645721436e-01
3.267260950207041548e-01,3.169657740184057548e-01,-3.003879465100636748e-02,-8.960105945037882477e-04,4.443150838228720687e-03,4.654852454470616643e-03,3.521660864353179932e-01
3.253243566118955155e-01,3.267855161159880506e-01,-3.278205691062083260e-02,1.470499374259227453e-03,2.149823064276494208e-03,2.132591207810000632e-03,3.588865995407104492e-01
3.622304258667453647e-01,3.266773708914016972e-01,4.414208183550752396e-02,1.274113322483503424e-02,7.161506440600080500e-04,-8.588618038457855944e-03,3.030594587326049805e-01
3.267640293043783117e-01,3.273569594737386068e-01,-6.275125786743690481e-03,1.772087760015734689e-03,-6.025658823314245481e-03,-4.725369900285342683e-04,3.335144817829132080e-01
3.250626870526028278e-01,3.267932908995301866e-01,2.087268030609104597e-02,3.603317727082681367e-03,2.077263430595414125e-03,3.452912469441790817e-03,3.052026331424713135e-01
3.234703941182331954e-01,3.243330926059451724e-01,-2.935224311085390947e-02,-1.792232632109020502e-04,-1.057434852752505003e-03,-1.175333072176056558e-03,3.532655239105224609e-01
3.166951217106262484e-01,3.285606474141728461e-01,-2.990359316597973605e-02,-4.359260377228748456e-04,3.328549799523363405e-03,4.605319100152567742e-03,3.528193235397338867e-01
3.611264720272705508e-01,3.601870963834574169e-01,5.367039004396614854e-02,-1.763196973984602466e-04,-5.190895017233117942e-02,-1.038453425014684091e-04,3.198828697204589844e-01
3.273452733924129832e-01,3.199765039704271508e-01,4.921600167204831511e-02,-5.537097690174222833e-03,1.377797120416159732e-03,7.111728098393563582e-03,2.749729454517364502e-01
3.588934997602322707e-01,2.373743501065625761e-01,-1.953268090097573517e-02,2.353183539547271455e-03,-1.656824854323461901e-03,1.204058151898556109e-04,3.346821367740631104e-01
9.712484122816850141e-02,4.037750723725125335e-01,-1.737731276715603901e-02,-3.854721496542799775e-02,-1.492529005859397767e-02,-4.909918195575824727e-03,3.839993476867675781e-01
1.627625961640808416e-01,3.944244497994823240e-01,-8.510358518251409654e-03,-4.874218073538948842e-02,-5.844378079963605949e-02,-2.005237403187652007e-02,3.758454024791717529e-01
3.283135836211841241e-01,3.271568453745861138e-01,-3.348805730500281630e-03,-1.250802779493903800e-04,-3.424575647163686804e-03,1.304762002768900995e-04,3.311388194561004639e-01
1.976139672903628464e-01,3.657498692765384640e-01,-4.150981235306389072e-02,-6.438268798599150466e-02,-3.876530585627306624e-02,1.143858875503001894e-02,3.781419396400451660e-01
1.853705051019943206e-01,3.609728921880420160e-01,-1.666500187746386419e-02,-1.459421750506413595e-02,-1.629351361052360295e-02,-1.752657130184837649e-03,3.295103609561920166e-01
8.649374163173972896e-02,4.038714208059090427e-01,-5.888414471374239789e-02,-6.140927420786476687e-02,1.646464138020396067e-02,8.584320513797816243e-03,4.246771037578582764e-01
2.306647610244269009e-01,3.453774697126805737e-01,-9.064993496259277084e-03,-6.578028893044762793e-03,2.548121431842740746e-05,-2.390515087118831854e-03,3.134906291961669922e-01
1.873124445989915732e-01,3.751002576960984491e-01,-1.657418272685920457e-02,-8.649324318912805787e-03,-1.793608161562539050e-02,-5.375754208615237013e-03,3.411710560321807861e-01
3.435454040171759260e-01,2.668640258049683744e-01,-1.789532183513603547e-02,3.265694476819668360e-03,-4.266575609311414573e-03,-2.481179751970479072e-04,3.299855291843414307e-01
2.922625345706755251e-01,3.843399649029062837e-01,-5.763381683404905642e-02,3.444544529558063450e-02,-3.321811087731767892e-02,2.303928141018714293e-03,4.123214483261108398e-01
1.893931352373975918e-01,3.789828187760519995e-01,-2.321940117316542707e-02,-1.170037753673148530e-02,-1.225936568091297654e-02,-1.816178393580690151e-02,3.511532545089721680e-01
1.948517700004823994e-01,4.134876234848779974e-01,-1.737093854145899119e-02,4.889764604441682906e-03,-6.737670081432550230e-03,-1.745723030613492179e-04,3.734268546104431152e-01
3.272288554057035670e-01,3.292424983169111030e-01,5.125637959851375713e-02,-2.452252136570248417e-03,3.560984775433399026e-03,-4.202713172440248994e-03,2.771815955638885498e-01
1.601992113644102322e-01,4.185560998188009307e-01,-1.558732162189541137e-02,-4.079015569822106585e-02,2.690212337415466646e-03,-6.458222724604452403e-03,3.849716782569885254e-01
1.932712243637267902e-01,3.979819077566161267e-01,-1.567618687494928831e-02,4.423625878602882588e-02,-3.209305779075190615e-03,4.490020089392097189e-04,3.663895428180694580e-01
3.248822269034546961e-01,3.306748803884027588e-01,-3.202223671400755700e-02,-7.727611425867205982e-04,-5.931713776536649352e-04,1.661691075041751050e-04,3.598398268222808838e-01
1.137018002190019750e-01,5.209461341325255512e-01,-8.040299043172760562e-02,2.467239885752255807e-02,-4.145532922021388442e-03,-4.204764288630544536e-03,5.333886742591857910e-01
2.131185507607199492e-01,3.711820216613433976e-01,-7.162397097843858917e-03,5.264010240861422343e-03,2.397132480396713464e-03,1.174459285926836879e-04,3.292818367481231689e-01
2.146433216971952163e-01,3.605931197344366956e-01,-1.434643817024361390e-02,5.959564850203494940e-03,-1.167138382332297449e-02,-1.738064239208038896e-03,3.281507790088653564e-01
3.287523145729017715e-01,3.283681155595186141e-01,5.422171734181990832e-02,-2.840805071428136150e-04,-3.495758946410847112e-03,-7.036520849967312780e-03,2.746764719486236572e-01
3.257031458020953063e-01,3.283160934663867381e-01,3.957876824941347627e-02,-1.417648852472107963e-03,9.473605189402874854e-03,1.601010434971148443e-03,2.879315614700317383e-01
3.404169789148334124e-01,3.485232660088711243e-01,5.392019038202880421e-02,-1.450889100962948070e-02,-2.611424257891350412e-03,-3.473928014052680285e-03,2.918162643909454346e-01
3.562957788800494296e-01,3.566120353735244830e-01,3.592834193131896892e-02,-2.802651212689460415e-03,8.855549281187509794e-03,9.286099648936821729e-03,3.213319778442382812e-01
3.269491929345296199e-01,3.278627029084547617e-01,-2.419593114348361773e-02,-1.142235692160528454e-03,-2.862147231390039289e-03,-1.986290131840238039e-04,3.516434431076049805e-01
1.962800472443585742e-01,3.733265990442947713e-01,-5.513627218998118362e-03,7.768008974640006059e-02,-3.296993517476302926e-02,2.706457227868228413e-02,3.624281287193298340e-01
2.661653119026322623e-01,4.302527658128289523e-01,2.211609959067983855e-02,-3.463824428440205605e-02,-7.189652724748181456e-02,8.999788481297182549e-03,3.819422423839569092e-01
4.725562162179361425e-01,1.714756450333469739e-01,-7.814502245467114250e-02,1.336864936421426342e-01,-1.710805242383240526e-02,1.536331952966124917e-02,5.322765111923217773e-01
3.225586146329928461e-01,3.225668601933854851e-01,-3.547061295779435630e-02,-6.482978210547838847e-05,3.519269899032598042e-04,3.349882167660581589e-04,3.580343425273895264e-01
3.026447300185455824e-01,2.966254212481909125e-01,-1.099519292408235316e-02,2.831289684384652970e-03,-1.958794040426924642e-04,1.324916704516852339e-04,3.107129633426666260e-01
3.455964733405967326e-01,3.292456288479616577e-01,1.365871213036137788e-02,-3.894183773018037448e-03,-1.408824857088808793e-02,-1.154009359099296417e-03,3.250653743743896484e-01
3.226230859748195345e-01,3.267061074309919322e-01,-3.438100422487391783e-02,5.830882389862990104e-04,-8.945717742066555558e-05,1.458919652713239071e-03,3.590733706951141357e-01
3.273050032509699503e-01,3.257969532834535387e-01,4.633846264772900625e-02,2.670069173936734114e-03,2.908659067912825608e-03,1.267233808063904189e-03,2.803075909614562988e-01
3.260228411751621147e-01,3.280341743747837713e-01,4.344386328441804390e-02,-3.967792559113574166e-04,7.819324453579870604e-03,6.615013299379803599e-04,2.839163541793823242e-01
3.341946467344324434e-01,3.270300079529152582e-01,6.072623350856942714e-02,-2.852918562941988458e-03,-5.053493169265827097e-03,2.776964171632774654e-03,2.701872885227203369e-01
3.229853813338057766e-01,3.222286152655999825e-01,-3.566801422922574738e-02,-4.399173756754451485e-05,-4.897947400570504652e-04,4.256806977966952127e-04,3.582773804664611816e-01
3.220792675591517273e-01,3.223574750090674179e-01,-3.520858705190738069e-02,-2.850266850769512411e-04,-2.221972089960381005e-04,8.175010509105376045e-04,3.574303984642028809e-01
3.238173503160296507e-01,3.287394191481028960e-01,-3.235436973021210694e-02,2.105179910804581703e-04,6.640319837268816774e-04,1.385763542650305042e-03,3.586681485176086426e-01
3.225061317554726026e-01,3.256688361195538839e-01,-3.338086039655821513e-02,-3.583673205939910309e-05,2.836715404534814354e-04,7.141651720346062909e-04,3.574813306331634521e-01
3.221328067941051088e-01,3.256732438435372412e-01,-3.493186617819399320e-02,-1.097664576774637314e-03,1.315199420428530392e-04,1.214547668391606668e-03,3.588592708110809326e-01
3.331420185708839909e-01,3.262859569108835789e-01,-2.383380751093977512e-02,2.303346136415146492e-03,-8.582421537317736762e-04,-4.813303806320941118e-03,3.537215292453765869e-01
3.367580278903636870e-01,2.978082134795506652e-01,-2.932263444850044531e-02,1.341977360679335224e-05,-4.393590686910391584e-03,-6.563468444595751961e-03,3.485118448734283447e-01
2.682083790736336515e-01,3.228188484495452260e-01,-8.497616112843359160e-03,-8.284675654981364309e-03,-9.069080643738326242e-05,2.630244668086472760e-03,3.080361187458038330e-01
3.271708539809479177e-01,3.271628010201250714e-01,-8.044501602988002320e-03,2.573791382280623576e-03,3.236182456087815726e-03,1.934963950961313215e-03,3.353045880794525146e-01
3.302374169485355893e-01,3.178607747037291986e-01,-3.237068940733198175e-02,-5.024019584438449903e-04,-2.934818035730833285e-03,-3.699251274975042924e-03,3.566757738590240479e-01
3.207199249695537602e-01,3.278456047759404912e-01,-3.660916954679474533e-02,-3.866620980846030564e-03,1.088410488796269244e-03,5.542126867668051640e-03,3.611393272876739502e-01
3.285711059570348702e-01,3.238265515053513899e-01,-3.216072862977556457e-02,8.537155846743656792e-04,-3.158780100586191207e-03,-3.088408464172995999e-03,3.584678471088409424e-01
3.419390326222719323e-01,2.739346808004462508e-01,-1.899427220611801803e-02,-3.741786549163485069e-03,-6.235019648415511886e-03,-6.676633745707856102e-04,3.324340283870697021e-01
3.270847545144002777e-01,3.220854464188406818e-01,6.928025795786421637e-02,-3.345321969850392763e-03,6.104239448509146508e-03,-9.944172076157679376e-04,2.556318342685699463e-01
3.141057272505017872e-01,3.072389892755052476e-01,-2.831582721001280056e-02,-2.036349986129156950e-02,7.700814136228719547e-03,7.945798486283853906e-03,3.414083719253540039e-01
3.287296424471267686e-01,3.056044889709000900e-01,-3.120424585489975366e-02,-2.484198005241243599e-03,-6.732002959083442824e-03,-3.322528160557526849e-03,3.492151796817779541e-01
3.289473130658912003e-01,3.246740083636318053e-01,-3.261121544136275086e-02,8.197336033375251293e-04,1.178560339702773877e-03,9.269452418897488818e-04,3.594531118869781494e-01
2.715375236011167148e-01,3.078609080093646089e-01,-1.018125293079852334e-02,1.252423875567989543e-02,-5.251702417652476208e-04,1.113408548044782492e-03,3.023126721382141113e-01
3.266159194408450039e-01,3.251504899931335069e-01,2.086873922519399960e-02,2.340870681236316593e-03,1.458470678164177064e-03,2.976454407724551075e-03,3.050980567932128906e-01
2.926577522963668687e-01,3.093249851377490311e-01,-1.174169324341597931e-02,2.950034023987908698e-03,2.054382470825096355e-03,-4.299176282819082429e-03,3.132164180278778076e-01
2.968530326285976351e-01,3.003684863613625411e-01,-1.197106612113363333e-02,4.704109024411665986e-03,2.358703497103345221e-03,-3.709094629000441162e-03,3.107968568801879883e-01
2.924186065764410869e-01,3.010050759031692724e-01,-9.531180121479188028e-03,6.335504287246045141e-03,2.078542796373684021e-04,8.360663646882048744e-04,3.065333962440490723e-01
3.756717947831076931e-01,3.265973665790414260e-01,3.059171176995056918e-02,-2.531941896884733895e-02,1.157943949801774203e-02,-2.075725958817886685e-02,3.288951516151428223e-01
3.235782911502868009e-01,3.248736431338400954e-01,2.934576922732981541e-02,-1.828122891596375890e-03,-7.756447082103666828e-04,3.296338606209887195e-03,2.949576675891876221e-01
3.000115648374045985e-01,2.987824785011677919e-01,-9.043515914610722461e-03,9.306523493191786595e-03,5.793931893094242435e-04,-9.878807373221746777e-04,3.088696599006652832e-01
3.178056673940315990e-01,2.957901540202175772e-01,-2.427931943391073433e-02,5.302381277271891319e-03,-8.158781112785612813e-03,7.802128189326126145e-03,3.323286175727844238e-01
2.994671956288759707e-01,2.954818588753997388e-01,-1.368436033363751303e-02,6.642441029242999312e-03,2.775383448226635685e-03,-1.716261539331811591e-03,3.114419281482696533e-01
3.002885892125916056e-01,2.912771131952141546e-01,-9.351702554673047008e-03,6.218682591540111715e-03,4.797954062120286236e-04,-6.364430640841202717e-04,3.054274320602416992e-01
2.990586775984384604e-01,3.000925729394197661e-01,-1.187929872824647348e-02,9.656512472830785718e-03,3.008133934944002066e-03,-3.724566845672401798e-03,3.120152056217193604e-01
2.999099314319564891e-01,2.925150562515702046e-01,-1.074904775655985412e-02,6.670622842497317753e-03,1.469401561930219974e-03,-4.037327619654660542e-04,3.072569966316223145e-01
2.925898039336470302e-01,3.399983208515295896e-01,-3.059311938799086361e-02,-6.844329097421853261e-03,-1.515322386510599287e-03,-8.604516788776927008e-03,3.498370051383972168e-01
2.349342610288063793e-01,3.445778158859863494e-01,-8.992350105350821465e-03,-4.458017317277914587e-02,-6.858082219017743765e-03,7.117734843109459111e-05,3.230637311935424805e-01
2.267754803253225204e-01,3.538804727240226766e-01,-1.458561351102646841e-02,-2.594798289231033811e-02,-1.326560659756273637e-02,-1.053870029734265551e-02,3.285880088806152344e-01
3.145074265876947051e-01,3.032354195777651751e-01,-2.878968836302370216e-02,-1.330520101610086631e-02,-8.524183680332308999e-03,-1.002208432003809206e-02,3.393533825874328613e-01
2.875864500278360048e-01,3.116067640029906438e-01,-2.326644972882971341e-02,-2.130777036763773641e-02,-1.974501882290712051e-02,-1.296746331100324251e-02,3.281911313533782959e-01
3.181828998057001923e-01,3.168624905010892778e-01,-2.983215019300930471e-02,2.956581910823540514e-03,-3.307333700411591113e-03,4.075784329111272787e-03,3.475134074687957764e-01
3.277600135771440160e-01,3.266667894943194872e-01,-1.132704091506916977e-02,-2.843199340201716004e-03,-2.480356277382108569e-03,3.236691033854129009e-03,3.386512398719787598e-01
3.050839581286550750e-01,3.496308849895870541e-01,-3.854493813790071943e-02,-5.164202860195184208e-02,-4.540001926629382706e-02,-1.364424489611889592e-02,3.874474763870239258e-01
3.245867432750797477e-01,3.284642839136404646e-01,-2.092772527069453048e-02,-1.586888127637995499e-03,2.742072409070516088e-03,-4.099517340405155240e-04,3.475135266780853271e-01
3.232485212651111106e-01,3.248112905084804547e-01,-3.464793774894242562e-02,-5.069030891672257491e-04,-1.669798664952579659e-03,2.239103771946675953e-03,3.587141036987304688e-01
3.497366156138093096e-01,2.799151086676972544e-01,-3.672032594790297644e-02,-5.841426833931977203e-02,-1.687055836334203779e-02,-9.210368318678394464e-03,3.722714483737945557e-01
3.240745431530449583e-01,3.293246981063679968e-01,-3.306294921025756950e-02,-6.315040132849140389e-04,-1.038188640388844168e-03,1.266876601125841491e-03,3.598041534423828125e-01
3.444430499849320260e-01,3.142257605814718913e-01,-3.070899566402465752e-02,-1.258978767698504817e-03,-1.156907859409764044e-03,3.847312315128316104e-03,3.610668182373046875e-01
3.367926193639809163e-01,3.274331513231015789e-01,-2.593231760858008550e-02,-1.867215061510545170e-04,1.199251768146651241e-04,4.107130483335230849e-03,3.582077920436859131e-01
3.256658644039505113e-01,3.289193061355775161e-01,-2.873907636300321311e-02,-2.006753840568668498e-03,-1.611263800418897760e-03,1.425974298537168285e-03,3.560792803764343262e-01
2.475409497492735422e-01,3.401010565875056124e-01,-1.309978603347911053e-02,4.387922424572284624e-02,-1.655793349107228390e-02,9.617366994710829786e-03,3.278750181198120117e-01
3.232745002088872610e-01,3.220864761865049886e-01,-3.404461983400716707e-02,6.823212284595199127e-05,-1.999558022962946886e-03,2.616126344493448826e-03,3.567722141742706299e-01
3.249339404447933455e-01,3.270566242937726908e-01,-3.088032581455626979e-02,-1.626991018848871189e-03,-2.312035297648686993e-03,2.279604252684360594e-03,3.569357693195343018e-01
3.348921311798579437e-01,2.981678206800822961e-01,-2.842804898314982287e-02,1.281975157936978251e-03,-9.360470586813589983e-04,5.819681002837256631e-03,3.465785682201385498e-01
2.990870881527805114e-01,2.967254380741120023e-01,-1.060788333330442423e-02,2.187438942234300014e-03,-1.777381351452483622e-03,2.265676628920805567e-04,3.085598051548004150e-01
3.341847451072268438e-01,3.237459426640529880e-01,-3.118223974660713771e-02,-1.126297481154383000e-04,-1.006517093057644665e-03,1.595270104358528307e-03,3.602758944034576416e-01
3.254223578642910231e-01,3.245739152625783941e-01,-3.359173270549978274e-02,1.008374293999625675e-03,1.918515878885799619e-03,9.206869816323123151e-04,3.586138188838958740e-01
3.059561084258815566e-01,3.060572773308786187e-01,-1.993287895282078170e-02,-6.750092789272270008e-03,3.938048181012429420e-03,3.847042303938009479e-03,3.262885510921478271e-01
3.226055947954809544e-01,3.221253159921868559e-01,-3.364500578219548066e-02,3.843170861047638627e-05,1.643277701104930901e-03,1.461030163702075431e-03,3.560310900211334229e-01
3.183696226230301463e-01,3.148324044826759094e-01,-3.222415972525008443e-02,-3.913020780694173063e-04,2.077947743553908242e-03,6.509930328394038235e-04,3.488596677780151367e-01
3.343841752900947872e-01,3.150097199223026445e-01,-2.961305616103185323e-02,-3.326235115470184796e-05,-1.141827065916189597e-03,2.783397773601720398e-03,3.547453582286834717e-01
3.398299716243725621e-01,3.245695034717046568e-01,-2.654682751555059728e-02,-4.306523514680972442e-02,3.383251822744531845e-02,2.227933872416341596e-02,3.733103573322296143e-01
2.969802472125528392e-01,2.993242635807148999e-01,-1.034690122700573922e-02,1.109456780675946615e-03,-1.807884181650346945e-04,-4.842640835825380097e-04,3.085131049156188965e-01
3.644589518134687678e-01,2.500784265460952449e-01,-2.321936565764379234e-02,-8.497242292284422696e-03,-9.943332366509724518e-03,-2.682604413951517053e-02,3.488648235797882080e-01
4.135277214795572420e-01,6.895332171532815579e-02,-4.975962770492992071e-02,-1.028720222301694742e-01,-1.079077998708195991e-02,-2.082963402807999978e-02,4.551138579845428467e-01
3.211800054129033688e-01,3.168957601336758745e-01,-3.193987905627618251e-02,2.517559417519386303e-04,2.422073463303554657e-03,3.419187122929789684e-04,3.510232269763946533e-01
4.223334203873774784e-01,8.062161299235061362e-02,-1.817599223732105362e-02,4.561160922744389445e-02,-3.795570211980643822e-03,-7.473912587965043063e-03,4.083384573459625244e-01
3.877553926056616085e-01,2.480738225730607094e-01,-3.480413278749872052e-02,-1.294039169707465395e-02,-8.040638011208422337e-03,-2.204066839909961037e-02,3.757624328136444092e-01
3.266029411598674326e-01,3.266224226362330341e-01,-2.417427270530878025e-02,1.849428968876823572e-03,3.773319373667797898e-03,3.524232221699815162e-03,3.509155511856079102e-01
3.243238248704559679e-01,3.231299819758709502e-01,-3.525471522796511104e-02,3.514945309573566331e-04,1.174841376336978977e-03,4.849685533244069190e-04,3.589903712272644043e-01
4.357942894471771300e-01,1.057240261442916746e-01,-6.772880577466944274e-02,6.716639145306029304e-03,-8.211524502989453900e-04,-3.021777174740124597e-02,4.462741315364837646e-01
3.924575788651864516e-01,2.472471565833439522e-01,-3.740910028632399298e-02,-1.640831674378589317e-02,-3.567433276434036314e-03,-2.048746614310052380e-02,3.815172314643859863e-01
4.132858737070688182e-01,1.257653099783347384e-01,-2.308468440327227089e-02,4.920603852067017420e-02,-4.234023502105492228e-04,5.507839759749065360e-03,3.936712741851806641e-01
3.275763165085857076e-01,3.276706109786405863e-01,-1.585009248685428918e-02,2.625763238058376539e-03,2.382331554243677547e-03,3.369706195231355044e-03,3.435780405998229980e-01
3.269743818057480600e-01,3.237533689243586865e-01,-3.463723088450898491e-02,5.794675819641013264e-04,1.387096835788017993e-03,6.903588375882389666e-04,3.600233197212219238e-01
4.094372233981975473e-01,1.970750763009255224e-01,-2.123535717747104812e-02,3.623036580541342394e-02,9.510272982818767512e-03,-3.296076444434799940e-02,3.828661441802978516e-01
3.305456738807567296e-01,3.241801621488480389e-01,-2.968947612095257371e-02,1.441646229004959513e-04,1.098422663602553544e-04,-1.738747823871653964e-03,3.571077883243560791e-01
3.303424300043674156e-01,3.273530325570005450e-01,-2.665272432590184981e-02,-1.986106139605892345e-04,-6.344604037210351661e-05,1.763826710772585342e-03,3.555231988430023193e-01
3.306520078412373831e-01,3.192356871034492394e-01,-3.213730964330022144e-02,1.945564979330855230e-04,2.558650994129451489e-03,3.019873527658395451e-03,3.572839498519897461e-01
3.305949506644433322e-01,3.146475256936686615e-01,-2.349339272572797954e-02,7.777847015294815387e-04,-6.215215723485023472e-04,2.885381647118017822e-03,3.464304208755493164e-01
3.312634822678300894e-01,3.238559978518559257e-01,-3.092449063745877913e-02,-3.727622326253842940e-04,6.887266225739646771e-04,1.453449211543533012e-03,3.585530221462249756e-01
3.288412942765951419e-01,3.236238303000787964e-01,-3.268441535554528210e-02,2.031756803064219737e-04,1.158680703230612887e-03,7.746538629042848487e-04,3.589537143707275391e-01
3.393978469494089989e-01,2.971959219841940891e-01,-3.088679508676475671e-02,-1.318428891812583595e-03,2.016500061240230398e-03,7.137366852844704602e-03,3.513334989547729492e-01
3.338465551323357428e-01,3.151126339573166457e-01,-3.202519440961182351e-02,3.313505899312496877e-04,2.310247903014351744e-03,-5.777006638885271621e-04,3.568980693817138672e-01
3.278264938470433765e-01,3.280657548176404981e-01,-6.465436400037272158e-03,1.287074075671920800e-03,1.423805665702107580e-03,3.280909537478906256e-03,3.344764113426208496e-01
3.292811850924379780e-01,3.264248074535864852e-01,-2.805004447966261139e-02,2.053062406336192153e-03,1.368692153786443995e-03,5.438866673911349134e-03,3.560619354248046875e-01
2.951561702919730523e-01,3.005361340145836224e-01,-1.228155437855693588e-02,6.113951496061568840e-03,-1.324571682242128541e-03,2.801579943580815267e-03,3.103898465633392334e-01
3.343634228004292996e-01,3.186647263481731107e-01,-3.155822789094284153e-02,-2.172344153135561296e-04,-1.045437494904616609e-03,3.615443308650107511e-03,3.583897948265075684e-01
3.230049005507782400e-01,3.291208701821893845e-01,-3.235006113733754352e-02,-9.160681930119750262e-04,-1.229406552449356605e-03,2.419749328098312093e-03,3.584864139556884766e-01
3.223936043729920820e-01,3.283835940770934991e-01,-3.299208414265294986e-02,-1.195621233411865258e-04,-2.298531627433215117e-03,3.287557080573608528e-03,3.584856092929840088e-01
3.298448860887869261e-01,3.248509925105130813e-01,-3.090408735299401966e-02,-1.325817266368553376e-04,-5.527087242075344985e-04,1.231998056780368375e-03,3.582858443260192871e-01
3.286561155320200656e-01,3.274340099219809619e-01,-2.763650924027472033e-02,-1.189540075969913735e-03,-1.328846563677101369e-03,1.265283009240918003e-03,3.557033240795135498e-01
3.110167723634379988e-01,3.247534418562758596e-01,-3.080753887184681239e-02,7.219867821330676685e-03,-8.149983881234645552e-03,1.005001443492502082e-02,3.498381674289703369e-01
3.243040085241873927e-01,3.257491701758603031e-01,-3.520178211293717441e-02,-7.970692687654342464e-04,-1.085408891323259720e-03,1.078975828475903795e-03,3.602429330348968506e-01
3.165374852381632742e-01,3.256051867355719276e-01,-2.898646998334222791e-02,1.304986823213589477e-03,-2.105835161712989265e-03,4.332028029687591715e-03,3.502525389194488525e-01
3.282169710050606426e-01,3.225009270219411639e-01,-3.417364366432773526e-02,-1.268142621269280693e-03,-1.179859482130603569e-03,-2.831747157552709396e-04,3.595795333385467529e-01
2.968445993434155050e-01,3.017386190665570789e-01,-1.002471959364389931e-02,1.547328682103188760e-03,-3.776440066975617267e-04,1.611284202850568094e-03,3.093702495098114014e-01
3.269941368335073650e-01,3.271412174761881286e-01,-2.492862757400282625e-02,-2.175032766296141045e-03,-2.575203355306254337e-03,2.416308006444677949e-03,3.520696163177490234e-01
3.232134107141089174e-01,3.255681920495719917e-01,-3.394055681528942991e-02,-4.730161346016897514e-04,-1.975686263176538223e-03,3.366370749804847157e-03,3.584018647670745850e-01
3.232803158536603494e-01,3.256636978186929210e-01,-3.458824199545443290e-02,-3.425126992140228930e-04,-5.853203936316517557e-04,4.886427494071227985e-04,3.590691089630126953e-01
1.289800874087340954e-01,3.621802811312481163e-01,-3.046154118914926046e-02,-1.253938237486653673e-01,1.573042196641793317e-02,-7.014006498608383461e-03,4.062592089176177979e-01
2.653193357481995474e-01,3.003666191928427986e-01,-9.827629126541781446e-03,-4.082415361857946734e-02,-4.085462742729471450e-03,-3.127034191293448853e-03,3.027483522891998291e-01
2.329234235872501835e-01,3.413474496858125984e-01,-1.617001428225289805e-02,-9.603010632760505816e-02,-1.847870758331664545e-02,-2.143429513609650117e-02,3.617720901966094971e-01
2.927385613900180816e-01,2.909252103953128832e-01,-1.434289113689773965e-02,-1.862436224252943598e-02,-4.118753253749229265e-03,-3.926215303703282401e-03,3.080311715602874756e-01
3.258064230822526053e-01,3.267581855570288463e-01,-3.084411816148666108e-02,-1.320829892501224978e-03,-2.339712720554067236e-03,2.288588517644892049e-03,3.571797013282775879e-01
2.594028612935202482e-01,3.259782043462898238e-01,-9.188125746997677368e-03,-9.408178042011283715e-02,8.818403121336742135e-04,-1.113288391878908701e-03,3.478722870349884033e-01
3.301899025471949911e-01,2.995882008758913861e-01,-2.571806783018248943e-02,5.410482478653147811e-03,-1.000833335086408031e-02,1.039952558053014800e-02,3.426781594753265381e-01
2.996445186100416547e-01,3.017250643997933524e-01,-1.201568583506476551e-02,8.569327717441726101e-04,-1.180852431095318978e-03,2.425937040907961886e-03,3.127441108226776123e-01
2.903400864073047982e-01,3.202106869768875930e-01,-1.495517976961799334e-02,-5.063718591913732997e-02,8.261174743601414419e-03,6.813617926139252205e-03,3.335464000701904297e-01
3.404910180306175982e-01,3.282450347478431674e-01,2.710387084309026640e-02,1.332601814570310390e-03,-6.230342975560589601e-03,-2.365188807211712242e-03,3.076723814010620117e-01
3.231338997262507839e-01,3.221171304981939043e-01,-3.561271675674756998e-02,2.205108774326745196e-04,-4.007224951299509313e-04,5.446569839985625607e-04,3.582414388656616211e-01
3.244153603702456534e-01,3.227676520203007771e-01,-3.566462996233196736e-02,-1.344281342318992176e-04,-1.908266271429120975e-04,2.769078819951307493e-04,3.592595160007476807e-01
3.231180259627558504e-01,3.245590267026087772e-01,-3.528264263306407633e-02,4.659112542837876621e-04,2.770697851088509914e-04,8.131259060796546022e-04,3.591273128986358643e-01
2.832396340719038896e-01,3.292594054346102417e-01,-1.450838150247613090e-02,-1.565671321237148070e-02,8.245790411739308684e-03,9.046818324988744123e-03,3.250521719455718994e-01
3.274357112697445227e-01,3.295693890759226474e-01,-1.817874122654403179e-02,3.085355220297188606e-03,3.714667286786191638e-03,-2.205641544709291500e-03,3.468081355094909668e-01
3.090908977230704680e-01,3.197423709450322171e-01,-2.455350035707143386e-02,-1.503167505414086799e-03,1.245427827614147692e-03,3.196936120839843822e-03,3.391576707363128662e-01
3.146325409780300619e-01,3.019681235497858607e-01,-2.345401403385702355e-02,-1.403380995842827984e-03,5.936807113160120705e-03,4.230413173946620704e-03,3.321845531463623047e-01
3.197680953471839782e-01,3.228018039679599882e-01,-3.255957306597576095e-02,-3.349010515510210395e-03,2.171742532578851623e-03,4.126605904750654807e-03,3.539939820766448975e-01
3.221874159498848700e-01,3.205381542433415332e-01,-3.528181186549628201e-02,5.089222891482535487e-05,7.335081730949794692e-05,9.131065135142890426e-04,3.566510081291198730e-01
3.221430591968351687e-01,3.229791771289094449e-01,-3.513612692911255442e-02,7.236951403873175502e-04,1.120349847082117317e-04,9.895454876095999275e-04,3.577043414115905762e-01
3.195914032448464726e-01,3.191300328475940029e-01,-3.288229023897154546e-02,-1.834818105883553006e-03,2.344306691155356032e-03,3.442781477227189850e-03,3.523314297199249268e-01
3.227918306740154009e-01,3.220312380880132053e-01,-3.557983943771067525e-02,3.219759847313455716e-04,8.497966844451149441e-04,-3.212707176564608477e-05,3.579954504966735840e-01
3.118863851173034885e-01,3.118522643741238887e-01,-2.794500615785699971e-02,-4.162739556837979742e-03,2.678239168731648238e-03,4.170322439706684869e-03,3.399991989135742188e-01
3.479492756177285928e-01,3.189243764404540160e-01,-3.383141775111692118e-02,-6.264604495173685395e-02,2.708273288105201085e-02,2.082287582053101577e-02,3.883202075958251953e-01
5.956434407921570862e-02,5.314260825038050751e-01,-3.830014774579415526e-02,4.303587419880434972e-02,-2.975030094379438328e-03,1.239428413416466916e-02,5.333414673805236816e-01
3.205244572981164053e-01,3.129081525296588118e-01,-3.104101591261140825e-02,-7.436858162800007166e-03,6.991356063989507923e-03,6.694489561438116999e-03,3.484618663787841797e-01
3.093252742624594265e-01,3.147827358726783542e-01,-2.667890992956109542e-02,-2.816706974357983603e-03,1.687793300377456781e-03,6.708777653467381738e-03,3.390128314495086670e-01
3.242714290040807912e-01,3.245129247321855148e-01,-3.502522827964338337e-02,6.487629035883680758e-04,1.298830615519971747e-03,1.299018139069456563e-03,3.594332933425903320e-01
2.158870519925934761e-01,3.862185751047939597e-01,-2.321166977017663502e-02,8.261586709717014254e-02,-3.608275238273183499e-03,2.733916875532243357e-03,3.839852809906005859e-01
3.229193674086853205e-01,3.146797020787394650e-01,-3.200367738379539251e-02,5.867430346401239158e-04,4.423812401704182995e-03,6.430907149755353980e-04,3.509626686573028564e-01
3.244143733133863505e-01,3.248645178979382986e-01,-3.127422582888925162e-02,-2.136649943265344319e-03,-4.937150379643684937e-03,-5.670337802226911757e-03,3.561712801456451416e-01
3.268736344728096488e-01,3.256643204473261832e-01,-3.354114869001301180e-02,1.322799680879350450e-03,1.930850326797728216e-03,1.877345236722911771e-03,3.598491847515106201e-01
3.182935751877657427e-01,3.198621679851469946e-01,-3.373321563933512346e-02,-2.085825460818184745e-03,-1.669856806029101481e-03,-1.134368200335786336e-03,3.528495132923126221e-01
3.184052037600684226e-01,3.224013253053403805e-01,-3.236708046442543507e-02,5.503692032247315194e-04,-3.302797941429634122e-04,-4.082458081371003432e-03,3.528599143028259277e-01
2.646470209368343984e-01,4.221647308368590146e-01,2.315675854998874850e-02,-4.940978590339720894e-02,5.793287703609632799e-02,3.491588244730609025e-02,3.771184980869293213e-01
3.210511256979187156e-01,3.255182884562762835e-01,5.054174925539989260e-02,-5.534408512380928043e-04,-8.952655655682434030e-04,-9.173698290908855260e-03,2.732388675212860107e-01
3.291556085898698081e-01,3.260988615855624495e-01,1.397241966867496243e-02,-3.553035229100368411e-03,5.236770496100303166e-03,4.831185879178977877e-03,3.139689862728118896e-01
3.285873315425612007e-01,3.249598320368884963e-01,-1.402036895876793143e-02,1.535446636157440517e-03,-1.880492820740332352e-03,-1.595453947134128870e-03,3.408455848693847656e-01
3.204198365148599459e-01,3.222230723398434860e-01,-3.452875491207932357e-02,-1.556308079138721409e-04,-1.295946774860855027e-03,-1.837915794745086659e-03,3.558750450611114502e-01
3.224963902351942191e-01,3.223107682185690215e-01,-3.397118963633433131e-02,1.300835432130927147e-03,-3.047671778858508131e-03,-2.114047113135024761e-03,3.564398288726806641e-01
3.295502778618171758e-01,3.273216227125603783e-01,-2.599602855540344981e-02,8.398858622247638763e-04,7.524711275635883809e-04,1.766410458251705404e-03,3.544558286666870117e-01
3.201303510632749760e-01,3.230103141504885866e-01,-3.449422104631719166e-02,-1.716525368351683081e-04,-1.255790142944643436e-03,-1.745399058066555162e-03,3.560929000377655029e-01
3.284706324528644528e-01,3.279676228866822418e-01,-2.602396259071423912e-02,6.098301200929735506e-04,1.028305042689413393e-03,1.606974785651758006e-03,3.542603552341461182e-01
2.912186954173082709e-01,3.530829750205444761e-01,-8.979738211687682270e-03,-6.718352754562367801e-03,-1.561128871335795698e-02,5.264080641220372780e-03,3.368494212627410889e-01
3.380645838030370554e-01,2.918549037485129727e-01,-2.352726513419664545e-02,-2.778163915638976258e-03,3.858390420717235092e-03,1.648794470296559636e-02,3.421378731727600098e-01
3.298186135911859163e-01,3.163688132015406440e-01,-3.214443515539372465e-02,3.225306193676293043e-04,3.863346497571603852e-03,-4.507281603194317464e-05,3.554925024509429932e-01
3.338115733761717885e-01,3.059546075396005205e-01,-3.115742276288602230e-02,6.175265157820084352e-04,-5.668813937849630398e-03,2.588522501831459419e-03,3.520356416702270508e-01
3.295384771433877980e-01,3.279001796864527973e-01,-2.491260545484316746e-02,2.502599014714802040e-05,-1.046575588262294021e-04,2.492240502394498132e-03,3.536611795425415039e-01
2.971313322268970825e-01,3.365231901954678917e-01,2.037459949006570348e-02,-1.305516180553189381e-02,-9.311758034188198987e-03,-3.526340529595033829e-03,2.997610867023468018e-01
3.295800510877200384e-01,3.298702250267663283e-01,9.897953812652487970e-03,1.389851856930339512e-03,1.021510524138124001e-02,1.816988231859726797e-03,3.203408122062683105e-01
3.284993677052975847e-01,3.262048847939070795e-01,-2.772555861541384226e-02,-1.927161740138425960e-03,-1.278479900737888690e-03,1.586628161500674029e-03,3.551164567470550537e-01
3.288079130057166566e-01,3.304734805978822298e-01,-1.503279629296708220e-02,7.233586988214324789e-04,2.310540296693756185e-03,2.154243130117539703e-03,3.447222113609313965e-01
3.280675591395045276e-01,3.282616070832381494e-01,9.372259560110035581e-03,3.032120510161736334e-03,7.709667072793767451e-03,4.673201956814822776e-03,3.192177712917327881e-01
3.227081315023269115e-01,3.397794072745933258e-01,-2.997566639318660631e-04,1.000927913982958958e-03,-9.178553064466042632e-03,2.135797157585235268e-03,3.322786688804626465e-01
3.446849954776176062e-01,2.897055242744204784e-01,-1.022445340375566225e-02,-4.362504380170617764e-03,-9.271983773390278169e-03,-3.136789737384165083e-03,3.313838243484497070e-01
1.385261195049430349e-01,4.777206672815342281e-01,-1.430795800132358964e-02,1.930796918209001095e-02,-1.265580351471263902e-02,-1.021556362801007319e-02,4.383647441864013672e-01
3.127730181736105841e-01,3.386377915142147477e-01,-3.070823804202721385e-02,3.142690162019782206e-03,-4.038826238688330086e-03,3.793585213804444127e-03,3.572872281074523926e-01
3.222682250602542098e-01,3.225713852902233336e-01,-3.518402352093116803e-02,-5.220999489337661359e-04,-2.428135666375168364e-04,8.516121180991718985e-04,3.576083481311798096e-01
3.158731689889627270e-01,3.178816962540258473e-01,-3.146586055684766348e-02,4.572869615151989482e-04,-2.541997136971963986e-03,5.430751105822075216e-04,3.483776152133941650e-01
3.271808672500765569e-01,3.229039141476591768e-01,-3.448172976266375422e-02,-7.139541732063233500e-04,-1.455976303077031672e-03,9.405852334733652825e-04,3.595578670501708984e-01
3.209035197376617354e-01,3.177173355063486193e-01,-3.140696192114636465e-02,1.180396803171246531e-03,-2.823681181452946111e-05,5.122125187373978254e-04,3.507353365421295166e-01
3.230237460237913583e-01,3.230655720959049737e-01,-3.531587438555164327e-02,3.676405037479284319e-04,-1.331824066240012072e-03,1.269985734492831957e-03,3.583752810955047607e-01
3.244563362371238324e-01,3.213084999055367819e-01,-3.550481750682993320e-02,8.405070607537133611e-04,-9.042022326501242095e-04,6.663424267008567206e-04,3.584058284759521484e-01
3.242370170563290688e-01,3.230401943442485213e-01,-3.565886703479423381e-02,-8.405202108404866536e-05,-2.890347518650600365e-04,4.316179920784761438e-04,3.593001365661621094e-01
2.928232392224031089e-01,3.009820899590406329e-01,-1.025043038730935607e-02,6.228527587553193794e-03,-4.195379658970360649e-04,1.699272636312252824e-03,3.074386417865753174e-01
3.229814330259623278e-01,3.220178661075483451e-01,-3.522765451739240383e-02,5.414729636083070617e-04,4.376546353080662369e-08,3.356887644193880336e-04,3.577299714088439941e-01
3.226706293911144607e-01,3.216788608633441848e-01,-3.336593108497498683e-02,-5.854282755641906401e-04,-2.859749386898880526e-03,2.435553117881054767e-03,3.556026816368103027e-01
3.401927135439034577e-01,3.418693055469101960e-01,1.155111818609408370e-02,-1.808484799923227790e-02,-1.469506396748021873e-02,1.417723219603456153e-03,3.319550454616546631e-01
3.218205724798123279e-01,3.244478955581629465e-01,4.608225852350428253e-02,8.139133345078402486e-04,-2.974078156032221656e-03,1.105680632452053780e-02,2.777737379074096680e-01
3.344442357237679131e-01,3.389904836385556619e-01,1.781398188553162676e-02,1.425039770249070812e-03,1.276552692351050518e-02,1.232549241538999840e-03,3.197098672389984131e-01
3.264443737486998898e-01,3.275848560755975081e-01,2.908657635483297144e-02,2.038364095448896157e-03,-3.329203293471894119e-03,-5.400608831216457961e-03,2.981531620025634766e-01
3.232109528345696869e-01,3.282310123000811153e-01,3.795368664494452871e-02,1.629651285007622727e-03,5.581802515806440386e-03,1.714642901046451156e-03,2.879916131496429443e-01
3.313925752621535992e-01,3.238795140060832800e-01,1.507300068316050345e-02,1.521285306939492961e-03,7.038454758084304076e-03,3.030932529111037281e-04,3.128798902034759521e-01
3.269661286378253706e-01,3.014659776065180541e-01,-2.780917746682656788e-02,2.495947464341667209e-03,-6.720591915489869395e-03,-5.811238924952605973e-05,3.429623246192932129e-01
3.230699692843780335e-01,3.242273295074298289e-01,-3.535846021610108969e-02,-1.445037106040592738e-04,-4.337116179276746136e-04,9.611987691000140575e-04,3.590132296085357666e-01
3.293787982708650253e-01,3.220998885972748971e-01,-2.563633211455287886e-02,1.967983231762383562e-04,-5.485277973108728571e-04,2.677893293952930211e-06,3.514336645603179932e-01
3.304790780039508213e-01,3.191449119693176018e-01,-3.344511880915423951e-02,-8.899952712168425831e-04,-3.191236119321992897e-03,-3.909824565274177405e-03,3.585014641284942627e-01
3.350254513669805312e-01,3.153731753165530116e-01,-2.523804589576580937e-02,8.281269779631501241e-04,-2.492417322064847691e-03,-1.030000355223257245e-02,3.513331413269042969e-01
3.293373150485467415e-01,3.255559245538424129e-01,-3.031794869932522007e-02,1.952426497856347455e-03,-6.220734713946023944e-04,-1.749708666385049781e-03,3.578099906444549561e-01
3.259815138529022494e-01,3.252677941084097801e-01,-2.755316662923457116e-02,-7.657888505507581822e-04,-5.066101735246965679e-03,5.136811368158109709e-03,3.534018695354461670e-01
3.290231577789932693e-01,3.228445359155585059e-01,-2.075766484195890049e-02,1.432609905162963515e-03,-7.507220409245383887e-04,2.462120364981288181e-03,3.467703461647033691e-01
3.301213078791224165e-01,3.190543649279261595e-01,-3.089566684667924279e-02,-1.057411252986547147e-03,-1.103215245815766668e-03,-2.196201583380575240e-03,3.556428849697113037e-01
3.226154330674608217e-01,3.220541503957633500e-01,-3.541162181638254913e-02,-5.587112465778817406e-04,-9.449035853443849171e-04,2.038330158156033552e-04,3.577519655227661133e-01
3.205012963647951296e-01,3.276982411647971771e-01,-3.220039204782176867e-02,-4.198304510033831283e-04,-4.059760794899887055e-04,-1.716824921828579006e-03,3.563685119152069092e-01
3.141880804814277672e-01,3.060367998442503623e-01,-2.541758010288766578e-02,1.789334660626488473e-03,-4.300815052052612587e-03,6.796455280493622544e-04,3.357033133506774902e-01
1.440943582365039610e-01,3.957931000353925310e-01,-1.184872697818425968e-02,2.208931936369228771e-02,-6.446961708248084497e-03,3.948119087893259445e-03,3.585476875305175781e-01
3.147712204790389379e-01,3.459910059961023299e-01,-3.146152505162844171e-02,-4.865192111290473319e-03,-3.234134479796053636e-03,3.115468653608491285e-07,3.629924058914184570e-01
3.229772058412120339e-01,3.224350244916708852e-01,-3.580285121630932821e-02,-3.001375654814529125e-04,-5.685387544593240592e-04,4.981951094126449561e-04,3.585120439529418945e-01
1.836911827060576652e-01,3.813792015850973049e-01,-1.621340485322086966e-02,1.257390963596510813e-02,-1.026021507898323970e-02,-2.280912463220676509e-04,3.454727530479431152e-01
3.372815204751565266e-01,3.294723461509215245e-01,2.914617165486466099e-05,1.457120948109009279e-04,-4.545826132093308720e-03,1.987542542770219089e-03,3.335272073745727539e-01
3.238409387526679506e-01,3.297283507518188883e-01,-1.441808953920464820e-02,2.933988250366722800e-04,2.404579010671492340e-03,1.105948821187081703e-03,3.412719964981079102e-01
3.235062635711541956e-01,3.304312869211911141e-01,-3.197344250268271959e-02,-6.583178141434179982e-04,-1.100183310257111472e-03,1.611085336430674066e-03,3.590100407600402832e-01
3.302831721791089636e-01,3.185340958703998249e-01,-3.204762848540590459e-02,8.118334492250433177e-04,-3.047182825999487400e-03,2.699898915626910718e-03,3.566739261150360107e-01
3.237050461909352084e-01,3.302401418487060925e-01,-2.714413401578882890e-02,3.616723869183594421e-04,3.486217334280343103e-04,1.334517598667609643e-04,3.541631102561950684e-01
3.267195063839372082e-01,3.225854389005565759e-01,-3.397318614404978843e-02,-4.722592206499402062e-04,-1.733712474315150191e-03,2.870503138947857720e-04,3.586573898792266846e-01
3.266658291386453916e-01,3.226227162868628429e-01,-3.490532410272878527e-02,-4.570846709568055942e-04,-1.252963176356168334e-03,1.422193353200341785e-04,3.595741391181945801e-01
3.263766106199644801e-01,3.274226689718701122e-01,-1.060648087824492269e-02,-5.496971501431847018e-04,4.193920644488632020e-03,3.323608774957356022e-04,3.375873267650604248e-01
3.185093065150877978e-01,3.325953324692085822e-01,-2.953590317795445896e-02,1.619625587600169881e-03,-3.848928968464460261e-03,-5.128609982279856965e-04,3.553724288940429688e-01
3.241930770139737072e-01,3.301373841069468185e-01,-2.865061809964103423e-02,-1.890602363077680404e-04,4.121997747422232578e-04,-2.723733739578237077e-04,3.558542728424072266e-01
3.314202962794808305e-01,3.193341678491544156e-01,-3.122196729046083918e-02,-1.535288267934174517e-03,1.152408060547334726e-04,-6.564709200954343613e-03,3.569439053535461426e-01
3.290026884361195725e-01,3.231875390528513581e-01,-8.705795768814389435e-03,9.010744975848337685e-04,-7.120833800788651830e-05,3.708641177665577930e-03,3.349040448665618896e-01
3.242456542698622934e-01,3.233493117229198632e-01,-3.538493832830763575e-02,-2.421336238675650377e-04,-1.363291255645046780e-03,7.689072498908823897e-04,3.591937422752380371e-01
3.235780872800197439e-01,3.268778608567181054e-01,-3.405219098498121766e-02,-1.571347708404798971e-04,-8.556763296792400551e-04,1.618293426002452096e-03,3.593056201934814453e-01
3.312296142465597226e-01,3.193503196589497772e-01,-2.609256269800702688e-02,1.984590804170877076e-03,2.396692395335962497e-03,-2.763425190326481481e-03,3.516069948673248291e-01
3.259779447253960960e-01,3.249085432331100809e-01,-3.035559760698960940e-02,-7.838572591594593006e-04,3.891971654184995383e-03,-4.959674728391165813e-03,3.559701442718505859e-01
3.097446762289894906e-01,3.241136063583531790e-01,-3.096110446382824288e-02,7.822475604601834918e-04,3.791753159903910129e-03,-5.574817268843029576e-03,3.483111858367919922e-01
2.682391315022317757e-01,3.288777736937854579e-01,-2.443127601937361559e-02,1.674652310314232381e-02,-1.169447219844890751e-02,1.031263685807758297e-02,3.296222388744354248e-01
3.071032101399420178e-01,3.209805013523422956e-01,-2.613435947889555799e-02,1.287978842714085749e-03,3.264808832087565961e-04,-6.283802307256353831e-03,3.405701816082000732e-01
3.280774167117910256e-01,3.168517498624948692e-01,-9.393785693178946516e-03,2.513654464936481824e-03,-7.157450362078041257e-03,1.668266214430267442e-03,3.322732150554656982e-01
3.007366168707236720e-01,3.133762980089933592e-01,-2.191003495015356184e-02,1.192215261290742109e-02,4.646551979825612640e-03,-7.069186902462109255e-03,3.301210105419158936e-01
3.102853183315857355e-01,3.124383466851998747e-01,-2.531796253497975435e-02,-4.774634000846710328e-04,8.809081893863801842e-04,-3.999103780873963093e-03,3.367606699466705322e-01
3.206492334048672843e-01,3.120984167207462856e-01,-3.055264701128132532e-02,2.110149574835318634e-03,5.234461944116227186e-03,-3.890117967822466494e-03,3.472085297107696533e-01
3.225914068417882197e-01,3.181367789708866023e-01,-2.940750464065108871e-02,2.144528259351371254e-03,3.808120851893842702e-03,-3.161772927487901778e-03,3.499176204204559326e-01
3.220617935082595862e-01,3.231501889499178715e-01,-3.522263466916408792e-02,4.969165931204894875e-04,1.236981970556282377e-04,8.694299158596005203e-04,3.578341305255889893e-01
3.096812232615653304e-01,3.928825159674215195e-01,-2.022940424005365001e-02,2.902848146409103131e-02,3.369120343469290263e-02,-1.028966950438649913e-02,3.866049051284790039e-01
2.808987471001271330e-01,3.401895056916001137e-01,-2.776237039179599297e-02,-7.809195315722715011e-03,8.202921028949067273e-03,4.725684634876444780e-03,3.428405523300170898e-01
2.542110029000833604e-01,3.323337205967822339e-01,-1.064805785258618465e-02,3.990532161298429581e-02,3.481661577835817173e-02,-1.774581403609131955e-02,3.260423839092254639e-01
3.141984906097118890e-01,3.334413282296330161e-01,-1.694974098912571669e-02,7.317570524061869225e-03,-2.070592377443846149e-03,1.387651907042300372e-03,3.414395153522491455e-01
3.338431327825202022e-01,3.367745348207855094e-01,6.346718615486218740e-03,6.153246643683538348e-04,-4.457527693290805164e-03,1.559193304070450627e-03,3.290753066539764404e-01
3.297183461493750078e-01,3.449904878750044146e-01,-3.173499894700465562e-02,4.941585411090265723e-02,2.364277879133838689e-02,-1.489330483119930687e-02,3.821911513805389404e-01
3.305955709556929190e-01,3.240884301257807021e-01,-3.091020427934842996e-02,1.610642146618085531e-04,-8.905138768335369879e-04,1.944348909814641851e-03,3.583157658576965332e-01
3.381027892424540715e-01,3.267645091060946139e-01,-2.856401367430408400e-02,1.574115681176176292e-03,-2.485946071933142331e-03,2.659703526271149296e-03,3.611965179443359375e-01
3.288868317111759421e-01,3.247612856695479833e-01,-3.208872534881737626e-02,-2.711120023896289701e-04,-1.319475872399155161e-03,1.480813202627453105e-03,3.589473068714141846e-01
3.881625143646292297e-01,2.519695251646890677e-01,-2.346966632134248054e-02,-3.932302459378490128e-02,-8.708893682496459624e-04,2.922572352911904925e-02,3.730037212371826172e-01
3.333370610163179926e-01,3.121948193300817520e-01,-2.944627830062859775e-02,2.067903129790167171e-03,-3.941788260578359127e-03,6.628128162978515724e-03,3.529588282108306885e-01
3.305867514861776657e-01,3.244469584484557800e-01,-3.114282383317107383e-02,-1.198388457557210862e-04,2.887124525273957604e-04,1.749696075049732942e-03,3.587123155593872070e-01
3.252071194199314119e-01,3.311620715820420280e-01,-2.878595347171833407e-02,6.706979386951427129e-04,-5.198980644053515779e-04,-3.088056739395219686e-04,3.570112287998199463e-01
3.430304041574364082e-01,2.982519343510247056e-01,-3.061590450338255720e-02,-7.786149653026838788e-04,-1.629317068635815916e-03,5.135770308106787051e-03,3.535169959068298340e-01
3.304633905273799410e-01,3.251243820860560962e-01,-3.110288811883327176e-02,-1.522003852985944752e-04,-1.261848697700418149e-03,2.293154923569312546e-03,3.589552938938140869e-01
3.329650250035729453e-01,3.251496997956666579e-01,-3.238519209487730754e-02,2.482748878840429691e-04,-2.070968401226855847e-03,2.304158472257490219e-03,3.615460097789764404e-01
3.304300765473033863e-01,3.250482054824513356e-01,-3.179264214145841039e-02,-7.238186416692105648e-05,-5.625950043420261315e-04,1.239189756682660456e-03,3.595697283744812012e-01
3.036389229370481946e-01,3.019992795406379882e-01,-1.678429440640896719e-02,2.594084591973646291e-04,7.289086042577468203e-04,2.318394012085248589e-04,3.196096122264862061e-01
3.388675817407443280e-01,3.062560499667252301e-01,-3.056741543591939836e-02,2.681281818417308952e-03,-2.722760110509938290e-03,4.419578516453374385e-03,3.544013202190399170e-01
3.244108172910135091e-01,3.228693678899181019e-01,-3.365734145772464325e-02,4.510311904628090023e-04,4.027633504343317190e-04,5.736534530306098027e-04,3.573028445243835449e-01
3.384451357114430792e-01,2.802028464771424421e-01,-2.213775092604797212e-02,2.923320985646426541e-03,-8.995636167741920611e-03,9.334663646173628482e-03,3.360666930675506592e-01
3.271919415749817150e-01,3.283464427395019758e-01,-5.668385556203386910e-03,1.880231286012680122e-03,5.570916133537283203e-03,3.151384889573772413e-03,3.336392045021057129e-01
3.473788916453299791e-01,2.913327751096947416e-01,-1.478745521211694003e-02,-6.495389529971877865e-03,7.527522533219551878e-04,-1.959604011267658541e-02,3.395407199859619141e-01
3.307094192264303234e-01,3.241499448811685502e-01,-2.384303123079378750e-02,2.767412325745835164e-03,1.109214843248001233e-03,2.635440463762053352e-04,3.513568937778472900e-01
3.247931195475443067e-01,3.237463687076701513e-01,2.551012129997945466e-02,3.380915104573086263e-03,-2.516558497089364365e-03,-5.506842283622666659e-04,2.988516986370086670e-01
3.277879709886964976e-01,3.303103699279781313e-01,-4.156097086148058395e-03,1.453800783147281284e-03,-3.371662893415966304e-03,8.966653165195249400e-04,3.332767188549041748e-01
3.303925344993547952e-01,3.247957218638248267e-01,-3.102991757444342746e-02,1.364389166487070906e-04,4.897141871928949002e-04,1.111679036609246633e-03,3.586630523204803467e-01
3.243117388824654501e-01,3.287094366599455086e-01,-3.116205034274935337e-02,-3.809193997805136690e-04,1.134382941880386153e-03,7.225542911240152291e-04,3.577011227607727051e-01
3.051302362493732434e-01,3.044513830225675788e-01,-1.247143369471429009e-02,-3.782995850481331995e-02,1.490260869406446857e-02,1.348844226936153808e-02,3.258236944675445557e-01
3.171017206480456485e-01,3.278437805431207441e-01,-1.152597698002083559e-02,2.272093484410616857e-03,7.819584436620075464e-04,3.489481703567128175e-03,3.342088460922241211e-01
3.382253806974022670e-01,3.139596982846614148e-01,-3.145597050108314696e-02,1.625814143553611004e-03,7.820126729315885785e-05,-9.876242029181348664e-04,3.581807315349578857e-01
3.112024503077502890e-01,3.372612594645697515e-01,-1.170260507886830559e-02,6.968524958428501739e-03,-1.486325281291938846e-02,5.432516872355054594e-03,3.380210399627685547e-01
3.496610750319024685e-01,2.267946916531830559e-01,1.412979259495597550e-02,-8.452427757272870656e-02,-1.887203580337629832e-02,-5.819395096303620757e-02,3.451275229454040527e-01
2.198722844675014554e-01,3.515547630606921103e-01,-1.825769750499886546e-02,3.305023972821560102e-02,-9.459705926580198529e-03,6.038691627718646704e-03,3.302401006221771240e-01
3.138304476324976222e-01,3.328460316903494864e-01,-3.166921579876105786e-02,7.723367423567427956e-04,1.478115056455057540e-03,1.228259626756568728e-03,3.554072976112365723e-01
3.229520360911409815e-01,3.286770827838113584e-01,-3.303891788847246325e-02,-1.204076978546348656e-03,-2.111623096986029856e-03,3.039024290517227007e-03,3.589510321617126465e-01
3.179864606265290772e-01,3.281635068691275414e-01,-3.088391414610014429e-02,2.486408930046265110e-03,2.952090711695760580e-03,-4.087161597115346497e-03,3.542024791240692139e-01
3.020374379455619263e-01,3.383846532964341347e-01,-3.085720330304908554e-02,7.581215087641047937e-04,-9.971387016088855901e-03,3.817063193416864002e-03,3.529638350009918213e-01
3.512235748373727651e-01,3.197424245321313085e-01,2.934230201448950748e-03,3.716523589091125061e-03,-6.140936280682605247e-03,1.718343858170000120e-03,3.339092731475830078e-01
3.167693614041072747e-01,3.265812691159362124e-01,-3.185643636805793322e-02,1.818783820479874259e-06,-4.546634845486475238e-04,-4.389399987540070977e-03,3.537164330482482910e-01
3.075485445415350738e-01,2.877750907631506094e-01,-8.816650420129551469e-03,-2.922812407974237619e-03,1.046613494825403366e-03,4.044159348547276297e-04,3.070043921470642090e-01
3.139248587060731732e-01,2.872159629012123183e-01,-1.660276996858414678e-02,-6.628918397519008299e-03,6.043536397056447143e-03,5.685777189715148254e-04,3.183963298797607422e-01
3.277767661637853158e-01,3.278480197590276646e-01,-1.447726713597316528e-02,2.398383679358009543e-03,2.619564193595658175e-03,2.621669890795599693e-03,3.423750400543212891e-01
2.972529466664194375e-01,3.023330394217669248e-01,-1.339624013974508032e-02,-4.360725737334433284e-03,1.750233871727373573e-03,2.355847283885345242e-03,3.133524060249328613e-01
3.027903610198506845e-01,2.711074704525461287e-01,-9.756431583703845112e-03,-1.448590743483826535e-02,8.587995458618621555e-04,2.153918802095041048e-04,2.990297675132751465e-01
2.881820952622069498e-01,2.933924551278807025e-01,-1.302671910510122544e-02,-1.941735104766914924e-02,8.599344710420541923e-03,7.494807569413955255e-03,3.063409328460693359e-01
3.029801924517793732e-01,3.169519691156030272e-01,-2.893255944279526926e-02,-1.355150622956507664e-02,3.595878153612229542e-03,5.293075764421074567e-03,3.401065468788146973e-01
2.543762453039101201e-01,3.126107858108937987e-01,-3.091695342979383643e-02,-1.373127824644085893e-01,1.245110065429082431e-02,8.407660478406856625e-03,3.982950448989868164e-01
3.241697172942969996e-01,3.223565845228418270e-01,-3.486647574961421192e-02,1.461978500006783598e-04,1.084201369656432766e-03,-5.815668206512653623e-05,3.581380844116210938e-01
3.268666964820571286e-01,3.235117726996795673e-01,-3.452954744199837611e-02,2.567639678874600339e-04,1.571268848203823164e-03,5.552648298327570635e-04,3.597423732280731201e-01
3.220988618916968971e-01,3.280615691211009599e-01,-3.291776479140429146e-02,5.659871034229995487e-04,2.591657938856701832e-03,3.552788170879926394e-03,3.581175804138183594e-01
3.240910981280894498e-01,3.217496159792770927e-01,-3.423609557960197169e-02,-9.590647628342551054e-04,-2.451540395751554673e-03,-1.462466844201855496e-03,3.572002947330474854e-01
3.215861833405581072e-01,3.278183833123198276e-01,-3.268180408482795896e-02,4.896586668643385912e-05,8.752007244437003640e-04,6.557272096667029907e-04,3.574298620223999023e-01
3.007050896770007697e-01,2.993345856170953057e-01,-8.591971574392898159e-03,-9.362138046012914716e-03,1.160605959323034739e-03,1.107460337001461240e-03,3.090523183345794678e-01
2.974602392514890115e-01,3.008847080641888216e-01,-1.236974853804082009e-02,-5.426868417675206543e-03,2.743208962193009314e-03,2.328177103767436334e-03,3.117603957653045654e-01
3.072798439930544134e-01,3.052981536205271462e-01,-1.964494922709708602e-02,-2.362786045817317354e-03,3.986344151932442494e-03,6.354030874547732070e-03,3.262229561805725098e-01
3.176397563594816065e-01,3.235648310628386759e-01,-3.198434289570425970e-02,-2.032685723408505954e-04,-1.457195636602778952e-04,-3.861633283542310023e-03,3.526876568794250488e-01
3.223702269827709577e-01,3.248288675782465273e-01,-3.508556653548061677e-02,9.347764592863739164e-04,-1.600991049022952378e-04,1.402869381867376643e-03,3.587034344673156738e-01
3.067990092311135286e-01,3.129329773030804507e-01,-2.122738622098135908e-02,-1.036114568303559032e-03,2.487205963680790260e-03,4.235516986169337098e-03,3.312501311302185059e-01
3.280985842697492494e-01,3.258831752829136619e-01,-2.244854486167957575e-02,2.490360982153182190e-03,3.334964383388061906e-03,3.353523069663253645e-03,3.495672941207885742e-01
3.267472372988449170e-01,3.174107997328623476e-01,-3.215392551966669843e-02,-1.239678390073513067e-04,4.301371232916806515e-03,-5.148879246381689876e-04,3.544047176837921143e-01
3.143189415829872324e-01,3.191262852625442736e-01,-2.836741221052022088e-02,-7.337258712110835942e-04,2.510058446814584371e-03,2.699985252554960684e-03,3.451765477657318115e-01
3.061021357004344856e-01,3.023717695262360117e-01,-1.396468272375950281e-02,-5.831924006611264102e-03,4.714528772153593617e-03,3.036056676073886195e-03,3.185264170169830322e-01
3.001130316667357523e-01,3.035120024080376622e-01,-1.711716623565590067e-02,-6.307383918891149542e-03,7.067597241639456606e-04,3.900772279688429801e-03,3.192041814327239990e-01
3.200773196692804912e-01,3.189725679487379617e-01,-3.259102119194054459e-02,-1.374868857503993387e-03,1.453566612358558061e-03,2.066795192871442519e-03,3.521525263786315918e-01
3.253247730023705597e-01,3.247509528648177546e-01,-3.320645672392655290e-02,1.086057316191679258e-03,1.310687920831387970e-03,4.432142053343413155e-04,3.582576215267181396e-01
3.206762923895278838e-01,3.223215354427680923e-01,-3.508184177836140560e-02,-2.178450359372876362e-04,1.053077808205105407e-03,2.591464198504004604e-04,3.565887510776519775e-01
3.201576089535173031e-01,3.196683938258917945e-01,-3.366750833098297591e-02,-8.936819085047641598e-04,1.139075386493727891e-03,6.111127269716008911e-04,3.535912334918975830e-01
2.859961717708628948e-01,3.299179532659206604e-01,-2.472477581556242754e-02,-1.190386154207745059e-02,4.820528752427457285e-03,8.972225533088332497e-03,3.359469771385192871e-01
3.060576938017294246e-01,2.916898775655787923e-01,-1.223806632186527632e-02,-2.126181809040459184e-02,6.672422333257009563e-03,5.318793329563179309e-03,3.138790130615234375e-01
3.306664209034769208e-01,3.677384085940644254e-01,-1.992548438517166565e-02,-2.036465513298437238e-02,2.407490721090175504e-04,-4.891827133113310806e-03,3.722932636737823486e-01
3.333716343682274763e-01,3.134599099458150184e-01,-3.194119430050984532e-02,-2.065163567050681110e-04,3.015102609718016500e-03,-1.487851607460666725e-03,3.558229506015777588e-01
3.465520504325210749e-01,3.410260298857004657e-01,2.021205695024264060e-02,-5.077911431702505918e-02,5.882253219568190500e-02,2.742538843092718129e-02,3.536908924579620361e-01
3.154324283092433956e-01,3.190951161156101445e-01,-3.190932552783193321e-02,-1.045874062046324698e-03,2.782704995409747677e-03,5.978284997325630660e-04,3.492270112037658691e-01
3.132608345522210347e-01,3.255918731466407312e-01,-3.129836396116153496e-02,1.538532556963359771e-04,5.734435742016120172e-04,4.035375840442290314e-03,3.509583771228790283e-01
3.273968191634473168e-01,3.268658700325378641e-01,-3.224476447597399154e-02,2.536840899608447473e-03,1.991907763105245453e-03,1.424060262347179784e-03,3.594282865524291992e-01
3.256605418109291827e-01,3.229212337767100593e-01,-2.213113412190786944e-02,-3.648360988456787572e-03,5.532416474466385521e-03,1.204035395249257586e-03,3.466265201568603516e-01
3.501111617942180843e-01,3.151502588167091057e-01,2.447967414977669787e-02,-4.609002339859862019e-02,6.456543336621083096e-02,2.467014413986190480e-02,3.414360284805297852e-01
3.232458054306008854e-01,3.223819731912465070e-01,-3.477311082401399189e-02,3.457463206247724657e-04,1.493796589939368983e-03,-2.907949800135165404e-05,3.575976490974426270e-01
3.233925422931709925e-01,2.834850783875843550e-01,-1.668945202740945710e-02,5.072684521452000550e-03,-6.387626804109983007e-03,7.087598051385504535e-06,3.222982585430145264e-01
2.266741936687776127e-01,3.248251258809010111e-01,-2.268587347855899328e-04,-9.539948665681713402e-02,1.299003245298211220e-02,1.423238436410665178e-02,3.343730568885803223e-01
3.191774234605300187e-01,3.059106861506847297e-01,-2.617071302106663278e-02,5.058940287274840469e-04,-6.390158882212761994e-03,4.398132460556967581e-04,3.390922546386718750e-01
3.279620253146221520e-01,3.292553399222723498e-01,-2.432796788983143665e-02,-1.166057320819800487e-03,-2.626201671457242121e-03,3.063148893048244100e-04,3.529739081859588623e-01
3.232693984338260718e-01,3.163054909390576874e-01,-3.224260501255951650e-02,-6.094036155060288552e-04,-4.397612406293141887e-03,1.658821907179761697e-04,3.521657884120941162e-01
3.254829630810318064e-01,3.308527075374561033e-01,-3.177620833515404364e-02,4.706861264391749931e-04,-6.168089533608285893e-04,-4.138975833505409730e-06,3.599765896797180176e-01
3.241004063702124238e-01,3.287927103427774611e-01,-3.333973143428331509e-02,-3.292840026460702664e-04,-8.081479656401480832e-04,9.034252039707746417e-04,3.598158061504364014e-01
3.250625138857234919e-01,3.301320458079641806e-01,-2.720905711318818976e-02,2.666457859953733664e-04,2.923720522746702140e-04,7.300809539948439810e-04,3.548364043235778809e-01
3.225823785296451085e-01,3.288327090970467603e-01,-3.385146150149631605e-02,-8.475325407133872755e-04,1.926821862064238247e-04,1.415666393452891681e-03,3.596112728118896484e-01
3.023940091188137558e-01,3.312457898862525285e-01,-2.389611063876817543e-02,6.006537887800153519e-02,-2.338765327865795565e-02,2.469394473461426764e-02,3.619469404220581055e-01
3.244574067879031354e-01,3.280488670874071588e-01,-1.278284893948367085e-02,2.032095589194680930e-04,5.610624926913261893e-04,-1.111060025907688840e-03,3.390572965145111084e-01
2.982581953796365482e-01,3.398674662025688020e-01,-3.181756292502271877e-02,5.895265076733169254e-05,9.876602520145468314e-03,-1.100598865743666150e-03,3.531456291675567627e-01
3.085307524081191688e-01,3.389279845669257440e-01,-2.643933211986579379e-02,2.345624605785898847e-02,6.721412276703553693e-03,-7.599370757491457837e-03,3.539357185363769531e-01
3.152408104780407561e-01,3.300642994209784797e-01,-3.274223838954923305e-02,-2.306761920543647332e-04,-1.014546906080525564e-03,-4.510649556542299481e-03,3.557169437408447266e-01
3.268725080076900769e-01,3.308232145518033573e-01,-2.490277203155094599e-02,-1.266063433296286299e-05,5.352916328805884527e-03,-1.946640001502969106e-03,3.539047241210937500e-01
3.303467717957896954e-01,3.277654257833322315e-01,-2.368931034261836932e-02,-2.912291843305879566e-04,-1.278960060823905800e-03,2.637913022526167540e-03,3.527894020080566406e-01
3.325266636342270599e-01,3.145907674217583994e-01,-3.177300506541944070e-02,1.273280354294192840e-03,6.060105859689493947e-04,-8.704724434857680302e-04,3.556826412677764893e-01
3.251377964354896233e-01,3.320102704739398281e-01,-3.266596531132470727e-02,1.349830879111207221e-03,7.117303972470532224e-04,-2.627834858907507950e-03,3.613273501396179199e-01
3.269978871030815859e-01,3.243492289449542709e-01,-3.189675434581915048e-02,4.524229733354006265e-04,-4.253729462817722011e-03,2.602717216475980422e-03,3.576828241348266602e-01
3.257740814066714119e-01,3.286834734396827384e-01,-3.931586270606746147e-03,-1.889120470266432775e-03,-1.512212535328396387e-03,3.950054129721666286e-03,3.312671184539794922e-01
3.176764027607350549e-01,3.319802990619065142e-01,-3.296718008834495506e-02,-2.195484015754781853e-04,1.488090295389347820e-03,-2.381982544274757578e-03,3.580431640148162842e-01
3.394147600250345675e-01,3.144097425709222460e-01,-3.199082990941756743e-02,1.267702931790412298e-03,-2.669667839221556965e-03,-8.679128921276567767e-04,3.595953583717346191e-01
3.288707768117751784e-01,3.344399982951663519e-01,-9.507073864143705810e-03,9.366821422211729989e-03,5.472234295423082130e-03,-8.563064634415317594e-03,3.420352637767791748e-01
3.251246506524197444e-01,3.287930604780169297e-01,-3.015727224391115402e-02,1.022291254164463606e-03,1.034424630057963852e-03,-1.731298774485842250e-03,3.571517169475555420e-01
2.995759977305266220e-01,2.914857393943635078e-01,-1.005585569752628916e-02,7.120954828043604690e-03,-2.287148871184677753e-04,9.509946989640515773e-05,3.059160709381103516e-01
3.326074879789041594e-01,3.141326109677454737e-01,-3.194740652175223627e-02,1.725139152783009651e-04,3.087687921883202138e-03,-9.546704625576867258e-04,3.557216823101043701e-01
2.419497349552996446e-01,2.884052859387989942e-01,-9.725886370280600879e-02,-1.730323663891936703e-01,-1.600171426832605950e-02,8.427800482011240865e-03,4.730544984340667725e-01
3.401994672695871635e-01,2.901805664456788558e-01,-2.999170377967430579e-02,1.853998897305764344e-03,2.993847911106350956e-04,-1.644104169362129971e-03,3.479159772396087646e-01
3.014117100019879092e-01,3.337295487023037577e-01,-3.069874515760318001e-02,-3.342518601501533963e-04,9.177898326816643498e-03,-5.373193346472549502e-03,3.498778939247131348e-01
3.265263741877681425e-01,3.063359581725230707e-01,-3.084089778680659810e-02,-2.234799085622148681e-03,6.653501697303666230e-03,4.393392380068528169e-03,3.480076491832733154e-01
2.265172196207042021e-01,3.766578216137820290e-01,-1.296974470351775488e-01,-2.068376320845611294e-01,-2.196089078661050790e-03,-9.279698703895103082e-03,5.757877826690673828e-01
3.247847984233819818e-01,3.201161035010198774e-01,-3.295344753343740218e-02,-4.255910371849701756e-04,2.611041899446274982e-03,1.103063046943689434e-03,3.554615676403045654e-01
3.151687732026206001e-01,3.136809382647873790e-01,-2.963755611735960360e-02,7.058175230889852892e-04,2.560327815161683208e-03,-2.265156440454978853e-03,3.441179394721984863e-01
2.934407233002109816e-01,3.158075795976023614e-01,-1.981917038248259821e-02,-7.043804434217365920e-03,3.763377141385908231e-03,7.427226533927884858e-03,3.255695104598999023e-01
3.338195298995999538e-01,2.952195337949141685e-01,-2.706392381168520878e-02,-1.703698387581084432e-03,6.826660500422140378e-03,-6.258401363643960238e-04,3.434332907199859619e-01
2.972865844947600311e-01,2.992915858497418591e-01,-1.103466601827884919e-02,-1.022565673597471006e-03,4.157524510791571265e-04,-7.075416076327128707e-06,3.093345463275909424e-01
3.309207210202729232e-01,3.238906092640910783e-01,-3.124404983910239464e-02,3.676255686518452347e-04,1.179079286741618058e-03,1.581603079057301072e-03,3.587182164192199707e-01
3.303021834006345525e-01,3.228450559769873718e-01,-1.306646811747699810e-02,5.333610453378346335e-05,1.265072613696299189e-03,-1.894164482993282352e-03,3.397243916988372803e-01
3.270612365088054752e-01,3.228104796396334963e-01,-1.336420306365704302e-02,9.095751814088416480e-04,1.950937003323478022e-03,-2.142509364751455942e-03,3.383609950542449951e-01
3.335901013189105369e-01,3.174206558607902129e-01,-3.089245286161032555e-02,2.254564822546184185e-04,3.476095031475078413e-03,2.845263793219725799e-03,3.567578792572021484e-01
2.049352512464840681e-01,3.739423987109564140e-01,-8.978973732883172021e-03,-4.749449482771759407e-03,8.619717920733296727e-04,1.463093804909812142e-03,3.324937224388122559e-01
3.090657281202433548e-01,3.186012676207679029e-01,-2.620911248829257967e-02,6.336547966371585718e-04,4.174669490445731437e-04,6.180113396491960891e-03,3.403137922286987305e-01
3.258301018799539817e-01,3.285907061759044123e-01,9.739423629021748408e-03,1.383914810802412600e-03,-6.161906546999552405e-03,-5.027239162887059930e-03,3.177876770496368408e-01
3.281922015540564841e-01,3.197127918136536961e-01,-3.303505760568603566e-02,1.693311081846809356e-04,2.844369221003460128e-03,9.891142278405471323e-04,3.571012914180755615e-01
3.378065989680825720e-01,2.951548610339764234e-01,-2.828771185173400982e-02,-1.235096100068360262e-03,5.437120977165897824e-03,-4.716654154934447896e-04,3.468769192695617676e-01
3.152968899456351504e-01,3.299443250183798360e-01,4.442123989865409683e-02,-5.949868444435853221e-02,-5.856143975118390660e-02,-4.763124024563276937e-02,3.244543373584747314e-01
3.276364989482962731e-01,3.246222506023086485e-01,-2.373354514198955378e-02,1.839155006089021409e-04,1.683086668239111485e-03,8.372786933028589186e-04,3.498879671096801758e-01
3.172260139548502833e-01,3.190194561352012736e-01,-3.144287448261331996e-02,-8.385789743831364388e-04,6.104766255043476324e-04,2.609492757295254865e-03,3.496029078960418701e-01
3.285443742416697677e-01,3.154601884956665936e-01,-3.196997206186566465e-02,-1.481986396106275625e-03,3.390062756052927406e-03,-1.065275867629805100e-03,3.542163372039794922e-01
3.190625398621070863e-01,3.054310082614300481e-01,-2.620488420187636058e-02,-3.593857693853041643e-03,6.222447941716263871e-03,-3.048155947338248521e-04,3.388865292072296143e-01
3.264779335672703953e-01,3.298224950081859452e-01,-2.553376016677427751e-02,-2.229389802664611016e-03,3.514764312847757765e-03,-2.287687860109195725e-03,3.537914752960205078e-01
3.307211933873776544e-01,3.031473663590163459e-01,-3.077523765248357801e-02,-4.198323583252349528e-03,6.441877369756303200e-03,4.364235490524850068e-03,3.488648235797882080e-01
3.385335267306956997e-01,2.717698644000171027e-01,-2.829540383985260088e-02,-2.592582919519833412e-02,1.309500007946360831e-02,1.562481218537372686e-02,3.432102799415588379e-01
3.098282066633474829e-01,2.908899731669921107e-01,-1.147595300441814348e-02,3.159012280104608449e-03,-3.473210031006317318e-03,2.402118013272904872e-03,3.123996257781982422e-01
2.448819632916745537e-01,3.224191724445243379e-01,-8.353128088475714197e-03,-2.215377708477073854e-02,2.466531990207725816e-03,1.108585779120243621e-03,3.021083772182464600e-01
2.409941333471005975e-01,3.444397914265273641e-01,-7.928093236366978713e-03,-8.993448132441296886e-03,2.825875842639207370e-03,4.445379477331859105e-03,3.142277598381042480e-01
2.427058919263349601e-01,3.648546259589046103e-01,-1.683325074787214715e-02,-8.222664746935322289e-02,1.953658727587318997e-02,7.415398477811449389e-03,3.682077229022979736e-01
3.102903570286321688e-01,3.084022778643409346e-01,-2.539504301002523667e-02,1.068154163609003494e-03,-7.933355117566606414e-04,3.920027122931494384e-03,3.348221480846405029e-01
2.889888710045765419e-01,2.939109336952396845e-01,-1.412914169517590079e-02,2.090585868963237837e-02,-4.658913313391170423e-03,4.448207877631952384e-03,3.079486489295959473e-01
2.592410046560398862e-01,3.500381756521351306e-01,-1.774491495896041160e-02,-1.324600111904411168e-02,7.270757976938436486e-03,7.617719774715012854e-03,3.331274688243865967e-01
3.439097272822292384e-01,2.374050607593067852e-01,-9.098460295102861473e-03,8.778940815222810098e-03,1.972050327437383128e-03,1.160368281813136196e-04,3.140126168727874756e-01
2.159590463482668199e-01,3.868769363295730956e-01,-1.756908010098548467e-02,-3.369520036091352283e-02,1.632155692308189660e-02,1.250409463814513254e-02,3.582412302494049072e-01
2.392320832462567215e-01,3.524305619822181157e-01,-1.797613307331469290e-02,-9.963733046282438610e-03,1.050825601792453913e-02,8.624501326098626963e-03,3.300572335720062256e-01
2.631297022318586087e-01,3.335463649363654692e-01,-1.816368009383528825e-02,-1.057147751445826692e-02,6.914151112033204219e-03,9.033563841137919395e-03,3.234435319900512695e-01
2.812255906001761563e-01,3.451267915733701175e-01,-2.393900697459175331e-02,1.562339287951228228e-02,-8.320792738598757274e-03,8.173557187966536131e-03,3.432922661304473877e-01
2.992108636055167969e-01,3.036730030577189932e-01,-1.327057581099438943e-02,8.711343306910847295e-03,2.737896293383165931e-03,-3.372274192731517135e-03,3.151875138282775879e-01
3.339679792430153005e-01,2.961453151852915244e-01,-2.950101041016178760e-02,2.187729070374681145e-03,-4.388200593214477627e-03,-2.926644012363065922e-04,3.462156653404235840e-01
3.029092778642425432e-01,3.026203699381178058e-01,-1.734218017643332499e-02,-4.530365789714451991e-04,8.034289916689071670e-04,-2.227462216943274583e-04,3.201113343238830566e-01
3.390782809371548079e-01,2.689187225894220101e-01,-2.580181566916842084e-02,5.788764040118931677e-03,-5.544031352804252438e-03,1.240187022423973155e-02,3.363245129585266113e-01
2.952867186755878670e-01,3.094634603256432581e-01,-1.732805144928878383e-02,2.901950125489357549e-03,8.882547786316161023e-04,-4.192493466513748900e-03,3.200643658638000488e-01
3.190486005703566663e-01,3.166060520737798978e-01,-3.201075901477976049e-02,4.748941781897744697e-04,-2.762803393473570873e-03,4.189126762937370662e-04,3.498789370059967041e-01
4.911911924866897428e-01,4.008031322640563388e-01,5.286556417283677645e-02,-6.281890801575373828e-03,1.294894620900131910e-02,6.612269358414982201e-02,4.176338016986846924e-01
2.786610371113469320e-01,3.093635800271719583e-01,-9.865187281205334280e-03,9.235662501753276465e-03,-9.389438943771129232e-05,-2.070226417016541188e-03,3.054787814617156982e-01
2.788453899042258044e-01,3.117682032814421689e-01,-1.696591731950947146e-02,9.486973534245029399e-03,7.656794007459472896e-03,-9.203380728901974089e-03,3.146858513355255127e-01
3.059123842160831885e-01,2.948593181337691993e-01,-1.414307319597987722e-02,4.860493246476264330e-03,4.839616981181639119e-03,-3.380992769922461054e-03,3.149531781673431396e-01
2.937639797698076150e-01,3.142936340897065639e-01,-2.087522559353666152e-02,6.565157477669199618e-03,4.495965472140584646e-03,-6.355804500186751013e-03,3.258678615093231201e-01
3.026766741997697352e-01,3.093995020138408103e-01,-1.695576065742793181e-02,5.273497859560226852e-04,7.949869157943324251e-04,-3.773414466618078920e-03,3.231166601181030273e-01
3.884997119412443300e-01,2.436552492451604102e-01,1.041610369068188269e-02,-7.694294647496713324e-03,7.916453510843612582e-03,3.185382584805306755e-02,3.355196416378021240e-01
3.389432584947242311e-01,2.905814842950544818e-01,-2.847948839780217734e-02,1.616554789073778621e-03,4.759971499274363166e-03,-2.694134721822540046e-03,3.459287583827972412e-01
3.297717480306840976e-01,3.238972122719321334e-01,-2.819328304633964000e-02,-5.160393492566638833e-04,-3.766286092045455333e-04,-1.407405811285032888e-03,3.550743162631988525e-01
3.515451070467902617e-01,2.643800578338129648e-01,-2.264313524476657680e-02,1.747616199238873416e-02,-9.401450351465169900e-03,1.044615016470328873e-02,3.413315415382385254e-01
3.279606992606072247e-01,3.288768296025849636e-01,-1.185900292685060364e-02,-2.397933419091306893e-03,-2.750650982904905787e-03,4.226415877553887923e-03,3.404161036014556885e-01
3.306751435007582729e-01,3.187839633552346785e-01,-3.151307751110055122e-02,5.993181483389205711e-05,-1.265767586084544502e-03,3.627483825937529230e-03,3.564535677433013916e-01
3.490609604180269221e-01,2.903618644108895697e-01,-2.946236694956988478e-02,1.493179415641073557e-04,2.088371084033203843e-04,-2.891451291701634813e-03,3.528906404972076416e-01
3.627300479217765439e-01,2.260071919589737854e-01,-1.030717839105935174e-02,4.163238285875970127e-03,-1.150126442973206740e-03,1.983881370702404810e-03,3.269785344600677490e-01
3.388184768424649662e-01,3.005720416455050503e-01,-3.091532990218440191e-02,4.005043334902594170e-03,-3.532576852198001348e-03,7.286238589701761817e-03,3.525190949440002441e-01
3.285088041295052275e-01,3.250436018660589621e-01,-2.140114696237427339e-02,-1.529119102170691620e-03,-1.780057226227369990e-04,-2.504398757869799163e-03,3.482275009155273438e-01
2.644949667475267607e-01,3.227110079822580468e-01,-6.556255670637639588e-03,-8.490832296976951951e-03,1.038950746389639187e-03,-2.713459734959034701e-03,3.047605752944946289e-01
2.970943242286698815e-01,3.014597418794926487e-01,-1.076346147713885815e-02,-2.478596737708271651e-03,-2.870494428760821028e-04,-1.697492342566227436e-04,3.100937902927398682e-01
3.288207079423639545e-01,3.250382889870935266e-01,-3.021523186901950431e-02,-9.360353682121825246e-04,-1.202050925410352812e-03,-1.651071132874096757e-03,3.571809530258178711e-01
3.291575377332277563e-01,2.495952083294005752e-01,-8.863526076094613293e-03,1.968830782334774973e-02,1.433145723797886028e-03,-1.871342095075173659e-03,3.080165982246398926e-01
3.633967797812729938e-01,2.086135961506929426e-01,-7.022294691929942267e-03,-5.362251529551785405e-03,2.526644913152395044e-03,3.489550472779393443e-04,3.223961293697357178e-01
3.080722049172783805e-01,2.802828331794485206e-01,-1.492728261776599119e-02,-9.370445079694623980e-03,5.151287025136795476e-03,2.664404683887814426e-03,3.106272518634796143e-01
3.288950807653424069e-01,3.262890652290318938e-01,-3.035739767278936019e-02,-2.084731728948670346e-03,-1.933016522049780649e-04,1.744329764222067548e-03,3.579877018928527832e-01
2.650891685662332686e-01,3.563508403285029491e-01,-2.552040473010674937e-02,2.865423498761808518e-04,1.066476201260867056e-02,2.971825541816983194e-03,3.459365367889404297e-01
3.263067450504435474e-01,3.202494308784740729e-01,-1.756330392523280937e-02,-2.285159324741509873e-02,8.609089712768550236e-04,5.150887893205942196e-03,3.432911038398742676e-01
2.425193640035578635e-01,3.765168836252106299e-01,-2.955462858053015118e-02,-7.308080983862177277e-03,1.178969602761028787e-02,1.135876042451757807e-02,3.597236573696136475e-01
3.141582491759155049e-01,3.133455164277026972e-01,-2.773682850707978598e-02,-2.140435365608838771e-03,2.920425128451082600e-03,4.411775263764138727e-03,3.416324853897094727e-01
1.373698914312886377e-01,4.557063374857325266e-01,-1.185352467322672854e-01,-1.495827866617783219e-01,-2.679148780906154270e-02,-6.126715645854809329e-03,5.636314749717712402e-01
3.144107447382866183e-01,3.119044781745773931e-01,-2.610785502417847792e-02,-2.616231873644269020e-03,7.139075404376889547e-03,6.041523154901921834e-04,3.395295143127441406e-01
2.282226070421689013e-01,3.580108519557358981e-01,-1.288836328952169819e-02,-2.428082468958987772e-02,9.673242510917424986e-03,4.723901565979738738e-03,3.292251527309417725e-01
3.256378155009449493e-01,3.358611130227580066e-01,1.794151598656118507e-02,3.968013092715104093e-03,4.855413845251653655e-03,3.449693384882896157e-03,3.131786286830902100e-01
3.005632878010752185e-01,2.976890685719000285e-01,-1.156041149715972272e-02,-4.865251410169192138e-03,-3.188643320930880948e-03,-3.010925406400881497e-03,3.109036386013031006e-01
3.001882032381951726e-01,3.019752602725575552e-01,-1.327058160005958887e-02,-1.152496898244921835e-03,1.616418089073470062e-03,2.074080303373140692e-03,3.143954575061798096e-01
2.289223124990921732e-01,3.565046055272932390e-01,-1.754605590481561617e-02,-2.453682134640667797e-02,9.244148863523623041e-03,7.928765031478329436e-03,3.327461779117584229e-01
2.400127431995831839e-01,3.451820398997936246e-01,-1.283782295130830864e-02,-1.186773165742059481e-02,7.966163185219747589e-03,5.425599203911169767e-03,3.198238909244537354e-01
2.624292613933609797e-01,3.465596914736759904e-01,-1.778635117113300246e-02,-4.628829256285111292e-03,-1.451904414868922591e-03,2.768803361690786065e-03,3.305555582046508789e-01
3.192958982936724421e-01,3.298237954885163692e-01,-3.210317016495073394e-02,2.093045252824262260e-04,2.964384671498470573e-03,-2.528870438291802927e-03,3.568435311317443848e-01
3.245576756992346046e-01,3.258546241400014365e-01,-3.237107815328438276e-02,-1.050415523264386971e-03,1.529908752591392380e-03,-1.054987827137222932e-03,3.575980961322784424e-01
3.224580231735645341e-01,3.281919712151820656e-01,-3.052966531851580845e-02,-7.852604332941267879e-04,-2.281377524184341726e-04,2.519506616232360411e-04,3.558923900127410889e-01
3.084369859956915816e-01,3.032134461544285786e-01,-1.654237418229831391e-02,6.694423497136138806e-04,-3.671742825534394725e-03,8.066091186519131796e-04,3.224671483039855957e-01
3.283378368037912498e-01,3.293186293566257028e-01,-2.632320319192874014e-02,-9.545239099652393176e-04,2.430365755207589476e-03,-3.587218287551929949e-04,3.551817834377288818e-01
3.204159086910537413e-01,3.296605139017182440e-01,-3.263506083633133104e-02,9.129993309069919707e-04,2.967992136914174035e-03,-1.952408176428262719e-03,3.578192591667175293e-01
3.240464968106636090e-01,3.291557406679034292e-01,-1.827492274158398766e-02,4.102124224192972769e-05,6.437119647537610815e-04,-1.366140956580893769e-03,3.449143469333648682e-01
3.027110529825728369e-01,3.019111914719803114e-01,-1.692423419659527806e-02,1.814303405638790102e-03,-8.444307769283608024e-04,3.527042043376664437e-03,3.193133771419525146e-01
3.231104910338476466e-01,3.277830352606670439e-01,-2.450666855734659477e-02,-1.415419551806854071e-04,-2.090245838307612253e-03,3.252225480172928410e-03,3.500409722328186035e-01
3.202281534288823339e-01,3.233483970776141470e-01,-3.041349777367904905e-02,1.179636201886439606e-03,2.686760289097095064e-03,-2.652074340817975762e-03,3.522787690162658691e-01
3.200923482579210444e-01,3.348300320304711808e-01,-7.361176581468203972e-03,2.072978914900007810e-03,-4.832095204692188339e-03,1.672200329420480303e-04,3.351894021034240723e-01
3.239823850609399036e-01,3.295373378941646170e-01,-3.232166083664694822e-02,4.783367142542878717e-04,1.317348630175211362e-03,-1.937905477698152485e-03,3.591376245021820068e-01
2.690402822779919823e-01,3.436920115943941090e-01,-2.377351701110044790e-02,1.232475975740510545e-03,1.210486847807840625e-02,-2.117353984570038115e-03,3.370896875858306885e-01
3.171695528220168092e-01,3.297603969245276323e-01,-3.239871021816437269e-02,-2.135251948401899479e-05,-2.825061300096863614e-04,-3.844236735278248017e-03,3.560932874679565430e-01
3.022302209965481157e-01,3.302425896773667491e-01,-3.135395975231911048e-02,2.768629975293843831e-03,6.583601456476223697e-03,-6.689369835462109781e-03,3.488478958606719971e-01
3.249449723555297154e-01,3.232414515834431956e-01,-3.402211605829635888e-02,-8.272996433294124013e-04,-3.464142437664396827e-03,2.057727054139047492e-03,3.581892251968383789e-01
2.997682152460195981e-01,3.342190380104936298e-01,-3.112521607349788555e-02,1.819005899600455601e-03,6.406501694058874818e-03,-5.151421223231845981e-03,3.496992290019989014e-01
3.109556320056979795e-01,3.066114943677386573e-01,-2.053125004326619707e-02,-4.888808273775342370e-03,-3.820733308215503235e-03,-3.449711874864009632e-03,3.295657634735107422e-01
3.142564768206461134e-01,2.936991857316400556e-01,-1.663625016685515989e-02,2.266050457929159791e-03,-6.209557196218047984e-03,8.955796407735351150e-04,3.213157653808593750e-01
3.143731530990561684e-01,3.198429137310737080e-01,-2.540477213685715663e-02,-7.269408499216959210e-03,-9.716506904347863710e-03,-9.233424248205801890e-03,3.435622155666351318e-01
3.507323343593294895e-01,2.393567854897492020e-01,-1.769505263762952141e-02,1.878083863961097985e-03,4.815866732639253328e-03,3.134124338607897431e-04,3.273986876010894775e-01
3.132613969914637142e-01,3.199734041936593831e-01,-3.028500462409591809e-02,-8.353347149731217992e-04,-2.509408898162130905e-03,-4.537768600318594497e-03,3.470703363418579102e-01
3.432893307999959065e-01,2.413317818933793102e-01,-1.050549135752171237e-02,6.763658877841196085e-03,-1.134510054730968271e-03,4.039594330033378965e-04,3.156511783599853516e-01
3.119662827662012528e-01,3.148536160318413657e-01,-2.792783943448323702e-02,-1.310818951079505352e-03,-5.150579686449662485e-03,-2.706275161041720931e-03,3.415032327175140381e-01
2.293718929105935112e-01,3.404380773141908456e-01,-1.253617388902714125e-02,5.622599104519644675e-02,2.573008098232258591e-03,1.852868418622065100e-03,3.274710178375244141e-01
3.564652709315636603e-01,2.547178414317512463e-01,-1.073719582101201886e-01,1.894364041394707987e-01,-2.562065587471426889e-02,2.590058650980998564e-02,5.384640097618103027e-01
3.512280213265348561e-01,2.263883003447653142e-01,-1.714501329567147403e-02,5.060076503176977672e-03,-1.524668337089435648e-03,7.805754850797164525e-04,3.246254324913024902e-01
3.691430771463403149e-01,2.193645696086968799e-01,-1.269704981985461667e-02,-6.435075240934137394e-03,-2.238819749288381306e-03,1.127237218729922226e-02,3.340127468109130859e-01
3.570453116647404612e-01,2.572005083466090136e-01,-1.769302511685780233e-02,1.553640514587097815e-02,-6.881812769602437506e-03,-1.354208761101505145e-03,3.374223709106445312e-01
3.428551989145404155e-01,2.585650924610115586e-01,-1.727191229168045794e-02,5.607334555027166864e-03,-6.397613115537366911e-03,8.526155726497056846e-04,3.265891969203948975e-01
3.562417417685399545e-01,2.787946465952338415e-01,-2.762862700657303661e-02,6.696108989845364623e-03,-2.681153301576210540e-03,7.208054731522457390e-03,3.520466089248657227e-01
3.571528010135868181e-01,2.262486855998181445e-01,-1.610275662111865236e-02,1.846293441304688258e-03,-5.064789349804089437e-03,1.166513781259070773e-03,3.281557261943817139e-01
3.635989615804045560e-01,2.283447715840724590e-01,-2.263252794175185656e-02,-3.435350268136902648e-03,4.283939063522143771e-03,3.316529685554703982e-02,3.444115221500396729e-01
3.886560706291098954e-01,2.193022773143590565e-01,-4.193043911212743224e-02,-7.843498294912968141e-03,-1.021046584454154103e-02,1.826543156850168534e-02,3.777064979076385498e-01
3.682154075339494348e-01,2.247841768852326116e-01,-1.192366509110451278e-02,-2.848394049225229548e-03,-1.784173256943435721e-03,1.343510775692346483e-02,3.333613872528076172e-01
2.669234863148409742e-01,3.250234415944871502e-01,-9.083832842908673433e-03,-8.224662933181508401e-03,5.149865590854809739e-04,3.669194415284406010e-03,3.095735311508178711e-01
3.576347498128957247e-01,2.378134131126183326e-01,-1.481906884567316118e-02,1.226216789052805324e-02,-6.849265484258017581e-03,1.206188552762886904e-02,3.308766782283782959e-01
3.254725121244304020e-01,3.270984004659490685e-01,-3.264153418283094465e-03,1.171423014876354701e-03,-2.177078898010760630e-03,-3.638763055254378483e-03,3.296406865119934082e-01
3.285434184282923775e-01,3.256277343213433983e-01,-3.286896407548201005e-02,9.232598530988888989e-04,-1.450676786528840240e-03,-1.551700335489392601e-03,3.599857389926910400e-01
3.435740464542726413e-01,2.402250461391697844e-01,-6.549632377554653884e-03,-7.977448693934302212e-03,2.131410602756150362e-03,-2.667546180592902851e-04,3.119093477725982666e-01
3.185055157433595019e-01,2.679689214939469100e-01,-8.674665732120834249e-03,-1.371608695962683172e-02,4.639091438662233842e-03,5.064206797970321680e-03,3.062223792076110840e-01
2.909184644563159172e-01,2.999584638118659718e-01,-9.534538717832247157e-03,-5.490540924346071390e-03,4.579045829763356344e-04,1.092225708314102520e-03,3.052285611629486084e-01
2.971498997152385857e-01,2.993131742742952683e-01,-1.088294152551552707e-02,-2.225104273104383176e-03,2.964797742773033970e-04,1.554142786007416815e-03,3.091563284397125244e-01
2.970715367200563728e-01,3.021946194952947473e-01,-1.127429719869407765e-02,-2.828729323411144966e-03,1.932625276393318378e-04,3.121746214712922576e-04,3.109782934188842773e-01
3.096546832714939246e-01,2.969019210969877642e-01,-1.633688841662334079e-02,-3.717765568472394637e-03,6.287524182589613632e-03,8.099075642829164099e-04,3.200591802597045898e-01
2.958195311982281250e-01,2.907813631407134003e-01,-1.244865839751296832e-02,-1.756344415396910580e-02,7.229626275275058238e-03,5.038557560704092463e-03,3.076685667037963867e-01
3.255576395769017028e-01,2.825527027346208531e-01,-1.625552195737781092e-02,-4.339516226208107660e-03,6.171852840671064253e-03,4.911705779026857496e-04,3.227344155311584473e-01
3.719307786315448894e-01,2.014794566795011510e-01,-7.861769612100943938e-03,3.585447780408402250e-03,-6.390907114515894088e-04,8.233294174691539388e-03,3.298530578613281250e-01
3.024726429852730436e-01,3.339283652049747642e-01,-3.173439562607452413e-02,-2.195924575631530429e-03,-7.057453252116871641e-03,-5.121911542504952244e-03,3.513390421867370605e-01
3.080457084463030792e-01,2.740015921730829529e-01,-1.062501582317673665e-02,-9.693949049679222857e-03,-1.677021327457050952e-03,-7.517839577668350339e-04,3.035674989223480225e-01
3.568758528201031455e-01,2.547930354643107576e-01,-1.833288925278864223e-02,7.123092391751325528e-04,-8.196487457787669448e-04,1.408203143474212344e-03,3.360202610492706299e-01
3.239135591106631074e-01,2.826116544567416344e-01,-1.670093833486255286e-02,-4.733198245668254062e-03,7.219704435000829160e-03,5.703922744133636379e-04,3.223051428794860840e-01
3.607742548616539868e-01,1.939214535363797398e-01,-1.090307998165834791e-02,-3.301066683562906001e-02,-2.006514614383577474e-03,-7.422420997526295826e-03,3.277422189712524414e-01
3.099059146140650256e-01,2.734309543487595251e-01,-1.053505083255321106e-02,-1.059871879368761045e-02,2.529758367184361048e-03,2.250191955505996338e-04,3.044357299804687500e-01
3.145133770345453494e-01,2.967546639621489457e-01,-1.629828195983359929e-02,-2.449830780112185417e-03,3.839068863895649629e-03,8.541593979537898812e-04,3.223993480205535889e-01
3.314706347715999923e-01,2.601932988532575930e-01,-8.476235269781917658e-03,-2.222060620664458724e-02,6.856343884430097070e-04,-3.738937971229087292e-04,3.128848373889923096e-01
2.925281517287414701e-01,2.995996914669993294e-01,-1.104184718072487303e-02,7.060989304208904749e-03,3.253532488622670705e-04,-1.818103977916124764e-03,3.074268400669097900e-01
2.993588269741376262e-01,2.924637421014321115e-01,-9.916300351971385485e-03,-6.119568455089080712e-03,-1.389750976188566323e-04,2.162016612299211174e-05,3.060695528984069824e-01
3.020043798325226514e-01,3.006972853305664439e-01,-1.259676907451373618e-02,-7.999557051235456871e-04,1.647333977637264286e-03,1.413844847199997260e-03,3.139752149581909180e-01
3.127915813492685437e-01,3.351507437750813612e-01,-2.482155502270164127e-02,2.108629753504783627e-04,-4.441296762570384402e-03,7.573338306921966780e-04,3.494171500205993652e-01
3.279289834883308274e-01,3.272417639837994496e-01,-3.500146448670804489e-03,-4.319648508024703185e-04,3.666867912974607242e-03,-8.205182357636098137e-04,3.311508595943450928e-01
3.146783285624487614e-01,3.353824498115949293e-01,-3.219079214865588900e-02,2.061839889995356698e-04,9.512258401655023692e-04,-3.398664027649893034e-04,3.576753437519073486e-01
2.675271453324287174e-01,3.395533362703204716e-01,-2.658285730449894135e-02,3.756993550439698300e-03,-1.296916615105716229e-02,5.497294096571088591e-03,3.369120061397552490e-01
3.278037878487369827e-01,3.225257328225596964e-01,-3.519212653685421799e-02,-9.071682568391613473e-04,1.034646743788053026e-03,-6.850740073287778101e-04,3.603956997394561768e-01
2.978145751925755924e-01,3.388597488066650287e-01,-3.050707395690788193e-02,1.254847810291093244e-03,-6.900307703064158596e-03,2.592264304625344854e-03,3.508896529674530029e-01
3.414896086133894504e-01,3.797045549524147301e-01,1.096753480668410941e-02,3.833615919315310795e-03,7.796942817790362620e-03,-5.506436850791113528e-04,3.515159785747528076e-01
2.991969269874877324e-01,2.967676532308258786e-01,-1.058385107782378043e-02,2.075333553724818987e-03,1.180952681786410835e-03,-2.689872873414890812e-04,3.086013793945312500e-01
2.992154029784223623e-01,2.966623604598512820e-01,-1.098906501352250875e-02,1.340469427080929815e-03,1.704338316254957008e-05,3.522125446475583041e-04,3.089451789855957031e-01
3.132409050823588559e-01,3.337585751361721864e-01,-3.202658858596288405e-02,1.074017199072737705e-03,9.908814484767202672e-04,-2.713969268287563710e-03,3.560101091861724854e-01
2.973234527560051910e-01,3.394026470052188271e-01,-3.113791676088328853e-02,-1.023921797920274894e-03,-6.813045118317813224e-03,-1.848102874711720278e-03,3.516128063201904297e-01
3.184959898239801968e-01,3.333711540022773478e-01,-3.136391859069040389e-02,7.693535079074066349e-04,-3.175562061033956364e-03,-3.257651166574778139e-03,3.576189577579498291e-01
3.275270516588813519e-01,2.444624265776856598e-01,-7.277632569820030595e-03,1.648809759669551608e-02,2.556746441443804620e-03,-8.203983269895989867e-04,3.033491075038909912e-01
3.674755162070141301e-01,2.204783787334356204e-01,-1.039057838096524855e-01,1.945189421097043292e-01,-1.127394540835030198e-02,6.597573240092427516e-03,5.371606349945068359e-01
3.078622590383390256e-01,3.502998012167073405e-01,-2.400252546333578318e-02,4.220986706684078799e-03,-1.193648457151048892e-02,2.227000133553979321e-03,3.556887209415435791e-01
3.232361691887982724e-01,3.310840335032723125e-01,-2.755632122234166759e-02,4.384208323906478577e-04,5.395351633375733424e-04,3.150515839652165721e-04,3.547839820384979248e-01
3.187684968890764914e-01,3.388009027877827428e-01,-2.309631610700235704e-02,-2.314290071115431783e-03,3.044306622989421431e-03,-1.414714395520696023e-04,3.523707687854766846e-01
3.396513389986650644e-01,2.279784859176741396e-01,-1.459164755961525617e-02,-1.958152814740754533e-02,-9.424691257190444954e-03,-1.175337357762178125e-02,3.165924847126007080e-01
3.447764528143117402e-01,2.412639496446832843e-01,-9.136657335197168051e-03,6.733387586211586617e-03,-2.574013687360177452e-03,4.234293542855064913e-04,3.154224455356597900e-01
2.745375796651056688e-01,2.821662146784787439e-01,8.021071754367531392e-03,-1.240178291409650690e-01,-2.460775071342906697e-02,-3.227313636950956965e-02,3.524272441864013672e-01
3.712413047188600768e-01,1.890107914115819743e-01,-2.426222169432745712e-02,-1.450533586303055442e-02,-5.261460570107745873e-04,-3.058164424872470907e-02,3.478447198867797852e-01
2.195983660650929203e-01,2.686143145758434492e-01,-1.834108787325550161e-02,1.450105232624541995e-01,-1.411221924654520316e-02,1.552155040370239471e-02,3.675390481948852539e-01
2.927640658527887463e-01,3.336656866093022922e-01,-2.720677884309272154e-02,1.825963528475555309e-03,-6.361536161140010507e-04,-3.648173796693414146e-03,3.423342704772949219e-01
3.292719286301166726e-01,1.617095038482527503e-01,-1.530688090866025308e-02,1.068300091391852225e-01,9.073627446274870265e-03,8.846008904893232216e-03,3.518422544002532959e-01
3.962106791839296593e-01,1.754447169001733531e-01,-2.051133588265763308e-02,-3.812726324563560365e-02,-9.314486979115127810e-03,2.879605072812882818e-03,3.674820065498352051e-01
3.444915159434102092e-01,2.032953394029501926e-01,-8.066964743378707281e-02,9.443796163473364147e-02,1.284677260799372764e-02,5.251881353411146786e-02,4.197530448436737061e-01
3.698419701564857887e-01,1.986036027344255106e-01,-1.749284912072426867e-02,-1.628566319940421767e-02,4.974120229770985502e-04,-1.112182187963859162e-02,3.379226922988891602e-01
3.802705919249534383e-01,2.295770209965939113e-01,-3.044124009148913013e-02,-4.809784179673337601e-02,-9.144554532211803324e-03,-3.026629481098811955e-02,3.734171390533447266e-01
3.246580637418736703e-01,3.247364048221392241e-01,-2.980077212653362007e-02,4.534596774740301322e-04,-1.754276591686547340e-03,-9.953707084797353607e-04,3.545160889625549316e-01
3.232249798353171721e-01,2.637390842885583009e-01,-8.464719514005319967e-03,-6.564911770565694249e-03,2.147959014452446684e-03,2.381914440931807238e-04,3.065437674522399902e-01
3.244653518427876859e-01,3.249710600338748812e-01,-3.375421689496413413e-02,2.404877208093275935e-04,-3.459904583259754921e-03,-3.037857624304548740e-03,3.585616350173950195e-01
3.293121723768991371e-01,3.165258398305040854e-01,-2.658581693647382727e-02,-3.491383796698909348e-04,-4.865280269336983744e-03,-4.133121761377092467e-03,3.498554825782775879e-01
3.546651734600738681e-01,2.221094299544717210e-01,-6.347268623012214395e-03,1.277228107186488895e-02,-3.479402795196248621e-03,4.967620866642988124e-03,3.172482848167419434e-01
3.294280685237685469e-01,3.251288759380078774e-01,-3.276529239368083934e-02,1.816913808312261170e-03,-4.302492843213247915e-04,4.148645156508314730e-04,3.600782454013824463e-01
3.243613625067215955e-01,3.199821990160965357e-01,-3.355405273140160682e-02,-1.792323806365190905e-05,2.083819942474937712e-03,1.673030389954524013e-03,3.557761609554290771e-01
3.270100420461877211e-01,3.245844565634803947e-01,-2.749181421322660634e-02,1.185984291346960399e-03,-2.587469447468113571e-03,-7.897279646920892353e-06,3.533297181129455566e-01
5.104695534324362738e-01,1.437972762427385254e-01,-6.849809260706074543e-02,-5.009591511327368685e-02,3.994814477598323914e-03,-3.115341450430018921e-02,5.175412893295288086e-01
3.011023512865685370e-01,2.922317187550661499e-01,-8.910078323369263753e-03,-5.684633046716926034e-03,1.146143819035543672e-03,3.551233858755376265e-04,3.058392703533172607e-01
3.274631884964649409e-01,3.171903649239649070e-01,-3.068297826136245909e-02,-2.449806726165505450e-03,-4.650507827187947384e-03,-3.940371543054850025e-03,3.533051013946533203e-01
3.275868315974056477e-01,3.172696427419972043e-01,-3.398067468229737376e-02,-1.246373884667636512e-03,-2.491247115240816275e-03,-1.031556206507356450e-03,3.565580248832702637e-01
3.247571877265458262e-01,3.232456266488296093e-01,-3.282755717608043522e-02,1.390102955666169566e-04,2.637790916351561137e-03,1.556449358168060428e-03,3.568708896636962891e-01
3.466721374833855451e-01,3.349543755897727570e-01,3.560912522706496941e-02,4.847083115227224757e-03,1.759248079784337185e-02,-1.975599568543183818e-02,3.089051842689514160e-01
2.697502326128888295e-01,3.080431493680980681e-01,-7.959255880681331830e-03,-1.136771646749503047e-02,2.499834334123859046e-03,1.617201180750679149e-03,2.993952035903930664e-01
3.005335266481428125e-01,3.513607187371449170e-01,-3.373633548554991202e-02,-5.357983178939013102e-03,2.501396250636216817e-02,8.173572025625127496e-03,3.653400838375091553e-01
3.075765749037772112e-01,2.890995458862968270e-01,-1.052253505295697167e-02,-4.474373583940058872e-03,2.605825799566548803e-03,5.886225343889287410e-04,3.094065189361572266e-01
3.066684955090004383e-01,3.127905331972867797e-01,-2.120819107619170696e-02,-4.201479022011207244e-03,4.090424191264159515e-03,4.242578764713974757e-03,3.312174975872039795e-01
3.086442692515264929e-01,3.180014121721078113e-01,-2.525997272152599726e-02,-1.878498980981906444e-02,1.327959734931493697e-02,1.077802823016184124e-02,3.415262103080749512e-01
2.888857854553842919e-01,3.078574107737975796e-01,-8.430888616746207154e-03,-5.237303205260485268e-03,-5.969374452215749332e-05,-2.050098039959027171e-03,3.073965013027191162e-01
2.933425170503555779e-01,2.997389431199990462e-01,-1.067827137303914431e-02,-6.302884418609211448e-03,-6.295786312569279100e-04,-1.764415570707148937e-03,3.074799180030822754e-01
3.179087109701678737e-01,3.227107978730252014e-01,-3.344362489260721549e-02,-2.031017093376766801e-03,1.584001718660885604e-03,2.680061735312190118e-03,3.538363873958587646e-01
3.415438264236718147e-01,3.698996918583485893e-01,-9.486614496740070068e-03,-1.865502204365469471e-02,-7.285787300103659103e-03,1.654684006648883933e-03,3.676842153072357178e-01
3.614851763864303513e-01,2.239877618344220389e-01,-1.628787126582767475e-02,-8.948677866685670213e-04,-2.194012755410825431e-03,-1.403202091400383190e-02,3.320884406566619873e-01
3.150826840725651778e-01,2.981709370045558805e-01,-1.687233603709115126e-02,3.283981146534381036e-03,3.850866265099462879e-03,-8.315330883018214438e-04,3.239523470401763916e-01
3.192048659700512658e-01,3.177509888896928869e-01,-2.999476838185602401e-02,-1.169935450377902275e-03,3.232502356022064205e-03,2.032420932750357047e-03,3.485436141490936279e-01
3.078399080954553613e-01,3.112518830361271638e-01,-2.616859259409226590e-02,1.066280962225716169e-03,4.107706035189102531e-03,-6.445433063356041528e-04,3.358097970485687256e-01
3.232066241186708488e-01,3.221495393610017133e-01,-3.441167227205133017e-02,5.065869511902505246e-08,-2.107514525190595442e-03,-1.417074630961159343e-03,3.571180105209350586e-01
3.278018230098076469e-01,3.187793216383504324e-01,-3.426043292461927736e-02,-3.347335334152884835e-04,-3.117452678343940204e-03,-2.036699996450778982e-03,3.576949834823608398e-01
3.673143501853596282e-01,3.474788028734712708e-01,-9.148357149306729497e-04,-3.314578473240356593e-02,3.025537389781693051e-03,-1.776143904986224081e-04,3.633258044719696045e-01
3.149751764859631820e-01,3.337224437067033422e-01,-3.206989786648284380e-02,-2.648774489293330035e-04,-6.307898721843929399e-04,-3.027480662736015300e-03,3.568288087844848633e-01
3.272634933366300736e-01,3.287457801773187027e-01,-1.609399874144862297e-02,1.210047520732569163e-03,-3.052654061766342606e-03,-5.121791066118073360e-03,3.442623615264892578e-01
2.817671432352264471e-01,3.195380761869362485e-01,-9.241850424929198837e-03,1.672188362988210122e-02,-3.490309788970567947e-04,-2.937945712403447398e-03,3.130010962486267090e-01
3.266225524171515460e-01,3.067382623939977626e-01,-3.068406051204491947e-02,-2.428225640923509579e-03,-7.333465298166086388e-03,-4.204145737094890610e-03,3.481245040893554688e-01
3.288116557924677386e-01,3.177048206686229337e-01,-3.249553549141298570e-02,2.865357733764172486e-04,-3.130976897808523864e-03,-3.592259522540851291e-03,3.559798300266265869e-01
3.042637885725031355e-01,3.341479567236520509e-01,-2.328858457936955340e-02,-4.155952794205054063e-02,-3.460012927069276017e-02,-1.546573346869169717e-02,3.570194840431213379e-01
3.301610268693375705e-01,2.489857628710665516e-01,-9.442834248198000990e-03,1.434996777328879577e-02,-3.353047042409367743e-03,1.488791148533028484e-04,3.082277178764343262e-01
3.244197571865667928e-01,3.191784572904877715e-01,-3.421356048443977005e-02,-5.777386706515289438e-04,-2.860373794189880782e-03,-1.413538180957562293e-03,3.560858964920043945e-01
3.452449090041936897e-01,2.286207130972693347e-01,-6.238122419279013009e-03,8.764214358675127131e-03,2.541228753614745671e-03,-5.915697880507084705e-04,3.104850351810455322e-01
3.220105672706871092e-01,3.083164636052856955e-01,-3.090010897737369144e-02,-2.605675254663245791e-03,-6.382806958540095804e-03,-4.650017469857033701e-03,3.465662002563476562e-01
3.328397682235775257e-01,3.239843384406566051e-01,-3.116080041124999478e-02,-3.266622495458535586e-03,5.677707294277107176e-04,-1.357975921608111204e-03,3.597081601619720459e-01
3.631026762085564075e-01,2.161829495732032203e-01,-7.886701337817297874e-03,2.291777419638908308e-03,5.326268372138543610e-04,3.295939544752398797e-04,3.236198425292968750e-01
3.335438786616037876e-01,2.839502353409738000e-01,-2.251601330235161735e-02,6.326348925921341203e-03,-7.587175743655876284e-03,9.157694712766074538e-03,3.348495662212371826e-01
3.356330388460305736e-01,2.957794510220712048e-01,-2.933683224999455996e-02,5.697067016469070351e-04,-2.937059164503755021e-04,-7.816618788076696786e-03,3.470309674739837646e-01
3.308206457828297142e-01,3.244283651601131968e-01,-2.894847699024402643e-02,5.336012544762456069e-04,2.881468525082452330e-04,-2.545208294359986123e-04,3.566177785396575928e-01
3.330480915783264884e-01,3.213785545299111535e-01,-3.076671737556416208e-02,1.511471824079654901e-03,-6.506372719627802293e-04,-1.516444409460984038e-03,3.581436276435852051e-01
3.246330199715065090e-01,2.850883811332975415e-01,-1.878001601812520627e-02,5.479152436597978411e-03,7.313982844155316951e-03,-9.388056515134069390e-04,3.258363604545593262e-01
3.447760942844294019e-01,3.105768147355901232e-01,-3.244570458685652747e-02,-1.820475247963094720e-03,-9.671815773094527471e-04,-4.067998926034771187e-03,3.614243566989898682e-01
3.274060115772204349e-01,3.187446965587989456e-01,-3.024887325358252554e-02,-1.876073987369706198e-03,-6.947586312142001001e-03,-7.254405796690835059e-03,3.538467586040496826e-01
3.390162501167409692e-01,2.953255812072928532e-01,-3.003643818989898406e-02,4.689756792173296798e-04,-6.475813736859877988e-04,-7.216003946260833926e-03,3.494892418384552002e-01
3.366241077930877124e-01,2.991084415193260848e-01,-3.106822028539729663e-02,-3.375727677179429093e-03,-3.120525202825641994e-03,-2.340512430670960587e-03,3.505576848983764648e-01
3.297907497986614644e-01,3.247290546848433102e-01,-3.175980815627069132e-02,-4.508004601339297718e-04,5.265088672621357716e-04,-1.088990053509058913e-04,3.590485155582427979e-01
3.445343989078876179e-01,2.514428616251723203e-01,-1.807856865032086979e-02,8.741797985087958189e-03,8.276191980241360754e-03,-9.393881931789239276e-03,3.272575139999389648e-01
2.604366335067536675e-01,3.275989006081924115e-01,-9.584986756506375105e-03,-3.180852705014707016e-02,1.590394817576552648e-03,2.113914307383521572e-03,3.140287399291992188e-01
3.282928330794200322e-01,3.283314395723453405e-01,-2.635677698567517879e-02,1.846172820735769802e-03,-4.224088334331300466e-03,1.777346286122407628e-03,3.547721505165100098e-01
2.375159736816208067e-01,3.460633173907946003e-01,-2.781448063750047162e-02,-9.055810129909357131e-02,1.141382492539117638e-02,-6.503961124712909214e-03,3.689223825931549072e-01
3.536127953222656384e-01,2.351717439705605650e-01,-1.605597004915187975e-02,7.338616564516309629e-03,2.926050293296994682e-03,-1.368835660935596200e-02,3.280985951423645020e-01
3.293227028890390873e-01,3.267648787085954409e-01,-2.501724252091300227e-02,1.052438824262375743e-03,-3.990353259861983254e-04,-2.182466501916892690e-03,3.530935943126678467e-01
3.581228668135192361e-01,2.162225653667522451e-01,-6.206480563944599682e-03,3.467441821762803564e-03,2.226579859125062989e-03,7.373999989007903356e-04,3.181598484516143799e-01
4.922879650202932056e-01,1.190468893374396209e-01,-1.004858148308822030e-01,6.330341700365756108e-02,-5.649184628227357091e-03,1.304898365091645106e-02,5.311032533645629883e-01
3.416476067779357084e-01,2.741243603337800705e-01,-2.484600280644758130e-02,-3.538481512870852996e-03,-8.661351071199179658e-03,-2.979495659873661762e-05,3.382199704647064209e-01
3.283857242586784020e-01,3.267804263330789660e-01,-2.957705589031775495e-02,1.545575312973044820e-03,-1.144681116847180409e-03,1.866847839444827056e-03,3.571929931640625000e-01
3.282081352974548505e-01,3.283901401690816346e-01,-2.740573498433468425e-02,1.647006466325949981e-03,-4.337014813988425421e-03,-3.149083780060814557e-03,3.558374643325805664e-01
2.368178126630506863e-01,3.477372719122840961e-01,-3.312532355942682250e-02,-7.645796583969909077e-02,2.938132739017335418e-02,3.228704437396327093e-02,3.719798028469085693e-01
3.128443932459363808e-01,2.393380513216597505e-01,1.457429797103446112e-02,-1.236233596121701916e-01,1.151833888037511779e-02,2.336112551645921215e-02,3.468817472457885742e-01
3.945526317228378321e-01,1.255703618807905153e-01,-1.047458166047511852e-01,9.569303322953873203e-02,-1.594009530194627489e-02,1.747558459102889136e-02,4.652933478355407715e-01
1.806950792082064605e-01,3.650867773430938046e-01,-1.834165703346324339e-02,-3.918750088148124922e-02,3.174386632160801358e-02,1.054006470604782917e-03,3.434384465217590332e-01
3.250052694612444171e-01,2.908990708280751458e-01,-2.422441540681297134e-02,-3.906738090536920720e-03,-8.920022999711311670e-03,-8.119410712087330589e-03,3.342094719409942627e-01
3.024867518373716146e-01,3.025840715144312854e-01,-2.027396266703798688e-02,-9.962585439127003353e-03,-6.698805025618172898e-03,-5.122039364870470748e-03,3.236000537872314453e-01
3.195314172493768368e-01,3.078806066614060422e-01,-2.789438185171008722e-02,-4.082485442971701267e-03,-5.199983440264042273e-03,-2.629268388842610597e-03,3.419714868068695068e-01
3.273963429242557344e-01,3.269539007630269944e-01,3.923655618906785048e-04,5.674521421024843757e-04,-6.618304440058462744e-04,-5.447229510566888727e-03,3.269226551055908203e-01
3.027451794190108014e-01,3.015190040354906453e-01,-1.693208269819115874e-02,-1.565613124464989301e-03,-7.087617804237195986e-04,-3.710615192904488831e-03,3.191445469856262207e-01
3.232363045238050292e-01,2.637440801497358822e-01,-8.902441388207837925e-03,-8.706100349247229697e-03,-3.081331658185504450e-03,7.424496743243234366e-05,3.071672022342681885e-01
3.003325129285443484e-01,3.065665043978555437e-01,-1.679975910120790061e-02,-2.875143781222384235e-03,-5.718447003130707265e-04,-3.405531924243631985e-03,3.203893303871154785e-01
3.106379236824756140e-01,3.139071028768034011e-01,-2.512538638223793530e-02,1.226461852161662611e-04,-7.746907974084864344e-04,-4.084048377753707500e-03,3.374866545200347900e-01
2.976425245415056930e-01,3.147271655380585731e-01,-1.652145889913120280e-02,-2.455865638487221211e-03,-2.072131542263370334e-04,-4.118195968909669352e-03,3.231522440910339355e-01
2.906848642845513697e-01,3.259985284237958414e-01,-2.428765161376872372e-02,2.873034267079596291e-03,4.729340520390671156e-04,-7.355733432685211161e-03,3.343132138252258301e-01
3.060074233237685681e-01,3.295463695913949387e-01,-3.130839635997523240e-02,-2.153525255194363788e-03,-7.468499616609204639e-03,-5.770976841666742088e-03,3.500818014144897461e-01
2.919718194765767993e-01,3.101831605541437442e-01,-1.539623045706864368e-02,-2.734152579588655391e-03,-2.337259365894405871e-03,-5.825344928357584912e-03,3.170882761478424072e-01
3.132468355026127860e-01,2.965371024266262312e-01,-1.660765630579361107e-02,-1.792002153035449335e-03,-6.081795567742851946e-03,-1.012387197201350527e-03,3.220172226428985596e-01
2.978565117948526741e-01,3.144282464304944957e-01,-2.450914800315301401e-02,-3.610125168963701156e-03,1.418415139681990548e-04,-5.285602088923964034e-03,3.311485648155212402e-01
2.976080796316684651e-01,3.141526277927959576e-01,-1.768729121436296570e-02,-3.004267283837485335e-03,-1.206998580943665061e-03,-6.725116917570511492e-03,3.241426348686218262e-01
3.053211324619161671e-01,3.184909838167648832e-01,-2.619045750367485215e-02,-3.240572242492344504e-03,-5.616302957567666536e-04,-6.587285542702246872e-03,3.385291099548339844e-01
2.955224960378167176e-01,3.057009279952768166e-01,-1.543952430309544765e-02,-5.126046569585779138e-03,-2.928089387531996983e-03,-4.655475909705709264e-03,3.164421916007995605e-01
3.242717340978615859e-01,3.226420685077935890e-01,-3.520902576847084742e-02,-1.167021922683459875e-04,1.063435423719826097e-03,-7.806584407715845336e-04,3.586760461330413818e-01
3.223426429742629606e-01,3.214549632916532396e-01,-3.533321420263954571e-02,-6.977605321055948434e-05,7.852379123245189271e-04,-2.006885671710114912e-05,3.572354614734649658e-01
3.375471125712991571e-01,2.720128263860268625e-01,-1.877993424399229672e-02,5.015173871036373611e-03,6.206723484684307374e-03,3.720093192721917689e-04,3.287909924983978271e-01
3.183538645692962632e-01,3.160591641445326672e-01,-3.108488853453092449e-02,3.018609206593353758e-03,3.209116743361666198e-03,-5.765842182515530006e-04,3.483820855617523193e-01
3.241087370571861248e-01,3.250721193422369537e-01,-3.295098414279734600e-02,-5.671258207826886978e-04,1.597055976130913515e-03,-1.657848338086195068e-03,3.575659692287445068e-01
3.077363088459319496e-01,3.033319499524450569e-01,-1.706123522744631971e-02,2.521842482899537465e-03,3.134404839206228195e-04,-7.133952425011342137e-04,3.226503133773803711e-01
3.199812654355457253e-01,3.153085791685441008e-01,-3.177538275853777905e-02,-3.176012193524164334e-03,-5.617195369011883724e-03,-5.065172720620135342e-03,3.497324883937835693e-01
2.845984041483690108e-01,3.140482119990896104e-01,-1.556785067063945482e-02,-4.620337211557682365e-03,-2.873791943628222108e-03,-6.351912376463253289e-03,3.162542879581451416e-01
3.110166823744829889e-01,2.803660320079315316e-01,-1.182416141323380798e-02,-8.430286886540055286e-03,-4.852805969921470362e-03,-4.507627509301078035e-03,3.092170953750610352e-01
3.178093512692592992e-01,2.931507405510787589e-01,-2.455374476519517346e-02,-5.170174540881211818e-03,-9.871173508624847548e-03,-8.635898984308209084e-03,3.316241502761840820e-01
2.931650974673062904e-01,3.097382215794812765e-01,-1.174771593974477391e-02,-1.780075789814114864e-02,-8.639274854001446555e-03,-7.077743552986679072e-03,3.156337141990661621e-01
3.325549573784318813e-01,3.273143976753258300e-01,-3.040680196084019626e-02,-5.220990451916571184e-02,-2.247404481661079145e-02,-2.487447282495250378e-02,3.760527372360229492e-01
3.058806924121459936e-01,3.208209777517707639e-01,-3.235631477156331037e-02,-3.206892390372226981e-02,-2.284987787977770662e-02,-2.425996020961050312e-02,3.551029264926910400e-01
2.344821897429143487e-01,3.553604868097053338e-01,-1.735921586563490826e-02,7.322410265281275796e-03,-1.552767035722051221e-02,6.868978711494208578e-03,3.309131860733032227e-01
2.786184540708065427e-01,3.352247342615021219e-01,-2.822039848136650986e-02,4.148162449342260305e-02,-2.724849652679956283e-02,1.135351909541464782e-02,3.499995470046997070e-01
2.750395708447836984e-01,3.840686301662528113e-01,-2.537379249669699521e-02,3.282144803761096602e-02,-2.614659318726620524e-02,8.111095203335624837e-03,3.746589720249176025e-01
3.282976365510300587e-01,3.242648365187531523e-01,-3.268657102545766135e-02,-5.323618264488178767e-04,1.362703729092265776e-03,-1.006232418521090530e-03,3.589979708194732666e-01
2.696538832397217811e-01,3.539801464221709049e-01,-2.804546456350207051e-02,4.758433463724318774e-03,-1.349146122681197692e-02,4.331348928569692981e-03,3.485828042030334473e-01
3.205468706153878355e-01,2.540316718682579800e-01,-1.396329521835709686e-02,1.040019221890853274e-01,2.224170493048979041e-02,-6.014479294808931092e-02,3.726349174976348877e-01
3.525917241664067170e-01,1.957132620136894374e-01,-2.041295028865217076e-02,-8.320488779320373007e-02,3.938565065952265125e-03,3.660398080979421990e-03,3.550814390182495117e-01
4.962771343839744720e-01,9.390444550899834653e-02,-9.692522158795030540e-02,2.193359095247910881e-02,-4.457723688400032531e-03,2.800877227697683852e-02,5.281673073768615723e-01
3.097818975674673236e-01,2.702059257646783896e-01,-1.399586149168749460e-02,-6.114731456116154207e-02,9.122418187889532251e-03,1.607166008274256918e-04,3.241160213947296143e-01
4.006300307599503507e-01,1.758325197052686695e-01,-2.245901960056675972e-02,2.211559873498486484e-02,6.196317775694720059e-03,-2.726624317330680197e-02,3.718087375164031982e-01
3.369183661832328980e-01,2.979342413270750778e-01,-2.726970832750943985e-02,1.116550427413230901e-03,5.546664411175865686e-03,4.763238553626702467e-04,3.464850485324859619e-01
3.275478345364958299e-01,3.059364696249855520e-01,-2.705533552681721465e-02,1.224056696267933992e-03,5.902605644968031244e-03,-1.282436254677344831e-03,3.444719910621643066e-01
3.035751413019748823e-01,3.304922535993572996e-01,-2.228548867534654865e-02,3.755836662648626839e-02,3.129578040479946005e-02,-1.261462023655123867e-02,3.511815369129180908e-01
3.290297424190340436e-01,2.730360457381519890e-01,-1.524349549084871858e-02,-2.281504331676249483e-02,5.861873777546147343e-03,3.731002381752406786e-03,3.226277232170104980e-01
3.412471975688688985e-01,2.738718866978643307e-01,-1.634954661688159394e-02,-3.704487318609964164e-03,-7.202417497714831175e-03,-5.132817616939347937e-04,3.294226229190826416e-01
3.341703713070596216e-01,2.995131567612604462e-01,-2.955931860685701018e-02,3.339931476368971860e-05,3.903651916698595674e-03,-6.598727620028329438e-03,3.479524254798889160e-01
3.227752869347887410e-01,2.842734485261053656e-01,-1.674520601804774245e-02,-5.109378464951318255e-03,-6.281693168070011553e-03,-6.614058976943061521e-04,3.223079442977905273e-01
3.347227581092488968e-01,3.213546477164490600e-01,-2.568752375750751882e-02,6.370194648403673665e-03,1.114656958926489756e-02,-1.859168834735817205e-02,3.560726046562194824e-01
3.331173819984183937e-01,2.522387802224849152e-01,-1.414632861069184400e-02,1.108449976467949794e-02,9.975848161692238425e-03,-1.355468745745419708e-02,3.166473805904388428e-01
3.353491050177699329e-01,2.552015016074134501e-01,-1.437875654457493324e-02,2.417939141211976339e-02,9.362437672832856633e-03,-1.043285066905372260e-02,3.210090100765228271e-01
3.217522504153340623e-01,2.702538515770913086e-01,-2.806391307289388126e-02,6.866492630220794036e-02,1.875369558798338498e-02,-3.929264290358421008e-02,3.561459183692932129e-01
3.249588745778960730e-01,3.244559163248397216e-01,-3.405264082628559064e-02,6.909465667230282144e-04,-1.951126816427373265e-03,-1.911075262449199886e-03,3.587934970855712891e-01
3.397687045930606886e-01,2.736704363156671760e-01,-1.870607693697329266e-02,3.370519527895837059e-02,1.188529768338381434e-02,-1.836315742622146238e-02,3.376716077327728271e-01
3.089321012179697679e-01,3.028956924873177359e-01,-1.673462077530235570e-02,-6.791310030660894018e-04,-3.546147614194269590e-03,-6.843431524059498568e-04,3.227536380290985107e-01
3.320686199528528060e-01,2.863954401393519755e-01,-2.486294275132355791e-02,1.568671345424481681e-02,9.483262364480599463e-03,-3.546906531459150186e-04,3.379236161708831787e-01
3.181759255358986849e-01,3.061341357423489340e-01,-2.374668499718438075e-02,9.906788960782914738e-03,-8.618263994103151499e-03,7.298733061539514760e-03,3.370694220066070557e-01
2.575115334456231642e-01,2.830938319683216631e-01,-1.420653669772362071e-02,-7.525963503316626668e-02,1.283631711511180190e-02,1.050054480675633069e-02,3.150451779365539551e-01
3.228685758462025990e-01,2.754484261477952445e-01,-1.121625115914132165e-02,-5.349813844495968085e-03,-6.651258512325433983e-03,-5.047133672850033156e-03,3.135506212711334229e-01
3.191874625307645208e-01,3.070291080096268499e-01,-2.576001673027378258e-02,1.540702304159860352e-04,-6.953447041946511122e-03,-5.877820155971309182e-04,3.392473459243774414e-01
3.143867921200872440e-01,3.157302601316890334e-01,-2.906056706479462348e-02,-3.458183587128591278e-04,-1.480768279951936561e-03,-2.456605107048234586e-03,3.441574573516845703e-01
3.083436963825144650e-01,2.898253875570043769e-01,-1.183638854542923280e-02,2.182487300529467253e-02,-6.514194347343658237e-03,4.046572157064852460e-03,3.139019310474395752e-01
3.110745475484419931e-01,2.823220443005055591e-01,-1.183538046557497392e-02,1.541378179087795480e-02,-1.243484716880016066e-03,6.725866259613136160e-03,3.109118342399597168e-01
3.095159798509383720e-01,3.014000850995559033e-01,-1.665806706597927622e-02,8.379155284098805789e-04,-2.584794344646045277e-03,7.256745373476156677e-04,3.222295939922332764e-01
3.150710406444158229e-01,3.109680049222767195e-01,-2.499672544592138057e-02,1.997030554239491874e-03,-5.556024106785222737e-05,-7.338586362822182045e-04,3.380550146102905273e-01
3.226566418237513667e-01,3.245856618929029436e-01,-3.359930763993027036e-02,-6.084754726946000735e-04,3.217004102679140234e-03,-3.604366305492511403e-03,3.573239147663116455e-01
3.492711676820517974e-01,2.393038608510788257e-01,-2.264515071581554850e-02,-8.238441058614248691e-02,-7.228190522344155565e-03,-2.389025146748794542e-02,3.629689514636993408e-01
3.542608185416659117e-01,1.869242019233641472e-01,-3.221778851419362932e-02,-8.384933126639694534e-02,2.990317204062632826e-03,1.634569171368226159e-02,3.669001758098602295e-01
3.231172657368300838e-01,3.245177379229376990e-01,-3.506812427893399309e-02,-4.172759097408111585e-05,9.255484385184856253e-04,-1.114069972520734383e-03,3.588964641094207764e-01
3.091489169979104723e-01,3.095200993994176031e-01,-2.539983690720373777e-02,-1.325854851919707096e-03,6.946015030204352953e-04,-2.505415484586971989e-04,3.347448110580444336e-01
3.760608917247743044e-01,2.394973494638515943e-01,-2.664979752613488850e-02,8.535081164367651352e-03,-1.692664832842350961e-02,-2.754927850653445670e-02,3.594229519367218018e-01
3.554243101197029353e-01,2.184414944799002445e-01,-2.248501039835107407e-02,-3.771697395857959156e-02,-1.025987704852233430e-02,-2.299562011814114057e-02,3.405621349811553955e-01
2.875832607728560086e-01,3.082561577367305405e-01,-9.417599389655029185e-03,3.414255030297751008e-03,2.181740822696364855e-04,8.499461375756267503e-04,3.079188764095306396e-01
3.540450664323472330e-01,1.587135348154686265e-01,-1.741663474182764126e-02,-9.021028453630350330e-02,-6.071714454708311125e-04,5.618630634468744361e-03,3.578959703445434570e-01
3.318680411691863341e-01,3.209521287423833247e-01,-3.093598125143579014e-02,-7.978182506294210770e-05,3.985899077929385597e-04,-5.654074111702167733e-03,3.576059043407440186e-01
3.243245058173329087e-01,3.262479222749036234e-01,-2.940115073815155466e-02,-1.240870518396280800e-03,4.622770762284940903e-03,-3.874292496374249530e-03,3.548516035079956055e-01
3.275567423345511209e-01,3.273494086022729066e-01,-3.259288122629089290e-02,-2.292451001263177100e-03,2.586555742009234368e-03,-2.916161425264428286e-03,3.601311743259429932e-01
3.218201389282317471e-01,2.994775703960737556e-01,-2.495737116747240303e-02,1.037494869445703283e-03,6.828661304933309265e-03,-3.651802517465113293e-03,3.364358246326446533e-01
3.347349877102223648e-01,3.155302113337019598e-01,-2.999440691647231594e-02,1.707541872473541250e-03,3.016799343078311983e-03,-3.399137185751619807e-03,3.556157052516937256e-01
3.277370773776182578e-01,3.233615488083432243e-01,-7.919665849130536062e-03,9.631407397193898247e-04,-2.212620774875264859e-03,2.932516091541062086e-03,3.335553705692291260e-01
4.891420296834732562e-01,2.430433831118064270e-01,3.455599127656103220e-02,1.634774983525029077e-02,-5.522041189360163069e-03,-7.438472132736817510e-02,4.157312810420989990e-01
3.346134240574109575e-01,3.195891407531631367e-01,-3.170230481557384516e-02,4.449249172604309924e-04,2.163568342439120724e-03,-4.039352921788445447e-03,3.591279685497283936e-01
3.544558649323105159e-01,2.905033893101007791e-01,-3.007996736853033037e-02,-6.589651563542006651e-03,-3.900689393741569450e-03,-1.105010857148223773e-02,3.576422035694122314e-01
3.293779539526546785e-01,3.225512812282486097e-01,-3.132549268492748618e-02,-8.024585215304300958e-05,1.581990881646083745e-03,8.590723051520765714e-04,3.573526442050933838e-01
3.300634357852421097e-01,3.183365800531171574e-01,-3.203807636495251132e-02,1.214402791226669746e-03,3.854782183920672269e-03,-2.614262325015582165e-03,3.564803302288055420e-01
3.390647820748284857e-01,2.915453724208172392e-01,-2.751183343853719210e-02,1.133864134518658309e-04,5.207063476456787708e-03,6.037148545477916736e-04,3.453975617885589600e-01
3.385375017701902078e-01,3.097527376605787586e-01,-3.073110819473484634e-02,1.099444416174997607e-04,-6.383703093417024020e-04,1.604709340293164477e-03,3.557633161544799805e-01
3.341460315127211533e-01,2.980045602757459555e-01,-2.717305311829287806e-02,1.760107344158370977e-03,6.882751363170527825e-03,5.289361343650213123e-04,3.448932170867919922e-01
3.290166142863129028e-01,3.247831736347628895e-01,-3.260801090882350928e-02,1.277323758063714037e-04,1.188662586177310953e-03,-1.133378699777238749e-03,3.595379292964935303e-01
3.315235637216213949e-01,3.028480767363618820e-01,-2.288997100420978037e-02,-1.827529822181218552e-02,1.553238922256710425e-02,1.631101790163882320e-02,3.446623384952545166e-01
3.312999724677279101e-01,3.233873773356241155e-01,-3.137887215344031810e-02,-1.458494623888356191e-03,4.062378926704301356e-04,1.834776041729515011e-03,3.588116466999053955e-01
3.173295682787514727e-01,3.369243708305749152e-01,-1.564488605907349283e-02,-8.081313891099558416e-03,1.764662273245215171e-02,1.399504247808461971e-02,3.456851541996002197e-01
3.100245194173433805e-01,2.913836246773932048e-01,-1.416945166119001898e-02,2.792989882247249710e-03,5.036084072369669852e-03,-2.941602021183464030e-03,3.154859542846679688e-01
3.192989343441282601e-01,3.064438033684935281e-01,-2.831124365618201133e-02,5.027097759842178229e-03,-5.456894733645975028e-03,3.307068592940852047e-03,3.416540324687957764e-01
3.132370349441375712e-01,2.906869396762236657e-01,-2.028225652234177945e-02,9.032252748974848450e-03,-6.127551378224754645e-03,3.667679676959756125e-03,3.234508931636810303e-01
3.186453626045244736e-01,3.212119731162948466e-01,-3.144612864502147054e-02,-1.127983882444647890e-05,4.911211926767611183e-04,-2.693153287550990611e-03,3.514138162136077881e-01
3.114084590329601610e-01,3.126592758375930092e-01,-2.149489400920237547e-02,-2.630136218030073528e-03,-5.028911376686497590e-03,-5.213812468696927584e-03,3.337975144386291504e-01
4.915739406328920591e-01,3.914738137948743368e-01,5.260739703802513878e-02,-2.365855642349624921e-02,1.411984884311629374e-03,-8.920595682058679587e-02,4.293359220027923584e-01
3.298883827168069272e-01,3.254403080665433379e-01,-3.179322434336048775e-02,-8.611995144417496084e-04,1.929015709229248317e-03,-1.840588475875967961e-03,3.595109581947326660e-01
3.301749401214649215e-01,3.221699720004107537e-01,-3.433887157859202843e-02,2.570298245355010012e-04,-1.364878661803053689e-03,2.760075052904540521e-04,3.605863153934478760e-01
3.266757774649285961e-01,3.284471062555782139e-01,-2.084276025616804695e-02,1.184497656345756241e-03,2.959343887026783318e-03,-9.984316904048098559e-04,3.484556078910827637e-01
3.304574909911618397e-01,3.247975075444007320e-01,-3.212714375785952203e-02,-4.534002999628685250e-04,4.405388825987217307e-04,-6.767956850876719228e-04,3.597916066646575928e-01
3.323871965033738940e-01,3.182382923551001497e-01,-3.166273268476499370e-02,3.795793579749749181e-04,1.370872702601467650e-03,-2.270228777282317940e-03,3.572158515453338623e-01
3.378392298877034294e-01,3.142741268352194361e-01,-2.580936369645281392e-02,6.826963402159984913e-04,-8.153245262108926514e-04,-4.054990459378171640e-04,3.524628877639770508e-01
3.238612874733888813e-01,3.258013777444380699e-01,-3.426008239003500155e-02,1.794770681574675390e-03,-1.001027928801578870e-03,-1.774842228749663091e-03,3.591261506080627441e-01
3.263294813297744068e-01,3.169783367880432134e-01,-3.220683902718254887e-02,4.758776393882295069e-05,-4.814317818078388267e-03,1.065916175196086321e-04,3.540516793727874756e-01
3.132344885109777377e-01,3.071969823706289793e-01,-2.529789333103968363e-02,-1.379301312254891743e-03,-4.248401632952954546e-03,-7.717694811182721241e-04,3.356462121009826660e-01
3.299378806259745112e-01,3.261155526281706574e-01,-2.537013243052491096e-02,-1.491169760713370422e-03,1.902577406652468123e-03,-3.102793542201178010e-03,3.534780144691467285e-01
3.050488902878467634e-01,3.063449128760434848e-01,-1.994824892078078671e-02,-6.553470236987246275e-03,-5.512924634658007347e-03,-3.936803867157340729e-03,3.260560333728790283e-01
3.095513048418512825e-01,2.463313386249637027e-01,-1.859257675449763059e-02,-1.149730808158590245e-01,3.134951920585809376e-02,2.779341105046375174e-02,3.685812652111053467e-01
2.902056317316210055e-01,2.379713947457415268e-01,-2.837794938930571220e-02,-1.326466490325613479e-01,-8.397948188211451547e-04,-7.121240011926092961e-03,3.748634457588195801e-01
3.209622126859211777e-01,3.210462474452375758e-01,-3.349718741655513532e-02,-1.582655763052173237e-04,-1.530638672694338781e-03,-1.038811697436823082e-03,3.545159995555877686e-01
3.188615162951701776e-01,3.198815615097981846e-01,-3.249116016774603044e-02,-5.543954540623483290e-04,-7.118774524890080424e-04,-4.467981439300761776e-03,3.519523739814758301e-01
3.744625909509652351e-01,1.721928617756682545e-01,-2.433125718040929364e-02,-8.372795198328322752e-02,2.696310575871598697e-02,5.401721538146219553e-02,3.889105021953582764e-01
3.804452390549302732e-01,1.100416601295463592e-01,-9.855645686263200811e-02,-1.104680463803824619e-01,4.198176767679561577e-02,3.619271888065134224e-02,4.678286612033843994e-01
2.952103017508688199e-01,3.138250839495204114e-01,-1.883401529804437646e-02,1.785262051719155134e-03,4.816388980644950015e-04,-5.609870520443916569e-03,3.239149153232574463e-01
3.150612453034430382e-01,3.188234382606278672e-01,-3.111511290063218027e-02,1.099820894518612445e-03,2.952411412016060863e-03,-4.451164075662685611e-04,3.481163382530212402e-01
3.610877652610754995e-01,2.205029678642515534e-01,-1.544590958819996862e-02,-3.302113606541583202e-02,3.371575027051250048e-03,8.872015612832484868e-03,3.348853588104248047e-01
3.086763293514959150e-01,2.852201485435099659e-01,-9.320298096253953890e-03,-1.959762604273568992e-02,-1.669111451968126802e-03,-8.913353339611528731e-03,3.092118501663208008e-01
3.233017457671189532e-01,3.211888404035111444e-01,-3.576062727629308879e-02,2.625876388928306739e-04,1.691374354097945239e-03,-3.107390780765951506e-05,3.580228686332702637e-01
2.926284876556443093e-01,2.941050219131537968e-01,-1.219838984269341897e-02,-5.164658366585246629e-02,1.595741253947473987e-02,1.662612183732936275e-02,3.208847045898437500e-01
3.246220222171261049e-01,3.244814939247013252e-01,-3.295628053758761777e-02,-6.087868647124079552e-04,1.788037621578105309e-03,-1.880518916003552816e-03,3.575378656387329102e-01
3.208432386716019713e-01,3.186435119519744896e-01,-3.127235916317258613e-02,1.096004019496133906e-03,1.736478843221818337e-04,-4.436237540039032366e-04,3.510270118713378906e-01
2.709769063894049701e-01,3.073036006402499187e-01,-9.424950507077783923e-03,-1.228962003192193668e-02,-8.428033955467606432e-04,1.727515100233599304e-04,3.009754717350006104e-01
2.920424870485651692e-01,3.003886250463506102e-01,-8.802392515595031108e-03,-5.690114753087071459e-03,-6.330198649222388294e-04,-4.100048728419891696e-04,3.052655160427093506e-01
2.874370902075525369e-01,3.079112121317113537e-01,-8.665986115672236201e-03,-3.087373114442942563e-03,-8.949749386328872220e-04,1.136977184398218409e-04,3.069034218788146973e-01
3.036182283637502421e-01,2.443872498514027269e-01,-1.267690899707665797e-02,-9.519206536216204273e-02,-4.377115456088133405e-03,-1.367110720465008556e-03,3.347598016262054443e-01
3.040274202216677324e-01,3.053535575866399565e-01,-1.503444028008438238e-02,-5.599965126552221110e-03,-3.764308643916153101e-03,-4.678037361099110156e-03,3.200431168079376221e-01
3.243314326426734451e-01,2.573564391297701870e-01,-1.654401749660155962e-02,1.693097729065917711e-02,6.716874988838746410e-03,-4.272535934563817007e-03,3.144863843917846680e-01
3.186234965509412431e-01,3.196613277932571773e-01,-2.999110220255832293e-02,-5.575303667721038820e-04,-3.453128776967290172e-03,-4.425253521112547730e-03,3.492713570594787598e-01
3.257640806099544872e-01,3.260555205371448162e-01,-1.435530486489375313e-02,-1.571130403426378250e-03,1.510441648412508969e-03,3.466554754394635465e-03,3.403390944004058838e-01
3.732549726770109100e-01,1.638078094219277137e-01,-1.835586313344406140e-03,-1.270473924283000711e-01,-5.494364547145564812e-03,4.212530328388063017e-02,3.997958302497863770e-01
3.267354215430925413e-01,3.221242127287888835e-01,-3.452760000529037088e-02,-5.597053312906400714e-04,1.266558398830187502e-03,8.924395315215624116e-05,3.589876890182495117e-01
2.901384296365353554e-01,3.140200400748870413e-01,-1.734499957495952427e-02,-5.669701631194278349e-03,-7.818983793318909315e-04,-7.241544637349379802e-03,3.204920887947082520e-01
3.311874017773579482e-01,3.241190844806973170e-01,-2.898292712580974317e-02,-1.481573646097265884e-03,4.910550068522054421e-04,2.989318341239462662e-05,3.566989600658416748e-01
2.765600608469322985e-01,3.396686427570370648e-01,-2.603207889563874389e-02,4.293902190787733317e-03,9.048152707471147915e-03,-8.209723831403300739e-03,3.393287062644958496e-01
2.892871662569118651e-01,3.567822380591640918e-01,-3.218901280295879963e-02,7.942004650195464213e-03,1.584031645644252972e-02,-5.428029981697478530e-03,3.614290356636047363e-01
3.337584979007172103e-01,3.133060926102447241e-01,-3.089659699105726243e-02,2.608690927620992703e-04,2.872494319940098895e-03,8.234134903550439488e-04,3.549092113971710205e-01
3.299874758218742654e-01,3.226239743889000033e-01,-3.369182748681601169e-02,-3.954521588823349358e-04,9.843602715390688870e-04,7.500544053307959440e-04,3.600610494613647461e-01
3.300488691299847122e-01,2.482850239277429316e-01,-8.732189127701323050e-03,-1.453943141187828691e-02,1.199199275247292158e-03,4.518281564922877543e-04,3.072409629821777344e-01
3.202241744394737633e-01,3.199813586942074073e-01,-3.362192485091025640e-02,8.081107996535184367e-04,2.323638739737159814e-03,-1.769601335867793199e-03,3.537636995315551758e-01
3.240353345738055113e-01,3.215781903645172912e-01,-3.105437359163887301e-02,1.910091804383895042e-03,2.753870636780281558e-03,-3.890069451451883160e-03,3.539792597293853760e-01
3.186640179719879562e-01,3.328105998221401185e-01,-3.181187061795476279e-02,-8.902630325253234420e-04,3.353293820692705013e-03,1.567574073026513186e-03,3.578197658061981201e-01
3.182127929417499779e-01,3.352031278602968234e-01,-3.193662572467104166e-02,-2.497291971952646955e-04,3.657896793671940559e-03,1.153034675126870037e-03,3.590080142021179199e-01
3.236410889866109808e-01,3.307135415262763001e-01,-3.151238749205753642e-02,6.456504481380317831e-04,1.959787018062527329e-03,1.984860606894761625e-03,3.587762713432312012e-01
3.331138168257113952e-01,3.250573834961583142e-01,-2.106326286989845809e-02,-4.386446176756620199e-03,2.895486480614676162e-03,-9.278345056909795361e-04,3.503403663635253906e-01
3.173088806440959586e-01,3.197446300637633576e-01,-2.336190706096749614e-02,7.240071344342693949e-03,2.011191538508248691e-03,-1.915458121835502715e-03,3.421588838100433350e-01
3.266092941840369468e-01,3.197266035969965059e-01,-3.419148301896701714e-02,-5.649700326090876645e-04,-3.286265001880909510e-03,-2.387805601962812285e-03,3.574797213077545166e-01
3.338772174100828050e-01,3.139742796834755767e-01,-3.286333478963199273e-02,-1.406447183760333461e-03,-3.805783372024091303e-03,3.720954880584094633e-04,3.572748899459838867e-01
3.278102059028611959e-01,3.381542000351250854e-01,-2.676391167894864864e-02,-1.525154868099841930e-03,1.456010750635849255e-03,1.884543896763211674e-03,3.598909676074981689e-01
3.171083438345914662e-01,3.112331850582893966e-01,-2.565837315334165702e-02,-7.537265963793191113e-04,3.772675990283623840e-03,-5.631699114760122622e-04,3.399339318275451660e-01
3.280924889748048079e-01,3.254370613511140542e-01,-2.031421034257135938e-02,1.574745107615318791e-03,-1.190325787043341197e-03,-4.775915726529235362e-04,3.471044301986694336e-01
3.204266975912272164e-01,3.209924165823921371e-01,-3.366664604287292195e-02,-9.575038081603249945e-05,-1.371434670966178385e-03,-1.627980402432664241e-03,3.543957471847534180e-01
2.448937022970197608e-01,3.564194062797554907e-01,-1.787950984404182431e-02,-6.425540399008793091e-02,1.326768384580844472e-02,1.946557680906162852e-02,3.533338308334350586e-01
3.120907169102218881e-01,3.353760181777984961e-01,-3.124281790749414145e-02,-6.364648916796693343e-04,2.571090288732052857e-03,-1.487242540806424764e-03,3.555874526500701904e-01
3.294239721350550321e-01,3.266960893146130251e-01,-2.310920801541721525e-02,6.248936459877871968e-04,-2.216603164548458776e-03,-1.966163859538759117e-03,3.512163460254669189e-01
3.303382758827053678e-01,3.140367102399731492e-01,-3.178855799077243138e-02,-6.553315777160559743e-04,-2.596319034223180423e-03,6.241490610846185411e-04,3.542894721031188965e-01
3.266578446747367970e-01,3.170030237841516829e-01,-3.312327363926600987e-02,4.758260166950534150e-05,-4.527420232008125267e-03,1.066315822105722092e-04,3.551388084888458252e-01
3.232103446224969812e-01,3.161168663266967216e-01,-3.244508222483050153e-02,7.401476589692409635e-04,-4.535043837689802827e-03,-4.820777911799935082e-04,3.522531986236572266e-01
3.268269065821660657e-01,3.300292619576580266e-01,-2.298240014808849985e-02,1.369049543181044852e-03,6.167698298276027245e-03,3.999611270062787376e-03,3.516600131988525391e-01
3.254532182126851358e-01,3.305200542246479745e-01,-7.513380978177497393e-03,4.663729294116732193e-04,-4.700982479136168492e-03,2.556723944690400888e-04,3.356287479400634766e-01
3.334265957582761564e-01,3.410905405229143761e-01,-4.538756886246309019e-02,1.504477198191346010e-01,2.550102744041529701e-02,-3.070297994763524288e-02,4.681288301944732666e-01
3.209656037230601555e-01,3.188508820751249639e-01,-3.177540561889821702e-02,7.198485643226681680e-04,-2.592021029806828789e-03,-4.360555957106410519e-04,3.517200946807861328e-01
3.242645684322437716e-01,3.232271970939133987e-01,-3.514101554990808896e-02,2.199971390386533539e-04,-1.484925615904691184e-03,-5.689204665291827927e-04,3.588987886905670166e-01
4.777504063267166146e-01,2.933468998107191528e-01,3.628976764358618490e-02,-7.411705638307618249e-02,9.517148908401149021e-03,-7.171047927376823783e-02,4.238681197166442871e-01
4.969062680906578544e-01,1.151236446790007417e-01,-8.951992532152514004e-02,-5.831326216330899592e-02,-3.446149844534012949e-03,7.850523132191141590e-03,5.255360603332519531e-01
3.239582908352870438e-01,3.316878246270834052e-01,-3.186452959233090909e-02,2.628637243797724270e-04,2.139728835081317060e-03,-7.301646880808302124e-04,3.597714602947235107e-01
3.238708968698822965e-01,3.350088906087010932e-01,-3.148048248584250919e-02,-6.829545572840264281e-05,1.854552017024089366e-03,1.145933069818825655e-03,3.610690236091613770e-01
3.246716376791931591e-01,3.252825186509694100e-01,-3.507362867030675013e-02,-9.395846013361753343e-04,1.372614146212285417e-03,-1.399269342708598990e-03,3.600707650184631348e-01
3.269347282812034017e-01,3.239973519540005897e-01,-3.397143002455518812e-02,-2.175939418454388001e-04,1.598607162127083396e-03,-1.012417489281462833e-03,3.594616055488586426e-01
3.266258637132389842e-01,3.266233198054813158e-01,-1.570274068019725244e-02,-3.238368226447965021e-04,-4.917262993272800316e-03,2.936128133531797687e-03,3.424714803695678711e-01
3.252464433231654350e-01,3.270642712658216045e-01,-3.129608376892942245e-02,-1.662835782496368577e-03,2.424119672691091819e-03,-2.342225329112440288e-03,3.575141727924346924e-01
3.140198187171293620e-01,3.353510365158557938e-01,-3.222561083522457182e-02,-9.200150937555987094e-04,-6.909983450034394049e-04,-1.918422587878656051e-04,3.573945164680480957e-01
3.920174517954897464e-01,2.961041928443746141e-01,-1.322250153378434767e-02,-1.307217729929313448e-03,1.293156482066201360e-02,-1.139716796568964775e-02,3.680317699909210205e-01
3.191017369713062268e-01,3.197444718019601395e-01,-3.212704030970905955e-02,1.059204617869249692e-03,4.374587737825519199e-04,-4.451277425922216778e-03,3.516407310962677002e-01
3.223644377974936859e-01,3.242833372781077084e-01,-3.514787419126466639e-02,-1.117928775678923403e-04,4.268141631865291868e-05,-8.594554231948411125e-04,3.584787547588348389e-01
2.646165993994962773e-01,3.506761683314189026e-01,-2.540503172415720101e-02,9.008840568523383482e-03,9.002899198952633852e-03,-4.462315406106375643e-03,3.420881628990173340e-01
3.233682684441657185e-01,3.326095983430666925e-01,-3.299296685288885533e-02,-4.502907413414709587e-04,-6.149545651483864436e-04,7.898531491252044825e-05,3.610730469226837158e-01
3.182563021343438603e-01,3.327816191467295459e-01,-3.272754198622815358e-02,-4.773068400625817128e-04,2.607040573809597198e-03,2.523366678016785922e-03,3.585233092308044434e-01
3.259391868089646094e-01,3.300889129450981785e-01,-3.190274795687852993e-02,2.087710741318863500e-04,1.261606868516974888e-03,-5.669927803555786534e-04,3.599428832530975342e-01
3.258126818620149523e-01,3.298371073627643368e-01,-1.677765963774105473e-02,1.180222321340200411e-03,-1.986000086234106579e-03,4.017158291243685259e-04,3.446440994739532471e-01
3.095184311438322067e-01,3.330495425232692375e-01,-3.255626324721602738e-02,-2.204860647185967470e-03,-1.888229377380488570e-03,-2.997001229723969453e-03,3.545002639293670654e-01
2.979587074070812469e-01,3.438037990134302779e-01,-3.082139243623352454e-02,5.334061609772828769e-04,6.887253574939147804e-03,2.741339528435566327e-03,3.541705608367919922e-01
3.094632854612595629e-01,3.262669802544561626e-01,-3.104827195782280946e-02,1.103906600827392163e-03,3.304275065065537340e-03,-6.394617442787499384e-03,3.494444489479064941e-01
3.322404421368383987e-01,3.099408301481242356e-01,-3.119353459593973699e-02,-1.824481723010997619e-03,2.696242298857867443e-03,1.632657688394765702e-03,3.528695106506347656e-01
3.597622450398233473e-01,3.453661491923771809e-01,4.070019232494018202e-02,-5.487620627649592367e-03,1.926757361054895479e-02,-7.167573122784715554e-03,3.142813742160797119e-01
3.231228267853272773e-01,3.320151789263260378e-01,-3.319119384285679208e-02,1.360617264142823337e-04,-9.127616483692094478e-04,8.474665878530785595e-04,3.608489036560058594e-01
2.987660321983980349e-01,3.334017690023904912e-01,-3.137592020519272551e-02,-2.267488583602800213e-04,6.872334983204038059e-03,1.952147137183555311e-03,3.489718139171600342e-01
2.331480262715719121e-01,4.235132976126662618e-01,1.502852505667087724e-02,4.761607925447453732e-02,5.673002952727639742e-02,1.168419448154303306e-02,3.770991265773773193e-01
3.179641797004877368e-01,3.618139455042008734e-01,-3.623785934215950633e-02,4.088224463145735676e-02,-8.235854517211555620e-03,1.654290082689467353e-02,3.859431743621826172e-01
3.185381964534880206e-01,3.297670064760703790e-01,-3.049181082574772828e-02,1.093171482425935124e-03,2.438355787160377368e-03,-1.257282179292091347e-03,3.548145890235900879e-01
2.940579337900574020e-01,3.441414944956162625e-01,-3.169308030519790709e-02,-4.612291536072870256e-03,2.351156499785120660e-02,1.294253203095599132e-03,3.558989763259887695e-01
4.620187654337377103e-01,2.980395496485247486e-01,3.335953374091124579e-02,-6.213563624643794747e-02,4.003015070810872315e-04,4.557440906683873222e-02,3.976943492889404297e-01
3.251209521736782015e-01,3.304795990623404789e-01,-3.150910069863446794e-02,7.741142881611991211e-04,1.310068135083047782e-03,3.073139940090405817e-04,3.593493998050689697e-01
3.258739535738864879e-01,3.268567212790429166e-01,-8.269434169201311802e-03,-4.303323786229041464e-04,5.077532791624710280e-03,-7.131355353035506890e-03,3.349800407886505127e-01
3.321263901298662224e-01,3.277782459799921666e-01,-2.220654718603534694e-02,-4.437472852677504535e-05,-1.969272779946860778e-03,4.799226550977972634e-03,3.522936105728149414e-01
3.186528251603179540e-01,3.306631061870226596e-01,-3.157561068416175898e-02,4.192037774553246648e-04,3.084173153387649319e-03,1.364637845255632989e-03,3.564339876174926758e-01
3.266758032056016336e-01,3.222142700581757113e-01,-3.435169972308801944e-02,2.459918101388656976e-04,1.574525904600161718e-03,3.166668508438257945e-05,3.588281571865081787e-01
3.273417024680205789e-01,3.268801980535189777e-01,7.969019567404117543e-03,5.921811620000153997e-04,7.672651124015385910e-05,-1.069244112449945459e-02,3.196807503700256348e-01
3.294781314859485111e-01,3.277112851229150858e-01,7.070435234446947881e-03,-1.468944718562144487e-03,-5.265685944445641468e-03,3.057212227546122259e-03,3.217108845710754395e-01
3.274970558099984941e-01,3.272552382089096712e-01,-3.129093288272710716e-03,-1.866074726309742502e-03,-2.955713252736279825e-03,-4.807979004206089889e-03,3.306656479835510254e-01
3.306269459923376064e-01,3.145215643380676607e-01,-2.406240182662708338e-02,-6.790162684367878317e-04,-1.199826960770370246e-04,2.551410623013616440e-03,3.469473421573638916e-01
3.267211917539717403e-01,3.190473323859136512e-01,-3.290036695207265716e-02,-8.892325583804510346e-04,2.757093433589020547e-03,9.557386871853490191e-04,3.558859229087829590e-01
3.250745934864794906e-01,3.229601950683686495e-01,-3.364411757064966757e-02,2.627845197065080093e-05,7.904400155338487310e-04,1.430798330145540678e-04,3.576689064502716064e-01
3.074690333544443099e-01,3.204313052075035695e-01,-2.090539291486495643e-02,-9.552725038935241941e-03,9.490232273233280974e-03,1.122004745255494873e-02,3.364162445068359375e-01
3.266534809894848235e-01,3.270880053522315922e-01,1.141775502590627878e-02,4.683229066520723950e-04,4.514828266322069676e-03,-2.341933277494771988e-03,3.155772387981414795e-01
2.851682931250011377e-01,3.197224999706085313e-01,-2.044858227188262045e-02,2.209510678532037795e-02,-1.684956524011858164e-02,1.759928400113028313e-02,3.292438685894012451e-01
2.940615741430820385e-01,3.065815213971080366e-01,-1.344817672991732715e-02,4.710287538113935857e-03,-3.298411976463995823e-03,4.796114762325057873e-03,3.142247796058654785e-01
3.240507042640554114e-01,3.267425546911897349e-01,-3.411089722442842143e-02,6.163034868393325308e-04,7.248104758519757643e-04,1.453998625739653201e-03,3.595276772975921631e-01
3.223839201271065935e-01,3.227001982315216289e-01,-3.523045380926506653e-02,4.267242442535769615e-04,1.190428948966669996e-04,8.649135422144107717e-04,3.577765822410583496e-01
3.038209325065092115e-01,3.130910151356149362e-01,-2.304949214330886953e-02,2.886247919446492671e-03,-3.411455968782282997e-03,5.216118692624484299e-03,3.318159878253936768e-01
3.252371376486086763e-01,3.266408602834945385e-01,-3.240761265994557272e-02,1.072755021595568322e-03,1.303467979715732363e-03,1.580257691331531577e-03,3.583710491657257080e-01
3.658693486788343052e-01,3.348419567405992447e-01,1.460486692422094390e-02,1.340841626337989922e-01,-5.170853904360950271e-02,3.123095801659622403e-02,4.222958087921142578e-01
3.227191890908254202e-01,3.223313146145170838e-01,-3.495686081022564284e-02,8.864870184556936095e-04,9.039858363325795239e-04,1.100462872629205327e-04,3.574890494346618652e-01
3.325103392985924722e-01,3.353553940809497202e-01,8.362975636245800759e-03,-1.649007864645560088e-03,9.504323709694591574e-03,-1.559291057710780358e-03,3.260188102722167969e-01
3.224813220986864071e-01,3.214658024433081351e-01,-3.323808822052720657e-02,1.052392227853967115e-03,1.783917045634612073e-03,2.490545867142428867e-03,3.552570343017578125e-01
3.200184305194996304e-01,3.182962227450238379e-01,-3.250611816160134393e-02,-1.159716077185747683e-03,4.731821591645641104e-03,5.513463794303265436e-04,3.517691195011138916e-01
3.235694334539013228e-01,3.246408532767881550e-01,-3.528709838054877590e-02,4.958415634229919756e-04,2.424459559061773340e-04,9.546303545473642724e-04,3.593985140323638916e-01
3.236671613397047453e-01,3.268005694302325570e-01,-2.680259295627276939e-02,9.817237902959555142e-04,3.143546444145113149e-04,3.174025633077889180e-03,3.520943522453308105e-01
3.386003958547237347e-01,3.097786714712679190e-01,-3.154048046657018101e-02,-1.420793417496105234e-03,-2.243094906338569464e-03,1.192801821036328178e-03,3.566402792930603027e-01
3.278964387734337738e-01,3.250826978918387455e-01,-3.237383567911938931e-02,-2.000759423073372734e-03,2.271568208895691828e-03,-2.356150930890644080e-03,3.589331805706024170e-01
3.266532414610026636e-01,3.291146232740206901e-01,-2.674801814267899203e-02,2.094193404043028471e-03,2.945568556625303980e-03,2.730189488170694893e-03,3.547251224517822266e-01
3.232681592679413352e-01,3.284388700384928694e-01,-3.240060202494979280e-02,1.175922557274796656e-03,-5.055156096414291367e-04,-1.067353506024296844e-04,3.582890033721923828e-01
3.252298883278654240e-01,3.263112569467991886e-01,-3.204599551544737301e-02,-5.582746758468491765e-04,2.501752658638910654e-03,3.961720292834754881e-03,3.579111099243164062e-01
3.152598380627080754e-01,3.323861596405012775e-01,-2.559381921690634387e-02,-2.747063549370181833e-03,4.749178698797134474e-03,4.312021449104036053e-04,3.498613536357879639e-01
3.381617025886812233e-01,1.655659166678911109e-01,-3.608813535440802411e-02,1.377296404023438114e-01,-8.210531402735357295e-03,1.481821573613224113e-02,4.037668108940124512e-01
3.235517888819440246e-01,3.304292032488488906e-01,-3.119924023655445966e-02,2.811165058492966131e-03,1.546829060517533692e-03,2.077780794655761161e-04,3.582825362682342529e-01
3.244604398506406584e-01,3.224589457086396993e-01,-3.477245126492209404e-02,-5.554890423287761657e-04,1.497855473423002600e-03,-2.536101980561892124e-04,3.582472801208496094e-01
2.492852074813705632e-01,4.179477839908418701e-01,2.611918334474450099e-02,4.106713947043937052e-02,-6.524468740671834910e-02,7.116060356628538253e-02,3.858905732631683350e-01
3.302460047112409369e-01,3.232640638691798851e-01,-3.313713076936905533e-02,4.260122365767405380e-04,-9.726607786927218228e-04,2.342006004605261911e-04,3.599478900432586670e-01
3.278894530724579814e-01,3.226785346047321701e-01,-3.261163272133146829e-02,-2.100589843277335801e-04,8.413902393623064711e-04,-5.043367992890850906e-04,3.579283058643341064e-01
4.412504352650605810e-01,4.410999532188340511e-01,5.789309429327127443e-02,6.700998098924677848e-02,5.666259544299994538e-02,-7.667482287223877091e-02,4.331803619861602783e-01
3.327191785679942670e-01,3.154306649983550370e-01,-3.229015280105201890e-02,-1.645208663987285551e-05,-2.883835088949334834e-03,1.400225504752546568e-03,3.567226827144622803e-01
3.283968539959801758e-01,3.273778012729852138e-01,-2.729973863291906833e-02,-8.460234156753073265e-04,2.388308253996633622e-06,-1.990001827754884958e-03,3.552079200744628906e-01
3.222494218649575859e-01,3.246741515627228347e-01,-3.365820442050793115e-02,-1.343875059313973347e-04,1.212522211619302976e-03,3.464287787956828613e-04,3.571329116821289062e-01
2.958223227900734775e-01,3.320166621407449892e-01,-2.652006399899198286e-02,7.496263625819654317e-03,-1.392711793683087604e-02,4.817505386029309784e-03,3.430768251419067383e-01
3.023960426058045492e-01,3.338746193434323217e-01,-3.169925133961576380e-02,2.063606468699764277e-03,-6.049805846701482477e-03,4.981330551284363604e-03,3.511757850646972656e-01
3.190773720137861091e-01,3.279042826214777495e-01,-3.379630957140089542e-02,8.234745573248501531e-04,-1.676880731223757710e-03,2.688606453897698575e-03,3.574138879776000977e-01
3.284786879304683604e-01,3.258480657328308716e-01,-2.941338764125109306e-02,5.825411589780648755e-04,-2.668436834687706264e-03,4.951967335197955157e-03,3.567185401916503906e-01
2.650789243608390189e-01,3.480673848030251261e-01,-2.362911425245983743e-02,1.587556496562304159e-02,-1.245783365091155184e-02,1.224401292669959410e-02,3.403972685337066650e-01
3.240219626225355198e-01,3.307912844771092598e-01,-3.006395028465608243e-02,-2.274375743442283351e-03,2.091311459003356802e-03,-9.993030471326562816e-04,3.575628697872161865e-01
3.057570763658805091e-01,3.332966896332735240e-01,-3.118365586954419122e-02,-3.902022359330647484e-03,4.135168263916512606e-03,4.583671974203571212e-03,3.517480790615081787e-01
3.381456645899713065e-01,3.061297423806684792e-01,1.290114679413570387e-02,2.326354996413241075e-02,9.235669662085941797e-03,7.883640912301601369e-03,3.137864470481872559e-01
3.297630897495212321e-01,3.271464252884255797e-01,-2.722682903170828284e-02,-2.432820923260083762e-04,3.768501795171129518e-04,-2.041911657429493644e-03,3.557072281837463379e-01
3.264178689710386938e-01,3.277163497232561951e-01,-2.934571224748447338e-02,-1.832635803987437383e-03,-3.925849450740113988e-03,2.074729008331241496e-03,3.565116822719573975e-01
3.031022823042959224e-01,3.283839783248405642e-01,-3.197259487408049550e-02,1.383678924766404026e-03,-6.106288670387809148e-03,5.075125928627160186e-03,3.486839234828948975e-01
3.273150613706217738e-01,3.271643656290409430e-01,-1.571282050522954110e-02,-3.276624183239281937e-03,2.856911631739725375e-03,-2.272744927115974856e-03,3.430577814579010010e-01
3.229493333981549030e-01,3.290299098270923484e-01,-3.060905116876766474e-02,-1.117273815094914748e-03,8.481225662258233718e-04,1.169415785566189827e-03,3.566515743732452393e-01
3.233076315166456549e-01,3.225555881766057897e-01,-3.399131481185471704e-02,-3.933525236613949786e-04,-1.913232166516001028e-03,1.862690643853767789e-03,3.569541275501251221e-01
3.134984045566637234e-01,3.325832518519298286e-01,-3.043743214268146424e-02,1.853812692804477236e-03,-3.799501439248016265e-03,2.219589885158181671e-03,3.539610803127288818e-01
3.228161739813240061e-01,3.277760206503668727e-01,-3.355922023511576091e-02,5.364982715801618410e-04,-1.409058890567341585e-03,2.677983921152464301e-03,3.589204847812652588e-01
3.253951140609188108e-01,3.287427458128807656e-01,-2.544234263932315665e-02,1.417961832795130517e-03,2.683485210403856007e-03,2.063475824515175264e-03,3.525805175304412842e-01
3.258676548327726907e-01,3.296391956798994105e-01,-2.095142187073095741e-02,9.321274621319746573e-04,3.326037189017678249e-03,1.089410791999239703e-03,3.487765789031982422e-01
3.185620491504699281e-01,3.307719731065129620e-01,-3.083233345412050852e-02,2.899243306362381343e-03,-3.703602532014091051e-03,6.711902653599358289e-03,3.559397459030151367e-01
3.185338317802693942e-01,3.278367561979029787e-01,-3.148306247398360846e-02,2.171881086211408744e-03,-4.251123860683641426e-03,4.994861650319803829e-03,3.549616336822509766e-01
3.245245339110079397e-01,3.290612344025209968e-01,-2.097735115851517840e-02,-2.107337721956664082e-03,4.003582009109700620e-04,-2.912963212861785240e-03,3.478488624095916748e-01
2.848322971394171010e-01,3.083046288167983762e-01,-9.284083398003545318e-03,4.575161707519999517e-03,-7.010977592164737869e-04,2.614480713741913417e-03,3.066655695438385010e-01
3.227324038045024102e-01,3.204344540764044735e-01,4.991241261050186062e-02,-1.962047926745986125e-03,-1.018520574059536728e-02,-1.427321158547031682e-03,2.722828984260559082e-01
3.300996109614497964e-01,3.362605272628749753e-01,-2.584722437042191734e-03,-8.813997209657135901e-03,-6.739430433128971304e-03,3.597254637211768301e-04,3.363572061061859131e-01
3.270757469181700960e-01,3.283445514983517888e-01,1.214472680281158956e-02,-5.299791668418779621e-04,-8.690264792803449254e-03,-3.210130983911170261e-03,3.159763514995574951e-01
3.142891024142576151e-01,3.223729356513254096e-01,-3.142888584803371632e-02,-2.340342783645306336e-04,4.436204301441588286e-04,4.344973856806134960e-03,3.499119877815246582e-01
3.071476390066616990e-01,2.877796718532295017e-01,-9.076904420522280414e-03,5.242418936375806311e-03,-2.692062919205204415e-03,1.560100642305833549e-04,3.071688711643218994e-01
3.294034752101830943e-01,3.232258068933220319e-01,4.004999900959671510e-02,-1.428203774910142849e-03,-3.060664727846173355e-03,3.383980012238301492e-03,2.864343523979187012e-01
3.306046498912804665e-01,3.242510662844306779e-01,-3.301056435761745567e-02,7.739140195109021209e-04,3.196845650466976206e-04,-6.351673488452533149e-04,3.604850172996520996e-01
3.213333114385584777e-01,3.243647043336384539e-01,4.196371919799216088e-02,-2.454135186537850354e-03,2.659410107699196855e-03,-2.406549163052106987e-03,2.809984087944030762e-01
3.243402302100461543e-01,3.245918915408269045e-01,-3.465217380547319648e-02,6.535118445637206740e-04,1.036129178731423324e-03,9.920371471622835280e-04,3.591286838054656982e-01
3.361742174658987059e-01,3.371296297527083263e-01,4.803329649283705205e-03,-4.745848193012005677e-04,-7.193040455684248519e-03,3.667740508674407780e-03,3.321451842784881592e-01
3.149660610324129251e-01,3.372210430492423860e-01,-2.541185462177009136e-02,1.649429294007335404e-03,8.880880809431711612e-03,-3.940665336823124393e-03,3.524469733238220215e-01
3.327929638204423779e-01,3.432169840473269229e-01,-4.412241019266405218e-03,1.851287058879749672e-03,9.097794756886131654e-04,-4.291461368790723541e-03,3.426354527473449707e-01
3.269505701709691237e-01,3.168103352409790130e-01,-1.700890244298070009e-02,2.067309190624064610e-02,-1.184128507285347499e-02,6.142103195560467445e-03,3.416709899902343750e-01
3.253556121081781494e-01,3.254026338413548713e-01,-3.453774641567655679e-02,1.628968772609421488e-03,7.635313780774258307e-04,7.710241123326592701e-04,3.599328398704528809e-01
1.296819372668298609e-01,4.057172345533449076e-01,-8.175233457059194464e-02,-7.282165882957683523e-02,-5.301034604121105179e-03,-1.757977486230582684e-02,4.429262876510620117e-01
3.232528870096578744e-01,3.181558140255441591e-01,-3.150231122918775717e-02,-3.122878043780455220e-04,2.640351831824784817e-03,3.588473974749379746e-04,3.522649705410003662e-01
3.224885015190341320e-01,3.242266001098832451e-01,-3.511576532524962602e-02,6.785471707744960461e-04,1.235201290870388384e-04,1.688986671763486810e-03,3.584904074668884277e-01
3.281610696942761085e-01,3.233567418405628446e-01,-3.418685237923652087e-02,1.697972353683181116e-03,1.313553451546476715e-03,-2.751836738934640056e-04,3.599893152713775635e-01
3.268336983194023437e-01,3.254572158298772444e-01,-8.357665659314394979e-03,1.370120534666945111e-03,2.113337033310134019e-03,4.777277913017219900e-03,3.346360027790069580e-01
4.802127877956788304e-02,4.212219387120040293e-01,-2.732670704469677969e-02,6.654864957501107833e-03,2.076194201239427856e-02,4.087486871332220335e-03,4.177943468093872070e-01
2.639351065374992977e-01,3.523298559110502604e-01,-1.822158601823772872e-02,1.143219263643845129e-02,7.137560329576024282e-04,5.866279965423133215e-03,3.359524607658386230e-01
3.500567656133261596e-01,2.830907711578830033e-01,-2.593402216729112642e-02,3.200249757913319407e-03,4.874977346139127733e-03,1.556409492386473092e-03,3.475402295589447021e-01
3.483386027104096172e-01,2.746419754834569238e-01,-3.179170440628317773e-02,-2.092760304249214297e-03,-5.032763362544075483e-03,-9.536422534830253997e-03,3.496825397014617920e-01
3.276424980777763452e-01,3.267647893896619693e-01,-2.493962576538408249e-02,-2.893445930487032174e-03,3.241276167978153055e-03,-3.451932520201735858e-03,3.522752225399017334e-01
2.673760682732549965e-01,3.520192385321830875e-01,-2.680506003167656970e-02,5.908444064426744864e-03,-1.375276650104568545e-02,3.488410132051880230e-03,3.454215824604034424e-01
3.275492114636377461e-01,3.276353288405812747e-01,-2.488990632971446737e-02,-2.480008866848413922e-03,3.239273864890043243e-03,-3.426936539659063748e-03,3.526029586791992188e-01
2.932103626084369141e-01,3.438680749702688333e-01,-3.070687650570033678e-02,-2.480641013453533435e-03,-2.032775278897818935e-02,-6.656781205634015527e-03,3.539611995220184326e-01
2.857939840325471326e-01,3.281341804932853545e-01,-2.443086420344176002e-02,9.377767734518855855e-03,1.390438020837191091e-02,-9.137898654626700271e-03,3.350543975830078125e-01
3.223664248724107395e-01,3.268651030142751823e-01,-3.260260209761950412e-02,2.440625563379931660e-04,-5.680608918656904639e-04,-1.806695799810532346e-03,3.572549223899841309e-01
3.279463131989441838e-01,3.226026035736138664e-01,-3.399950748050309390e-02,-1.096907662033491009e-03,1.250649971918327882e-03,4.155847125204634044e-04,3.593160510063171387e-01
3.306780417877948630e-01,3.232135619966157725e-01,-3.133235484887739175e-02,-8.514198301974051399e-04,1.410422812239395035e-03,5.548608016064097330e-04,3.583491146564483643e-01
2.616386755927371799e-01,3.504794812397714621e-01,-2.658047953990166912e-02,9.361226599700284493e-04,-1.426089387413599467e-02,4.285903401830260667e-03,3.423980772495269775e-01
2.906407111855074388e-01,3.384609020713243432e-01,4.918535258180423142e-03,2.677925024612443777e-02,1.201659938769404114e-02,-9.202340259714343607e-03,3.169003725051879883e-01
2.356258284701671923e-01,3.550490869942745653e-01,-1.824571603239311113e-02,6.602348646846025598e-03,-1.338856652251206938e-02,7.798337278072697484e-03,3.314842581748962402e-01
2.285568530907902129e-01,3.589664109125081382e-01,-1.416801315850915732e-02,3.191928041526655613e-04,-1.003941563994226183e-02,-9.852293323623329772e-04,3.284527957439422607e-01
3.082508893915633652e-01,3.606788283242985393e-01,-5.333617355601794063e-02,-1.795841245360597915e-01,-1.486262328189165427e-02,-4.634524163312287413e-03,4.999296665191650391e-01
2.977655982969061310e-01,3.008474450834685010e-01,-1.213923750646969668e-02,9.136078883743231974e-03,-1.709060723639497592e-03,2.760802931830560331e-03,3.119096159934997559e-01
2.320820568599678557e-01,3.593958980631050126e-01,-1.632261533656620411e-02,-3.879314666131158072e-03,-1.289980818979291795e-02,-4.762209018380412530e-03,3.318907022476196289e-01
2.177225458149080750e-01,3.600263591470880264e-01,-7.688258485730570246e-03,5.210953836873604209e-03,7.322260113632073509e-04,-1.979732078619359393e-03,3.212974369525909424e-01
3.076266494274673136e-01,2.927890979320662557e-01,-9.677670978830488213e-03,2.028266734755135997e-02,2.150498191653941234e-03,-6.546438960255087812e-04,3.121593892574310303e-01
3.290753757478871444e-01,3.266370414800507382e-01,-3.025747534553380191e-02,-1.652553323182172611e-03,-1.682189500225286165e-04,-2.001371042742486252e-03,3.581482470035552979e-01
2.928905172288718273e-01,3.013547998663681504e-01,-9.069979348661494356e-03,5.358816877906395770e-03,6.912926813101753310e-05,4.165791658810174018e-04,3.064218461513519287e-01
3.399186865459428719e-01,3.535760102276034877e-01,1.475095302095985605e-02,2.406051210423450909e-02,2.668965625611328940e-03,1.100225731036665912e-02,3.353844583034515381e-01
3.260483885389334202e-01,3.272634740478251869e-01,4.386749834152492422e-03,-2.272890514428203661e-03,3.350047408653477905e-03,-2.862676492442900022e-03,3.223853111267089844e-01
2.606747205267900824e-01,2.711239948977444136e-01,-1.348537914732800269e-02,8.477543138661683408e-02,-9.562644070814167382e-03,9.239096672091738627e-03,3.165892660617828369e-01
3.179770043461268014e-01,3.396477018684830318e-01,-1.123770913753793788e-02,-4.177010168685941181e-03,3.470101828075493767e-03,4.597884929798237534e-03,3.407904803752899170e-01
3.134790134932743944e-01,2.382936510448990519e-01,-1.659783080698654101e-02,7.516988809124335036e-02,8.487477880049986226e-03,-4.848990166057240078e-03,3.271464407444000244e-01
2.976992490224669718e-01,2.957937830614003616e-01,-1.210777928583475771e-02,8.202560977902830994e-03,-1.775128010153099664e-03,8.083634793092853892e-04,3.092037439346313477e-01
3.248238008533785304e-01,3.273235845817296097e-01,-3.153619841026630843e-02,2.004574085010076955e-03,-2.065601583438794481e-03,-2.066710118191791672e-03,3.576691150665283203e-01
3.094584203684415113e-01,2.886916245962035665e-01,-1.712923929603218931e-02,7.015859878528178314e-03,-8.239683357645298176e-03,4.360713043244461400e-03,3.173593580722808838e-01
3.267453992671320306e-01,3.245243530271212373e-01,2.508529332333850337e-02,1.554027789404968185e-03,3.866189823449815190e-03,1.822187510634798403e-03,3.006589412689208984e-01
2.971396916950703737e-01,3.016128143024340291e-01,-8.879069109925169512e-03,8.934391893913802216e-03,-1.112754126819033064e-04,5.397186701290165260e-04,3.086692988872528076e-01
3.279354756697256401e-01,3.241379987176280508e-01,-3.147786988674577957e-02,2.209023212350330959e-03,9.258466728911984075e-04,2.736507645269254481e-04,3.575541079044342041e-01
3.282334918423854830e-01,3.312191628308742697e-01,-7.235002176037619304e-03,-1.295701821546714483e-02,6.451018149483569823e-03,1.754738114596241308e-02,3.392666280269622803e-01
3.271567478016944586e-01,3.258758617675854286e-01,8.327506733332629141e-03,4.091357975840318384e-04,3.278651619005424657e-03,3.608731942931466419e-03,3.183035552501678467e-01
3.242453975108905428e-01,3.234036608329052265e-01,-3.335313781413581924e-02,3.563141355179424530e-04,2.066302813542868384e-03,1.620329545051545994e-03,3.572078943252563477e-01
3.308452289726566686e-01,3.238716332582954882e-01,-2.925744710453614950e-02,3.755295175677687424e-04,1.307675148316191256e-04,-1.302877779209959822e-03,3.566748201847076416e-01
3.324576184570913195e-01,3.184206402500094346e-01,-3.175535931474507412e-02,-8.118767064233477736e-04,1.100307861535623896e-03,3.467981894662318810e-03,3.574596047401428223e-01
1.172501686164134221e-01,4.034328682973212787e-01,-2.897150344274598832e-02,-6.247381609623929577e-02,-1.253234019596925633e-03,2.120292318956087420e-03,3.960486948490142822e-01
3.270638229255585783e-01,3.262199258480589781e-01,-2.249302583100740160e-02,2.120351599453620343e-03,3.390184387541935688e-03,3.338337843866374596e-03,3.492522239685058594e-01
1.994375882855343451e-01,3.657200440562135557e-01,-1.894082091059745565e-02,-4.776953407845943578e-02,2.170597124969467304e-03,4.582824152869200904e-03,3.443463444709777832e-01
3.024620439450760312e-01,3.809164258060716013e-01,3.497332587005064219e-02,4.108428860631649360e-02,3.352748427286929983e-02,-5.235181490664650612e-04,3.273038566112518311e-01
3.272521752069131318e-01,3.252629751541483705e-01,-3.235628406791651868e-02,1.606075766666208594e-03,2.044610192902908581e-03,1.844560581892137419e-03,3.586604893207550049e-01
3.464678905655500518e-01,3.237283827394338287e-01,1.133630985528549795e-02,6.671430626730643840e-03,9.995898950987408202e-03,-1.187233939490986261e-02,3.256772458553314209e-01
1.872489337700746492e-01,3.346798267065466126e-01,-2.283023844077239350e-02,-1.216057471133699108e-01,7.013559175592026101e-03,-5.128563479233289382e-03,3.760739862918853760e-01
1.936883461405182749e-01,3.119341002486207826e-01,-2.617948801388453317e-02,-1.406517047101949469e-01,3.349857848595864246e-02,2.274163864277770064e-02,3.906265199184417725e-01
2.190700516895790484e-01,3.439982678711994701e-01,-1.467966324493263919e-02,-8.387331270615204504e-02,3.181558541444842649e-03,-5.090504019851111242e-03,3.473618030548095703e-01
2.442164375523624975e-01,3.271206501992146576e-01,-1.397249783424178715e-02,2.921967470885546841e-02,1.152480081301175859e-02,-1.336873922608395292e-02,3.137444555759429932e-01
3.323472554310227256e-01,3.226192945590555805e-01,-3.233898606536322884e-02,-3.903092134486995583e-05,-4.963189170291258537e-04,-7.745560650507114829e-04,3.599244058132171631e-01
1.849212755137994990e-01,3.594616922118468172e-01,-1.290117337027027467e-02,5.149097904094020184e-02,9.643323995099872814e-03,-4.411936904774481014e-03,3.352870941162109375e-01
2.145934982549796699e-01,3.470293581903905467e-01,-9.552553148589770782e-03,1.946817542658106637e-02,-4.517735509052442063e-04,-4.186713712494861614e-03,3.140953779220581055e-01
2.430602714862699631e-01,3.438724827369498138e-01,-9.651781366469630585e-03,6.593897179703106168e-03,8.357626228124321460e-03,-2.769698408034712480e-03,3.160157501697540283e-01
3.307822151712788150e-01,3.170291688943877029e-01,-3.167222271845154813e-02,-1.092477327597947368e-03,2.206839655224638371e-03,2.260640573590261184e-03,3.558244407176971436e-01
2.756887233358469858e-01,3.248191409300792420e-01,-1.089171201131863831e-02,6.823776162392559616e-03,1.635389362655502790e-02,-6.462854146735638045e-03,3.157361447811126709e-01
2.446460326809757335e-01,3.117089359144615823e-01,-1.048797127596801104e-02,3.577948186671993380e-02,2.461032534214610632e-03,-3.742766350856448297e-03,3.010008931159973145e-01
2.624020936073944710e-01,3.427264002261800613e-01,-1.432299611702367304e-02,5.109890674085295140e-03,4.291290198822929162e-03,-6.778446410073783561e-03,3.248506486415863037e-01
3.289472336562354604e-01,3.286328310411521514e-01,-2.555339692062386092e-02,6.328463786517066203e-04,-1.437214259947537697e-03,-4.195087811079900413e-03,3.544284701347351074e-01
4.671175606252790935e-01,3.968820554082049812e-01,4.198528206323337564e-02,3.359258104157297059e-02,-4.823011419797548077e-02,7.019064193180009348e-02,4.253881573677062988e-01
3.243924156950337978e-01,3.229272246374262356e-01,-3.318231627954043583e-02,4.982454016913068695e-04,1.819288803453226544e-03,1.766659667196075149e-03,3.568724691867828369e-01
3.047535529882923200e-01,3.195755740110000631e-01,-2.698838469209455249e-02,3.125193356376231111e-03,7.870935019488671492e-07,5.811812585187912418e-03,3.395881652832031250e-01
3.144782438896668308e-01,3.131600969254495492e-01,-2.551064799587463017e-02,-2.173640104929251173e-03,-3.740876606112736574e-03,5.866819613080646477e-04,3.394159972667694092e-01
3.267702106205326862e-01,3.174245530926470549e-01,-3.198751822842121895e-02,-5.920080416936314178e-05,-4.246094464134709569e-03,-3.157233796858887535e-04,3.542541861534118652e-01
3.078597676104035674e-01,3.198065123294833723e-01,-3.074910607771955129e-02,3.959313024159108636e-03,-3.170176057124622117e-03,4.427926843158635356e-03,3.449347317218780518e-01
3.372209839797772335e-01,2.964620774596291586e-01,-2.595279957430920992e-02,-2.024196272209870338e-03,-4.705536065418104708e-03,5.453819319340320621e-04,3.447223901748657227e-01
3.130026623725806201e-01,3.200421477536150028e-01,-3.052310467817176409e-02,2.098763597687799878e-03,-3.140964196795501331e-03,4.513076957281142790e-03,3.472487032413482666e-01
3.120305762136572070e-01,3.036064027007730481e-01,-2.670866054832679581e-02,3.298468233332597747e-03,-5.745536780622441560e-03,4.789090359240926256e-03,3.349061310291290283e-01
3.266036659348154347e-01,3.270048839521788597e-01,-1.040060189250979761e-02,-1.985686075423605257e-03,2.163393658937641864e-03,-3.572410810850730565e-03,3.373001813888549805e-01
3.531610314952858820e-01,3.198295381708264884e-01,3.745602100183773042e-02,1.141852242516442836e-02,2.291968041681239493e-02,-1.197218754340228543e-02,3.043925166130065918e-01
3.187792093297155960e-01,3.174450005468976155e-01,-3.276510760117487542e-02,3.733966641364945549e-03,-3.161853976288519271e-03,2.915224912796231076e-03,3.510177731513977051e-01
3.864414463088876595e-01,2.713253623402002712e-01,4.185171075880109171e-02,-3.204978899748658211e-02,-3.694327534398909874e-02,-5.088416565600615421e-02,3.275203108787536621e-01
3.313161973852377651e-01,3.235059132929801184e-01,-2.327713821736973610e-02,1.991645148043740682e-03,-8.015492113164976451e-04,-3.184064506783292753e-03,3.508164882659912109e-01
3.287301138375582910e-01,3.262460327150973893e-01,-2.823330300771878520e-02,2.109495650177126841e-03,-1.304754088207859620e-03,-1.478050640982842825e-03,3.557630479335784912e-01
2.951850800836970934e-01,3.161255253529270948e-01,-1.726252458688301572e-02,9.546497411753708529e-03,-6.613456651364897111e-03,6.764073642625874176e-03,3.242632746696472168e-01
1.611907785273568594e-01,5.098579092692170356e-01,-4.390428261818690725e-02,-1.615504863488838663e-02,1.980916097781949825e-02,2.334377002271083605e-04,4.869322180747985840e-01
3.599666872202516021e-01,3.173668604727930553e-01,-1.959069447119637930e-02,-3.400059678797719837e-02,-1.187463871725712335e-02,-2.652840561005493161e-02,3.683909475803375244e-01
3.648422200824208428e-01,1.943069789868701880e-01,-1.082147417256565380e-02,-7.735753149430599218e-02,-2.918702600191204477e-02,-5.980002173081766514e-02,3.706452846527099609e-01
3.171149992033490128e-01,3.327267243625532944e-01,-3.094966631243942223e-02,-5.367567437482280662e-05,3.155778982569526752e-03,-4.914645055361015289e-04,3.561702370643615723e-01
2.518577531110534617e-01,3.519518167859371771e-01,-1.744535887155687637e-02,3.549523044036446105e-03,1.285032730609597749e-04,-4.859467201293039655e-03,3.310699760913848877e-01
3.654568253802607525e-01,2.496225133414095576e-01,-3.206196254263987688e-02,-6.065324231662875057e-04,9.663493167763459804e-03,-3.778865910341133727e-02,3.604964017868041992e-01
3.870686016122771855e-01,2.829463539218791124e-01,-4.194702034200675778e-02,-7.413344315867344964e-03,-9.844635159078298295e-03,-1.544492692676235554e-02,3.890977203845977783e-01
3.844380840403506250e-01,3.291300023549773579e-01,-2.726906453853927825e-03,-1.443901816687529968e-02,-3.161099713234663718e-03,-1.362657006492658425e-02,3.643553853034973145e-01
3.261453579305761963e-01,3.282668085373315892e-01,-3.013329000910364153e-02,1.744187738276528794e-03,2.216280220362062091e-03,1.801466885527836165e-04,3.573776185512542725e-01
3.267980585144202865e-01,3.241873473295016073e-01,-2.767517619597426037e-02,6.760167240833267043e-04,3.108854602862468584e-03,6.811693727704319911e-06,3.532181084156036377e-01
3.298379465092782237e-01,3.277149183395023924e-01,-1.893893799094092945e-02,2.980245995672440619e-03,-5.137818253771370179e-04,3.528112177691851165e-03,3.478133678436279297e-01
3.285350227541679047e-01,3.255982079561077769e-01,-7.418930376382637526e-03,1.099962683167686386e-03,-1.690127694184843325e-03,-3.203941376810666951e-03,3.345594704151153564e-01
3.256542313067167793e-01,3.300743070264458567e-01,-4.221883237490869911e-03,1.063880832573399493e-02,-1.403604383686762012e-02,1.093205803602921578e-02,3.340433835983276367e-01
3.365976624062250178e-01,3.302503282828462838e-01,-3.239899865424111791e-03,2.918555473553821784e-03,3.635716708253902349e-03,2.407418584799197060e-03,3.368313908576965332e-01
3.301241635844379130e-01,3.340309615632905960e-01,-3.990920161418498591e-03,-3.594476861970818948e-02,4.025159473767146029e-02,2.895919406923780706e-02,3.524287641048431396e-01
3.278320456473609035e-01,3.269373870923981684e-01,-4.914341911465835988e-04,3.703544322660560183e-03,3.340074296338639993e-03,3.799477440817990506e-03,3.280568420886993408e-01
3.307923189532452346e-01,3.178012827764069015e-01,-3.002782353216901234e-02,-1.361406359627392870e-03,7.215382104331914855e-03,5.505170979058660735e-03,3.548593819141387939e-01
3.276869994667009345e-01,3.276951690621579538e-01,1.376699578195222928e-03,1.858260884069262275e-03,-3.784952722498157070e-03,-4.532696277865819016e-04,3.263970315456390381e-01
3.274181235191687689e-01,3.242086475663647493e-01,-6.941641124828257237e-04,2.058530421878605222e-03,3.521383206862050384e-03,4.812382910066914654e-03,3.267021477222442627e-01
2.553561635622637604e-01,3.393743032204559196e-01,-1.777577385644402153e-02,-2.794186491621813984e-02,3.010516898923145529e-02,1.503186340241015329e-02,3.321855068206787109e-01
3.271912772418402726e-01,3.280559447868409695e-01,-1.196098139043799691e-02,-3.237241488507283313e-03,-2.927264939996840516e-03,4.041705150202464653e-03,3.397416770458221436e-01
3.280796985903081109e-01,3.249254283400134224e-01,-3.272966949943972859e-02,1.722604369842645634e-04,1.422921290580498417e-03,2.808266432661191071e-04,3.592515289783477783e-01
3.278126458163770907e-01,3.266590368511642084e-01,-2.690219311664468482e-02,9.953212661820303765e-04,1.802130497656407931e-03,2.249701843704982832e-03,3.541788160800933838e-01
3.394708001755887272e-01,3.130769308866510059e-01,-2.471343519170443592e-02,2.144341692161533513e-04,2.613007253211687493e-04,3.318891585768037836e-03,3.517782688140869141e-01
3.258423025791107874e-01,3.274934309461097204e-01,-1.730156963804491133e-02,1.920275470932082326e-03,-2.328064586410713739e-03,1.347699681964603874e-03,3.440200388431549072e-01
3.284106149055676105e-01,3.196379989922533138e-01,-3.103483081314886705e-02,-2.328007555876799445e-03,1.762242942747678336e-03,3.510831533954887965e-03,3.552284538745880127e-01
3.420712728642689715e-01,2.835901885353262486e-01,-2.628472855717553514e-02,-4.411710988828409889e-03,3.771497181668737736e-03,1.601356000053036355e-02,3.441434204578399658e-01
3.243844271484694897e-01,3.178186568996921313e-01,-3.227152557723156345e-02,9.221684517717978254e-04,3.981735138640373622e-03,-1.912139193270214377e-04,3.534898459911346436e-01
3.305205880036207189e-01,3.177691670973120663e-01,-2.588716410421973424e-02,-5.068809869078355797e-03,1.744615301964270353e-03,2.046929494125890227e-03,3.503471910953521729e-01
3.333858852842790377e-01,3.222312681579234672e-01,-2.802420376118669454e-02,2.396009958183989343e-03,-2.085204044959768432e-05,-9.850165447776813160e-04,3.559921681880950928e-01
3.278600897793792490e-01,3.283094013169784442e-01,-1.278445997853080995e-02,1.060783784747721921e-03,-5.435550075383356605e-04,5.730160172837386531e-03,3.410201370716094971e-01
3.336786620034613016e-01,3.046059488282448213e-01,-3.163658898497773153e-02,-1.724443534762413154e-03,6.717020098778696789e-03,9.312506174362944131e-03,3.522558510303497314e-01
3.281904343756801290e-01,3.270017418624989736e-01,-2.172757292952709474e-02,6.848463141415353983e-04,-7.044592988058241039e-04,-4.472654967246236617e-03,3.494152128696441650e-01
2.069312002781077964e-01,3.595189744736370652e-01,-9.100493295598283128e-03,3.897570627604940441e-02,-6.918403628501120992e-03,4.627257595754744220e-03,3.281488418579101562e-01
3.304731542473345329e-01,3.231900247517480174e-01,-2.862932687190794523e-02,-4.926824714721106304e-04,-2.800020312563233828e-04,1.211726980539317051e-03,3.555244207382202148e-01
3.522605918915076018e-01,2.534648624308133424e-01,1.731011645554753065e-02,-6.825657902491617801e-02,3.596137938229353875e-02,3.615842926624678044e-02,3.326252996921539307e-01
3.446830103882159158e-01,2.994441303980523994e-01,-2.876101890910012782e-02,-4.718648797023899770e-03,-2.644683920662643448e-03,-5.496104259614524243e-03,3.532579839229583740e-01
3.291512324109612808e-01,3.273082801382733997e-01,-2.794005119125367309e-02,-1.838258413146407269e-02,1.131400380412776567e-02,1.809199569767283231e-02,3.594985604286193848e-01
3.288862322247004810e-01,3.268835055645913368e-01,-2.023760607366686948e-02,1.748237404067197812e-03,1.288358879797895642e-03,5.719047304694734393e-03,3.482879996299743652e-01
3.291282499878436241e-01,3.260122186848443682e-01,-2.173065350909478277e-02,6.574426285642080052e-04,-7.881906385668542613e-04,-4.385267852969149290e-03,3.493984043598175049e-01
3.173119718614850759e-01,3.584974138706242819e-01,-2.156519446291418896e-02,-3.803266118499530613e-02,2.469698231948111444e-02,3.263686228003102874e-02,3.739726543426513672e-01
2.826866387209003850e-01,3.149007221574506854e-01,-1.661165560620009307e-02,-1.217808222595452572e-02,4.242348818267487574e-03,1.159994061098688217e-02,3.180588483810424805e-01
3.274787551407969399e-01,3.275630072929000547e-01,1.182928101233132745e-03,-8.136218868194818304e-04,1.623219923456813152e-04,-4.128621367320606944e-03,3.264194726943969727e-01
2.833477424268681100e-01,3.033883625667301298e-01,-1.483903395825070248e-02,-1.190788243671990834e-02,2.941637348325310420e-03,5.331340785388951307e-03,3.095633089542388916e-01
3.180920826747308250e-01,3.224356504458987249e-01,6.226131434268922238e-02,-7.951177488637588969e-04,2.924278134554535473e-04,1.026495390819080538e-03,2.580402791500091553e-01
3.050876224739932918e-01,2.999295845786188464e-01,-1.276839020279890713e-02,-7.106798331729223192e-03,3.713592286282152433e-03,3.081997611725098476e-03,3.156594932079315186e-01
3.270239917520491590e-01,3.280607597236490092e-01,-2.030149118850266277e-02,1.483594366903780550e-03,-2.445791095067360345e-03,2.103926555782949064e-03,3.478994071483612061e-01
3.191292043740507900e-01,3.815598992986933835e-01,-6.617228645626666017e-03,-1.035989208955321542e-03,-6.119881113382034422e-03,-9.715703791228808180e-04,3.611970543861389160e-01
3.255950735281649688e-01,3.264849501252683472e-01,2.382051694636708183e-02,-2.596279813001354012e-04,1.717748524228759855e-03,-3.367730138702242169e-03,3.022917509078979492e-01
3.057260220557825314e-01,3.040851733044319660e-01,-1.997067292129781069e-02,-4.678809253025375745e-03,3.997144058180103314e-03,2.468596951571244529e-03,3.250823020935058594e-01
3.288536279580897004e-01,3.179451130596829822e-01,-3.356532012687468702e-02,6.195743830926366208e-04,-3.558991993751174296e-03,-3.529660027820278202e-03,3.571968078613281250e-01
3.089393913121423751e-01,3.138233496616700258e-01,-2.185759242283186188e-02,-8.714964540081426153e-03,4.166977956858430691e-03,5.156576120205298361e-03,3.338050544261932373e-01
3.266783363884888658e-01,3.289451500396611827e-01,6.356761691453938212e-04,2.383265980386955942e-03,1.341151495466873537e-03,4.409258746619039264e-03,3.273053467273712158e-01
4.473926772876324898e-01,3.063250849553192379e-01,1.917922882445155519e-02,7.862336661284896611e-02,-3.441789907753665251e-02,5.633443506634282921e-02,4.177070260047912598e-01
3.331600401651539922e-01,3.267785489802769172e-01,-2.275596728583570427e-02,4.703382100495869314e-03,-1.361359070117039265e-03,7.850727857099202428e-03,3.531323969364166260e-01
2.916332175246602043e-01,3.110612595952618742e-01,-1.413826970730808208e-02,-3.275623708585351061e-03,2.786477884265879581e-03,5.117108393249822015e-03,3.161458969116210938e-01
2.051203846888968174e-01,3.544444844928511529e-01,-9.427443905526633472e-03,-4.075393423216551458e-02,5.451356290301287433e-03,7.886519319271680095e-03,3.249984681606292725e-01
1.257804509656498815e-01,4.479037255022575992e-01,-4.696075106596120374e-02,-1.429116513544802514e-01,1.861509545342032029e-02,-2.003221197602181314e-02,5.027539730072021484e-01
1.975989586827034683e-01,3.820849646650297249e-01,-1.788202658399934419e-02,-4.659364450861282897e-02,3.323377485064643588e-02,1.794536478750249908e-02,3.619569540023803711e-01
2.651966914100420958e-01,3.495819070073964419e-01,-2.614028325560990851e-02,4.900355590051819806e-04,-1.671383972317325509e-02,-3.296542497311991463e-03,3.427156507968902588e-01
3.463553064665623737e-01,3.779384800597597738e-01,5.668286304534322917e-02,3.435574597730801233e-02,6.032238511170737866e-02,-3.893665546527189970e-03,3.294832408428192139e-01
1.177739994468786078e-01,4.169430865888105742e-01,-3.558223031200730135e-02,-1.190985093624147562e-01,-1.073839201927227240e-02,-1.466694022727947286e-03,4.492276310920715332e-01
3.475277234766485090e-01,3.033143071214594588e-01,-1.868660100260835510e-02,1.258200537395101105e-02,-8.333137502549964326e-03,1.129953677763953154e-02,3.477678298950195312e-01
3.185290301985642669e-01,3.303073408062856542e-01,-3.149580566598000897e-02,-7.653145424440843453e-04,-3.430535152566907640e-03,-3.369129107060915042e-03,3.561599850654602051e-01
1.402930467200360354e-01,4.041866708856889367e-01,-3.502391345913585807e-02,-1.082353455123538921e-01,7.703458295776247078e-03,-6.518178296678652471e-03,4.267213046550750732e-01
3.959242027602331016e-01,1.954621433733834124e-01,1.617322080488420299e-02,-3.681972619894135351e-02,1.406262209942503970e-02,5.423383589006957467e-02,3.489333093166351318e-01
3.449075962301019205e-01,2.382924803940764114e-01,7.319893041525221689e-03,-8.638710984578673591e-02,2.341393357954204765e-02,2.480493590015912797e-02,3.394392132759094238e-01
3.214674638807277773e-01,3.241713123202601965e-01,3.457402011504129291e-02,1.318082907400741719e-03,5.145478250346576356e-04,3.818309053233353255e-03,2.883411645889282227e-01
3.276595893703303508e-01,3.354559910238188447e-01,-2.831454302781824528e-02,1.181689223687098448e-03,2.257508481024030154e-03,-6.955990322229706896e-04,3.599647283554077148e-01
3.239194456978208292e-01,3.334245706646183915e-01,-3.177165033911535930e-02,6.345478835554176945e-04,1.459388007167308678e-03,-1.132063234907249895e-03,3.605535030364990234e-01
3.299813055531571893e-01,3.250336174750796947e-01,-3.104103086844378634e-02,4.408103707908027819e-05,3.923812308642517840e-04,1.165962547346535705e-03,3.585804402828216553e-01
3.302409134049587580e-01,3.219278486008834705e-01,-3.379284740708440871e-02,-5.880164417590790947e-05,-1.283441984707572175e-03,-3.045522125884113189e-04,3.599565029144287109e-01
3.275057076970840919e-01,3.281959752234626104e-01,-2.502649393700659419e-02,3.180265211499673180e-04,4.936817669914340609e-04,2.288471169084839701e-03,3.529015779495239258e-01
3.287459711200129142e-01,3.251237390476608979e-01,1.510638722667489997e-03,-3.309644534444727230e-04,7.379660242195040624e-03,2.810329599478038256e-03,3.257271349430084229e-01
3.241447237451762220e-01,3.283255318545164059e-01,-3.363043303126181383e-02,-5.785818674278723648e-04,2.051489922136541153e-04,-3.175682590682565778e-03,3.599273860454559326e-01
3.219181806487442232e-01,3.243331234686253062e-01,-2.992425044087823616e-02,3.295848600454212921e-03,-6.066625843915089689e-03,5.622422003964309099e-03,3.533927500247955322e-01
3.227161071634461753e-01,3.289132023763254864e-01,-3.295667031556279158e-02,-1.431752998505280577e-04,-2.367178631085470125e-04,-1.207214693120611327e-03,3.588178753852844238e-01
2.982824950725685431e-01,3.396745038559796370e-01,-3.108287730668155002e-02,-1.379066629625688581e-03,6.612470237955593230e-03,2.327033020011138632e-03,3.521094620227813721e-01
3.321410264468874773e-01,3.112496874804990821e-01,-2.445659758044149701e-02,2.099737892499204273e-03,4.159379200830652830e-03,-2.507510654744064208e-03,3.467455804347991943e-01
3.296133386089651340e-01,3.273256509681416460e-01,-2.678319808760076803e-02,-9.631834657963826360e-04,8.390195298632997052e-04,-2.105024097584220263e-03,3.552838265895843506e-01
3.894164066812567104e-01,3.070356970204659031e-01,3.587498128747113046e-02,-2.799476358786813501e-02,2.238639410551348033e-02,-8.468569051996607810e-02,3.578025996685028076e-01
3.305146299168236768e-01,3.260937955788446585e-01,-2.331536772542233682e-02,2.328473355490306637e-03,3.657773001409210002e-03,-5.643819519211040053e-03,3.518564403057098389e-01
3.291512401773724061e-01,3.231156488498684864e-01,-3.406367370579690967e-02,6.238414420768071062e-04,-1.609169224515481864e-03,6.842025003922703368e-04,3.602494001388549805e-01
3.075901736537044462e-01,3.341457376888551378e-01,-2.481681127954910027e-02,2.368675798682847583e-02,8.439658030895826751e-03,-1.015708275435519246e-02,3.496186733245849609e-01
3.242774843448655853e-01,3.243272940550742112e-01,-3.055060372039816730e-02,3.582189493150598313e-06,5.328467083690897454e-04,1.163233464910504254e-03,3.548599183559417725e-01
3.412843645641038259e-01,3.318098315690061195e-01,-1.495361798424865718e-02,3.090071365604909418e-03,-7.801272848152524713e-04,4.140569535292325416e-03,3.517129123210906982e-01
3.285905878472396013e-01,3.219631393918697126e-01,-2.057279142708728914e-02,4.462495406550565482e-04,1.293712136545362070e-03,9.180469780843114038e-04,3.459090590476989746e-01
3.319979036345032108e-01,3.186678487938526816e-01,-3.311442673952361138e-02,2.645546863578423212e-04,2.356455124796728862e-03,-1.825238151920669915e-03,3.586705923080444336e-01
2.848076634970358456e-01,3.397943326235142170e-01,-2.907303635620725468e-02,-2.310545288568407671e-03,1.200873562418896482e-03,-5.559242239247056810e-05,3.447089195251464844e-01
3.104786631981088507e-01,2.985970504891136135e-01,-1.755312443325779403e-02,-4.478306663819090448e-03,-6.489952533765917103e-03,-1.109227483314632196e-03,3.225502967834472656e-01
3.326209347000053107e-01,2.994175529960728666e-01,-2.949949232107343389e-02,5.161997103486434682e-04,3.392669406963084392e-03,-6.410149123531412065e-03,3.469418585300445557e-01
3.226011597347260840e-01,3.204449583254677103e-01,5.613715356362924958e-02,2.167746655838729154e-03,-2.101016978271343528e-03,-2.213015616767623553e-03,2.654716670513153076e-01
3.320723660511941122e-01,3.159195545738567867e-01,-3.274105641426605651e-02,2.717475224814200796e-04,2.364559138704385235e-03,8.646412830140442519e-04,3.570381104946136475e-01
3.275692774960770604e-01,3.169951374143240574e-01,-3.035103805382732833e-02,2.255816360060577171e-03,4.711402404939755290e-03,-3.595478341375298297e-03,3.529230952262878418e-01
3.278824069389411067e-01,3.050849815147462785e-01,-3.055346590346597058e-02,2.228086946978982859e-03,7.496890643684189261e-03,-4.371071331398465772e-03,3.479445278644561768e-01
3.150979304820163973e-01,3.082966072627675302e-01,-2.407751400518184925e-02,-3.557242090670103760e-03,-1.198179018234105125e-04,-9.202746221047737336e-04,3.358868062496185303e-01
3.280128981581986181e-01,3.272133927147922172e-01,-2.489746878104476258e-02,2.948797823441574005e-03,-2.805528809457862125e-03,-2.851777366589760068e-03,3.526163697242736816e-01
2.184826537947310021e-01,2.945202310550943947e-01,-1.738223057527982229e-02,-1.438111946770102845e-01,-2.943278277163196080e-02,-2.872679350930377323e-02,3.827114999294281006e-01
3.279352442228730125e-01,3.225693271109879023e-01,-3.272878393884312564e-02,5.389877956463357033e-04,3.829564546835186436e-04,-1.402626775403951684e-03,3.580213189125061035e-01
3.312376043372965428e-01,3.229346985473063314e-01,-2.883392120598907149e-02,-1.212900716121064404e-03,1.133047916346961346e-04,-7.620654487896323312e-04,3.560014069080352783e-01
3.337212298376990294e-01,3.142898285125496627e-01,-3.235620862196819658e-02,-5.045381673346820400e-04,-2.658385489632750665e-03,-8.603954564793824152e-04,3.567927479743957520e-01
3.221951549156801820e-01,3.244154312165985488e-01,5.138998806896932781e-02,1.267458547003151061e-03,-2.995836991813772155e-03,-9.961345386833859571e-04,2.719859480857849121e-01
3.251030307153734977e-01,3.700568341239083292e-01,9.076322612896287056e-03,-1.754802552323648721e-02,-1.547922396992322536e-02,2.458429022716005982e-03,3.431633412837982178e-01
3.305828999552680170e-01,3.244258528553703447e-01,-2.881496330719804377e-02,-6.939261419386996005e-04,-3.871659910533516592e-04,-1.192721396797876126e-03,3.563678860664367676e-01
2.459459679359100592e-01,3.092875024739435430e-01,-1.617092144420417821e-02,-1.272497667267647736e-01,2.360385898868637075e-02,5.580964812746277981e-02,3.858929574489593506e-01
3.411527321020479953e-01,3.571430453089913248e-01,4.765895258963176451e-02,-8.931622065863505794e-03,2.747244769877303303e-02,2.419091635280225944e-02,3.087822496891021729e-01
3.323958527756185610e-01,3.180198545842556901e-01,-3.127560096793904898e-02,2.988538318296094995e-04,-1.350570578992707667e-03,2.760542912645179425e-03,3.567408919334411621e-01
3.225757525130020231e-01,3.203914431233327309e-01,-3.380363502572239498e-02,-2.345656954877441656e-04,-2.747205888661989007e-03,-1.266321366173948091e-03,3.553311228752136230e-01
3.745782030971717136e-01,3.562166266368436141e-01,1.244385177133178200e-02,1.148426544302127705e-01,-4.915816970318699630e-02,3.506130629058827608e-02,4.187279045581817627e-01
3.290055851685158572e-01,3.219314203063611268e-01,-3.291176530499079211e-02,-5.881252064890512513e-05,-1.107135631111443898e-03,-3.044922410751484078e-04,3.584381639957427979e-01
3.302699780219971459e-01,3.278907457585479857e-01,-2.521478940723384521e-02,-1.717307691201222833e-04,-2.429752319321211700e-04,2.392778407183617471e-03,3.543257415294647217e-01
3.344127712890053727e-01,2.975812833536241597e-01,-3.077129332195965850e-02,-6.053477886928551686e-04,3.276231712103324766e-03,7.461959973506468793e-03,3.485197722911834717e-01
3.313500452473242541e-01,3.226826717805843514e-01,-3.225266345482016850e-02,2.990483289257950760e-04,-1.637624082277269063e-05,-5.649549724524843136e-04,3.593491315841674805e-01
3.696207147685950378e-01,3.216099305955699705e-01,5.993206094680911256e-02,-5.364586576001846227e-03,-1.835954387586899439e-02,2.793756371497500487e-02,2.945891618728637695e-01
3.212141777743875437e-01,3.229562130383503149e-01,4.631859096965129652e-02,-2.511848078335828394e-03,-8.966160916487805335e-05,1.190867481061951743e-03,2.758128046989440918e-01
3.216518573045588636e-01,3.273980403917112203e-01,5.566816604018737236e-02,-2.200065339198391343e-03,-2.339715123684069521e-03,-1.060520462681316216e-02,2.695868909358978271e-01
3.109352662615839091e-01,3.481007570470823209e-01,4.493104403013842285e-02,-3.423539533818083236e-02,3.222572382636476607e-02,3.416566047685717228e-02,3.035774230957031250e-01
3.304910940345558990e-01,3.248596098760903050e-01,-3.165132029430414717e-02,5.394572216098069979e-05,-3.363890362498620878e-04,1.084400031632333158e-03,3.593651652336120605e-01
3.290393350619176260e-01,3.270231568798525057e-01,-2.463439741830267260e-02,-1.458126155048428000e-03,-6.387690462150399017e-04,2.513608256549462305e-03,3.527076244354248047e-01
3.306736695404988158e-01,3.284595156328999344e-01,1.530728170253681242e-04,-6.282642279209598162e-05,1.886046073478050630e-03,4.432876397582886409e-03,3.295247852802276611e-01
3.302750522272568379e-01,3.249655749891050549e-01,-3.086923831041074595e-02,1.575714939995526219e-04,-5.004228138546773768e-04,1.247189307523380569e-03,3.585267066955566406e-01
3.295790380322612956e-01,2.998568698639521024e-01,-2.391904350874057839e-02,-1.556733249083126075e-02,-9.096939812310864473e-03,-5.691522603809472114e-03,3.411891460418701172e-01
3.458144323111235208e-01,2.907827806625545852e-01,-2.288838560788497567e-02,-1.652518995990153450e-01,-5.612672053440209696e-03,-3.198533184727618550e-02,4.514068961143493652e-01
3.296920127302990222e-01,3.281184543591793012e-01,-2.452170232905412361e-02,-5.303762968899259928e-04,-6.116793751819560960e-04,2.556201305251865584e-03,3.534600734710693359e-01
3.307183289195149145e-01,3.251956636743444373e-01,-3.122766888788680584e-02,-2.564211403047373956e-04,-1.503913200051757663e-03,1.134062939748814707e-03,3.592315912246704102e-01
3.317885673239970856e-01,2.755621969245270475e-01,-2.648983993664844050e-02,-4.200902456658134332e-02,-1.321186651249916383e-02,-2.354096229992859793e-02,3.447616398334503174e-01
3.285396450657235845e-01,3.257760560815629591e-01,-2.658453988588013739e-02,-2.067635285976569641e-03,-2.167203574313832960e-03,3.354978705560130933e-03,3.538362383842468262e-01
2.863140617760061568e-01,3.444580702185531251e-01,-2.922424625319447467e-02,4.708920231851585793e-03,1.675565694949682216e-02,-4.173945183773386351e-03,3.496467471122741699e-01
3.422608654416512963e-01,3.135994688976189160e-01,-3.096539216572422037e-02,1.226770323253181024e-03,4.509191540029642816e-04,-2.360105796592180602e-03,3.597832322120666504e-01
3.219231725883059947e-01,3.208538316446247207e-01,-3.431293405359508997e-02,-1.805747278744332645e-03,-2.544628970953222939e-03,-2.685830974039298599e-03,3.557741045951843262e-01
3.198837078359935138e-01,3.197585803577886465e-01,-3.339650119725443012e-02,-1.046127848047721668e-03,-2.439642212949290258e-03,-3.087172346539185808e-03,3.532880544662475586e-01
2.625750118726180027e-01,2.755716751042279755e-01,-1.689249857134753063e-02,-1.254493970202906206e-01,-3.914067019033081601e-02,-2.488852580156201283e-02,3.681984543800354004e-01
2.922186476349140083e-01,3.008565618018518295e-01,-1.052298559683484402e-02,6.694732831795007985e-03,-3.180859614489185412e-04,1.356502861433560433e-03,3.073799610137939453e-01
3.134644801074907838e-01,2.787853654335480380e-01,-8.252882039690823124e-03,2.270628551162385059e-02,2.328518031301763606e-03,-8.319751569527847421e-04,3.084037899971008301e-01
2.893185949267977342e-01,3.020964357813462065e-01,-1.325530590354823124e-02,4.288310632487114110e-02,1.267760451238382664e-02,-7.282725405475356725e-03,3.189649581909179688e-01
3.265027028895878813e-01,3.246558103157682340e-01,-3.494420369012385397e-02,7.159806423436844945e-04,-1.939950144886370010e-03,-7.114224152037682512e-04,3.605469167232513428e-01
3.107472255473398004e-01,2.760938579640791479e-01,-9.519202973058166206e-03,1.234801816475486654e-02,3.435448710094860967e-04,1.659089846113573179e-03,3.051871061325073242e-01
3.222788090016777129e-01,3.210203844652904093e-01,2.518700894932204837e-02,6.698150498540900773e-04,-3.127772470671766336e-03,-1.208121644995492497e-03,2.965237498283386230e-01
3.104847119806491418e-01,2.740974515608431972e-01,-9.646029431466252024e-03,9.162680497921479525e-03,3.495664169547639489e-04,-7.190696225550013889e-04,3.039947748184204102e-01
3.176792729902025991e-01,3.288017600875226543e-01,-3.317682122514206688e-02,-5.507804756977083922e-04,-2.426079667709960929e-03,-2.769370620843775860e-03,3.566057682037353516e-01
3.270705905367533584e-01,3.255982750539935799e-01,3.274446080290371874e-02,-1.819738415220538506e-03,5.497256002864613772e-03,1.122824839195816918e-03,2.937704324722290039e-01
2.991598070334789417e-01,2.985317758599529414e-01,-9.754683614374343170e-03,1.023999900525755444e-02,-1.797668308433286385e-04,-2.315169517744938778e-04,3.091106414794921875e-01
3.251119005744974588e-01,3.271385629935529282e-01,-3.152965656545494988e-02,2.059429937104214747e-03,-1.999670815372849800e-03,-2.107637035246482261e-03,3.577123880386352539e-01
2.808817552314344379e-01,3.106094680213316028e-01,-9.533996124280491591e-03,2.485464353745686292e-02,1.029377482943409161e-03,1.749683795392260226e-03,3.093930482864379883e-01
4.707832651097539345e-01,1.855815365709274078e-01,-4.695537016241396744e-03,-7.004116403161269461e-03,1.951628197359043452e-04,-5.595967446949680346e-02,4.258573651313781738e-01
3.268557340255766053e-01,3.268494011940993316e-01,-2.499516249240379961e-02,2.142314609961715015e-03,-3.035880981376208945e-03,-2.931662738622827207e-03,3.519432246685028076e-01
3.036270752592301614e-01,3.062010426238896965e-01,-1.286635095874721912e-02,6.377963280023468337e-03,-4.996898186109834626e-03,4.735335391825367529e-03,3.182036578655242920e-01
3.102995495658273928e-01,3.165544065368285365e-01,-2.372168330568102945e-02,-7.141522483146791646e-04,-7.503579779796069101e-04,-4.288044498310240697e-03,3.372787237167358398e-01
3.757827770244647203e-01,2.369754403573977597e-01,-9.846365569568893417e-02,-1.804628049357031583e-01,-1.223579850481253464e-02,-1.772813027631653295e-03,5.258396267890930176e-01
3.260582221548610216e-01,3.282670444548164701e-01,-2.543037201618442156e-02,1.517373547392944369e-03,2.645669777817161172e-03,2.089624629087232822e-03,3.526563346385955811e-01
3.111525031387180062e-01,2.898818941172073838e-01,-7.457009788296498076e-03,1.978800403346738651e-02,5.343337399944886323e-03,-5.260239747808692461e-03,3.106940686702728271e-01
2.799371858157437831e-01,3.073313794406975497e-01,-1.242969954800329790e-02,1.087166073890314701e-02,2.179090150415447305e-03,-4.423038049949565113e-03,3.076775968074798584e-01
3.298323963444139695e-01,3.172355003479352953e-01,-3.361021020209709054e-02,-7.161076131561149027e-02,-4.833462865162296840e-02,-3.097854902923508069e-02,3.910792469978332520e-01
3.212178417923357010e-01,3.226509646636307460e-01,4.630025632037051975e-02,-2.372728889440318869e-03,-9.588041169732751184e-05,1.197913068118142089e-03,2.756754457950592041e-01
3.279382713415733841e-01,3.265714583537972504e-01,-6.417851481794134560e-03,2.732367833178240678e-03,-2.913789070784383959e-03,-2.441501062479075734e-03,3.337733149528503418e-01
3.002272510365395219e-01,2.999663513853658703e-01,-1.150962962848395277e-02,1.084556010020556148e-02,-3.031976251929513737e-03,3.087147641066048057e-03,3.122621774673461914e-01
3.029397658236119839e-01,2.960701140626226247e-01,-1.304772711609020197e-02,5.359537679319764658e-03,-3.063308349881287401e-03,1.838949951206085565e-03,3.128083050251007080e-01
3.024942232030769507e-01,3.002467682566283824e-01,-1.288415043468879584e-02,9.759529107345493032e-03,-3.136989922363799237e-03,2.601166657871418608e-03,3.147941231727600098e-01
2.964878738625364996e-01,3.018757177950398551e-01,-1.087078868739568827e-02,2.603813470064037135e-03,-1.444287974861563698e-04,1.879721966841457314e-04,3.101207613945007324e-01
2.763508851890890128e-01,3.122706527303212853e-01,-9.891251892648805777e-03,9.078881704018385707e-03,-5.695368039143348850e-04,2.826699764588363768e-03,3.062331974506378174e-01
2.816758217871064840e-01,3.238296308496581011e-01,-1.723110788262716131e-02,4.772525955397450073e-03,-7.742499825932996601e-04,7.471976306235139642e-03,3.224282562732696533e-01
3.047665307963088321e-01,3.337112828854186253e-01,-3.153952563574677348e-02,-1.211098771338525899e-03,-6.792943671668203766e-03,-6.138027844672238297e-03,3.520365357398986816e-01
3.287697199051968222e-01,3.279471824033959870e-01,-8.495820200777937092e-03,-2.811250669502225741e-03,-4.533351974842984682e-03,1.466804364607530954e-03,3.369912803173065186e-01
3.244438156926144901e-01,3.296081255623188877e-01,-3.121585486518382857e-02,-6.746427244506387295e-04,-1.302977244824709419e-03,5.387909723016009230e-04,3.582799732685089111e-01
2.965487461274666225e-01,2.994142774774975480e-01,-1.038803243578173552e-02,2.216726624845470530e-03,-2.326947296073165171e-04,1.175637110485703261e-03,3.084104061126708984e-01
3.252522851121968928e-01,3.251505258168188028e-01,1.744065804748795578e-02,-2.711959450973829792e-03,-3.059315619599793732e-03,1.622817736123894619e-03,3.078550398349761963e-01
3.239812028581722236e-01,3.116612121730218954e-01,-3.022895961867524961e-02,-5.490140641377490305e-03,6.422959693297145174e-03,6.180393812245037026e-03,3.486854434013366699e-01
3.565792941675772765e-01,2.223975045677432094e-01,-1.487453584558115494e-02,-1.538293582168285753e-02,6.417033968321360533e-03,1.134402456179872502e-02,3.276581466197967529e-01
3.088378609432170241e-01,3.200771761269211035e-01,-2.483160491591107633e-02,1.251543690370364318e-03,-7.585296656850924182e-04,3.917534508334819844e-03,3.395060002803802490e-01
3.806834909764874597e-01,1.951045725925334984e-01,-1.421886056883200911e-02,4.289700514060395403e-02,-1.704488475741084211e-02,5.464286700026241284e-02,3.639387488365173340e-01
3.290029148900268652e-01,3.236447360657971339e-01,-3.215217428146263656e-02,-8.047798826484684614e-04,-1.319554136114778429e-03,1.481520814403440361e-03,3.585252165794372559e-01
2.197951334787975886e-01,4.056774415160255831e-01,-1.292219678532108285e-02,1.654215479922359622e-01,-1.225822493840638024e-02,2.622288439963723836e-02,4.653753340244293213e-01
3.961770132712101322e-01,1.467316965197201506e-01,-4.845010593332749194e-02,7.783602103835957076e-02,1.459734422079841595e-02,-2.366447636140312991e-02,4.117046296596527100e-01
3.228406496949983162e-01,3.201231906471120325e-01,-3.348319187015447174e-02,9.086877491518250295e-04,-3.100351238171946897e-03,1.493875406290899772e-03,3.550264537334442139e-01
3.275787359552788658e-01,3.274850066320874054e-01,-2.605149267673217972e-02,-2.558142421779807923e-03,-3.300087814781153730e-03,3.198546126601060392e-03,3.537007272243499756e-01
3.297006069901048941e-01,3.270504399179005595e-01,-2.495899361896455892e-02,8.749334574848141848e-04,4.928072719700469064e-04,2.288529558174930405e-03,3.533684909343719482e-01
3.286918636504286839e-01,3.270997306681187045e-01,-2.649034264448604792e-02,-1.282814694009628588e-03,-2.152064866478496132e-03,3.455750965783155760e-03,3.544659316539764404e-01
3.548652325555698983e-01,2.555636906194563296e-01,-2.966368139116457026e-02,1.780282282880810696e-01,-7.683936907406593159e-03,-1.138539609211951763e-03,4.634675085544586182e-01
3.241777976325198596e-01,3.187567317820012014e-01,-3.349345306517825804e-02,9.890938886344309306e-04,-3.150481434315840351e-03,1.607434152782504779e-03,3.550487458705902100e-01
3.269753822275066057e-01,3.247706906875799104e-01,-3.163342502850904903e-02,-1.510831785250209280e-03,-1.977281698029970201e-03,1.853499268039573815e-03,3.575519621372222900e-01
3.454524310179107882e-01,2.861512427228199984e-01,-2.794437534355317942e-02,3.399408210236149266e-03,-3.762388795193487637e-03,6.062140252095893356e-03,3.478308618068695068e-01
3.156657326305489231e-01,3.189506269766171909e-01,-3.193864213098809857e-02,-1.336045408712081004e-03,-1.181591600316418602e-04,5.268171672424122555e-04,3.492673337459564209e-01
3.989137434376478497e-01,2.390842376406349667e-01,-2.200314197007016692e-02,-4.114517920592825756e-02,2.457358298492626908e-02,1.884675491237921066e-02,3.786786496639251709e-01
4.159461684770596746e-01,1.896831816636752321e-01,-3.344946397459441778e-02,4.937105698791357904e-03,3.803797677262166742e-03,2.502502453955702394e-02,3.917461633682250977e-01
3.168695167412204361e-01,3.191825787550506277e-01,-3.187453836832374043e-02,-1.483578726695343160e-03,-4.896400405340879756e-04,-2.315761536109543859e-03,3.499397635459899902e-01
3.271317346472141230e-01,3.256688024204535403e-01,-3.162951228710994545e-02,1.568440834592079412e-03,-2.267674680765411396e-03,-1.963018810975830294e-03,3.580799996852874756e-01
3.253401607612078639e-01,3.241917267902442723e-01,-3.484879141522126411e-02,1.196159356272989867e-03,-1.065713866947456782e-03,-1.392097399941767764e-03,3.596349060535430908e-01
3.258845735915397723e-01,3.237763081597385684e-01,-3.182687013471602322e-02,-1.056757890498361918e-04,-2.236839568338114433e-03,-1.915830496341339000e-03,3.566985130310058594e-01
3.689269988321532412e-01,4.269924634035659472e-01,2.990289581759458803e-02,8.256063819158296346e-02,-6.495274440387040216e-02,6.287166219788625776e-02,4.277364015579223633e-01
3.135348714906514567e-01,3.136304257585033062e-01,-2.608467370856587531e-02,-1.399087873214084621e-03,-3.835820299150489304e-03,-4.817202993466322691e-03,3.398433923721313477e-01
3.060675341016645401e-01,3.205865480303151660e-01,-2.628056229092234908e-02,-6.285819112787104958e-03,-7.033297135694744923e-05,-7.127631933026175141e-03,3.402387201786041260e-01
2.836017119270559106e-01,3.388490942399946526e-01,-2.946994296686025749e-02,8.850753711654946176e-03,-8.123617750269587420e-03,5.220656543503095562e-03,3.447858393192291260e-01
2.809752868607829357e-01,3.617859692478445632e-01,-3.132253300121590200e-02,5.050274802972230803e-02,-2.699986775753984714e-02,1.433814460568993629e-02,3.738349974155426025e-01
2.770827421601368967e-01,3.393366696842086139e-01,-1.254924046378988467e-02,8.231446534769153167e-02,-3.247174940085653660e-02,1.005322430790307059e-02,3.599811494350433350e-01
2.559995194399915519e-01,3.342623414457313036e-01,-1.480156917377464798e-02,1.253939800267278304e-01,-4.363119768484968741e-02,4.899498667681957687e-02,4.009183049201965332e-01
3.226022464227669140e-01,3.291061903138472466e-01,-3.349883517873353256e-02,1.003916655483046627e-03,-2.859262619243658089e-03,-2.807073322520293665e-03,3.594684004783630371e-01
2.955783882920960948e-01,3.896133351022632585e-01,2.091784984135036662e-02,4.384625269401806746e-02,-6.649056708576231434e-02,2.343359724765268007e-02,3.616442084312438965e-01
3.221723871326582223e-01,3.325747415427137699e-01,-3.100223812451644023e-02,-3.949435525776916200e-03,-3.207801977466472922e-03,5.080905924389531427e-04,3.585984110832214355e-01
3.224124461451614576e-01,3.266674388585933952e-01,-3.400953128436917661e-02,4.817123939299527025e-04,-2.446103231023690557e-04,-1.662151777901635201e-03,3.585811853408813477e-01
2.682889038632652046e-01,3.440562740979867806e-01,1.537511888294745832e-02,8.450987660157420478e-02,-6.228635387175024407e-02,1.690376393396348861e-02,3.504146635532379150e-01
2.453311431738407766e-01,3.453968289833601601e-01,-1.562128320597314102e-02,6.237122248773856875e-03,-7.756875037199172443e-03,8.853983159972808603e-03,3.236573636531829834e-01
3.154027955095317637e-01,3.336700563768492112e-01,-3.063667841575742901e-02,-2.030863210563389146e-03,-4.136142720502273065e-03,-1.834037987394766160e-03,3.556289970874786377e-01
3.265688234413356428e-01,3.246153181033526458e-01,4.083975802305106484e-02,-1.029134920455818895e-03,-1.503885291987304938e-03,4.360146837948684038e-03,2.848749458789825439e-01
3.065168759482933547e-01,2.897555054130749874e-01,-9.164212908681024228e-03,-4.206028677887762961e-03,-3.430999302218500774e-03,6.666824966658458588e-04,3.077888488769531250e-01
3.251968533181742171e-01,3.256080515172670165e-01,-3.391318042165139546e-02,-7.419319707236729207e-04,-1.215702944211197222e-03,4.122967632721936428e-04,3.593249917030334473e-01
3.819084232172215154e-01,2.661768692431019101e-01,-3.356535215774306136e-02,-3.579172549688333649e-02,-6.464435908318460523e-03,-2.442740288673304894e-02,3.790612518787384033e-01
3.288776082620416541e-01,3.272360452286450228e-01,-1.146341964962527271e-02,-1.731614710895337632e-03,-4.005877745081752074e-03,1.871530474747558261e-03,3.396228253841400146e-01
3.195066942412499444e-01,3.259589678453262973e-01,-3.416069304935756556e-02,-5.025226409686239998e-05,-1.594213299609176801e-03,3.414243950377265999e-03,3.569969534873962402e-01
3.250837105271632277e-01,3.225188823241883496e-01,-3.363913373125843043e-02,-7.208414510650212230e-04,-7.272486715717587616e-05,5.050794433367916149e-04,3.574506044387817383e-01
3.250856248015376315e-01,3.248902314941191083e-01,-3.329683869054139711e-02,-1.209315217315394281e-03,-2.419796218491706489e-04,1.550560577616833576e-03,3.583012521266937256e-01
3.082568487479673824e-01,3.181887956400632489e-01,-2.779472086529280461e-02,-4.240146503967288233e-03,2.162622746383003475e-03,4.447008722100903068e-03,3.413125276565551758e-01
3.145679545312353720e-01,3.189105278179127367e-01,-2.863375970131817883e-02,-9.259233291285143101e-05,1.673878433776710903e-03,2.943832073838434892e-03,3.454433083534240723e-01
3.307156583796483362e-01,3.282126410521533089e-01,-8.352811621209210724e-03,-1.646965908169034133e-03,-4.586212194541256469e-03,1.458145854392924566e-03,3.379387855529785156e-01
3.190738879423927754e-01,3.142530178408752817e-01,-3.020842972473145038e-02,-9.079487468827626695e-04,4.055483659860780951e-03,1.756193318371354747e-03,3.469850122928619385e-01
3.056593709868816733e-01,3.167373628239459338e-01,-2.649962904591082746e-02,-2.192132421647633757e-03,1.452675731579280912e-05,5.783821576817677577e-03,3.380040824413299561e-01
3.186625877514047689e-01,3.190497707898852786e-01,-2.995301210603579234e-02,-7.646457439772011292e-04,3.867965927543652246e-03,2.665826410969174536e-03,3.489067554473876953e-01
3.153847320415057442e-01,3.121943383919924542e-01,-2.510912712974278094e-02,-1.829590156279503523e-03,6.076891048020170152e-05,7.115153353840963837e-04,3.389270007610321045e-01
3.082495770808957869e-01,3.124617032475472955e-01,-2.597242989846410000e-02,-8.019290366143207865e-04,4.021737637619493717e-03,6.510148054784855578e-04,3.364247381687164307e-01
3.280556924332721502e-01,3.237162106525999783e-01,-3.333113978010304734e-02,-7.181480578723785162e-05,-2.815852953059960685e-04,7.440438480160899712e-04,3.592393994331359863e-01
3.003716249987098408e-01,2.981602640834905560e-01,-1.154852822210108987e-02,-9.225958632722615002e-03,-3.213006468379924711e-03,-3.986894528639087741e-03,3.113572001457214355e-01
3.222781531409725231e-01,3.220474299972845844e-01,-3.543254519011254655e-02,-3.745770412514359306e-04,-8.538235413555374112e-04,1.126632493221616053e-04,3.575990796089172363e-01
3.266775167879076847e-01,3.261352750966238778e-01,-2.385552518952657741e-02,5.541964042445966365e-04,7.604422642545794787e-03,7.027520323259351352e-03,3.507224023342132568e-01
2.044391125283790689e-01,3.494148869649434941e-01,-1.125435949484715481e-02,-6.557878986762782914e-02,-2.054013531989956273e-02,-1.967068529426062654e-02,3.378464281558990479e-01
2.980838814863092101e-01,3.497296972383742153e-01,-3.492101217705478877e-02,-5.504677960085271882e-02,-2.682662852552517019e-02,-1.564783290714776703e-02,3.778119385242462158e-01
3.046786035717165553e-01,3.490924415471468034e-01,-2.828722210819820115e-02,-5.549670558141484022e-02,-3.312544100799100222e-02,-1.503294147551106907e-02,3.752820491790771484e-01
3.267014128402742079e-01,3.213743029090404546e-01,-3.414893769420127012e-02,2.084960343584431157e-03,-2.231402059528591643e-03,-1.805863285416335964e-03,3.582692146301269531e-01
2.784112604862211127e-01,3.262888756959708703e-01,-1.817985168180744071e-02,-8.219018939529337819e-03,-1.369369423438217270e-04,-5.416170755089286769e-03,3.236500322818756104e-01
3.219153565034197917e-01,3.308977743437508390e-01,-3.407064499211304165e-02,2.059683326349480729e-04,-5.455894525462619358e-04,1.406769930629057311e-03,3.605707883834838867e-01
3.225867994594687760e-01,3.228062055683658116e-01,-3.542199693817207895e-02,7.289163447708658266e-05,-6.675532725921185656e-04,-5.368679739980900889e-04,3.581216335296630859e-01
2.716882921347892332e-01,3.246670559587767624e-01,-1.212332333139071183e-02,-5.652657724095930085e-03,-6.844155454462591028e-03,-8.114330424875002695e-03,3.143655359745025635e-01
3.305182401311777540e-01,2.803574612319672532e-01,-2.483452294855667541e-02,-9.566744003024780368e-03,-9.260151744274195545e-03,-1.021686960653633326e-02,3.343828618526458740e-01
2.816690685397041927e-01,4.644871879648647672e-01,2.607218645188530415e-02,-5.781380774257473265e-02,6.555264439641503293e-02,2.089251374760643307e-02,4.119565784931182861e-01
3.250100394290726391e-01,3.274229447896421785e-01,-3.429967231145331086e-02,1.492666738047570456e-03,-5.186569051705196363e-04,-1.257305474348954875e-03,3.605391979217529297e-01
2.549271283335384775e-01,3.293663930639575410e-01,-9.272440814681731647e-03,-2.978841858621996547e-02,-4.310867509944547871e-03,-2.512187731784532637e-03,3.126438558101654053e-01
3.228784923158438680e-01,3.262284251590344963e-01,-3.474260380134708281e-02,6.282935614584988712e-04,-8.712407368238095536e-04,-8.027442688933704440e-04,3.593152761459350586e-01
2.772796868925493929e-01,2.837971722177502487e-01,-2.139331693903898102e-02,-6.808776244854096438e-02,9.153302202109119684e-03,1.005741418807096395e-02,3.250496387481689453e-01
3.298216955369988046e-01,3.059274535365195669e-01,-3.133046492032873220e-02,8.261359932627599951e-04,-6.594676789428554481e-03,4.876163994146079893e-03,3.501088619232177734e-01
3.269759613061306025e-01,3.051539384085669715e-01,-3.109036047761015720e-02,2.474416063647767727e-03,-6.754206833572452828e-03,5.096076834035165315e-03,3.480044603347778320e-01
3.014475547391717858e-01,2.973666190641197637e-01,-1.782008612167987338e-02,1.338853215897790189e-02,-1.076870481452380998e-02,9.774565061874365690e-03,3.190890848636627197e-01
3.249190454201819067e-01,3.190339011100874478e-01,-3.413006197466678104e-02,2.295421692874178568e-04,-3.451975758792937693e-03,2.528681354542128366e-03,3.562203347682952881e-01
3.219020682172973880e-01,3.069143156126703520e-01,-3.122410664886179910e-02,3.464164742850202837e-03,-6.745072472562406267e-03,5.408211818830391086e-03,3.462519347667694092e-01
3.214106205436670916e-01,3.181528744236101769e-01,-3.074635059906311030e-02,3.814119036692470606e-03,-6.897954112281425888e-03,7.473274134116622558e-03,3.510439395904541016e-01
3.271175209345463797e-01,3.288263449114259274e-01,-2.441036585724878916e-02,-1.842319341650496337e-03,-2.844890983515716443e-03,1.908541430233005995e-04,3.524344563484191895e-01
3.777630493428139058e-01,2.431317433000775574e-01,4.742124144679521480e-02,1.765576892949011559e-02,-5.404788622174862625e-03,7.064599082628934823e-02,3.142806589603424072e-01
3.182344226940267418e-01,3.271042729600168730e-01,-2.122017679086693476e-02,3.347401915905234317e-03,-4.389261639289323939e-03,7.090949001724417521e-03,3.443272709846496582e-01
3.285002859517952567e-01,3.229211710387643319e-01,-1.916200206319915167e-02,1.483592014528210389e-03,-1.878024179162976395e-03,1.858322199773995882e-03,3.449465036392211914e-01
3.130644854187775716e-01,3.062819443436524125e-01,7.178039011594000707e-03,5.939251959242866641e-02,-1.801032399142040580e-02,6.060892324801053777e-02,3.378071784973144531e-01
3.042906937718091176e-01,3.195534409901214512e-01,-2.267706201872898841e-02,1.040891160096144193e-02,-3.913713903615861911e-03,5.934428838707842165e-03,3.355710506439208984e-01
3.410574416467142544e-01,3.232766217164598777e-01,-3.044739210715718958e-02,5.264633446803272665e-03,-5.276090875318990674e-03,1.282977244434585669e-02,3.638499677181243896e-01
3.252599953408648603e-01,3.316430962893233136e-01,-2.751988780425831949e-02,2.433039582413747126e-03,-6.746155758832897767e-03,-6.350020041655747918e-03,3.564007282257080078e-01
2.607418464063058217e-01,2.745911678895179286e-01,-1.225145016229875483e-02,-8.614103051850978410e-02,3.226784465195365313e-05,4.049024405773492957e-03,3.175026476383209229e-01
3.280219115672579622e-01,3.300643191818382616e-01,-2.475190317449454946e-02,1.004888532115317526e-03,-3.848235610143198315e-03,-1.306309868299082664e-03,3.538737297058105469e-01
3.195773318522934225e-01,2.702312168351381771e-01,9.224479898123999488e-03,7.698245233188749648e-02,-2.333600485577872960e-02,5.658908483697874109e-02,3.353487849235534668e-01
3.399794634769753299e-01,3.296521105621200709e-01,3.841879282480392677e-03,3.904781740372836353e-03,-1.109573849123278834e-03,-7.601792396515336635e-03,3.314310014247894287e-01
3.602599683780517426e-01,2.608060886422709501e-01,-2.593909100490923714e-02,4.642328330061309483e-04,3.835284034956941424e-03,-1.747777510267584100e-02,3.487018644809722900e-01
3.229643502257197873e-01,3.306518742388759868e-01,-3.219476237992269230e-02,-6.569574998904050087e-04,-2.200817597469091006e-03,1.513458725258610407e-03,3.590961992740631104e-01
2.390934947119723875e-01,3.528379456225998467e-01,-1.093270663030831980e-02,-1.020609253889333268e-02,1.432720340992335584e-02,7.861525524505065532e-03,3.240427374839782715e-01
3.279101781458851894e-01,3.227759588678135727e-01,-3.314974638006054630e-02,-2.552916891834380126e-04,2.757812239782967464e-03,-2.241802251526876788e-03,3.585734963417053223e-01
3.351856755624179063e-01,3.107324582557813852e-01,-3.146933344289915002e-02,-8.136825151716616574e-04,8.000054573112419705e-05,-4.427656222077440071e-03,3.551461398601531982e-01
3.405348709632084470e-01,2.784108332517550854e-01,-2.881419804023657716e-02,-4.035222971353919375e-04,6.050172394741820323e-03,-2.527761483269696293e-03,3.427275121212005615e-01
3.300908946764807839e-01,3.236394618801154976e-01,-3.186676527386173019e-02,-1.180216524690944329e-04,1.400709776050037799e-03,-1.272292706673474249e-03,3.587904870510101318e-01
3.299628821492184283e-01,3.203405452559731637e-01,-3.316963685684429231e-02,4.241391871203821495e-04,2.780764752202196169e-03,-2.168194239290545302e-03,3.584710359573364258e-01
3.215736658688494454e-01,3.227352576951694751e-01,-3.510324004471152004e-02,-2.014638293826203404e-04,1.025667203096864024e-04,-7.666094934489122836e-04,3.572618067264556885e-01
3.225712695170799837e-01,3.227096294267834953e-01,-3.526353397289838654e-02,5.993269125566590914e-06,5.150654684593164662e-04,-5.574283858620843668e-04,3.579064309597015381e-01
3.193487733567063058e-01,3.305150236202173408e-01,-3.306977545845021793e-02,8.505518979068612314e-04,-2.698207233442891529e-03,2.989143925865147232e-03,3.582032024860382080e-01
3.238116532726846297e-01,3.254600900792437579e-01,-2.946479794215026149e-02,7.298792597797125893e-05,3.047991249686477009e-04,1.185083680212635103e-03,3.541099131107330322e-01
3.255939351969329709e-01,3.225958820311711772e-01,-3.525997129776328731e-02,-3.328758948344736636e-04,5.215489505210393071e-04,-3.961704144605316465e-04,3.593665063381195068e-01
3.256767301400660397e-01,3.218249812528432008e-01,-3.557557881171960479e-02,-1.349016111827669711e-03,1.527836413585262690e-03,1.307406534817336899e-04,3.593593239784240723e-01
3.257068760544282737e-01,3.192065559671735109e-01,-3.351104310219321647e-02,-3.453618273269521609e-06,4.299832409003673771e-03,-2.020617982969783420e-03,3.561073541641235352e-01
3.232316572399833166e-01,3.191683616360538323e-01,-3.226501094793385316e-02,6.216146337067463001e-04,4.331049268709342981e-03,-2.332042373099326923e-03,3.535868525505065918e-01
2.948526929873704905e-01,3.003670390078823083e-01,-1.328126906039417410e-02,6.677355130082674936e-03,-1.488438185082965794e-03,2.678772413558477665e-03,3.111881017684936523e-01
3.207958671311567644e-01,3.221120206532477881e-01,-3.539641794053891011e-02,-5.593228891867693632e-04,-5.703231419241006398e-05,2.040694628868021312e-04,3.568536937236785889e-01
3.243752084241626754e-01,3.226081356218102325e-01,-3.528783028500323549e-02,-6.081467138090543463e-04,-1.227714038766732855e-03,6.135160806979408823e-04,3.587921857833862305e-01
3.223583593028938599e-01,3.216963699216230377e-01,-3.494512209076031106e-02,3.638003665626378890e-04,-1.495116993391816273e-08,-1.707085120935664102e-04,3.569736182689666748e-01
3.242844739156119926e-01,3.249761715163021480e-01,-3.486638972320410534e-02,-7.881368324331684480e-04,-1.405880501838045272e-03,1.967947989257430152e-03,3.595242202281951904e-01
3.181805941525133186e-01,3.130444652452763488e-01,-2.912993770179858610e-02,1.000221492486885180e-03,3.862464026363988598e-03,-2.471298537395708473e-03,3.448669910430908203e-01
3.195416469482741939e-01,3.313438515768890036e-01,-3.212750023129323784e-02,-3.262741571445841593e-03,-7.143696028360941035e-05,7.327113460448835968e-05,3.577609956264495850e-01
3.161397082718168106e-01,3.263128304755148479e-01,-3.248135402997956445e-02,-7.529038560901783186e-04,-1.559023145270231050e-04,-4.289133247418618240e-03,3.538978099822998047e-01
2.825372795464620168e-01,3.269267811538575930e-01,-2.370638797232424433e-02,9.349414383890239377e-03,1.149564767980113672e-02,-6.798073169360432759e-03,3.318839371204376221e-01
3.188095276167812742e-01,3.161807351646503950e-01,-3.153725843661459027e-02,-1.312140183712894774e-03,4.463359452860559892e-04,-1.718428681848790625e-04,3.490481972694396973e-01
3.712798177865093141e-01,1.976970979814173801e-01,-6.878619989968970394e-03,3.446008039915576110e-02,-7.247811544790544111e-03,7.075267636896730335e-03,3.337113261222839355e-01
2.740991231129457639e-01,2.857435421757681948e-01,-9.079878825676929166e-03,4.425645731528973087e-02,-1.480209085927749850e-03,8.542434052401966238e-04,2.991789877414703369e-01
3.224440419572640604e-01,3.305768303849225820e-01,-3.313888646606424904e-02,7.327525817865433461e-04,1.828510881285145650e-04,-6.437762187400285696e-04,3.597223758697509766e-01
3.229488925407568156e-01,3.242720837086701668e-01,-3.499238703990517618e-02,1.098538183747510024e-04,-1.153091798119116771e-03,-1.468417510479887817e-03,3.586193323135375977e-01
3.226231862096033409e-01,3.242342700035809600e-01,-3.501468836994925393e-02,-8.462832589306083200e-05,-1.007959979011490044e-03,-1.446892002918989022e-03,3.584591746330261230e-01
3.226791852472991051e-01,3.227981261393654822e-01,-3.529209116242287836e-02,5.258953794496908172e-05,-5.253118764609229210e-04,-5.470295743722102585e-04,3.580331802368164062e-01
4.021203249926542656e-01,1.766978198868108252e-01,-8.340559183961371303e-03,4.389422291725729453e-02,-1.345450065633442896e-02,1.264785528843468364e-02,3.654714822769165039e-01
2.995658030289637397e-01,2.967117421720305570e-01,-1.160754103298200501e-02,-1.900429089712421006e-03,-1.421875879395376793e-03,-5.779170216605187052e-04,3.097850680351257324e-01
3.198293544335323868e-01,3.227727494321429025e-01,-3.314495770738301594e-02,-6.541774276525007953e-04,-1.878466217391332226e-03,-2.916711211325814269e-03,3.545079231262207031e-01
3.642764803874079527e-01,2.107107790780567702e-01,-8.302858631243775767e-03,2.647265864519537243e-02,9.660469991718871282e-05,8.425896117396951962e-03,3.278685808181762695e-01
3.256572870371702844e-01,3.303991466467110505e-01,-3.207811355403750175e-02,9.698111264820285203e-04,-1.012741582743974115e-03,-3.380672567326998244e-04,3.601384162902832031e-01
3.883114194911247985e-01,9.887961928889203722e-02,-1.910983312812972179e-02,9.857913349872450548e-02,-5.367970349739290166e-03,-7.710509316203053264e-04,4.013526439666748047e-01
3.505636669004577044e-01,1.267806870480236436e-01,-2.194856791665231177e-02,1.198736918164733378e-01,1.203278894931519849e-02,-2.439062921378385568e-02,3.883432447910308838e-01
3.242925610958118932e-01,3.284963724622879111e-01,-3.340241332571897148e-02,-1.354571294734863087e-04,-1.243801058391781535e-03,-1.446153352886917973e-03,3.598305284976959229e-01
3.535483086182470425e-01,1.796037366890096965e-01,-1.404823397706300714e-02,1.289830592846485102e-01,5.956110695696463682e-03,6.473679375374019607e-03,3.893386125564575195e-01
2.921448338292799707e-01,3.227234277850875577e-01,-2.676203102933444322e-02,-7.588707743080756740e-02,2.623649613146472950e-02,2.800604719939443071e-02,3.661734461784362793e-01
3.222700911806423707e-01,3.293796995793429883e-01,-3.395514014320391571e-02,-3.765877766271961513e-04,6.178784204175555685e-04,1.668365971564330068e-03,3.598465025424957275e-01
3.241902694946806607e-01,3.304206508529911046e-01,-3.217066902955467711e-02,1.998037970346670236e-04,-9.771774207841660547e-04,-3.377824313957077974e-04,3.595212399959564209e-01
3.406604014266517155e-01,3.608171073095089443e-01,4.338656972443277748e-02,-1.093517392940202004e-02,2.600624015367705710e-02,1.886158474320977566e-02,3.134087920188903809e-01
1.866611094952096983e-01,3.102158349659412950e-01,-2.878342129211153289e-02,-1.459644785502611786e-01,-6.609283398056957706e-03,-1.484628957289481702e-02,3.911655247211456299e-01
1.298756303564845282e-01,3.976303604486762233e-01,-1.037920712241849341e-01,-1.060751284302960673e-01,6.305520062694683868e-03,7.092238297995684393e-03,4.721067547798156738e-01
3.157754700047823992e-01,3.185274238715952722e-01,-3.197636753069324489e-02,-1.431303509544837023e-04,-5.449450201992208980e-04,-2.204507228142022282e-03,3.491581976413726807e-01
2.298149876772286604e-01,2.979592799298209083e-01,-3.585725507544779145e-02,-1.462315669275946195e-01,-9.192557693353255524e-03,1.523299766956114423e-02,3.980327844619750977e-01
2.779580927245624000e-01,3.301346070762795071e-01,-2.911427324026852337e-02,-8.284707263644956743e-02,2.051472771414023996e-02,2.339764016738621333e-02,3.695045411586761475e-01
3.108843768404996877e-01,3.128120427033764250e-01,-2.268421963254615981e-02,3.168808363516770893e-03,-4.143102602361461127e-03,5.234998046386377633e-03,3.347813785076141357e-01
3.256311396804360547e-01,3.300871928057165783e-01,-3.110948438189470311e-02,2.131735785446691898e-04,-1.495128942099476638e-03,4.556210135231554895e-04,3.589997887611389160e-01
3.162401033326686095e-01,3.306046488625590252e-01,-3.273216417103083642e-02,3.117228656746318127e-04,3.840905130788534010e-04,4.083354266570715999e-03,3.564429283142089844e-01
3.121976448407513538e-01,3.149747357730275366e-01,-2.895206890187537740e-02,1.805860250717948416e-03,-1.587502803136654804e-03,2.906114919826712200e-03,3.426089882850646973e-01
3.095850306590146039e-01,3.140875645931851534e-01,-2.512427510239850781e-02,2.758963015490175567e-04,-7.807213881637432894e-04,3.885745627164784860e-03,3.370533883571624756e-01
3.201183007869908836e-01,3.267220715571376166e-01,-3.402278370167294286e-02,7.315243295034133762e-04,-1.790247554664117389e-03,3.210509579756873431e-03,3.575476706027984619e-01
3.064297607868432527e-01,3.083556909455514305e-01,-2.107301589716961687e-02,5.667299211898161335e-04,-2.204946488432514649e-03,3.176349432552058160e-03,3.285396993160247803e-01
3.116613879367038376e-01,3.140132101251291719e-01,-2.831654022963248085e-02,3.976995165273189761e-03,-5.136935673812194868e-03,4.294594454008959436e-03,3.414264619350433350e-01
3.224195951441630736e-01,3.292370917913099992e-01,-3.246206460306311214e-02,1.284769124997844165e-03,3.157319045300022858e-03,4.382993308987939360e-03,3.584680855274200439e-01
3.264236241302308494e-01,3.278710897057104390e-01,-2.829377776026451019e-02,-2.265254587294187640e-03,-2.533759872364870457e-03,1.021129594623055832e-03,3.554964959621429443e-01
3.182990921457807265e-01,3.294172012616213285e-01,-3.277741492691294001e-02,1.746902010336448595e-04,2.628187995092167665e-03,4.227030186643377513e-03,3.568697869777679443e-01
3.185632026649398152e-01,3.188721896489850605e-01,-3.040130350335748521e-02,-1.586356215937141569e-03,3.634213912986206021e-03,4.339501878933794618e-03,3.492675423622131348e-01
3.219223062345044073e-01,3.207457366483810191e-01,-3.539713677659767077e-02,1.948480422246065579e-04,-2.611508370897451547e-04,8.821263199260702317e-04,3.567363321781158447e-01
3.218027029369275871e-01,3.256994458533032932e-01,-3.356328805997854658e-02,1.535777308506261496e-04,1.067724090884876378e-03,2.745137812998391623e-03,3.573668003082275391e-01
3.051390216299860181e-01,3.274991496605507146e-01,-3.181247374527310101e-02,-3.922390106804908225e-03,6.987985921666625341e-03,4.901476042900011765e-03,3.490491211414337158e-01
3.122239154086222657e-01,3.198978609747706869e-01,-3.089304353288313543e-02,-8.715276543450113135e-04,2.721808235701117084e-03,4.463814148359417609e-03,3.471390008926391602e-01
2.958761794788857813e-01,2.991298512735607318e-01,-1.332400115467347046e-02,-6.109738641472624993e-03,-1.750611695907735525e-03,-3.294457060625723393e-03,3.110869824886322021e-01
2.999954259119558819e-01,2.921766402612588909e-01,-1.045453992997905091e-02,-7.035302639703302705e-03,-1.710546918944462263e-03,-3.860982810872352227e-04,3.068724274635314941e-01
3.000748799940902156e-01,3.014498595090888688e-01,-1.301065660539726943e-02,-7.227974434892899544e-04,-1.358298771296035041e-03,-2.455837942446638302e-03,3.138154447078704834e-01
2.992466954355323949e-01,2.998773943188822733e-01,-8.486523109671462173e-03,-9.112141927229222907e-03,-1.041974761543473012e-03,-4.256608762904023967e-04,3.084592521190643311e-01
3.212820449312659421e-01,3.228054874755573178e-01,-3.520703746854850213e-02,3.271309399125648596e-05,-4.889797180641932924e-05,-8.180535279498261187e-04,3.572560548782348633e-01
3.225022975622034993e-01,3.277370829798287866e-01,-3.393671539315201713e-02,9.681180588867195191e-04,2.384374609939948331e-06,-1.315640108354710052e-03,3.590961694717407227e-01
3.229844595653830752e-01,3.188066523713339873e-01,-3.174283437337852010e-02,-1.852786599999513219e-04,-2.734684955473325706e-03,-3.848304774872780831e-04,3.526895344257354736e-01
3.120141125351453271e-01,3.790647667665615339e-01,5.668654739911943574e-02,-4.494884088596730332e-02,-5.748736394435253333e-02,-5.667875248060058558e-04,3.206000328063964844e-01
4.138938905984465566e-01,3.791751738839835850e-01,4.685537609550516347e-02,-2.691938498388982137e-02,-5.554080082990488915e-02,-7.520967587592393942e-03,3.671206235885620117e-01
3.248496224915706776e-01,3.281701970930898660e-01,-2.507549982001813782e-02,4.522785668796174344e-04,-2.832080282527067987e-03,-2.175708848266481085e-03,3.516524434089660645e-01
3.332433429139706194e-01,3.399265550489454779e-01,6.040435987420358921e-02,-1.549313679819949371e-02,-1.247326413074544005e-02,7.480397935453516473e-03,2.786825299263000488e-01
3.150115759514320879e-01,3.268336908622678783e-01,-3.170715437161436556e-02,-4.192976375384149714e-04,-1.397616112919646849e-05,-4.453594588312226148e-03,3.528634607791900635e-01
3.315462474383387703e-01,3.239427335325786306e-01,5.981811044804358213e-02,-2.182548122438051318e-03,-5.699943061967002560e-03,4.483046544101434126e-03,2.683280706405639648e-01
2.890240649076536994e-01,3.105519038064258330e-01,-1.361577578685552181e-02,-2.208977128003845533e-02,-6.187715185882283406e-03,-5.196025870555306611e-03,3.165900111198425293e-01
3.144981706883477890e-01,3.388212072624465776e-01,-3.163151416215345679e-02,-2.295925643244350455e-03,1.400073608597983367e-03,-3.118714403097438536e-03,3.589807450771331787e-01
3.249331115733912201e-01,3.287968354606786159e-01,-3.334269225459027264e-02,3.666800967862697330e-04,-1.243002698713505235e-03,-1.445444766135577227e-03,3.602389097213745117e-01
3.656384773629500762e-01,3.575630344006511252e-01,5.961894379865131932e-02,2.739925935604699010e-03,-6.803408952378822878e-04,-1.046442785007064766e-02,3.026455938816070557e-01
3.148901462295946585e-01,3.327546454364336270e-01,-3.235815303968553325e-02,5.330735465804323193e-05,6.934775773589612734e-04,2.833334287460733021e-03,3.565522134304046631e-01
3.181151338371190906e-01,3.226729041214212446e-01,-3.266660855391637086e-02,-8.168781186020459845e-04,-1.115680550689556751e-04,4.080504906334247658e-03,3.531562983989715576e-01
3.020531317076784461e-01,2.972167621476619059e-01,-1.093455139468779702e-02,-9.079133353140232850e-04,1.537495793997208310e-03,4.456874303534617463e-04,3.106141090393066406e-01
3.275030393178325339e-01,3.160360527475758463e-01,-3.152577113646301554e-02,-3.435566068960435593e-03,-2.822951897238381008e-03,-3.259409672308615467e-03,3.535638451576232910e-01
2.999313380494651460e-01,3.379722172958644633e-01,-2.680516583430533895e-02,-1.511017183888152017e-03,1.642770737317725315e-04,-7.515655723600065709e-03,3.475767374038696289e-01
2.198564679748880035e-01,3.534979485198639360e-01,-8.401032385035672734e-03,2.890312899651324013e-02,6.476632921260061472e-04,3.172902763510970173e-03,3.209421038627624512e-01
3.225302860121356252e-01,3.288668424003555191e-01,-3.324170728042957768e-02,-1.335953318390733884e-04,-1.155082428606301720e-04,-9.427779236289672571e-04,3.589860498905181885e-01
3.898810955489230845e-01,1.456442512497002073e-01,5.485194996679709778e-04,-4.703300978558228040e-02,-1.895811122569658960e-02,-5.835858919998997835e-02,3.661609590053558350e-01
3.000762571247092558e-01,3.337123828934995817e-01,-2.776838794135880195e-02,-1.590949002934200114e-03,1.773116347863710476e-04,-4.949939181523481564e-03,3.460088372230529785e-01
3.224700139219666695e-01,3.284395823787121804e-01,-3.046513142970933008e-02,-2.967058807776951079e-04,1.154366476418951367e-03,-1.527262844748747449e-03,3.559733033180236816e-01
2.063820443368564184e-01,3.452122555267269632e-01,-1.558207569489505895e-02,9.268195905648046740e-02,-2.826167252551625708e-02,1.017431588100264385e-02,3.575384914875030518e-01
1.946347755463872509e-01,4.099539259134110103e-01,-3.698475995489852730e-02,1.765122143036001456e-01,-5.832436267084829123e-02,-5.854841092357648824e-03,5.036464929580688477e-01
3.236919576130008469e-01,3.304869089665900539e-01,-3.008577155456548802e-02,-9.188538014202622586e-04,1.476186030918073431e-03,-5.113061922421719427e-04,3.572374582290649414e-01
1.627402891718376932e-01,3.672782072310205592e-01,-1.094971649009476855e-02,4.967335625928284010e-02,-1.464517060681685620e-03,3.780552833188814341e-03,3.390896916389465332e-01
2.177046660848725168e-01,4.516271695570786560e-01,-4.833855779086143611e-02,-9.291024346948449641e-02,-2.219943030482139298e-02,-9.588870790286497039e-03,4.640942215919494629e-01
2.217704067059338702e-01,3.870682442487679564e-01,-2.226353582762743977e-02,7.436129942930634618e-02,-2.990275249065255103e-02,5.042597506800496759e-03,3.828339576721191406e-01
3.241672421007360527e-01,3.311211394798120877e-01,-2.775196685722000622e-02,9.744883328790204821e-06,1.221307521944984664e-03,-3.050883645217493368e-04,3.554538786411285400e-01
2.027294598056807451e-01,3.912466961158538314e-01,-6.108725666592235148e-02,1.763848524392274686e-01,-3.990268152867961632e-02,2.898353016616570313e-02,5.054736733436584473e-01
1.555001323009850278e-01,4.087888073804312739e-01,-1.899398440427643719e-02,3.432718308573828175e-02,-2.822944238882914292e-02,-1.035472009299258887e-02,3.808518946170806885e-01
3.229378433332847353e-01,3.269238208875865359e-01,-3.408932748099813281e-02,-4.746448989027296809e-04,-7.709173725512291023e-04,1.615211685924881858e-03,3.590510785579681396e-01
2.131656002136063655e-01,3.602320464690699220e-01,-8.974395455280032019e-03,-1.345056330579330692e-03,7.879764680465442496e-04,2.523217032747617893e-03,3.219789564609527588e-01
3.161414344660472553e-01,3.334143040528195767e-01,-3.223865805867323631e-02,-4.194201337349632002e-04,4.594870031697340746e-04,2.454236695159868302e-03,3.573566675186157227e-01
3.185569405386153852e-01,3.306078666458535098e-01,-3.094283868444747121e-02,3.693307388444945537e-04,-2.378482424557841046e-03,-5.477449536352117787e-04,3.557040989398956299e-01
3.343227782381898994e-01,2.976873417569610436e-01,-2.984771773722355581e-02,-9.957989771538706177e-04,-3.419713701904380978e-03,-6.125429643979809526e-03,3.475217819213867188e-01
3.276008287471478542e-01,3.272698686076291330e-01,-2.485135822918063675e-02,-1.261791066119405261e-03,2.044767956160879925e-03,-4.566292026911718954e-03,3.524001538753509521e-01
3.283034268734947303e-01,3.233072229818023668e-01,-3.201448245164881246e-02,4.614792952857150327e-04,-9.666798897689924449e-04,-2.968280041745675229e-06,3.578507900238037109e-01
3.244365716076632045e-01,3.305556836852641123e-01,-3.177058956086770136e-02,-2.882565458857172438e-04,-1.040295028694709044e-03,4.381634343854688240e-04,3.593114614486694336e-01
3.146351279780078003e-01,3.184692232125322930e-01,-3.060488001278979797e-02,6.594315211875013960e-03,-6.530963746320389042e-03,6.530990400903137483e-03,3.477289378643035889e-01
3.284568545584225507e-01,3.227095225530264844e-01,-3.441322030463325743e-02,8.515115170484308712e-04,-1.382663039855868076e-03,2.923004580266299192e-04,3.600421547889709473e-01
3.264725213650248592e-01,3.338826677909132457e-01,1.696470372555339279e-02,-5.197651345873761236e-03,7.986987182569712032e-03,-4.032427795299007092e-03,3.137908577919006348e-01
3.219481100180132671e-01,3.266654471895203971e-01,-3.414493104689769742e-02,-1.094234824140883169e-04,1.914076455575316040e-04,1.389785094036210178e-03,3.584832847118377686e-01
3.291194107866316498e-01,3.278568643489382373e-01,5.326973899325757045e-02,-2.082587128179220603e-03,-1.170450252990904404e-02,-6.706370433097388374e-03,2.762341201305389404e-01
3.311127534740131440e-01,3.244381606158414644e-01,-2.894322373480706645e-02,1.142332882548138546e-03,3.507412070615410039e-05,1.186139663095048171e-03,3.567769229412078857e-01
3.230308568193963059e-01,3.246563485075606437e-01,-3.469937604803044473e-02,-9.427272341395174279e-05,-4.841878055824664750e-04,4.286623648262885469e-04,3.585475385189056396e-01
3.181312816312052427e-01,3.262470415052456385e-01,-3.288463203481473140e-02,4.825870752496549563e-04,-2.622673895824619949e-04,4.437643859520665375e-03,3.552277982234954834e-01
3.220653849315677775e-01,3.227533465272345858e-01,-3.526642977894492437e-02,-9.567805829308619579e-04,-1.905168293245779545e-04,8.109071359990534158e-04,3.576830327510833740e-01
2.794258336001952947e-01,2.925465480857077361e-01,-1.091526080415117783e-01,2.194276561236093159e-01,-2.325759220924565954e-02,2.578999538800473904e-02,5.516587495803833008e-01
3.289883283619996490e-01,3.246176719780948239e-01,-3.290478575457339572e-02,6.218651355535881938e-04,-1.557361438703441141e-03,-1.295113773557921141e-03,3.597464263439178467e-01
3.311939263931136801e-01,3.255164347519393098e-01,-3.194028419932973262e-02,9.735779067520185150e-04,-3.990110442096657324e-05,-1.523697073995496434e-03,3.603426218032836914e-01
3.229121749965347399e-01,3.164937094270710016e-01,-3.225311864066549017e-02,-5.189916186591615570e-04,-4.542286234485158267e-03,3.099571335026681494e-04,3.520894348621368408e-01
2.852767933462546646e-01,3.132097624060549146e-01,-7.810129338900850815e-03,2.123590451246739480e-02,-5.593261829259820947e-03,5.549889013741184096e-03,3.104933798313140869e-01
3.178946903921343048e-01,3.143968473668525831e-01,-2.877878573916034521e-02,2.529314845272057056e-04,-3.255945488583589925e-03,1.640236347070429031e-03,3.449959158897399902e-01
3.243027330098000593e-01,3.249306764100168277e-01,-3.411343564391458583e-02,3.464612298299767751e-04,-3.196664662463644373e-03,-3.190325503852691705e-03,3.588163256645202637e-01
3.133336506351699913e-01,3.166782976328417210e-01,-2.937403915279165889e-02,-1.422251970285377896e-03,-2.500357407720142297e-03,-2.796619022916627985e-03,3.444623053073883057e-01
3.156201880938209747e-01,3.228469260198223445e-01,-3.149321091137277651e-02,9.686974796124085164e-04,-5.996291691369623174e-04,-4.564259565783664041e-03,3.508772253990173340e-01
3.192046816904343109e-01,3.128560024466620626e-01,-2.915220306756410862e-02,-7.176850848098553434e-04,-3.887540850146207864e-03,-2.215487048490115494e-03,3.453155457973480225e-01
3.280346109665484011e-01,3.182390670166143076e-01,-3.391141956805771018e-02,4.335110695089843197e-04,-2.394843665072540675e-03,1.938416444983329361e-03,3.571896851062774658e-01
3.216859859867005067e-01,3.175215100366396426e-01,-2.992309442639809469e-02,-2.632641637689607083e-03,-3.606293974984127286e-03,-4.401872081841998706e-03,3.497141003608703613e-01
3.301606885821322113e-01,3.270437266375050278e-01,-6.647035599342876466e-03,3.084370115031414856e-03,1.031237968145099198e-03,-5.586727446556104260e-03,3.354470133781433105e-01
3.060366177451206426e-01,3.116500200979105961e-01,-2.754185331149364147e-02,-1.487134683727712667e-02,-6.680173051250977607e-03,-7.703960309429156925e-03,3.378668725490570068e-01
3.305186056985499610e-01,3.242424605813877259e-01,1.335360113734668230e-03,1.529923621702114793e-03,-4.405145651904996199e-03,3.140914207642420911e-04,3.261909484863281250e-01
2.844985797183886556e-01,3.234606419742376282e-01,-1.787880574053532512e-02,-4.959775051931362456e-03,-2.814491811096106341e-05,-6.348725482479015449e-03,3.239229619503021240e-01
3.253638401319264850e-01,3.239120012458444053e-01,-3.522510677815837710e-02,1.778895708848433031e-03,-1.606622846791104942e-03,-1.069214964004423134e-03,3.598939478397369385e-01
2.934298042178949406e-01,3.559369364761024723e-01,-2.018081855474807007e-02,-1.360635959486108590e-02,-5.906020228092888867e-03,-7.205218468768073183e-03,3.502534031867980957e-01
3.241387569665903357e-01,3.270067622764025739e-01,-2.720378492896424749e-02,1.494361743811754850e-03,-2.387611145918135634e-04,-2.645720444510736222e-03,3.528247773647308350e-01
3.010423023973043399e-01,3.255495087873562232e-01,-2.628303963063458037e-02,-2.064251061899969979e-03,-1.334886862481646783e-04,-6.965899254154296789e-03,3.404742479324340820e-01
3.234395054925236490e-01,3.303530859024936817e-01,-2.908244168379481298e-02,3.612196731739216880e-04,4.492891935876394769e-04,-7.479461182339380322e-04,3.560328483581542969e-01
3.120110952816952943e-01,3.334527679888827922e-01,-3.148791073253665029e-02,-5.540100546603974815e-04,6.738843546715192869e-04,-4.777209036694017759e-03,3.548059463500976562e-01
3.913621163367495548e-01,2.149205688109464274e-01,-9.227291895264255750e-02,-1.759414270371016387e-01,1.424764340250742230e-02,5.347944808848434720e-03,5.227447748184204102e-01
3.291496171426068207e-01,3.230465963874588065e-01,-3.294055935668349644e-02,-1.079956615462937530e-03,1.422542293504471542e-03,-8.886795634903958034e-04,3.590942025184631348e-01
3.133350465808542040e-01,3.294435043597223611e-01,-3.164889184401065148e-02,-9.748664736656468665e-04,2.897712893605935655e-04,-3.945868681907830494e-03,3.533841669559478760e-01
3.243315912958983360e-01,3.249262846760900270e-01,-3.137040123469808650e-02,2.463952608365761352e-04,-9.897382072861168629e-04,-8.809675091950212953e-04,3.560073673725128174e-01
3.050818034934746903e-01,2.997909284188022827e-01,-1.681598554852967164e-02,-3.443749755250397233e-03,-3.672721563768478401e-03,-9.993363479155891078e-04,3.194089829921722412e-01
3.014454662235389049e-01,3.434923099897069232e-01,-2.102552483233860459e-02,-5.322426780878883323e-02,-4.804446201126173072e-02,-2.928420859946584756e-02,3.705540895462036133e-01
3.292470673228414801e-01,3.230622663639222125e-01,-3.255926192097380323e-02,-1.151780720601547217e-03,-4.569014723609792785e-04,8.440269829604406899e-04,3.587633073329925537e-01
2.753886401307102938e-01,3.103067798479749451e-01,-1.013551915192562047e-02,-1.047738061113433206e-02,-1.986209413433234327e-04,-2.073802605740413148e-03,3.050502240657806396e-01
3.454046182222639816e-01,2.699835305622740877e-01,-2.534412783111744671e-02,9.211513214729315224e-03,8.543154707271928159e-04,-2.033566122893303019e-02,3.415817022323608398e-01
3.152984880327187045e-01,3.216493266980412491e-01,-3.158152793542154391e-02,1.948150476371072689e-04,-1.803152299367865002e-04,-4.104018290018412139e-03,3.501710891723632812e-01
3.117483537301108387e-01,3.388732564397662350e-01,-3.155557936924949236e-02,1.973844833314628174e-04,-1.408320649180345129e-03,3.788308328565003977e-03,3.577073514461517334e-01
3.284014185116377327e-01,3.310533944311927490e-01,-2.586110271047309395e-02,6.141167306980647176e-04,2.680095620387683026e-03,1.088335985044505553e-04,3.556278645992279053e-01
2.889069857595365498e-01,2.976291766707410136e-01,-1.423169449633157613e-02,-1.938614736667044341e-02,-5.912678910974634473e-03,-6.735059874463792881e-03,3.098089694976806641e-01
3.066275475738041711e-01,2.804401561073395777e-01,-1.375739129855355070e-02,-1.198751647000004944e-02,-3.954064500752895936e-03,-3.074118289892143960e-03,3.089475631713867188e-01
2.917555142351495046e-01,3.179361683505130265e-01,-1.527702061264782363e-02,-1.709760757872323331e-02,-6.586723257944606703e-03,-6.932765839597227267e-03,3.227135539054870605e-01
3.150054084717984759e-01,3.265413966988709449e-01,-3.130916764640456762e-02,-4.408145730427987441e-04,-4.331943744597593020e-05,-4.504936459873892622e-03,3.523115217685699463e-01
3.094792493420813195e-01,2.874399160540189735e-01,-9.952978369095172306e-03,-2.227963927104960329e-02,-1.724746231672117996e-03,-1.011652094976606478e-03,3.114221394062042236e-01
2.884034319874148045e-01,3.556553502147054013e-01,-2.928119181854860198e-02,-3.568509803630284805e-03,1.507675931418251021e-02,-4.122623618835197234e-05,3.571153581142425537e-01
2.642712096380719355e-01,3.914285185890906127e-01,-2.882284615068789191e-02,1.529480905425260190e-02,5.102818713564669789e-02,1.324295709069948663e-03,3.845267891883850098e-01
3.241105249945653299e-01,3.252938869874858474e-01,2.242808927384165596e-02,1.860925887630839309e-03,-1.915882543436580720e-03,-3.480390919157338656e-03,3.023713529109954834e-01
2.413800550661275024e-01,3.276802319229502602e-01,-9.195828468872624395e-03,3.447616844362275806e-02,-3.451335275837859751e-03,5.339649380776901461e-03,3.091081082820892334e-01
2.981986198817485612e-01,3.385653701567713503e-01,-3.175084718907544845e-02,2.093813594263888890e-03,-5.313314690680279867e-03,4.479036789815845146e-03,3.520981967449188232e-01
2.729804395253333515e-01,3.108171268777669694e-01,-9.016980350699144164e-03,-1.039026784143137067e-02,-1.391346624201404442e-03,-1.109212337150245050e-03,3.032447397708892822e-01
3.022185893784202770e-01,2.918590351438402619e-01,-1.006730832073968185e-02,-4.517665074689704643e-03,-1.442857383548950493e-03,-5.586078318626631987e-04,3.073484599590301514e-01
3.104157943344733606e-01,3.229501735805555551e-01,-3.130469198509436279e-02,-6.595956885287640762e-04,3.646007963250976099e-03,4.617788931601885319e-03,3.483079373836517334e-01
2.744615114211633733e-01,3.865459073288535219e-01,-2.762533524628912884e-02,-3.696948985304501084e-02,1.491228166340815772e-02,1.244562539594620300e-02,3.780352175235748291e-01
3.121540613211516990e-01,3.227805410279757092e-01,-3.045332382722598652e-02,-6.190580584940269179e-04,-1.971380351166674740e-03,4.288873539117124545e-03,3.481399714946746826e-01
3.180993230921884685e-01,3.267249295986789370e-01,-3.242207262563667758e-02,3.542355657403620001e-04,-1.605600079973532621e-04,3.975300680613480693e-03,3.549802303314208984e-01
3.265935536072316348e-01,3.267331093570216005e-01,-3.201221301206116920e-02,-1.614855015280848311e-03,-1.964505304848515425e-03,2.125708922735045081e-03,3.587214946746826172e-01
3.264781776389616974e-01,3.289480781014361699e-01,-3.065633091954389489e-02,-1.670157548489782911e-03,-1.934424727000650344e-03,3.997783711757076216e-04,3.584038615226745605e-01
2.983231824011665645e-01,3.266250633653559055e-01,-2.546784006219690588e-02,3.110707671819683533e-03,-7.459338381737165785e-04,6.333574394476366304e-03,3.390524387359619141e-01
3.286972950425598450e-01,3.266093440078044474e-01,-2.541385789234842929e-02,-1.450113952920208723e-03,1.287804937971132220e-03,-2.488910086309463043e-03,3.531140983104705811e-01
2.577494830177534668e-01,3.569726060061895190e-01,-2.589183300922809350e-02,1.075831438387030094e-04,1.012006236367536498e-02,3.053407105650027091e-03,3.446398973464965820e-01
3.207086886913054768e-01,3.227657670602611106e-01,-3.445966608735040460e-02,1.002092115311874632e-03,-1.000314566132919818e-03,1.684337442268444033e-03,3.562217354774475098e-01
2.829819850305479445e-01,3.286081677214158225e-01,-2.394033211551299667e-02,-9.469987498367971046e-03,9.784547345494002540e-03,9.217985228088646649e-03,3.333135545253753662e-01
3.146976656064247591e-01,3.328181326053872846e-01,-3.161165067969556874e-02,-2.256255087797094227e-03,2.648146491202658503e-03,1.857731885362367890e-03,3.557814657688140869e-01
3.199525642812675041e-01,3.229634469843951639e-01,-3.300293741383042434e-02,-1.192285760931797133e-03,2.922215988943998883e-03,4.095151259529385829e-03,3.545836210250854492e-01
3.085108305943609075e-01,3.111960678878927244e-01,-2.507156376189628721e-02,-8.803299033490568064e-04,-2.914779471911481618e-04,6.592778919308230328e-04,3.349388837814331055e-01
3.156547598022733103e-01,3.109651977779915866e-01,-2.506489815730469917e-02,-2.476880299189802886e-05,-3.822751961325511483e-03,6.982699766369664541e-04,3.384661674499511719e-01
3.179677300130170914e-01,3.200995098242489512e-01,-3.282978719226231634e-02,6.403594424566254415e-04,-5.579045208260254452e-04,4.531187121266887913e-03,3.519588410854339600e-01
2.985649443919139445e-01,3.397927027251165799e-01,-3.169999227084274729e-02,-1.691603376556136823e-03,5.359583827095676031e-03,4.906433144342439018e-03,3.529273569583892822e-01
3.303961659578718568e-01,3.236332999109441388e-01,-3.293195568272966334e-02,-1.167193326765645755e-03,1.188453281540905078e-03,3.103778872172720076e-04,3.600063025951385498e-01
2.957317860529927733e-01,3.402621134077977727e-01,-2.387202461405313336e-02,1.597699235816485430e-03,1.126453804005493088e-02,-2.639714408920588399e-03,3.446314632892608643e-01
3.361738027572487297e-01,3.081564138261424501e-01,-9.370722692345473392e-02,-1.994344564136132925e-01,-2.167971586621950109e-02,-2.806691060419822664e-02,5.446412563323974609e-01
3.010439029241755993e-01,3.268665132003724105e-01,-2.738051576116165564e-02,-2.091537239274531262e-03,-1.572418706020489699e-04,-7.073900020332602075e-03,3.423061370849609375e-01
3.278961905780203856e-01,3.278852988738344965e-01,-1.124091259226386863e-02,-2.128693362664279328e-03,-2.443377497916309794e-03,3.501073491695758273e-03,3.392322957515716553e-01
3.219397603370137695e-01,3.292713821449303468e-01,-3.344057272966582950e-02,-1.781296085211941428e-04,-3.870439250553016743e-04,9.164748608886492346e-04,3.591065406799316406e-01
4.399259159850767986e-01,1.709430923051997731e-01,-9.142699335895054791e-02,-1.115229746069954231e-01,-1.340994766077107866e-02,-2.515340814598621133e-02,5.015102624893188477e-01
3.081510321039372391e-01,2.345388546378316119e-01,-9.518071328442873069e-03,6.385513197618002124e-02,3.996359320324059162e-04,-8.347345992969285510e-04,3.085175752639770508e-01
2.885709511120599369e-01,3.110257458816607645e-01,-1.073248048497385532e-02,-4.718263945161833665e-03,2.282476654890039629e-04,1.948238276267123467e-03,3.112649917602539062e-01
2.921818173742695146e-01,2.998399143610903095e-01,-1.109030640650707222e-02,-5.737486053407675826e-03,3.680501876711513259e-04,1.655010942306172055e-03,3.073475062847137451e-01
2.886216309606136066e-01,3.434451190226308626e-01,-2.140091981074651595e-02,-3.344991647786853955e-02,-1.077696525257773423e-02,-1.452851796898931187e-02,3.470655083656311035e-01
3.783010288367811835e-01,1.770776737307836468e-01,-2.088106722516572256e-02,1.440008122470042137e-03,6.142587508840256089e-03,-4.349742533361588420e-02,3.539885878562927246e-01
2.082832766225202747e-01,3.611032159288013466e-01,-7.336518996640117862e-03,-2.714338499839169788e-03,1.475369709287742068e-03,1.809657517978006079e-03,3.206794261932373047e-01
3.273015791607181146e-01,3.278129047316956646e-01,-2.759266924192038672e-02,1.833893391316698731e-03,1.931769051335535930e-03,1.440103906447083061e-03,3.551889061927795410e-01
2.981190008842007910e-01,3.109414686733120714e-01,-1.664840003317166750e-02,-3.675058203650134227e-03,8.010158456647307069e-04,5.508430549878279119e-03,3.215781450271606445e-01
3.735282510342641249e-01,2.412115848971998489e-01,-1.563831012576902268e-02,4.998023307969358398e-02,1.516569676716232953e-02,-1.988424649908989220e-02,3.561394512653350830e-01
3.061492053777744027e-01,3.265798983300488012e-01,-3.088581185814753827e-02,2.801195555223534497e-03,-5.203493745683849744e-03,6.800961701131094488e-03,3.480508625507354736e-01
4.074127069472327500e-01,3.360356126097489571e-01,1.783984727391652036e-02,-1.062029375557146937e-01,2.010658540719280005e-02,5.282547905788050058e-02,4.153031706809997559e-01
2.912824356439128182e-01,3.360915648118592003e-01,-8.869926335767042147e-02,-2.016291118589023657e-01,1.560264401948209707e-02,9.465028171751085906e-03,5.351472496986389160e-01
3.654256156214261697e-01,2.421535787229123771e-01,-2.824392829274402494e-02,6.355893575319003508e-02,1.154729396200136586e-02,-2.093196945848218443e-02,3.680719137191772461e-01
3.724443448055466677e-01,3.484850813077265408e-01,5.396457440815571882e-02,1.631435647759411304e-03,-2.175327932560716659e-02,-2.014112405618818241e-02,3.114762604236602783e-01
3.479911764384451267e-01,3.377454137824922320e-01,5.186656989439530907e-02,9.964557187246024864e-03,2.101829300262542197e-03,1.518875980207902085e-02,2.928548455238342285e-01
2.112203352608797435e-01,3.937502098465123224e-01,-9.374557940974903580e-02,-1.879298213736712297e-01,1.313312497561079824e-02,9.826719428394201442e-03,5.373516082763671875e-01
3.221846083711693565e-01,3.180703375230936047e-01,5.596925498619867434e-02,7.453835954716475382e-04,-2.132100086756960177e-03,-2.369333769568543382e-03,2.642430663108825684e-01
2.959596887450854918e-01,3.338807211047440937e-01,-2.636838998873308748e-02,1.420573676624125063e-03,-1.119022746682470229e-04,6.442192875266113290e-03,3.430553972721099854e-01
3.292261560400513432e-01,3.301507908237655275e-01,2.625864860851426230e-02,-1.050633100902492560e-03,3.722510733019082987e-03,-4.679428357917411220e-03,3.036130368709564209e-01
3.419533050270114338e-01,3.433467263555178839e-01,5.208117269536616245e-02,-1.705958433992402559e-02,-3.972396360038565194e-02,-2.635767031213465117e-02,3.035176396369934082e-01
3.142295158699007218e-01,3.151672086957141850e-01,-2.799583652898310349e-02,-3.188008877885111056e-04,2.558189829900615452e-03,2.542645072355965898e-03,3.427525460720062256e-01
3.290064161297279743e-01,3.248515939454476031e-01,-3.244496355329390402e-02,-7.277865315974821130e-05,1.280447473787590853e-03,-1.045406921447023527e-03,3.594034016132354736e-01
3.502645378179923830e-01,3.425797472929220655e-01,4.635544258438009657e-02,-5.063430256896661596e-02,-2.921366689996050467e-02,-1.766936821568400665e-02,3.182337880134582520e-01
2.540134623527184887e-01,3.461470577156451345e-01,-8.296906707761037003e-03,-1.963805683581845707e-02,-6.483972799210071560e-04,-1.915530339749992386e-03,3.203625380992889404e-01
2.896982736531606983e-01,3.493665460975052817e-01,-2.824266158124241755e-02,-2.339976381388412293e-03,5.281722908796346533e-04,5.942952998501691095e-04,3.516191840171813965e-01
2.131191070255642195e-01,3.540023618092880686e-01,-7.579715743668224981e-03,-1.499944179450703879e-02,-6.296848254285541263e-03,-4.709270717533289505e-03,3.170319497585296631e-01
2.373890897789695531e-01,3.476718275923238455e-01,-1.653273424791509849e-02,-9.190146827225659232e-03,-1.361800160155872928e-02,-3.587483860210118666e-03,3.247924149036407471e-01
2.253163135657808014e-01,3.533248609023657005e-01,-6.633528156203355453e-03,-1.265496730142575375e-02,6.791670268699765648e-04,-2.245543871161569550e-03,3.168208301067352295e-01
2.045884188577400953e-01,3.695442805405222408e-01,-2.878181992864792260e-02,-8.325518565698922235e-02,-3.509802468515504925e-02,-2.214099029432884183e-02,3.822675049304962158e-01
3.287587779448981617e-01,3.238882471410550190e-01,-3.252171960852262567e-02,-7.186954941040822912e-04,1.352457616923907844e-03,-7.969697083932328731e-04,3.588824868202209473e-01
2.542478241543776885e-01,3.295031366223884484e-01,-1.264470785153665178e-02,-3.047188835815175384e-02,-7.656476991898038265e-03,-7.425677649275667404e-03,3.163968324661254883e-01
2.449384845786304887e-01,3.225099536581502169e-01,-1.012105984113750856e-02,-2.209461507333868729e-02,2.468941967799071456e-03,-1.420091524330085488e-03,3.038863241672515869e-01
3.283273376952204892e-01,3.240909446620096612e-01,-2.112722672887437647e-02,8.420757921875315737e-04,1.988461072413948930e-03,5.180781606291011074e-04,3.473770320415496826e-01
3.674676090275599272e-01,3.439457600158247197e-01,7.601883418401733650e-03,-1.012858918801228837e-02,-2.495358151177648129e-03,4.450448313829257797e-03,3.492531776428222656e-01
2.691261761241821038e-01,3.419394261397098456e-01,-1.849521159686148830e-02,3.197017090085916072e-03,-1.001639110015575124e-03,4.970477242431292977e-03,3.302699923515319824e-01
2.483131194801491415e-01,3.589574109700137128e-01,-1.821595496222278010e-02,1.139277968529905103e-03,3.098137524078878758e-04,7.993375704928277906e-04,3.358212709426879883e-01
3.851763645632074740e-01,2.347108259504730454e-01,3.251663155624584522e-02,8.556036132784430523e-03,-1.967818223231673075e-02,5.987630018908510210e-02,3.257030248641967773e-01
3.090268758147992623e-01,3.148034258177632716e-01,-2.553294371475403612e-02,2.629833848209165489e-03,-8.594808623438058778e-04,6.886649074784667070e-03,3.377299010753631592e-01
3.461536894745804727e-01,2.703793274216514386e-01,-2.604086096502089553e-02,2.689407373274153336e-03,-4.385732257491893951e-03,1.019661082610502992e-02,3.412609696388244629e-01
3.141005237408031614e-01,3.018330307155795977e-01,-1.966748096721979144e-02,2.570429619308829856e-03,-5.889573215262107128e-03,3.422807058241144913e-03,3.280489444732666016e-01
3.190110167028336607e-01,3.129715932442841964e-01,-2.795731239177345895e-02,1.677324803256431858e-03,-5.197754619666552188e-03,3.042186902155542220e-03,3.441587686538696289e-01
3.019339097025157126e-01,3.034401773509717848e-01,-1.698287165756229289e-02,-3.711176481908316479e-04,-2.315803872500271589e-04,8.256770294906429219e-04,3.196766674518585205e-01
3.394218041681528186e-01,3.141554387783793700e-01,-2.909352635008607968e-02,6.389387218335211517e-04,1.824584434333628713e-03,3.889096543034779342e-03,3.566335439682006836e-01
3.005794454198129073e-01,2.963076307632432904e-01,-1.166541485746017126e-02,6.056808166651702317e-03,-3.007229570078303726e-03,2.599499657296929032e-03,3.103847801685333252e-01
3.286827661144915425e-01,3.230070170764036686e-01,-2.982884154508949615e-02,-1.244729196454495007e-03,1.104501526122411616e-03,1.758869234130741414e-03,3.557324111461639404e-01
2.844443356097460240e-01,3.258156318008326169e-01,-1.821233723127094195e-02,-5.381042154035669579e-03,-1.050094075563485433e-04,-7.349479418893927266e-03,3.257036805152893066e-01
2.734522227533442984e-01,3.090808458111843349e-01,-9.937787405443238020e-03,-1.128422874254429373e-02,1.227833930061513704e-03,1.344032909134196090e-03,3.034271597862243652e-01
3.159172735162345536e-01,2.955355686061503229e-01,-1.626074262241636315e-02,-1.701161417149964217e-02,5.998020366351594634e-03,4.701952835804832156e-03,3.240829110145568848e-01
3.302244020849514072e-01,3.188702599712406327e-01,-3.160857160048979875e-02,1.029216282453016603e-04,1.522029503232510397e-03,-2.559365465358377778e-03,3.563289940357208252e-01
3.108357883154034274e-01,3.020857449841841680e-01,-2.477408827257171486e-02,-1.815632811242845479e-02,7.492507196067870086e-03,8.291834390198617871e-03,3.333730399608612061e-01
3.086329640807559116e-01,3.247844294795527165e-01,-2.692311307257688746e-02,-1.370880698709351546e-03,5.763115388662543850e-04,7.396646439804726268e-03,3.441645503044128418e-01
3.129593766252830589e-01,2.916393926902242084e-01,-1.645456895983374301e-02,-1.228227551002759876e-02,5.656158891257289864e-03,4.495274346536599387e-03,3.202407658100128174e-01
3.582730891168163789e-01,3.201764081004686568e-01,8.472625016220092231e-04,-2.108660408506126197e-02,1.442440366227495420e-02,6.434738066653859258e-03,3.430308699607849121e-01
2.912449904529190725e-01,2.742148017620244516e-01,-9.322977776601654165e-03,-6.366300303480743050e-02,1.414142839681260290e-02,1.210786298229700811e-02,3.141831755638122559e-01
3.196148661792295731e-01,3.207598108713793916e-01,-3.363428750024669012e-02,6.076431024985433403e-04,-2.809835287806329227e-03,1.653156745953320841e-03,3.538696467876434326e-01
3.225990907698113030e-01,3.230274406840325518e-01,-3.578972323363416308e-02,-1.853474367778728616e-04,-5.685880735660993638e-04,4.980936647467154805e-04,3.586057126522064209e-01
3.753513204986886342e-01,1.292743335876803956e-01,-1.130561132648545963e-01,-1.299538324523303312e-01,-1.114933295178464900e-02,5.778591517869737654e-02,4.898616373538970947e-01
3.023169259114492635e-01,2.931707745635989681e-01,-1.164448333687304049e-02,-4.166294034252234803e-03,-1.282478402705282405e-03,-4.980990430478734283e-04,3.095830082893371582e-01
3.218640034783268877e-01,3.224510324082853208e-01,-3.531097459877755029e-02,1.945964477216875830e-04,-2.609838085358377334e-04,-1.222554987916255296e-08,3.574692904949188232e-01
3.222730577705340549e-01,3.230313899955944978e-01,-3.562593442055417281e-02,-1.512922427473532524e-04,-6.491756922164459379e-04,5.324851118423943631e-04,3.582818210124969482e-01
3.638271172385911800e-01,2.243560539477685856e-01,-9.654766001159453825e-02,-1.886736718693679815e-01,3.619876925499847242e-02,2.709265487506257522e-02,5.292584300041198730e-01
1.898473340758145278e-01,3.928925533322897290e-01,-2.392143906347046767e-02,2.088784629759425637e-02,-4.349334357480689334e-02,8.373751431407294027e-03,3.708415627479553223e-01
2.417899500826255765e-01,3.452622973469637868e-01,-6.614926739731991079e-03,-7.480519958688841564e-03,-1.010099985605703151e-03,1.709936858532747506e-03,3.135191500186920166e-01
2.682511082307201811e-01,3.226530169463555087e-01,-9.687041985885547213e-03,-8.333282324209677350e-03,1.327459290506501359e-04,3.306873083792331684e-03,3.091451823711395264e-01
2.631950325212362163e-01,3.443478465574965064e-01,-1.834246634666267251e-02,-5.676720937235501564e-03,4.022515654688662927e-04,-7.260421362033707242e-03,3.300787806510925293e-01
3.529417886689848460e-01,2.917874453710092575e-01,7.940865994543661044e-03,-3.899969873727039682e-02,4.022039083614530053e-02,6.145460605801431747e-02,3.498759269714355469e-01
3.249975009828099393e-01,3.301994422812675190e-01,-3.137075463172764311e-02,3.126821786618404751e-04,1.168521279087791562e-03,5.462117820531962962e-04,3.590048551559448242e-01
3.200696858885285212e-01,3.207480075730824165e-01,-3.395644467973632508e-02,1.360100825725862677e-04,-4.702159511916211921e-04,8.233351479548106384e-04,3.543696701526641846e-01
3.229602388773145649e-01,3.227384798889913475e-01,-3.562086958950058668e-02,-4.099906780969794426e-04,-4.577304317458309236e-04,2.599976425396319452e-04,3.584721386432647705e-01
3.538426090354157560e-01,2.519544115823154073e-01,-1.839837114821443742e-02,-1.085891928619498424e-02,-1.335845855595982519e-03,-9.913271626479104245e-03,3.341728746891021729e-01
3.478250467598600904e-01,2.727709619601972890e-01,-1.979804052531011771e-02,-2.096920063188530310e-03,-5.065150825645064504e-03,5.420026412739183857e-04,3.365698754787445068e-01
2.889030300375723948e-01,4.801620259572326743e-01,1.108039370232444254e-02,-2.080927590583195666e-02,-5.929712416156215221e-02,-1.282990670429587192e-03,4.227930605411529541e-01
3.611948922131059669e-01,2.214988576975761014e-01,-1.701555549240868492e-02,-9.687851375419038666e-04,4.439708662688975635e-04,-1.749155063337930888e-02,3.326332867145538330e-01
3.999448830758280393e-01,1.974373233907172065e-01,-1.476695043304368515e-02,-7.674633228796563442e-03,-6.288466077177496533e-03,-1.325704984293660411e-02,3.603269457817077637e-01
3.954151229955693569e-01,2.408317903732071219e-01,-3.448249068675726670e-02,2.580908928358264381e-02,2.278457721612784509e-05,-3.370311438451990826e-02,3.842642307281494141e-01
3.622377148755738796e-01,1.994774634893351217e-01,-2.278056227151553648e-02,-1.510553011349899388e-02,-7.386990498103868444e-03,-1.143401659345997731e-02,3.366076946258544922e-01
2.873030754327159375e-01,3.082761803869730199e-01,-9.571476932366707047e-03,4.655226477543923831e-03,-4.931879044416876537e-06,2.210499058086840777e-03,3.080266714096069336e-01
3.075424181178240124e-01,3.095608929761352601e-01,-2.136715505055147846e-02,-1.137874058505521048e-03,2.246653071824418306e-03,3.719428330938564630e-03,3.300151526927947998e-01
3.239541764003102120e-01,3.295321388872473611e-01,-2.873873178643709947e-02,-3.085712580455478716e-04,-7.276287300429630598e-04,-3.353696190037228661e-05,3.555173575878143311e-01
2.883941973438164386e-01,3.161300523470894630e-01,-1.813040247061806221e-02,-5.323021315762816764e-03,-1.882768804741410495e-04,6.786326174277656186e-03,3.216389417648315430e-01
3.272872275887341309e-01,3.232507767681413458e-01,2.032372268326121389e-02,1.326375927610252796e-03,-4.330820208602786069e-03,-1.977677056473357842e-03,3.050854206085205078e-01
3.086796602737228445e-01,2.875923977234961515e-01,-9.760003721411086852e-03,4.787321788345823281e-03,2.036781015883648658e-03,-1.043421519553249622e-04,3.085688054561614990e-01
2.952743734300856682e-01,2.960858689292334422e-01,-1.269853530890213689e-02,-1.387831429510021780e-02,3.922654647314081054e-03,2.334100739238744848e-03,3.094159364700317383e-01
3.203474120305984663e-01,3.126393738656150223e-01,-2.391304807720190384e-02,-7.425445779172389071e-03,8.486580718118435021e-03,6.915339886988079721e-03,3.412419259548187256e-01
2.767567552741688752e-01,3.070813200176418234e-01,-1.303430748318940013e-02,-1.257956073189168793e-02,2.888149549454107224e-03,3.980983948330516983e-03,3.069747984409332275e-01
3.019001115242594402e-01,2.965512071530909677e-01,-1.034404219012519111e-02,1.661875647168743232e-03,-1.638001911316033744e-03,2.953208705239278569e-04,3.096311688423156738e-01
3.099524798678800486e-01,2.938396228112974962e-01,-1.693965628993471251e-02,3.389061987162129454e-03,-3.925611270620409619e-03,8.721575157892407773e-04,3.192708790302276611e-01
1.923134097174911961e-01,3.974815972118905250e-01,-8.261116598632878283e-03,4.457701458179601228e-02,-2.843735781277854490e-03,1.211074355969978455e-03,3.598133325576782227e-01
2.148503005865206872e-01,3.684293473457464496e-01,-6.760165337850981837e-03,-1.012724395515839614e-02,-1.564325647342385353e-04,3.571646752112590459e-03,3.272284865379333496e-01
3.504476935889099254e-01,2.549618025412399569e-01,-1.975712426838510671e-02,5.826713227008188580e-04,3.127362205674006756e-03,1.430683171606399531e-03,3.329509496688842773e-01
2.334748536997189317e-01,3.565613859112659045e-01,-1.528158198820805946e-02,8.997601484540096017e-04,5.197548990280988906e-03,-1.505146661929734073e-03,3.282360434532165527e-01
2.312514011429842864e-01,3.453042509702087814e-01,-1.179522098021892895e-02,1.685072212590877846e-02,7.273444994106282972e-03,-2.777444803126844549e-03,3.175429999828338623e-01
2.049319385555087025e-01,3.573097885777883898e-01,-8.438693589302742604e-03,3.033155416451044362e-02,-7.278585582088979190e-03,4.357000974581306694e-04,3.227669596672058105e-01
2.984938540766339798e-01,3.100187610839297836e-01,-1.659377961024513515e-02,3.850838479671283253e-03,-1.075232446076834292e-03,6.198761294232143539e-03,3.212594389915466309e-01
2.924772632826272423e-01,2.989550971358648224e-01,-1.004117342667140700e-02,6.090597693215394487e-03,6.068347479214849691e-05,-2.891594901262068600e-04,3.059911429882049561e-01
3.214405703114903701e-01,3.249111467088634519e-01,2.921463825948028559e-02,-2.693936385223977032e-04,-1.133154767368469698e-03,3.808137368135095825e-03,2.940574884414672852e-01
3.181174771194197337e-01,3.206454150293249761e-01,-2.874039755643206795e-02,1.114283526154419626e-02,1.008790330643668728e-02,-9.718310341219189158e-03,3.495064079761505127e-01
1.679923359860251431e-01,3.689605609614495796e-01,-9.810607944910454403e-03,1.503779975916575556e-02,-1.403656157911763397e-03,4.457784714651189147e-03,3.293611705303192139e-01
2.738495991902926141e-01,3.303933216909246684e-01,-1.631677717925028581e-02,2.603822371457856222e-02,5.563084059586663986e-03,-1.035778815151680923e-02,3.259592950344085693e-01
3.321358225222265093e-01,3.298107206270881608e-01,2.947461347607621684e-03,-2.471638973296838484e-03,6.111834292626244433e-03,3.212164395580275125e-03,3.282778263092041016e-01
2.706237617384291139e-01,3.227749011875513108e-01,-9.783570341084263378e-03,-6.935808869855994430e-03,-2.368192398930699105e-04,-1.955678933073441619e-03,3.100444078445434570e-01
3.273274913062117486e-01,2.895314072216524370e-01,-1.493509659269312562e-02,2.901792122978223698e-02,6.324419945145811836e-03,-5.005141134502587297e-03,3.291767239570617676e-01
3.302760398015336385e-01,2.845879124782396685e-01,-2.631929757086479138e-02,8.517680648924835438e-03,8.807754417579123293e-03,-1.187877150913739521e-02,3.373857736587524414e-01
2.902474563562258414e-01,3.395203261372137793e-01,-2.748592616719708337e-02,4.043779284741741420e-03,1.009888594570537571e-03,4.345270061100608115e-03,3.451763391494750977e-01
3.326138644762852148e-01,2.673083165774053915e-01,-2.010419506716279447e-02,1.896060685458822448e-02,8.804499979849528257e-03,-1.044209303652330646e-02,3.275340795516967773e-01
2.705645203042615909e-01,3.235822610461022153e-01,-8.596428324928961917e-03,-6.962571493765919509e-03,-1.994268764896952467e-04,-2.950562713920896682e-03,3.093765676021575928e-01
2.650031589489751371e-01,3.909944639537669131e-01,-2.669207374785104170e-02,2.452835821169426292e-02,-1.932262133769468287e-02,7.674813625697938721e-03,3.752501904964447021e-01
3.284545654388524305e-01,3.295069860007510121e-01,-2.619516008324901390e-02,1.516423331359761277e-03,2.226885313365344152e-03,7.329127490830804554e-04,3.552100360393524170e-01
1.000577077411658883e-01,3.886572255330164594e-01,-2.764639694366877176e-02,-9.585050473018544293e-02,1.206365717066357028e-02,8.676990177169607854e-03,4.058051109313964844e-01
3.706435972222433817e-01,2.062373726500195403e-01,-5.399733502416653730e-02,-8.273877925659807453e-02,1.281201374229661537e-02,3.006932393608978751e-02,4.015940427780151367e-01
3.020591916878703209e-01,3.345975006928446627e-01,-3.167721504117743114e-02,-2.312370583275005342e-03,6.377406992575484872e-03,5.713818938384393475e-03,3.514739573001861572e-01
2.664894199367806582e-01,3.429982346702941109e-01,-2.485125178311312077e-02,7.859731127117760771e-03,-9.154285450594754070e-03,7.982007581113143013e-03,3.371216058731079102e-01
2.904685699570657142e-01,3.460651913487110543e-01,-3.362330803771701460e-02,1.169541910509728361e-02,-6.407363186297709151e-03,4.538954293559067238e-03,3.560059964656829834e-01
2.561741287364375230e-01,3.660786789572587629e-01,-2.741579398357243957e-02,7.036935480199381365e-03,-2.235602144595039489e-02,6.095439964935664597e-03,3.541602194309234619e-01
2.306603024054069417e-01,3.459465956885336424e-01,-9.352592590405939266e-03,-6.731864508193761976e-03,-5.442449474945330569e-05,-2.533605840909511266e-03,3.142014145851135254e-01
2.356245328775637415e-01,3.464501523403810679e-01,-1.808228132607694882e-02,8.044111965992925897e-03,-1.321532342885377818e-02,4.983204760632502922e-03,3.248988091945648193e-01
3.284150273270881604e-01,3.273299367712274588e-01,-2.506985115472443182e-02,-3.279703158650385496e-03,3.089915445041727365e-03,-3.015430545326276256e-03,3.530685007572174072e-01
3.240609681100864448e-01,3.225772495283691366e-01,-3.327835659520794742e-02,2.318358165392903980e-04,-3.128040892624169358e-03,1.731259863874208245e-03,3.566537797451019287e-01
3.239582500727267167e-01,3.288383986031236939e-01,-3.237320829316861492e-02,-6.469793500320239824e-04,8.801114016615667899e-04,-1.269701091145163281e-03,3.588081598281860352e-01
2.693953147242677537e-01,3.239625867298022710e-01,-9.671827803812815816e-03,6.223096041404393812e-03,-5.113825893017693875e-04,2.916497711627736439e-03,3.102039098739624023e-01
3.280975098935812184e-01,3.229707225265846526e-01,-3.219646686979588113e-02,2.413034110851110508e-04,-5.750873057512240942e-04,3.369394613163845275e-05,3.577597737312316895e-01
2.130927262345160000e-01,3.628721878928759526e-01,-7.567094726594947307e-03,-2.529832873214130540e-04,3.155264153799048981e-04,4.576541658782576827e-04,3.227631747722625732e-01
2.690988566216788169e-01,3.426140961802149887e-01,-1.780611037031579191e-02,5.433323976559168919e-03,2.001076684803080482e-05,-7.274550920101282778e-03,3.302395343780517578e-01
3.137146351377721465e-01,3.209952750861914117e-01,-3.030803047694713426e-02,1.693890236006664884e-02,1.314625810185601762e-02,-1.293790504113230717e-02,3.504150807857513428e-01
3.266526288500235520e-01,3.227327507617732127e-01,-3.295320607061669183e-02,-4.674971676737259101e-04,-1.547748439704008929e-03,-4.244859908531914872e-04,3.576737344264984131e-01
3.250714729712810280e-01,3.233048268280812043e-01,-3.490894625637450122e-02,-5.104210056707012650e-04,-7.247241191747700369e-04,4.980769712648789281e-04,3.591046631336212158e-01
3.277392308140496535e-01,3.267588420850210396e-01,-2.526360661166029975e-02,-6.221635191924925054e-04,-4.700665556152163090e-03,6.992100459177516547e-03,3.528172373771667480e-01
3.099191156480489706e-01,2.853342030842781485e-01,-8.937692101786354204e-03,4.055102778111586981e-03,-2.564706195444679468e-03,8.515905959484393025e-04,3.074187040328979492e-01
3.355954654544588411e-01,2.938758543195711392e-01,-2.611525824503604931e-02,5.194363857365587832e-03,-4.194870308738625660e-03,1.614074982874681014e-02,3.440930843353271484e-01
2.954428615384461776e-01,2.798840190693392405e-01,-1.719597024047794798e-02,6.511555384858518092e-02,-1.016605721073048953e-02,1.022487340259739183e-02,3.262891471385955811e-01
3.102413765566486847e-01,3.058689778353014255e-01,-1.673531834936767271e-02,3.974672351097045114e-02,-7.937893526575770520e-03,1.139959388310902988e-02,3.328986167907714844e-01
2.424775923902599828e-01,3.438335839874965272e-01,-8.444229053094859383e-03,6.926296482783709033e-03,-3.875391458805987834e-04,2.303009178356214305e-03,3.143684267997741699e-01
2.559645104259121173e-01,3.432480461661093774e-01,-8.848256582132008052e-03,6.635587461585747138e-03,2.223343587247479072e-04,-2.816030687344958042e-03,3.178270757198333740e-01
3.014518349214450055e-01,2.967116729891721150e-01,-1.102590606625844516e-02,2.430095102158179657e-03,2.761113522322840839e-04,-1.881952943425433907e-04,3.101639449596405029e-01
3.268556864757735658e-01,3.317923299964547490e-01,1.096733616506151421e-02,-2.694883615690512810e-03,2.689905508532083444e-03,-2.907189027067283004e-03,3.184934854507446289e-01
2.897427613017947157e-01,3.455607689293643814e-01,-1.613070268970046017e-02,5.979096337862657706e-03,-2.245286582472960993e-02,6.082962552568618383e-03,3.398207128047943115e-01
2.739509522146980069e-01,3.302526369718673527e-01,-1.729132297654270567e-02,7.950363482602685467e-03,-4.192278373227854783e-04,6.956891510647984604e-03,3.236120045185089111e-01
3.337507274208239560e-01,3.318459416173001886e-01,1.677148429193586754e-02,-4.953939496918737147e-03,1.031544717092927957e-02,-2.386614168627895077e-03,3.166790604591369629e-01
3.085412261478105433e-01,3.312695811769065246e-01,-3.221659422714845400e-02,-5.267357378339433205e-04,-5.851760160269446056e-04,3.367504273617836618e-03,3.527225852012634277e-01
3.100052329086705472e-01,2.875806718372695969e-01,-1.050629266172495302e-02,4.507695654025025908e-03,1.743755845480323601e-03,-2.622291944084111353e-04,3.100216984748840332e-01
4.665060253474780927e-01,1.430730458075993028e-01,-3.742991418671798298e-02,-4.247272527148314436e-02,-7.306826627337734484e-03,-4.099391100785142357e-04,4.484900236129760742e-01
3.259765484883518916e-01,3.289081850586681455e-01,1.046350811882723608e-02,-9.566359309055314300e-04,3.185101533240034238e-03,-3.767184647772718522e-03,3.171084821224212646e-01
2.586186528303341947e-01,3.303505076496536796e-01,-3.074482887212470761e-02,-9.365742540669214078e-02,7.851972569714463571e-03,1.651519918930712070e-03,3.689736425876617432e-01
3.088980414871877467e-01,2.878529192880201482e-01,-9.927177395476022292e-03,-3.372404194559306019e-03,3.133795534130774316e-03,8.335012452204854658e-04,3.089472055435180664e-01
4.706148226346717478e-01,2.714056107560186004e-01,-1.321457589792940368e-02,-3.837147546447891577e-02,1.254509911372270192e-02,4.288219262865317766e-02,4.333564639091491699e-01
3.541266879185009375e-01,3.215719054326626747e-01,3.444954727662785654e-02,5.056608200336803333e-03,-2.176693485859858973e-02,8.470993248702131384e-03,3.075055181980133057e-01
3.292296642264834206e-01,3.312552350249097222e-01,2.106520059957578406e-02,-3.361318831958014057e-03,3.347909900955104833e-03,-5.438927266652957178e-03,3.094348311424255371e-01
3.492168540214901640e-01,3.213575195182896138e-01,-2.653164030577223609e-02,-6.000926718194905633e-03,4.656214808436932515e-03,9.727032719882575465e-03,3.632518351078033447e-01
3.230287452820048144e-01,3.240759278591568981e-01,3.840439459243624731e-02,3.203287273622699126e-03,-6.648742733167590895e-03,3.334940580109433360e-03,2.854942083358764648e-01
2.885992397937003351e-01,3.083973033138865949e-01,-9.406239642628905218e-03,-5.341017608784736151e-03,-8.863463546520385994e-05,2.606403329154013699e-03,3.085533082485198975e-01
3.085633585814561153e-01,3.261217242999214783e-01,-2.607812808609155653e-02,-9.739225223423641359e-04,3.743486701234892389e-04,6.316693843096940313e-03,3.439359664916992188e-01
2.979971087431051990e-01,3.147401373372522015e-01,-1.641390041484303008e-02,-2.681707569621653853e-03,7.876114721509665630e-04,3.495944088570962591e-03,3.232010304927825928e-01
3.268773532718051156e-01,3.231401064571823301e-01,3.257725392624280514e-02,-2.718363539601070973e-03,5.628888036287299848e-03,1.358411468618590670e-03,2.926591932773590088e-01
3.267066969114886810e-01,3.262010071757184271e-01,5.473181576912611312e-02,-1.704407796164640089e-03,4.550316453778718156e-03,-6.347247820843131619e-03,2.720749080181121826e-01
3.212994435895778489e-01,3.094924556627607903e-01,-2.441884810169173137e-02,5.783952748909677519e-03,6.796170333249170262e-03,-4.455094396560083971e-03,3.404072821140289307e-01
3.514707337549805577e-01,3.021103209616132768e-01,3.547633131523747485e-02,1.724881090968828634e-02,9.576666432316496141e-03,1.031489796719819909e-03,2.964155673980712891e-01
3.018696090018974654e-01,3.148471409077177041e-01,-2.218277038478580487e-02,-1.656941724006113191e-03,3.174276651529718378e-03,5.554385978689891507e-03,3.309301733970642090e-01
2.864910472732432600e-01,3.222620316094445547e-01,-1.673315659728510929e-02,-5.625668727449131649e-03,1.052479455077474040e-04,7.017873471917837266e-03,3.229765295982360840e-01
2.343362126889180219e-01,3.603169370906608160e-01,-1.768747018544308824e-02,-2.189272410485389089e-03,-3.305470863971071249e-04,-6.714125305694468857e-05,3.333945572376251221e-01
3.530540293128234253e-01,3.679849558141395915e-01,3.873495008320729238e-02,9.458032653979309839e-03,-1.625320312186343680e-02,2.978260876965103943e-02,3.277718126773834229e-01
3.255349499315040585e-01,3.291525698881429540e-01,-2.815745154528354055e-02,-2.615324825976551512e-03,1.982231576997652879e-03,-1.555001839741396294e-03,3.555706441402435303e-01
2.868566960218812967e-01,3.302486727178968740e-01,-2.419481300102588328e-02,4.286671659009182005e-03,-6.702452635920909049e-03,8.403083952514146110e-03,3.354620337486267090e-01
3.276773195849360665e-01,3.279456021834245005e-01,-2.402091354224719644e-02,3.120174087782338554e-03,3.703891003028445938e-03,3.440743471838131947e-03,3.519828915596008301e-01
4.064201855967963239e-01,1.291806191578938057e-01,-3.528330775204441272e-02,-1.012643871654539049e-02,1.842012523567363586e-02,-7.589065591131613150e-03,3.885928392410278320e-01
3.284273076699873450e-01,3.296033621190251894e-01,-2.547861324269601324e-02,4.714012455703349902e-04,2.537337384775815129e-03,-4.137340000710918071e-04,3.545243144035339355e-01
3.862289716719958799e-01,1.753225413383424081e-01,-8.399885637400100746e-03,-4.099543782708864326e-02,5.194201911724969679e-03,5.781295283678168726e-04,3.494388461112976074e-01
1.916908334316866080e-01,3.599204428886239038e-01,-1.366762211191338561e-02,5.434924225328451042e-02,-6.202037806387819671e-04,-6.292119051752954016e-03,3.376419842243194580e-01
2.559786906113524219e-01,3.936878392516541814e-01,3.035881937188392166e-02,-3.520742224077044735e-02,8.374303625333062717e-02,-1.482050135366344210e-02,3.554635941982269287e-01
3.619305511832886513e-01,1.999659467007565417e-01,-8.293017886455367194e-03,-3.234786750288673463e-02,4.865616822179069309e-03,2.611193840695231680e-03,3.264437913894653320e-01
2.178661921019648118e-01,3.569801487582496824e-01,-8.413775269065365547e-03,2.971941313622016891e-03,4.211087887643548367e-04,6.547801350312804167e-04,3.194719552993774414e-01
3.624517088879827265e-01,2.211164561039376530e-01,-7.677813605481309533e-03,-1.119033354988501969e-02,2.693222216627417284e-03,2.537582019917107058e-03,3.241541683673858643e-01
2.345198197250994154e-01,3.525672995003443777e-01,-1.882633132203812010e-02,-1.539176635716729282e-05,-5.289547398495920635e-04,4.448672123880036307e-03,3.287652134895324707e-01
2.906759161869768571e-01,3.341277086663338447e-01,-3.048834118002846649e-02,1.144708465149896388e-02,1.766873890671422434e-02,-9.773835993477966375e-03,3.472836613655090332e-01
3.099100793314553681e-01,2.983347197203780610e-01,-1.709107330910555889e-02,4.273691312036816993e-03,6.543475343367743946e-03,-8.290383377672389149e-04,3.216580450534820557e-01
3.722791455718048592e-01,2.018375355843656793e-01,-8.630780175385932562e-03,-6.895991475487889266e-03,1.983021222182568093e-03,4.560334527356811087e-03,3.308121263980865479e-01
2.877851373497217757e-01,3.083119497016245103e-01,-1.085587301046611608e-02,4.657045599324023850e-03,4.057463436624775591e-04,-1.647483429128540578e-03,3.095345795154571533e-01
2.559044731009421092e-01,3.426055731011888872e-01,-6.157784175371661117e-03,6.849775449648308825e-03,1.266196963489854554e-03,-3.833522539869444953e-03,3.148085772991180420e-01
3.230148874852637464e-01,3.270450317193130951e-01,-3.443358627806625272e-02,-5.959344803015303223e-04,7.708818113121032817e-04,-1.422915883585422784e-03,3.594928979873657227e-01
2.918544286819865219e-01,2.926597947651899401e-01,-1.255287347658587405e-02,1.758335526625569648e-02,3.357628138048930448e-03,-4.099376708068544831e-03,3.064659535884857178e-01
3.184428334042731512e-01,3.431830386377995867e-01,-2.483998084287125652e-02,1.608634745518803394e-02,5.067349052058991304e-03,1.408774916921312105e-03,3.575015366077423096e-01
1.861808507687678915e-01,3.741267798265760502e-01,-1.382841517427535472e-02,3.280961701498368716e-03,4.788595413236994627e-03,3.646305873362139412e-03,3.362428843975067139e-01
1.389425151310435536e-01,3.986793258962635922e-01,-1.555528321479271447e-02,8.461496769410063734e-02,1.961668636634895588e-02,1.002487734751738094e-02,3.929332792758941650e-01
3.683764006712497707e-01,2.058055034429358832e-01,-5.050007741693396390e-03,-8.039171753251166119e-02,2.144721363872103062e-02,3.598032630086277217e-02,3.603061139583587646e-01
3.694505224477857563e-01,2.623275689102879671e-01,-3.129679375987085010e-02,5.222497781113279169e-02,1.280174505805586459e-03,-3.861981656942351654e-02,3.765716850757598877e-01
3.946853777943583053e-01,2.120714745685524649e-01,-1.591528653672183435e-02,2.728980713542568555e-03,6.944758117333149801e-03,-1.087448332899606206e-02,3.570450246334075928e-01
2.997420336405833829e-01,3.025666302231156957e-01,-1.330277261857093496e-02,1.225462990934537413e-03,1.423081064096923601e-03,-2.489980667498445550e-03,3.145129978656768799e-01
4.308102715509769531e-01,5.092760690218342545e-02,-1.974933008685716973e-02,9.650388855080894307e-03,1.550200700143405334e-03,-1.151414510324646383e-03,4.200542569160461426e-01
3.577615705706014282e-01,2.046196996851573913e-01,-1.581310985069564468e-02,8.280580628618772199e-02,3.691188340666216178e-02,-3.688345979311498379e-02,3.667963743209838867e-01
3.061434536873607337e-01,3.094453322474837176e-01,-2.099167066486873345e-02,6.844206538837418943e-04,1.775433514759321195e-03,-3.549757043501618713e-03,3.288725018501281738e-01
4.732957455323338891e-01,1.762083256621275462e-01,-1.072360766276728161e-02,7.569025213097758942e-02,2.133657978078777259e-02,-4.120558716879539618e-02,4.498734176158905029e-01
3.246195878821728775e-01,2.653946336805834694e-01,-7.726671720318989411e-03,-7.172376677403856371e-03,3.615798509872470996e-03,9.745707189990535611e-04,3.073675930500030518e-01
4.024331732446468912e-01,2.693599736441051884e-01,-3.467834808743097685e-02,5.040059511071119831e-03,5.851337426140519431e-03,-2.119382414709480855e-02,3.900430500507354736e-01
3.618591409647528567e-01,2.337523074062420603e-01,-2.342737105571293665e-02,-1.184553522207744750e-02,-4.748303683511235183e-03,-2.845004266839029974e-02,3.441163003444671631e-01
3.982784268314773501e-01,1.283640906234595480e-01,-7.607470548035039082e-03,3.594380087795306065e-03,8.004861730930734609e-03,-3.018288694825210089e-02,3.619484901428222656e-01
3.598923562181883806e-01,2.856045578936056151e-01,-2.878779259809746693e-02,-5.234342789474896382e-03,-1.958329198148543986e-03,-1.289440804949289199e-02,3.582027852535247803e-01
4.445562195257098947e-01,3.310130576766943666e-01,2.031886116805331488e-02,-6.890190504348293887e-02,3.370363213174763090e-02,5.083905840806945964e-02,4.124369025230407715e-01
3.103371828603811444e-01,3.154850831148793833e-01,-2.481272454281011064e-02,2.440708829313578080e-03,1.038552732035319176e-03,-8.364348525143495278e-05,3.377845585346221924e-01
3.038562916663201663e-01,3.050087239269625994e-01,-1.983641143473174884e-02,5.983289614915919541e-03,3.912266640765732321e-03,-3.577463176645484608e-03,3.245659172534942627e-01
3.627549572249052501e-01,2.707382706674636430e-01,-2.672767188957458906e-02,-1.716933749755672825e-03,6.151419294878849187e-04,-7.763275412798060528e-03,3.528677821159362793e-01
2.788070176509775400e-01,3.146227380726482892e-01,3.046085916495969159e-02,9.462858414984041955e-02,4.790281202909765779e-02,-5.793841956793918668e-02,3.401052951812744141e-01
2.714784008186599817e-01,3.356140696872801366e-01,-2.103657237075176600e-02,1.203724827568207756e-01,3.418815177561483620e-02,-4.272894109543635965e-02,4.011127352714538574e-01
2.283452084617321742e-01,3.306793209775134024e-01,-2.059071937359546745e-02,9.986502792059956390e-02,5.213875676444156698e-02,-4.038760822585322346e-02,3.753450512886047363e-01
3.337206327753770574e-01,2.959063011941466259e-01,-2.757537500804260744e-02,-1.423637055618038119e-02,9.805947021137335559e-03,1.103366504901040664e-02,3.457806706428527832e-01
3.233703909978417057e-01,3.292912171113382969e-01,4.061452401316428817e-02,-1.073937798616335241e-03,3.705030587546997815e-03,1.002320703067009419e-02,2.863671183586120605e-01
3.250016629933673018e-01,3.407694979565114024e-01,5.507294347954513891e-02,-7.688479126631082156e-03,-2.470844478679543304e-03,8.185387657400291020e-03,2.788601517677307129e-01
3.156334138201795092e-01,3.302603859115649243e-01,-3.125136454542146169e-02,-5.791960514253790670e-04,-2.941298651299708244e-04,4.400929439897480026e-03,3.545084595680236816e-01
3.668767949495511660e-01,4.417425470118973019e-01,2.973564493376151807e-02,-9.433151165567491003e-02,5.093877230390461697e-02,3.763086090335899386e-02,4.280621409416198730e-01
2.217719496722595496e-01,3.628983294956349415e-01,-7.820653864986953918e-03,5.212856793126057972e-03,-2.853786258162448316e-04,1.791141689665650110e-03,3.242258131504058838e-01
3.037372015113027346e-01,3.063199811737538636e-01,-2.004646090592232532e-02,-3.795746816979209126e-03,2.068595999315453200e-03,3.798826508384942589e-03,3.252355158329010010e-01
3.715955893209015870e-01,2.041657006100613680e-01,-1.446944424785082117e-02,1.174202556042300630e-02,-3.017890969404692873e-03,5.048837418899310668e-03,3.360916078090667725e-01
1.791455899468838153e-01,4.192044000180513152e-01,1.691091223726348680e-02,-8.845449823931423108e-03,6.377876613917989046e-02,2.724973968768371058e-02,3.708904683589935303e-01
2.982513201153644267e-01,3.865307956836784853e-01,5.263587775554695591e-02,-1.064179789153976881e-02,4.854743292329075088e-02,-2.344187642717831047e-02,3.144230842590332031e-01
2.795477097954717771e-01,4.608069703248812710e-01,3.405215576694547996e-02,7.704585403439187519e-02,4.184564579970957710e-02,-3.916310700744354140e-02,4.065512716770172119e-01
3.292797409303495071e-01,3.283602108428297361e-01,4.604479026351832038e-03,-3.355424943389663885e-04,7.493601032528646351e-03,1.741557083400939497e-03,3.244906961917877197e-01
3.240466407505078750e-01,3.300141404544065793e-01,-2.899086967468419984e-02,9.639447090326638519e-05,-1.510339042674052308e-03,-4.905258861190119448e-04,3.560694158077239990e-01
3.517117862921830262e-01,3.709656457405329233e-01,2.589279545888059642e-02,-3.199129951146788275e-02,4.613783355906737882e-03,-5.550604008911166724e-03,3.406297266483306885e-01
3.303998246278849749e-01,3.285615765418844481e-01,-6.492981110392731514e-03,4.636956486108052486e-03,5.981065858981793500e-03,1.481157292502134582e-03,3.362428545951843262e-01
3.252024204272115360e-01,3.244417326457081363e-01,3.908668438322254746e-02,1.138843438255140626e-04,2.827329562178166385e-03,6.631580807461353623e-03,2.860089242458343506e-01
4.012560438635913718e-01,2.552135742822987385e-01,-6.239752638573264898e-03,1.044320025675302133e-02,1.427724521781114503e-02,5.770711707360098169e-02,3.725568056106567383e-01
3.087028408659412970e-01,2.861728976316864070e-01,-9.196806688355790849e-03,3.446321123463029316e-03,5.631423920172525183e-04,-6.239060949731619569e-04,3.073162436485290527e-01
3.270577289173494107e-01,3.283469664435570978e-01,2.545971119613243960e-03,1.032851612682515177e-03,-5.350341696283584386e-04,2.255925760568381483e-03,3.251880109310150146e-01
3.025788608205900454e-01,3.263670278613074460e-01,-3.115008634217714123e-02,2.329145264571534299e-03,6.940561663353581739e-03,-6.584631161306110474e-03,3.466562330722808838e-01
2.692208300467760496e-01,3.396534294395743281e-01,-1.957329372161314973e-02,5.486135336323836459e-03,-3.847565302503079906e-06,-4.923724905677949286e-03,3.299489915370941162e-01
3.254639413381039681e-01,3.253346907230418861e-01,1.971776854505385979e-02,1.686688708772466488e-03,4.682438376643782707e-03,-3.447600579297263254e-03,3.058613836765289307e-01
3.341092403173715475e-01,3.243253494721868857e-01,-9.129345175444170124e-03,-1.671927678318964067e-03,6.236693673062257588e-03,-3.032458691834386249e-03,3.386781811714172363e-01
3.996809407105809675e-01,1.881943300360469640e-01,-3.064611744176273800e-02,-7.047956266535065906e-02,4.907210656660500672e-03,1.613221253505661007e-02,3.932615518569946289e-01
3.707204114885999102e-01,1.693785483921969315e-01,-7.398913105572377247e-02,-1.031895008039946104e-01,7.655096214203788510e-03,6.589418150848343897e-03,4.254606366157531738e-01
3.863411649634890255e-01,1.767281811383092649e-01,-8.276787016719189261e-02,-1.462871851637577436e-01,-1.078263213679719890e-02,-1.393401377003697632e-03,4.798166155815124512e-01
2.905216388473124689e-01,3.245807852715204556e-01,-1.851980453497209522e-02,2.924715267871966402e-03,1.025875043720736977e-03,-5.985068670049176372e-03,3.276104629039764404e-01
2.904588764099906295e-01,3.257123946001687087e-01,-1.757825045213576298e-02,2.926753739290855784e-03,1.023015653638471205e-03,-7.008533171472147195e-03,3.273610770702362061e-01
2.941176769187871520e-01,3.264596283057307757e-01,-2.618342606733958799e-02,2.328360483821950190e-03,2.619541410508108487e-04,-6.622581345675473269e-03,3.378550112247467041e-01
4.095221925846435074e-01,1.894042786320024874e-01,-3.676528610662480046e-02,-5.724799556479431839e-02,-1.092141775461169268e-03,7.348385250559641424e-03,3.992319107055664062e-01
3.224953036607743906e-01,3.243939200211132245e-01,-3.533129456604569563e-02,4.441869748913314185e-05,2.553339692898073834e-04,8.068670162036056890e-04,3.587826788425445557e-01
3.885319685000291345e-01,1.853737698449180737e-01,-1.590887109838304281e-02,-5.016800077901392707e-02,4.410418247935404129e-03,6.950886148046501144e-03,3.611564040184020996e-01
3.094057590957843829e-01,3.057609536406341033e-01,-2.429722311318371908e-02,-7.469003603185907572e-03,4.473939024684788629e-03,7.166651023556168312e-04,3.322403132915496826e-01
5.157658922187313699e-01,8.731140647412655165e-02,-3.645064533892111713e-02,-7.861973516567373477e-02,-2.964938091124424968e-02,2.059714815875166374e-02,5.238032937049865723e-01
2.565952292104887178e-01,3.884924635184675568e-01,-3.334885106141230460e-02,-1.374381772494810347e-02,2.201903426501272340e-02,4.398020210464583142e-03,3.765454590320587158e-01
1.815383084206306508e-01,4.802770662653308986e-01,-1.203616199624485406e-02,-4.934468820301819714e-02,1.914460553986429420e-02,-5.497241006108970901e-03,4.393620491027832031e-01
3.691746359937615463e-01,2.373824213652424020e-01,-3.511946046824013234e-02,1.465817195047346838e-02,7.496468514060699445e-03,1.684217179862649433e-02,3.594499230384826660e-01
3.028010054549331587e-01,3.852826624642672337e-01,-1.798605440402548106e-02,-3.235431853573373512e-02,5.080309813807364072e-02,7.336577044594970020e-05,3.834708631038665771e-01
2.740293878995307963e-01,3.316408480120247582e-01,-2.103827882178999076e-02,-1.873229429578104899e-02,2.182868443053219421e-02,1.615678652859361270e-02,3.326388299465179443e-01
3.180050179769323693e-01,3.197151431259192544e-01,-3.110315987411635397e-02,-5.895678205398126792e-04,-3.122457601373965387e-05,4.169644984405999552e-03,3.500423729419708252e-01
3.244366367564481268e-01,3.278171374276400707e-01,-6.399798030542219740e-03,-1.843528647868503297e-03,2.503807502575886110e-04,3.573707634771293874e-03,3.326127827167510986e-01
3.045545399965828293e-01,3.369145246306239905e-01,-4.158534240461128628e-02,-3.062899095917922393e-02,1.539349356836519286e-02,-3.335159805659624818e-03,3.682658374309539795e-01
1.943989205565113954e-01,3.805849040145472539e-01,-2.556004906726230819e-02,-1.805351086491939483e-02,1.335103885712091328e-02,3.881430131523326901e-03,3.543418943881988525e-01
2.956405171842949042e-01,3.381056530745956690e-01,-2.740322795547669998e-02,-9.557123004469551299e-04,5.224700833105318980e-04,5.355063688278441369e-03,3.463643193244934082e-01
3.318464344880953099e-01,3.301971708680584427e-01,1.986272765596105994e-02,-3.745977452574009679e-03,-3.684594982062119797e-03,2.092443995373882530e-03,3.113165199756622314e-01
3.232064777235107433e-01,3.285345472882317264e-01,-2.997137549309192295e-02,8.896953888468599018e-04,-8.446766357247695268e-04,1.152947739486022199e-03,3.558837473392486572e-01
3.254433761763889654e-01,3.229380247493034428e-01,-3.380044666991852131e-02,-8.410806974522395344e-04,-2.982816306627038543e-03,1.564496888289175578e-03,3.580482304096221924e-01
2.679767838702680760e-01,3.861883646877828369e-01,-1.741638616747828716e-02,-5.442577282607463131e-03,3.362079138509698611e-02,-1.552624212661233433e-02,3.651891946792602539e-01
3.282895022263320195e-01,3.188595533873857524e-01,-3.339218448205050205e-02,-2.251364825601425822e-04,-3.440793567234018153e-03,3.583266594425683037e-03,3.571639955043792725e-01
3.268220665374844125e-01,3.194334128543748208e-01,-3.417903819229090034e-02,5.808093048182944680e-04,-3.237235871332845918e-03,2.633062604446180857e-03,3.574385643005371094e-01
3.281760274309555303e-01,3.240564893373885647e-01,-3.347460615581049348e-02,-5.393622288969055975e-04,-4.623376009231729318e-04,8.168223363313112514e-04,3.596134483814239502e-01
3.156783369104103620e-01,3.299472867953642252e-01,-3.225909667139020831e-02,1.006518618808499696e-04,-7.697493332494442266e-04,-2.756563366931190362e-03,3.553214967250823975e-01
3.241089469694918845e-01,3.274835997904363971e-01,-3.059294923618871564e-02,-4.110671103114913729e-04,-1.312423810698772932e-03,-7.799831854033029968e-04,3.564117252826690674e-01
3.283644078859779825e-01,3.231606420592524342e-01,5.014779921409895369e-02,-1.044195863020949558e-03,3.572228390479165704e-03,-6.647417916813173205e-03,2.759672105312347412e-01
2.963845746891788924e-01,3.421043561738212890e-01,-2.685780825785838433e-02,2.864247278875971942e-02,-1.129770492123105367e-02,2.452034931141586650e-03,3.524438142776489258e-01
3.459609631751078274e-01,3.488361884427871873e-01,1.676472742391646453e-02,5.215085382068351295e-03,1.091877967107255168e-02,3.914685649204090005e-03,3.313761651515960693e-01
2.904790448707227912e-01,3.388283694209118790e-01,-2.845030619745339551e-02,4.194485927012011608e-04,-7.312276854545647284e-04,-5.287903436392509633e-04,3.456538319587707520e-01
3.240070781174729797e-01,3.312977228915461314e-01,-2.911334388728317735e-02,3.058118987171685728e-05,-1.267008309230367247e-03,-1.849147858798567403e-04,3.568285107612609863e-01
3.576995687443723093e-01,3.336165710826842767e-01,5.189956996629535579e-02,1.584916276061184778e-02,-8.800502705845814067e-03,1.247589974710994762e-03,2.961750328540802002e-01
3.231235156191684665e-01,3.289137278957460220e-01,-1.956261250180338362e-02,-1.925662719999477000e-03,-9.937140589226190965e-04,-2.249507778298365408e-03,3.456599414348602295e-01
3.230835727536219837e-01,3.251624331230263953e-01,-3.488022925271239139e-02,3.648262498888462757e-04,4.194152064790133798e-04,2.403617130387865146e-04,3.590092658996582031e-01
3.263613342291302732e-01,3.265674752546024462e-01,3.044210705171784825e-02,2.042512260044123621e-03,4.965615029182268193e-03,-1.399206218521328047e-03,2.961783111095428467e-01
3.222901791750435452e-01,3.221515670916371699e-01,-3.538824963006551028e-02,-1.893419324067973221e-04,4.879759041746318431e-04,4.291998493986946177e-04,3.576110601425170898e-01
3.131908266452543277e-01,3.209396862690025998e-01,-2.859537735376904699e-02,1.054084137711817047e-03,2.245296645648058378e-03,-4.606460655603974476e-03,3.458445072174072266e-01
3.224314859966364577e-01,3.219440284367074967e-01,-3.560712031864041172e-02,1.250378949476697800e-04,8.143600880442566480e-04,-5.066567774424769006e-05,3.577979803085327148e-01
3.211583485797777637e-01,3.199029430346712055e-01,-3.385798551317545368e-02,-5.753704001423685281e-04,1.587867925960552776e-03,8.843714010200984287e-04,3.544056713581085205e-01
3.202441029365426517e-01,3.109242040032359489e-01,-3.085379054511033781e-02,1.249112086910013179e-03,5.587151476040326352e-03,-3.395581964684378767e-03,3.467236757278442383e-01
2.958358247640496819e-01,3.395708711974085858e-01,-2.614267299321534899e-02,1.420882225191814896e-02,1.226486484007588071e-02,-6.563267740371169119e-03,3.476360738277435303e-01
3.239825693839406551e-01,3.279009149144265223e-01,-2.584073748943049864e-02,-8.187437191146929548e-04,4.451434939277220228e-04,-7.370794813806465749e-04,3.518048524856567383e-01
3.227728599010488142e-01,3.224737424568599464e-01,-3.546321563727319881e-02,3.405304763731521846e-08,4.214168515402592365e-04,3.067171558051807394e-04,3.580877482891082764e-01
3.206405971800505572e-01,3.207627890681439831e-01,-3.339258049352855640e-02,-3.074115445481803125e-04,1.843657363732592071e-03,2.547094864806544266e-03,3.541365563869476318e-01
3.211517320457366598e-01,3.220793268959861733e-01,-3.546633233164292465e-02,4.915981421099965051e-04,9.818928001083624551e-05,-5.176058819950447637e-05,3.570838272571563721e-01
3.776865594209533050e-01,1.961473323096977472e-01,-1.343695652470291990e-02,2.276532999782338029e-02,5.083460460485596417e-03,-1.416195294154669847e-02,3.422920107841491699e-01
3.823166521240328186e-01,1.798090525112341354e-01,-9.908487862903520016e-03,4.405557636097602592e-02,-8.816180767100516638e-03,-1.055424241291872019e-02,3.490148186683654785e-01
3.753031433550579332e-01,1.995345515607355735e-01,-1.509206815875646646e-02,3.098414738089110693e-02,-9.838143829605950491e-03,1.701196528557027965e-02,3.445612192153930664e-01
3.880302740021380759e-01,1.807472826660904142e-01,-1.254424388798605627e-02,3.204243099908790637e-02,-3.484778253677902476e-03,-3.450639202068511713e-02,3.564864099025726318e-01
2.636303195602693883e-01,3.283007163340395107e-01,-1.162723840173282563e-02,5.041066508203391472e-02,1.199937859400971489e-03,1.485271422933684415e-03,3.246300220489501953e-01
3.221870043193482136e-01,3.232221312103887856e-01,-3.506389887757527246e-02,1.787493642135920511e-05,8.965803092503460186e-05,1.596099420497727695e-03,3.577803075313568115e-01
3.172645974005352532e-01,3.152384858972216986e-01,-3.225353737806116450e-02,-4.530612068198990343e-04,6.102539048115091912e-04,2.808130221585954708e-03,3.485459089279174805e-01
3.186758344885791683e-01,3.247261918428705485e-01,-3.192265307089367510e-02,-1.241779558343327015e-03,2.670303999998706410e-03,3.812780155870809304e-03,3.537608981132507324e-01
3.087243805758219106e-01,3.270429257574923865e-01,-3.121805143351219503e-02,-1.248421873945857949e-03,6.436114146959198441e-04,4.379164168953748187e-03,3.495527505874633789e-01
3.179198618712099633e-01,3.232288556232771892e-01,-3.174518592658051586e-02,-5.885377187950133985e-04,-3.146893149292394337e-05,2.744663935359223719e-03,3.523830771446228027e-01
3.114716976632702083e-01,3.146358082562183411e-01,-2.550851833905154464e-02,-2.578310574655342732e-03,5.453620907924412904e-03,4.014103376616528530e-03,3.388058841228485107e-01
3.281275635667894597e-01,3.219834975338321525e-01,-3.386770123830137869e-02,1.172826846313003478e-03,1.180100890060739854e-03,-1.142830225433919070e-04,3.589742779731750488e-01
3.190650873325276415e-01,3.198488629772506808e-01,-2.971631828886261983e-02,-7.567175706469187824e-04,2.663107871354568855e-03,3.327399400675546542e-03,3.492544293403625488e-01
3.207429338993444956e-01,3.223148411067951469e-01,-3.376702026454708738e-02,9.734063428330486361e-04,1.240843086373776992e-03,1.853332737653106852e-03,3.553235232830047607e-01
3.247170214037782277e-01,3.227923035786982031e-01,-3.351824941562278615e-02,-2.993169754859652303e-05,2.776974079369044085e-03,1.840235107434270208e-03,3.573234081268310547e-01
3.173119744121481456e-01,3.268260820086154039e-01,-3.297412780499048290e-02,-1.575592284725048017e-03,2.582064524622243017e-03,4.118956114040956372e-03,3.552490472793579102e-01
3.239519394489368542e-01,3.268915453284935713e-01,-3.446305426063453470e-02,6.940712876681987128e-04,2.720399179490674141e-04,1.201834821522982603e-03,3.599021434783935547e-01
3.139015367531869383e-01,3.391981889326552979e-01,-3.171715114323209184e-02,-4.370972585947864759e-03,2.983736570250939421e-04,4.617926530791724438e-03,3.591054975986480713e-01
3.262798104715384229e-01,3.269419737196999076e-01,-3.271125740451102937e-02,2.063246147265573784e-03,1.898149200576566440e-03,2.082626078360942049e-03,3.593735098838806152e-01
3.234950206659221728e-01,3.284341490099288996e-01,-3.231322791648863491e-02,1.382933874328997259e-03,1.144383933852152410e-03,2.752685747625436760e-03,3.583485484123229980e-01
3.239847906443914516e-01,3.304082668443290571e-01,-3.126023489030901881e-02,5.351501362629185621e-04,1.565823572169927147e-03,1.849069857430712428e-03,3.585256934165954590e-01
3.155569034378410409e-01,3.341429912695372817e-01,-3.219091957801603621e-02,4.151631162793293413e-04,-2.004024737389232359e-05,2.940539968063529772e-03,3.574405014514923096e-01
3.183373867107130994e-01,3.283718796154305730e-01,-3.315076367009123226e-02,-1.262835909872008378e-04,2.325404100913691999e-03,3.525264662552300959e-03,3.566863834857940674e-01
3.225906983776697934e-01,3.301003892664718387e-01,-3.300872235711219127e-02,2.647867858611814497e-04,-6.395487140258187056e-04,4.455966296388143202e-04,3.594159483909606934e-01
3.253654867785202853e-01,3.293523650359047594e-01,-7.694922793587077869e-03,8.949595881953540440e-04,-3.023084261937468778e-03,-3.019359589612666955e-03,3.351569473743438721e-01
3.188798431838797964e-01,3.302185764109305532e-01,-3.291214955034113543e-02,-1.242921006154983120e-03,2.569893804080182389e-03,3.055410835547835505e-03,3.576695322990417480e-01
3.267427028158617075e-01,3.186037205984682541e-01,-3.166408337885126545e-02,1.189330724679984802e-03,4.853409533662633550e-03,-2.801434596168846710e-03,3.545462787151336670e-01
3.224658860096308866e-01,3.327200822360770749e-01,-3.258871419873188291e-02,-3.432996971703139455e-05,-6.258622259474429716e-04,-2.857383787141266353e-04,3.602931201457977295e-01
3.379638067389686973e-01,3.151296524490795892e-01,-3.223663295866180389e-02,1.392221264818644354e-03,4.070505983461539072e-03,-4.566990987276197365e-03,3.594922125339508057e-01
3.144327528205851929e-01,3.391421409764053263e-01,-3.196067932184742943e-02,1.322257918961695878e-03,-9.057685319973789216e-04,-4.072421235180888658e-04,3.593971729278564453e-01
3.353165809974467115e-01,3.006304251727494048e-01,-3.127577534991210495e-02,5.911902098988384459e-04,3.001632492780147154e-03,-8.110691731223198045e-03,3.508601188659667969e-01
3.224744483846780918e-01,3.325315833473261318e-01,-3.274210221395243425e-02,-1.789628965232827886e-04,-5.628167117131859442e-04,-1.138834896470299280e-03,3.603572547435760498e-01
3.136684780930300565e-01,3.381457403880682722e-01,-3.187457785863540005e-02,1.397999423813419718e-03,-7.177767442200433867e-04,-3.110113887726993331e-03,3.584599196910858154e-01
3.138350754586038405e-01,3.327957122432456671e-01,-3.239556354339506727e-02,1.390702722096783431e-05,-6.732980763611534202e-04,-2.285374862556447284e-04,3.560918867588043213e-01
3.379544876760264827e-01,3.330516918023882500e-01,-1.738986448025692244e-02,3.037478226721349733e-03,-1.028466733875572090e-03,-6.452741978978417982e-03,3.531391024589538574e-01
3.154458271813299630e-01,3.334402729107074359e-01,-2.536752385667476184e-02,1.468322858059107911e-03,2.540811885304897124e-03,-1.979709683007077180e-03,3.502112030982971191e-01
3.227157112284882445e-01,3.297738339294298826e-01,-3.362845094743702190e-02,-3.551072070054354848e-04,-4.035827308771980501e-04,-1.301749875446680908e-03,3.599334061145782471e-01
3.341050841015875683e-01,3.031891672284723893e-01,-3.061211332863872370e-02,2.110875537524065093e-03,5.752677021821383553e-03,-6.940979367781028621e-03,3.506508767604827881e-01
3.268943409351763862e-01,3.055836057081228185e-01,-3.026057894432335194e-02,5.417171581304482987e-03,5.440910129539263188e-03,-8.319666202356856832e-03,3.475443124771118164e-01
3.192271421575573198e-01,3.284945091990878474e-01,-3.320545615785547300e-02,2.848954223719472477e-05,-2.654560340198703662e-03,3.294124664353687785e-03,3.572316467761993408e-01
3.155896620426255073e-01,3.330766271828173308e-01,-3.229240428978868982e-02,9.062653460260791660e-04,-7.173027434141262225e-04,-4.273414528605305046e-03,3.570292890071868896e-01
3.235053899229793362e-01,3.283591816035457134e-01,-3.330863612260245854e-02,-2.933598658634433711e-04,-7.563103860721013183e-04,6.291428204183246000e-04,3.592699170112609863e-01
3.224390875754494790e-01,3.261888796521121847e-01,-3.473811329462953013e-02,-3.558695578536987588e-04,2.392702145326033023e-04,-9.474692743436979783e-04,3.590713143348693848e-01
3.119325311122729261e-01,3.121689344106485242e-01,-2.351360105919503285e-02,6.768481167856263414e-03,7.284723318713479980e-03,-3.893234248574791584e-03,3.360737562179565430e-01
3.180193665301179196e-01,3.262505121299331678e-01,-3.256352919471056095e-02,1.175096492224757629e-04,-4.689315241925468724e-05,-4.324124051059095690e-03,3.548492193222045898e-01
3.227852563552062737e-01,3.248630230123599749e-01,-3.467714917859945900e-02,2.044931017928586291e-04,-5.535695082220196562e-04,6.688889747928155553e-04,3.585091233253479004e-01
3.196153894917301286e-01,3.226875503747110852e-01,-3.435467684409870825e-02,3.572314231500623078e-04,-1.187020446345396192e-03,1.713701227507179528e-03,3.555349707603454590e-01
3.219616194354787964e-01,3.269552654190300833e-01,-3.472953566331338227e-02,-7.087663105519155873e-05,2.700885500765731924e-04,1.532098319710746559e-03,3.592241406440734863e-01
3.221069641375483017e-01,3.246883144644197028e-01,-3.486063784116436026e-02,-8.964163906969868385e-04,4.959976817176563532e-05,1.237942033199132368e-03,3.582750558853149414e-01
3.626319080685435625e-01,2.370974833936923543e-01,-1.726109891960500575e-02,1.433286384015869039e-02,4.875265562744601072e-03,-9.696570591222612376e-03,3.366862237453460693e-01
3.126010471412233871e-01,3.192748321162827141e-01,-2.883371520848646008e-02,9.823138517174177103e-03,7.836200858073244166e-03,-7.474495211604978602e-03,3.457487523555755615e-01
3.308586337106951270e-01,2.777259304133515849e-01,-1.883075798685904245e-02,7.121669392296402570e-03,5.973990585677808537e-03,2.050098745078406831e-04,3.267799913883209229e-01
3.225043732672420171e-01,3.246303687185893017e-01,-3.509892702757552718e-02,-3.093190898012620864e-04,7.670240699527226987e-04,-1.090191887506145735e-03,3.586788475513458252e-01
3.157577799055649170e-01,3.197658081259290297e-01,-3.170272168011106784e-02,5.489715367935377741e-04,-1.208035937430752425e-04,-3.126176711333231075e-03,3.495250642299652100e-01
3.088153783914682760e-01,3.074614610510573165e-01,-2.228086119297043033e-02,-4.864618456885572151e-03,-4.012672556768759682e-03,-3.680273625451088021e-03,3.306632936000823975e-01
3.203506188539410049e-01,3.049378687738241722e-01,-2.513266986288159588e-02,2.756925818515526972e-03,7.464411727605501680e-03,4.364371151084177856e-03,3.384058177471160889e-01
2.949466528404723342e-01,3.793794715478780999e-01,4.955849708661727582e-02,4.608997381568898100e-02,-6.702855238461710718e-02,1.879682870843897222e-02,3.301126360893249512e-01
2.366491302002630692e-01,3.463954703937222046e-01,-7.475704476702260681e-03,7.883179457147754254e-03,6.793237119917833623e-04,-1.464997780249362733e-03,3.140497803688049316e-01
3.022767897414454508e-01,3.309908746978217353e-01,-2.776407069872374733e-02,8.062166281104548443e-03,-7.729116125713104274e-03,9.191428881415988558e-03,3.462021946907043457e-01
3.506528651389395623e-01,1.652062048090038593e-01,-9.573543001615225645e-02,1.167100920075634929e-01,-4.983943868888625339e-03,-2.784805573963168926e-02,4.406093060970306396e-01
3.228383488844602800e-01,2.664959831534033929e-01,-6.541989266590886309e-03,5.173978457214015864e-03,2.176714396086801544e-03,-4.833973652184231514e-04,3.052917122840881348e-01
2.193086605848071358e-01,3.594976129430324518e-01,-6.622096048159831216e-03,-4.775446549485121497e-03,7.995207034294791234e-04,-2.585283902579949000e-03,3.200953304767608643e-01
3.234185154360383896e-01,3.142115275979797673e-01,-3.123910143839905840e-02,8.589963431339842255e-04,-2.649087213308386635e-03,1.132787814046912244e-03,3.501836359500885010e-01
3.132732412203053651e-01,2.437838076914932151e-01,-1.415099396875396653e-02,5.889745688761859055e-02,1.221919376232062648e-02,-1.733304428086821294e-02,3.178660869598388672e-01
4.832619059452494259e-01,9.650418950534236928e-02,-1.743480003469830009e-02,1.970440830795096646e-02,-3.089161188858473989e-02,-9.182195491611073665e-03,4.592504799365997314e-01
4.305074253796732919e-01,1.020850992089072234e-01,-1.008050024811925072e-01,5.397060434157062913e-04,-2.839344206897283923e-02,3.051109643319215026e-02,4.699696600437164307e-01
3.292690237264651043e-01,3.261771341628603715e-01,5.092830619853205842e-02,1.611894548521941410e-03,4.405577215832895757e-03,1.104243725150741255e-02,2.775866389274597168e-01
3.509887240826835564e-01,3.501896593739720620e-01,3.899731630881050903e-02,3.836844780113665351e-03,-1.885855928655733385e-02,4.971780931931547853e-02,3.249871730804443359e-01
3.246223158995545921e-01,2.754935795705372170e-01,-1.639126155420500552e-02,-7.267632305805135987e-03,7.709068140691057239e-03,-1.040765443362153334e-03,3.198285698890686035e-01
3.248635820470070490e-01,3.194047327494964894e-01,-3.369727423853610682e-02,-1.482976389666174164e-04,2.822952994325752044e-03,2.243528472640149082e-03,3.559177219867706299e-01
3.231513938132521413e-01,3.265552592612597227e-01,2.244745198417527621e-02,2.017560497501894555e-03,-2.239723374727077380e-03,-3.048875652300830040e-03,3.025113940238952637e-01
2.958756629260593796e-01,3.372748211168444810e-01,-2.653517611229769257e-02,6.157706015726553727e-04,-1.875491637141730669e-04,4.829600454065489934e-03,3.450817167758941650e-01
2.322705221965707945e-01,4.005084337122727933e-01,-9.284046845722992991e-02,-1.723123711330558916e-01,-1.393986681165608130e-02,-6.948195461306590041e-03,5.277305841445922852e-01
1.162591731016914542e-01,4.093582153505607168e-01,-1.246908783754410721e-02,-6.586068359448900289e-02,-2.433081904852739527e-04,1.736156250522073383e-02,3.925881981849670410e-01
3.665911840674910271e-01,2.352852847411911474e-01,-1.195229923778419190e-01,1.935085336734476968e-01,7.717314217457251282e-03,-1.992377919692157537e-02,5.508400797843933105e-01
3.442303328935369389e-01,2.768089218187897438e-01,-2.336308280809323845e-02,-1.069164477828903753e-02,1.223629497294533020e-02,1.295666321388252475e-02,3.408557474613189697e-01
2.864449883431556265e-01,3.000478360278976964e-01,-9.184486353832843619e-03,5.574269657525879329e-02,-9.247597882116518047e-04,-3.153351113881522252e-03,3.177378773689270020e-01
3.631127246624668015e-01,1.786633695298604219e-01,-3.953098470968133271e-02,7.310950759152004541e-02,-3.385145080239984616e-02,4.447505199552067440e-02,3.837746679782867432e-01
2.205965899092141858e-01,4.047944335513340430e-01,-2.883722482927511543e-02,3.947942092427415839e-02,2.446967076313186565e-02,-4.372524861936294936e-03,3.855136334896087646e-01
4.319442126920169378e-01,1.194878403522635774e-01,-1.061632007657464238e-01,2.807075518014447157e-02,1.298065811927138699e-02,-5.222677073995012596e-03,4.711737632751464844e-01
2.082536912277538621e-01,3.645242560722444236e-01,-8.488814371204050913e-03,-3.620284645626338504e-03,1.156454216307193630e-03,6.431514314070885556e-04,3.245194256305694580e-01
3.373797912362856977e-01,3.495679580605441927e-01,-2.791639353010683111e-02,-1.401242711610183878e-01,2.875229369177034755e-02,2.947699430548010244e-02,4.494811892509460449e-01
3.270635875268042003e-01,2.850896605887280333e-01,-1.843593719477898407e-02,-7.012820216135638371e-03,7.854255829722730717e-03,-8.101736847179033313e-04,3.270540237426757812e-01
3.248591451558023313e-01,2.653849724054793136e-01,-7.507908229552689994e-03,-6.321945726077278851e-03,-2.516054976973553046e-03,-8.346087753369193241e-06,3.072078526020050049e-01
3.185201336658464166e-01,3.159616242423965438e-01,-3.215078010151517507e-02,-1.507771228167664214e-03,2.535582520684341330e-03,3.980533462885662817e-04,3.494367301464080811e-01
3.455927021240302044e-01,1.819985113437476154e-01,-3.583226868391597986e-02,1.137960480763635929e-01,2.536462595575168788e-02,-4.190820122844150092e-02,3.948376476764678955e-01
3.629613212247982390e-01,1.861799761963724986e-01,-1.090473621103436597e-01,1.290065393962767926e-01,9.347550599271103704e-04,1.971874320153432086e-02,4.708488881587982178e-01
3.214982129195727567e-01,3.268600638246899059e-01,2.358690921030789922e-02,-2.188232452886392475e-03,2.305311539172433689e-03,-3.412734377609855443e-03,3.007366061210632324e-01
3.303460638463787680e-01,3.234127861734502618e-01,-1.454881303506563861e-02,-3.319630740766780797e-05,-4.507636704293355168e-03,1.615559868967129508e-03,3.415817320346832275e-01
3.301095853723976514e-01,3.253455937878438342e-01,-3.095213140255440032e-02,3.822836825345386790e-05,-1.055108670364813270e-03,-1.902413955443452371e-03,3.587232530117034912e-01
2.588785056658310935e-01,4.172706622049697223e-01,-6.538818993634232246e-02,-1.631394050672448637e-01,3.392862497875701044e-02,2.992156197399291340e-02,5.172823667526245117e-01
3.563665340846047802e-01,2.210139261240375297e-01,-6.011707723206222154e-03,-1.184438728038909525e-02,-8.205361840288077826e-04,5.000259732679821281e-04,3.178256154060363770e-01
3.253594741395260947e-01,3.238855854619646646e-01,-2.035308755557077576e-02,1.222894948198145846e-03,-2.490687390788650247e-03,-1.298719158352908739e-03,3.450187742710113525e-01
3.310503870156377149e-01,3.238952710777506794e-01,-3.273207861634680471e-02,4.026847009654626583e-05,3.335669203100444648e-04,2.222445407261655528e-04,3.602588772773742676e-01
2.131508613017205900e-01,3.594062698171056613e-01,-7.708502013501289385e-03,-4.992173287414985831e-04,2.980253942451129489e-04,3.261740175660938546e-04,3.201135993003845215e-01
3.301017177084248910e-01,3.258462487083763071e-01,-3.180201385611569620e-02,-4.388761280203666065e-06,2.767811068476459975e-04,-8.834328119970776168e-04,3.597984313964843750e-01
3.017884102804641033e-01,3.025645012606439366e-01,-1.664800144626785161e-02,-1.647892986571268450e-03,3.534719750316767019e-03,7.060993385390997110e-04,3.188990652561187744e-01
3.535016923982305936e-01,2.351983326172814026e-01,-1.019281674606922761e-02,3.821629335684649520e-02,-1.860942328264973558e-03,4.147421456704240492e-03,3.281562924385070801e-01
3.457431268864735729e-01,3.430107725964808840e-01,5.705152320512923980e-02,-1.981616359316651799e-03,3.454771880528667485e-03,1.781449300481655756e-02,2.890694737434387207e-01
1.333336760652578112e-01,3.929403814986039412e-01,-3.270217019368237832e-02,-1.000088827242732875e-01,-1.367906072295101659e-02,-6.863660953315318773e-03,4.108230471611022949e-01
3.300038546567892750e-01,3.248014784770788532e-01,-3.187519966756899303e-02,-6.133725947035733282e-04,2.788031298764670506e-04,-8.673440723420822304e-04,3.593111634254455566e-01
3.309341791247183417e-01,3.235286922667606202e-01,-2.970546169814769488e-02,4.880969791024216808e-04,7.693621135851690454e-04,1.488920756547510316e-03,3.570073246955871582e-01
3.350461663824053637e-01,3.151569699999413610e-01,-3.153001775522387695e-02,-1.851683201129903820e-04,-1.966985086103672890e-04,1.022077881096960725e-03,3.570519983768463135e-01
3.301342370484348643e-01,3.260795140490034272e-01,-3.246283927928589330e-02,3.147042394758944785e-04,-8.597023060830294222e-04,-1.470177579782758941e-03,3.605992794036865234e-01
3.029040896197735533e-01,2.413837697037250485e-01,-6.092460683051953430e-02,1.608564844086511347e-01,-2.662344276945034782e-02,-2.562036610363779485e-02,4.421462118625640869e-01
3.439168448258823618e-01,2.525538960810647104e-01,-2.922825020272057372e-02,-1.085538606721704324e-01,3.756736316347186744e-02,2.919354830290921132e-02,3.945064544677734375e-01
2.996893367434959599e-01,3.163515693679663232e-01,-1.691889658521092410e-02,1.500600930845967171e-02,-1.048814231332810196e-02,1.068556839283632195e-02,3.273253738880157471e-01
1.752823205068811396e-01,3.381714081484471501e-01,-2.723196500351610094e-02,-1.085656832765422852e-01,-1.010423647122483948e-02,-4.918861441387405858e-03,3.691485524177551270e-01
3.235983260887301816e-01,2.929799532353430380e-01,-3.044396156257250796e-02,8.995510917238483395e-02,1.866531410762786031e-02,-1.624215016051310662e-02,3.762387633323669434e-01
2.030226344595273680e-01,3.311293040181975122e-01,-1.314797361841277268e-02,7.593170451582381686e-02,-5.036674398212120062e-03,-3.957229105893407366e-04,3.289489150047302246e-01
3.286092285074636576e-01,3.255028715813495510e-01,-2.828844094559504474e-02,1.650448001827731215e-03,-1.301189393968533265e-03,-1.457510401510554591e-03,3.553822934627532959e-01
2.327012312504379843e-01,3.483685468462126567e-01,-1.900155478663384523e-02,-1.107969190021501349e-01,-6.242016950638967082e-02,-3.398834103366515230e-02,3.972773849964141846e-01
3.275693717447522024e-01,3.157711541674441680e-01,-3.222028841283758327e-02,-4.042588190534189508e-04,-4.190781605559792608e-03,2.246555826596190693e-05,3.541131317615509033e-01
3.353368687805380333e-01,3.130053483623448374e-01,-2.285221432897216465e-02,-7.516020293827286496e-04,1.714556029485932468e-03,-1.939041119857459750e-03,3.475931584835052490e-01
3.786132949296499017e-01,3.165943444396956963e-01,-3.080259065474916236e-02,-1.702052760631514103e-02,-9.685107419289669048e-03,-1.892086511119705355e-02,3.850982487201690674e-01
3.910611490218591779e-01,1.749888989753370649e-01,1.971684374116711158e-03,5.502413284875398714e-02,2.781607487636434187e-02,-6.202668633635038953e-02,3.700709342956542969e-01
3.864036784704925065e-01,3.862674831540942599e-01,4.489569015840896848e-02,9.167865318573791000e-02,-4.274154245287713205e-02,1.595523838047318774e-02,3.847601413726806641e-01
2.604599843706584261e-01,3.345738391937887468e-01,-2.248885455112656362e-02,9.192773328940215261e-02,-7.472347086167704759e-03,1.874180115584088771e-03,3.633916676044464111e-01
3.026992625782659041e-01,2.904739830261015010e-01,2.316854475451751716e-02,9.848884012185481207e-02,-4.577159861118249712e-02,5.796593838314058333e-02,3.468933105468750000e-01
3.241030023774217339e-01,3.303270288184211312e-01,-2.372327029495732709e-02,-2.272229768244031500e-03,-6.504975892026933736e-03,-4.759755427077759721e-04,3.511835038661956787e-01
3.244443822641603914e-01,2.665550723076423600e-01,-9.254563984040037328e-03,7.438604193630446448e-03,-3.123576171042133885e-03,8.360102929152856142e-06,3.091663420200347900e-01
3.251000091099967015e-01,3.199212253325646738e-01,-3.426475282186114413e-02,3.897579958601403525e-04,-3.474310448559552334e-03,2.709896248980225159e-03,3.568858206272125244e-01
3.226939997502804025e-01,3.257349037432381023e-01,-3.422987490040130254e-02,-1.918778765979014373e-04,-9.870306463450905822e-04,3.027493155288637008e-03,3.584965765476226807e-01
3.997229406278459685e-01,1.837407636874424377e-01,-1.235181959645387240e-02,5.906349306310290648e-02,9.212675388370058366e-03,-8.928008726562595976e-03,3.720380961894989014e-01
1.927725308770816826e-01,3.790072975123905952e-01,-1.534355032814971320e-02,-1.419454114077062581e-02,3.650266947044487897e-02,6.149924409397421535e-03,3.485246002674102783e-01
3.051217530346739260e-01,1.920049363016682054e-01,-2.700811912474254672e-02,1.559082405949263617e-01,-8.621480889331036707e-03,1.418328252869045097e-02,3.991050124168395996e-01
3.675414835675629988e-01,2.630151740494345303e-01,-3.098183169553805905e-02,4.792977974628882115e-02,-1.772208885809025899e-02,2.938628466325538327e-02,3.721761405467987061e-01
5.109006136260072495e-01,1.008828857302228182e-01,-8.240744965086732599e-02,-1.716512359372520530e-02,6.996609751373392312e-03,3.055511343965083490e-02,5.298054218292236328e-01
3.288639318879872930e-01,3.179437643701549798e-01,-3.074357773195260379e-02,-3.688440903159930818e-03,5.801224527438103400e-03,4.841138585486328728e-03,3.545728623867034912e-01
2.832946587907835267e-01,2.917432792052929158e-01,-9.641886943992344916e-03,2.199002650529560676e-02,-1.117281223914502741e-03,1.913465833716690781e-03,2.997057139873504639e-01
3.979440879880954962e-01,1.582727566931843022e-01,-1.982266312237218608e-02,-8.423931905910906140e-03,6.402480337126892698e-03,3.112441591204901520e-02,3.675414919853210449e-01
4.873397754515460534e-01,1.215483012512795918e-01,-8.650015667884936033e-02,-4.284630695815876827e-02,-9.223170904056761030e-03,3.193173622455657695e-02,5.118705034255981445e-01
3.289435637029967108e-01,3.235170105226841120e-01,-3.159025961985231779e-02,8.135745075965475446e-04,1.181811370195075175e-03,1.064686996089496954e-04,3.578600883483886719e-01
5.164758493497838554e-01,1.209174193900154765e-01,-9.964688263362531107e-02,7.510041629797763185e-02,-7.941171574150279744e-03,-2.325012716528270743e-03,5.563153624534606934e-01
2.192375425279326218e-01,3.646353266986702701e-01,-6.793686629312317704e-03,-3.155442932996458793e-03,6.905116112369177319e-04,-5.234999848109880990e-05,3.242319822311401367e-01
3.277738470842093133e-01,3.283690356851809433e-01,-1.447931548715461481e-02,-2.290170189390017350e-03,-2.897660543318389664e-03,2.271229901027133156e-03,3.426334559917449951e-01
4.931397398647384134e-01,9.978273763211897851e-02,-4.201933533310253654e-02,6.403942070919883822e-02,8.666455603568301233e-03,1.801295017529254069e-02,4.940832555294036865e-01
3.410289952444020556e-01,3.107544915638485450e-01,2.460654086576172239e-02,-1.162031952195419909e-02,4.170491586921286006e-03,-1.082321472637747146e-02,3.037579357624053955e-01
3.240349721823557738e-01,2.858135329746145925e-01,-1.682179275449671718e-02,4.985627675745110329e-03,-6.297471376690262981e-03,5.811158942237709809e-04,3.237448632717132568e-01
5.002603038664934498e-01,1.210255396824234109e-01,-9.605451479509297119e-02,7.439322954252375331e-02,6.785239683799360218e-03,1.816131449073637885e-04,5.385242104530334473e-01
3.385443812255511942e-01,3.171342481349592735e-01,-3.135263387224362930e-02,-4.552216558312695976e-03,4.388351378236176291e-03,4.715019221850187507e-03,3.599295616149902344e-01
3.381409386014416762e-01,2.961581966512328856e-01,-2.917127858197987589e-02,-1.141837452008181986e-02,1.052461394922090017e-02,1.475539674700320110e-02,3.501951694488525391e-01
4.240354617536492010e-01,1.017908177488437288e-01,-2.562044757683071272e-02,3.201175529576819750e-02,-1.061016996873518324e-03,2.221243940651630288e-03,4.052471816539764404e-01
3.314201210732127256e-01,3.319659368197872551e-01,-1.688069569747144283e-02,3.770190358745535535e-03,-8.840515780380895500e-03,2.018097203984775198e-03,3.489888012409210205e-01
3.266642916633785143e-01,3.802702305102094726e-01,1.818700626494218486e-02,1.441959600118664364e-01,-5.003826711571516400e-02,3.980586434840679283e-02,4.349833130836486816e-01
2.967325718256867972e-01,3.141246684006537837e-01,-2.531078339307621383e-02,-9.601657191260378615e-03,-7.008133560319043491e-03,-9.820696614592200335e-03,3.321576118469238281e-01
3.557487304518872073e-01,2.281845001450968358e-01,-8.487607673217434368e-03,1.329118263334436167e-02,-2.658221933836984845e-03,-1.962894695754409402e-04,3.209805190563201904e-01
3.273109557114063373e-01,3.273092592431484094e-01,-2.613252246609881757e-03,1.486174131757336857e-03,-3.350264714053064873e-03,-1.546261348492856263e-03,3.299953043460845947e-01
3.249009637767888425e-01,3.302781549015537665e-01,-3.265079886003083298e-02,2.174755389802550268e-04,-6.886154821741231717e-04,-7.812750070171444643e-04,3.602751791477203369e-01
1.813541191729639290e-01,3.960005620355190881e-01,-1.516055020336068426e-02,9.231294236281836763e-02,-5.859234094428594081e-02,1.679186532820407807e-02,4.044532179832458496e-01
3.224198763689664071e-01,3.305689158238275249e-01,-2.870528348609613367e-02,-3.863556888941209033e-04,4.878074688642007606e-04,-1.500029552565246434e-04,3.552715182304382324e-01
4.692503204270367378e-01,4.200029666091142366e-01,4.155326525389818615e-02,1.215413973560065634e-02,-2.256386113492683462e-02,5.055676251936668669e-02,4.170439243316650391e-01
2.983766237286746836e-01,3.200129146626239374e-01,-2.469818648679728001e-02,3.368489435514570272e-03,-2.768340621342613855e-03,7.016496371820385783e-03,3.347242474555969238e-01
3.976695316954188542e-01,1.931383254889502687e-01,-1.604414115324620527e-02,5.514965939765101299e-02,1.879329030226639446e-04,9.286018291433851060e-03,3.711575269699096680e-01
3.684610571253719158e-01,1.129211287523911034e-01,-1.783377615941938998e-02,1.186422498681105331e-01,4.959168790549688989e-03,-3.460002378287929843e-03,3.976785838603973389e-01
4.224812346590722245e-01,1.758897929086973566e-01,-2.607811547548483100e-02,1.252167207257172572e-02,-5.147381795596958458e-03,1.202408044942742879e-02,3.903658986091613770e-01
3.231171733826384562e-01,2.817422403101349504e-01,-1.868213922814956907e-02,9.806874644408637709e-02,5.593613237835763988e-03,-1.203642490938814508e-02,3.657562732696533203e-01
4.663269470143092121e-01,4.505516364194923629e-01,4.640570936517562917e-02,1.867945017382816736e-02,-2.017322703960103963e-02,5.630667510561106204e-02,4.263065755367279053e-01
3.036741245142998147e-01,3.069599575541749337e-01,-2.063768538152568888e-02,4.658469791600384352e-03,-2.256523591210601604e-03,4.428025009315108076e-03,3.261806070804595947e-01
3.274447387869787729e-01,3.271137925920363787e-01,-1.553776170866927320e-02,2.510707815916970315e-03,-2.415212433904949645e-03,-1.785436002504229734e-03,3.428841829299926758e-01
3.773471925852012188e-01,1.740642320969284784e-01,-2.799189361388335073e-02,2.648278427731930867e-02,1.640659648393628326e-03,1.145373349193358481e-02,3.545854687690734863e-01
2.439209312079827496e-01,3.688012208600851549e-01,-2.765484224431047355e-02,-5.116346263340319778e-02,-3.265123327184489554e-02,-1.446132015185399439e-02,3.673441708087921143e-01
3.270696238790853361e-01,3.288525385080621755e-01,-2.110256446952601950e-02,-1.915529895750188016e-03,-5.691499923251822253e-03,5.886885170030904842e-03,3.493708074092864990e-01
3.425147541104248683e-01,3.240528292700766699e-01,-2.800269183408152229e-02,7.819667080819363335e-04,7.954811352506013095e-03,-1.025322404731420466e-02,3.623404502868652344e-01
2.296869007395506146e-01,3.516904659073780692e-01,-2.524679983674762984e-02,-3.117079824785427139e-02,-3.076667538297287244e-02,-6.910344298112142299e-03,3.418724238872528076e-01
4.166087329255806493e-01,1.673718597826426291e-01,-1.450461959384841126e-02,-1.265170559803336092e-01,-3.568865883916987058e-02,-9.627702288416951915e-03,4.389159381389617920e-01
2.981855275003791883e-01,2.925398738243929486e-01,-1.084414741454711728e-02,7.000848482888464078e-03,-2.027368025748679543e-03,3.480542575847579787e-04,3.065065443515777588e-01
2.987361620276214880e-01,2.980966057490616050e-01,-1.317114401202057472e-02,-6.802712905581235689e-03,-3.606064384011199980e-03,-1.837986854474395540e-03,3.118895292282104492e-01
2.414947350830925210e-01,3.423403983177185084e-01,-6.695516458032069185e-03,-8.228484370308652984e-03,5.122219737736710601e-04,-3.550999612407278964e-03,3.115106821060180664e-01
2.414475324684744462e-01,3.443243676803111608e-01,-6.336176282784516944e-03,-7.725374544843970417e-03,5.759218015416454114e-04,-2.362769557140311123e-03,3.125194311141967773e-01
3.472433256594268935e-01,2.400317236466258108e-01,-1.520119768094935209e-02,-9.621814710756701125e-03,7.492858269930201265e-03,7.542569871973604269e-03,3.234485089778900146e-01
2.820360220391615602e-01,3.252728837972720388e-01,-2.444304887296314122e-02,-1.040962510458751100e-02,-8.567588787049631310e-03,-8.409308149358144663e-03,3.313721120357513428e-01
2.226446970533673686e-01,4.441045158525803171e-01,-4.111684356953543285e-02,-1.230008796328573573e-01,-9.050529499293047744e-03,-1.010144225968755659e-02,4.721934795379638672e-01
2.665338502329637760e-01,3.421793824953134333e-01,-2.272193978826334004e-02,-4.018102260351288230e-02,-2.159309699533080648e-02,-5.973866965274447598e-03,3.429598510265350342e-01
3.271762060532495964e-01,3.183997212182977377e-01,-3.210136576217328952e-02,4.580034818356243636e-04,3.528847289231860571e-03,-2.853029988295426381e-03,3.550586104393005371e-01
3.422899846299618520e-01,3.468459242005853538e-01,-3.251730741495723054e-02,-3.080753220413250115e-02,-3.416722566744250997e-04,-1.380692488385925308e-02,3.816129267215728760e-01
3.606097960071091291e-01,3.381622544672544528e-01,4.331999995550081528e-02,7.052124240690040707e-03,-2.916361276561304800e-03,-1.828864586590427197e-03,3.069838285446166992e-01
2.190410555709147722e-01,3.331536610329972614e-01,-8.472969545890440823e-03,-5.802946481838336390e-02,-7.444332919611232335e-03,-5.904622280351360178e-03,3.179931342601776123e-01
3.603083152091381969e-01,2.479607970013258389e-01,-1.668846967655260305e-02,-4.513849664132782956e-03,-6.645961269280237574e-03,6.022948357246548073e-04,3.355422616004943848e-01
4.984764968228201365e-01,2.434175448615699677e-01,1.663406517768514781e-02,1.848525952151973753e-02,-5.875663209226008633e-03,-7.531161768916938559e-02,4.387176632881164551e-01
3.274008732820503087e-01,3.272187771750049157e-01,-5.569557999463320419e-03,1.415902098657718846e-03,-3.334433264934462317e-03,3.625741470220101171e-03,3.329977691173553467e-01
3.117463560720887261e-01,3.078333504093358486e-01,-2.231675402489363691e-02,-2.037674637627142071e-01,-4.046363773103101025e-02,-1.475605686364024616e-02,4.903416931629180908e-01
3.264274185925423177e-01,3.234553042464152206e-01,2.943125029320828312e-02,1.944099109386653295e-03,4.988960630445776062e-03,9.836440511624031883e-04,2.956717014312744141e-01
2.341906042031301205e-01,4.671826086128018085e-01,-1.689906452054606989e-02,9.244570415248515305e-02,-3.739780645813162163e-02,2.002110389017817960e-02,4.548297822475433350e-01
2.795749758284815645e-01,3.319708245347109954e-01,-2.183779605359911780e-02,-2.307697762528762922e-02,-1.396125911458857317e-02,-6.303314686097565012e-03,3.341995775699615479e-01
1.728723817587118905e-01,4.413489142964320822e-01,-1.002497613739343763e-01,-1.652217824723929973e-01,9.899973624399979050e-03,4.091758231438619164e-03,5.497646927833557129e-01
2.932111800817197578e-01,2.606214211650751400e-01,-1.172555893570040308e-02,-4.596955450986573571e-02,-3.766840737210508817e-03,-3.322233482214463195e-03,3.008753359317779541e-01
3.264824126435493801e-01,3.271780898338706445e-01,-1.039716170509039084e-02,-1.958181937563377873e-03,2.135471165303924092e-03,-3.531360173827947143e-03,3.373207449913024902e-01
3.653368597127480411e-01,2.257857313373722308e-01,-1.859011456247311456e-02,7.895397252270239252e-02,1.398324636034852485e-02,-1.797215605466890784e-02,3.654500842094421387e-01
3.137000815174572632e-01,3.021246156361995228e-01,-2.189761589203878533e-02,-3.368433788730279543e-03,-5.547406140679782445e-03,-3.404916128876713573e-03,3.302063643932342529e-01
2.864068256514754607e-01,3.251299217131241037e-01,-1.651930106138047027e-02,-4.940956223113610740e-03,8.755563493022681444e-05,5.472435815717571067e-03,3.242792785167694092e-01
2.105286829670686422e-01,3.687446945570108658e-01,-8.218682656954606758e-03,8.527403572133084638e-04,9.764629324589463094e-04,8.359258128413201620e-05,3.278675377368927002e-01
2.492648554138410799e-01,3.560375386932593811e-01,-1.974068609711268629e-02,3.545968445217483576e-03,-5.840424073376171985e-04,-4.193189975251487150e-03,3.355269432067871094e-01
3.228170831436604216e-01,3.284114609063947254e-01,4.125911325033057575e-02,-1.190577597102452723e-03,-9.107066000325483163e-03,2.373706902120368591e-03,2.848706841468811035e-01
2.517217850402555523e-01,4.087373018754341114e-01,-6.916538568264346543e-02,-1.731642262855705994e-01,2.130008966339214452e-02,9.540615665289877562e-03,5.192286968231201172e-01
1.994254756319352451e-01,4.014063863716231806e-01,-2.305587610086490269e-02,-4.030922604482864435e-02,-3.135941477525911879e-04,3.510962566296760203e-03,3.743567764759063721e-01
2.887541343459268384e-01,3.293162780003398016e-01,-2.266780927152142744e-02,-1.608444018779822335e-02,8.055248011082307910e-03,8.038665165543358929e-03,3.352991342544555664e-01
3.252822666082200720e-01,3.300113552501947045e-01,4.855828312565033111e-02,2.626158813579535737e-03,7.975138065031859777e-03,6.252737864623316051e-03,2.797069251537322998e-01
4.296374736010786788e-01,2.269880574624952019e-01,-2.984325155658479334e-02,-1.009061061876562471e-01,-9.860622078900347504e-03,-2.227707082057390695e-02,4.374956488609313965e-01
3.223170122416185168e-01,3.276360733728032049e-01,3.777654174255831721e-02,5.030247189858051650e-04,6.274223607710671495e-03,3.148128648065280730e-03,2.874954640865325928e-01
3.301464238907436677e-01,3.310979356133860740e-01,5.075706931972143177e-02,-2.435091182670994121e-03,-6.067463131762340124e-03,-5.333877547425260393e-03,2.802476286888122559e-01
3.577014420871753586e-01,3.314276927512103121e-01,5.374538813731982723e-02,-5.910543925245277837e-04,-1.283675357024511481e-03,6.440754613999230722e-03,2.919314503669738770e-01
3.478830257367292456e-01,3.553323616642214411e-01,7.988000966909630796e-02,-7.128038168066799796e-03,1.061920605993706135e-02,9.197611300916714791e-03,2.731704115867614746e-01
3.077521703673379294e-01,2.799015223445868727e-01,-9.842165684413234361e-03,-1.169009464708841220e-02,-1.549909754603855669e-03,-2.040409716299724802e-03,3.053297996520996094e-01
1.267661622058521287e-01,4.963218862235346807e-01,-9.952495429278002126e-02,-5.395551598792183712e-02,-1.311478559836353787e-02,-4.664313363467281455e-04,5.297702550888061523e-01
2.485014481437474165e-01,3.506941173313549154e-01,-1.907932146618487868e-02,4.943226571105833415e-04,3.420579387790084096e-04,5.408973964794340852e-03,3.308722674846649170e-01
3.270109854182859932e-01,3.368424144080684468e-01,7.053409843764837928e-02,6.134102181873713790e-03,-9.191203657910733058e-03,-8.852912817067948997e-03,2.626785635948181152e-01
4.227308103649032867e-01,1.614460096383094068e-01,-9.555693994483333009e-03,-2.002615221361882074e-03,-5.902304810409783262e-03,-2.218075233466422751e-03,3.772569000720977783e-01
2.425027027955316272e-01,3.426266351276001099e-01,-8.503238203578206145e-03,7.277671660360864395e-03,-3.907014571020072584e-04,2.945407914625648368e-03,3.136014342308044434e-01
3.642222991760803996e-01,2.363420340232221251e-01,-1.243915747327695165e-02,8.519945756409927004e-03,1.848317943326548531e-03,-8.789901792114127033e-03,3.324446678161621094e-01
2.177413710505369526e-01,3.625919481778923092e-01,-6.957421460953322478e-03,3.689530774462063817e-03,2.820012820638322917e-04,-2.939217910371232003e-03,3.226235806941986084e-01
2.626265827649850726e-01,3.295237210951150741e-01,-1.568294160440986129e-02,-1.163401313283302617e-02,6.304823953446179845e-03,9.436916908444652891e-03,3.183425664901733398e-01
2.657862014052568833e-01,3.199334106841627001e-01,-1.611754336358844908e-02,-3.849896893919078911e-02,4.057327451770788643e-03,1.083580534366928791e-02,3.201782107353210449e-01
3.271326986566888140e-01,3.259256272456751979e-01,-1.165786718034980685e-02,-3.344140683261675323e-03,-3.628785616903959163e-03,2.162784359378635418e-03,3.383173644542694092e-01
2.391375111796239239e-01,3.454750074826071771e-01,-8.213664001742171372e-03,-7.734666615155511016e-03,5.387909413700962130e-03,-3.715535432356789972e-03,3.148030340671539307e-01
2.197327456460023420e-01,3.709778496544561821e-01,-1.288450934628398992e-02,3.245320633868073804e-03,1.137884561017895625e-02,2.252963827143369610e-03,3.355642259120941162e-01
3.741825550797585054e-01,3.511448916586944469e-01,5.589546373640733035e-02,3.784036580143066569e-03,-2.331795688554998483e-02,-2.208496259416245500e-02,3.124774992465972900e-01
2.978613651521322958e-01,3.386780950273136637e-01,-3.130645740241200237e-02,-8.367941960861526572e-05,6.785877932175480957e-03,-1.627502413167885827e-03,3.515666723251342773e-01
2.902515976682509824e-01,3.455872267641467710e-01,-2.666959515934053115e-02,2.115064754646164835e-03,-1.043380597702876561e-03,-4.751592169770243665e-03,3.480266332626342773e-01
3.014240698881043290e-01,2.977057267387661077e-01,-1.272703503786815071e-02,-2.761064089142313029e-03,-1.848195814293393090e-03,-1.491827401692566186e-03,3.123722374439239502e-01
3.610997838387537962e-01,2.152752889823342231e-01,-9.744965489084350674e-03,-8.190807588787129331e-05,-4.162239287526564059e-03,-2.398644712187237259e-03,3.236998915672302246e-01
2.420998554721294216e-01,4.470860803533343031e-01,-1.946166711993546627e-02,-1.085849216464153943e-01,3.196573442889814876e-02,1.991388979421358091e-02,4.513064026832580566e-01
3.260423462960766461e-01,3.250128511858967340e-01,9.315383998657056352e-04,-1.836483417586770150e-03,4.555346133216470889e-03,-4.646041918948845030e-04,3.247097432613372803e-01
3.687202679192006505e-01,2.284523392988923596e-01,-8.523253878269104744e-03,-1.097895828331451121e-02,-1.257118894997927110e-03,-6.040415983323687600e-03,3.309809863567352295e-01
2.667860224722958806e-01,3.407647240985802739e-01,-2.558972521923394416e-02,-3.642015441361425021e-03,1.285602290189506551e-02,5.734993223467263652e-03,3.364822566509246826e-01
3.992312727052654830e-01,2.320237283275716211e-01,-3.770275078913118416e-02,-3.960720010492473032e-04,-2.023637824953121878e-03,-2.611832241727015530e-02,3.845390677452087402e-01
3.717457746232764038e-01,1.719451467649198428e-01,-8.375283784631593065e-03,-1.718208845682974578e-02,-3.471605497227942851e-03,-1.599824263924454204e-02,3.318938612937927246e-01
2.982359887677739074e-01,3.020872163855268244e-01,-1.106584843084651437e-02,-9.823044830440555257e-04,-4.426904487852878272e-04,-1.540562574500883809e-03,3.112623393535614014e-01
4.448173839781808803e-01,4.513178679424626472e-01,4.692935570139861179e-02,-6.221251252049671276e-02,7.205667443153890295e-02,4.674327412879804300e-02,4.412324726581573486e-01
1.366298604185712529e-01,4.807456531044159709e-01,-1.438447366675782435e-02,-6.306703768698599874e-03,4.817275897387247874e-02,-2.069613430447556600e-03,4.475281536579132080e-01
3.295501213986281042e-01,3.232137356210973977e-01,4.041614891969308454e-02,1.899212558128097941e-03,-4.649372225251855936e-03,3.030694678993069678e-03,2.861988246440887451e-01
3.271935467094437278e-01,3.621994849250027571e-01,6.382711743697502826e-02,1.642564926256445679e-03,-6.418105874636566635e-03,-1.105522658888111708e-02,2.833813726902008057e-01
3.147979663496909275e-01,2.947666592935208607e-01,-1.722639995416291869e-02,2.608606963526197923e-03,6.641833893150597516e-03,-6.641912866092523470e-04,3.227144777774810791e-01
4.117218017071173075e-01,1.158217716475452158e-01,-4.560691272980901823e-02,-7.865670260421069038e-02,7.311236687014758921e-03,3.435206705339462901e-02,4.285370409488677979e-01
3.289043163863203389e-01,3.243408287634480525e-01,-3.407802380736960068e-02,7.751095826290856647e-04,1.673839480134302858e-03,-6.360990684616150623e-04,3.607380688190460205e-01
3.244295111796091091e-01,3.171819258538604580e-01,-3.283566639757479200e-02,-1.926851492872467923e-03,4.379384358872936631e-03,4.440221106658805324e-03,3.538777232170104980e-01
3.286772052236160979e-01,3.254426012262908174e-01,-1.271434272360411066e-02,-6.790718471327932253e-04,-1.233716479263626984e-03,-4.390114879592247644e-03,3.398796319961547852e-01
2.983425737796180921e-01,2.992966762741305908e-01,-1.150281679560050119e-02,-1.044943447773886112e-03,-4.364293927412828057e-04,6.318818245719394456e-05,3.103297650814056396e-01
4.771224980492401180e-01,1.986749485111012903e-01,-3.044863844886736004e-02,6.975093445615168641e-02,-2.054237826343071824e-02,7.288611794652587184e-02,4.750034213066101074e-01
3.284002810603378619e-01,2.961727350834618133e-01,-3.051065397670257862e-02,1.068480836302136000e-02,-1.102719175601508776e-02,1.655816152840541844e-02,3.461483418941497803e-01
3.623115678907957160e-01,2.390936824230006086e-01,-1.606905597868313329e-02,-5.975661229340717808e-04,-1.870732040227607654e-03,5.215481940215400871e-04,3.342808187007904053e-01
3.205743091502780695e-01,3.225137895079434047e-01,5.533586904639664628e-02,-1.849301222848525467e-03,7.518300020854674220e-03,1.483569891781179838e-03,2.665634155273437500e-01
3.754960778756358808e-01,1.867817840380001926e-01,-2.028640827208760822e-02,6.050018801182635575e-02,-9.961330841397669431e-03,2.596752650983582406e-02,3.617574870586395264e-01
3.264612025232212500e-01,3.234755475757462029e-01,1.741258956997004947e-02,-2.953195916004670157e-03,-2.729906571961800664e-03,1.162692254071894058e-03,3.076521158218383789e-01
3.825382156692215263e-01,2.711934014275236282e-01,-5.949958755916306963e-02,1.545758921266127406e-01,-1.894945694938116737e-02,1.775617674961118761e-02,4.819550514221191406e-01
2.162995860666194758e-01,3.521545549803342112e-01,-1.059188092758986399e-02,-1.922473797450424682e-02,1.502151002702134270e-03,3.155362003231405258e-03,3.192272782325744629e-01
3.417764577163311390e-01,2.932223889371698977e-01,-2.816173942857791435e-02,-1.312958570223717123e-03,3.676526673469397710e-03,-1.629042822975963669e-03,3.482864499092102051e-01
3.390260003929919108e-01,2.585966199191677140e-01,-1.547287355598211955e-02,6.391321480975474881e-03,-5.380309001314490837e-03,1.224147042607651214e-03,3.222422897815704346e-01
3.656894920207988120e-01,2.086354820109984631e-01,-9.660211125483292305e-03,-5.364475896120483867e-03,2.692766231871130019e-03,3.435815198191514031e-04,3.266674578189849854e-01
3.572665241640236578e-01,2.144966680773896239e-01,-1.507121611089801139e-02,1.862276556835520264e-02,-5.714612964154107237e-03,9.762593687566701456e-03,3.275428712368011475e-01
3.359877816557209629e-01,2.569017610080562286e-01,-3.969180746291839368e-02,4.621120561472099458e-02,-2.026980767566371675e-02,3.828269911454829783e-02,3.601589500904083252e-01
3.290373468051588923e-01,4.247357977909104187e-01,2.348309359343583869e-02,9.229323931341620879e-02,-2.876292289914066103e-02,5.176696237947123538e-03,3.998488485813140869e-01
2.866902779591193884e-01,3.436633744836972149e-01,-2.874590542590807485e-02,2.221288155916995976e-03,3.521279694621465804e-03,-2.640708731591403201e-03,3.475488722324371338e-01
3.216169000623104735e-01,3.179770352035566350e-01,-3.120468783624302800e-02,-2.347430221674281971e-03,-6.629973151288145149e-03,-3.853737378943080348e-03,3.512905538082122803e-01
3.260104221875267383e-01,3.260957926062143519e-01,7.419396261962807326e-03,-2.138227791999795097e-03,3.696010090443527241e-03,-3.620420941299965119e-03,3.187812268733978271e-01
2.371093925836504079e-01,3.528673898465436443e-01,-1.409860109818641960e-02,-1.102774691180346579e-02,-1.189337507464444978e-02,-7.255087833850149860e-03,3.263921141624450684e-01
3.573591655358888675e-01,2.330219502814912524e-01,-1.439473711109831577e-02,-8.650919545425649060e-03,6.538077723333144894e-03,1.272673069621602093e-02,3.290539979934692383e-01
3.271068971891090138e-01,3.060677838782802640e-01,-3.030079995987411401e-02,1.284281488066823466e-03,4.817976810614903183e-03,-9.501716948072210693e-04,3.474775552749633789e-01
3.450352890365229741e-01,2.286502448064045012e-01,-7.199369506353608950e-03,8.725010744834541324e-03,3.134631288120728367e-03,-4.521689319253637809e-04,3.112528920173645020e-01
3.835233061299050394e-01,2.340248179202110701e-01,-9.444647017445206849e-02,1.727480485080279127e-01,1.651143025694661384e-02,-9.799388753763864715e-03,5.195967555046081543e-01
3.646897581963288726e-01,2.222894653986731972e-01,-1.647757466246102531e-02,-1.417372422446912944e-02,1.594079028521887742e-03,1.152716971853196687e-02,3.351074159145355225e-01
3.566528551016794890e-01,2.514254557704700965e-01,-1.683501368972445400e-02,-7.547542762663653551e-03,5.762817935450699480e-03,-7.572803067898198261e-04,3.339716792106628418e-01
4.655262254405015399e-01,1.802149151228311097e-01,-4.232431886255955122e-02,9.579792713250637193e-02,-3.591540127079384179e-03,2.733704842044750241e-02,4.735309779644012451e-01
3.087531145034423385e-01,2.705178579769811908e-01,-9.819695004741640920e-03,-1.366408160311017791e-02,-6.289839957401114311e-03,-2.834499921074044165e-03,3.024446666240692139e-01
3.637747853896466932e-01,3.093708970410575798e-01,-1.338434571334085055e-02,-3.269499924687339909e-02,-5.713518021389441329e-03,4.336371858374516754e-03,3.578422963619232178e-01
2.299768410574744293e-01,3.675536472514878694e-01,-1.466054812401285101e-02,1.873606126976362987e-02,2.310660514813562064e-02,-1.954164795465345231e-02,3.409277796745300293e-01
3.496780221346423301e-01,2.683018130293945980e-01,-2.603507945935679135e-02,2.283075441315291897e-03,-5.654587285720271209e-03,1.137960990325670441e-02,3.430865108966827393e-01
2.563866199200261486e-01,3.255480304405483638e-01,-9.643268706245933242e-03,8.671719674291280405e-03,3.509281284787751703e-04,-3.433037198488531495e-03,3.069454729557037354e-01
3.201314777139704359e-01,3.078067834807868830e-01,-2.546080659027313842e-02,8.581744614823509903e-04,6.627618301561445137e-03,-4.470262061107363330e-04,3.397957980632781982e-01
2.473469830639739298e-01,3.324140680066599574e-01,-9.037302771938315882e-03,1.813944958876470212e-02,2.470634679247951920e-03,-1.049416128387726946e-03,3.094962239265441895e-01
2.691783678658004053e-01,3.379007923149059955e-01,-1.714274841936566651e-02,4.149391333407251130e-03,-6.690064945068790059e-04,6.334220884855907945e-03,3.264239430427551270e-01
2.816067609837770158e-01,3.256584836336243183e-01,-1.665440756080505125e-02,4.497090278434019359e-03,-7.075696104151502986e-04,6.265446115371138026e-03,3.228299021720886230e-01
3.258357232702533413e-01,2.834257008094240304e-01,-1.689454141429014289e-02,5.138062438947848219e-03,-7.496571347934294707e-03,1.764491470360654156e-05,3.239988386631011963e-01
3.277534772286476161e-01,2.063090326794331242e-01,-8.138463938218432059e-03,6.787759482051416993e-02,-2.525114394257058168e-03,-7.965942120184270900e-05,3.172084391117095947e-01
3.180556509231162177e-01,3.279941614943692740e-01,6.958055910563784585e-02,-1.937901344458524324e-03,1.442039440284852408e-03,-6.099833313954655493e-03,2.538449168205261230e-01
3.293181340208142238e-01,3.307191509503426552e-01,6.039031335551001134e-02,-5.210653782484632630e-03,-1.718225649679124174e-03,6.020985645510935035e-03,2.699999511241912842e-01
3.357758757355773227e-01,3.386077521626480458e-01,3.012183182137453952e-02,9.178579066029221231e-03,1.610767339451911603e-03,-1.250715884456011368e-03,3.075112998485565186e-01
3.609071775306238461e-01,3.794376352957311571e-01,3.438454507254920522e-02,9.361406634249764321e-04,-6.019700012440665476e-04,-1.208632508398054407e-04,3.361767232418060303e-01
3.600036285129911695e-01,3.348973377945246854e-01,4.954936512613702937e-02,2.726587109740476883e-02,1.429840607467701939e-02,-5.662495869639160712e-02,3.188739418983459473e-01
2.518518173518057290e-01,3.476456223530309808e-01,-1.765753198789865586e-02,2.127545826831093827e-03,6.288290604985210077e-05,-4.979846121583291624e-03,3.282027542591094971e-01
2.091217386364985220e-01,3.604481437480882011e-01,-8.213103363823887060e-03,-1.419315587845714150e-03,1.804243574489541901e-04,-1.218978294814910233e-04,3.209809958934783936e-01
3.632439504589238810e-01,2.197468160657560232e-01,-1.470025165256655386e-02,-2.672381317390770498e-03,1.131038447470826243e-03,1.410741237757088054e-02,3.313935101032257080e-01
3.369933397139359688e-01,3.444227063222709551e-01,5.138478067587948228e-02,4.137147087579477397e-03,-4.451894391566571345e-03,3.243962564288528638e-03,2.896406650543212891e-01
3.263287505760963381e-01,3.314889903663340021e-01,5.833819520890268229e-02,-2.934486906508583515e-03,1.421386167513869706e-03,7.756616738632468588e-03,2.709997296333312988e-01
3.330935442021256132e-01,3.715933308925718492e-01,5.340109872530862667e-02,1.950515321360120694e-02,5.980238358791151176e-02,4.597876208499067710e-04,3.199205398559570312e-01
3.160966192790999330e-01,3.190117046012593272e-01,-3.189034003174540111e-02,1.124509940928019192e-03,-1.387477756551056744e-04,-4.250799918871830930e-04,3.494599163532257080e-01
3.616769589489374215e-01,2.114392267535764591e-01,-8.140985520265348052e-03,-1.686336774480894432e-03,-2.805484846659528635e-04,-4.893881994061316867e-04,3.221576809883117676e-01
3.041185833901304814e-01,3.069180173461819594e-01,-2.087047996786131621e-02,-4.070601987310392376e-03,-2.221649588809712379e-03,-3.393498928172289028e-03,3.265495002269744873e-01
3.489169966163048198e-01,2.899324590101530763e-01,-2.899025157130408203e-02,1.446954343056786399e-03,-4.509470444630148470e-03,-1.616736912849399714e-03,3.522463738918304443e-01
3.338155054148057577e-01,3.037320125237132906e-01,-3.228558538287187862e-02,1.638584888928224653e-03,-5.525186450477143074e-03,7.209366719340921069e-03,3.523875474929809570e-01
3.690256663106507018e-01,2.167182273496268130e-01,-9.176617265985675953e-03,3.530513614558011999e-03,2.949278939669886229e-03,4.491198730107515743e-04,3.296901583671569824e-01
3.266418316933459853e-01,3.270748419660156614e-01,-4.318146721943999511e-03,1.642299278628482108e-03,-4.125659104933148379e-03,3.304714167202610960e-03,3.313154280185699463e-01
3.567554092005260635e-01,2.469255489940734294e-01,-3.170958818689093017e-02,-1.171592029489949491e-02,7.916073189832699072e-03,2.980000834874946269e-02,3.515202701091766357e-01
3.511343696236494671e-01,2.160225850123118074e-01,-9.150922310362352707e-03,-1.810306494018423459e-02,2.803773780845343318e-04,-3.609430332077729741e-04,3.168054521083831787e-01
4.876965041328624184e-01,1.218182458612332708e-01,-9.600925190263565057e-02,5.746406631690702260e-02,-4.064614588448950405e-03,2.256115387078178741e-02,5.220124721527099609e-01
3.327446949476235982e-01,2.710809683641116075e-01,-2.145251113650942232e-02,-3.916242292467053687e-02,-1.516949959610888396e-02,-1.916268633405472654e-02,3.373574018478393555e-01
4.372758277920805736e-01,1.006169646662006811e-01,-2.424400740728238635e-02,-6.140684861345748619e-03,3.678354868233000251e-03,3.047203823106755041e-02,4.170184135437011719e-01
4.455204683168403346e-01,2.353883503037834668e-01,-8.945140316799493618e-03,-1.081708232283014326e-01,2.174299505506632063e-02,4.510111738734040587e-02,4.447696805000305176e-01
3.529898524595925791e-01,1.813111111233061123e-01,-2.129938348980819907e-02,9.790750282340324184e-02,8.249635997401146004e-03,-2.067078783690658346e-03,3.664466440677642822e-01
2.961699374558725562e-01,3.087613000073743952e-01,-1.705454834043182433e-02,-3.728682063845641971e-03,2.476876599113602730e-04,4.805775146521400025e-03,3.198800086975097656e-01
2.215858172831321471e-01,3.783997155150314318e-01,-1.638684506010329445e-02,-8.363386523541058160e-03,1.255050150012333547e-02,2.409348682688405331e-03,3.453097343444824219e-01
3.291941464605174228e-01,2.525589236464960141e-01,-7.792131573692850921e-03,-4.128195215091235576e-02,3.000634561500053771e-03,-3.706970153042083750e-03,3.143064081668853760e-01
2.830048184554838087e-01,3.251889893702069045e-01,-1.798752715395882107e-02,-4.418769450974653797e-03,-4.823745117476308571e-04,7.398064535537098377e-03,3.244941830635070801e-01
3.690503751456867265e-01,2.217486428258873543e-01,-1.409267956335891192e-02,3.853762278106877964e-03,2.873943257538468313e-03,1.483930037072979900e-02,3.358403146266937256e-01
3.567654380773960243e-01,2.260857327874603306e-01,-9.312282284014650191e-03,3.036718933050958427e-03,1.375667923171036916e-03,1.763529239996533505e-03,3.213935792446136475e-01
3.344367924345578169e-01,2.927024189201320459e-01,-2.822525045561574686e-02,-1.042434077941384969e-03,-3.308717685353663226e-03,1.978910469968614329e-03,3.437701165676116943e-01
3.412702722440305036e-01,2.846561744442127617e-01,-2.846501023213487969e-02,1.785809634814838464e-03,-6.622052123826735123e-03,-3.478925585674718258e-03,3.451876938343048096e-01
3.295321378489154407e-01,2.547384723527139072e-01,-1.609767023823677201e-02,-4.162221501592408557e-02,3.203726549437390606e-03,-1.603695386868492570e-03,3.231700360774993896e-01
3.452758746682464963e-01,2.845980278419297793e-01,-2.728470105270242030e-02,-1.470524508260324242e-02,-4.827122754974152302e-03,-1.040825477216363384e-02,3.477364480495452881e-01
3.367659921873646933e-01,2.744454217795492257e-01,-2.227346577445712961e-02,-6.989311247750235045e-02,-2.129852917354172620e-02,-2.156822575515580237e-02,3.575321435928344727e-01
2.851245879431759112e-01,3.396622949501352795e-01,-2.731812430768199018e-02,2.769183681241155757e-04,-6.841965175039691274e-04,-7.732149840694674476e-04,3.429841697216033936e-01
2.759628788590796633e-01,3.797077621391213298e-01,-1.429710932260699896e-02,-1.836986394230522360e-02,1.290409032005388618e-02,1.905902629748703388e-03,3.558787107467651367e-01
3.180574944860195541e-01,3.601430655574816009e-01,-3.586068192560082357e-02,4.961724351448219827e-02,4.235317874553005263e-03,-7.720562964483378837e-03,3.867070674896240234e-01
2.117028665438587531e-01,3.331048315873296750e-01,-7.023855888751801002e-02,-1.411718086859187760e-01,1.642857219261269208e-02,-2.814307564755808358e-03,4.348327815532684326e-01
3.395731093663669764e-01,2.455184474032034991e-01,-1.552993358559018322e-02,-4.150546158600722929e-02,-5.929088056341979586e-03,-8.559378341279514496e-03,3.271677196025848389e-01
4.621940243986321084e-01,3.178550583751418857e-01,3.152585329934484704e-02,-6.333562257222520586e-02,9.480799116918722791e-03,7.170938538859297773e-02,4.145807325839996338e-01
3.596558669906678718e-01,2.229170966156295008e-01,-2.318350181637426899e-02,-2.622741809239508698e-02,-4.983506405275887896e-03,-2.273096815994832265e-02,3.414714038372039795e-01
3.334081378578556687e-01,3.086158596072655635e-01,-2.684575850942597097e-02,-2.625841155275217883e-03,-9.395599102951339432e-03,-1.207861022185475162e-02,3.495557308197021484e-01
3.810322923331306288e-01,1.967683896029592261e-01,-1.751254801161453156e-02,2.711068589248730870e-02,-5.492914681198447259e-03,2.798075292077444390e-02,3.521334826946258545e-01
2.991266904584898856e-01,2.976538830541162195e-01,-9.833260575590141439e-03,-9.174407496056804015e-03,5.090083316645287702e-04,-8.638650043261822181e-04,3.086404204368591309e-01
2.835908203968071639e-01,3.498435163269854042e-01,1.621196609267572253e-02,-8.662523822668623252e-02,6.196107972611493431e-02,1.672739075951016480e-02,3.584190011024475098e-01
3.280575789247949792e-01,3.253132358453669770e-01,-6.357567388533880148e-03,6.212833848248977857e-04,2.468816999749293313e-03,1.895966714054383127e-03,3.330968320369720459e-01
4.346830065496504192e-01,1.196430233898850143e-01,-4.309967094785260855e-02,8.530543771390471097e-02,-4.906278630929559320e-02,-1.129988595982850483e-03,4.539407193660736084e-01
3.637559279038138360e-01,2.054854697668256069e-01,-8.854760116450727248e-03,3.504526612846936388e-03,1.871929728197706169e-03,-5.955035605725128058e-03,3.241430819034576416e-01
3.077059032420739193e-01,2.892549107722529600e-01,-8.734895018698424218e-03,-2.570131816383505741e-02,4.384890311021119569e-04,1.323631501113532640e-03,3.108441233634948730e-01
3.280037312381541281e-01,3.291750161289390131e-01,-8.048603163635592583e-03,3.937183305808740659e-03,2.385335214235022230e-03,5.592273962844247076e-03,3.368732035160064697e-01
3.562816124927574157e-01,2.914558434355384864e-01,-3.489269333682926133e-02,6.856026199544958122e-03,1.543158035255633859e-02,3.736111094143530070e-02,3.700061142444610596e-01
3.296099436730660637e-01,2.834144649921204184e-01,-2.841056031749344957e-02,-1.912717279610720231e-02,1.594080355228407950e-02,1.683319762333297664e-02,3.412971198558807373e-01
3.287715327674580745e-01,3.273364875497468685e-01,-1.444619315151512984e-02,2.653066388438995744e-03,2.578230444398178778e-03,2.641284354430131331e-03,3.425929248332977295e-01
3.199465901913796095e-01,3.117045624379064517e-01,-2.536220411791803575e-02,-1.170774501837436050e-03,4.021168407793785163e-03,4.974320459496619530e-04,3.413406014442443848e-01
3.074282429741946321e-01,3.073969072987893236e-01,-1.968724079846220776e-02,-5.060267737812958969e-04,2.553225483616171528e-03,1.765553040994507486e-03,3.271451890468597412e-01
3.543332237793961337e-01,1.944627706601926576e-01,-1.117350075887690863e-02,3.459533801479969251e-02,-3.961638591438430314e-04,-2.208720550298479916e-03,3.229947686195373535e-01
4.068162489120826786e-01,1.063297342047148791e-01,-1.182166414192770132e-02,6.273472978766317376e-02,9.501307713090515958e-03,1.811638458669062243e-02,3.909183740615844727e-01
4.409169108031162354e-01,1.978857856987271679e-01,-1.261397432675129271e-02,-3.544110227365854238e-02,-5.917729821062995416e-03,6.783588000572506049e-02,4.149827361106872559e-01
4.241452125590603472e-01,1.584400663677487664e-01,-2.624632738406365573e-02,-1.535932873444074065e-03,-4.656465894368816243e-03,-9.767886472259828395e-03,3.926051259040832520e-01
5.344810174581255957e-01,8.520590784310891341e-02,-7.697047645985805042e-02,-9.102000947833573108e-02,-1.340034727919390926e-02,-1.682661341160920226e-02,5.720604658126831055e-01
4.817266710591100454e-01,3.156221250435781722e-01,3.644256564231482254e-02,-4.234933065961393045e-02,2.283348030611554585e-02,7.306026491861984662e-02,4.181660413742065430e-01
4.431870978972863862e-01,6.434716589769610973e-02,-1.176346819370308605e-01,-9.713150141059515019e-03,2.251161011680360459e-03,-2.251727051019482978e-02,4.973915815353393555e-01
4.019384614838500402e-01,9.951364839787363303e-02,-3.774307194017409439e-02,8.591606809722736326e-02,-3.350145115916609330e-03,3.581725056902132498e-02,4.217072725296020508e-01
3.183992812042822917e-01,3.108795610766311168e-01,-3.564118929852741480e-02,-1.950911126321314137e-02,-2.083245746415170879e-02,-2.161190895545050950e-02,3.557863533496856689e-01
5.013173208642192069e-01,1.011863164287733763e-01,-2.158654761576755954e-02,4.367808536840177280e-02,-1.135375213488529211e-02,-1.046581290712164138e-02,4.803559780120849609e-01
2.546667532325255223e-01,4.111812958809757945e-01,-4.867434991035285430e-02,1.493347627055401916e-01,-2.877333687536517276e-02,2.517170165700966661e-02,4.850536882877349854e-01
2.163970034219151184e-01,3.520212591242987132e-01,-1.184296712133278695e-02,4.053819328850467862e-02,1.692957650379781076e-02,-3.295516332804420811e-03,3.275129795074462891e-01
3.255666045207543102e-01,3.014433550302630938e-01,-2.606501231581270783e-02,2.462865554371554584e-03,-6.889774046396296078e-03,-1.002524847756544081e-04,3.404480218887329102e-01
3.283183284680990521e-01,3.265861128594435003e-01,-2.096703223368795443e-02,-1.860892306948670749e-03,-2.277185822633813646e-03,-1.714467562421039329e-03,3.484723567962646484e-01
3.120038146099051724e-01,3.202077952649274861e-01,-3.061336951838822262e-02,8.404555052894491056e-04,-2.419604588963721221e-03,4.741660617245224522e-03,3.469175696372985840e-01
2.983472734178911900e-01,3.147885314957454828e-01,-1.649095948380602250e-02,2.605284155782458359e-03,-1.103437132745073478e-03,3.765197108474867185e-03,3.234753608703613281e-01
3.266627546938920545e-01,3.285450402669010117e-01,-2.604178192218281618e-02,-2.481154044089529942e-03,-3.195365803754237569e-03,3.074098824367190331e-03,3.537589311599731445e-01
3.267849449521559313e-01,3.161189262105210673e-01,-3.248141238996699043e-02,1.694122217674316993e-04,-4.271863851222291314e-03,1.579884347462698195e-04,3.541314005851745605e-01
3.648399830613247019e-01,1.911969424391002370e-01,-1.060023109693897236e-02,3.278606776438923454e-02,-4.915213083751932346e-03,-1.296963939640671847e-03,3.304799199104309082e-01
3.713432876077670253e-01,2.046652220084974882e-01,-8.287274704549152382e-03,1.483742282917904949e-03,3.456211358251533739e-03,-6.127990274494557119e-03,3.298180699348449707e-01
2.239099595471235049e-01,3.235326332575099162e-01,2.512586055070972768e-02,1.020689867132623385e-01,-2.907255441785843234e-02,3.513869833071463916e-02,3.267066776752471924e-01
3.272506951279699483e-01,3.288125891613256080e-01,-2.818041006050828190e-02,-1.323774924996933867e-03,-2.309852468750485735e-03,1.272284861545653657e-03,3.562512695789337158e-01
3.529065492294926054e-01,3.369986841170194425e-01,-2.099178984949945370e-02,1.370144444130599048e-01,-3.014415914938779056e-02,3.126731395985632433e-02,4.428125023841857910e-01
3.020398982660735809e-01,3.022511369312830265e-01,-1.684312295950421423e-02,-1.310440470467233052e-03,5.822815879199690330e-04,3.382829152951421451e-03,3.190521597862243652e-01
4.954988014637030647e-01,2.164573729726658458e-01,8.645370662130891226e-04,-3.606549334831287562e-02,-1.144216671289492379e-02,-4.102886235570747664e-02,4.402825832366943359e-01
3.432565048163683796e-01,2.676577103668592583e-01,-1.634464100272231546e-02,2.681642199673311966e-02,-1.726829949010539808e-02,1.871171418296043235e-02,3.345819413661956787e-01
2.872013527744394779e-01,2.855788241009263873e-01,-1.598244406832693976e-02,6.120548373388266794e-02,-1.057228055247128040e-02,1.315255859362880059e-02,3.217510581016540527e-01
2.428345674762329431e-01,3.506103811802613879e-01,-8.874322528451078496e-03,3.825418634398287943e-02,-1.219109490290135652e-03,-2.505236326639603047e-03,3.263656795024871826e-01
3.178367729188764645e-01,3.230112854504191833e-01,-3.182500697831125436e-02,-1.227824306742818455e-04,-3.610593655455329710e-04,2.598575101060970026e-03,3.523069024085998535e-01
3.382667707024047954e-01,2.974628768934709511e-01,-3.218505498262369535e-02,3.775679503680359241e-03,-4.323531811763994814e-03,6.797453412825657515e-03,3.521662950515747070e-01
4.098758550464278727e-01,1.854288950997344254e-01,-9.287314230524340575e-03,3.728200506085894983e-02,-2.175479775784700930e-03,6.741949744204365135e-04,3.690253496170043945e-01
3.695210613352506446e-01,2.255060048175532850e-01,-1.749619044801714596e-02,1.933906868278332473e-03,6.524885746606099010e-04,-1.393230593032675040e-02,3.396780788898468018e-01
2.383218345124031856e-01,2.611345703513227590e-01,-3.368497921935836859e-02,1.607621821232715076e-01,7.146081678665152162e-03,4.511170939114275170e-03,3.980716466903686523e-01
3.967543425250983913e-01,1.506850473794707490e-01,-2.174682421394408260e-02,-5.736039420477158368e-02,-2.722422844845634807e-02,-3.414592072819332830e-02,3.851038813591003418e-01
2.044064719679943576e-01,3.037186466814514318e-01,-1.568256663392800232e-02,1.648203999032284428e-01,-8.379163178990421679e-03,-8.215169759992488677e-03,4.025791883468627930e-01
2.673787880922960380e-01,3.466462844948909883e-01,-3.004965479188470567e-02,-4.178388991805609756e-03,-1.575670778119633852e-02,-4.695761006506463239e-05,3.451385498046875000e-01
4.948031219030270544e-01,2.270706092639080687e-01,-3.384245951826847509e-04,2.449339283114716770e-02,-9.626967975339502034e-03,6.550841977563093277e-02,4.463543891906738281e-01
3.272334193611962094e-01,3.284364215177878465e-01,-1.671911885901339323e-02,-2.561106645891510908e-03,-3.287958766894930485e-03,-2.957381045353185429e-03,3.446692824363708496e-01
1.629459340145796020e-01,3.913339949076313218e-01,-9.415855021888758225e-02,1.130523961654621157e-01,-2.830164297433367809e-02,1.155025707112020041e-04,4.666143357753753662e-01
3.522873601859897175e-01,2.660415883958501260e-01,-1.909033633194837098e-02,7.665213430047721974e-03,2.391283159851859737e-03,7.220890865174474805e-04,3.369346559047698975e-01
2.234261621304373668e-01,2.938969150081833792e-01,-7.132115943481048825e-02,2.096985274894236917e-01,-3.421272689983861220e-02,3.396394218185631864e-02,5.015035271644592285e-01
2.084254628835755518e-01,4.098485134632702254e-01,-8.200307293821101906e-02,1.736653643822320126e-01,-4.463674541468268253e-02,3.739477361870824357e-02,5.329825282096862793e-01
2.454152411192413452e-01,2.809143946079838416e-01,-1.482934467401800238e-02,1.223210476679583159e-01,-3.661336168409447950e-02,3.736816957635869657e-02,3.623864948749542236e-01
4.425133302776816935e-01,3.753134135690842088e-01,3.624421338693722960e-02,7.817671451519613013e-02,4.987174690948657091e-02,-5.789830197358933339e-02,4.220452308654785156e-01
5.032801372936036577e-01,2.016403013124689059e-01,-1.197284331941200763e-02,2.076757715046646108e-02,-5.257155208051132213e-03,-4.312337337706209639e-02,4.560779035091400146e-01
3.147230549129523824e-01,3.383268964895560504e-01,-3.200252084943580599e-02,-1.387559420269492182e-03,6.957526143341129883e-04,-8.544361946681481408e-05,3.591198623180389404e-01
3.135778764964145537e-01,3.069575333478036794e-01,-1.942315759169055411e-02,1.302831713124996682e-02,-5.913318886948653284e-03,4.412167154102432896e-03,3.307588994503021240e-01
4.806016691422534404e-01,9.412843822088942658e-02,-1.269805985649274938e-02,8.000742746509632852e-02,2.754395267488135568e-02,1.084218160098794539e-03,4.728024303913116455e-01
2.910503981744642088e-01,3.101406446384841198e-01,-1.342146397481205899e-02,2.611727531656062376e-03,-3.211648560310256632e-03,4.964133874952538286e-03,3.146511316299438477e-01
2.606082002589807933e-01,3.234930630226033332e-01,-8.368420176661478527e-03,8.029059313966349296e-03,-2.787109042461715855e-03,-2.177693817081439911e-03,3.056933283805847168e-01
1.312796552955453611e-01,4.993408103042678570e-01,-1.033267611747373249e-01,6.266282578821519289e-02,-1.433455762154754558e-02,5.323431041711339240e-03,5.379033684730529785e-01
2.921728093635965751e-01,2.466466383571220278e-01,-1.514491866483802518e-02,1.311017592993957703e-01,-4.965687194865192437e-03,-1.878836523337879330e-02,3.677251935005187988e-01
2.235694837554049186e-01,3.093940561032102465e-01,-9.141120608922265189e-02,1.721006074971586086e-01,-3.268165681731630134e-02,-1.583351989068244869e-02,4.758403301239013672e-01
2.269486744202373618e-01,3.834578375430054420e-01,-1.998216711186573402e-02,-1.895520857914648194e-02,-9.995887101923249529e-03,3.154562676071402932e-03,3.542942404747009277e-01
3.638119868943537893e-01,2.001097084317108310e-01,-2.243997378529316578e-02,3.107965685636272790e-02,2.044051361824639895e-02,-2.898380748557507353e-02,3.455866873264312744e-01
4.833603585364679711e-01,4.404939694851012222e-01,5.620766549090477904e-02,-2.782406712913915257e-03,1.833389694189867594e-02,2.856406394724687534e-02,4.116622209548950195e-01
4.427724610221087098e-01,4.222074672131600481e-01,5.902540652216137218e-02,-3.671606120287306679e-02,4.098177291654786503e-02,4.796041315364992647e-02,3.946850597858428955e-01
4.365555828333174126e-01,4.451999727425050013e-01,4.510702377722486389e-02,2.972057314164115727e-02,-4.472618432882793926e-02,7.785341424361900964e-02,4.283984601497650146e-01
3.272739307415284959e-01,3.286585608849021956e-01,-6.462704786554418490e-03,1.308312564558545806e-03,1.531824085477522402e-03,3.164180389216474966e-03,3.344942033290863037e-01
3.821480264809811178e-01,3.607724574705514775e-01,3.871250544903770408e-02,2.334785287001334489e-02,-1.497436182773846311e-02,-3.330808173065467892e-02,3.416139483451843262e-01
2.205091546871129071e-01,3.824804193836988664e-01,-1.142434387472165414e-01,1.969087209675696171e-01,-1.929156726467579075e-02,5.803178674943947936e-03,5.568221807479858398e-01
3.762226023688001186e-01,3.650070828569967896e-01,4.595099340482691752e-02,1.256561066211050667e-02,-2.702824840523214769e-02,-1.477542851655850101e-02,3.298805356025695801e-01
3.227770877817867090e-01,4.620204505913402260e-01,3.671402516934654803e-02,1.626958384480493847e-02,7.657861896307961713e-02,-1.134287565489586029e-02,3.997825682163238525e-01
2.912210397437776099e-01,3.363926959544278339e-01,-2.774096982863361038e-02,9.106311528049146689e-03,1.656089147738740511e-02,-6.527950080012784838e-03,3.455208837985992432e-01
3.308226194518292251e-01,3.334990686222957801e-01,2.732055101455718726e-02,-1.577725555190970545e-03,-1.862947099477909631e-03,3.064047524018293465e-03,3.049246072769165039e-01
3.255306806813200171e-01,3.206877296882430506e-01,2.730920541433962123e-02,-2.001440009944710583e-03,3.427496130661645928e-03,-1.727154001447681010e-03,2.959247231483459473e-01
3.472523326971042601e-01,3.380334679899885675e-01,2.822708549687882873e-02,-5.132703423276211568e-03,1.016274957601585351e-02,-1.489496602815603213e-02,3.161890208721160889e-01
3.247161158032225714e-01,3.321635920131194020e-01,1.422151202446819696e-03,-3.769165331411724988e-03,1.090074348945136579e-02,8.989556997004644751e-03,3.280605375766754150e-01
3.703339041392336162e-01,3.950970170182011021e-01,1.901414068075651942e-02,-1.198219564144926974e-01,5.138476425850813795e-02,5.320952304468885841e-02,4.384351670742034912e-01
3.329161369967299500e-01,4.634919752968855722e-01,3.055340422420993463e-02,-8.050831762942591008e-02,7.442442046304914571e-02,2.093939565485021179e-02,4.305016398429870605e-01
2.864077626876038174e-01,3.085518606083303972e-01,-1.132083814886092332e-02,-5.029796993734643624e-03,-5.833294203047383313e-04,-1.680498871158036221e-03,3.095335364341735840e-01
3.279508927729069545e-01,3.299399534610458762e-01,5.386333447219956994e-02,2.332923230611525737e-03,-6.364813239520628572e-03,7.504928594728917275e-03,2.756446301937103271e-01
3.275006409758940418e-01,3.244640427734620802e-01,5.146392549482842194e-02,4.057661592291055344e-03,-4.411928395652646787e-03,1.192286128870446949e-03,2.747350335121154785e-01
2.219953019959489127e-01,3.518450886468031946e-01,-1.762848030188104986e-02,-2.973717503044156357e-02,-9.599498197345063613e-03,-7.724359172266005366e-03,3.293994069099426270e-01
4.201305043839798081e-01,3.704031331373032199e-01,3.834992674440917959e-02,-7.397762226894787074e-02,3.847091192959712497e-02,6.365321760438334697e-02,4.028120934963226318e-01
1.117233261715345899e-01,4.935122812884066290e-01,-9.630920011279753279e-02,-6.538671550495364637e-02,1.361721881225148693e-02,-2.947599090379102171e-03,5.309175848960876465e-01
3.259971471698251966e-01,3.265891802643642872e-01,4.340834896974815615e-03,-2.652582668476672571e-03,3.353283210054422946e-03,-2.834369693227768803e-03,3.220753073692321777e-01
3.180497682680450411e-01,3.201003503268970429e-01,6.701997635737985681e-02,-4.865875973038396576e-04,3.153061647137064935e-04,-5.597531647643577213e-04,2.520652115345001221e-01
4.749728179164700581e-01,3.466248450091158340e-01,6.326251138846972211e-02,-3.458045290816553000e-03,-3.148112501553770870e-02,2.221083813163001949e-02,3.709790110588073730e-01
3.286833428433652005e-01,3.246087346043776689e-01,4.103638587125046921e-02,-1.012886810149824781e-03,-3.498101130940435999e-03,7.438878283592460609e-03,2.859914898872375488e-01
3.358330543295708903e-01,3.675390626821531947e-01,3.024983245313278557e-02,-1.969508065194722907e-02,8.221778651231853932e-03,1.014739688349788373e-02,3.251931667327880859e-01
3.259961535321235226e-01,3.239570893406997776e-01,2.500206057883869182e-02,8.733630604838495300e-04,4.069940515892142563e-03,1.977436024212238935e-03,3.000859320163726807e-01
3.431198035981559702e-01,3.493629783529799138e-01,5.244680075609739478e-02,1.089483330877471026e-02,-2.986213063414640441e-03,5.328698802215315646e-03,2.946396470069885254e-01
1.586851110149541666e-01,3.550004070595528249e-01,-3.088689423749621521e-02,1.306341697855651907e-01,-9.016816409122408241e-03,3.051881569599502325e-03,4.039317071437835693e-01
3.252185229048086823e-01,3.256633071291124004e-01,6.857432954838954542e-03,2.400465918817747211e-03,-2.313020169547531230e-03,-2.818597386150568061e-03,3.186734318733215332e-01
4.010544876979290074e-01,1.892904122295435698e-01,-2.222019205638126049e-02,-4.259821682060873499e-03,-5.904052184768531115e-03,-3.268143671198611711e-02,3.711257874965667725e-01
4.097424356482678443e-01,4.682824055672034635e-01,4.831700842228892068e-02,-1.660815006970011234e-02,7.884716849772752112e-02,1.144040220748266182e-02,4.184302389621734619e-01
3.576754470199640101e-01,1.980641057255291826e-01,-8.539263999304186337e-03,-3.549183674171811631e-02,2.351181890644800463e-03,1.149762557734865590e-03,3.239390850067138672e-01
3.819099109513548473e-01,1.755202519009269602e-01,-1.182136104493058948e-02,-4.370883601531315096e-03,1.065455543717071024e-03,-2.558783298104982343e-03,3.412320315837860107e-01
3.699969788758701306e-01,2.131054394995147705e-01,-8.389079717847608419e-03,3.017425879469009132e-03,9.565059088216440984e-04,1.648949995473277842e-03,3.293381333351135254e-01
3.221042665567890317e-01,3.309521590771818955e-01,3.987661102581308015e-02,3.716199890942307343e-04,-6.873001121987779363e-03,5.375059461350151398e-03,2.871526777744293213e-01
3.279363018647177830e-01,3.314953435929436365e-01,6.683407694642160002e-02,8.918235816830883365e-04,-1.658441047203595281e-03,5.358139512314979112e-03,2.630837857723236084e-01
3.290643523509920731e-01,3.307597646578133155e-01,4.041928054463075903e-02,1.493558935569207690e-03,-2.544471169278239402e-03,5.208627356946172668e-03,2.896821200847625732e-01
3.349051125373894711e-01,3.486912601401200851e-01,5.719692644413307270e-02,-1.454337041104833764e-02,1.303519468537141322e-03,-8.730371936040494038e-03,2.863716185092926025e-01
1.595308835893183286e-01,3.851121252719969523e-01,-1.626379472417241456e-02,1.033191322864080164e-01,-7.789093946247969275e-03,-1.380512131704665982e-02,3.927148282527923584e-01
2.565651383304619615e-01,3.335834718667793908e-01,-7.378633397362027724e-03,-3.271425267989234997e-02,-3.073514530755834962e-03,-6.481397077637430192e-03,3.151058256626129150e-01
3.536195649211579806e-01,3.616020936038555900e-01,4.354419894124389456e-02,9.936741522787394774e-04,5.434195457164911133e-03,-5.406667412572075879e-03,3.144278824329376221e-01
3.294468661625278294e-01,3.300654470914378136e-01,2.080141624198972305e-02,-2.843385603396390935e-03,-3.297506872569223868e-03,-3.181986198187980713e-04,3.090477287769317627e-01
3.293979025703699937e-01,3.260682620997467640e-01,7.187042258051748456e-02,-4.433908157606521660e-04,5.085362027387207474e-04,-1.310798544284239595e-03,2.558916509151458740e-01
3.283276848280137772e-01,3.323584718782895409e-01,6.942097608286709742e-02,2.242053673058296091e-03,-3.167309944291862682e-03,-3.497253670027724790e-03,2.611022591590881348e-01
3.219349444241613734e-01,3.242292348599976615e-01,-3.339021424899601964e-02,-1.097484548807909624e-03,-7.844930795499476756e-06,-4.606514910661082597e-04,3.564838171005249023e-01
3.484269212850655828e-01,3.242626524214088923e-01,3.855623613583938902e-02,-1.610167923008396732e-03,8.366888553238546397e-03,-3.761350919385092906e-03,2.989585101604461670e-01
4.149821236524623425e-01,4.735123506933134330e-01,4.963557521670652894e-02,-5.052985191999417869e-02,7.794304000726175186e-02,1.166141705180393472e-02,4.296287000179290771e-01
3.284870790978936528e-01,3.275992691616733121e-01,1.064286177219961327e-02,-1.765189958402630169e-03,7.978065601331414680e-03,-3.412810318139277571e-03,3.177715837955474854e-01
3.180332494606705751e-01,3.252038726492006426e-01,6.582387795433761180e-02,-7.256840673711537808e-04,2.503350329783980829e-04,-2.436033230557572808e-03,2.559082806110382080e-01
3.147856935276224788e-01,2.732331177792040044e-01,-1.772401447301449884e-02,1.216000436180009747e-01,5.324699645741930859e-02,-3.165905590187291507e-02,3.928676843643188477e-01
3.298390402823544454e-01,3.504013894959261410e-01,5.240185304801311950e-02,-1.265810555487115185e-02,1.041054259032610750e-02,2.450021252123690992e-03,2.896943092346191406e-01
3.294487184815156899e-01,3.281492466815865150e-01,4.025984942734520122e-02,3.262518751638369117e-04,-2.750824841808184595e-03,4.959588423855237384e-03,2.887090444564819336e-01
3.209740545051099625e-01,3.279651322344090958e-01,5.185986441368500843e-02,-8.886051505071746424e-04,9.392977314278479380e-04,4.386536151553112849e-03,2.727919816970825195e-01
3.313882093340762003e-01,3.301703863860189214e-01,-1.075350191262611221e-02,-4.421177794619667901e-03,-9.135138290840255610e-07,4.477255507278976934e-03,3.417082726955413818e-01
3.292787093760016215e-01,3.259127423041778826e-01,5.053991584309022733e-02,1.486052095526242591e-03,4.489929005803314568e-03,4.975238950441470201e-03,2.773261368274688721e-01
3.227557066353347603e-01,3.298095565400670504e-01,5.911158695401100283e-02,1.822683095502819050e-03,-4.256328760178445343e-04,-4.917589571035915590e-03,2.673962414264678955e-01
3.415032012658218430e-01,3.303296629305182419e-01,6.619206129120550064e-02,5.728417483329786321e-03,4.858881819982660555e-03,4.075139756177595558e-03,2.703034579753875732e-01
2.529676078836342601e-01,3.860883772824673099e-01,-2.164790385718243226e-02,1.607722547976500951e-02,-2.236497814027097603e-02,4.382832112387096725e-03,3.633531033992767334e-01
3.212545813975052345e-01,3.185832635677023905e-01,-3.209391111471721070e-02,-6.385842519593524537e-04,2.788724598419924962e-03,-4.833308925638872978e-04,3.520562946796417236e-01
2.588751296872570107e-01,3.531798960223500039e-01,-8.803213979945989642e-03,1.018621331836475942e-02,-1.298985949507798325e-02,2.952675907269709972e-03,3.265456557273864746e-01
3.274837947849955633e-01,3.299158926924415369e-01,-2.509231372122902592e-02,3.502064638911611487e-05,-5.974608841045597925e-03,1.294641790224295959e-03,3.539568483829498291e-01
3.256435935388285463e-01,3.267136010393447698e-01,2.003049549365865101e-02,-2.507172719413257918e-03,5.958800631385626281e-03,4.924890271655085056e-03,3.064729273319244385e-01
3.262654824041730239e-01,3.303487932865932231e-01,-6.352379158162058115e-03,2.671174462478824018e-03,4.410669232674814186e-03,5.575299697370693884e-03,3.349365890026092529e-01
3.313478943533079701e-01,2.528291187034423237e-01,-8.769876191602105076e-03,-1.088046011766740651e-01,1.333498206858309623e-02,3.479015071094228306e-02,3.671777844429016113e-01
3.387141321826148688e-01,2.751112571054976086e-01,-2.704081353147641531e-02,-1.502845903268636846e-02,-4.507357395754850796e-03,7.098011507029027695e-04,3.395570218563079834e-01
3.226707686447893297e-01,3.361541604767209757e-01,-2.240163108810436232e-02,-1.702036876708885264e-03,-1.161452432101359872e-02,2.128423947295044003e-03,3.526137769222259521e-01
3.165118796155986236e-01,3.304386262032508181e-01,9.617206277425488503e-03,1.227954934685903179e-03,-1.487142872378554919e-03,1.370399307314997027e-03,3.141164183616638184e-01
3.251214016061924061e-01,3.297570715149799603e-01,-1.037783905824357644e-02,-1.403844391562188067e-03,3.338689453178498787e-03,-6.984223164018198669e-04,3.379013240337371826e-01
4.323168861639786753e-01,3.658006218960985767e-01,3.607172447607068233e-02,-7.937286242420425741e-02,-3.880298091460488569e-02,-7.376829727474959464e-02,4.181152284145355225e-01
3.447987342041288761e-01,3.018796822832963134e-01,-3.542142513943871696e-02,2.065425097753818481e-02,1.513626630183335237e-02,-2.063291819279404818e-02,3.651506304740905762e-01
4.015152615247646883e-01,1.159636021557250152e-01,-1.497919362495872542e-02,1.222726731476402907e-02,8.884852336602104203e-03,-6.132950305817859611e-03,3.699660599231719971e-01
4.880155475982580482e-01,3.660304347488282373e-01,4.466358842047690736e-02,7.992101367913690552e-03,2.408467253837293098e-02,-2.258203344729389078e-02,4.010245203971862793e-01
3.340960563575040565e-01,3.277633973581699500e-01,1.481934393775055647e-02,-1.918702889503018112e-03,1.128977357208102786e-02,-3.675558565905788153e-03,3.168435096740722656e-01
3.217538891279647650e-01,2.673093909542129665e-01,-2.302418578402878890e-02,-5.056002624788970973e-02,-1.889777772511154127e-02,-2.135692298567561792e-02,3.364127576351165771e-01
3.751294569197133333e-01,4.646784692589900345e-01,4.438308475364688421e-02,1.237168201467765682e-02,-2.310779275402185737e-02,-8.746642704026710846e-03,3.864204883575439453e-01
4.610132384611757006e-01,2.138324389634864986e-01,1.424813520705059400e-02,-1.019289775272114174e-01,-1.470227196349471223e-02,-6.000046602868864404e-02,4.391842782497406006e-01
4.894573760464633327e-01,4.639478515360396793e-01,5.436067420858470278e-02,5.491311081474629582e-03,2.411171175549537554e-02,-3.411805696895683915e-02,4.291706979274749756e-01
3.022884500301057931e-01,2.566199082240300799e-01,5.320286531360379767e-03,-9.606560886812214040e-02,-3.429422787131625877e-02,-4.824885576697684336e-02,3.389860689640045166e-01
3.833680413096980932e-01,3.680064387410246773e-01,2.186455126364286738e-02,-1.111938673431952518e-01,-4.204539303187066618e-02,-4.831035776717388514e-02,4.180488288402557373e-01
4.086795000054576632e-01,1.298530978429987548e-01,-9.038655334847334188e-02,7.675025459106304959e-02,1.717964257936629643e-02,-2.256077011374218316e-02,4.557877779006958008e-01
3.773003124855284218e-01,1.854036666618688323e-01,1.771150153363229562e-02,-5.113858214274933506e-02,-8.641679800516523929e-03,-7.149734534258608831e-02,3.471738100051879883e-01
3.267010599993551145e-01,3.273594958185330195e-01,-1.430165812016853666e-02,2.665590827038722029e-03,-3.030840021741574176e-03,-3.751639276142818002e-03,3.414658308029174805e-01
3.864558078678902442e-01,2.181381031016715322e-01,-2.224199206767810133e-02,-3.104465369306426414e-02,-2.629864420369601961e-03,-2.178535470444716710e-02,3.618142306804656982e-01
3.540410153011315231e-01,2.822211531761353864e-01,-2.291698453748444719e-02,8.871104938160609410e-03,-6.118901953891280575e-03,-1.918747146630489162e-02,3.487624526023864746e-01
4.140501126668208465e-01,4.718984392812355377e-01,4.837143606405058804e-02,-3.816798576494285361e-02,-5.847726148015738867e-02,-6.497092121157063693e-02,4.307134151458740234e-01
3.933816992998262485e-01,1.543048730700615767e-01,-1.475254409403489730e-02,1.247958581187905147e-02,1.404038843814289957e-02,-5.413851657247036042e-02,3.687918186187744141e-01
2.977695370667563513e-01,3.092461819270826417e-01,-1.793369669181260617e-02,-1.786810223709430975e-03,-1.207597784684787774e-03,-4.177031792963590943e-03,3.216982483863830566e-01
2.299185265683024171e-01,3.755569499443566217e-01,-1.731275473078466853e-02,1.196048863482738756e-01,-3.334239385736732092e-02,1.389338513387416117e-02,4.064116775989532471e-01
1.764848289304740414e-01,3.957945843586381796e-01,-8.590365932255872305e-03,-5.824602133713022156e-02,-6.985236623291903035e-02,-8.927077062081976988e-03,3.846990168094635010e-01
2.566864122934010561e-01,3.063543828557310778e-01,1.173891628041440205e-02,-1.091017523438321257e-01,-3.014899279778475091e-02,-4.130557505155553477e-02,3.437835574150085449e-01
3.493890070073811804e-01,2.664281446104211915e-01,-2.555305562250756446e-02,-1.695928862923365768e-02,-1.831521143266302484e-02,-3.323692064177545535e-02,3.486284613609313965e-01
4.643034796277958898e-01,1.602193230228621257e-01,-9.019308424405642066e-02,1.062298386238945402e-01,1.076574987209856157e-02,-2.670897655522800132e-02,5.173607468605041504e-01
3.042157057020822286e-01,4.529051203131738701e-01,3.277300404306268677e-02,8.586784796672843056e-02,8.961467961180150099e-02,-5.404534593855415958e-02,4.371787607669830322e-01
3.159367509667020957e-01,2.956287523051068233e-01,-1.582167605362910789e-02,-3.978131710002052145e-03,7.567418788944478558e-03,1.005096770391891367e-03,3.224298655986785889e-01
3.394692068379481786e-01,2.742249386032999392e-01,-2.327159846979068303e-02,-7.303747625852778647e-02,-1.641102822202679737e-02,-3.337958621438364554e-02,3.637649416923522949e-01
4.572291425487817751e-01,2.331886215628987680e-01,-2.990073212720317786e-02,8.560887623186572148e-02,3.677717416493217137e-03,-2.290464869751784177e-02,4.493928253650665283e-01
3.293900858675387067e-01,3.308620415055056885e-01,-2.483831419009949193e-02,8.804853022396173096e-04,-3.140043918159967674e-03,2.325271111875037891e-04,3.550118207931518555e-01
2.948916403959117583e-01,3.149028631279479074e-01,-2.352193318218653850e-02,-4.051811345909525630e-02,-3.046102031571028268e-02,-3.093777186362091369e-02,3.445862829685211182e-01
2.971774181612233390e-01,2.992430215962262885e-01,-9.701917829534389970e-03,-1.211252980894391871e-03,-3.539492262170949378e-05,2.393498627054448710e-04,3.079247772693634033e-01
3.102298868569215440e-01,2.907302056525481460e-01,-1.147159295406260937e-02,2.137890476362867831e-02,-3.346895607384044440e-03,3.727729963918418113e-03,3.147149085998535156e-01
3.223387435933518508e-01,3.255284488888170458e-01,3.739029596649898202e-02,2.682798492262413251e-03,-1.849954035507376344e-03,5.978052527531521262e-03,2.867991626262664795e-01
3.881887489748480635e-01,3.383115155513656269e-01,3.046877853025406480e-02,6.292600327912940480e-03,3.153366522406818653e-03,-1.919865124215861668e-02,3.374368250370025635e-01
3.469445933929732884e-01,3.468669756993705833e-01,8.275824067246217997e-02,-2.886988867380863369e-03,1.247953552147482506e-02,-8.909579266372457881e-03,2.655264437198638916e-01
2.994733694084038000e-01,2.965044769357048082e-01,-1.088610417392496532e-02,-1.161832357562094095e-03,4.143791937080146330e-05,-5.039599586717795517e-04,3.088935315608978271e-01
3.304657073283404634e-01,3.248648075355506926e-01,-6.732955792726397215e-03,-9.923152660944215778e-04,2.681755926936824682e-03,1.592621916138369604e-03,3.344814479351043701e-01
3.069495984057582505e-01,2.667435808387794705e-01,-1.506546219952686894e-02,-4.084078158841634998e-02,5.565127500950789972e-03,2.739039056227432403e-03,3.122220337390899658e-01
4.340542185162917788e-01,2.498016227630485697e-01,-1.023734639977569305e-02,1.271015938082085128e-01,-3.232833824356403513e-02,3.982579114716432167e-02,4.536961913108825684e-01
5.031565405199154295e-01,1.999501646617764250e-01,-2.308364052080896789e-02,5.798333232255008240e-02,-4.482264764579875667e-04,3.264469590251474485e-02,4.717915654182434082e-01
3.393195820567469490e-01,2.927432910562662860e-01,-2.887889419771078048e-02,-2.012512200080714304e-03,3.657038732467784818e-03,-1.261923549480081308e-03,3.473430573940277100e-01
3.099308045856139504e-01,3.128490337464573390e-01,-2.589694822009225295e-02,7.654591618140320700e-03,-6.723809620741645447e-03,6.641938097356855225e-03,3.379535079002380371e-01
3.270719521393666285e-01,3.290696262320230714e-01,-2.863938197463336555e-02,-1.178135679125487910e-03,-1.610228080795068559e-03,1.425700676747694790e-03,3.567396402359008789e-01
3.388592575659700179e-01,3.377106967236541690e-01,-2.298216737707095558e-02,1.435128388473736957e-02,-1.478801754160446839e-02,9.152474344655088176e-03,3.633733391761779785e-01
3.283170821607689360e-01,3.190223124734857807e-01,-2.992491671547170551e-02,2.446436704994989220e-04,-4.021985722810269594e-03,3.385326676811923913e-03,3.538036644458770752e-01
3.542301752288354866e-01,1.830331926587412117e-01,-7.879757344550461506e-02,1.214750374408137545e-01,-9.543458319604826434e-03,2.398942430444298696e-02,4.346914589405059814e-01
3.230094764856724643e-01,3.214849212214550001e-01,4.033829897234764150e-02,2.341529100773508641e-03,-3.777194400521767872e-03,-1.908079171298810665e-03,2.820364236831665039e-01
2.430769938119952678e-01,2.870098042722530884e-01,-1.719788528980459308e-02,8.856018011712930849e-02,1.611352921282296555e-02,-1.261989257117543915e-02,3.254122734069824219e-01
4.187065055858062435e-01,3.040331603854081188e-01,4.061047171789619603e-02,6.584333572686884573e-02,6.483381031503172853e-02,-5.603284008860895393e-02,3.844273686408996582e-01
3.145039256211724643e-01,2.963695403499002623e-01,-2.393573097612555767e-02,6.813750709171485787e-03,9.472481534565601463e-03,-7.139953062050468161e-03,3.305968344211578369e-01
3.044792822595238646e-01,3.000922511966309103e-01,-1.710300482034801672e-02,-5.122427786115919465e-03,-3.955897719130208393e-03,-8.706060500307910392e-04,3.196115791797637939e-01
2.922784139789418867e-01,2.996523732490655734e-01,-9.911345932040738216e-03,-6.622965321494202542e-03,1.079363574983242699e-04,5.487957215796389560e-04,3.061599135398864746e-01
3.352072168131117746e-01,2.433496701727748679e-01,1.559465448355973338e-02,-8.896749835126187278e-02,-5.174930511378173642e-02,-4.989860879654650638e-02,3.471028804779052734e-01
3.024840273259009615e-01,2.963795666811021023e-01,-1.013980178163534362e-02,-1.522728984426292322e-03,-1.825620161560498941e-03,-4.374133385535938995e-04,3.096450269222259521e-01
3.269596861739118010e-01,2.995254380353484236e-01,-2.748797454131049478e-02,4.705205220163982162e-03,5.564941853041722661e-03,2.728240424238292765e-04,3.417913317680358887e-01
2.716192700218510447e-01,3.968185807189451575e-01,2.195849481286704652e-02,2.799616788380893811e-02,1.988687765691059262e-02,3.894351553045772261e-03,3.359256684780120850e-01
4.996423195008292684e-01,1.642376767839027196e-01,-5.119919519178972589e-02,-6.620529444523294560e-02,-1.212391977196470953e-02,-1.363401890449033801e-02,4.952937364578247070e-01
3.082248804050790048e-01,2.725481894588869247e-01,-9.349445336047840227e-03,-1.194688556603003271e-02,-2.164352023762430421e-03,-3.853236631338655517e-04,3.020578622817993164e-01
3.089013637544901769e-01,2.933892005541609560e-01,-1.136484197258158524e-02,-2.821212418984186780e-03,-3.636655001151835060e-03,-2.779346467255887441e-03,3.129373490810394287e-01
2.268926193310263351e-01,3.651653230082813062e-01,-8.352490887246155626e-03,-8.726697184310461264e-03,2.056827129644641869e-04,-1.797824006494891814e-03,3.274536132812500000e-01
3.386046682861739154e-01,3.846277893743703657e-01,6.786896245775334013e-02,-7.017606097547663541e-03,6.942218714529102552e-02,-2.049498437348521232e-02,3.220904171466827393e-01
3.504174011802609900e-01,2.623962367501174175e-01,-2.560810191654422363e-02,4.930550900200061535e-04,3.459749224543508164e-03,-1.425653148836241411e-02,3.416007757186889648e-01
3.272851965903456617e-01,3.255227782482832399e-01,-3.162117300421221633e-02,-1.730294971437009235e-03,-1.931436530023106918e-03,2.214974011895804850e-03,3.580771386623382568e-01
3.294939394738273242e-01,3.280805623378436064e-01,-2.634379372091791294e-02,-4.643838397778840207e-04,5.929063676706171012e-05,-1.634059069319142212e-03,3.551453649997711182e-01
5.045797064802803877e-01,1.181544663510869370e-01,-1.005263676553720398e-01,-8.995292238567231813e-02,7.901501803366484458e-03,-1.295344572559208214e-02,5.537281036376953125e-01
3.795399680285208577e-01,2.758284549137979269e-01,1.372687151516585602e-02,-3.923191012401631983e-02,-6.137101248817634913e-02,-4.844313384406721129e-02,3.599904477596282959e-01
1.708575870114031059e-01,3.715136450446655525e-01,-1.225219228678478545e-02,-1.643469216281795431e-02,2.411155649069400119e-03,-1.406014337242286966e-03,3.337181508541107178e-01
2.313432841785357241e-01,3.813440787711444013e-01,-1.555413771579255977e-02,-7.734573985972455212e-02,2.673865724341559225e-02,6.370125828155414824e-03,3.751094341278076172e-01
2.272014984319289665e-01,3.604235977582793682e-01,-1.304646980984505711e-02,-2.751323031288388510e-03,1.043111345454426561e-02,1.749782465501895784e-03,3.283776342868804932e-01
1.689161421170863320e-01,3.761401117530664973e-01,-8.461069219662109564e-03,1.105264355042281758e-02,4.561151213670212000e-03,-2.802466781451800823e-03,3.340863883495330811e-01
3.260955949060649894e-01,3.247960376115535119e-01,8.842679228776323397e-03,2.136450667224067254e-04,-1.225423473201297760e-04,-2.136542764469430856e-03,3.166270554065704346e-01
2.677028862668495712e-01,4.145121300162407096e-01,-9.623703570273811625e-03,1.366440532294731780e-01,3.523906713336541485e-02,-1.428736465846020508e-02,4.466874301433563232e-01
2.751639607836599555e-01,3.267048908150609332e-01,-1.830068292912617745e-02,1.143607395777813604e-02,3.728554647199171235e-04,-6.299387419761365466e-03,3.231334388256072998e-01
2.169748169746901767e-01,3.503385911501089578e-01,-7.426905549523188377e-03,-1.933411014703116312e-02,-7.413351921518036131e-05,2.722200499776903596e-03,3.149805665016174316e-01
1.890597406260388635e-01,4.079989632912373043e-01,-1.273559079408320693e-02,-1.357899284297099662e-02,4.269936093922719646e-03,8.728742516613275651e-04,3.653037250041961670e-01
2.139721181201064137e-01,3.663864448747843339e-01,-7.596622182660356382e-03,1.005153590024287363e-02,-6.983129403747538252e-03,4.922815068920938925e-03,3.265197873115539551e-01
3.217755415335177283e-01,3.227202672749675538e-01,-3.490416193615861196e-02,1.541925292689461717e-05,2.335395054530250579e-04,1.773151421519536010e-03,3.571664392948150635e-01
3.205683078915078088e-01,3.091973120854673573e-01,-2.584334981391303576e-02,2.308501608077579738e-03,-7.053922485102662697e-03,4.134787322594720045e-03,3.411859273910522461e-01
2.138316116799825195e-01,3.733410691877387388e-01,-2.859362641096035995e-02,-3.051187729089174100e-02,4.725752953659842492e-02,6.069595000574713566e-03,3.639857769012451172e-01
3.419924197296641544e-01,3.400364700060102274e-01,-1.349462991302780024e-02,-3.014805955170078711e-02,1.338262617691065789e-02,1.311780341358284065e-02,3.598051965236663818e-01
2.413737929411482463e-01,5.066192828710163187e-01,1.743151007687834819e-02,2.769102321792725474e-02,9.841109909103513964e-02,-1.792651605371251705e-02,4.606774151325225830e-01
1.929811616701974930e-01,4.047021316489609610e-01,-2.612970937469660804e-02,-5.676265937130939299e-02,4.354884880757185078e-02,1.243956647534566820e-02,3.937580883502960205e-01
1.870593253734307571e-01,3.609977238812384082e-01,-1.393914039882934719e-02,-5.205855042029468305e-02,2.391177228321700668e-02,4.277225079322961344e-03,3.398776054382324219e-01
1.921344263031452004e-01,3.662106697267014654e-01,-1.403770359615094665e-02,-2.278757661646575380e-02,6.069271007936587366e-03,2.778077863142618467e-03,3.322508633136749268e-01
3.192131047587499770e-01,3.302806722907871695e-01,-3.198631824868197748e-02,8.001083568250809885e-05,3.010400648205749808e-03,-2.733645230847090834e-03,3.569314777851104736e-01
3.427096064683296528e-01,1.794194566287658221e-01,-2.452957860209495355e-02,1.357692082672431466e-01,7.405415658135579282e-03,4.920615424557107931e-03,3.963568508625030518e-01
4.126846429099131908e-01,4.679122993556051324e-01,4.324614464306292261e-02,-2.474040700902208068e-02,9.330573760925910121e-02,4.964499328793343241e-02,4.419119060039520264e-01
4.329052132440475154e-01,4.901974291235683956e-01,2.876468936531006992e-02,3.407877851652558500e-03,4.844711315666448692e-02,-4.252375382506481255e-02,4.497411251068115234e-01
3.197970215415292805e-01,3.140923664040204955e-01,-2.515580977597364765e-02,3.541814644280246458e-04,-4.470244940494047178e-03,2.251789778748487000e-04,3.422245383262634277e-01
3.036041894002486918e-01,4.726296498489489517e-01,2.192580388134596214e-02,-9.534472092113993949e-03,7.994369127644189443e-02,1.532523416611683217e-02,4.191341400146484375e-01
4.016717192201308961e-01,1.747465323888438282e-01,-5.737993836497284894e-03,3.874669871705244129e-02,2.189508978299348815e-03,-6.732403657741449499e-02,3.783411979675292969e-01
4.336272419251145926e-01,3.302363915462924737e-01,2.286864250555323275e-02,8.701725741220632526e-02,4.571358342676890008e-02,-6.781455360137239596e-02,4.239401519298553467e-01
2.465103962585803443e-01,2.800626069277628027e-01,-7.527715182284194784e-02,1.582664159736866805e-01,3.167123568351905283e-02,-4.477350226039031322e-02,4.468082785606384277e-01
3.251291665360516170e-01,3.272224549249313497e-01,-3.119782089913786249e-03,-2.082422131383076733e-03,1.441056117365444858e-03,-3.591237665938629055e-03,3.293885290622711182e-01
3.400877630375354066e-01,1.866283575847572651e-01,-3.107360534436720556e-02,1.128587374524695763e-01,-3.552837136183731922e-03,1.299664818274166682e-02,3.782964944839477539e-01
3.010923690534207386e-01,2.452549476866330846e-01,-3.387821536843507730e-02,6.128232634053669414e-02,2.873637475811978426e-02,-1.924089011924111012e-02,3.338768780231475830e-01
3.313383891139116688e-01,2.763442816140085356e-01,-9.162099917996685550e-03,9.754652373934338816e-02,-1.482386523572359026e-02,9.266625353446843530e-04,3.597877323627471924e-01
3.337946739598620094e-01,3.381249429929674699e-01,5.374783819348294411e-02,3.039792113716252488e-03,-1.965827015093199112e-02,-8.122563395053249190e-04,2.843355536460876465e-01
2.923972020957537055e-01,3.012705866288762913e-01,-7.680883633665008814e-03,2.572473283944679695e-02,-1.433247933249091194e-03,8.282360127712774063e-04,3.078665435314178467e-01
1.528334804752088938e-01,4.278910423482604752e-01,-2.201046660945488176e-02,4.375554648122537832e-02,-4.675662206017713179e-02,2.055869203896965383e-02,4.097430706024169922e-01
2.953651019074147177e-01,2.918428479097326389e-01,-1.489600452652203866e-02,1.847654668084775312e-02,5.698420794416497043e-03,-5.530417458952152469e-03,3.104752302169799805e-01
2.991691416706369622e-01,2.966800211949771615e-01,-9.829741775226635836e-03,1.317268346910609525e-03,5.037743298202159705e-05,-7.166078017261423073e-05,3.077703714370727539e-01
2.965804337289927317e-01,2.994411483219577286e-01,-1.112779640395331060e-02,1.347599626407182524e-03,3.709422818006943520e-04,-9.504344786961535453e-05,3.091580271720886230e-01
2.964641029382842352e-01,3.025725943150862074e-01,-1.071668595717642503e-02,1.721038731298854194e-03,3.420995874686416096e-04,-1.856430696815925983e-03,3.103116750717163086e-01
5.017625303141223236e-01,4.041365383771529096e-01,5.587118799331103336e-02,1.565160872935554212e-02,-1.211951790770151357e-03,-9.174067354798309815e-02,4.368154406547546387e-01
2.768667264139342277e-01,3.149853407744840350e-01,-1.829981445310499555e-02,-9.866684131976777294e-03,7.874504095431682574e-03,1.036739849201881621e-02,3.172194659709930420e-01
3.246342061657012112e-01,3.024074006773663781e-01,-2.571022169003900348e-02,-2.074403917804712276e-03,-6.235330580865684411e-03,-2.979063228648972696e-04,3.399676680564880371e-01
2.630222528218832401e-01,3.381149640825643621e-01,-2.759813100854668910e-02,-8.012793097449132096e-02,-3.092682705101898119e-02,-2.288845618538254759e-02,3.682731389999389648e-01
3.281916944223708943e-01,3.224382880146871022e-01,-3.240629935450592414e-02,-2.051147097929085865e-04,-6.343575824084704074e-04,1.767515183857447868e-05,3.577578663825988770e-01
3.290451193809231789e-01,3.247559900842917902e-01,-3.244906839681382937e-02,-1.744564778012569831e-03,-9.112903099655075910e-05,-6.541571983285332211e-04,3.593833446502685547e-01
3.304877272470465588e-01,3.192647904670079528e-01,-3.325641783385144268e-02,8.775753440999059171e-04,-3.083170712204043665e-03,3.694504507196638785e-03,3.583647012710571289e-01
3.304003140665948690e-01,3.251963803612997195e-01,-2.950347518795057300e-02,-1.700809714659848565e-04,-2.336547375638064669e-04,-1.195373876913951401e-03,3.573365807533264160e-01
3.453451011328968479e-01,3.189265368757047137e-01,-5.574840553103199703e-03,-1.361572106555374896e-03,4.488117008521767186e-04,-2.737307033921032129e-04,3.384942114353179932e-01
3.180456718015185480e-01,3.299163219077979048e-01,-3.027820582329390775e-02,6.005830791730345760e-05,2.539096678147258201e-03,-1.792778439114589822e-03,3.544492423534393311e-01
3.105614062123686625e-01,3.699267643473795886e-01,-1.981417412130703770e-02,-1.446432247498441459e-01,-2.110687616993367488e-02,-2.645428576863379996e-02,4.455178081989288330e-01
2.909736490614565074e-01,3.779944228268032891e-01,-6.246418512786094945e-03,1.710373451091032337e-02,1.696606439915346364e-03,-4.522718390998272178e-03,3.503203094005584717e-01
2.670338123558442245e-01,4.906923696886351660e-01,1.568711292736257867e-02,-4.836337806665179373e-02,-6.076262728099302013e-02,-5.303827261957249836e-03,4.331187903881072998e-01
1.920386148849295704e-01,4.401758742938341462e-01,-1.068396493284065607e-01,-1.487461063178957266e-01,-1.501499046218515709e-02,-1.793220022526577058e-03,5.404862165451049805e-01
2.258483079903674806e-01,3.662833423047567871e-01,-1.854925044534161405e-02,5.974795250270888147e-02,-1.772371355386060526e-02,9.986790726555385897e-03,3.545774817466735840e-01
3.139098342452466550e-01,3.142389096865713105e-01,-3.057217739086071084e-02,-5.997676204861505760e-03,-2.631910159381031702e-03,-3.607582136534510497e-03,3.448899388313293457e-01
3.293812628636571538e-01,3.303815427041736363e-01,-2.423746938068782608e-02,1.188433521770292578e-03,-3.252279425017831540e-03,-4.821646297148385286e-04,3.541716933250427246e-01
2.930973033918283233e-01,3.154616983115311468e-01,-2.637208295610699027e-02,8.450052104625210836e-02,-1.277376983213312535e-02,1.251617222905221719e-02,3.634364902973175049e-01
3.530785523432496964e-01,3.571868257496830790e-01,2.567984181312182868e-02,-8.148961306618717967e-03,-2.035669331830654467e-03,-2.851926750795498455e-02,3.334719240665435791e-01
2.960921739256159313e-01,3.357483666694244806e-01,-1.137132938785659353e-02,-2.139725186174549695e-02,-6.317456523422793763e-03,-9.997973320198430547e-03,3.318017423152923584e-01
2.323213894190985229e-01,3.049681370566973415e-01,-1.062821606891966586e-01,1.519702232158884336e-01,-5.653140173119944670e-03,2.924860053033640286e-02,4.652692973613739014e-01
3.299027088238970506e-01,2.773557673976394522e-01,-3.351897014121060780e-02,5.689051367226198586e-02,-1.850271557141740936e-02,1.623596388625851705e-02,3.567453622817993164e-01
1.956880663229785544e-01,4.050630940416289905e-01,-1.293693603296169892e-02,-4.333137215825023231e-02,3.108968372724400797e-02,7.880476872366285954e-03,3.738475441932678223e-01
2.865105221896363519e-01,2.488809339103696394e-01,-1.870010911913747020e-02,1.468141114264939484e-01,-4.631931966031553605e-02,3.420276667859314945e-02,3.971065878868103027e-01
2.222808307963233254e-01,3.521593645869727229e-01,-9.091334383424881649e-03,-1.785710872110485986e-02,3.885737988014802786e-04,2.968925886396226680e-03,3.184891045093536377e-01
3.269681057065222940e-01,3.299623964734469395e-01,-2.639721424636617964e-02,-5.586115259561874385e-04,-2.232977570929148281e-03,-9.819167205593379408e-05,3.548943698406219482e-01
2.509738387911398250e-01,2.347538856349758452e-01,-8.469718374450208032e-03,1.513244711671989373e-01,-4.776299968074056157e-03,5.049046892050912047e-03,3.636043071746826172e-01
3.251466492485702853e-01,3.303212848177085603e-01,-2.442739879811861581e-02,-1.568194123148384470e-03,-2.161731631542362312e-03,-5.358385913979098799e-04,3.522214889526367188e-01
2.677287440074263003e-01,3.608848049738706543e-01,-3.270599691756104210e-02,3.799840793389667841e-03,-1.858719105071579558e-02,2.634895276199054458e-04,3.577798008918762207e-01
2.563633375583153073e-01,3.339152330325461104e-01,-7.865645334845350334e-03,3.292350106668935628e-02,-1.043579931773335563e-03,1.489425455032669264e-03,3.155701160430908203e-01
2.675599934465672791e-01,3.418064118076878932e-01,-2.553042510415187705e-02,2.883242854243844334e-03,5.933949300615308682e-03,-1.060883450920045365e-02,3.371107578277587891e-01
3.271123224623972980e-01,3.219710562242722451e-01,-3.511763949661164674e-02,-2.295656869669065797e-04,-1.554183926210794256e-03,-2.740152156565040052e-04,3.596974909305572510e-01
2.934365376708689688e-01,3.178050118603314433e-01,-2.550148870971144510e-02,2.506525980704407686e-02,-1.269307262813475223e-02,1.265685230568081888e-02,3.360596001148223877e-01
3.718373109812271871e-01,1.658053593650778146e-01,-1.343388827887689874e-02,-3.052489229028256673e-02,7.053300402289601999e-03,2.344487811153808665e-02,3.407321870326995850e-01
3.575848822264216520e-01,2.388232703102015353e-01,-2.059487989518848927e-02,-4.942651026714003915e-02,7.748819842283500431e-03,1.349832639652057652e-02,3.467949032783508301e-01
3.010093659831936108e-01,3.319819923616088575e-01,-2.347139808120918270e-02,-1.171768282142116036e-02,5.853314685485329176e-03,9.836231805704897732e-03,3.422017693519592285e-01
2.200428168460528133e-01,3.374113898138876300e-01,1.239476858089491595e-02,-8.720711764927099874e-02,-4.012804893517742111e-02,-1.304097157596195884e-02,3.307879567146301270e-01
1.007958098833117849e-01,4.933416966362671463e-01,-1.256660051648655352e-01,-7.481769904940593907e-02,-8.343584717806493741e-04,5.278991628664585038e-03,5.578105449676513672e-01
3.599358150178569304e-01,2.117941939131744722e-01,-1.312164655588130002e-02,-2.860268530788276364e-02,2.086192319136657373e-03,7.875966795552823141e-03,3.294024467468261719e-01
3.278434538120794106e-01,2.522780836533008442e-01,-1.164540215119191924e-02,-5.246040915621881517e-02,1.930906552457484562e-02,3.326164832657025477e-02,3.286381363868713379e-01
2.658456902443034342e-01,3.473629897974810365e-01,-2.450159412668515002e-02,2.907373752612661417e-03,9.974455110624315390e-03,-3.614894140678263316e-03,3.390840291976928711e-01
2.684003965979360196e-01,3.468626748525428516e-01,-2.757169779402901533e-02,-9.925649217162248183e-03,-1.727218835825206772e-02,-3.887464994756982713e-03,3.438231050968170166e-01
3.625710355852604372e-01,2.320338412296998887e-01,-9.685592353320143788e-03,-9.404174612776013478e-03,8.911084533823577028e-03,1.151758194634868240e-02,3.285165429115295410e-01
1.179401519956127797e-01,3.797684224757031934e-01,-2.392937024459135253e-02,-5.941986808070828796e-02,5.332659891906350001e-04,6.504894699307552618e-03,3.695218563079833984e-01
3.533005686934936329e-01,2.308758532781273187e-01,-1.261214848236472119e-02,-1.426421299825771094e-02,4.082920505556794644e-03,9.075017863403839202e-03,3.240225911140441895e-01
3.018393029534131022e-01,3.081357924891136579e-01,-1.661111441471133099e-02,-2.645076693418814233e-03,5.682326545922234198e-04,3.394315696363089442e-04,3.216795623302459717e-01
3.173948286301706556e-01,3.204023177386028376e-01,-3.194395487015502799e-02,1.205732106683212335e-03,3.777269126776590835e-04,2.339072326466035828e-03,3.508824110031127930e-01
3.091201980961598705e-01,2.904586152832178692e-01,-1.342752877479480578e-02,3.521902032214200423e-03,4.439711774406878732e-03,-3.804526729525119482e-03,3.138563632965087891e-01
1.711913427509070273e-01,4.816238879521523297e-01,-2.407592977064254569e-02,-5.224342119918420901e-02,4.894978126152631226e-02,-3.479810467464508790e-03,4.588329493999481201e-01
2.983985452095189173e-01,3.359987304541173225e-01,-2.679888406342703644e-02,3.421999602716952089e-03,-9.048431047142207681e-03,2.646458910060520728e-04,3.459416031837463379e-01
1.154051344719939504e-01,3.964785180752273819e-01,-3.201984226361845320e-02,-4.352096600221815048e-02,1.326804235577982473e-02,1.030321669064071348e-02,3.856195211410522461e-01
3.123386381254513178e-01,3.289030779903465151e-01,-3.153245951396088653e-02,3.253615780757447909e-03,-1.301410610697452755e-04,4.067164780059622647e-03,3.525608777999877930e-01
2.974490894494883353e-01,4.710104606330296484e-01,3.378143674745989755e-02,6.472332365176275415e-02,7.105229713199250063e-02,-4.605986666913031158e-02,4.236553311347961426e-01
2.490180478250641760e-01,3.845882737160303266e-01,1.985610809617810446e-02,-2.650312022214782598e-02,4.930841357502060290e-02,6.324984297495723877e-03,3.338910639286041260e-01
3.104298721223044955e-01,3.353482067103359943e-01,-2.835415733338270128e-02,7.371126503005722558e-03,4.596972652051602333e-03,-7.883456799302244675e-03,3.524915874004364014e-01
3.247313135816275453e-01,3.217640112873944025e-01,-3.204147114991331979e-02,-1.316513678123051043e-03,3.439216352291097050e-03,2.746954306267687228e-03,3.553875386714935303e-01
3.164396124656860820e-01,3.226978511817619188e-01,-2.943655294605049266e-02,-1.197575552029115503e-02,8.578081569402091003e-03,5.162409182566114751e-03,3.500928878784179688e-01
3.243376408863606897e-01,3.559202933026017757e-01,3.026554453331023464e-02,3.662733145178942266e-03,-9.144276961950829116e-04,1.138683912085197703e-02,3.117614090442657471e-01
3.409862353990301687e-01,3.674440294150374542e-01,-4.961339937531672462e-03,-1.520954167094797083e-01,2.378464352674558580e-02,2.548720988204947538e-02,4.500863552093505859e-01
3.489760886571444676e-01,3.593091234216629903e-01,8.189636956423260172e-02,2.817106984898479823e-03,1.024155317554740346e-02,-1.098974133051031435e-02,2.736766040325164795e-01
3.179443232335992242e-01,3.198231656306025905e-01,-3.203901862772526310e-02,-7.373142882453041259e-04,-3.350095360299567941e-04,2.811345646136211626e-03,3.509631156921386719e-01
3.425434916146922748e-01,1.567812624665707588e-01,-6.270422223974864151e-03,1.220779273872868720e-01,-6.606830001929123695e-03,3.770723152067707168e-02,3.748170435428619385e-01
2.104603699399909267e-01,3.634134580766175127e-01,3.850748818511329219e-03,-5.906292623390650698e-02,3.119780672980453778e-02,2.428793969088239788e-02,3.359146714210510254e-01
4.368537815979284256e-01,3.447171860917374042e-01,5.657784893769518542e-02,2.933891626857995649e-02,-2.463641020779997609e-02,-2.980514766705988014e-02,3.537369370460510254e-01
3.154961637582092138e-01,3.157179557828766470e-01,-2.841684570332367321e-02,3.389421136806620061e-04,-1.355759556048416080e-03,2.218200920509998987e-03,3.440539240837097168e-01
2.015748287650506176e-01,4.731917017341574772e-01,-2.315936652972738763e-02,8.978753776000636400e-02,3.844218754591818832e-02,-2.752086341119464735e-02,4.649879336357116699e-01
2.044314844588732694e-01,3.107149949672374234e-01,-2.555866971034131963e-02,1.526339768994286750e-01,-8.872739676153067277e-04,-1.389709891797271703e-03,3.981649875640869141e-01
3.414526403608501570e-01,3.287108624640164845e-01,2.710582743960382457e-02,-1.899704497597993081e-04,1.679238787948852951e-02,-1.915148153494795197e-03,3.095609843730926514e-01
3.199245799378527266e-01,3.286318780095280334e-01,6.246090249126387550e-02,-1.811008227928717369e-03,-1.713471312896728107e-03,3.419612170654012448e-04,2.619621455669403076e-01
3.134169342580033213e-01,3.538402651511345365e-01,4.322513781502612673e-02,-3.534391356746217211e-02,-2.034222662532527218e-02,-2.579900286631293255e-02,3.042128682136535645e-01
3.309647776868869795e-01,3.026821266041725411e-01,-2.288883614268477640e-02,1.046331547617946299e-02,8.916298969393034179e-03,-4.533682744430269848e-03,3.415157198905944824e-01
9.229086318312215709e-02,4.845906511474679657e-01,-1.191723433208036198e-01,-1.024496463472835406e-01,-1.103841045713128965e-02,1.107489086717098649e-02,5.601732730865478516e-01
3.399448547756324657e-01,3.056025847578533461e-01,-1.250112885923237993e-02,-9.572700752853964892e-04,5.058562858964061291e-03,-9.771375284952848322e-03,3.371345698833465576e-01
4.552714750234452268e-01,2.945486516941790422e-01,3.822456814590699525e-02,2.947288543441213549e-02,2.373654293849961506e-03,-2.970999905720595607e-02,3.714860677719116211e-01
3.173773821815520924e-01,3.364840764706823473e-01,-3.607701624418757635e-03,-2.477953309354380407e-03,6.414298433315709187e-04,-2.806246979659711514e-03,3.310177326202392578e-01
3.420454148513003001e-01,2.504732964569068021e-01,-1.352221295359992692e-02,-5.205963847696375851e-03,-9.081574137559394674e-03,-1.093584512651807512e-02,3.208445310592651367e-01
3.274753506754767285e-01,3.221397760083460904e-01,-2.958532567040100814e-02,-6.181214892045780375e-05,4.872249132708715048e-03,-5.216569840482025017e-03,3.546386063098907471e-01
2.936621864114126179e-01,3.213024613727871182e-01,-2.390357974234633143e-02,4.147425205485354149e-03,6.730258905764666642e-03,-9.370631284412515166e-03,3.329271972179412842e-01
2.884565344014842214e-01,3.387161853108684451e-01,-2.892677525854864262e-02,7.445307558661122538e-03,-7.651038227593752634e-03,4.585670861233012013e-03,3.458536863327026367e-01
3.036524686792640426e-01,3.043253599117444197e-01,-1.970995399931382841e-02,5.281821633553063222e-03,3.987761458603901639e-03,-2.827172830916936143e-03,3.239392936229705811e-01
3.002361536283318921e-01,3.047280897163512914e-01,-1.658241425064652108e-02,2.468099648642484850e-03,5.317709298671782509e-04,-3.327969493768200438e-03,3.191702663898468018e-01
3.546866329545725893e-01,2.265127687361720155e-01,-8.563122754753682564e-03,3.828959563666967103e-02,1.207570342642484739e-03,-4.608842918135891246e-03,3.260156214237213135e-01
4.706517137889785762e-01,1.645224972153358223e-01,-9.631149137472666544e-02,1.304279139046667924e-01,6.632368265446839453e-03,-2.057136597419872287e-02,5.422492027282714844e-01
3.257441999934836963e-01,3.267636665533659723e-01,-1.581428392138845007e-03,-2.562723418693836370e-03,-5.444374160176264701e-03,-2.808571182092751192e-03,3.280382454395294189e-01
3.269693088569093908e-01,3.267713339249178062e-01,-1.527323238909028547e-04,-1.395436089542277354e-03,3.943595185193974131e-03,-2.078599431262287585e-03,3.271231651306152344e-01
3.604061475756587529e-01,3.694844693001719804e-01,1.234231710717267894e-02,1.354064496905701132e-01,4.932657246951420438e-02,-5.651054507177945274e-02,4.430294036865234375e-01
3.255637881906503495e-01,3.223382788121305076e-01,-3.445285828442792853e-02,1.649315051241470424e-04,7.702853352661736576e-04,3.029042453770417094e-04,3.584177494049072266e-01
4.401239350757805147e-01,4.475506077421721463e-01,5.423049000055163438e-02,6.503191128609751848e-02,5.442039429040548826e-02,-8.196096062342539401e-02,4.399543106555938721e-01
3.424857209955567416e-01,3.257527792459204430e-01,-2.847340604873113690e-02,2.216306203138648941e-04,-3.132412551476235880e-04,-3.948006857340963520e-04,3.628833591938018799e-01
3.285269664507560750e-01,2.890544039222381900e-01,-2.366675372396537247e-02,3.765914999666484554e-03,8.422924197436227126e-03,-6.077566861221288252e-03,3.347576856613159180e-01
3.263802348324477132e-01,3.055592010234239320e-01,-3.639181162236865275e-02,3.885510286468239066e-02,-2.060953884358858457e-02,2.200806734211965127e-02,3.629604279994964600e-01
3.236532208499443009e-01,3.286016887779573126e-01,4.220008088634541465e-04,6.203580079798180855e-04,6.507595872899541844e-04,4.319221468126219904e-03,3.258232772350311279e-01
5.122474527827678425e-01,9.148424912962929700e-02,-1.102801004552174113e-01,-8.388140336399538266e-02,8.683053513470642346e-03,6.133743798003303722e-03,5.692915320396423340e-01
3.284032838085820805e-01,2.865575486894963997e-01,-2.245125123479338458e-02,1.452946401416476546e-02,-9.581629855036731883e-03,6.849257684149467201e-03,3.334931433200836182e-01
3.349040444493300850e-01,3.185314666303253883e-01,-3.185163527073239798e-02,2.704336593700956779e-04,7.472824974539566539e-04,3.601805093267108470e-03,3.589064776897430420e-01
4.905812631000230351e-01,4.652002014872247404e-01,3.190765944304790880e-02,8.741278922932966058e-03,1.522018036498214502e-02,-2.735433783463779318e-03,4.475831687450408936e-01
3.284428301110607906e-01,3.276986818946628355e-01,3.917282977455338600e-02,7.116844990402042053e-04,-8.109009091705508127e-03,-6.027516297329355704e-03,2.894308269023895264e-01
3.268632357364946728e-01,3.291164836148888773e-01,-1.849430556657566393e-03,-3.184473963605697136e-03,-2.944749335075517657e-03,-5.976202927243668903e-03,3.300929367542266846e-01
4.733359700705123130e-01,3.415625213027748130e-01,5.755114634710806198e-02,2.843523493507230104e-02,1.676409612866209056e-02,4.785526306134762348e-02,3.815639317035675049e-01
3.287683878123960346e-01,3.333057863941847887e-01,2.441638920191921414e-02,-1.489459685228449121e-03,5.209590546828845063e-04,-1.708734650155491240e-03,3.066723346710205078e-01
3.611550338747588906e-01,3.348111739625740380e-01,2.989634677258193318e-02,1.191898086369650410e-02,-2.526971135402918730e-03,-1.846411714654909789e-02,3.211974501609802246e-01
3.150276994328597979e-01,4.919810634734186339e-01,5.845146752079907748e-02,-2.936621464925249364e-02,-5.578761261725310311e-02,-4.710990308039206959e-02,4.014072716236114502e-01
4.669946358927206109e-01,2.991530992455135318e-01,3.907073980924216650e-02,4.348677845944555476e-02,-1.265428409789401756e-02,4.097283246403343737e-02,3.881446123123168945e-01
3.278750382089032911e-01,3.278211504973795876e-01,-9.014570271996619200e-03,-3.179039355125164341e-04,-1.274007666435171332e-03,5.153939377592288776e-03,3.369885981082916260e-01
3.272609360280827606e-01,3.265831468312043184e-01,1.826702437814975433e-02,1.614939172954477260e-03,-3.073398329980279401e-03,-5.979784575263605989e-03,3.088878393173217773e-01
3.510114894506225491e-01,4.726325914660381988e-01,3.748397594917529663e-02,2.604858560924465383e-02,-4.827611416887943319e-02,2.284640443052639650e-02,4.022635519504547119e-01
3.479216640359273915e-01,3.499697457552428670e-01,3.117427652915186198e-02,4.198881087185894756e-02,-9.529983885498596874e-03,3.441646172124773057e-02,3.318085968494415283e-01
3.040417298058931128e-01,3.302806050464667798e-01,-3.068551629705501549e-02,2.384576079558753912e-03,-6.149958742640940570e-03,6.018094016981010222e-03,3.489310145378112793e-01
3.717454457754074681e-01,3.134927915759255779e-01,3.377407598002793443e-02,1.497468967565410494e-02,-2.694628955302317067e-02,2.847550207860677016e-02,3.212691843509674072e-01
3.259309294876979735e-01,3.784970320148697276e-01,2.641388526840870998e-02,-8.859622785562565328e-02,-5.640854492633393807e-02,-2.591696435851750802e-02,3.785852789878845215e-01
3.260948671489958262e-01,3.262302791893018639e-01,6.948921097662541513e-03,3.153142538070508993e-03,-2.105020431632966330e-03,-2.680716918869706540e-03,3.193149566650390625e-01
3.188937419916921812e-01,3.043788841646305476e-01,-2.564433909308169723e-02,-1.445292959264892060e-03,-6.020890764891977109e-03,-2.922059994214993065e-04,3.376855552196502686e-01
3.124007427242038171e-01,3.034385107219965683e-01,-2.744163296603183144e-02,-1.373733422143542590e-02,-8.310443106321872136e-03,-6.599923640114143709e-03,3.367958366870880127e-01
3.317488133601123601e-01,3.299127138833977124e-01,2.500480883665306964e-03,3.785444167472611088e-03,1.062596251002128830e-02,4.680778172744333616e-03,3.290148377418518066e-01
3.273177353287501923e-01,2.891108283612909280e-01,-2.482981054408808785e-02,-4.162465241876923613e-03,-8.462596090992844516e-03,-6.076982409347706643e-03,3.352473676204681396e-01
3.246663998848784427e-01,3.205959450704204405e-01,4.553705796698526154e-02,-2.793551925222254734e-03,7.843965368130815380e-03,1.032947284544399316e-03,2.774973213672637939e-01
3.158261653786400558e-01,3.116159117961976865e-01,-2.518652768399912145e-02,2.086150230610267584e-03,7.895229254090374528e-05,8.927113766271328266e-04,3.389500081539154053e-01
3.252246048243606635e-01,3.251407551494820414e-01,-3.125248759962032108e-02,-6.613591143546378170e-03,-9.575408197519173423e-03,-1.111329698601131594e-02,3.575232028961181641e-01
3.270308039271273004e-01,3.239903675773683767e-01,1.332418812681901432e-02,-5.610453654827894654e-04,5.252483276552213053e-03,7.261869416978374145e-04,3.123340606689453125e-01
3.497084634147910043e-01,3.263802880074359591e-01,-3.092551121553205329e-02,5.172906355175139852e-03,2.783858577680365948e-03,-1.226713775730424276e-02,3.702727556228637695e-01
3.917802175640659468e-01,2.931896665121561663e-01,-2.186069041546795377e-02,-1.406891648448423127e-01,-2.143569775826037471e-02,-3.456907806272535577e-02,4.520859122276306152e-01
3.284767348643134466e-01,3.859358998821634801e-01,7.111231797871375715e-04,-2.925892798486563143e-03,-9.570760121948169649e-03,1.266144805153226072e-03,3.603751957416534424e-01
3.297422996651172555e-01,3.238703353851337674e-01,-2.850433415714170859e-02,-3.747964414539990013e-04,5.344424286667382720e-04,2.280155160208737137e-04,3.553490638732910156e-01
2.604376215643906534e-01,3.329760402196850766e-01,-2.879310309193980344e-02,7.073693233599563646e-02,-2.942497672835628700e-02,2.615510722246047054e-02,3.599409162998199463e-01
3.271333410526322538e-01,3.300602935285490425e-01,1.090124485157137335e-02,-2.659206764450122457e-03,7.275810764817138183e-03,-1.531481484046951511e-03,3.179999589920043945e-01
3.266301521859991119e-01,3.308419599168628822e-01,3.274637046715947464e-02,5.296030564670011235e-04,4.301344134455427175e-03,3.670162122480239634e-04,2.961080074310302734e-01
3.271925151656500663e-01,3.244071034232762218e-01,2.377123109397774603e-02,1.689280898373789024e-03,-5.877203466315189702e-03,4.223575567441869780e-03,3.023124039173126221e-01
3.466827252838708406e-01,2.524037265103549754e-01,-1.885191244226364082e-02,1.619912140474231294e-02,3.303020162172976264e-03,-6.823726611535590840e-04,3.299442827701568604e-01
3.377262312146503964e-01,3.003714340234744928e-01,-3.239277616929131520e-02,-5.407699237924596877e-03,-1.727549973392428825e-03,-7.560690157085066428e-03,3.533070981502532959e-01
2.423025480236597473e-01,3.858741112100108062e-01,-3.907342238687852576e-02,3.443177961532406170e-03,-1.898807818320556381e-02,7.636216888650034992e-03,3.761315643787384033e-01
3.444907771516863004e-01,3.327209844207947298e-01,5.743512205272879867e-02,1.553136586451873274e-02,1.706622077306710816e-03,2.813446949691617276e-03,2.826960384845733643e-01
2.771241336434022151e-01,4.121050132630074136e-01,-3.596414221867011429e-02,-1.550956709086722118e-01,-2.585978608008724505e-02,-3.264303724090475423e-02,4.856664836406707764e-01
4.376170156491334673e-01,4.518614692005105127e-01,5.115421931035457614e-02,-4.355543333769074793e-02,-5.121378567260333192e-02,-6.488268765446221498e-02,4.257351458072662354e-01
1.987360896240058794e-01,3.407704748415441021e-01,-2.458101116526495433e-02,-9.238692527386663245e-02,-4.502804657772865177e-02,-4.271607184298730625e-02,3.727272450923919678e-01
3.198355239091621449e-01,3.292515439426825785e-01,5.753412098055446511e-02,3.743039641465424269e-03,-5.518448766654286295e-04,-3.009011826279894028e-04,2.672147750854492188e-01
2.821514115116849353e-01,3.444709576405980966e-01,-2.465629572009317427e-02,-2.694363815407371216e-05,-5.130819198282996797e-03,-2.104922948912710517e-03,3.423843979835510254e-01
3.198062069774228466e-01,3.340029266973272848e-01,-3.209512132606912038e-02,-3.237475200226264463e-03,-1.152034261225621734e-02,-9.890175467660704614e-03,3.602151870727539062e-01
3.269873276150402908e-01,3.286333473341056521e-01,3.244410346844225912e-02,1.385699332435653876e-03,5.450483988379611552e-03,-9.657451100978141703e-04,2.955349683761596680e-01
1.731639199597149736e-01,4.470864669052909690e-01,-8.245681311123043145e-02,-1.192972246828728766e-01,-2.230205337515703615e-02,-4.675469831194861876e-03,5.046275854110717773e-01
3.329158400997835887e-01,3.290151290867633360e-01,2.986828592979429153e-02,-1.620906361217103620e-03,1.034122931218310268e-02,-2.408366248670527638e-04,3.016617596149444580e-01
3.481465387999569394e-01,2.202150806494637125e-01,-1.515383947228113315e-02,9.005927685314853159e-02,-7.998686095694122408e-03,6.624839699584873093e-03,3.557129502296447754e-01
3.223027930508129968e-01,2.419000438545127474e-01,-1.799544634633121198e-02,1.335245020850427400e-01,3.573236208619117588e-02,-1.255026176644066446e-02,3.907632231712341309e-01
3.223024690908976586e-01,2.817333556228258096e-01,-1.350095309491897155e-02,9.791257043229391333e-02,5.282001388403304888e-03,-1.115092090891420078e-02,3.605605065822601318e-01
4.208960675808489649e-01,4.781152291602510651e-01,5.032986683647078241e-02,-3.953028172373141726e-03,-5.268544621866617927e-02,2.440068563834409815e-03,4.125395119190216064e-01
3.756463274245163131e-01,2.519565650675653079e-01,-4.366779152096494920e-02,6.014543234908195646e-02,8.628155296119075640e-03,-2.147835237422811641e-02,3.895103931427001953e-01
2.982902348227227662e-01,4.486472338268580606e-01,4.556525844999859132e-02,5.446440655561494981e-02,4.335303093478610342e-02,-8.178175596622182242e-02,3.988463878631591797e-01
3.200746843691045229e-01,3.237895971554763386e-01,-2.794711934339438875e-02,1.510936688947148512e-02,1.179618378168402655e-02,-1.263337394440772893e-02,3.521462380886077881e-01
3.407690321135723455e-01,2.890586169151102558e-01,-2.446336760600906213e-02,4.284732882733071485e-02,1.014070116177533294e-02,-1.356825649749839914e-02,3.514979779720306396e-01
3.259047354373650340e-01,3.266776008540404064e-01,2.752458937475726897e-02,2.137530741674801768e-03,5.806489184761073376e-03,2.198184590434694029e-04,2.989597320556640625e-01
3.234912693001531503e-01,3.247979501739063912e-01,5.010447020620611980e-02,-1.519139430067820032e-04,6.135623616463183223e-03,4.055572000666260793e-03,2.743385434150695801e-01
3.484521078906102076e-01,1.939549551355503609e-01,-9.796433599421344729e-02,1.531912121689936179e-01,9.291549221294546565e-03,1.413630115574252694e-02,4.748137295246124268e-01
3.158808999831849151e-01,2.353561215001919726e-01,-5.386280608673252313e-02,1.964408205625711723e-01,2.531747012958330580e-03,-9.111091161141527187e-03,4.790160357952117920e-01
4.499458302199448867e-01,4.960337115023789600e-01,6.166707814967836709e-02,1.395399491063846822e-02,4.664886587665056927e-02,-8.803244167679509166e-03,4.220478832721710205e-01
2.703564012924989934e-01,2.422799163391273769e-01,-2.721722117923361384e-02,-1.472352802798654048e-01,2.985366797437736391e-02,3.420402820303872216e-02,3.901303410530090332e-01
2.657429525340427867e-01,2.497376968914189477e-01,-2.147526596528440135e-02,1.556632924000151130e-01,1.056405106693046950e-02,6.673990310374671581e-03,3.889923989772796631e-01
1.849527114150630314e-01,3.618487289538230289e-01,-9.004265859295895735e-03,-4.678847032149145019e-02,-1.076249653754910579e-02,-1.112512346119225257e-03,3.318741023540496826e-01
1.783703954055103624e-01,4.033939215706695558e-01,-3.406046550138455697e-02,-7.712024875183458306e-02,-1.279695432874643907e-02,-8.401953891262548338e-04,4.023684859275817871e-01
3.348511706539739619e-01,3.207427490841632256e-01,-3.268764727174477969e-02,-1.380385644137632805e-04,4.568743854093629156e-04,-4.940729373476494130e-03,3.607940673828125000e-01
3.087716315269337652e-01,2.785395576891320779e-01,-1.095269872830639812e-02,-9.511805150592595598e-03,2.591553078722285981e-03,5.720440267358782279e-04,3.062094748020172119e-01
3.123816068608999408e-01,2.962619249740129912e-01,-1.117296300418279542e-01,-2.056308367530290671e-01,7.827196320824850867e-03,8.353872988459631888e-03,5.482143163681030273e-01
3.262447792631393284e-01,3.239515665865642657e-01,-2.984467827137618490e-02,4.699031332148661437e-04,-7.173717010901003218e-04,-1.874225420539443011e-05,3.549515306949615479e-01
3.140766460142627170e-01,3.271284751562045789e-01,-3.185442193382065357e-02,-4.517960345140617159e-03,3.977723519384653190e-03,4.691409162763625178e-03,3.528858423233032227e-01
3.217250099516668627e-01,3.269281311463846373e-01,-3.360137352113315434e-02,2.888501370316610300e-04,6.480429623276878466e-04,1.539946495394349177e-03,3.579683601856231689e-01
2.983982152299460289e-01,3.269125516939909715e-01,-4.190747414210874155e-02,-6.261557099133929771e-02,2.134419309901898487e-02,1.422434870358390419e-02,3.742465376853942871e-01
3.512434704055939494e-01,2.736881850698544283e-01,-8.056871937400061912e-02,-1.674826146560136619e-01,-1.230964301733560376e-02,4.650399630911799739e-03,4.936172664165496826e-01
3.264445742762639990e-01,3.189860047720403657e-01,-3.371292366801806328e-02,-8.809058108629099892e-04,2.836806215983515671e-03,1.977416311613517611e-03,3.565403223037719727e-01
2.634197953274459714e-01,3.223693969595026743e-01,-1.385832220226811407e-01,-2.248908025532661004e-01,-1.502530061667379721e-02,-2.273794311722587402e-03,5.841231346130371094e-01
3.603449527130645480e-01,2.632484377114113760e-01,-2.514815820096727439e-02,-3.416062873160871823e-03,-5.844140082781789291e-04,-1.343200827814695561e-02,3.481090664863586426e-01
3.222604149482978797e-01,3.225756794595889820e-01,-3.545251503327426223e-02,-1.348837278596951798e-04,4.342506401584217261e-04,3.836393389359480646e-04,3.578721582889556885e-01
3.276669195745992580e-01,3.251962453148287691e-01,-2.163186068500047576e-02,1.023057011730727460e-03,8.660144910792416358e-04,-2.086439174250991502e-03,3.480965197086334229e-01
3.273534881164341659e-01,3.245328760597383511e-01,-1.450940640878731203e-02,-1.319193845274263099e-03,3.549935667814271053e-03,4.769873779517147007e-03,3.406247496604919434e-01
3.434402989133875095e-01,2.402823058583643812e-01,-8.597418728731071047e-03,-8.030355556187024693e-03,3.228688313434685715e-03,1.052829592027403337e-04,3.138174414634704590e-01
3.183763578279823481e-01,3.210771112716852560e-01,-3.410833016229658510e-02,-5.777323144525406840e-04,3.588978888132991676e-03,2.014698174059520366e-03,3.539160192012786865e-01
3.994751363955796331e-01,1.758371427231838480e-01,-1.939334622644831030e-02,-5.131000004523955139e-03,1.055911583044466008e-02,-4.380421007143732448e-02,3.714293241500854492e-01
2.678103501660732966e-01,4.680692330520766498e-01,2.473701424683788508e-02,7.841905247956582059e-02,-9.404299338161341282e-02,4.743851578065148844e-02,4.467639029026031494e-01
2.464294261374533335e-01,3.683301733463283378e-01,-2.743302739504382970e-02,-1.432193896084371296e-02,-2.786417736808231502e-02,-9.757570217339566615e-03,3.556328117847442627e-01
3.279800547482004669e-01,3.265118016894233977e-01,-3.133211745779390656e-02,1.532155931206703433e-03,3.527757852895827603e-04,1.963818381799596266e-03,3.586067855358123779e-01
3.675970907146316469e-01,2.140608841626783776e-01,-1.806945337231480320e-02,-2.213817931442559235e-03,1.228291998416865521e-03,-1.118973757451363800e-02,3.368874192237854004e-01
3.281115928465341280e-01,3.270320064520254588e-01,-2.494157222920687089e-02,1.579014902816664855e-03,-3.628148228322690926e-03,-1.915661172461056213e-03,3.525968492031097412e-01
3.281094613522350656e-01,2.482945755255188958e-01,-9.351913271344380885e-03,-1.702905858145471046e-02,-2.867599638163922070e-03,2.431732635267316433e-04,3.069380521774291992e-01
3.545239144585589086e-01,3.379369340853611847e-01,2.902401992195713376e-02,-1.153000515674233511e-03,-8.134602465277519096e-03,1.886583998505050874e-02,3.195254504680633545e-01
3.504419435584392728e-01,3.346567841378322861e-01,1.092471409456047260e-02,7.736244444330117598e-03,3.662363118097251673e-03,-1.797985180114350032e-02,3.336935639381408691e-01
3.476098330971424399e-01,3.066180661156076015e-01,-1.927714843197991801e-02,2.028546424128353093e-03,-2.506866467514587762e-03,-6.852024989520631194e-03,3.484524190425872803e-01
3.368204584495110843e-01,3.374407053813680557e-01,4.164454433633546504e-02,-5.567819171251434151e-04,5.035225494651998125e-03,1.130934052458759317e-02,2.962650656700134277e-01
3.147025936195027018e-01,3.323950797666720414e-01,-3.237493822496398388e-02,-6.364778462885741428e-04,1.321681325815912125e-03,3.985096173259658069e-04,3.562631607055664062e-01
3.377011582975413262e-01,2.945244679093411144e-01,-2.304600312615950886e-02,7.744849222112454995e-03,5.869966814009042362e-03,-4.784163288437310625e-03,3.417292237281799316e-01
3.339598870508118100e-01,3.281108563299730552e-01,-1.023811622844211788e-02,4.026039980293812624e-03,-1.435207302884241969e-03,-4.413555317392080929e-03,3.414769470691680908e-01
3.241963334957509990e-01,4.416469187124690832e-01,2.104274970254743637e-02,-1.054181439684250265e-01,-4.467545632198986760e-02,-3.320637768894904585e-02,4.288786947727203369e-01
3.181460754758073106e-01,3.267858988038974122e-01,-3.312194735834303461e-02,-9.017247699306047467e-04,-2.955143601708211821e-03,-3.439098992368226464e-03,3.557567894458770752e-01
3.597049406546194983e-01,3.659141391097516238e-01,1.476328805872020866e-02,-1.511907792143490220e-02,1.308786358760300611e-02,9.610783677027145630e-03,3.502025902271270752e-01
4.151682767342100289e-01,4.165762697165882322e-01,3.583827062083239090e-02,6.427578242494612348e-02,6.995655171649704795e-02,-5.635279367850064974e-02,4.254763424396514893e-01
4.978114329733072108e-01,4.420228274078339403e-01,3.810648175560538142e-02,2.081752994944802496e-02,3.096412565726311406e-02,-3.746304914940174619e-02,4.440513253211975098e-01
4.164626108721205533e-01,3.770642669174527617e-01,6.170930902193147438e-02,-3.014505109586600173e-02,5.942220480627047330e-02,-6.710970463972619482e-02,3.745073378086090088e-01
3.410192462636835731e-01,3.183682462016304560e-01,-1.476478132061134763e-02,2.790297388596165297e-05,6.973284875389471581e-03,1.107569471077795437e-02,3.457605838775634766e-01
2.901641946367346514e-01,3.741316381136746694e-01,-3.286132846290043541e-02,4.477654429360063311e-03,2.069186896901894709e-02,-1.215008172067629476e-02,3.745759427547454834e-01
3.701032853211702056e-01,3.378424178553640633e-01,1.166383127727546598e-02,2.888718087172756355e-02,2.073903708908949109e-02,-1.697371067205458162e-02,3.501629531383514404e-01
2.813393811238628084e-01,3.306010872173807957e-01,-2.823305557908240004e-02,-5.533775308185284909e-03,8.863948144662419162e-03,6.762061808437071393e-03,3.376042544841766357e-01
3.033552592671326376e-01,4.066413667219312411e-01,1.770202512798454975e-02,5.091886098748685252e-02,6.353037510772657770e-02,1.724485430867860741e-02,3.775559067726135254e-01
7.523383136823932893e-02,5.199126482756982748e-01,-3.536599977002491402e-02,4.455476031820856248e-02,-3.383796342771656657e-03,1.658323749093888397e-02,5.157206058502197266e-01
3.548036652967720972e-01,2.142908420427517557e-01,-1.637376704028362107e-02,1.227093441469070609e-02,3.517410762565941276e-03,-1.285896276409543779e-02,3.261077404022216797e-01
2.391545071443550718e-01,4.147794992012713289e-01,-4.094388138184534842e-02,-1.268198656016074066e-01,2.182064852857695456e-02,1.932201294942105171e-02,4.574820101261138916e-01
2.351849420041412786e-01,3.659298078452267733e-01,-9.753029067001223185e-02,-1.814098582413394278e-01,-9.399921559544624494e-03,-3.650294317503002730e-03,5.199308991432189941e-01
3.524916244456912651e-01,2.711717819561070830e-01,-2.584315635396186583e-02,6.826431017229519019e-03,3.164754377421184674e-03,-1.260942755928519746e-02,3.458769023418426514e-01
1.001726564099019029e-01,5.208345589126153197e-01,-8.584873409824150814e-02,1.267128552444459280e-02,3.417274274005466933e-02,-3.265152816538541541e-03,5.420604348182678223e-01
3.123131773861933524e-01,3.925886098802678359e-01,1.085022894709214425e-03,1.925945398038079667e-02,2.474427728215806629e-02,-2.129949792906165457e-02,3.641451597213745117e-01
3.377287732610531612e-01,2.774886512059270283e-01,-2.675592583319286177e-02,4.271807066678687606e-03,1.069181335232449563e-02,-1.590408276746228811e-02,3.401145040988922119e-01
3.099005288579228523e-01,3.168204539186552093e-01,-2.441074419554292718e-02,-9.135457862899874423e-03,7.931875401818598917e-03,6.834668755248484752e-03,3.386806249618530273e-01
1.405800414670285159e-01,4.271382839932463260e-01,-1.000886638362241121e-01,-1.047241013472119953e-01,2.171371589409559419e-02,-1.520497310660573215e-04,4.932733476161956787e-01
3.278457679343799724e-01,2.483634326976639772e-01,-8.922685898772431123e-03,-1.495308852639697789e-02,2.402514813282749431e-03,4.452965687970975570e-04,3.060261309146881104e-01
3.393498810173889435e-01,2.938919827339317448e-01,-2.736141006000225584e-02,2.858718461570821170e-03,5.315584466420940866e-03,6.499676650589334814e-04,3.463873863220214844e-01
3.106316086138695143e-01,2.907877418074599207e-01,-7.252226909059744653e-03,-2.085710293065411169e-02,3.553020507118499587e-03,9.326009379397063800e-03,3.110300898551940918e-01
3.100498322605078627e-01,3.082060996120333241e-01,-2.513777210916845473e-02,-1.186301843726937123e-03,9.364419493260686981e-04,3.984149224772946113e-03,3.343510329723358154e-01
2.321907922644025069e-01,3.576375973095378136e-01,-1.376971851674317349e-01,-1.950568082938836656e-01,-6.848200858095338309e-03,3.498456241248544193e-03,5.597090125083923340e-01
3.221471843056710749e-01,3.245875281931227541e-01,-3.521766328591893758e-02,1.929147979757048854e-04,6.850099138858132576e-04,1.070208628483526950e-03,3.585981428623199463e-01
7.129653876325053874e-02,5.136016727410341876e-01,-1.242854468221773478e-01,-5.241686210493749776e-02,-1.352404529204115011e-02,-1.093517173415066174e-03,5.737490057945251465e-01
3.321006101048158410e-01,3.144845068040804659e-01,-3.019015746184045001e-02,4.041790080868442984e-03,-5.173886252420725751e-03,4.834464508402059289e-03,3.540934920310974121e-01
3.097825475239981419e-01,3.151565204560684008e-01,-2.409661299286292024e-02,-2.186969234907382587e-03,1.021190606451014785e-03,2.360709886491728311e-05,3.366242945194244385e-01
2.285051663354525642e-01,3.479280530052452636e-01,-2.770595664809377690e-02,8.355928045933438963e-02,-1.390867487341607665e-03,1.166040684405434313e-04,3.625682592391967773e-01
3.199963328310582167e-01,3.205547803165432197e-01,-3.391756421723285397e-02,-3.235053342988540343e-04,1.021667470259849698e-03,1.414684461242904801e-03,3.542068004608154297e-01
2.609797142396178549e-01,3.273143880624420632e-01,-1.685079258109845046e-02,1.649217751346004207e-02,8.355107966968564103e-04,-8.034129415827559115e-03,3.178546726703643799e-01
1.467328909500495160e-01,3.495330687054006846e-01,-2.867297194132259475e-02,1.488605649835663125e-01,1.431721831369714253e-02,-8.026679012897615373e-03,4.180360138416290283e-01
2.122534074876400723e-01,2.840988491376321701e-01,-2.069252452717587620e-02,1.600635305052331425e-01,1.399087297424768221e-02,-1.666215642837755306e-02,3.929921090602874756e-01
2.049319244102547344e-01,3.629523754463386820e-01,-7.846812378739576044e-03,3.346299710870186822e-02,7.876572618037086873e-03,-2.066469425395476038e-04,3.277410864830017090e-01
3.758882042179509386e-01,2.390263640524307176e-01,-7.393906722020066047e-02,1.776605218716253987e-01,-2.019265716102800964e-02,1.381502266942065058e-02,5.059615969657897949e-01
3.262583009399477318e-01,3.276384002285358532e-01,-6.763634192477274709e-03,-1.104562735773288121e-03,8.598442540055371494e-03,4.270848470752004050e-03,3.341336548328399658e-01
7.698828996039894235e-02,5.404316474065973264e-01,-1.090879522937005519e-01,5.204031825976183911e-02,-1.608597717891775691e-02,1.245670190491676189e-02,5.873723626136779785e-01
7.880120960264783148e-02,5.424748131941747875e-01,-1.183933966308229335e-01,3.372514132218256550e-02,1.486587914880409646e-03,1.647947646638865324e-02,5.912244319915771484e-01
3.508634231463404474e-01,2.640178181742296459e-01,-2.575735817485391710e-02,2.492490952867775552e-03,3.440446470986323942e-03,-1.875380675881192435e-02,3.432007730007171631e-01
3.186713095115003558e-01,3.202592202142161559e-01,-3.397586371371488778e-02,-1.829585757286057539e-03,3.489915952510123411e-03,2.954046572005731078e-03,3.535467088222503662e-01
9.542613409855858764e-02,4.850127361248992575e-01,-1.100525893035504965e-01,8.794702704724902120e-02,1.094512437087867551e-02,-5.149790237626315770e-03,5.456134080886840820e-01
2.284299629820912836e-01,3.599906744791991353e-01,-1.670956317442381933e-02,4.321420557391220281e-03,1.278967387401558700e-02,-4.263395840727158582e-03,3.320446014404296875e-01
3.186082254955296400e-01,3.215838928739158664e-01,-3.397733326702057077e-02,-1.865391222894105180e-03,3.439697600058276745e-03,2.627549012516999880e-03,3.541768789291381836e-01
3.132207440569620971e-01,3.190580655978585978e-01,-3.070054256197005116e-02,-1.352540063849010012e-03,3.148127925286758368e-03,4.345284276967830220e-03,3.470091819763183594e-01
1.774400842900543396e-01,3.937058503782038810e-01,-1.136811383926533137e-01,2.019288901284435056e-01,-2.762093326535229598e-02,2.494307236634485739e-02,5.665360093116760254e-01
3.170684645248276201e-01,3.205606829585772033e-01,-3.168554994277819614e-02,-1.828959655906851195e-03,6.712677352208094948e-04,-1.008996707561114314e-04,3.505294620990753174e-01
3.024846703916396207e-01,3.314570155735966361e-01,-2.943564147803162667e-02,6.024285326067392587e-02,-2.057958729440963544e-02,2.435842662483074517e-02,3.668312430381774902e-01
3.579877489390385636e-01,2.509875461986685874e-01,-9.841958330410088829e-02,1.888585462596006070e-01,-1.342627189059190755e-02,1.106054023894030916e-02,5.280449390411376953e-01
2.108637101137309511e-01,4.155623110732448167e-01,-6.485627943871102863e-02,1.596726901436722468e-01,-1.408488015624823932e-02,-8.971858628383691525e-03,5.016824603080749512e-01
3.280195332486270376e-01,3.310143241987743012e-01,-2.378993927843775502e-02,1.430448657208091730e-03,-1.297237535303687357e-03,-1.664607552576411083e-03,3.533439934253692627e-01
3.514595145614614058e-01,2.400899437883667886e-01,-3.103305105643250350e-02,3.595794643317186401e-02,7.049514137207657342e-03,-2.757720265382493374e-02,3.498788774013519287e-01
1.952959368184248590e-01,3.787073252900166054e-01,-1.112320857084850290e-02,6.353593432036561128e-02,-6.942297282025981786e-02,1.878373538515677038e-02,3.764781653881072998e-01
2.310513227269734293e-01,3.519792225991111856e-01,-1.556484713329064906e-02,2.603210606161936863e-02,-5.117864721542771458e-03,7.718950433044454926e-03,3.279576301574707031e-01
3.289195130912611065e-01,3.190169692125137679e-01,4.860518922330522851e-02,-1.719227851056791267e-03,-7.580330892982599465e-04,2.349604151975533215e-03,2.755458354949951172e-01
3.249818637275137534e-01,2.858005613804238121e-01,-1.718413473881544307e-02,4.765511926678854364e-03,-6.001492878158541308e-03,6.677626842259246380e-04,3.246286511421203613e-01
2.848250293485374840e-01,3.224565397151243351e-01,-1.594859456140396148e-02,5.534675932189186270e-03,1.114826853911811481e-04,-7.267995191622394352e-03,3.216362595558166504e-01
3.878910155559825990e-01,3.291974612971221292e-01,-2.117713111613928056e-02,1.902247251203828537e-02,6.202482707379820999e-03,8.095862418763361337e-03,3.849280774593353271e-01
2.592724592591448274e-01,3.235622818251873145e-01,-9.338424132371403452e-03,7.955687873843210814e-03,2.083327408379340596e-04,-1.966908671579730913e-03,3.061952888965606689e-01
3.245042652555061302e-01,3.286151308264856352e-01,-1.929312035638697242e-02,-1.531320335542119123e-03,2.388119978294741402e-03,1.901488385333532666e-03,3.459217250347137451e-01
5.016027870717296722e-01,1.358176702675907288e-01,-8.493530908015722858e-02,4.556782179562342272e-02,1.780291727895121382e-03,-1.654992332208006858e-02,5.199416279792785645e-01
2.439837134486005643e-01,3.882381604385806151e-01,-4.185601540840747092e-02,-9.838779355341163366e-03,-1.629801275400099420e-02,2.481039708798430960e-03,3.805957138538360596e-01
3.572620599326368218e-01,2.318382554866559309e-01,-1.708195807788606690e-02,-2.142042070873958863e-03,2.609349390847972867e-03,1.518397885819025052e-02,3.311174511909484863e-01
5.107574037230310227e-01,1.006563236561547892e-01,-1.155881499532349088e-01,4.537585851533514764e-02,2.292634602246198649e-03,-2.120706462641872708e-02,5.578248500823974609e-01
3.693449632025931906e-01,2.046045483905504225e-01,-6.205132978776506381e-03,-7.972760176672546995e-03,-1.160011063529806921e-04,1.670330159123261423e-04,3.263430893421173096e-01
3.645469965771527265e-01,2.044211803324353927e-01,-6.349425621570925493e-03,2.057565260456242426e-03,-7.567057884881822844e-04,-7.849078075925483566e-03,3.225113749504089355e-01
4.012818017182494534e-01,2.642404641517108188e-01,-4.528127346656835028e-02,1.473908237592766735e-01,1.464696286010085981e-02,-1.793528581773205441e-02,4.730561375617980957e-01
3.246763880785454859e-01,3.217542167158814470e-01,1.023809241087964006e-02,-3.977832339152816664e-03,-3.858130857018881622e-03,-5.277381957207986744e-03,3.132679760456085205e-01
2.710016063971900091e-01,3.542353116238042832e-01,-2.357459043503262741e-02,-5.710710459409571935e-03,1.090222357456928012e-02,4.357893896350081668e-03,3.445765972137451172e-01
3.317378801557840928e-01,2.464299225094068457e-01,-7.648615298542493779e-03,2.013376631276275752e-02,5.951759331599155295e-03,-1.623803732157303803e-03,3.079586923122406006e-01
3.316375774573249169e-01,3.495674149885750204e-01,5.049924630709076712e-02,-1.493130255224630124e-02,-9.482631801771932312e-04,2.484493231710179742e-04,2.916722893714904785e-01
3.515612591974511814e-01,2.418312933441799373e-01,-1.930892138866294183e-02,3.868935297715894901e-03,9.463654620608915116e-04,-3.822432154173969121e-05,3.300566375255584717e-01
3.546778746474451571e-01,3.654874152557871514e-01,3.910178648317622074e-02,-8.428173937558597340e-03,-8.985424226716384050e-03,3.554740243350427292e-03,3.218843936920166016e-01
3.329488663038737695e-01,2.088516569461257577e-01,-8.289126507472016625e-03,-1.128968972778159330e-01,-2.899865143088838429e-02,-5.740244972729029865e-02,3.743551969528198242e-01
4.912105234972273249e-01,1.315246308148390053e-01,-1.122950255059408931e-01,-7.454256082836815955e-02,-1.072214519344691017e-02,-9.106827180292568699e-03,5.420184135437011719e-01
3.192632702452231630e-01,3.314739585539705491e-01,-1.748613133121329488e-02,-4.825404152196215851e-03,-1.655395862632805942e-03,-4.224459147112356004e-03,3.432095646858215332e-01
3.591846349604426170e-01,2.320502867143538206e-01,-1.266098801851997524e-02,1.881964216795475962e-03,2.415214591994360813e-03,-9.106705906495394034e-03,3.277726173400878906e-01
2.181933390128771855e-01,3.687545832841815363e-01,-1.654762836449913399e-02,-8.232115129784212809e-03,-1.601851967124056156e-02,-3.118831355633149092e-03,3.378123342990875244e-01
1.401661493843719131e-01,4.701739838221452583e-01,-3.960586828470585852e-02,9.266247921182050803e-03,-1.754275704517055390e-02,-1.753802740989504616e-02,4.501698613166809082e-01
2.563321527020320789e-01,3.311980760926904743e-01,-9.053063041629227925e-03,3.358141466006717840e-02,-1.417452971489027713e-03,3.234276226338736720e-03,3.151556253433227539e-01
1.162508753767573788e-01,4.493475580754294763e-01,-1.285441990911367904e-02,-6.424500665871493016e-03,-2.357416088330598763e-02,-1.850817055882329754e-02,4.164670705795288086e-01
5.135788890129310280e-01,1.452521633160140657e-01,-5.353405552810502899e-02,5.875801173577336473e-03,-3.670836153388320621e-04,-1.181040797918747262e-02,4.989200830459594727e-01
3.479163079288357108e-01,2.717167530586078739e-01,-2.672542104858169343e-02,7.091033236111951230e-03,-3.040618562743838214e-03,6.458051143630077259e-04,3.432129025459289551e-01
3.450334634191990490e-01,2.846083577908546935e-01,-2.992804095642256912e-02,1.037987785773369746e-02,6.495040567160297344e-04,-1.327113585358133743e-02,3.499186933040618896e-01
2.112492699868169788e-01,3.940631797060687447e-01,-1.045796495110476454e-01,1.864429887883465309e-01,9.042523459038784642e-03,8.612546484142950126e-03,5.437440276145935059e-01
2.973932628348725515e-01,2.996688201601796497e-01,-1.023526000678418035e-02,8.412479104723095263e-03,-3.803917188274417950e-04,-1.093946208116961319e-03,3.091227114200592041e-01
1.951391049764948371e-01,3.768996314903054756e-01,-6.963241814929937989e-03,8.210233235265412127e-03,-6.009880217886765484e-03,3.457860783250764260e-03,3.331109881401062012e-01
3.003507368329109140e-01,3.009839099281813590e-01,-2.052207990595925069e-02,1.017803773777753093e-02,2.155307387052111685e-03,-1.264632557660768600e-03,3.217024207115173340e-01
3.244840684806091224e-01,2.665524458978279498e-01,-9.203102033724680497e-03,7.428241686574573593e-03,-3.077888505664625168e-03,-2.623815087776633039e-06,3.091377019882202148e-01
3.004614210670378815e-01,3.147591934954472870e-01,-2.405356796645394257e-02,3.066556326472561454e-03,-4.016055810308027420e-03,7.173076647081650867e-03,3.322426974773406982e-01
3.160570486345757879e-01,2.876004963942988546e-01,-1.069687056918025569e-01,1.925298470265054129e-01,8.057855065084249674e-03,-6.941367834926550143e-03,5.284555554389953613e-01
3.576214020180876196e-01,2.660017619223573049e-01,-2.413201028393749392e-02,7.871027271642801193e-03,-5.988573658841075086e-03,1.319549435972166944e-02,3.463661670684814453e-01
3.971835255147481147e-01,2.316416281618857154e-01,-4.584598914178861229e-02,1.634281387964722498e-01,8.818691800088734878e-03,-3.859452885114166617e-03,4.803577661514282227e-01
3.306341541013786411e-01,3.142284106103926944e-01,-2.519541721312965055e-02,4.168515915832643470e-03,7.193422085034114071e-05,-4.655406641973245351e-03,3.480852544307708740e-01
2.940969965788209350e-01,3.050157517285195796e-01,-1.396861569574350814e-02,4.533851698617218096e-03,-4.497350427602483589e-03,5.414854747781834912e-03,3.140026032924652100e-01
4.462192167122298603e-01,1.833358515663583155e-01,-1.155142267951931867e-01,1.592130578023504828e-01,3.803655270552618907e-03,-2.408982754172609071e-04,5.595281124114990234e-01
2.133338199448477635e-01,4.006719236891101432e-01,-2.479695862029010489e-02,-3.872390997279975822e-02,-3.060171375729299828e-02,-6.323192009321957317e-03,3.792634606361389160e-01
2.202783302448022007e-01,4.414853486799819038e-01,-5.294141741923130695e-02,1.354913300539495324e-01,-2.376680954243740387e-02,9.997134507531065320e-03,4.910069406032562256e-01
1.004842447105356307e-01,4.561683968953034185e-01,-2.255133994263150421e-02,2.203318459541670632e-02,1.912377876357918005e-02,-8.810001280566638962e-03,4.338169693946838379e-01
2.169180866302534982e-01,3.853450914489665591e-01,-2.873759166123307507e-02,1.141957821019664032e-01,3.790651671901588277e-02,3.128652393604922956e-03,4.165951609611511230e-01
2.019412884054968271e-01,3.432736690173989746e-01,-1.828477192545904795e-02,6.846985873253054466e-02,2.700360419584864335e-02,-1.862464442339702500e-02,3.418947458267211914e-01
1.087410857686869764e-01,4.663929771457144824e-01,-6.078695785281418296e-02,-2.604255724663456784e-02,-1.754795534405108673e-02,2.240210594285874102e-02,4.709040820598602295e-01
2.425359742717855260e-01,3.598937486621799353e-01,-3.083330489756824777e-02,1.095959744957210498e-02,1.961818158228703646e-02,6.850966946047690491e-04,3.494309484958648682e-01
1.024665424400015012e-01,4.892217421530907773e-01,-3.499703542876403395e-02,-6.455197651625285693e-02,7.435118496049722241e-03,2.115266943961992621e-02,4.854375422000885010e-01
2.203142963850336644e-01,3.764901518671786018e-01,-2.505467486807222421e-02,1.324325114001693449e-01,-2.046208166122764210e-02,3.016007368132397545e-02,4.236952066421508789e-01
2.965447153891135335e-01,3.889550014819903034e-01,-1.489527708205740097e-02,8.432503236647586123e-03,-1.364085278857356601e-02,8.465298050668807264e-03,3.678332567214965820e-01
2.226004136704639591e-01,3.581955511863259556e-01,-1.944844690102157103e-02,2.296210059565812964e-02,1.511563870034485571e-02,-5.429201674729995653e-03,3.348880410194396973e-01
3.225775092938782951e-01,3.214713028940193729e-01,-3.551274553545583079e-02,-4.537920616634252965e-04,-3.951022880489594535e-04,-3.837013931057483835e-04,3.575405776500701904e-01
3.275120381767734346e-01,3.294534618045743546e-01,-1.937202553190525700e-02,3.143736746921304594e-03,-2.697718239689127911e-03,1.898030149939600219e-03,3.479483723640441895e-01
9.717195274626422297e-02,4.152840828885360769e-01,-2.430523621119304312e-02,3.475753233759374533e-02,2.079923124972908599e-02,-1.426680491029101369e-02,4.001601040363311768e-01
2.610194232143041582e-01,3.514593428205024517e-01,-1.938040818643285701e-02,7.732034332434627177e-03,-5.117173495260862086e-04,-4.123346374228905632e-03,3.352520465850830078e-01
2.551397520040576961e-01,3.278131645953673567e-01,-9.022104413306281101e-03,-3.645991951552956384e-02,-1.198540324721316812e-04,-2.737919325359000275e-03,3.134819865226745605e-01
3.916704240660990877e-01,3.924805641642329923e-01,2.282861237613986738e-02,-7.864996452141274907e-02,-5.729365777837385626e-02,-5.556959040807568639e-02,4.171484410762786865e-01
2.400232850387917782e-01,3.490078569961900801e-01,-2.430519705956807330e-02,3.959612778939655686e-02,1.523628781164622749e-03,-5.466079781612468748e-03,3.396396040916442871e-01
3.333182358491135755e-01,3.099058205626171736e-01,-3.104223335951641904e-02,5.835856209774906373e-04,1.121070585360346239e-04,1.475378660005213088e-03,3.532474040985107422e-01
3.079471605974665183e-01,2.981972497210083617e-01,-1.828178036476321711e-02,4.704314706777772137e-02,-1.490008264739308558e-02,1.266854335466669271e-02,3.333562016487121582e-01
3.275249768729519007e-01,3.273267251386787202e-01,-2.023019768381900674e-02,2.051477934938896169e-03,-1.179013667444946123e-03,-1.015522227595118355e-03,3.476846814155578613e-01
3.321404800860596196e-01,3.398740958633938991e-01,-2.331766341217547667e-02,9.452057215244622293e-03,9.841473927649696529e-03,-7.782263282754775524e-03,3.604158163070678711e-01
3.243711678715689994e-01,3.235930561981251175e-01,-3.464394496205808194e-02,5.891842507251845128e-04,1.132534101461653243e-03,5.158879786212435328e-04,3.586346209049224854e-01
4.378440800814459299e-01,4.230368392467333538e-01,6.203241080146942865e-02,-3.321088731003713629e-02,-3.365738519872540219e-02,-7.180665147602981191e-02,3.975737094879150391e-01
3.171189635024659337e-01,4.490653973024220091e-01,4.532048857732354219e-02,-3.549252247220561346e-02,-4.497636463170721910e-02,3.260804837530745931e-02,3.744125366210937500e-01
2.635062250078141211e-01,3.305002122933385911e-01,-1.322130423551343137e-02,1.289256174019630038e-02,8.048317261729718772e-03,-7.907617956407450230e-03,3.169952332973480225e-01
2.999881127649419721e-01,3.439717060215343736e-01,-3.114758570623260558e-02,3.387118520023452845e-03,9.101841627551071276e-03,-2.397697475634515563e-03,3.555982708930969238e-01
3.228399594528299499e-01,3.299670373323239092e-01,-2.767597660862802789e-02,4.488768445537927483e-04,-1.569645603151188437e-03,6.493271208713396287e-04,3.541463315486907959e-01
3.145244145760435206e-01,3.770392298422995392e-01,-2.045026803262983695e-02,1.593257774169582752e-01,-2.026232083746380697e-02,2.703730196156361662e-02,4.654415845870971680e-01
3.057397554925824212e-01,4.363245917543728813e-01,2.692293578247234587e-02,1.137710859425974941e-01,-6.194859771487215561e-02,5.627866504322118213e-02,4.370889961719512939e-01
3.260968050994623724e-01,3.293090848315202712e-01,-3.194273648104961616e-02,-1.228109718420732587e-04,1.278614027283219269e-03,-6.655599037969215552e-04,3.596651554107666016e-01
2.866299450953528893e-01,3.063235360028422893e-01,-8.937178338211199113e-03,2.652609112931225786e-03,6.863221432403908548e-04,-5.382333759570942814e-04,3.059279918670654297e-01
3.157164235611921721e-01,3.735127510214417690e-01,1.700312039135842834e-02,1.541290708043447366e-01,-4.850396607840768565e-02,3.808040262166057649e-02,4.387597739696502686e-01
3.090786315271624174e-01,3.145093946107088145e-01,-2.536968492735192093e-02,2.521322413887857141e-04,-3.865783566045855393e-04,4.321357292527249448e-03,3.372805118560791016e-01
3.252509529669447286e-01,3.272200002338498948e-01,-2.022192665823610569e-02,-1.713333901384987961e-03,8.342191706036747182e-04,-2.486254406987541132e-03,3.465040922164916992e-01
3.592503892102965612e-01,4.946259685352054625e-01,5.725778931380109960e-02,2.963519950753348842e-02,-9.327228847684888857e-02,1.085470455547087737e-02,4.236695170402526855e-01
3.111707163953421618e-01,3.405464940252083128e-01,-3.250624606708635289e-02,-2.485803202974367211e-04,3.959593974167299746e-03,8.501061497397128120e-04,3.593354523181915283e-01
3.234495020448524549e-01,3.302195815360843278e-01,-3.332695234925378558e-02,-5.040379581918218253e-04,-6.193007522471686730e-04,-1.256185712933425777e-03,3.602184355258941650e-01
3.164412638091700369e-01,4.965092042921548932e-01,2.905925929059161028e-02,2.355893715219203183e-02,-6.438245606647945152e-02,1.749272388822734406e-02,4.263561069965362549e-01
2.144110265270790794e-01,3.931430274911815737e-01,9.051958366538631617e-03,2.515387274961925282e-02,-7.558440669677317370e-02,-4.958113702426595291e-03,3.604616820812225342e-01
3.258325849995926671e-01,3.312182893505736248e-01,-3.069881108067437636e-02,4.803721673320729630e-04,3.176062074479626789e-03,-2.968043680984456720e-04,3.592979609966278076e-01
4.328664262237394977e-01,4.638913364113947946e-01,5.223738677971889732e-02,3.148469596531540404e-02,-4.398491208070759440e-02,1.839102370330032363e-02,4.091974496841430664e-01
3.134240107795204233e-01,3.494184855362502118e-01,-1.819482977506459154e-02,1.240618488149376926e-02,-1.493070436291714549e-02,6.837376622235331880e-03,3.528085350990295410e-01
2.994539861578903728e-01,4.512910613618196787e-01,1.557149563714146923e-02,6.730296594689014200e-02,-5.773550795135578423e-02,2.346960513816367597e-02,4.147160053253173828e-01
3.277698517009363655e-01,3.292062265534225762e-01,-1.925049933269890046e-02,4.229620791581716749e-03,-4.605532488340871068e-03,2.458917856429078397e-03,3.479354381561279297e-01
3.927472449947959632e-01,4.598679963470592713e-01,5.775904060304817844e-02,-2.358519842024094093e-02,-8.591739469641877791e-02,-2.694743886141192854e-02,4.064475595951080322e-01
3.264026748508894737e-01,3.295460405532305570e-01,-1.315120183159904088e-02,2.556783232969643007e-04,5.795362881905611122e-03,3.683104466641398136e-04,3.412849605083465576e-01
3.102767033538968988e-01,3.132518224445010047e-01,-2.537188476158563910e-02,1.013242255558119941e-03,-6.769588429337707091e-04,3.788661630602296101e-03,3.372164666652679443e-01
3.179012674848080700e-01,3.205485449580944279e-01,-2.430699291750584856e-02,1.237057477981167233e-02,-1.119177298418637216e-02,1.420119848689562793e-02,3.456288576126098633e-01
1.286202042837893966e-01,3.984959954310843266e-01,-2.317413005512372615e-02,7.561354878455138484e-02,6.291383879892802067e-03,1.001224620879322125e-03,3.925736248493194580e-01
3.080053267760950453e-01,3.119010972107136848e-01,-2.593766455374474367e-02,1.212269426218989766e-03,-4.168741249190295248e-03,8.624314618115477534e-04,3.359952867031097412e-01
3.638918049322912296e-01,3.229786495288832771e-01,-2.992233819880396606e-04,-4.845237834020735268e-02,2.301971804337793730e-04,-2.279115447188764451e-02,3.577850759029388428e-01
3.214713619720375171e-01,3.288025190206756987e-01,-2.957781165853892724e-02,8.637881641933820367e-03,-8.820682860259044383e-03,5.071413057321568808e-03,3.555239439010620117e-01
2.492492885575014749e-01,3.300191034355495212e-01,-1.047440022772394563e-02,1.834245764800267534e-02,-2.651692586789655042e-04,2.895021936110742100e-03,3.098268508911132812e-01
1.304323711641629246e-01,5.175641970811113435e-01,-5.932709123137569485e-02,2.256249453704820690e-02,-3.196514774083834831e-02,-1.255031953943266162e-03,5.137498378753662109e-01
1.869796785701919317e-01,4.495241697228725686e-01,-3.361682700224577491e-02,1.037969870832354813e-01,-4.034079856296469285e-02,2.691809110826193924e-02,4.635581374168395996e-01
2.372520272033366018e-01,3.808034219695875522e-01,-2.938603470763959113e-02,3.956719334386459529e-03,-3.534938185685016637e-02,3.316704161785920344e-03,3.657975196838378906e-01
3.254705953055401224e-01,3.254873569527578780e-01,-8.268227874740352590e-04,-5.552162568372262692e-04,-5.708440049071072248e-03,-1.895055074472615881e-03,3.264734745025634766e-01
2.376401696444317702e-01,3.588650423307744308e-01,-9.217369051611690178e-03,4.132717180304602139e-03,-3.211106229658258066e-02,2.996292973214343975e-03,3.297437131404876709e-01
3.291003789303322269e-01,3.300113464434547006e-01,-2.349004309671626212e-02,3.243165086176813192e-03,1.296792185467559883e-03,-7.200356988310014760e-04,3.531008064746856689e-01
3.451807770198108694e-01,3.771205398128076869e-01,1.888104542669688524e-02,4.448282374043488474e-03,5.283417659752636525e-03,-3.850839915763324545e-03,3.436585366725921631e-01
3.637207149987490284e-01,2.050112012048618815e-01,-7.825969254893899718e-03,3.541075328590988051e-03,-6.293897857170289295e-04,9.120368204101491141e-03,3.233512043952941895e-01
4.824374322348629618e-01,1.393699946424628022e-01,-1.031974984515515170e-01,8.369019319281821578e-02,1.072971907676252556e-02,-4.712277448401495580e-03,5.302597284317016602e-01
3.656224256731851474e-01,2.114436546322192578e-01,-1.119959640770967768e-02,-2.401579614038639419e-03,-7.405924596584522379e-04,-1.047037219798609663e-03,3.281618654727935791e-01
3.346588599995016788e-01,2.835015422487739967e-01,-2.676785269679396451e-02,-1.353568862879341798e-04,4.127421131547149950e-03,1.237696637082099033e-03,3.388398885726928711e-01
3.363539816911353952e-01,3.333399174578290380e-01,5.546835811785846837e-02,2.774256361667433099e-03,-7.187660600869913950e-03,1.469821674795720491e-02,2.808654606342315674e-01
3.247860422705645123e-01,3.195563290004805324e-01,-3.379688080975745690e-02,-3.605483970678084065e-04,-3.039666368068623219e-03,-1.753569445057557826e-03,3.560492992401123047e-01
3.165465134454090168e-01,3.185589419135306799e-01,-3.150924505746935389e-02,6.471126103225287155e-06,6.924876172869891960e-04,2.445723229018699311e-03,3.490940928459167480e-01
3.241439651576086267e-01,3.229585429427742072e-01,-3.469713187415240929e-02,1.283618686604305462e-04,1.064602690577180506e-03,3.397842527864610731e-04,3.582551479339599609e-01
3.261908829714245117e-01,3.174216832448887304e-01,-3.199802104133206426e-02,-1.239725719153453483e-04,4.500567947897893446e-03,-5.149034180923632879e-04,3.539728224277496338e-01
2.050230717076526321e-01,3.827033172914070525e-01,-1.493284357882937452e-02,-2.620419984396613750e-02,-2.964483022157901951e-02,-6.582396628790013887e-03,3.519362211227416992e-01
3.336993205275229357e-01,3.277169731965221544e-01,-9.162869451712019053e-03,-9.958606103999144421e-03,-2.066464612549568421e-03,2.364693081430905165e-03,3.403913378715515137e-01
3.278566810444275004e-01,3.253927605175745419e-01,-2.145322000593152811e-02,-1.349499524929008128e-03,2.235721356752171617e-03,-1.315973343211964287e-03,3.481213152408599854e-01
3.232124905311442031e-01,3.221379658125098078e-01,-3.545501895887337440e-02,3.359226557421733975e-04,3.178239899503678919e-04,-3.541937686311835373e-04,3.581328690052032471e-01
2.394761910254572801e-01,3.547637195704443913e-01,-1.026989525495450306e-02,-3.305901529272312067e-02,2.707585574269406967e-03,5.561660566707214747e-04,3.282659649848937988e-01
3.345503066967693284e-01,3.185771591837308070e-01,-3.130331991283766269e-02,-5.115511137363616461e-04,4.326482830716116648e-04,-4.713768669105474277e-03,3.582292497158050537e-01
3.200688317294659857e-01,3.176609508420966677e-01,-3.221912208512511810e-02,-1.164940069856351549e-03,2.814422022764273990e-03,-1.685039212874642276e-04,3.511299788951873779e-01
2.405079240957619935e-01,3.455023491591330265e-01,-9.870101004778197851e-03,-8.805362210550969626e-03,1.167095586775456070e-03,3.128729384768800387e-03,3.166501820087432861e-01
2.475910541821743083e-01,3.282077893767972876e-01,-1.011121032150252841e-02,-2.123177300198677425e-02,1.330919589719074857e-03,2.595975782379687877e-03,3.083221018314361572e-01
3.135276511177945702e-01,3.213505382366785845e-01,-2.670722646812453971e-02,-2.207045196462111003e-02,1.178866095912373645e-02,1.437862404977348178e-02,3.478233218193054199e-01
1.902097806174621042e-01,3.770998039814631442e-01,-9.722258877932654642e-03,-7.483051011551351828e-02,6.362424463560820143e-02,2.312403883775629443e-02,3.779062330722808838e-01
1.805029238918942902e-01,3.693539550689423079e-01,-1.497232627510947101e-02,-1.105154739596108382e-01,2.377572704626642816e-02,1.121301051101223408e-03,3.861756324768066406e-01
3.168150389374541076e-01,3.301703051847936221e-01,-3.319955416234457446e-02,3.735537033357176975e-03,-4.111310689391644430e-03,4.603976993472872620e-03,3.570984005928039551e-01
3.676130527160236250e-01,3.379179045566737538e-01,4.995035965900088137e-02,-1.465411111619651166e-02,8.144780698407100283e-03,8.225972624931876878e-03,3.056216537952423096e-01
3.600348920376407191e-01,3.644028193287481843e-01,3.364328919752812563e-02,4.983981546837720246e-03,1.678471361996635531e-03,-1.497179812713730560e-02,3.297448158264160156e-01
3.281128987985947321e-01,3.288714164947256213e-01,7.351187425584326807e-02,2.872879788328403915e-03,2.500572402847404691e-03,2.645883058081260637e-03,2.551076114177703857e-01
3.007282666857067910e-01,3.341989632205572547e-01,4.150725963857193612e-02,-1.356119085453217840e-02,4.030688314022903319e-03,6.346283190493979404e-03,2.787712514400482178e-01
3.252272933232941421e-01,3.317121863576357743e-01,1.503049236515896503e-02,6.505822846011409663e-04,-6.500760641044533820e-03,-9.439843564037238635e-03,3.141195476055145264e-01
3.246828849982287823e-01,3.233408311364441845e-01,2.239363323183718446e-02,-2.364779929985368675e-03,-7.402195145689396613e-03,2.530965279780447654e-04,3.019209206104278564e-01
3.302011960503060117e-01,3.243741042140286246e-01,3.737118014772702890e-02,-1.221298883173683059e-03,-4.212505784982632784e-03,-6.135117484570826001e-03,2.902544736862182617e-01
3.144686161322294282e-01,2.793778479999735054e-01,-1.571159574018482497e-02,-1.084725883996859146e-02,-9.305299958038294045e-03,-6.317854154406434171e-03,3.152721822261810303e-01
3.250619669081378782e-01,3.277776305030544179e-01,-3.204404007864528059e-02,-1.875460385676371716e-03,-2.355495884703331846e-03,2.383949161009503697e-03,3.585332632064819336e-01
1.686919078072718903e-01,3.849834041688179331e-01,-2.878875653030943393e-02,3.925314248416759966e-02,2.485492279872781370e-03,-2.283487471418408493e-03,3.648980855941772461e-01
1.792068542209987458e-01,3.872792227393084818e-01,-1.754273343586076894e-02,3.128029645296353384e-02,4.216551694400085676e-02,-3.708755748632625721e-03,3.622886836528778076e-01
1.051838509083593970e-01,4.057568152723414756e-01,-1.008667381017610554e-01,1.085635552234591739e-01,1.283528148719456597e-03,-3.313717612044880800e-02,4.831060767173767090e-01
3.212663037140691125e-01,3.222175454639125691e-01,-3.538914441979817971e-02,-4.507236404607743545e-04,-5.516233827169513112e-05,-1.437046370142266104e-04,3.571329712867736816e-01
3.215063243640554069e-01,3.228954835194242090e-01,-3.293310502353191671e-02,-1.733988372676809660e-03,2.970516581623583365e-03,4.012476947523111251e-03,3.552539944648742676e-01
3.266319390639588205e-01,3.161074019499380272e-01,-3.205261851340468482e-02,1.694126039485855566e-04,-4.406515670440272481e-03,1.579648129471134563e-04,3.536224067211151123e-01
4.504358314242265515e-02,4.491518486958608891e-01,-4.264813784469331792e-02,-5.078035933596112585e-03,-1.420718911448653511e-02,-1.837895696256699411e-03,4.551080167293548584e-01
2.215034001794975449e-01,3.798066508318388435e-01,-4.126004132447999573e-02,-8.394572287037849190e-02,-2.842366597890543661e-02,-2.752236772307988313e-02,4.019174873828887939e-01
3.363151354331862519e-01,3.395933846705555537e-01,-1.774867380688466278e-03,2.911770514731044403e-03,3.926073176076623310e-03,-2.332248365338499777e-03,3.398704826831817627e-01
3.248875099550094236e-01,3.309595530625452642e-01,-1.224595480212470333e-02,5.944658169216035732e-04,-3.976394836926924747e-03,-1.939374756537671270e-03,3.402979671955108643e-01
3.138340844411942054e-01,3.379632581158231730e-01,-3.143089762140979793e-02,3.930340412773672930e-03,-2.210088992001223596e-03,4.278976978198479122e-03,3.581019639968872070e-01
3.277101866026258525e-01,3.306804643656454101e-01,-2.776923325331653869e-02,-1.752490883316826578e-03,-2.658665449399951440e-03,3.632598112275620128e-03,3.570718765258789062e-01
3.644805120174526847e-01,3.868837168954257777e-01,5.169601220277167397e-02,1.394624209806999415e-02,4.899171360685947163e-02,4.439187211717493531e-02,3.450208604335784912e-01
2.346794147314602841e-01,3.487932724211881830e-01,-1.833894102850000540e-02,-2.202245012692137516e-02,-6.766229303901617753e-03,-4.695276629554712470e-04,3.278812766075134277e-01
3.153188136272335185e-01,3.326002312498377300e-01,-3.234035532043369465e-02,4.545494537273092519e-04,4.891828689348519214e-04,2.425836249888893223e-03,3.566406965255737305e-01
3.215619927587597404e-01,3.212604463381281694e-01,-3.527259792691553320e-02,3.283360925158873480e-04,-8.166564381193292226e-05,-5.139793973776706721e-06,3.566843867301940918e-01
3.228998163282353895e-01,3.408273162438452131e-01,-3.041826873688674437e-03,3.251413620080878010e-03,1.172116477102051833e-03,-1.899626014293043057e-03,3.353346586227416992e-01
2.768291040135076875e-01,3.125233395014547222e-01,-7.834261233995803986e-03,1.489351205916456672e-02,1.577861178048415268e-03,1.903322572729323429e-03,3.052080273628234863e-01
2.773373608590838924e-01,3.051867161264488204e-01,-1.070529297018607551e-02,1.145420961264737893e-02,8.119096986098975604e-04,-3.191159798358513683e-03,3.036314845085144043e-01
3.210004840490486844e-01,3.223475357351144321e-01,-3.552801311087278036e-02,5.403289699199680931e-04,-6.344645065389053595e-05,-1.871266700004351477e-04,3.572053313255310059e-01
2.636354527723681618e-01,2.825154170011850985e-01,-9.281086247776015874e-03,7.812808893108277863e-02,-2.206674625193371080e-03,-2.381019943158042829e-03,3.135859668254852295e-01
2.121605051404505671e-01,3.569801253659812823e-01,-2.527927185398395893e-02,-2.713908393983706369e-02,-2.701920016510011430e-02,-1.436580134553471638e-02,3.416945040225982666e-01
3.081268455136029205e-01,3.068632499787878332e-01,-2.897194459549262691e-02,-3.356668672347593030e-02,2.275481621084518569e-02,2.437468737811840716e-02,3.463049530982971191e-01
3.166290793046124263e-01,3.144638634281087808e-01,-2.789363390141044730e-02,-1.229846206984936069e-03,3.220010112489837036e-03,1.883552444770374970e-03,3.435125946998596191e-01
3.155888220562897417e-01,2.972673560955376160e-01,-2.482481600966507385e-02,7.122051725933928323e-03,9.699165326487742267e-03,-6.401480278678020087e-03,3.324719071388244629e-01
2.816001375141111152e-01,3.120279559483254972e-01,-8.508333435205128747e-03,2.089408217906892073e-02,-5.396013470818183770e-04,-1.228844952473741791e-03,3.085955977439880371e-01
3.265005350731242095e-01,3.260150396154869457e-01,-3.158433705899293953e-02,-1.099768526703097252e-03,-1.864323815836574491e-03,1.532878496473506942e-03,3.578718602657318115e-01
3.216175245754158141e-01,3.212563810963691147e-01,-3.501677625204649424e-02,-2.592884017050037216e-04,9.650457431499158325e-05,-8.104964147016400393e-05,3.564542233943939209e-01
3.201700499582629256e-01,3.046689225226776321e-01,-2.563077374166616851e-02,4.228052420599486168e-03,5.992140130845252134e-03,-1.440293690667963564e-04,3.385551571846008301e-01
3.250749259933334301e-01,3.228325625111022612e-01,-3.364593281690514415e-02,-6.413913843462358804e-04,-5.041278603608795924e-04,-3.799379046534857537e-04,3.576083481311798096e-01
3.210638277022258014e-01,3.099146514976118261e-01,-2.471213938780852937e-02,-6.453843096582334918e-03,7.987046422666609427e-03,4.886440976962400443e-03,3.409078717231750488e-01
2.428623995587871620e-01,3.247331179618333508e-01,-9.119204133635649967e-03,3.641822797762279268e-02,7.190825905689673080e-03,-9.053432949393371357e-03,3.085568547248840332e-01
1.937665509832236233e-01,3.826604712750085735e-01,-1.919092126246813024e-02,5.507252475703379446e-02,2.006980493218523190e-02,-7.668104781112494153e-04,3.627220392227172852e-01
2.866798033506464671e-01,3.454524740100782809e-01,-2.864359073553510160e-02,1.569025327856893911e-03,3.368093818666713802e-03,2.313430628565901585e-03,3.485296964645385742e-01
2.386974154395849479e-01,2.644588159630937296e-01,4.522330336340446566e-03,-1.592320568490694088e-01,5.259550925241295027e-02,2.077238228309993134e-02,3.836563229560852051e-01
1.048199558120670727e-01,4.485193882584647684e-01,-2.726930931044405093e-02,-3.713530706408786630e-02,3.296799968669762715e-02,1.893586849945742487e-02,4.352577924728393555e-01
2.511524952820117784e-01,3.682152081719901604e-01,-2.568291851064827269e-02,1.942285395895661237e-02,2.746719061514795238e-02,-1.003839717242884996e-02,3.555924892425537109e-01
3.121225315838846992e-01,3.305491611329743895e-01,-3.229166755851795023e-02,-1.109103416315205788e-03,7.833914440514934191e-04,-2.959537149142036326e-03,3.540323078632354736e-01
2.911153492706959334e-01,2.978054672301285177e-01,-1.042929760302327424e-02,-6.749054489480012936e-03,-8.505290989893754408e-04,-4.386021345015534085e-04,3.051732182502746582e-01
2.855079221201782258e-01,3.732798828553580139e-01,-2.819806137444885730e-02,2.930291824810912077e-02,2.862481757055457959e-02,-1.149241511992066082e-02,3.729346990585327148e-01
1.942512557299677090e-01,3.809494781677308373e-01,1.573290524367634835e-02,2.165656603270577768e-02,5.933294090330433479e-02,4.062191633590010904e-03,3.347712755203247070e-01
2.822166809957185052e-01,3.700398697503164414e-01,7.091843131801417455e-03,5.266549857014252156e-02,3.386669000883162084e-02,-2.177593187482850662e-02,3.474957942962646484e-01
1.300021973293906674e-01,4.271433831214173638e-01,-1.697682426729824057e-02,4.007129009013511191e-03,2.409119137255090470e-02,-4.421877795086170786e-03,3.942299187183380127e-01
1.685554478270253065e-01,3.922880806700836942e-01,1.323753225825685664e-02,-6.934697916312427060e-03,-4.885623653823049917e-02,1.254256229894279255e-02,3.416235446929931641e-01
2.801846791585708152e-01,3.993443765028046322e-01,-3.060954726052589336e-02,-6.904984910223347511e-03,-1.756149931189335614e-02,5.346187897775063133e-03,3.859795629978179932e-01
3.228529778849323906e-01,3.220184224564242581e-01,-3.539924120497639493e-02,-2.324811306723318272e-04,-8.412806767971732318e-04,1.189255720995286705e-04,3.578389286994934082e-01
3.204791839133891984e-01,3.205193729746445008e-01,-3.394621801452998855e-02,5.032912816398682227e-04,-1.515352139393959024e-03,8.257161368880232624e-04,3.544591665267944336e-01
2.205234198907121135e-01,3.626319975982645882e-01,-1.482926326462469246e-02,-1.799729822063118878e-03,-2.007257229812462948e-02,-3.108724788198403022e-03,3.320825099945068359e-01
2.683677561986552718e-01,3.492569311682065525e-01,-2.840327172297929526e-02,2.110573149250089854e-03,-1.703278344345620157e-02,-3.172677616432635021e-03,3.457391560077667236e-01
3.248654901924520333e-01,3.269982563744475157e-01,-1.710339143305145138e-02,6.384777974165019494e-05,6.202941451774067385e-04,-6.001950446479200653e-03,3.431994318962097168e-01
3.256624640946219618e-01,3.265268172588986495e-01,-3.130610329435623562e-03,-1.692683262173555817e-03,1.498199569249751475e-03,-3.794567940834601191e-03,3.293149769306182861e-01
2.780329932104900204e-01,3.400087499004205149e-01,-2.518600237942472675e-02,-4.516423180561928569e-03,-7.282741291891247845e-03,-7.140031959863517470e-03,3.390401601791381836e-01
2.412870341240009875e-01,3.624057104008032715e-01,-3.094543345606573514e-02,3.004654505133577593e-03,-3.762916544141847730e-02,-2.354674839266730508e-03,3.550271391868591309e-01
3.229563761070726180e-01,3.223777651795846633e-01,-3.449102698432332526e-02,-3.915695939752886906e-04,-1.267545396086538481e-03,-1.671775499994566927e-03,3.571775853633880615e-01
3.266587625504023817e-01,3.230505899719633978e-01,-3.450499403175871782e-02,5.889292246898059037e-04,-1.727183337179693644e-03,9.879441521919987354e-05,3.593871891498565674e-01
4.953232914135401455e-01,1.339442692029375881e-01,-9.521402244093352119e-02,-7.845015492796146572e-02,2.503354034951122895e-04,-1.563844729567107072e-02,5.339648723602294922e-01
3.287824121221242790e-01,3.271586647962914651e-01,-2.505700810639513443e-02,-3.175351553681925697e-03,3.002981183866559618e-03,-2.977257332223297564e-03,3.531491458415985107e-01
3.321006849169219066e-01,2.890619557257683159e-01,-2.377204482692560350e-02,2.829598665240919825e-02,5.677529474952286437e-03,-7.513749289856825296e-03,3.403666913509368896e-01
3.461278287346662985e-01,2.533669739044621116e-01,-1.319892631003993788e-02,-3.396157318598833075e-02,-9.635546713401306820e-03,-1.112408742477325428e-02,3.293915092945098877e-01
3.812130249169787821e-01,1.510002897033662639e-01,-1.371175536868002309e-02,-6.806700544835468658e-02,-5.559437224779409034e-03,-4.507346600206855319e-02,3.716634213924407959e-01
3.620675173457126306e-01,2.036435710488911088e-01,-1.254178950329584707e-02,-2.939333102735661174e-02,-5.176084481785464021e-03,-1.426605291546753120e-02,3.307053744792938232e-01
3.689140674159511191e-01,2.294383187277824476e-01,-1.672583137843750012e-02,-9.371977517185397025e-03,1.329844370746857153e-04,-1.722903556114723997e-02,3.399092257022857666e-01
4.137099231613190486e-01,7.654532342828183900e-02,-3.092370895709689593e-02,-6.668391123924961514e-03,-3.635078389624500986e-03,-5.536403946502762956e-03,4.021558165550231934e-01
2.323904948676132620e-01,3.430795104053334654e-01,-1.550750242706638860e-02,1.916715780091865495e-02,1.504270079520856999e-02,-7.228735984396133206e-03,3.210651278495788574e-01
3.330345183224191485e-01,3.183635711575916738e-01,-3.090388356729603658e-02,5.108028122277459776e-04,2.076342925768385409e-04,-4.102215664368707819e-03,3.569011986255645752e-01
2.696756670234037312e-01,3.061610533631684006e-01,-1.279990358040730691e-02,-3.214519634071674042e-02,2.078201072687641676e-02,1.438880742332845387e-02,3.105585277080535889e-01
3.715005615614367929e-01,2.158036137578820401e-01,-6.091402422033764807e-03,1.328031194318796473e-02,-8.351954724392045130e-05,-5.355354149866231074e-03,3.296095728874206543e-01
3.315384655143692738e-01,1.728456686762268324e-01,-2.139221830278195680e-02,-1.793906388325281764e-01,1.904850069754031143e-04,2.380840192705204611e-02,4.381546974182128906e-01
4.093737094735850346e-01,1.630310663575956498e-01,-3.727611931394478328e-02,-7.270540061645659746e-02,-6.120407254517324334e-04,1.094651133225085435e-02,4.078856408596038818e-01
3.301444676585979510e-01,2.765120814418440820e-01,-1.057587866374121166e-01,-2.110860903122289134e-01,1.990065434795739926e-02,1.163971482011276655e-02,5.520653128623962402e-01
3.156772766519778672e-01,3.235373920102843082e-01,-3.267611633819123007e-02,6.427139965709778103e-04,-9.302185806877448406e-05,-4.503208102838871831e-03,3.524373173713684082e-01
3.063706300919771808e-01,3.012680434351631686e-01,-1.716089267126474915e-02,2.897339430832205492e-03,3.822179855979502758e-03,-8.590717164737111857e-04,3.211215734481811523e-01
2.793100387607023172e-01,3.484850004812662938e-01,-3.081182867743134657e-02,2.756011613578840565e-03,-7.269271606031598061e-03,-4.898537033384051283e-03,3.502380847930908203e-01
4.205947599991342600e-01,1.034592513209204034e-01,-2.980627485720352410e-02,-7.992967880882015028e-03,2.283876300331585344e-03,1.525425535578653000e-02,4.018746614456176758e-01
3.796421731774901609e-01,1.651196983306855437e-01,-9.631331562237055444e-03,7.367165740313841651e-03,1.188107831991241188e-03,5.990397438427569159e-03,3.381132185459136963e-01
2.338306866076212409e-01,3.655038447376232069e-01,-3.741552224585573128e-02,-4.880569151806444378e-02,-2.347846255317724215e-02,-1.846738173241807210e-02,3.693927526473999023e-01
3.867615847928473904e-01,1.940636545406987379e-01,-2.340406957170049207e-02,-3.926077673564997220e-03,7.027442567605935407e-03,3.483050978036349860e-02,3.607827126979827881e-01
3.872704847584561572e-01,2.399997771570263061e-01,-3.967180628622166139e-02,4.273473358482891143e-02,-1.352677068863420047e-02,3.200139014172097285e-02,3.875464498996734619e-01
2.674287260887814321e-01,3.432056389084265913e-01,-1.771107250905457065e-02,-3.490297578168401887e-03,5.816612078905323982e-04,4.929854055395989886e-03,3.297943770885467529e-01
3.434973708731476894e-01,2.345947069555523457e-01,-1.806242058159371333e-02,3.389177764459621635e-03,-6.883893507933455148e-04,1.527239532603387635e-02,3.224066793918609619e-01
4.050653041095748641e-01,2.587784897316364185e-01,2.102531681588237777e-02,-1.463011963452215316e-03,-2.595747667393703481e-02,-9.796575266859229580e-02,3.788485527038574219e-01
3.758179751380485989e-01,4.072122859395242434e-01,1.409403891774313466e-02,-8.920830002900217992e-02,-4.510058995751099753e-02,-5.371610051223581206e-02,4.264020323753356934e-01
3.590723225192408163e-01,4.059526258977274038e-01,5.030464909333601242e-02,2.991185767158534986e-02,-8.824593151967574656e-02,-3.454171654762665938e-02,3.763455152511596680e-01
3.090203858465599418e-01,2.966816174031946529e-01,-1.704621116386506596e-02,-2.894067826308650577e-03,-3.772200512393919253e-03,-9.570344070896202046e-04,3.201858401298522949e-01
3.473775950395220358e-01,4.282341962869051777e-01,3.422558841707348809e-02,-6.930756272653205985e-02,-5.966828655844010759e-02,-3.865316180056019985e-02,3.993696272373199463e-01
3.185311075478068910e-01,3.143898310753527880e-01,-2.866133289598860046e-02,-6.289462407169764272e-04,-3.301790384332134454e-03,-1.777438218320371872e-03,3.452032506465911865e-01
3.230139338289182982e-01,3.304345936686350349e-01,-3.290355564918812092e-02,6.360537470161306247e-04,2.393657036108821055e-04,-1.205642535193617764e-03,3.596932291984558105e-01
3.243569366057010295e-01,3.287366559950364309e-01,-3.224507170071749806e-02,4.185732658119414602e-04,-7.531390980101615104e-04,-1.400373478917660416e-03,3.588232100009918213e-01
3.247917489578744377e-01,2.672290405499652133e-01,-8.117687402004442054e-03,7.915973748310442884e-03,3.095343408992494785e-03,-2.112754258035944228e-04,3.085382580757141113e-01
3.253923463855789011e-01,2.455451029616957659e-01,-8.921171891857565539e-03,8.027695082199970411e-03,2.108712268243208027e-03,-1.370750239861324646e-02,3.036732673645019531e-01
3.345935742339642971e-01,2.670625884870726496e-01,-1.055442233786871298e-02,3.130040126802574596e-02,-6.542745017238249007e-03,1.908569175929867830e-03,3.216486871242523193e-01
3.014479100643909781e-01,2.997022186347236827e-01,-1.339067145424627236e-02,1.281209131687823790e-03,2.272151800684716911e-03,-1.360742184682905758e-03,3.140107393264770508e-01
3.599990754278974969e-01,2.292964098958494568e-01,-1.922270223670199951e-02,-1.242624019721767434e-02,-7.471209094171930160e-03,-2.124158775980338268e-02,3.366175293922424316e-01
2.521418028920136556e-01,3.449981244076805176e-01,-1.777457176784674742e-02,6.251418186053675843e-03,1.064975149076251033e-03,-6.099988021626472946e-03,3.267611563205718994e-01
2.779423941858431002e-01,3.136380043401660878e-01,-8.959660174225447804e-03,1.247911210199448111e-02,-2.097255836611306400e-03,2.029301706267127529e-03,3.071169853210449219e-01
3.230214530204885692e-01,3.311226100944854034e-01,-2.200136631492011219e-02,6.358210742668228554e-03,4.698163580717083787e-03,-1.398731508502515982e-03,3.494206964969635010e-01
3.162378504018095171e-01,2.765438673770934108e-01,-1.380889508083382733e-02,9.654918226700153622e-03,9.921135051710260402e-03,-7.520638868018727705e-03,3.132893443107604980e-01
2.196151069401268419e-01,3.507729055076295177e-01,-2.691553042933630957e-02,1.324374390093994158e-01,-1.971107343250075652e-03,1.883703074635086766e-02,4.049806296825408936e-01
2.655833634240059027e-01,3.246070714688843450e-01,-1.655059610594511454e-02,6.105871624282515134e-03,2.296108430691573381e-04,7.224209839076646371e-03,3.162349462509155273e-01
2.848427206536860989e-01,3.145355565367470851e-01,-1.612005707992320014e-02,1.752607880676571722e-02,-1.825177470440371051e-04,6.648381288980189686e-03,3.185135722160339355e-01
2.145108968610758837e-01,3.549329679693471462e-01,-7.775363595476980638e-03,1.371919075771488306e-02,6.577641323853403686e-03,-2.330696184506431015e-04,3.178648352622985840e-01
3.041409818907319096e-01,2.926995156931714304e-01,-1.361518608850190160e-02,4.679289860038713528e-03,5.075501963154547928e-03,-4.195836024426259289e-03,3.125061094760894775e-01
2.847855834284339083e-01,3.246840456790341944e-01,-1.653780988687536535e-02,4.981868564646852252e-03,2.679461989785337085e-04,-6.440023369046127440e-03,3.234333097934722900e-01
2.889200264121393746e-01,3.129567597922490729e-01,-1.691810828140946632e-02,7.495648519886618719e-03,3.320911705244476600e-04,-6.324619241497378593e-03,3.189905285835266113e-01
9.661907377568335065e-02,4.473578049781241628e-01,-1.126946107555810705e-01,6.739299323461704627e-02,-1.860675351288604631e-02,1.739415273744996954e-03,5.048934817314147949e-01
1.381076900725486112e-01,4.615753139496397983e-01,-1.196528541256410838e-01,1.150240378625616289e-01,-3.825214033252267217e-03,-3.899735730198632122e-03,5.424298048019409180e-01
3.148615460437280134e-01,2.924738797820465863e-01,-1.736169207033030903e-02,9.359883098311079161e-03,-6.239158893258181689e-03,5.747950784779739175e-04,3.222054839134216309e-01
2.305742764286148050e-01,3.597930454062073791e-01,-1.618941631365339306e-02,4.026407704643792176e-03,-1.389821452834160385e-02,4.645250927826468507e-03,3.319174051284790039e-01
2.457902245610243119e-01,3.323330063083941854e-01,-9.533341885064217092e-03,1.876275824485596280e-02,7.220865521935065619e-04,-2.930944030521245684e-03,3.096120953559875488e-01
6.273641646769410884e-02,4.687803562183922579e-01,-1.257550257472500044e-01,-4.252816312829407752e-03,-1.295827370506591122e-02,-1.422312255614649815e-02,5.273532271385192871e-01
4.643309995638437160e-01,2.100147230320939806e-01,-3.752362975202316875e-02,-1.041384974745693803e-01,-8.186562645126717330e-03,-4.272953931607338662e-02,4.765689969062805176e-01
3.070435790941220544e-01,3.083129204928437561e-01,-2.064493089297272932e-02,-3.821831112951222303e-04,-2.114906297165877139e-03,-3.173068496575688797e-03,3.283921182155609131e-01
3.250258562324902512e-01,2.843008709137099244e-01,-1.933809585553294963e-02,-5.015392144126419594e-03,-6.113030860616433353e-03,-5.561186589561261870e-04,3.262044489383697510e-01
3.726618883309135155e-01,2.759354603875862066e-01,-4.672521255637490656e-02,-1.476741315566753865e-01,-9.003736869447604221e-03,-8.863603560075761223e-03,4.588873088359832764e-01
3.219250103295699938e-01,3.221853311560378130e-01,-3.401358613679333898e-02,9.285795347408569694e-04,-2.775852306640294413e-03,-1.842450159466694441e-03,3.561192154884338379e-01
3.225956991444887123e-01,3.245611634632986631e-01,-3.486257108848153652e-02,2.327652434002993849e-04,-6.549572816233602225e-04,-1.604955252193386323e-03,3.584578335285186768e-01
3.191253504956603759e-01,3.162298216401318585e-01,-3.203882773776023374e-02,-3.088088059741420695e-04,-2.726527470465298954e-03,-6.326851485716610685e-04,3.497593998908996582e-01
2.461055165188430760e-01,3.432864544717775801e-01,-8.460345558076343142e-03,-7.764065683757878991e-03,1.446536174300579126e-04,2.696621482521431405e-03,3.149437904357910156e-01
3.173985053600895667e-01,3.277406899784112149e-01,-3.262221691852443262e-02,2.588941474357706963e-04,3.421708890986146221e-05,-4.087265073825644031e-03,3.553755283355712891e-01
4.293741541178019983e-02,4.556113148396961909e-01,-5.683192595361163946e-02,-2.283118004418532854e-02,-3.552236452095926950e-02,-4.911890358634559903e-03,4.762851595878601074e-01
1.831477078926727620e-01,5.017562478321887509e-01,-3.250201457900842028e-02,-4.717848598669725085e-02,-3.976177577561602894e-02,-6.275756767976290590e-03,4.777683913707733154e-01
2.018507032514068600e-01,3.976091869165554460e-01,-1.890260824335346368e-02,-3.388253929501671563e-02,-2.897854674279743900e-02,-7.368728197029412487e-03,3.693155646324157715e-01
2.533826089662223890e-01,3.421721359645136795e-01,-1.386756593041638119e-02,-6.322388065078839853e-03,-1.120035331285809330e-02,-7.769713953196512313e-03,3.220444321632385254e-01
3.252895360054213758e-01,3.229813582141041195e-01,-3.499014730151794872e-02,-4.795808077437664716e-04,-4.885597425484037963e-04,7.720632388947233637e-04,3.591355979442596436e-01
3.251707113848507080e-01,3.246603694942423735e-01,-3.521625044133699922e-02,-9.163761184019924167e-04,-1.389700639767605219e-03,1.468466190230927884e-03,3.601525723934173584e-01
2.941822521033650162e-01,3.195550305692602677e-01,-2.417164352943898531e-02,-2.916995290464307038e-03,-7.038474074046997993e-03,-8.608042415658521268e-03,3.323656916618347168e-01
1.829093860070312161e-01,2.867216594341182034e-01,-3.927102575217725211e-02,-1.699521454306786861e-01,1.489133062335486549e-02,2.553852571268180882e-03,4.129675328731536865e-01
3.079233746465218080e-01,2.932253747708301606e-01,-2.204863326380177013e-02,-2.249552214221758537e-02,-1.317431928418270025e-02,-1.769522963317450223e-02,3.274535536766052246e-01
2.368661202718983505e-01,2.928257627719285106e-01,-1.307696871219482526e-02,-1.019385517516114698e-01,-4.677930296217575057e-03,-2.524476604801741998e-03,3.329398334026336670e-01
3.228465924765229200e-01,3.164195683949573290e-01,-2.728168308322706515e-02,-1.445838750471934928e-02,-1.266504801579221122e-02,-1.069800091886111484e-02,3.490451574325561523e-01
3.110923632851264609e-01,2.912749579419980361e-01,-2.040271364319096170e-02,-9.823016892289574212e-03,-6.311065111011058236e-03,-3.541482441581470485e-03,3.227366209030151367e-01
3.270498988311689725e-01,3.119117477353113843e-01,-3.101814123399451728e-02,7.060543330341969778e-03,5.730549607883933007e-03,-8.190276811905960672e-03,3.513839840888977051e-01
3.248355833064605624e-01,3.299044203872539271e-01,-2.505553858052825267e-02,-2.147332766870470398e-03,1.373478292100392727e-03,-3.806920075149035419e-04,3.524811565876007080e-01
3.279577183885588609e-01,3.284768671989982125e-01,-1.438622855832100145e-03,-1.533655412829469265e-03,-1.589372695187968310e-03,-7.352606529625146286e-04,3.296808898448944092e-01
4.981541548294656230e-01,3.070269184978582366e-01,4.178276368785974193e-02,4.519500772059072830e-02,-7.374815681132882578e-03,-7.888386637431815673e-02,4.272451102733612061e-01
3.864167577244734808e-01,2.832255120140142468e-01,-3.493495124051787526e-02,9.721855284580870754e-03,7.736591325801640134e-03,-2.313815291735486432e-02,3.831124007701873779e-01
3.436586114389067470e-01,2.718853156754572620e-01,-1.924427928364594309e-02,3.939288408131451369e-03,3.363254121734406826e-03,2.533315562934531739e-04,3.329922854900360107e-01
3.466479645568483203e-01,2.343684703362178268e-01,-1.795696561890128273e-02,-2.559439090612782713e-02,-6.295057078032550643e-03,2.810053631998130769e-04,3.266345262527465820e-01
3.052912598462321214e-01,3.050868576718143710e-01,-1.922206961273345560e-02,1.665623913146664983e-02,7.316696800022374873e-03,-9.557294618803686276e-03,3.263579905033111572e-01
3.301825868589755020e-01,3.134097080939413082e-01,-3.095954675665252287e-02,6.916589678468382067e-04,4.672540328107687053e-03,8.401110495356900508e-04,3.531524240970611572e-01
3.272655075630902521e-01,3.008105916446094930e-01,-1.646879209640009223e-02,-1.638236979245564703e-02,6.334861116305735666e-03,7.076379726769536742e-03,3.329195678234100342e-01
3.254342978690778487e-01,3.257584760093278908e-01,-3.487410883610669865e-02,1.935367232272281173e-03,9.833538783407763748e-04,9.626486250980616135e-04,3.604940772056579590e-01
3.107847145865385574e-01,2.940738602861400208e-01,-2.400787730437284329e-02,-1.292200057042612246e-02,1.092410562213590348e-02,8.751866606552449399e-03,3.284195363521575928e-01
3.267323150751347827e-01,3.132504890507201711e-01,-3.134929823089172007e-02,-4.159036118821100164e-03,1.041520430898204737e-02,6.252528250818499035e-03,3.522374331951141357e-01
3.269410037063867902e-01,3.266226708691074565e-01,-3.347577677362206794e-02,1.869830158851225853e-03,1.904268543332211881e-03,1.625884820547040003e-03,3.602983653545379639e-01
3.161215778864351900e-01,3.603881010664926610e-01,-2.787625199474944027e-02,-3.321800617919493798e-02,2.833787907460205008e-02,2.026937262586765015e-02,3.774567246437072754e-01
3.332666609626405707e-01,3.445041036029064530e-01,2.246260044312722859e-02,5.961085519254426431e-03,-2.733929071097476737e-02,7.164782807557800760e-03,3.205011785030364990e-01
3.183300214126948968e-01,3.318816392733674459e-01,-3.231393184480904623e-02,-1.522739008630485301e-05,3.940654561652534409e-03,-7.231752099693810210e-04,3.576797246932983398e-01
3.878292554882248888e-01,1.892482825162001558e-01,-1.549925167614127353e-02,-4.825090419151761845e-02,5.361914671234609304e-03,9.270933349112303601e-03,3.596435189247131348e-01
2.991086731038951618e-01,2.966873913754033976e-01,-1.294022809901163029e-02,-5.440330594623938795e-03,1.960071686269145540e-03,2.098419975197385323e-03,3.110278844833374023e-01
3.061650165250839328e-01,3.114974555141613033e-01,-2.547300050631923218e-02,-1.494182288366350045e-02,-7.366761191152403250e-03,-7.605423646898050796e-03,3.358373939990997314e-01
1.691575382479083289e-01,4.052381160974285468e-01,-3.407660027750294973e-02,-1.029067587585958121e-01,-1.487731132709733776e-02,5.838657510926454491e-03,4.213709235191345215e-01
3.431586040816146377e-01,2.890474701627242515e-01,-5.542030325731306384e-03,-5.557985758882090510e-03,6.089398212666388178e-03,1.623597960155967815e-02,3.265674412250518799e-01
2.863262024841041198e-01,3.093091795661324639e-01,-9.683404467065809262e-03,-4.815934818829474724e-03,-9.587931358766173511e-04,-2.869822387938008711e-03,3.083020150661468506e-01
3.093758943068678491e-01,2.810921875884778154e-01,-1.155804609541111194e-02,-1.162485603618650803e-02,1.151463252887326020e-03,3.062547065335930341e-03,3.084783554077148438e-01
3.585757739875531369e-01,3.072845496309046798e-01,-1.480346165074186704e-02,4.035127340867334517e-02,1.670700921534026134e-02,-4.425997888003979641e-02,3.667296767234802246e-01
3.299829332258851222e-01,3.264601357538723936e-01,-2.889252666469568909e-02,7.184024608260608340e-04,-1.751353952491141550e-04,1.379133202974462810e-03,3.571373820304870605e-01
3.435660652786611813e-01,2.422715798815578969e-01,-8.380347225964007718e-03,-6.478986740579079778e-03,1.794817924392172709e-04,-8.875891795920822424e-04,3.140143454074859619e-01
3.273413381497143892e-01,3.240887314574349420e-01,-2.740570387736873670e-02,1.057391785488203968e-03,-2.737377195083421678e-03,-8.531443159194293047e-04,3.531716465950012207e-01
3.250511942010845257e-01,3.272472175560636742e-01,-2.815774105679308414e-02,1.353310733069152403e-03,-6.029193949529265293e-04,-2.716380661507088699e-03,3.543525934219360352e-01
2.355173488641811030e-01,3.512361817660252239e-01,-1.515530789155747349e-02,-4.236553616446124548e-02,-1.111516831265387667e-02,-7.900302579451321666e-03,3.334330320358276367e-01
3.276362273803861136e-01,3.272437432609978103e-01,-1.959807119422513066e-02,1.688025878418915847e-03,1.866931245018662103e-03,-1.418803277594520452e-03,3.470743000507354736e-01
3.260812251948685403e-01,3.249503458472881023e-01,3.844235678798763045e-02,4.671391671719949843e-04,2.407543906500529858e-03,7.726696337192770145e-03,2.874182760715484619e-01
4.593153609796301606e-01,3.010841181388033139e-01,9.035475207798515651e-03,-8.287367584311795821e-02,-1.233737254360712209e-02,-7.591790536499812281e-02,4.414658546447753906e-01
3.088748521514705914e-01,3.217734492092009235e-01,-2.630861949402873989e-02,6.906672133704781389e-04,7.931187934893892035e-04,5.799959280719964999e-03,3.419677913188934326e-01
2.039482001717550785e-01,3.366393541471384143e-01,-8.883656265777084560e-03,-4.487123846294738955e-02,-8.346648027119346613e-03,-5.747396570824111171e-03,3.122397065162658691e-01
3.424410397501499448e-01,2.156894626438647100e-01,-1.354340955314856099e-02,-4.928587864708264960e-02,1.997850648754391500e-02,2.590007988934940608e-02,3.288866877555847168e-01
3.724080497712955462e-01,2.223105623942626674e-01,-3.175364492419055495e-02,-1.646650918227030580e-01,-2.895907615892924850e-03,6.363803277049902458e-03,4.546456933021545410e-01
3.288053888141003744e-01,3.264478721326759536e-01,-3.024407147781857375e-02,1.539141414960478469e-03,1.545870726164258685e-03,1.966792245980498316e-03,3.579126894474029541e-01
3.280801169460105804e-01,3.275148960300778844e-01,-3.022203819903224176e-02,1.720948370624650250e-03,1.725868910429497610e-03,1.694356151110167942e-03,3.580567836761474609e-01
2.841834994477148713e-01,3.111932415045836064e-01,-9.363290037049359915e-03,-2.240877594134493833e-02,1.117683374350400462e-03,1.718009680497162468e-03,3.103980123996734619e-01
3.294685014542983459e-01,3.274719149362397275e-01,-7.878628305385826369e-03,3.941913275998948536e-03,3.772271796949725180e-03,2.017994164373945829e-03,3.365041613578796387e-01
3.033031588916755839e-01,3.128054481171855805e-01,-2.221396772555053745e-02,-2.554850826791983404e-03,3.474460478615414190e-03,4.959277072303684523e-03,3.305668234825134277e-01
3.074779726923303480e-01,3.025528474844429994e-01,-1.692786304594134927e-02,-2.070638537828361028e-04,2.858453385100752017e-03,7.152888255799190031e-04,3.220121860504150391e-01
3.279940859057424163e-01,3.262345608197425029e-01,-3.113436582391754248e-02,1.341743271324383159e-03,5.374118940646511848e-03,2.917455522528587027e-03,3.584159910678863525e-01
3.311596161732531240e-01,3.238639746873380743e-01,-2.817191961996809435e-02,-3.599735111109434761e-04,2.684595123948363375e-06,-1.407093522937562062e-03,3.557487130165100098e-01
2.444794511860665931e-01,3.694278295561508885e-01,-2.994814502990369998e-02,-1.307628454865829570e-01,2.088547137793286129e-02,2.347791725194633625e-02,4.236400425434112549e-01
3.300777346540233470e-01,3.157415645758157585e-01,-2.615238137064834767e-02,-1.828011778017766252e-04,3.015104047346652428e-03,3.054109344341946180e-03,3.493619859218597412e-01
3.260499896031538447e-01,3.284082240164605260e-01,-1.590074716693778978e-02,2.209670675816390647e-03,2.720603159244730507e-03,3.214775339608042654e-03,3.432348072528839111e-01
3.130644066597361164e-01,3.328960397111668801e-01,-3.137317686371868253e-02,-1.778636704212068105e-03,1.533981068328369238e-03,1.842548675770876165e-03,3.548070490360260010e-01
1.289660340611863965e-01,3.613301032027044224e-01,-1.602146886664934655e-02,1.258321611855216793e-01,1.754758785435608925e-02,-8.327422367609900108e-03,3.966576755046844482e-01
1.729099296482244086e-01,5.119810868864067555e-01,-1.203703476928519311e-02,2.938294403398247073e-02,3.439184752200286771e-02,-1.314131693098114298e-02,4.674840867519378662e-01
2.904966045137892250e-01,3.505074836724973997e-01,-2.776628301938463550e-02,2.391983054887404821e-03,-7.618348897297545774e-04,-2.361878389938301464e-04,3.521517813205718994e-01
2.501941020152445572e-01,3.596687775916956875e-01,-1.211655045766510397e-02,-3.928883301094953859e-03,4.072460019582593155e-02,7.259889131255286426e-03,3.386559784412384033e-01
1.325086639536975364e-01,4.895389951863722278e-01,-9.477341875939399030e-02,8.744650554872407389e-02,8.248934875604376632e-03,8.478254539050959857e-04,5.323733091354370117e-01
1.270091391143004234e-01,4.874422918723569365e-01,-1.006894686375739423e-01,-7.903886875171080295e-02,-3.605425333520964745e-04,-5.041923399064482218e-03,5.316454768180847168e-01
2.098586793815923335e-01,3.643192449558523283e-01,-6.567600210803575811e-03,-2.545163616579626358e-03,-1.288119870561802664e-03,-2.027122736214723858e-03,3.227452039718627930e-01
3.481580757810759374e-01,3.621590063335857756e-01,-1.270120111424494214e-03,-2.864560027082858895e-02,-3.181542126490901831e-03,9.915971334038941459e-04,3.601158559322357178e-01
3.275313024660198580e-01,3.306316553990092943e-01,-8.306559702866339601e-03,-2.825605789128821446e-03,-4.437303811413649893e-03,-1.726079676448341290e-04,3.375218510627746582e-01
3.260238029378842439e-01,2.998282909573929400e-01,-2.445582935333984187e-02,2.740662075399426766e-03,7.756387062865507942e-03,4.928410540372896642e-04,3.384448587894439697e-01
3.295272721507515601e-01,3.248236985969316093e-01,-1.573818651009958880e-02,-6.152974992721308009e-04,-9.488514252627814911e-04,4.119401711715188485e-03,3.430176675319671631e-01
3.271858225632496842e-01,3.230265972528438834e-01,-3.401633724161495786e-02,-6.019281452990486725e-04,1.542603247685656303e-03,-7.658938868104768526e-04,3.591545224189758301e-01
3.632121803323439257e-01,3.521845608419538753e-01,4.707657335318155001e-02,3.521458100110055195e-02,1.497405886339166561e-02,-6.001339358813112534e-02,3.343273699283599854e-01
3.210395090956157937e-01,3.213495110019707335e-01,-3.364048091852608890e-02,4.119468816992031797e-04,2.068238988631144852e-03,-2.200522789261478984e-03,3.548743724822998047e-01
3.233560295161806986e-01,3.175596295581252226e-01,-3.225336528538272352e-02,2.046175555514128525e-04,4.411387703074452077e-03,-2.527936819171835449e-04,3.528301119804382324e-01
3.255358540416004587e-01,3.228138539637616100e-01,-3.354424301554759236e-02,-8.037861921379590990e-04,3.133992550794083027e-03,-1.855000157788446900e-03,3.577851951122283936e-01
3.270009654785077657e-01,3.220393713223645982e-01,-3.409434572505631866e-02,-2.976052969081204253e-04,1.679977538516972801e-03,2.446726151427277624e-06,3.586524426937103271e-01
3.189809512259543789e-01,3.232659552332823871e-01,-3.186214283989013962e-02,1.454893546537051961e-04,4.223853272796471788e-04,-2.579746855244174041e-03,3.530342280864715576e-01
3.296616432865030477e-01,3.266217501477788332e-01,3.883979354187019895e-02,-7.354969794245251862e-04,-2.084673663839394474e-03,-6.787766448586353592e-03,2.895779609680175781e-01
3.272806054283006194e-01,3.268095562460953674e-01,2.168287568709639790e-02,-1.667496457478351724e-03,-7.037409982678162479e-03,-3.354749221522164513e-03,3.056745231151580811e-01
4.933630567824815460e-01,2.356588190120366688e-01,-3.033422616057657173e-03,1.953324337316273557e-02,-1.881798424005203668e-02,5.221061254393756512e-02,4.419075548648834229e-01
3.283261788211668808e-01,3.286201023196471116e-01,-3.771661929809072555e-03,-5.820590342424904673e-04,-1.176186071271549064e-03,3.947818001581005799e-03,3.323230147361755371e-01
3.266463283166509690e-01,3.274051350062683330e-01,2.120939218380349378e-02,-3.359745806225764454e-04,-3.512304745917454053e-03,6.303031725784217186e-03,3.060728609561920166e-01
3.597533499548444258e-01,2.583282051568098758e-01,-1.979631777426099637e-02,3.467753496386783742e-03,-4.857646038653379295e-03,1.207286794110280781e-02,3.411645591259002686e-01
3.380719420666647990e-01,2.959673284704291696e-01,-2.748998279820327739e-02,1.854028899084928222e-03,-7.399345745095734124e-03,-1.635964657393261035e-04,3.466859161853790283e-01
3.304534741223905669e-01,3.139587783788240771e-01,-3.257759166906426529e-02,1.066876052112646252e-03,-2.683029638248086730e-03,-8.458930818093642013e-04,3.551094233989715576e-01
3.284767431129304027e-01,3.183664178002209022e-01,-3.217335680094940420e-02,-1.017428017952945625e-04,-3.388119636755106742e-03,2.647374738347817429e-03,3.557807207107543945e-01
3.293288549718905167e-01,3.262286249797142768e-01,-1.331798741871542680e-02,-1.687935974334414582e-03,2.789979811470315579e-03,-2.201862200230434406e-03,3.411753773689270020e-01
3.194136117291045407e-01,3.081894961701056035e-01,-2.979249438411865625e-02,-2.870361700961177650e-03,-4.554659644738914999e-03,-2.885210165818989647e-03,3.438942730426788330e-01
3.184324491860008322e-01,3.019862751496878994e-01,-2.394920827321214696e-02,-4.601035153494163407e-03,-9.494476766511425470e-03,-9.312747536601832538e-04,3.349646925926208496e-01
3.150568626381156090e-01,2.963591378120675746e-01,-2.247735740437664664e-02,-8.983690349989938845e-03,-5.294029110498226463e-03,-8.247014328088166438e-03,3.293904662132263184e-01
3.341502380079849899e-01,3.001682875338386181e-01,-1.899493162826812465e-02,-7.564126952657841685e-02,-3.328626681447494767e-02,-1.754762711558146421e-02,3.678018748760223389e-01
5.212877617996187762e-01,1.099608015415056428e-01,-1.007413752831360920e-01,-4.090896951141993060e-02,9.129870737468695485e-03,2.389142622591633111e-03,5.527572631835937500e-01
4.824136926877030107e-01,1.411655794648975226e-01,-9.374521429165949549e-02,8.534529096128376513e-02,7.206392846088166375e-03,-9.067004241830357858e-03,5.234979391098022461e-01
3.559461181427691079e-01,2.304201364103819483e-01,-8.112590963369775698e-03,-3.495876566290294363e-02,-1.650545338181252757e-03,1.476226904013595940e-03,3.260026872158050537e-01
3.246184771371588562e-01,2.554742051897042066e-01,-1.203772019123230952e-02,-1.810155076899512203e-02,-7.132283543169243636e-03,-5.463791062252198148e-03,3.099445700645446777e-01
3.529126011514939210e-01,2.152871431027496008e-01,-7.181149232715289266e-03,-1.831072496866882615e-02,2.762762675630383875e-03,3.080232652850904869e-04,3.163530230522155762e-01
3.151383095840682436e-01,2.927743197904747463e-01,-1.431317368081833075e-02,1.804510565726877985e-02,-7.282815397957101942e-03,5.897814362349393900e-03,3.207973241806030273e-01
3.608752632306242436e-01,2.177030640673721651e-01,-7.716744342172787707e-03,1.808818955904925585e-02,-2.031810076202886228e-03,1.015627066444653795e-02,3.238666355609893799e-01
3.386163198309236622e-01,2.914615124623567977e-01,-2.949720082190615544e-02,2.953588542135686217e-03,-3.194144266993068169e-03,-1.303412124348520083e-03,3.470370173454284668e-01
3.447589651181408588e-01,2.904104105024105653e-01,-2.971315318082251578e-02,-4.079031235862513004e-04,1.520219515452207347e-03,-2.692089989592740158e-03,3.505143225193023682e-01
3.298318835737492627e-01,2.954084533676748503e-01,-3.201819325700763774e-02,1.103755528134542016e-02,-1.268159867634948562e-02,1.439765765022707131e-02,3.480433225631713867e-01
3.323259430707627970e-01,3.145846142677974355e-01,-2.626046971906492722e-02,2.800280196936528326e-03,-3.865141943940521123e-03,3.744140663735340529e-03,3.502107560634613037e-01
3.055575882172353319e-01,3.064378165006909072e-01,-2.330872930153424227e-02,9.462667811862932044e-03,-4.162257315787277340e-03,5.258999992782498016e-03,3.299194872379302979e-01
3.300574438496853835e-01,3.247177446527743649e-01,-3.183761750956023984e-02,-4.470904093029335908e-04,-6.292270253903613610e-04,1.180170503768403862e-03,3.592632710933685303e-01
3.320035623774235667e-01,3.188243268674679221e-01,-3.124739994277875299e-02,6.737101837479088145e-05,-1.330542509423912655e-03,2.716207741592356097e-03,3.568823933601379395e-01
3.305240116262385675e-01,3.227872611514869261e-01,-3.244462409205045583e-02,2.839209688620337384e-04,-1.871181118264855238e-04,-2.288246976512371851e-04,3.591634631156921387e-01
2.598134968217967189e-01,3.056053006760525159e-01,-9.360521727883180931e-03,-3.769574790766976741e-02,3.709593006715225776e-03,5.021046139513233794e-03,3.020882904529571533e-01
3.329423017663697970e-01,2.769513966076746492e-01,-1.852927901770975994e-02,-8.557805550193578123e-03,-7.767182725177495389e-03,-7.597710291858106833e-04,3.277048468589782715e-01
2.905710378466551669e-01,2.295993192520172088e-01,-9.457173157934750662e-02,-1.612415129426731375e-01,1.197919382299760145e-02,2.418731312213538015e-02,4.568935930728912354e-01
3.567544390531092735e-01,2.217858309977718823e-01,-8.025759563295792320e-03,-1.235945556098307085e-02,-1.029441749990824733e-03,4.910440295930992892e-04,3.201709091663360596e-01
3.454583292857511534e-01,2.664646702530172884e-01,-1.844400300773102463e-02,-9.432121484603955830e-03,8.534468836016145116e-03,-9.110047646291243202e-04,3.322752118110656738e-01
4.331930771380056999e-01,4.808274444389701308e-02,-3.245494269046578228e-02,-1.552097854180573000e-02,-8.043868621539176922e-03,-3.307286915148240081e-02,4.359018802642822266e-01
3.122573803237033152e-01,3.026875557588305510e-01,-2.307347330829001564e-02,-1.700098183604318788e-02,1.002807751966284383e-02,1.061491415480074127e-02,3.329205811023712158e-01
3.212365848003844171e-01,2.970288050688267845e-01,-2.532911027603088061e-02,-4.442499835328559722e-03,8.174456953665197242e-03,3.740435369690349367e-03,3.355679512023925781e-01
3.254667045203868958e-01,2.827002842653307813e-01,-1.617321251750777900e-02,-1.840127325918277171e-03,8.200773899627478158e-03,3.894955494341996449e-03,3.227902054786682129e-01
2.624506858380072916e-01,3.554892818883852446e-01,-1.732252335277059685e-02,-1.870998484321923297e-02,-1.451158540672431007e-03,5.516541041903103189e-03,3.377968966960906982e-01
3.193682198371691205e-01,3.063717281432868367e-01,-2.665047216406268848e-02,-6.768021642858744469e-03,6.468021262046899818e-03,1.997266777090109854e-04,3.400939106941223145e-01
3.240936576385899381e-01,3.156497646353899067e-01,-3.187576953730900109e-02,1.742967083045029401e-03,4.197128618969796915e-03,4.670076708566507986e-04,3.519124686717987061e-01
2.633289583802356781e-01,3.390408990956297330e-01,-1.860337894110261625e-02,-4.493868987311094680e-03,4.067206406871167043e-04,-4.484036478628102701e-03,3.266269862651824951e-01
2.902619502209647928e-01,2.461376613860349338e-01,-4.508678886464856372e-02,-1.417529618244659784e-01,-1.378272449919828307e-02,-7.435069616085480254e-03,4.007818996906280518e-01
2.718290299804411725e-01,3.423883776312551808e-01,-2.474154158874258824e-02,-4.615464930669298249e-03,-1.226218490977751090e-02,-8.936690134581072587e-03,3.385456204414367676e-01
2.635366763716642247e-01,3.627080948428099694e-01,-2.408580606878049646e-02,-8.487741372813660534e-02,-1.439778332030510789e-02,-1.153219499166372418e-02,3.791028559207916260e-01
3.224194878686229560e-01,3.280836351418253694e-01,-3.147796931282514921e-02,6.304592905912336821e-04,-3.173413173823300733e-03,-3.596952767560169986e-03,3.568616509437561035e-01
4.781603363388972627e-01,3.388255395080622123e-01,4.062736023239549299e-02,-5.467471560619177606e-02,-4.907312555303544599e-02,-8.054822712806346263e-02,4.307461678981781006e-01
3.245086603079062604e-01,3.177203409166356463e-01,-3.014791917655904041e-02,-7.267368868819956695e-03,-5.966458217521830414e-03,-3.167664898326925590e-03,3.517316877841949463e-01
3.465612660063286388e-01,3.050633022455829790e-01,-2.369587390249203174e-02,-1.047966745949936024e-02,-2.197104931089883433e-04,-2.202719048698681403e-02,3.538823425769805908e-01
3.282056973424937185e-01,3.213634379287556575e-01,-1.282257972598127571e-02,-5.960874045857962079e-04,2.044942794618647038e-03,1.626770479331919681e-03,3.376910686492919922e-01
2.617585733230402001e-01,3.119291409070633625e-01,-2.611990772005856609e-02,-7.166560213153298775e-02,-1.450574076022281313e-02,-1.437094081303514140e-02,3.413104712963104248e-01
3.390580149469687443e-01,3.245092411110188091e-01,-2.914414467239545559e-02,2.692968909721787495e-03,-2.536963525305351019e-03,1.700769859924909904e-03,3.612164855003356934e-01
3.257566685771774440e-01,3.017552855810404777e-01,-3.085768056922971736e-02,-5.461021308933798613e-03,-5.567690254418876730e-03,-3.646565024227145513e-03,3.455618321895599365e-01
3.264377741943176869e-01,3.264292633420278200e-01,2.593229830570087380e-02,5.925091384753929785e-05,1.017959347266601897e-03,-5.039163105620201102e-03,3.006331324577331543e-01
3.250117868465415283e-01,3.256597559319891477e-01,-2.752025605081021009e-02,-2.507168022522960650e-04,-4.264132484805815623e-03,-8.106959399073004847e-04,3.529368340969085693e-01
3.276713499346538550e-01,3.296142962546325661e-01,-2.366192560492139108e-02,2.180912909746081547e-03,1.821043762095592416e-03,-5.488725071361007452e-04,3.523444235324859619e-01
3.279123191226814282e-01,3.260864508488752200e-01,-1.301684287416157715e-02,6.243263516950712036e-04,4.963895992347703862e-05,-1.164911695049650892e-03,3.400276303291320801e-01
3.191224308833003898e-01,3.196382001401716910e-01,-3.225460892355055953e-02,1.542462628658568431e-03,2.646689124596329160e-03,-3.247714887955424970e-03,3.517202138900756836e-01
4.715206816672787848e-01,4.346545950703118999e-01,4.055342385806248728e-02,-1.696846556289146116e-02,1.348296540333533688e-02,-5.044446914946224686e-02,4.245549440383911133e-01
3.253039303332361798e-01,3.252123860842759950e-01,-3.376668205606528361e-02,-9.377504915407748783e-04,4.008311133134076867e-04,-1.399982035787721664e-03,3.590373694896697998e-01
3.263372820280184827e-01,3.196224399598538990e-01,-3.413576220486427837e-02,-3.585079781787275130e-05,3.242347864868036153e-03,-1.743958299313946555e-03,3.572199046611785889e-01
3.318598924505039016e-01,3.243485771867362644e-01,-3.269780283836021262e-02,1.070473498901261403e-03,2.426522854876923124e-03,-3.945086013984255369e-04,3.608905673027038574e-01
3.224414251552329969e-01,3.246612433209261073e-01,-3.501855151638816332e-02,1.251504717266847116e-03,-2.179991627469118377e-04,-1.449654099805480160e-03,3.585905730724334717e-01
3.241205487438243438e-01,3.264411585147645734e-01,-3.494223095195239659e-02,4.624541311152930486e-04,-5.509388056498669721e-04,-1.765017877224618918e-03,3.602438271045684814e-01
3.240157771276493959e-01,3.292250967910278492e-01,-3.209804079887615402e-02,1.434403957544784893e-03,-5.661414304694585402e-05,-1.828690738496856118e-03,3.587694466114044189e-01
3.261560967287886470e-01,3.286815157499319850e-01,-2.954171956135628885e-02,1.468652975356245617e-03,-2.195346988244453647e-03,6.527883603882648697e-04,3.569983243942260742e-01
3.192715948657064429e-01,3.286639771815956790e-01,-3.362388484619779905e-02,4.264425634646722401e-04,-2.398482824885850555e-03,-3.205879830062111947e-03,3.577521443367004395e-01
3.132141266635959931e-01,3.199786879154289942e-01,-3.028776664124227525e-02,-7.874735401203101452e-04,-2.422655117992523425e-03,-4.711354611280227020e-03,3.470576405525207520e-01
3.075404636813830472e-01,3.260340386256536105e-01,-3.133228150040678894e-02,-2.143205237161633237e-03,-5.249784325178654364e-03,-6.435932379516732388e-03,3.488042950630187988e-01
3.404411432530755621e-01,3.258888051303222011e-01,2.729473605379417744e-02,-2.813605752206807531e-03,-2.340529447963098520e-03,-3.513206479734780601e-03,3.062558472156524658e-01
3.335326711199513294e-01,3.209521831592919705e-01,-2.214986605835755906e-02,-1.174239455216564976e-02,-6.535176883304283195e-03,-8.703826219665351457e-03,3.506604135036468506e-01
4.418548091791276722e-01,4.664732845457045252e-01,5.283726511010217175e-02,-2.414032526226935491e-04,-5.825033455981047659e-02,3.726804379831325040e-03,4.144138991832733154e-01
4.940399070256399905e-01,4.244401856614095081e-01,6.093514911652564425e-02,-1.656045743652849109e-02,-2.348184078070501488e-02,-7.023944378074219175e-02,4.237423241138458252e-01
3.618697184187964488e-01,3.311243077704645321e-01,4.414262356033180068e-02,7.200587801827969953e-03,-1.954639025899551283e-02,-1.145379594037143275e-02,3.063044846057891846e-01
3.282704415352293292e-01,3.248672691953016223e-01,1.924546380168259962e-02,-1.449599024575603037e-03,-9.581126690469056635e-04,8.506972799938939539e-03,3.077052533626556396e-01
4.597605387572893942e-01,3.268053677951193725e-01,3.991331276754842006e-02,1.531346654891320783e-02,1.705227616803118781e-02,-9.104309168384129569e-02,4.056726396083831787e-01
3.268525739454516410e-01,3.282736966223830932e-01,1.775080107816554009e-02,1.638457727031377657e-03,3.900117972863624549e-03,-6.300108467812461088e-03,3.100934624671936035e-01
3.210295450845344067e-01,3.233615729040575371e-01,6.249347391516399397e-02,1.168478993277309499e-03,1.076918787658578177e-03,1.278661104455145435e-03,2.597339749336242676e-01
3.808846035972565103e-01,3.499596869049446668e-01,4.075454228013142277e-03,-1.479946133901193991e-02,-3.189943743525697380e-03,-9.793601425480828390e-03,3.636812269687652588e-01
3.247942220538757585e-01,3.250703477371141847e-01,-3.022475928502063591e-02,3.722622358457769302e-04,2.754622014899470953e-04,-5.560763735022395196e-04,3.551593422889709473e-01
3.315553777602258667e-01,2.765520890375269825e-01,-1.939834577457499876e-02,-7.417750309281191667e-03,-6.254240536313668275e-03,-6.810602046576834205e-04,3.273745179176330566e-01
3.130838021222434597e-01,3.118519895707912437e-01,-2.803148726621507159e-02,-3.989877420714831209e-03,-4.532775927050215412e-03,-3.144686201055116401e-03,3.407051861286163330e-01
3.281749813758093048e-01,2.828130205496197647e-01,-2.509337789052101808e-02,-1.937046105357603451e-02,-7.953445488758769527e-03,-2.490963562431406471e-04,3.348834216594696045e-01
3.787658393197762541e-01,1.563209671572562964e-01,-6.698642059919907021e-03,-5.351112726209943105e-02,-1.009873953810064631e-02,-3.816638018716668468e-02,3.543815612792968750e-01
3.072021535985669516e-01,3.102047296178325198e-01,-2.423751370920959602e-02,-7.090823020736420831e-03,-7.549907093122872710e-04,-4.291152553411438537e-03,3.332630097866058350e-01
3.225776083238218184e-01,3.225040337334851848e-01,-3.533946266099219358e-02,-3.506397365900897328e-04,-8.647785375375034072e-04,-5.091030011577636714e-04,3.578850328922271729e-01
3.003433145646827729e-01,3.308396852984426539e-01,-2.719363473097508033e-02,-8.752608310609274241e-04,-1.749128541205034314e-05,-6.882945336809772469e-03,3.440110385417938232e-01
2.872762500632142779e-01,3.311913811319373568e-01,-2.529323839280539499e-02,-3.685666134786854189e-03,-7.140727230228138996e-03,-1.021792349219068606e-02,3.374339938163757324e-01
3.224446873542821668e-01,3.274481773536997986e-01,-3.288477034485429162e-02,1.048955216162573154e-03,-3.321866098703172188e-04,-1.563908394098998149e-03,3.578727543354034424e-01
3.222433866705516348e-01,3.292097848393032988e-01,-2.734316242863421564e-02,-3.106282067984621979e-03,-7.697335685439546729e-03,-4.657997600557049929e-03,3.535059094429016113e-01
2.945002950127448282e-01,3.580904081532066963e-01,-2.692871287468959207e-02,-3.026547196527875228e-03,-1.820518615558074094e-02,5.829231399033692196e-04,3.589189350605010986e-01
3.396263979451698556e-01,2.758676822696915498e-01,-2.161818909061380412e-02,8.554600862747871459e-02,-9.916194499786515695e-03,3.028522594703087975e-02,3.695013821125030518e-01
2.945111972261524325e-01,3.359102214124575214e-01,-2.530868535171496014e-02,2.449893045357797589e-02,-1.598090338043129527e-02,1.656960166276156415e-02,3.473172783851623535e-01
3.283535184415081742e-01,3.277090010285283461e-01,-9.685945461356176844e-03,-3.159750577633037663e-04,-5.525289568194672804e-03,3.962052761348725145e-03,3.379233777523040771e-01
4.505160665909315743e-01,3.399768569151356834e-01,3.654780168980090171e-02,7.610275813851526128e-02,-4.982493864917435233e-02,6.404504363741957140e-02,4.182782471179962158e-01
3.265696410881417378e-01,3.276132434314488195e-01,2.498572824554484706e-03,-2.741886094747621010e-03,-3.369025335298814639e-03,2.969580243227368244e-03,3.247220516204833984e-01
3.281840916084707294e-01,3.256139308662674425e-01,-3.050491360232743254e-02,-1.325536084303681212e-03,-1.754242378239536954e-03,4.695968987499064308e-03,3.575236797332763672e-01
3.426791679012873848e-01,3.070462385676424599e-01,-3.021534798578756620e-02,5.464758680504974101e-04,-2.036374765981057312e-03,3.941392345856479032e-03,3.565005362033843994e-01
3.255440712390818558e-01,3.269197660501804714e-01,-2.768889359561055308e-02,-1.756320024710082955e-03,2.709758657632359638e-04,2.195487011690217243e-03,3.539566397666931152e-01
3.142055907979611207e-01,2.419205171044983005e-01,-3.038349334856210726e-02,1.326260801999664118e-01,-2.724966847640837575e-02,6.665223380017835410e-03,3.926678895950317383e-01
3.238897432469032278e-01,3.282608135395887472e-01,-2.959644650228074325e-02,9.911120937059084233e-04,1.568648961231073214e-03,-1.075643180465673480e-03,3.557112812995910645e-01
3.230820942916062810e-01,3.274956965430713129e-01,-3.402412873066198995e-02,-3.708732955423944697e-05,-1.622853229986264247e-03,-2.473784465031298764e-03,3.593699038028717041e-01
3.190619148603482946e-01,3.275897340733874841e-01,-3.406422990596949529e-02,-5.747699233988650064e-04,-1.162966143025725464e-03,-2.327068234487904633e-03,3.574961423873901367e-01
3.238322724694947530e-01,3.304533461306966569e-01,-2.865979757569075970e-02,6.730506457473449345e-04,1.393642333413408051e-03,2.688297679791139478e-04,3.558592200279235840e-01
3.176373627388838217e-01,3.276309935752387270e-01,-3.156594222953684747e-02,-1.896616423073314069e-03,-5.190095204065038777e-03,-5.329739717425457587e-03,3.545552790164947510e-01
3.239724208861142762e-01,3.290957305836457736e-01,-3.316193017365864915e-02,1.306584636663708906e-03,1.180235904652892492e-03,2.979559155112866025e-04,3.597366809844970703e-01
3.191867624632740430e-01,3.318803898934667984e-01,-3.298408528066523737e-02,-7.807655367137678265e-04,-2.480659135151082242e-03,-2.049381899469920280e-03,3.587320148944854736e-01
3.346359552726687614e-01,3.107236102864439631e-01,2.351129240456961700e-02,4.709740230923200460e-02,-4.640675514981242727e-02,7.069229505118888868e-02,3.435667157173156738e-01
4.832870201708136526e-01,1.201994753092053697e-01,-2.360736299260313142e-02,5.557731607272352325e-02,1.611711011945740971e-02,3.660427214267885504e-03,4.634796977043151855e-01
3.121494116299776134e-01,3.589344058084602551e-01,5.372106527274056464e-02,1.738482254195304610e-02,-5.502297895252033361e-02,1.539960982132115158e-02,3.029279410839080811e-01
3.302407945681039569e-01,3.182173475940416330e-01,-2.618172746276542506e-02,1.868215938382726017e-03,-4.042596310529237603e-03,3.660464284404932756e-03,3.507076501846313477e-01
4.365886562838997564e-01,9.360644805810189317e-02,-1.508106577276291382e-02,2.039888263146859282e-02,-5.896108681898644052e-03,5.179496760931744104e-02,4.196766018867492676e-01
3.347318713736840423e-01,3.149780342292053947e-01,-2.457336721302630367e-02,1.410840347242507545e-03,-3.974080347323310255e-04,2.573223501242260288e-03,3.498844504356384277e-01
4.387157572910256875e-01,9.373791295797566370e-02,-5.663298637015232173e-02,-1.137995137777439349e-03,1.295972726247856567e-02,1.022459976751297593e-02,4.408141672611236572e-01
3.124990333981256252e-01,3.331291379110211670e-01,-3.135738341604166202e-02,4.985397700387097630e-04,2.077469521719695848e-03,3.058266364125958900e-04,3.546415269374847412e-01
3.259939214220831660e-01,3.208504006883704518e-01,3.079846618158424421e-02,-2.536040006712278992e-03,-3.635705634491549938e-03,1.191334368527474869e-03,2.927655577659606934e-01
3.271130267683153847e-01,3.291866495748625443e-01,-2.410041945032131983e-02,-3.527556455571639925e-04,-2.804532916039277190e-03,1.707965926448127506e-04,3.522889912128448486e-01
2.802566111700368623e-01,3.574265668507802807e-01,-2.634637240712225936e-02,2.574129356003421274e-03,-1.372257669536324637e-02,-3.741704685649593735e-03,3.524882197380065918e-01
3.270445955859309084e-01,3.270914793111514562e-01,-1.696088687358685010e-02,-2.150296682006069566e-03,-2.616951900050570705e-03,-2.169928935039233762e-03,3.440994620323181152e-01
3.205640172902361473e-01,3.169737220537613975e-01,-3.081526350932620173e-02,3.661802838344298955e-03,-5.740896493528578788e-03,4.473883930446117402e-03,3.498826622962951660e-01
2.966721954954226192e-01,3.421071583930292981e-01,-2.718681749526052904e-02,2.386286085520896230e-02,-1.157102097823800232e-02,1.378985676681064240e-02,3.526244163513183594e-01
3.169333882056325491e-01,3.287581067813947211e-01,-2.915790162588430268e-02,3.408365606898728327e-03,-5.818269838165178801e-03,3.092243966148724987e-03,3.523868918418884277e-01
3.335400479366782966e-01,2.603887289356975332e-01,-7.402573164877690459e-03,-3.134071116194044049e-02,1.180941750106888517e-03,-2.026244306286221607e-03,3.156197071075439453e-01
2.756795412107239662e-01,3.388137331660296958e-01,-2.440963331980858242e-02,-2.626310613018920971e-03,-1.348332246109616717e-02,-8.946847122921300702e-03,3.373300433158874512e-01
2.278918561701503975e-01,3.526516234030353525e-01,-1.780428802814357225e-02,2.018779723274828977e-02,-9.698645956271068069e-03,6.417133520208278576e-03,3.289573788642883301e-01
2.144308947793345799e-01,3.508229144941409916e-01,-8.587918612483258496e-03,1.319090394234764124e-02,-6.613035047826770936e-03,2.501440696533085289e-03,3.153254389762878418e-01
3.314508926945708978e-01,3.297790757792282701e-01,8.098298039038276386e-03,2.106958439175476722e-03,4.439004180792982014e-03,6.142906363438755714e-03,3.228076100349426270e-01
1.828164004114574692e-01,3.811063067252800640e-01,-2.103469926138618051e-02,2.123109272980702386e-02,1.402412038811527185e-02,1.056019857655766947e-02,3.515290021896362305e-01
1.113821244089085449e-01,5.147887529301731213e-01,-8.184452967348859742e-02,2.539140954953893886e-02,2.561040253861268483e-03,4.643664081116693695e-03,5.291889309883117676e-01
2.123553060915929769e-01,3.659057644561598543e-01,-1.384165634930323296e-02,3.922166188152895541e-03,-1.276095335630083455e-02,-1.639430792697540084e-04,3.316778838634490967e-01
2.505313404898398266e-01,3.498518360345532763e-01,-1.855985143756755384e-02,-8.295440437273309854e-04,2.227238816904957616e-04,-9.037119907089364253e-06,3.301562070846557617e-01
1.644633648316683461e-01,4.685985639945618453e-01,-4.150520357599396526e-02,1.839297843378700018e-02,-3.343146493517876183e-02,-1.515586548560613964e-02,4.501339197158813477e-01
3.432437035795614655e-01,3.251101331063989130e-01,-2.433180419642907988e-02,-9.129690798348565409e-03,-7.342249051944538425e-03,-2.011897770521522359e-03,3.594426810741424561e-01
3.023956999441680948e-01,3.319117992937082318e-01,1.741443284977747807e-02,-5.826006578011982961e-02,-3.988025648702737264e-02,-5.245426778405055945e-02,3.372023403644561768e-01
3.144071274745977029e-01,2.974858517001270908e-01,-2.000802643553134530e-02,-1.457762968762777583e-02,-9.612689512853420104e-03,-6.271491589939360081e-03,3.278625011444091797e-01
4.146846817855540657e-01,1.960480513277841896e-01,-1.161081491432439106e-02,-1.354455956044639531e-01,-9.216031811787098876e-03,-4.798793263224718220e-02,4.455624222755432129e-01
3.185226059646413810e-01,3.260922446505710726e-01,-3.206861601514901516e-02,-2.400182650055313234e-03,1.212571001784316363e-03,3.239636148188277135e-04,3.544677197933197021e-01
3.375605878705246199e-01,3.056829119630648517e-01,-2.692259545016872924e-02,4.296122372504505849e-03,-1.692571305504509251e-04,-4.076155428550041517e-03,3.497865200042724609e-01
3.248582207559926882e-01,3.280654263597250764e-01,1.954508979937072399e-02,2.570165522834156734e-03,-2.142210392172066817e-03,4.859301433049219646e-03,3.070993721485137939e-01
3.216915894115324193e-01,2.434611919441410921e-01,-7.828149137782819400e-03,-1.457954976499195310e-01,-2.682839371681964430e-02,-5.169618150576938548e-02,4.035722315311431885e-01
3.332536162798376833e-01,2.665902004850860263e-01,-1.565451692424427166e-02,-9.602723987353884924e-03,-9.047424152598931846e-03,-5.492819162395004041e-03,3.217673301696777344e-01
3.380201593763911827e-01,2.709703932628704792e-01,-2.734167234170267746e-02,1.040395942714915888e-02,1.034755260946955240e-02,-1.358646908204982386e-02,3.386550247669219971e-01
3.150416849314967016e-01,3.122337224451959270e-01,-2.741142285322542560e-02,1.940056048411463539e-03,6.395184641532701900e-03,-1.261983489489425280e-03,3.412611782550811768e-01
3.296194792903391901e-01,3.111044326609447297e-01,-3.113020290278659119e-02,-2.296028752642023229e-03,4.025293811550860468e-03,5.708597265585709608e-04,3.519506156444549561e-01
3.282378056488394202e-01,2.707671046984195806e-01,-1.703365157181607747e-02,3.587836892200701316e-02,1.511355952326668729e-02,-1.804162871353275077e-02,3.289313018321990967e-01
3.284416508036669957e-01,3.200929245885186236e-01,-3.181017407977809741e-02,1.925434332942079028e-04,4.415109598441636050e-03,-3.098836610565389692e-03,3.562735319137573242e-01
4.121126998465471369e-01,2.980902152480242595e-01,-4.117228751186974289e-03,1.173715056599163309e-01,2.025159915793836238e-02,-3.312385391761888537e-02,4.296965003013610840e-01
3.859091742663014468e-01,3.129030838876938891e-01,-2.372066835290781439e-02,-2.682024160625724740e-02,2.339391124649841183e-02,3.185860980357885924e-02,3.873831927776336670e-01
3.282126279323347440e-01,3.219981794909721473e-01,-3.267132545486370332e-02,-9.233923263975384304e-04,2.558662580166925528e-03,1.696448421329708675e-03,3.578602969646453857e-01
3.339281944288550741e-01,3.264463277553751874e-01,2.887538508906697943e-02,5.174665250649018201e-03,-1.210934287681949542e-03,-5.508020615120814284e-03,3.016729652881622314e-01
3.406222902781302908e-01,2.732513165634379293e-01,-2.243986251193189063e-02,-3.090214603453144554e-02,8.834214039311026612e-03,2.778289460522575388e-02,3.425021767616271973e-01
3.558611953291010432e-01,2.756571170636887835e-01,-2.677780903821047609e-02,-5.140501533086518082e-03,9.581055975532805141e-04,9.823922824329187065e-03,3.500395119190216064e-01
3.277553082430806342e-01,3.269270437203198321e-01,-2.860435708749753392e-02,8.136120944250086265e-04,4.367547286647400530e-03,5.028279480685462002e-03,3.561359345912933350e-01
2.960018547751565032e-01,3.301769814571876016e-01,-2.886225457427080143e-02,-7.886587266747692102e-03,2.230193633018113727e-03,6.929574528007206510e-03,3.437331318855285645e-01
2.852533481313819230e-01,2.935655117915717538e-01,-2.169364137300586193e-02,-3.742627123152698215e-02,1.051995133475703940e-02,8.593524669943970046e-03,3.187360465526580811e-01
2.387614457677703639e-01,3.819092399694959949e-01,-2.191010592417449998e-02,-1.307555261113581002e-01,2.743178109667468098e-02,1.142127754337331214e-02,4.239049255847930908e-01
1.685985334184218754e-01,4.568462687726262961e-01,-2.851875611631479734e-02,-1.975089383137361085e-02,1.714474052521272260e-02,2.410158662398131924e-04,4.252209961414337158e-01
3.284041268461823648e-01,3.297205711130862249e-01,-2.663967853102910954e-03,2.702801762213067737e-03,2.141471001993871474e-03,-1.361607832663215643e-03,3.317904174327850342e-01
3.014627745937472070e-01,3.030612962607248662e-01,-1.660570412227821424e-02,-5.623935529616115115e-04,1.566069628736954872e-04,-8.480127068570306832e-04,3.188757300376892090e-01
2.103323894875656075e-01,2.879499128522239326e-01,-1.498943596525395550e-02,1.564116938270926349e-01,-4.079312157466503247e-03,-1.316574100441371062e-02,3.850287199020385742e-01
3.253806110851466538e-01,3.250054570880485105e-01,-3.323759451985683344e-02,-7.300783001993766405e-04,1.486634831192301751e-03,-3.897270764638170802e-04,3.584429025650024414e-01
2.901716542867898707e-01,3.409429666881174104e-01,-2.762605853188529470e-02,1.971463463361297803e-03,-1.582538040447236793e-03,-4.294724479945286402e-03,3.460962772369384766e-01
3.045576563839657580e-01,3.190471604559954044e-01,-2.929243417057114662e-02,-1.112899305906549577e-02,-6.559618703524085041e-03,-7.138031560461529160e-03,3.422815501689910889e-01
3.188923478652664900e-01,3.195219120399078738e-01,-2.871886953917757168e-02,-3.893911713644707356e-04,-3.788919760813112998e-03,-3.707848843730797601e-03,3.480482101440429688e-01
3.108330065837593970e-01,2.907879291678657774e-01,-9.816778168942164040e-03,-2.003632181306445881e-02,-2.919890911118492791e-03,-1.880268498212061493e-03,3.130993247032165527e-01
2.780066822055096698e-01,3.240331943456567498e-01,-2.564221366373284350e-02,-4.854355775709544296e-02,-3.618216163739262220e-02,-2.142169676201788678e-02,3.473766446113586426e-01
3.176591970997723058e-01,3.210566907864251252e-01,-2.659833432334512970e-02,-3.292115786009498779e-03,-6.777049419003717406e-03,-7.418639721547972722e-03,3.464531898498535156e-01
2.870910366619136012e-01,3.084416206849674436e-01,-9.333771843061056117e-03,-3.826197874489315962e-03,6.948839815968015435e-04,9.551666143715385835e-04,3.077344000339508057e-01
3.528881487757129509e-01,2.280351387460061163e-01,-8.652726293214313413e-03,-1.490312986135238285e-02,5.815397592085114371e-03,-3.541678041371538500e-03,3.193211555480957031e-01
3.146039911110153353e-01,2.984304891795027115e-01,-1.640053483944692303e-02,-3.604021424726082216e-03,-3.860383693189296112e-03,-9.256093761336461282e-04,3.233547806739807129e-01
3.189334905467580694e-01,3.192583677592149005e-01,-2.914908016789724554e-02,-2.274697556310385782e-03,-4.501140667408885798e-03,-3.989351596795679203e-03,3.484231829643249512e-01
3.028795681643719484e-01,2.993958857370400128e-01,-1.632382018520822653e-02,-1.227932110487296984e-03,-1.549816743788483579e-03,-9.788719920097565391e-04,3.174988925457000732e-01
3.015453746193699214e-01,2.975762608545012844e-01,-1.346037054360846308e-02,-4.919754917866828690e-03,-2.494642443074198898e-03,-2.644550720038853914e-03,3.132193088531494141e-01
3.108064332834672427e-01,3.052179105067562848e-01,-2.106367177331627816e-02,2.639184310529833332e-03,-3.575517178093869358e-03,2.456655864426152049e-03,3.292289376258850098e-01
3.244115287428573913e-01,3.235983807924020517e-01,-2.962895069054713448e-02,9.641702652670716342e-05,-4.909979250231396447e-04,-3.752550347203319268e-04,3.536362648010253906e-01
3.228803261713276695e-01,3.166809785772071728e-01,-3.218531140794711476e-02,3.292199780879862502e-03,-4.978184449226156355e-03,4.147257476207389174e-03,3.522319197654724121e-01
3.378509261988943968e-01,3.141706596692983577e-01,-3.205225560119268069e-02,5.628836551925606689e-03,-4.406202937710711719e-03,4.661181671241631207e-03,3.589543104171752930e-01
4.312988772121658654e-01,3.737095169830331187e-01,5.515409224636902419e-02,6.272969589697331705e-02,5.656293919173837476e-03,2.362727324023500622e-02,3.697502613067626953e-01
3.410840992740618027e-01,3.273377442800007864e-01,5.249792010696396893e-02,-7.347604866968653102e-04,1.379008206773667776e-02,3.744849344294817230e-03,2.830514609813690186e-01
4.182382760803153854e-01,1.590815356802156022e-01,-2.990866859143537226e-02,4.725943332159218691e-02,-1.015914550940985421e-02,1.525380006697791765e-02,3.994566500186920166e-01
3.439170193601729375e-01,3.232223456173803910e-01,1.702280729232200085e-02,3.581002819529871713e-03,-1.315225470098660898e-03,-1.197789153023557165e-02,3.178005516529083252e-01
2.214552968995915083e-01,3.525196400631102067e-01,2.097308157868021938e-02,-7.455442201073776698e-02,-6.034847524434545918e-02,-2.279065007358919981e-02,3.358663320541381836e-01
1.798677354015001950e-01,3.860452524833101196e-01,7.060135838310499512e-03,1.281729666606046952e-02,-3.118970724496503144e-02,-1.784309726689222234e-03,3.337985575199127197e-01
3.248961799138229134e-01,3.321005551871971662e-01,-2.649589849454658808e-02,1.698171759332389990e-03,-4.778719969179011200e-03,1.926480792589156145e-03,3.551734089851379395e-01
3.299198025268909595e-01,3.127790612524103953e-01,-2.683685824932199870e-02,4.455822243608027061e-02,-6.356095839879016135e-03,2.465258959097514635e-02,3.596592843532562256e-01
2.899067094752348361e-01,3.389954391800716893e-01,-2.677747644049138787e-02,1.554842197867901444e-04,9.811061167531538382e-04,5.033648026137869588e-03,3.439813554286956787e-01
2.891204880413583700e-01,3.399323802974527631e-01,-2.803499092519362579e-02,-5.389597283098532775e-03,7.376984895193017863e-04,-4.292944887733096161e-03,3.455846905708312988e-01
2.980707357131194835e-01,3.405072577415586554e-01,-3.150726984885501847e-02,-2.136006765916472361e-03,-5.720443929173805141e-03,-4.827562499168140502e-03,3.529736995697021484e-01
2.925976843419985651e-01,3.436042247849929177e-01,-2.551811480288762590e-02,-2.805846783838871709e-03,-2.510846099209779192e-02,-1.298257193515463086e-02,3.499226868152618408e-01
3.048908191596366168e-01,3.255679245049035719e-01,-2.538429111377274450e-02,-1.329215177194239747e-02,-6.583695571878328198e-03,-7.777952442151013154e-03,3.423154950141906738e-01
3.336540834036603176e-01,3.284756515534055787e-01,-1.668104366803641048e-02,3.200035987058542919e-03,-6.185159981188926952e-03,-4.728205333664260365e-03,3.480802774429321289e-01
2.711169283466841051e-01,3.531442783253592177e-01,-2.539389176295137052e-02,-5.726268627348418509e-03,-1.399205049211484780e-02,-4.535722757605044515e-03,3.460008203983306885e-01
2.780293405204823931e-01,4.110875338173784477e-01,1.276551771541684088e-02,-1.544784286346415902e-01,-3.639768226081838143e-02,-2.389439422587487025e-02,4.479317665100097656e-01
2.890388587413376120e-01,2.962610552640527195e-01,-3.540270280116011858e-02,-1.442307924210530501e-01,6.418851085394144604e-03,-3.569533832706296705e-02,4.171466231346130371e-01
2.687205454421368600e-01,3.418703470072979034e-01,-2.389253877576144602e-02,-1.169673395522987172e-02,-8.208796732734896170e-03,-9.561176111879550119e-03,3.365482687950134277e-01
2.820982950439893666e-01,3.722016898159270504e-01,6.094000120069056892e-02,-2.005699900775746031e-02,-5.486998598377120645e-02,-1.275068835060893559e-02,2.961139380931854248e-01
3.239758054897952655e-01,3.193152324977061030e-01,-3.446012533678249889e-02,-3.155379394029439000e-04,-2.461219520053844773e-03,-1.824457920886992778e-03,3.561684787273406982e-01
3.243127058197910473e-01,3.218770884961322798e-01,-3.526750785873328242e-02,4.269914768843404394e-04,-1.654251092441427371e-03,2.687823340492499815e-05,3.583808243274688721e-01
3.264632383283365691e-01,3.236476011684633614e-01,-3.502395059008764355e-02,3.190416710027720059e-04,-1.311344929136989230e-03,7.316584106892676389e-08,3.600952029228210449e-01
3.267368275874732442e-01,3.248971696825098121e-01,-3.313339731017056478e-02,1.420675628773979430e-03,-5.867396330574863907e-04,-1.798614137887441294e-03,3.589773178100585938e-01
3.262498755374849679e-01,3.234474263870487643e-01,-2.974706565839863037e-02,-1.716375467177528398e-04,-4.898046942592549670e-03,-4.314494832231468083e-03,3.547843396663665771e-01
3.143588182120065078e-01,3.199622672082828023e-01,-3.137260586030901632e-02,-7.452421550765520736e-03,-5.620586105590216590e-03,-6.295028349785384073e-03,3.491119742393493652e-01
3.250862276646411808e-01,3.231259405888352587e-01,5.152174398298811631e-02,1.402172572996428007e-03,-1.462092976353669476e-03,6.810114484823138158e-03,2.728672623634338379e-01
3.231403874860808711e-01,3.219255917100345976e-01,-3.555941478282945156e-02,1.745077186531817650e-04,-9.357989300169807997e-04,6.996507725400661639e-05,3.580977618694305420e-01
3.068060483129603222e-01,2.998325064420336861e-01,-1.653435362588318025e-02,-3.405643077655141730e-03,3.853855320992638500e-03,8.551060228255740131e-04,3.200380802154541016e-01
3.131331707097774197e-01,3.035515391460933410e-01,-1.966990952146321914e-02,-2.116081311212878076e-03,-5.744752853945079250e-03,-2.972637746292462919e-03,3.283288776874542236e-01
3.435189799952452216e-01,2.440054087197464638e-01,-8.866811649093891967e-03,-8.510397223768988856e-03,-2.860358863518516585e-03,2.492934593326858600e-04,3.150452971458435059e-01
2.651656126046834094e-01,2.343479368859279766e-01,-3.544307533249890785e-02,-1.847510724018743278e-01,-1.691333004854844117e-03,-3.168511188983949740e-03,4.295216202735900879e-01
3.352203043850905395e-01,2.534549743244487452e-01,-9.781107593647059284e-03,-2.142903014151649119e-02,-6.372347475116771007e-04,2.696106130120945465e-03,3.144885003566741943e-01
3.555570148735544000e-01,2.646915004162080365e-01,-2.517510033581202289e-02,-4.605357141005008911e-03,-2.115430582633929558e-03,-1.120457969001404513e-02,3.450677394866943359e-01
3.096846011019186440e-01,2.890410810653507578e-01,-1.061934732839167617e-02,-3.924251814863947280e-03,1.599565970925797501e-03,6.332095190074283177e-04,3.105859756469726562e-01
3.413821818079406101e-01,2.326229019913540197e-01,-2.338141870098800479e-02,-4.415832440471473969e-02,-5.078115422691926832e-03,-2.487171501198203946e-02,3.361438512802124023e-01
3.862520068408962226e-01,3.774461594379761031e-01,1.539418636341988167e-02,-9.274012788943505892e-02,3.584575984986387853e-02,6.276046098217014091e-02,4.193100631237030029e-01
3.211516592287763094e-01,3.243149119366020017e-01,4.266073699872530156e-02,1.345691644797630425e-03,2.911238051788301532e-03,3.785863861755302089e-03,2.802177667617797852e-01
3.266935400413468193e-01,3.292232668334635903e-01,-1.656811876643504711e-02,1.541212926793735860e-03,-1.558967211674250038e-03,7.048139590873621439e-04,3.445565700531005859e-01
3.335908437591330045e-01,3.258501852219354289e-01,1.359335548529014281e-02,-7.858265009641566753e-03,1.012738442823815470e-02,2.209078388647120472e-02,3.192777335643768311e-01
3.333683024443448994e-01,3.292007791246184256e-01,-8.443807027759264727e-04,1.836161166717125998e-03,-5.685260703044573219e-04,-9.182749230955515596e-05,3.321652412414550781e-01
1.890315549459555267e-01,4.349302199878408715e-01,-2.737520422936992603e-02,-1.443141003651555732e-01,-1.987148971269755982e-02,-1.206223946518366827e-02,4.739335179328918457e-01
3.244480216315971388e-01,3.269113259665022975e-01,1.399987280352132935e-02,1.147344371894672838e-03,8.167386047765765739e-03,1.004921498196663376e-03,3.120191395282745361e-01
3.244480770593408669e-01,3.248703348551218451e-01,1.552282031141738461e-02,1.507331655018501236e-03,8.067509509618183208e-03,-1.596727026455659537e-03,3.094756305217742920e-01
2.811138119475295460e-01,3.462413120358401875e-01,-2.490508962151610772e-02,2.906653540107659046e-03,-1.252571432037567073e-02,-1.233130113746503135e-03,3.439767360687255859e-01
2.250604917723171006e-01,3.516553996178365948e-01,-9.592503691030096480e-03,-3.223384185176279837e-02,-9.042217743717731676e-04,9.788015019857640008e-04,3.223609328269958496e-01
3.270421102557115600e-01,3.302226203738170551e-01,-2.415004641814966213e-02,1.245651514339838261e-03,-2.898319044014848085e-03,-5.721273083402258217e-04,3.528368771076202393e-01
3.282774868035496230e-01,3.175836201584985585e-01,-3.085573051203829853e-02,-1.933334362267016392e-03,-6.884290422119077046e-03,-3.952993687673940493e-03,3.541903197765350342e-01
2.538718598410754090e-01,3.937884862894134308e-01,-3.057814539177711177e-02,-2.077555993067253803e-02,-3.825618591433047749e-02,-4.749976881669179009e-03,3.821530044078826904e-01
3.431360446630453698e-01,3.425676941834082667e-01,2.829162704034221543e-02,4.070528810476261965e-03,-1.428568801276669346e-02,-1.460117229408074493e-02,3.166226744651794434e-01
2.717357178027169917e-01,3.384118623117524649e-01,-1.823175604513810333e-02,-4.090666674826990909e-03,-6.031335570594478866e-04,4.526081856887937717e-03,3.285932242870330811e-01
2.580694162901259192e-01,3.690296445111328483e-01,-1.260860440116554071e-02,-1.204805615565125443e-01,4.517346531362171486e-02,2.391303046650029851e-02,4.086531400680541992e-01
1.094003939510914264e-01,4.073173867922691427e-01,-3.218576619829008334e-02,-1.090620215171267393e-01,-1.169394935816524088e-02,-3.128742166039341459e-03,4.325566887855529785e-01
2.681779336742597941e-01,3.466607880052358648e-01,-2.346091407756761837e-02,-6.395294695384985857e-04,1.293312840543385349e-02,1.462950784479363873e-04,3.385328948497772217e-01
2.707474914460409887e-01,3.253146190524340842e-01,-1.828357350404488657e-02,-6.661244569178418132e-03,6.544426229142248468e-03,9.863784010662223281e-03,3.206892609596252441e-01
1.127299346196147384e-01,5.319696308612531510e-01,-1.066797798585465418e-01,4.238921274816077195e-02,8.776076867535757484e-03,2.126886780793969117e-03,5.670299530029296875e-01
2.621088235347781570e-01,3.649624850713136803e-01,-2.652456945961903512e-02,5.623392348687512865e-02,-2.990278649133059144e-02,2.021191172357347798e-02,3.700945377349853516e-01
2.589655581357618308e-01,2.723196328814745382e-01,-1.119908905429331525e-02,-8.257467083713627976e-02,6.514943307473016918e-04,3.701202029115045343e-04,3.118212223052978516e-01
3.508616221568013893e-01,2.610714835136223044e-01,-2.501743055350164058e-02,1.407762108590257999e-03,-4.378724614596742927e-03,1.491518209486786262e-02,3.410688340663909912e-01
3.053887088894714497e-01,3.120640367456047892e-01,-1.863570039167719572e-02,-1.513120180198842049e-02,-7.690880260303811257e-03,-1.023716662825716051e-02,3.292082250118255615e-01
3.198199115181205032e-01,2.962309625374213162e-01,-2.456550440909843758e-02,-9.531696599206143997e-03,-8.984478532680584273e-03,-7.021278373713376805e-03,3.342105448246002197e-01
3.989183289573905999e-01,2.330212624262215093e-01,-2.006041793270521567e-02,-5.687284772017660306e-02,5.315941698868627274e-03,-3.589767150356946990e-02,3.836821019649505615e-01
3.321695106249528129e-01,2.620155609286436982e-01,-2.250775765806806161e-02,-9.088575676870128128e-02,-7.027162688332541131e-03,-1.068996707337412783e-02,3.620872199535369873e-01
3.256012170830837604e-01,2.902752662898362424e-01,-2.458150244603007906e-02,-4.048576176625684475e-03,-9.133686500003122474e-03,-6.814817482104833408e-03,3.345804810523986816e-01
4.594213253730032864e-01,1.288254809090415010e-01,-4.552937704019488496e-02,-2.854171016117465487e-02,-6.222464182784517156e-03,-2.215900117994860918e-02,4.487397074699401855e-01
3.606001329562211755e-01,3.359940256687005133e-01,-3.558144315987271655e-02,-4.320520936760226943e-02,-1.463067023112046838e-02,-2.249618010470253587e-02,3.944328725337982178e-01
3.309389025923479277e-01,2.817519866368893844e-01,-2.529594278063848622e-02,-1.913811856732028707e-02,-9.472325617715219442e-03,-8.597532143153266762e-03,3.367346823215484619e-01
4.075119779078507087e-01,1.340576188522892842e-01,-3.544364067983904465e-02,-5.551126508831694117e-02,6.284186170733279276e-04,1.112360164041483086e-02,3.993441164493560791e-01
2.983795162247634414e-01,3.085748824020925207e-01,-1.275946510372166776e-02,-7.003812178485269851e-03,-3.632697368601396637e-03,-4.197013139352294767e-03,3.167383372783660889e-01
2.564533972887559354e-01,3.237612446079455308e-01,-1.020164029807199557e-02,8.097334083508659491e-03,4.908966961235075761e-04,-2.254486228823569024e-03,3.062611818313598633e-01
3.116818036383914303e-01,2.788154846891999217e-01,-9.373947894140671755e-03,2.316288335922062069e-02,7.890619600800859341e-04,-5.762910240883496304e-04,3.085733056068420410e-01
2.370107844376553030e-01,3.860313523829548843e-01,-9.045367314875873976e-02,1.829568997334049540e-01,1.970876149410055733e-02,-1.800040954236127588e-02,5.299019217491149902e-01
3.077102043285489530e-01,2.776570958134496059e-01,-1.218618334479221188e-02,1.143327454085546133e-02,-3.556569805329484833e-03,2.478671900138151082e-03,3.067108392715454102e-01
3.272168636768052474e-01,3.301559705104019082e-01,-2.704242109590818122e-02,1.134833079747150746e-03,2.282073675236969117e-03,4.501532118395006510e-04,3.557661771774291992e-01
3.001784437208864231e-01,3.335733232403953474e-01,-3.127917832826146438e-02,1.315677755437804014e-03,6.389433196635659930e-03,-4.713870367264201902e-03,3.496322333812713623e-01
3.281135893381998958e-01,3.291813024103809604e-01,-2.205638420354752438e-02,-4.419807705171222402e-04,7.548742118054631821e-03,-3.108779004988129584e-03,3.509908318519592285e-01
3.754109898813156043e-01,1.818366848867228325e-01,-1.494809605975083722e-02,2.500532187730440323e-02,1.108828730002205673e-03,-2.425764335161223386e-03,3.408590257167816162e-01
1.645806315523620778e-01,3.873929747015376068e-01,3.462007015571352819e-02,7.398232429279719136e-02,5.978105381731559781e-02,-2.740375228489607198e-02,3.533925414085388184e-01
3.579916088694607978e-01,2.798805593518662871e-01,-2.682146942847588034e-02,-1.844451811165083444e-03,-2.831484112126622221e-03,8.201855395480421931e-03,3.526476323604583740e-01
3.513864283126870713e-01,3.601775119196533592e-01,-1.567784062415777946e-02,2.466832645838252375e-02,2.393215884241342226e-02,-4.236905062666912469e-03,3.763482868671417236e-01
3.299380970001585256e-01,2.673779204796018494e-01,-1.124865067035477062e-02,-3.661602322258037528e-02,5.899603401644913300e-03,4.226465075554602067e-03,3.211816847324371338e-01
3.065880498799954390e-01,2.885663619567698790e-01,-1.002863608286333474e-02,-2.470453808404839656e-03,-1.605654131425518234e-03,-3.625358225782010133e-04,3.080444335937500000e-01
3.230396153877630461e-01,2.762501609727416874e-01,-1.567686249569175128e-02,-6.793997589263666911e-03,-9.091279544135192486e-03,-5.190151511178737846e-03,3.186486959457397461e-01
2.725948316535152793e-01,3.101229169848834788e-01,-9.816458372513936492e-03,-1.127430032639707529e-02,2.144585682267598822e-03,2.410660796732663584e-03,3.036040365695953369e-01
2.400128977255182594e-01,3.313396183720554999e-01,-1.377054181005166189e-02,-3.122950391057673775e-02,1.050728043092297170e-02,8.311676567401548102e-03,3.152588009834289551e-01
2.796238840695408623e-01,3.160008115436842568e-01,-1.593114073888890481e-02,-1.005704316804684542e-02,-6.310481030299089356e-03,-6.876737002534437024e-03,3.162154257297515869e-01
3.032621809110058742e-01,2.591474405462061981e-01,-1.776677785025035372e-02,-5.522536313205726743e-02,-1.505415541978281056e-02,-2.409300884487343072e-02,3.200225234031677246e-01
3.551045140194326044e-01,2.268647912155172530e-01,-1.694497302631028934e-02,1.750692729824783120e-02,-6.503152541485672164e-03,1.523272185748405193e-02,3.299957215785980225e-01
2.854085114856532157e-01,3.130629351032813146e-01,-8.346230863379877629e-03,-2.072526368083793882e-02,-1.271663457777080482e-03,-1.346425833564578525e-03,3.106108903884887695e-01
3.340827858025174901e-01,3.017497847992479665e-01,-3.133785955954185298e-02,-2.325813613153992349e-03,5.470497399315788281e-03,5.923647369689616360e-03,3.506762087345123291e-01
3.954985687253793625e-01,1.971528350865650869e-01,-1.469580318721497303e-02,-3.116192570305125614e-02,1.239947830459539949e-02,3.475802755445966952e-02,3.650191128253936768e-01
3.385481696022916709e-01,3.187232298507048922e-01,-3.455560365916954257e-02,-2.371327383403356442e-02,-1.533139778487726743e-03,-1.898624664016132849e-02,3.673937022686004639e-01
3.453645447463691842e-01,2.443040415560494838e-01,-1.682886452454490644e-02,-7.330028561660435760e-03,7.387261820103243129e-03,8.795505944335200652e-03,3.245779275894165039e-01
3.426639141005299871e-01,2.674852882831158518e-01,-2.408061301038405544e-02,1.089048281915480643e-02,-6.376231333382663923e-03,1.445198837462475377e-02,3.371741175651550293e-01
3.292682134887645606e-01,2.972781469013832667e-01,-2.676238057368585110e-02,-4.818841274763913801e-03,5.306812602128096676e-03,-2.855882280344268894e-05,3.413881361484527588e-01
3.281624654934041097e-01,3.257340333348729966e-01,-2.184572443430135569e-02,2.390216873255210026e-03,-8.503601248175472749e-03,-4.465417374327376558e-03,3.492213487625122070e-01
3.275999163957948879e-01,3.278934534377644372e-01,-8.465557694024850033e-03,-6.209588298404313022e-04,-4.471312794235120236e-03,-5.970931815257642930e-04,3.363048434257507324e-01
2.992283327571936824e-01,3.444787102222574005e-01,-2.868228539501874175e-02,4.202635056862072480e-04,-9.251271247595478989e-03,2.962845317671728416e-04,3.530844151973724365e-01
3.269357968400088965e-01,3.264407081548110767e-01,-2.232531373577595346e-03,1.197845632385872517e-03,4.383122033800652094e-03,-3.032724879690752197e-03,3.290571272373199463e-01
3.248220290171076607e-01,3.283822267490433822e-01,1.796145864317025276e-02,1.434454457622227810e-04,7.034367859992225573e-03,1.149306910290053517e-03,3.089029490947723389e-01
3.233055745187327634e-01,3.225091095938766306e-01,-3.512902834232933813e-02,-6.463692708127933510e-04,7.566337844443463308e-04,-2.740896043155567272e-04,3.580414950847625732e-01
4.914824593069200831e-01,1.139341476709852252e-01,-4.311791747124216201e-02,-8.113901914238519364e-02,1.020556739457311596e-02,-1.303991989614631782e-03,4.965591728687286377e-01
2.000287896211936367e-01,3.709608013667461957e-01,-7.730103461536935727e-03,-8.895909870969978886e-03,-2.851418064222012352e-03,-2.078776601840731392e-03,3.288904428482055664e-01
3.038877287867816079e-01,2.973292188702808536e-01,-1.302657235098833577e-02,-3.853382892527634947e-03,-2.953432033268324486e-03,-1.956850831693299295e-03,3.138174712657928467e-01
2.799651121979452872e-01,3.092539454906600982e-01,-1.244977401842983777e-02,-1.082553641514030773e-02,-7.268973270160974942e-03,-7.339477379273730111e-03,3.091932833194732666e-01
3.009906544849606513e-01,2.699847989905054257e-01,-8.109665448425729117e-03,-6.278835236918892115e-02,1.034876587237763520e-04,-1.408388780147636164e-03,3.142507970333099365e-01
3.082047500755348834e-01,3.023518841320553818e-01,-1.653504307677117202e-02,-2.407503397687606010e-03,2.854989911870142705e-04,6.811126747747924589e-04,3.218828141689300537e-01
2.599694186188769018e-01,3.573144242512922286e-01,-2.377638907956303171e-02,-5.767624116904831143e-03,1.182041485475906865e-02,5.249302278545540761e-03,3.438176810741424561e-01
1.740490216009401014e-01,3.868745194458056980e-01,-1.454632652335902110e-02,-2.318553555873302183e-02,-5.699516657733763245e-03,7.265634219162871860e-03,3.505271971225738525e-01
2.911145516540004086e-01,3.101817580442243205e-01,-8.377739376971893304e-03,-2.264250763875030187e-02,-1.050376446951703296e-03,2.213792221553680583e-04,3.119474053382873535e-01
3.243868965429763662e-01,3.231649038903876003e-01,-3.470260478747319577e-02,7.205025498300508813e-04,1.070160065092210389e-03,6.543664247596034421e-04,3.584888279438018799e-01
2.683851716895413464e-01,3.749086968148916954e-01,-3.364554479905787487e-02,-5.372043367866118080e-02,2.587735403371351980e-02,1.621259472128516038e-02,3.823588788509368896e-01
3.454044166987356723e-01,2.887984954085131006e-01,-2.830566696060071719e-02,1.033392396522940732e-03,-5.622490320428056139e-05,7.259345492154988368e-04,3.488754034042358398e-01
3.262856854413381247e-01,3.291301948078818596e-01,-1.046946518418920280e-02,-8.727297831163274128e-05,3.991718955195660418e-03,-5.929964637680768512e-05,3.382571041584014893e-01
3.455998290723065747e-01,3.123517058056027862e-01,-2.613585811488244870e-02,2.939965433577529461e-03,-2.379381281776944950e-03,-7.415264005879742409e-03,3.565686643123626709e-01
3.510076345198213099e-01,2.345038533206285636e-01,-1.589916573769570296e-02,-1.271754793714017541e-02,-9.357313505530182735e-03,-1.082852467487221970e-02,3.264159262180328369e-01
3.537766338310376901e-01,2.301994093777574579e-01,-1.579325001662312822e-02,-3.221355831700517536e-02,-1.000927759168562456e-02,-5.783937513128546877e-03,3.312051892280578613e-01
3.365017085566450739e-01,3.155513037958301847e-01,-2.574774798325249470e-02,1.712440020477262758e-04,-6.478080991504845234e-05,-9.622574328549205261e-04,3.522459268569946289e-01
3.118600718999937071e-01,3.199761339699500051e-01,-3.074673882308526229e-02,1.190252716936286747e-03,-2.708880689182461849e-03,4.762261606887355746e-03,3.468720614910125732e-01
3.183480035594810631e-01,3.140924258236742483e-01,-2.870140759435349520e-02,3.006038755799455512e-04,-3.309832935491190554e-03,2.280321157261566267e-03,3.450119495391845703e-01
3.233360360696467262e-01,3.217757282639269190e-01,-3.536282395193374173e-02,-2.167026507677495160e-04,-1.595296726667322189e-03,5.919103093795636915e-05,3.579321205615997314e-01
3.258366442170564370e-01,3.218023991056038202e-01,-3.520700431349116366e-02,-8.647239684989682738e-04,-1.270449814734036197e-03,-6.559624538601032599e-05,3.590534031391143799e-01
3.271461166679011656e-01,3.223445713960063630e-01,-3.314273411561674543e-02,-6.252755373145190559e-04,-1.498120234584755838e-03,-3.006597197678238971e-04,3.579236567020416260e-01
3.250214919767785982e-01,3.256731254059152536e-01,-3.381183009185270705e-02,-5.936320663464430668e-04,2.281462293846405484e-04,1.197837009324539178e-03,3.591672778129577637e-01
3.350445842961741194e-01,2.648930311252114533e-01,-1.589126416819877652e-02,3.144543986995141510e-02,-4.922426264903536318e-03,1.181157201622653682e-02,3.269804120063781738e-01
3.308489674263036529e-01,2.855679119720506143e-01,-2.322465932368097952e-02,7.825693824400230258e-03,-6.888790584536924611e-03,1.165597993424528217e-02,3.348422944545745850e-01
3.176366906249691868e-01,3.278142558265817463e-01,-3.007130932550058922e-02,1.129041617787066411e-03,-3.281785026851186376e-03,4.021464605146928863e-03,3.530267775058746338e-01
3.295891096750218630e-01,2.657322194541925642e-01,-9.373116752199622814e-03,-1.093567391754782236e-02,-5.915689607542469908e-04,7.465361223964443347e-04,3.125531971454620361e-01
3.235493494251177049e-01,3.269938117487416473e-01,-2.394893850064563900e-02,-3.011327747895732815e-04,1.935395330700051617e-04,8.484057179282907023e-04,3.492369055747985840e-01
3.272254726538095237e-01,3.227732130207878747e-01,-2.623440672946944496e-02,-1.124720205137765688e-02,4.792926846617596645e-03,1.419120712568118330e-02,3.527500629425048828e-01
2.883500190985702205e-01,3.425473796292188289e-01,-2.717421212082216098e-02,-1.819185827574928624e-02,1.573950465084261383e-02,7.694173576530564940e-03,3.485786914825439453e-01
3.556220334366951286e-01,1.994763629152599693e-01,-8.716775384162295248e-03,-4.378775548191442268e-02,3.089413656246837092e-04,7.209829918445631244e-03,3.257954120635986328e-01
3.689795839716205061e-01,2.376936917785833492e-01,-1.703853057062593157e-02,-1.333180213688663907e-01,9.762846571509389230e-04,3.587994841431593751e-02,4.156360030174255371e-01
3.500198595404442337e-01,2.653462034130169567e-01,-2.296572242216718407e-02,-1.910217451494597776e-02,9.544753773570426036e-03,8.812622808055644089e-03,3.410378098487854004e-01
3.222587874338183611e-01,3.229921285475890746e-01,-3.495566618493733957e-02,-7.039068822143346453e-05,-1.139552371664106855e-04,1.402550485105564463e-03,3.575900197029113770e-01
3.222274291820076964e-01,3.242464429803943449e-01,-3.516502378105507143e-02,-7.036110772668344876e-05,-1.139461344636786183e-04,8.867975423693403442e-04,3.584095835685729980e-01
3.229131510989351472e-01,3.239325985022639687e-01,-3.538632255718759945e-02,-3.861890644846520458e-04,-4.337158887644209358e-04,9.613757021815808827e-04,3.588155508041381836e-01
3.180518863339119595e-01,3.193908608040874064e-01,-3.202744428976225799e-02,-9.630571782099338080e-04,-3.757244137585295232e-04,2.574215275766134677e-03,3.507836461067199707e-01
3.293787653218434031e-01,3.194044755331446606e-01,-3.182686384601451923e-02,3.810002394545850034e-04,-6.798250323854010922e-03,6.082976870364686928e-03,3.566739559173583984e-01
3.183749192332516742e-01,3.154729519757855094e-01,-3.223801438380147211e-02,9.635846180366760584e-04,-6.524892859360853763e-04,2.854674597038905914e-03,3.492118120193481445e-01
3.187344847388998148e-01,3.077763362944346270e-01,-2.315091065876007104e-02,9.931897243149967469e-03,-9.154923794316585303e-03,8.726862721152726238e-03,3.376908600330352783e-01
3.226275097356818278e-01,3.256306071156098159e-01,-3.359407753860849111e-02,-2.834353642424732728e-04,-1.305840573836243882e-03,2.783365831468295141e-03,3.577725589275360107e-01
3.410218889056992886e-01,3.096906953903446058e-01,-3.235190797353595937e-02,1.904965639382699347e-03,4.284080441628417002e-03,-4.264527497747538226e-03,3.589037358760833740e-01
3.090289427241432185e-01,3.596596160534427100e-01,3.777992960652573617e-02,5.872643877275496305e-02,4.876712720694029862e-02,-6.492911856121556802e-02,3.464122712612152100e-01
2.828928929757657529e-01,3.522409624551620655e-01,-7.245827438123936259e-03,7.456760052839210562e-02,3.009688167804903253e-02,-6.420299764240125148e-03,3.586534559726715088e-01
3.130660274585652658e-01,4.572535219215065894e-01,3.087061118664891080e-02,-9.359274974707448846e-02,5.287883003109586366e-02,1.949243979289007334e-04,4.192621707916259766e-01
3.322560714016987160e-01,3.289336443019841849e-01,-2.340316813091788961e-02,-3.562208628858039077e-04,5.251392305015332128e-03,-3.000298681343086318e-03,3.541652262210845947e-01
4.542998456902497817e-01,2.463032927131469652e-01,-3.479315673018956723e-03,9.326430004599299550e-02,2.554718151805508708e-02,-3.658958937432236352e-02,4.355190992355346680e-01
3.239030981798677322e-01,3.346256560265817859e-01,-5.975901917872949998e-03,2.388492230230908971e-04,1.624155901907139207e-03,7.914409054612662336e-03,3.356609642505645752e-01
3.018880352048394222e-01,2.999988131066924080e-01,-1.291680372223588669e-02,1.179492799966541878e-03,-2.254686108565154799e-03,1.490591757313979634e-03,3.139060437679290771e-01
3.020463808694821561e-01,3.149342789142863808e-01,-2.304711734325198824e-02,1.574649721337878115e-03,-3.098402331824737926e-03,5.837449822674864626e-03,3.319339156150817871e-01
3.024946888695341785e-01,3.083115187498899901e-01,-1.670759556126963363e-02,2.571707609006779367e-03,-8.303756430118327484e-04,2.347644746750435652e-04,3.221843540668487549e-01
3.084853426049515845e-01,3.071881201569428566e-01,-2.107453167729853027e-02,1.040281504035805386e-03,-3.115873423831451612e-03,2.224882403842561463e-03,3.289849460124969482e-01
3.105370448485038626e-01,3.270375018286585389e-01,-3.061181280223251866e-02,6.801742294531547967e-03,6.295943442727464090e-03,-7.032022957075025754e-03,3.502712845802307129e-01
3.006644986512838624e-01,3.070307250544189737e-01,-1.677087433306706510e-02,2.755325804805356781e-03,-1.030305164989066486e-03,3.928644166988056428e-03,3.207785487174987793e-01
3.129596841416302233e-01,2.865167418552599932e-01,-1.705255823857787512e-02,6.823947921614071863e-03,-5.627775027830799089e-03,3.053195674977989384e-04,3.179871141910552979e-01
3.246117131091892927e-01,3.276295997275032734e-01,1.005495070057010887e-03,3.626598884802365789e-04,-9.701987853059798822e-05,-3.922356156001042919e-03,3.251972794532775879e-01
3.451893750819898798e-01,2.370373851062330672e-01,-2.834571052359058374e-02,-8.498666062900429863e-02,-2.702375349156158763e-02,-2.974538566066441819e-02,3.705943226814270020e-01
3.434255022142198577e-01,2.524205065134035308e-01,1.498183871473454665e-02,-8.822469380067231304e-02,-1.978091046672071640e-02,-5.632081454953929284e-02,3.468542695045471191e-01
3.246969309147457183e-01,3.239078570764400977e-01,4.659038634196027706e-02,-2.401226863111891431e-04,8.031903866782707417e-04,1.443029995787040252e-03,2.777279019355773926e-01
3.254217073362064561e-01,3.233045054031442600e-01,1.297213535251587335e-02,1.564978066591302626e-05,-2.832236844856204656e-03,-6.004865170508863828e-03,3.116086423397064209e-01
3.018377275012674721e-01,2.890311265445555389e-01,-2.031738433791951959e-02,-9.406024372012321277e-02,-6.253059732844003411e-03,-1.516188630515855063e-02,3.566106557846069336e-01
3.137383958623866653e-01,3.243766236674079373e-01,3.920766272630205052e-02,-5.010765715812402071e-02,2.855511753599129093e-02,2.337279127796697969e-02,3.000303208827972412e-01
3.699394008109002097e-01,4.226369020206937610e-01,4.684759755667436409e-02,-5.842865739111234580e-02,1.989231983463989051e-02,3.797547880223783867e-02,3.740945458412170410e-01
3.309396741821660770e-01,3.267448734364820639e-01,3.016885524301521349e-02,2.880093068552107369e-03,-6.719643020005230082e-03,-5.599320812661436920e-03,2.991210520267486572e-01
3.674013451631899518e-01,3.655227727801650395e-01,5.109529320245095874e-02,-3.850726288600837301e-03,2.240607390909122795e-02,-3.028766304361892037e-02,3.221202492713928223e-01
4.021794181521518019e-01,9.562989222369536191e-02,-2.730223503246614891e-02,8.689516513497566597e-02,-7.435008684527612439e-03,2.494929831367546924e-02,4.140715599060058594e-01
3.111521588004748096e-01,3.430368112413282322e-01,-3.017193696860978602e-02,-2.798649168885609332e-03,-4.914806412254803074e-03,-3.227138525106146988e-04,3.584662377834320068e-01
3.252625872190894607e-01,3.315572830737775201e-01,1.340875915290890008e-02,-3.284199647796528891e-03,-3.238921081548547503e-03,-5.750557773605635171e-03,3.153069913387298584e-01
3.223531525342578363e-01,3.273628373768367461e-01,1.739950121251243598e-02,-2.194301056082647704e-03,-2.403262590622072710e-03,9.667850773859838591e-04,3.075453341007232666e-01
3.150161209607574286e-01,3.497816221677957360e-01,4.741371027066462740e-02,-6.087304656582745443e-02,-5.605345051856405747e-02,-5.899403209460193920e-02,3.363130390644073486e-01
3.298116908081318854e-01,4.776143745717361111e-01,3.690008904449054716e-02,-6.061888895464261073e-02,-5.306862823997928608e-02,-1.388203438705209319e-02,4.135055840015411377e-01
2.010934382669430642e-01,3.717680945843536700e-01,2.062557287486238566e-02,-4.838747582759511667e-02,-5.773876537113570295e-02,-2.454778271055832461e-02,3.336658477783203125e-01
3.377713524344695406e-01,3.283960583365174712e-01,-2.131235913975362828e-02,-8.584037965427292888e-03,-1.876213401269115648e-03,-7.913338939823565121e-03,3.550802469253540039e-01
3.304848682351617106e-01,3.288857061761498723e-01,-9.713973425286570595e-04,-9.598482770580053520e-04,-5.192343092490560655e-03,-2.796469291295805397e-03,3.308215141296386719e-01
3.228102256678361259e-01,3.245269119040677386e-01,4.090036215870274106e-02,8.611738163438748938e-04,-3.250195241509389304e-03,6.165351589584954980e-03,2.830336093902587891e-01
3.729764530945047230e-01,3.800726858530290020e-01,6.208431245134851673e-02,-2.402537531612409724e-02,-1.302426245725552684e-02,2.131515402368506021e-02,3.201780617237091064e-01
4.174637964825691494e-01,3.365780510264707592e-01,4.060997278394035126e-02,-8.417923135185102768e-02,2.816438667725878683e-02,2.349197587703589357e-02,3.786461949348449707e-01
3.814922706514592421e-01,2.970711453930059975e-01,5.115351926420377837e-02,3.418182502879851814e-02,-4.257751251529039507e-03,7.272692118825245522e-02,3.283142447471618652e-01
3.326909794714097424e-01,3.215709603031075003e-01,4.038941694152292650e-02,-6.801118147324095725e-03,-3.667275789085760497e-03,9.344984648349617781e-05,2.872152328491210938e-01
3.923117529970862050e-01,1.898135315029838566e-01,-2.078393844555340153e-02,5.400117651972814563e-03,-6.279418510467876455e-03,1.666499056236806289e-02,3.592233061790466309e-01
3.225680364033526315e-01,3.238071272795610689e-01,6.897053273279291075e-02,-1.371882503044530343e-03,6.256550540515060273e-04,-3.783191867169896638e-03,2.543171644210815430e-01
3.807906922904215063e-01,2.925987899708840656e-01,2.323794951334379189e-02,-1.918081220854670269e-02,5.389780416830512039e-02,4.623476209534127523e-02,3.468718826770782471e-01
3.591423366589842070e-01,1.747832154917614012e-01,-1.191792110862139875e-01,-1.621800955775878073e-01,4.158943812959631225e-02,1.741482067941063291e-02,5.095123648643493652e-01
2.829899291055265054e-01,3.745029278623184243e-01,5.008363637080495701e-02,5.428539313158621538e-02,-3.597956005940661922e-02,1.614633555916253002e-02,3.121543526649475098e-01
3.341330358434549397e-01,3.168937151855865109e-01,-2.925431309319162509e-02,5.759382975612050738e-03,-2.046494989370694576e-03,-2.830609352475373097e-03,3.552733063697814941e-01
3.463723642867959640e-01,2.912597385277138073e-01,-3.220333261873148389e-02,1.362350018369248850e-02,-4.593832313448073870e-03,1.103694239033357373e-02,3.556377589702606201e-01
2.908470798266052371e-01,3.350611229877065722e-01,-2.688583674776201526e-02,1.841887147162297057e-03,-2.148950711094763533e-03,-8.232629019617274807e-03,3.423225283622741699e-01
2.996312842098221019e-01,3.338487843515931530e-01,-2.999260853248367220e-02,1.641135483823251157e-03,8.341270360998879682e-03,-6.063333958968260447e-03,3.484662771224975586e-01
2.212529544967483941e-01,3.539174164167215864e-01,-7.798830905477144304e-03,1.299800821811127050e-02,8.149912717924390768e-04,-1.607368698975627239e-03,3.177549242973327637e-01
3.213659787330683804e-01,3.234031265703015690e-01,-3.334933855889318788e-02,1.118795141566846256e-04,2.884706611679505560e-03,-2.905661306943534312e-03,3.558090031147003174e-01
3.054704063301136308e-01,3.354828296553453160e-01,-2.835506448133029433e-02,6.951464958489209089e-03,5.517348444240489057e-03,-7.839027444648979243e-03,3.503994047641754150e-01
3.285039804474626512e-01,3.272478958297370122e-01,9.743016586961722458e-03,-2.597551685199038160e-03,-7.961639791511997827e-03,5.742382361976707157e-03,3.186205625534057617e-01
1.288891668279341096e-01,4.070743719559357654e-01,-4.107269416039022181e-02,-6.436806996304365869e-02,-1.175353570643593651e-02,-3.709698788059582857e-03,4.079710543155670166e-01
3.228328296799912178e-01,3.320001041789785723e-01,-2.935536450869205560e-02,9.073654872208162473e-04,-2.050088837182773883e-03,4.790915858925467834e-04,3.568822443485260010e-01
3.281030432874380565e-01,3.299767549409410305e-01,1.044757034063706347e-02,-3.189618849515336516e-03,-8.446835775249609060e-03,2.700859356389256980e-03,3.190143406391143799e-01
2.575586770980617390e-01,3.467801796516652990e-01,-2.450456911248274916e-02,-3.024436637121585836e-02,1.556665913412398281e-02,7.924326292791368173e-03,3.410949707031250000e-01
3.201763819164431535e-01,3.086787603085524023e-01,-3.049415497984458989e-02,4.481627978795177901e-03,4.907520900470801507e-03,-4.200339398740524088e-03,3.453340232372283936e-01
3.543713691715831837e-01,2.747949350941472080e-01,-1.124586064808627550e-02,1.352585566699955888e-01,-3.141766059162853092e-02,3.899912981161738484e-02,4.163201749324798584e-01
3.229607599420680208e-01,2.665725395166539391e-01,-9.197713094058701522e-03,6.848033218059906835e-03,-2.704188012956243881e-03,-3.863856558651398889e-05,3.081260919570922852e-01
2.888354160407964888e-01,3.568993789373705039e-01,1.673885514614020797e-02,3.433828223633036275e-02,-2.381048015356910380e-02,7.319628266034483403e-03,3.202937841415405273e-01
3.075242327556034772e-01,2.888288044364785701e-01,-1.564125716281888900e-02,4.410688725253780057e-02,-1.430062280045781009e-02,1.167693573512774800e-02,3.249654769897460938e-01
3.182534646481186558e-01,2.442300786223784437e-01,2.233395342683797136e-03,9.083090704293586559e-02,-1.843216717558479947e-02,3.331487634047070046e-02,3.332490324974060059e-01
3.295164528897627232e-01,2.812024430701703936e-01,-2.109459423504708719e-02,3.694285175382847064e-02,-6.950309219191467061e-03,1.090278313739586995e-02,3.360339105129241943e-01
3.337360773634394651e-01,2.240924193716313795e-01,-1.723058508333097372e-02,5.804944743293882770e-02,-2.591909631317082172e-02,4.094288073923926102e-02,3.374487161636352539e-01
2.874781254926485063e-01,3.058267675213999781e-01,-2.816091975522228008e-02,1.050315816674829983e-01,-2.308080065215226476e-02,3.592395397172826188e-02,3.798958957195281982e-01
3.112667435775329783e-01,3.110542172050632104e-01,-2.475756598393080710e-02,5.015058128196657472e-03,5.870275382760947389e-03,-5.070656196868317429e-03,3.362988829612731934e-01
3.281485343402658628e-01,3.269652479046201154e-01,-1.771081919101774593e-02,2.227810521486718598e-03,1.323400425406705922e-03,-3.459947359863095161e-03,3.453504145145416260e-01
3.263915159800678811e-01,3.248341526229979737e-01,-2.654676461657792808e-02,-3.388758306895369755e-03,-1.155216659167322690e-02,-1.530323535290323278e-02,3.537733554840087891e-01
3.531683163972500483e-01,2.453839926666159799e-01,-3.516693880902646563e-02,2.830705954478265896e-02,3.511380880825061904e-03,3.624758670099349333e-03,3.507784903049468994e-01
3.835059141922778636e-01,2.801958737657511134e-01,1.559334245795468421e-02,-1.269325715956554912e-01,-4.141295521720631673e-02,-2.995283631786634787e-02,4.052108228206634521e-01
3.352869811269480471e-01,3.213607255290174547e-01,-3.451597394168107180e-02,-1.437436576405569594e-03,3.666671058810591632e-03,9.364535993068355199e-03,3.634663820266723633e-01
3.308559709472583821e-01,3.267225695611963854e-01,-1.552129797952769841e-02,2.003167421492881104e-03,-9.020062270533591429e-05,3.577340393755364719e-03,3.444024324417114258e-01
3.487796270350034256e-01,3.335169381693681157e-01,2.306395764028970619e-02,-2.003122372125893877e-02,4.764264414686691061e-03,-7.408749281321206845e-03,3.206070363521575928e-01
3.189176460494016485e-01,3.538155567349476893e-01,-1.316739284297602230e-02,-3.815901317066537624e-02,-8.423738975325816697e-03,-1.986179482108279431e-04,3.573076128959655762e-01
3.426334626981814568e-01,3.696616320103254250e-01,2.252245788625137357e-02,-9.531415843261661913e-02,-1.290213091777361876e-02,-7.541962635550229777e-02,3.958177864551544189e-01
3.247428910713409667e-01,3.415701495411279098e-01,-9.945194681532154579e-03,-1.413362230971335629e-03,-1.138862790045903038e-02,-3.815517490844722547e-03,3.440493047237396240e-01
2.751480114079869477e-01,3.423853290876307520e-01,2.041533511738127804e-02,8.560176067310706904e-02,1.672885560919418202e-02,-4.174969140989313182e-02,3.385096788406372070e-01
3.285536578804802987e-01,3.298489058249048367e-01,-9.454459567841050349e-03,2.655929648754824183e-03,2.569235868314256876e-03,-1.744099463763080496e-03,3.387315571308135986e-01
3.119537775260396995e-01,3.323421519387632639e-01,-3.229968173196123837e-02,-1.432395500640786575e-03,-1.490805639992520996e-03,2.160385724609367210e-04,3.549054265022277832e-01
3.706536535953425249e-01,4.338061897215034768e-01,4.517658968834020738e-02,-5.516191454521214566e-02,4.509911556332876770e-02,-1.086577826820104425e-02,3.821815848350524902e-01
3.123585394729964104e-01,3.769178998135678249e-01,4.921973403042423367e-02,2.948995722636827375e-03,4.805793766361718400e-02,-1.966463546289677969e-02,3.138676285743713379e-01
3.712171198399075722e-01,2.128380288866854875e-01,-9.795788811174460653e-03,1.588736521323209569e-02,-2.454387593510674349e-03,8.772037316219727376e-03,3.330411911010742188e-01
3.201557473841978307e-01,3.822542111421340372e-01,2.179646400603871270e-02,1.278658611371460141e-01,1.924058675532503565e-02,-4.081372179798160860e-02,4.081164598464965820e-01
1.869385716861182434e-01,4.296719877951638011e-01,2.294570082507702002e-02,2.595875445987116253e-02,7.545655395346492766e-02,-5.822858701674249460e-02,3.935658335685729980e-01
3.284808144943599517e-01,3.154353417377641078e-01,-3.310596459154230287e-02,1.835202849624765261e-04,-4.054181461531377803e-03,5.766614277547787689e-04,3.553146719932556152e-01
3.313244662338851176e-01,3.244343890083570825e-01,-3.191610259712313047e-02,1.145521052215963146e-03,-2.531014351907653892e-03,-1.562666664939526932e-03,3.598873615264892578e-01
3.269673623946395824e-01,3.271770828323800062e-01,2.022952551244028285e-02,-9.238788428440479657e-05,-2.045142717428107600e-03,9.411282588079604092e-03,3.072958886623382568e-01
3.402751444418051219e-01,3.084390801956869987e-01,-2.432533075625184504e-02,-2.605713739358722636e-02,-1.702173882007821173e-02,-1.467758574736520612e-02,3.548126816749572754e-01
3.326742881649997208e-01,3.185800388482278866e-01,-3.152473973867375712e-02,5.839993328648247642e-04,-1.123902598127252996e-03,3.471941311289620906e-03,3.574177324771881104e-01
3.304719276175360765e-01,3.244398535812574313e-01,-2.807749556100144761e-02,-1.107828464286077837e-04,-2.128710266997672364e-04,-9.993520533295133408e-04,3.555762171745300293e-01
3.298037435907564818e-01,3.249858154618945338e-01,-3.105858610008638276e-02,3.606210694499285981e-04,4.223122248761148993e-04,1.013087010902458162e-03,3.584832251071929932e-01
3.314412431477117282e-01,3.187345356246198969e-01,-3.140824804938258108e-02,-1.798800078254280757e-05,6.755884099704528465e-04,3.592849862455187952e-03,3.567221462726593018e-01
3.305692180843627370e-01,3.224468035496009244e-01,-3.272271165993992370e-02,1.069206419804365378e-03,6.441158611174957862e-04,-3.843642836994348700e-04,3.593066930770874023e-01
3.297625710581898462e-01,3.303079921714424660e-01,1.389299956601688923e-02,3.918021182815535584e-06,2.668257768507661422e-03,6.040802451238839327e-03,3.163494765758514404e-01
3.280073315141641688e-01,3.273614914357770300e-01,-2.504611255147529136e-02,-1.073604686288674248e-03,2.979824296878907583e-04,2.645803018671932013e-03,3.527660071849822998e-01
3.300443049168676479e-01,3.245854069535389907e-01,-3.106876608409125939e-02,2.754812957990165206e-04,4.497339000786989226e-04,9.660047528143120982e-04,3.584198653697967529e-01
3.430992076508685429e-01,2.488288680972111089e-01,-1.346658616074838943e-02,5.075786434670895297e-03,-5.404106265781376608e-03,9.455577014989295995e-03,3.206955194473266602e-01
3.386731153493183211e-01,2.976794888490744695e-01,-2.858623807012858342e-02,2.201829300456958666e-04,1.505421974945423281e-03,5.630570985979128744e-03,3.487214744091033936e-01
3.400221421503987762e-01,3.421586277232696038e-01,-3.235889046108159084e-02,3.339722883508010332e-02,-1.164594647582126163e-02,1.034633336804140560e-02,3.788692951202392578e-01
3.240987456737666195e-01,3.099832657573264316e-01,-3.614765660866983699e-02,5.411597745977402008e-02,-4.028814804180462505e-02,3.260630629735542657e-02,3.764786720275878906e-01
3.613932993017031636e-01,2.802222305182451301e-01,-2.622731214344470319e-02,1.830137579450468854e-03,9.034917126876489948e-04,9.370896219726943324e-03,3.544726073741912842e-01
3.324330086760488578e-01,2.980087036514571519e-01,-2.769505203872779653e-02,3.962088182233543254e-03,-6.845238622697484739e-03,2.393965310550742200e-05,3.444818854331970215e-01
3.087624223445857297e-01,2.890433462269994536e-01,-1.158002617070971740e-02,-2.034609547651261216e-02,-2.981860512282065532e-03,-4.043025245879021574e-03,3.130636811256408691e-01
2.632199632325330496e-01,3.228966916143489740e-01,-9.557054878753662441e-03,-7.148818703911425168e-03,-1.006600876811069353e-03,-1.193955147295130970e-03,3.072583377361297607e-01
2.119302199194555425e-01,3.087145657670549159e-01,-1.902259783775328561e-02,-1.356477256723832014e-01,2.551930750996128996e-02,2.884568885515439302e-02,3.804075121879577637e-01
3.161862694371253557e-01,3.275601434047681337e-01,-3.005937823786883345e-02,-2.211964702271970902e-03,-2.935229802619719087e-03,-4.611049829658534459e-03,3.522185087203979492e-01
3.138239638902809436e-01,3.793927995969965106e-01,1.075362890833658769e-02,-1.356682077797455310e-01,-3.154398642692049504e-02,-4.814937447938960613e-02,4.256531596183776855e-01
3.362201774545851007e-01,3.091610662864626158e-01,-2.484223620434530821e-02,-1.867477877519860621e-02,-5.982752137167452779e-03,-1.935623592977935709e-02,3.515762388706207275e-01
3.102204080344696524e-01,3.185163866550181355e-01,-3.164900069961917861e-02,-3.603576094778290079e-03,-5.235556899709670198e-03,-7.024944381589220271e-03,3.464807271957397461e-01
3.436311958912777742e-01,3.339554830250424100e-01,-2.100163886644718092e-02,2.672846481287255264e-03,-5.851553066951877859e-03,-3.286398925839982641e-03,3.601099848747253418e-01
3.290102429967990405e-01,3.276035744900827051e-01,-3.168874294832443872e-02,2.630982090493598751e-03,-1.746248232899897225e-03,-9.792298032768101661e-04,3.600432574748992920e-01
3.683529447749367969e-01,2.482953968866310479e-01,-2.575216782485464928e-02,-1.973016963026033577e-02,-9.741655923310801185e-03,-2.573988234306122738e-02,3.547640442848205566e-01
2.266670809263122699e-01,3.165857336028294888e-01,-5.515647093670195122e-02,1.323242531333114202e-01,-2.188839998818995977e-02,3.697298480694798106e-02,4.134229123592376709e-01
3.324245353949925041e-01,3.390554577087560584e-01,7.004170558183558937e-03,4.464560191128100902e-02,1.933381967839782958e-02,-2.541627426919769797e-03,3.394417166709899902e-01
1.964265120886592719e-01,4.209202181826597888e-01,-2.772615832440145089e-02,3.526142004249734757e-02,4.152480240320477467e-02,-1.334449069952401909e-02,4.004996418952941895e-01
3.332611292553491200e-01,3.163399159954775608e-01,1.602844844244050160e-02,4.482133079641802825e-03,7.464976861761865763e-03,1.759506559011515770e-03,3.095023036003112793e-01
3.667012061559075109e-01,2.186424693882524362e-01,-1.228121095668960328e-02,8.189710999719044746e-03,-1.622711403276381461e-03,1.241002532887544238e-02,3.318260610103607178e-01
2.883526145778687599e-01,3.575069624122722001e-01,-2.917802945011660487e-02,-2.026599333970499281e-03,1.202016479260953168e-02,5.038724074896136019e-04,3.577893078327178955e-01
3.277591989650327498e-01,3.229423328336029630e-01,-3.351371969759020519e-02,-7.872478357818082971e-05,2.519667532460273529e-03,-1.964094376340344301e-03,3.589314222335815430e-01
3.201378194405408717e-01,3.222733979987073560e-01,-2.353354391656814482e-02,6.558572585729580129e-02,9.824455915704306819e-03,-3.105618928888395636e-02,3.673363327980041504e-01
3.055737603537651559e-01,3.240708193215244282e-01,-2.770448294919047871e-02,5.320674233389984485e-03,5.970139390234123836e-03,-6.205982117410200130e-03,3.433490991592407227e-01
2.608281462386977667e-01,3.280238147282530381e-01,-1.435666501244781124e-02,9.196830736713272614e-02,9.565359744566303418e-03,-1.748373519512856633e-02,3.539762794971466064e-01
1.666196628521303957e-01,4.172486763441347057e-01,-3.438137615548944592e-02,4.595965013962533680e-02,9.607190945145021102e-03,6.460112186726523625e-03,4.004147648811340332e-01
2.884781313404258252e-01,3.273631411922118817e-01,-2.387843370137604504e-02,3.728139961392773656e-03,5.245688483356894527e-03,-9.486601038700475871e-03,3.340941369533538818e-01
3.109658237623063592e-01,3.209918686687647238e-01,-3.317182196253770643e-02,6.702656528363359553e-03,8.183790906001138510e-03,-9.902148587055193893e-03,3.501591682434082031e-01
3.591283046474501583e-01,2.208494699766062608e-01,-8.656404231560749230e-03,4.054487545083799126e-03,-4.135002137209977356e-03,-7.593061972638238304e-04,3.219194412231445312e-01
3.239151271260267140e-01,3.291710732991882660e-01,-3.242526202510201405e-02,3.110154654985156997e-04,1.127557827204980464e-03,1.448195541683163163e-03,3.590117096900939941e-01
3.111582595270970253e-01,3.353534312321270194e-01,-3.054484827764272770e-02,-1.777997661100161938e-03,2.603426084849683533e-03,-5.678597541318779153e-04,3.544640541076660156e-01
3.222260794467274314e-01,3.265427595868286570e-01,-3.432506341120566962e-02,4.829746169873961248e-04,-3.977330194564164669e-05,1.751823301567463718e-03,3.587427735328674316e-01
3.251947606943913494e-01,3.290039828901060726e-01,-3.235457856856244208e-02,9.040625370717694006e-04,1.180293996780548086e-03,1.442317493236519588e-03,3.594869971275329590e-01
3.290286783591774844e-01,3.180554414005374864e-01,-2.643004866789910867e-02,-3.834375512581023743e-02,1.690855103077441163e-02,2.787028550776426972e-02,3.607900738716125488e-01
3.292911585281697029e-01,3.248460478232937931e-01,-1.572685436809148629e-02,-5.082826373933127008e-04,1.253913747307865059e-03,1.997001411126416749e-03,3.428425192832946777e-01
3.277417386150197620e-01,3.244144973850201508e-01,-2.769544376681776221e-02,-1.473893580156483392e-03,2.742675410068266643e-03,-1.120803952465581905e-04,3.538264632225036621e-01
3.291718405374524092e-01,3.280921354132008694e-01,-2.242312186306438804e-02,-2.478235769397991138e-03,-2.010993450486285843e-03,-2.042733260252018856e-03,3.511177003383636475e-01
3.268291153249942571e-01,3.248789690036492650e-01,-1.571086973455959601e-02,-9.325135010925279799e-04,1.670422092431519002e-03,2.165225554137077159e-03,3.416057527065277100e-01
3.348636582094468572e-01,2.990216278779809222e-01,-3.029142875084064879e-02,1.058974750053422002e-02,3.344352029330158616e-03,-3.721032058860026213e-03,3.492084145545959473e-01
3.279257224175458063e-01,3.176666077809468525e-01,-3.364889171201387863e-02,-1.123152232778178985e-03,4.502721301087786974e-03,5.853826660012028229e-04,3.566477894783020020e-01
2.128086519278745703e-01,3.974021138672879649e-01,-2.261822570537949662e-02,2.326127821880777380e-02,-3.776067603843723947e-02,1.692869431494795768e-02,3.737906217575073242e-01
3.407371072880380769e-01,3.284612533523683653e-01,-3.209891246670854015e-02,3.379585658723617547e-02,-1.104282953486259919e-02,1.008780122201370297e-02,3.723950982093811035e-01
3.265203122850819928e-01,3.289275794548441878e-01,-2.978994400004217336e-02,-1.395429061049202482e-03,-2.348366332552546433e-03,5.130105616735831930e-03,3.576616644859313965e-01
3.222758695699834419e-01,3.749327836758254984e-01,-7.140821292628773964e-03,-1.996288057725586552e-04,-4.386970193565336087e-03,-3.404088754264333709e-03,3.587851524353027344e-01
3.343833761599168675e-01,3.355572870497621762e-01,-1.378997501270023962e-02,3.681411381642201233e-03,-4.532051081109223119e-03,2.683529501513365594e-03,3.489393293857574463e-01
3.281185359047674721e-01,3.292976594110419430e-01,-1.055739366327079765e-02,-2.239609622954326622e-03,6.280195314539284077e-03,-6.678794815476793781e-03,3.396605849266052246e-01
3.273553972715980698e-01,3.282597159269109999e-01,-1.834029034139639247e-02,-1.840497214696455025e-03,3.746828783552604968e-03,3.414912912877386079e-03,3.462747633457183838e-01
3.273493307104157202e-01,3.306717727461503387e-01,-1.434201296969569994e-02,1.299367360806976150e-03,4.156364796673118166e-03,3.065968103281813627e-04,3.434478640556335449e-01
3.082815142868631231e-01,3.390415889489543089e-01,-3.230864765029839436e-02,-6.192641484826499725e-03,-2.521154545094330627e-03,-3.583743826625286361e-03,3.572072982788085938e-01
2.974779833987685196e-01,3.373721805096286941e-01,-2.924113310920531394e-02,-3.249926563911139515e-02,-1.670828139964414608e-02,-6.595173164968520796e-03,3.542706966400146484e-01
2.548131623867047613e-01,3.494074593036057275e-01,-1.852439097534944179e-02,-1.179959774028783819e-02,-7.422929458622128541e-05,5.224938632470562186e-03,3.316885232925415039e-01
3.203846554662290735e-01,3.313485597167137309e-01,-3.004299592264958463e-02,1.871820794713492664e-03,-6.394514573055104902e-04,-2.800324690757634554e-03,3.560857474803924561e-01
3.278294332156512225e-01,3.258940389376452917e-01,-1.851384584532367317e-02,1.393839510190911235e-03,-4.086244693730349369e-03,3.630321943734786871e-04,3.454611599445343018e-01
3.286815439038821562e-01,3.263559065471581810e-01,4.428307115578178355e-04,2.680844967186341368e-03,4.087540950539638937e-03,-2.461875125745538635e-03,3.272194564342498779e-01
2.402627157104404720e-01,3.599203373471234757e-01,-1.742636050875956411e-02,5.646784399809601403e-03,-7.669159442353161958e-04,-1.196238190905279507e-03,3.341523408889770508e-01
2.581148517735422088e-01,3.451644354224395195e-01,-2.404088656301042737e-02,7.308107675865236708e-04,1.133561029187556829e-02,-2.122978986362152737e-03,3.348904848098754883e-01
2.920667976123960674e-01,3.425937548416792544e-01,-2.673783569056889520e-02,1.645496321507213412e-03,-5.013250212841431240e-04,-4.176797581064079119e-03,3.469276726245880127e-01
2.426360204362245088e-01,3.602174803499232913e-01,-1.524826159069159193e-02,-5.036161918070581299e-03,9.479669156203938268e-03,8.103450763573263535e-03,3.334588408470153809e-01
1.632484339622072844e-01,4.253744030589088343e-01,-5.862093362066417290e-03,1.290068276878931792e-03,2.066507585368502001e-02,2.327392796413994477e-02,3.801944255828857422e-01
2.757993393560953521e-01,3.250778984492011525e-01,-1.639948292891127424e-02,6.835153872217366103e-03,8.108677249593208847e-03,-1.033133619790335862e-02,3.207261860370635986e-01
2.923610745530865751e-01,3.439576204807541226e-01,-2.882364689747715647e-02,1.505350680190159105e-03,1.325969368682539638e-02,-1.819259155751818497e-03,3.506252169609069824e-01
6.579979877101811703e-02,4.222745269196435114e-01,-2.797562831886019064e-02,-1.281596970428945312e-02,2.201215915115494262e-02,1.450033034573881613e-03,4.138227701187133789e-01
3.180241513781814078e-01,3.258787489213794686e-01,-3.239332358262370093e-02,2.339949583797957603e-05,-9.195573640288465819e-05,-4.225232601567267127e-03,3.544856607913970947e-01
3.578817315194287030e-01,4.517641595454022774e-01,3.215400790910560858e-02,6.396836147726606137e-02,4.996298586811966785e-02,-3.064433256671348846e-02,4.099689722061157227e-01
2.580174616515802932e-01,3.499002649257038078e-01,-1.912891679708719761e-02,1.133656226599915814e-02,1.977858565945047817e-02,-9.045224095056784638e-03,3.354431688785552979e-01
3.658693044351009616e-01,2.348068658322623459e-01,2.680432784433178783e-02,-5.298794104530417381e-02,-4.089639727984581419e-02,-6.383390691453379173e-02,3.367027640342712402e-01
3.613012383975225950e-01,3.271156883397835502e-01,-3.560253385807043980e-02,-4.095123124736616688e-02,-2.037319111449374318e-02,-1.319374381827671978e-02,3.897836804389953613e-01
3.301277613121821886e-01,3.218741210479764137e-01,-5.753316473925296215e-03,-6.069005356321980802e-05,-6.214510405037040929e-04,-3.986764613800713661e-03,3.319048583507537842e-01
4.310753146253082924e-01,3.300083089191360175e-01,4.489317890349101003e-02,-7.326830077981455469e-02,-4.486477702953530627e-02,-4.609013714752509955e-02,3.857941031455993652e-01
1.892608514493184790e-01,3.672760771528476575e-01,-1.512343439839169967e-02,-2.464748174064158859e-02,3.314406397166918400e-02,4.542696777392523332e-03,3.391546308994293213e-01
3.017414522530552645e-01,3.178734691985932170e-01,-2.576139208109257117e-02,4.894400893629471776e-03,-6.247640675769947647e-04,6.650000046985840227e-03,3.361656367778778076e-01
3.045057048808382794e-01,3.164969464173684743e-01,-2.996085587864535937e-02,3.091269686170752817e-02,-7.968739807097439953e-03,1.029562045048339203e-02,3.455396294593811035e-01
2.951653225932902025e-01,3.359013222217341887e-01,-2.820819195425366965e-02,4.341641337827082314e-04,-6.740822212785498035e-03,-1.085629376988866729e-04,3.457451462745666504e-01
3.058017595234717168e-01,3.195899220938335783e-01,-2.002242241241691811e-02,2.946033523470117238e-02,-1.860815730473934851e-02,1.560261073921184391e-02,3.394361138343811035e-01
3.182885430745933109e-01,3.357950741887427148e-01,-2.729557290735867836e-02,3.796068042787459872e-03,3.523209722369028112e-03,-6.129229125774500117e-03,3.549337983131408691e-01
3.604081171672663952e-01,3.651308028238873793e-01,3.527040644103418554e-02,7.489324993191672896e-04,1.135218361556511110e-02,-1.882235483917006624e-02,3.297324776649475098e-01
2.879314730838808400e-01,3.403385838642096761e-01,-1.215268561346127818e-02,2.730315011892264776e-02,3.555651374951949301e-02,-2.340317300173613141e-02,3.408751487731933594e-01
3.229903846109354881e-01,3.220674011014778015e-01,-3.449696906674298846e-02,1.485303999651185498e-04,-1.228263228162760875e-03,-1.608538231086125564e-03,3.570440709590911865e-01
2.667496964972840279e-01,3.428010458781429182e-01,-2.963733621348055292e-02,3.473241943612843941e-02,-2.053287958453264145e-02,1.146399485709582826e-02,3.484936356544494629e-01
2.507225505324824355e-01,3.425908032270955639e-01,-1.497992501738637516e-02,5.480056069840587817e-03,-9.878795320210681866e-03,7.612100607762370061e-03,3.224963545799255371e-01
3.119841141580784738e-01,2.804032938971863786e-01,-9.367722307469628085e-03,2.179231116185980158e-02,-2.011018308317639048e-03,1.277742696973734916e-03,3.091238141059875488e-01
3.211927640142759888e-01,2.963583313718734513e-01,-1.589268474527019692e-02,1.795378847734758199e-01,2.265222547208720419e-02,-3.256798789930444391e-03,4.518238306045532227e-01
2.191653974854656517e-01,3.583766988350509108e-01,-1.865651272672874672e-02,-3.379489233261307596e-02,1.553595508685665788e-02,1.003359533513824633e-02,3.368960320949554443e-01
2.294193745235112991e-01,3.502178270754003342e-01,-8.724533493555453045e-03,1.123670370706851551e-02,7.163736167218472768e-04,1.115802009324627165e-03,3.169483542442321777e-01
3.320644133891707539e-01,2.835447884316357747e-01,-8.232998764838417305e-02,1.889251022077514386e-01,2.434462575811052742e-02,-3.900191797903519719e-02,5.170977711677551270e-01
1.814069447742813201e-01,4.064332994794083720e-01,-1.380080206647352203e-02,5.071690285872043624e-02,7.391240764897187565e-02,-1.179164218190502681e-03,3.959541916847229004e-01
2.439666012751419699e-01,3.887197460517123337e-01,-3.385376568559078647e-02,6.075468725625397977e-03,9.314864281575392299e-03,-1.197506949149080777e-02,3.730338215827941895e-01
3.450089522073730430e-01,2.092987250422988776e-01,3.685734007890795194e-03,-7.216931532485498790e-02,3.277010959539335827e-02,4.171248822192771127e-02,3.356552124023437500e-01
3.235117283802596555e-01,3.206457805406228156e-01,-2.979198425032855702e-02,-3.853548212157758418e-03,2.518814184143754794e-03,4.180684562005336849e-03,3.520443141460418701e-01
3.232793950604182509e-01,3.510868156275674945e-01,-1.079665316194008962e-02,-1.397864662677997249e-01,-4.226638845437067152e-04,4.144848198575512566e-02,4.306333661079406738e-01
4.253948479127673821e-01,2.769919098527365287e-01,1.346877011543337610e-02,-2.252244203576605000e-02,2.905616024685563764e-02,5.692731207156165318e-02,3.799371123313903809e-01
3.389308835733774172e-01,2.938787925301611370e-01,-2.720609738671997402e-02,-1.081710056105444212e-02,7.570258195911772764e-03,7.808045276584069452e-03,3.468379974365234375e-01
3.202579060612831818e-01,2.628300624676772057e-01,-1.730059115008106274e-02,-1.867477508345576423e-02,8.572222593564732956e-03,5.975002990239820788e-03,3.150114715099334717e-01
2.817030857706389613e-01,3.817097012635062292e-01,-3.344178624443996939e-02,-1.568326116421275493e-02,2.795437119480934790e-02,8.381611985414042648e-03,3.796408474445343018e-01
3.123728686505565788e-01,3.010115461372864787e-01,-2.125943564526147633e-02,-1.802667149435244545e-02,1.203886524966909025e-02,1.164532288636338682e-02,3.308558762073516846e-01
2.910046868691356092e-01,3.935741110837975287e-01,-4.305943729451650048e-02,-2.485999609268553512e-02,2.345796376106080994e-02,1.310251158664155549e-02,4.005046784877777100e-01
1.954484918643245583e-01,3.956972463147622743e-01,6.594083255506283381e-03,-5.467918947342802205e-02,5.937076472722053327e-02,-2.875079041076383617e-04,3.648667633533477783e-01
3.255460232089326111e-01,3.219731315761161783e-01,5.735004175746483135e-02,1.103035399306513025e-03,-8.443005791285837155e-04,2.807365045866826430e-03,2.664827406406402588e-01
3.226671474426795472e-01,3.306745935475798870e-01,-3.058806185307100245e-02,-1.265657697266625407e-03,1.810707417156674163e-03,-2.996904775713865425e-03,3.573844134807586670e-01
3.252582644613317697e-01,3.274396928983226429e-01,-1.729404603991027689e-02,4.813951099203696760e-05,-1.846616610856186957e-03,-5.027610008591708139e-03,3.437734246253967285e-01
2.943230248820195571e-01,3.445112046028321884e-01,-2.965100150668278922e-02,-8.549876834305343218e-03,1.609932593446728594e-02,2.261130976464125353e-03,3.531995117664337158e-01
3.566334455290318117e-01,2.866683121927283695e-01,-2.361637890873399814e-02,5.238818485264842319e-03,-2.661532091137482851e-03,-2.406054536032836005e-02,3.531588017940521240e-01
2.874396530958980844e-01,3.563007686307133604e-01,-3.144067183711155011e-02,-6.684625739081840462e-03,1.240867234673792042e-02,3.707235595695817891e-03,3.591965734958648682e-01
3.210232628406309296e-01,3.226843912608242659e-01,5.203416734342519723e-02,-4.089838103381920366e-03,8.550820056248120953e-04,1.325133928762955819e-02,2.708946168422698975e-01
3.942385799222779541e-01,1.377404007843425204e-01,3.733037458603621905e-03,6.188238832473146045e-02,1.834878779045379452e-02,-3.949607685625039499e-02,3.678315877914428711e-01
3.257114796195014761e-01,3.257544557600360879e-01,3.367102969615048957e-02,-1.108210780149990280e-03,1.074733294849807138e-03,-4.342894016853660749e-03,2.921710312366485596e-01
3.282243660441354627e-01,3.297309520016649675e-01,-1.103202500961061872e-02,-1.474036524477604325e-03,-3.953667834632659112e-03,6.541852583131209462e-04,3.400925993919372559e-01
3.051859699135172077e-01,2.760447556803503621e-01,-1.202430723113087629e-02,-3.812749042285942802e-02,7.841831265682646518e-03,1.618977891650042258e-02,3.123453259468078613e-01
2.633513461863873917e-01,3.320810358901646886e-01,-1.889401504736692994e-02,-3.464530942135798236e-02,1.296455238939791220e-02,1.659612781894685002e-02,3.297215104103088379e-01
3.294576691385203704e-01,2.528419150944252181e-01,-8.375351392879731849e-03,-1.579860531663291115e-02,7.346176638472893747e-03,2.686724005738443284e-03,3.083020150661468506e-01
2.566130110408251230e-01,3.300159697203346454e-01,-1.258612061150232719e-02,-1.208240144323135395e-02,-6.282576575736575387e-03,-7.788214389234476148e-03,3.136152327060699463e-01
3.091453260979160622e-01,2.683589782336351925e-01,-9.081069446522704869e-03,-1.243984787710024700e-02,5.616681822541428303e-03,4.794960798999052705e-03,3.009653389453887939e-01
2.975111443289157886e-01,2.782205465812809808e-01,-1.326655417467462184e-02,-3.590160701618029526e-02,-9.008089391027998549e-03,-1.037267503346450855e-02,3.088572621345520020e-01
1.968374450612605520e-01,3.606599415762430372e-01,-1.992145483826718300e-02,4.763611920400544208e-02,-3.350248710831707499e-02,9.281072036461970832e-04,3.457016646862030029e-01
2.792095507684034805e-01,3.600115125996300458e-01,-2.731023294524900780e-02,4.665471994396143580e-03,-5.835280585447901944e-03,2.420863469014925082e-03,3.541691303253173828e-01
3.163735000967156097e-01,3.330086430519484386e-01,-2.478198495151986980e-02,-2.308938293962229955e-03,-5.627211907335758628e-03,-3.774499601238096372e-04,3.499290943145751953e-01
2.916767728202342425e-01,3.558956425127531853e-01,-3.030545644099302827e-02,-1.142984963522906267e-02,-8.964328953103464781e-03,-4.420807190847537331e-04,3.593153655529022217e-01
3.179451517399022320e-01,3.447740026341007402e-01,-8.595870215569179074e-03,-7.164533607476295668e-03,-1.455773286444288044e-03,1.093498255137204155e-03,3.409889638423919678e-01
3.143859353523035249e-01,3.360111301206297751e-01,-2.845383449264313191e-02,6.844694985072802100e-04,-5.498514250233242466e-03,5.177474216414597666e-03,3.543913960456848145e-01
3.158093842781977134e-01,3.319535253453301804e-01,-3.187416005877694025e-02,-7.193611413171903304e-04,5.260756087735604051e-04,-1.910565372995072248e-03,3.560489714145660400e-01
3.599843373913570455e-01,2.596300060852707037e-01,-2.432312994314234089e-02,-3.230953289295452995e-03,-8.543786028129371490e-03,-5.053890118219233479e-02,3.565236926078796387e-01
3.250319616908532439e-01,3.300669615717113925e-01,-3.291566073556129179e-02,2.740708621240616036e-04,8.765169095302073696e-04,-1.003399317907177342e-04,3.604950606822967529e-01
3.024875342393962829e-01,3.340690779081312289e-01,-3.101962036028010905e-02,1.997208899458737408e-03,-5.231437101232857406e-03,5.563615025884913190e-03,3.506337404251098633e-01
3.244107913693110579e-01,3.292248035007191431e-01,-3.071381608110138051e-02,-7.341545290321889244e-04,8.828456855935326239e-04,1.203291423406026815e-03,3.575675189495086670e-01
1.983698887564737667e-01,3.929054194367511688e-01,-1.984043180282149543e-02,3.864439387303123669e-02,-3.409422700279588631e-02,6.209525617471663671e-03,3.687717020511627197e-01
3.280878492285747017e-01,3.255541670750625727e-01,-1.288900201548137670e-02,5.595205010303909866e-04,1.077424935763805856e-03,-3.549598761472814220e-03,3.397792279720306396e-01
3.300450543690011673e-01,3.273493977564310708e-01,-3.993833865269413863e-03,4.577363843374874369e-03,-5.210027186143450367e-03,4.598654610531045621e-03,3.330112993717193604e-01
3.254344148204423304e-01,3.285056108250863360e-01,1.290813739899357437e-02,-1.508579922672774140e-04,-1.033676648789561871e-02,-2.067304308029239979e-03,3.146035075187683105e-01
3.436508451095419137e-01,2.567004104995179725e-01,-1.839071972587869030e-02,9.049366593608500556e-03,-3.331605302100163531e-03,-1.124932431019983739e-03,3.277767002582550049e-01
3.369346947837213446e-01,2.707388825048266390e-01,-2.498066645707694433e-02,-3.502355904809364116e-03,7.838417701221069359e-03,1.668743220269705563e-02,3.353563249111175537e-01
3.937822236640118323e-01,2.409030654568724283e-01,-2.497934988787772759e-02,2.567175788222050836e-02,6.645523963766959002e-03,-2.968104119358939974e-02,3.734512925148010254e-01
3.304645191828614603e-01,3.277099108936253336e-01,-2.536286611629345877e-02,6.506065640989080719e-04,6.280121033970357831e-04,3.211413761543626538e-03,3.545052111148834229e-01
3.836527835631027838e-01,3.972014958825895725e-01,5.293792975439007287e-02,1.374228738917909753e-02,-6.094936003255323545e-03,6.541871008100655360e-02,3.571462631225585938e-01
3.728893869600319322e-01,3.503049430074730575e-01,5.600602494096287853e-02,6.105768152113542381e-03,-2.441299012109302002e-02,2.019022864850898713e-02,3.112735748291015625e-01
3.536342632636990113e-01,3.671264445986032188e-01,1.347190106693432754e-02,-7.083480448542645643e-05,1.271960966548296192e-02,4.150807449316152166e-04,3.478043973445892334e-01
3.279291781757331936e-01,3.233707437559929510e-01,3.437178469531521063e-02,3.058050904926167077e-03,-1.649235720330800153e-02,3.924677729629862284e-03,2.928289771080017090e-01
3.751008995862409878e-01,3.681863154063446664e-01,6.223098186304437673e-02,1.766214624514653858e-02,2.430638062532159901e-02,2.275813433930573906e-02,3.162816464900970459e-01
3.475454589147609630e-01,4.009030003471938941e-01,2.772152912023378990e-02,-7.984044316901189875e-02,-6.070994345450676788e-02,7.968918380584512004e-03,3.906027078628540039e-01
3.270563435177543665e-01,3.243172321826257587e-01,4.369761577579736600e-02,8.078554808718199122e-04,6.718811348389409216e-03,1.403229399815449389e-03,2.822530865669250488e-01
3.152955741097874798e-01,3.299429308943579442e-01,-2.198522764455690393e-02,-1.288567784702626673e-03,-3.970706522795325322e-03,-2.727587674829799313e-03,3.449460268020629883e-01
3.153553610118334238e-01,3.372311334741686650e-01,-1.786229270195710539e-02,-3.261818227022430898e-03,-6.087950846931899571e-03,3.648049602975832022e-03,3.449420034885406494e-01
3.265177929569912929e-01,3.283286586426541476e-01,1.664540075859874402e-02,4.895610949107044151e-04,-4.198204838963879790e-03,4.788209459699890869e-03,3.109785914421081543e-01
3.300669310132052781e-01,3.279698791631373567e-01,5.798522568324329662e-02,5.177688710779511372e-04,1.761183526743085280e-03,-6.920237802126665526e-03,2.713227868080139160e-01
3.221678559182499790e-01,3.210333571761194715e-01,4.940716693160601691e-02,-6.126307162167500021e-03,-2.159236410483491415e-04,7.931153763364007236e-03,2.727483808994293213e-01
3.889275776528789974e-01,2.702838990572521971e-01,3.679892327639786020e-02,-3.835288551547509639e-02,-4.423476502862353291e-03,4.676693240839470411e-02,3.276065289974212646e-01
3.146024308000384684e-01,2.488484068019880535e-01,1.351574355618531675e-02,1.191737949467122082e-01,-3.884067532112762955e-02,3.979154874664524860e-02,3.564578592777252197e-01
4.163045816769423979e-01,3.713923290138584354e-01,3.767036218807595649e-02,9.711639650133015167e-02,-8.041034042959453731e-02,5.530045998646215821e-02,4.303978979587554932e-01
3.297340838234702476e-01,3.237236206981498055e-01,-2.145189060765886890e-02,7.499551644981858637e-04,-1.745369409556713717e-03,4.108394317238245786e-04,3.482359349727630615e-01
3.297680284156466746e-01,3.273639460824693259e-01,-2.735845853268908945e-02,1.377333918038454617e-03,-4.891046279274720342e-04,2.037040107314611569e-03,3.559570312500000000e-01
3.293585173984769909e-01,3.255796635731753597e-01,-1.405087030115784175e-02,8.068170364539642338e-04,9.001192323169488602e-05,-3.508701733996994181e-03,3.415926098823547363e-01
2.991842024301510916e-01,3.606251001934538403e-01,2.372332356031173206e-02,-3.965691015824489296e-02,4.429634388784398774e-02,4.577854670257176795e-02,3.368527591228485107e-01
3.185888929846840689e-01,3.136949304748384293e-01,-2.781106604994645903e-02,-1.491009024574534853e-03,3.489356277704512045e-03,1.980063755335387341e-03,3.440589606761932373e-01
3.304619389803954421e-01,3.246981762521308768e-01,-3.169782195358558652e-02,3.217816236900493550e-04,2.571908391499511549e-03,1.016321025338386272e-03,3.593448996543884277e-01
3.865288859355638929e-01,1.250397644098610594e-01,-7.534065734036393680e-03,8.269341239205085792e-02,8.030949739647970376e-03,-1.814839263474231704e-02,3.772468268871307373e-01
3.247966168034451262e-01,3.194541910664038253e-01,-3.369704286706981522e-02,-4.013363774358182437e-04,2.762033967685943205e-03,1.778211113017744930e-03,3.558986783027648926e-01
3.286887578046730485e-01,3.194941999422455381e-01,-3.362046293006104580e-02,3.606565741570352270e-04,3.191411153129449993e-03,2.076987570115746036e-03,3.578618764877319336e-01
3.300693857026252287e-01,3.234925547380789190e-01,-3.227617195344081868e-02,1.120254293498221167e-03,1.684458400584261514e-03,2.199855343476510381e-03,3.591396212577819824e-01
3.271174474078333283e-01,3.316107232131599303e-01,-2.448418700786908486e-02,1.363444767091166960e-03,2.796499873357447593e-03,1.295683818797453398e-03,3.539178073406219482e-01
3.092110443098010641e-01,3.329626654570737032e-01,-2.747675708780167314e-02,-3.574551486920164375e-03,8.354906722635429411e-03,5.321625481522169326e-03,3.496461212635040283e-01
3.300402650161043949e-01,3.298930369506518634e-01,-1.761921719428813371e-02,1.727012153630018421e-03,-4.762560583559489677e-03,-2.959598823080882880e-03,3.477344214916229248e-01
2.787858057837591663e-01,3.115722709183658679e-01,-1.386659082766877882e-02,8.856454460632911738e-03,-3.372376876673617661e-03,5.559751826622544649e-03,3.109301924705505371e-01
3.231526424282214482e-01,3.279673930001276161e-01,-3.267478762044928597e-02,-1.916775925764442438e-03,3.323636763954053268e-03,2.978297541453235522e-03,3.583578169345855713e-01
3.231442753595127337e-01,3.300731905516456899e-01,-2.661434884876776041e-02,4.968392935819860917e-04,-4.706055863005248648e-04,-8.720930895200981487e-04,3.532792627811431885e-01
3.244879422769002542e-01,3.305497008927912317e-01,-3.185939611891461243e-02,1.632621087338036550e-04,1.055360516320883162e-03,4.287453117027262544e-04,3.594220876693725586e-01
3.149441669300597213e-01,3.328721757104611267e-01,-3.230663082102078199e-02,-5.904892448992996555e-04,-6.573610238562469172e-04,2.305381247304873205e-03,3.565786480903625488e-01
3.260640524251220418e-01,3.302214636435468753e-01,-2.437651472062532521e-02,2.736891616179674969e-03,-1.711415558475834139e-03,-9.211165764765634608e-04,3.525856137275695801e-01
3.232477751609417749e-01,3.304831732088879814e-01,-2.970222949740361496e-02,3.933137584480220043e-04,-6.333704269518976261e-04,4.436695064739428060e-04,3.566259145736694336e-01
3.226736852283558221e-01,3.288485207692507517e-01,-3.424363845694944342e-02,4.693753212992269816e-04,-8.050810272211180721e-04,1.662185932360861311e-03,3.600595891475677490e-01
3.238909906474825018e-01,3.276776464871282157e-01,-3.348107132449398837e-02,2.158679554718836448e-04,6.693569086665910467e-04,3.197265543434197948e-04,3.592828512191772461e-01
3.235281681800638021e-01,3.245082174319305901e-01,3.501009951605246751e-02,-8.871386089526324490e-04,3.750402304023299493e-03,-6.967786464667730627e-03,2.893382310867309570e-01
2.687091786104305324e-01,3.569938934299572986e-01,-1.427928127466149277e-02,-4.235900305809253696e-03,1.141186934098692603e-02,7.051858921892038660e-03,3.368292152881622314e-01
2.690652587302878596e-01,3.903124441001625256e-01,2.291020860399237136e-02,-2.949676852736398541e-02,7.094611033075504114e-02,3.331079405696402151e-02,3.552152216434478760e-01
3.253442272187922479e-01,3.277575349503374924e-01,-1.585046715492505198e-03,-2.106874646751371542e-03,5.407916004839573645e-03,2.835178820259306922e-03,3.283332586288452148e-01
3.231607939778094463e-01,3.258405288685345402e-01,2.938043040247365068e-02,-1.543983986416534249e-03,-6.806032140517794503e-04,3.067238214117370011e-03,2.951916456222534180e-01
3.260448160790428984e-01,3.274750957070359236e-01,4.419327372112757946e-03,2.546568440351662852e-05,2.964004160603861925e-03,-6.357987031893765463e-04,3.223857581615447998e-01
3.272516453957896032e-01,3.268311751848136937e-01,-1.605665579581644353e-02,-1.732691754486142578e-03,2.846605254169279255e-03,2.764517548101682719e-03,3.431802093982696533e-01
3.266532803809233942e-01,3.228684273390560744e-01,3.989131203705695294e-02,-6.419441634734343117e-04,7.901813821093317189e-03,-3.450462385348081629e-03,2.852817475795745850e-01
3.302174322248970784e-01,3.285814306872580914e-01,-6.082313827492580316e-03,7.593212690524553127e-04,1.096144131920362479e-04,3.638052275712232685e-03,3.355465531349182129e-01
3.306380998372394631e-01,3.293587531078812636e-01,-8.070261043840676329e-03,-2.545709801111841961e-03,-7.891669133982265197e-04,-1.809876426449510013e-03,3.381165564060211182e-01
3.282239357605167829e-01,3.249025790693982341e-01,-1.890634577026900631e-02,-1.390445383239748015e-03,-1.816645407557768545e-03,-2.040989037764773945e-03,3.455223739147186279e-01
3.378048601786706184e-01,3.123387447748510182e-01,-1.519973978138364212e-02,3.669297684414432430e-03,-3.653676375328702378e-03,3.986155845840735901e-03,3.411732912063598633e-01
4.960341328869028454e-01,1.430956241211897850e-01,-1.879756872209484286e-02,-4.562157050456521618e-02,-2.401077136098650477e-02,-2.962606768464224813e-02,4.674611985683441162e-01
3.036920529056474916e-01,2.987411988419366171e-01,-1.296867058509942883e-02,-7.532523607663543785e-03,-2.983301785270061051e-03,-3.336229892727118375e-03,3.145808279514312744e-01
3.190572556913539581e-01,3.130826167726685760e-01,-2.762627132612097136e-02,-1.546721980614988549e-03,-5.230227812349937805e-03,-2.655519591508545552e-03,3.438957035541534424e-01
2.397202114343601198e-01,4.057213769518513979e-01,3.691841160906136898e-02,3.080233537824766249e-02,9.903404957443118217e-02,-4.542059798360743167e-02,3.752452135086059570e-01
3.127400272257247482e-01,3.387403627246671212e-01,-3.099937731146523712e-02,-1.135753765085558689e-03,2.005136029609946684e-03,3.460322902375038458e-03,3.575220108032226562e-01
2.579879959335139583e-01,3.248597268613182543e-01,-1.919544625174626762e-02,4.981615227810668595e-02,2.181701544202182402e-02,-9.433572617940885405e-03,3.301182985305786133e-01
2.664080281725176857e-01,3.818134378744456603e-01,2.611550260645678634e-02,6.940676478408323163e-03,2.217344213174726394e-02,-7.868730439504862187e-03,3.171674907207489014e-01
3.183117441854179108e-01,3.309286027441936673e-01,-3.187305565343120928e-02,1.167119568264431649e-04,3.276347292407832956e-03,1.959129075044010061e-03,3.567219674587249756e-01
3.254286411655401556e-01,3.258861478286653734e-01,2.504106784117832163e-02,1.011402017907937073e-03,4.617819767036296028e-03,-5.070305912351926424e-03,3.008562624454498291e-01
3.169088831272939832e-01,3.279401414927082259e-01,-3.285410202628261112e-02,2.307992060209165374e-04,2.839666907812433212e-04,3.888823872897496925e-03,3.554714322090148926e-01
2.874184495757181601e-01,3.145624709360841376e-01,-1.691743713098350921e-02,7.363155452199557013e-03,-8.665741637510478244e-04,5.987727096689648455e-03,3.192028999328613281e-01
3.028925926874675434e-01,3.297804057650504106e-01,-3.155206919736019966e-02,-3.758140306006826740e-03,-4.279982428197662975e-03,-6.527624070593974343e-03,3.489897251129150391e-01
3.276625493661092792e-01,3.291238104734979242e-01,-3.100815621239422226e-02,1.671955113744248538e-03,-2.704814270441473732e-03,-5.521189669243370922e-03,3.595729470252990723e-01
2.986127909004244185e-01,3.297199711769366326e-01,-2.639757666843509099e-02,-4.036582565981219721e-03,-4.188437474121563231e-04,-6.755192481967563223e-03,3.419003486633300781e-01
3.157270646186051133e-01,3.361596079423865291e-01,-2.918377182396789116e-02,1.408575777160803828e-03,-6.213903958601068971e-03,4.292202076997331424e-03,3.558165729045867920e-01
2.626775672346327584e-01,3.500482483486888619e-01,-2.736906561972457519e-02,-2.325080992818155581e-03,-1.744771831234108450e-02,-5.722992039296975926e-03,3.437004387378692627e-01
2.870776948590363364e-01,3.449379434860036509e-01,-2.803780990743509616e-02,-2.649275085644705284e-03,3.371734299019652718e-03,2.101948875960264577e-03,3.477738797664642334e-01
3.133466178556250648e-01,3.357132684253133492e-01,-3.114572734556328437e-02,-1.122330238409589755e-03,1.664545095684476098e-03,1.094925636730758461e-03,3.562247455120086670e-01
3.242007576873690566e-01,3.300998828846016253e-01,-3.177964219104278953e-02,3.993224766074807185e-04,-1.004336090228570262e-03,-1.582188495856735877e-03,3.589816689491271973e-01
3.397229777028688558e-01,3.314133067830837276e-01,1.882211409637454813e-02,-3.762615775850184502e-02,-7.047604475350942310e-02,-1.458067461898289972e-02,3.466488420963287354e-01
3.273252731918828151e-01,3.280042436303814979e-01,1.188636002066040254e-02,-1.878985212257668156e-03,4.674222147883828025e-03,1.297282697087278388e-03,3.159074783325195312e-01
2.574822984858547437e-01,3.636521633242058016e-01,-1.604463481264994940e-02,-1.500426380268931464e-02,-2.674272230531281325e-02,-1.584691530804486700e-02,3.445339202880859375e-01
3.331886164184816868e-01,3.428487056517566245e-01,-1.074828115240461512e-02,5.041829582679094313e-02,-2.766347924979417616e-02,3.540271224511201947e-03,3.628605604171752930e-01
1.097415078168860747e-01,4.103074373353053361e-01,-1.445404402306191272e-02,-3.544902560403007802e-02,-3.494533427749097615e-02,-1.665616263484310383e-02,3.890489339828491211e-01
2.968609454980510320e-01,3.316161176765686225e-01,-2.644622108940969385e-02,1.909285944305284290e-03,-8.624356615211189352e-05,6.511648150574811389e-03,3.422136902809143066e-01
3.260031177001072589e-01,3.055849876815366351e-01,-2.871843593200931744e-02,2.633825874528020975e-03,7.981721117914114885e-03,-5.570068971009434385e-03,3.454077839851379395e-01
3.312190048765961126e-01,3.215162276778247286e-01,-3.339713045234463107e-02,6.728490445109844287e-02,1.948282380370120609e-02,-2.511688301831682679e-02,3.822490870952606201e-01
2.902164743469920483e-01,3.015785184793577933e-01,-9.727664071232683396e-03,5.102202813214342519e-02,3.651078224322701349e-03,-3.765538046053720864e-03,3.184271156787872314e-01
3.229931221978360467e-01,3.095101393098781961e-01,-2.839056229393988051e-02,1.045191407882065104e-02,7.588553088805073156e-03,-9.649306425055105552e-03,3.459687829017639160e-01
3.513384986099258311e-01,3.166714644097783360e-01,-2.534149049579728641e-02,4.594548004800714375e-02,3.143693806762704740e-02,-4.009291640318290995e-02,3.796727061271667480e-01
2.512715861606840129e-01,3.317339126474420641e-01,-5.011030007653177742e-02,-1.886322363728771823e-01,2.000769012322221527e-02,9.885618995226923972e-03,4.793699681758880615e-01
2.904031639722305380e-01,3.139977229012947957e-01,-1.688043792444349211e-02,-6.175555902476460857e-03,3.172547263237768885e-04,5.023858157453494656e-03,3.200321495532989502e-01
2.725436254813589088e-01,3.227681833754433294e-01,-1.568374166008512649e-02,-6.935526514742263587e-03,7.125239330104781409e-03,8.470515787450378850e-03,3.171521425247192383e-01
2.507813933277407425e-01,3.110522292134185185e-01,-1.769283591913817233e-02,-5.734962751428120120e-02,-8.781718649774982940e-03,-9.446640152531021739e-03,3.197782933712005615e-01
2.183474285025868433e-01,3.532061719451463633e-01,-8.801947164614520869e-03,-1.731236671841835176e-02,-2.422608744347549015e-03,-1.594415493528235275e-03,3.183413147926330566e-01
2.289810604583760179e-01,3.602773291716089288e-01,-2.665290217510657422e-02,1.766347460231959196e-02,2.640400992684663328e-02,-2.171730859916094682e-03,3.452432155609130859e-01
3.349206673443000382e-01,2.829242344788606145e-01,-2.769904110782320239e-02,-9.593007594754619435e-03,-9.982412631278112652e-03,-6.922785887510613488e-03,3.406766057014465332e-01
3.295372438805386217e-01,2.591898587547224464e-01,-1.507886024700810790e-02,-1.424635980986514727e-02,6.704157578111385671e-03,8.483162933841020825e-03,3.169002532958984375e-01
3.124227416702695659e-01,3.072222011653439333e-01,-2.838369944783025733e-02,6.324723945060101334e-03,-8.448505273001205226e-03,9.340249525881872891e-03,3.391158580780029297e-01
3.260943056965180942e-01,2.467895134055748119e-01,-9.894552789623783928e-03,-3.642553345088340305e-02,8.316466373448042244e-04,-4.168352958707646316e-05,3.106682598590850830e-01
3.511937498019573889e-01,3.684561963562459908e-01,3.998098885440659611e-02,-1.426763016562408292e-03,5.922356044401218961e-03,6.792117456694392666e-03,3.205828964710235596e-01
4.518777956768526005e-01,2.432782283345194529e-01,2.274516097041284768e-02,-9.635432802681580255e-02,3.950076697555546593e-03,5.813273268833100277e-02,4.197490215301513672e-01
3.289947102698216885e-01,3.232042871456065058e-01,-2.326457782898863624e-02,2.622210407120190785e-04,-1.379797980160033530e-03,-2.335473351863710280e-03,3.494319617748260498e-01
3.452184127896267829e-01,2.662421422062380971e-01,-1.043066146946627915e-02,-1.585622016797667289e-01,2.553505137512484743e-02,2.727004933047634180e-02,4.292419850826263428e-01
3.169169528011601122e-01,3.277830215691432958e-01,-2.885729298950925892e-02,2.326208621451717092e-03,-2.031528078233316419e-03,4.493443359858317367e-03,3.514602184295654297e-01
3.277846761434994316e-01,3.267563599955086162e-01,-2.955941717670210189e-02,1.355819887063667390e-03,4.978820146702204975e-04,2.612802537113842125e-03,3.568685054779052734e-01
3.229126371513441063e-01,3.292330437588726899e-01,2.028467422332344561e-02,-7.813778752956676349e-04,-7.183518688396759583e-03,-7.244174414918186757e-04,3.060956895351409912e-01
3.339474173792388312e-01,4.613815329466592341e-01,4.286106077666110292e-02,-2.040580622060495994e-02,-2.710303581501015413e-02,4.055872753839773193e-02,3.826917707920074463e-01
3.301435058236462661e-01,3.275175849174190579e-01,-2.909326410546653197e-02,8.685984498220419674e-04,-1.837414210536007786e-03,2.730453533548018140e-03,3.579795956611633301e-01
3.187718901229109614e-01,3.210582042313064322e-01,-2.786155688164454469e-02,8.003345384418844230e-03,-6.152923581826901141e-03,6.706359129165469397e-03,3.484151959419250488e-01
3.096302516658304693e-01,3.073736979774662204e-01,-2.015365003183089421e-02,6.696762010765650724e-03,-4.036470035132229059e-03,3.934506910658752341e-03,3.290109336376190186e-01
3.275958713925829491e-01,3.157348694205808215e-01,-3.194422166762145299e-02,-2.683913751351890112e-05,-4.200620523387174274e-03,-2.644875002876982285e-05,3.538335859775543213e-01
2.843745645029234215e-01,3.339955162467429517e-01,-1.615354340643329611e-02,4.014640260054483899e-03,-7.795089887376120338e-03,1.025764395266137718e-02,3.289957046508789062e-01
2.894857680626325425e-01,3.257714041423774853e-01,-1.647689622650036489e-02,4.008928339643036062e-03,-7.562421710270280685e-03,9.111380877772410833e-03,3.263444304466247559e-01
4.012445659880440885e-01,1.350012788611462677e-01,-2.805870422454556645e-02,6.685987691525570320e-02,-1.664625534399127469e-03,4.394963815929747025e-02,4.001267552375793457e-01
3.090730129200023324e-01,3.045164548555825412e-01,-2.052305525034003875e-02,2.686995255745249812e-03,-4.398858290815828298e-03,2.227196009547230491e-03,3.274860382080078125e-01
3.164538510525275461e-01,2.864893544812067150e-01,-1.755800418418670961e-02,7.046905077380070243e-03,6.852580756164045050e-03,-8.437557416806835183e-04,3.205390572547912598e-01
3.253394097324439072e-01,2.887346565753919347e-01,-2.456451517266458606e-02,3.723565337956344194e-03,8.189642154893731971e-03,-6.542806034221588206e-03,3.336701095104217529e-01
2.629822953580967515e-01,3.228135110552560749e-01,-7.615180711690289206e-03,-7.220333148105863297e-03,2.236723417521436184e-03,1.459811190735273807e-03,3.052388429641723633e-01
2.730910442999539556e-01,3.262236955227048041e-01,-1.461843618583141824e-02,-4.263885770650170659e-02,1.934064259430237978e-02,1.297825341711091214e-02,3.285852968692779541e-01
2.929417808645793375e-01,3.086710057077025615e-01,-1.221162332985920029e-02,-2.994009005324267236e-03,2.235718381151143887e-03,3.334990422384464127e-03,3.134343326091766357e-01
1.805882721025459103e-01,4.116795529318311164e-01,-2.592366370078799664e-02,-3.754011787872659628e-02,-1.479961335598671155e-03,-5.169571517906908741e-04,3.847188949584960938e-01
2.693686553519501481e-01,3.037521718529306303e-01,-1.316128940194166708e-02,-3.718468612783618066e-02,-9.818100688856889677e-03,-9.680537216316681057e-03,3.089307248592376709e-01
2.582510991792976718e-01,2.731288337825226731e-01,-1.612480779277147835e-02,-1.415933229306351460e-01,4.740018430510486297e-02,2.785762967534829646e-02,3.857461214065551758e-01
3.196667191097215532e-01,3.258140458379314985e-01,-3.368675377709445806e-02,3.742383859803084150e-04,9.855503700843708855e-04,2.770953867399410155e-03,3.565038740634918213e-01
3.191527989903372164e-01,3.210529955385211798e-01,-3.290450146411100230e-02,-1.107587292313642847e-03,2.399116883868468181e-03,1.769619204545636992e-03,3.530541956424713135e-01
3.226497759571975710e-01,3.276777958391215440e-01,-3.431817445855736559e-02,1.044318819776160175e-03,-3.497727295572783434e-04,1.150466702785298218e-03,3.595189154148101807e-01
3.223843211735942793e-01,3.256121117673782539e-01,-3.490439239459527943e-02,1.351676163726257384e-03,-3.822373902362925257e-06,1.496523326348490369e-03,3.589304983615875244e-01
3.003571907055315737e-01,3.337845953390784492e-01,-2.935404269489258477e-02,-6.606427097079410268e-03,1.161389251347199822e-02,8.461580496506023591e-03,3.487100005149841309e-01
3.297202276016309441e-01,3.167000525416368006e-01,-2.991256518907439710e-02,-2.184029331161279480e-03,4.136857389128949410e-03,4.009429687029259989e-03,3.534637987613677979e-01
3.305679668255088743e-01,3.032217789966940025e-01,-2.786685984885198253e-02,-8.855085584951254488e-03,1.327661468951700854e-02,1.255878408779116835e-02,3.473596572875976562e-01
3.468239258593439067e-01,3.112478625968315149e-01,-3.016894553181939664e-02,-1.628484935816648660e-02,2.351393796060229774e-02,2.922425238502771375e-02,3.674150705337524414e-01
3.297858841697767218e-01,3.275213132554783413e-01,-2.771925404318822950e-02,1.180758835351524566e-03,3.606753107078729433e-03,3.264601756875925003e-03,3.564837276935577393e-01
3.227225122699007853e-01,3.257199701337580300e-01,-3.479794595310334304e-02,-3.443228667049171867e-04,1.227009333745943576e-04,2.126279148180794799e-04,3.590293228626251221e-01
3.299467036965053612e-01,3.235124065285143735e-01,-2.916653889376102926e-02,1.175469706216857946e-03,-5.923407238165119462e-04,-4.413989031741942515e-04,3.559478223323822021e-01
2.824671493824575941e-01,3.312101605435316953e-01,-2.463403926820151302e-02,6.274218064270114213e-03,-9.225848981145489541e-03,7.492044536517803929e-03,3.349595367908477783e-01
3.114462016093070273e-01,2.904897692327486070e-01,-1.431620049186091426e-02,1.969443879165936467e-02,5.550179743640232428e-03,-5.203066567069846056e-03,3.179162442684173584e-01
3.037452796425791357e-01,2.988971184432293038e-01,-1.699633999059513290e-02,6.845756352952961712e-03,-3.878352610314466341e-03,9.033728798530387847e-04,3.186406195163726807e-01
3.040960468981948051e-01,3.072397981050773441e-01,-2.124345605030394935e-02,3.532363409658239792e-03,-2.556297802951050611e-03,3.969113210549599265e-03,3.270821869373321533e-01
3.181832210574719877e-01,3.207186278158211667e-01,-3.168673560592963345e-02,9.601247205320892052e-04,-6.506647546197078837e-04,-6.706873449693712189e-06,3.511502742767333984e-01
3.046573943480551661e-01,3.065787693994329599e-01,-1.991515652063791109e-02,6.757986447788537701e-03,-5.329056969198894302e-03,5.062104120287017756e-03,3.259965479373931885e-01
3.100354823235111912e-01,3.154456215961486398e-01,-2.475526284475243477e-02,2.189449210344371691e-03,-8.289167778435311933e-04,1.109432750250951438e-04,3.375527560710906982e-01
3.157002844501373140e-01,3.145237760904071589e-01,-2.916940529465997245e-02,1.014517725730432283e-03,-2.488606228191207227e-03,1.358985877786401562e-03,3.443224430084228516e-01
3.049064059030533458e-01,3.056250049104715094e-01,-1.994803791847263308e-02,3.829091911090356549e-03,-5.275952201006761134e-03,3.744080798130256654e-03,3.254749178886413574e-01
3.117163553102813567e-01,3.150415527433285678e-01,-2.825329317034017129e-02,1.693062300070424190e-03,-5.108008689292549073e-03,3.098500364576581723e-03,3.418136239051818848e-01
3.193681978060385340e-01,3.230613553309863439e-01,-3.434716009798099989e-02,2.893428735268015607e-04,-1.240539025123716180e-03,1.766825624076024878e-03,3.555963337421417236e-01
3.106513015779573950e-01,3.069571229907184229e-01,-2.094340735439079171e-02,4.704263386196433534e-03,-3.586422071293312967e-03,4.003689297253807886e-03,3.299951553344726562e-01
2.952673433544715786e-01,3.143656965643812917e-01,-2.228404262382177592e-02,6.928937380290024761e-03,-8.316046528446243910e-03,7.858196851445464065e-03,3.283368647098541260e-01
2.464576551575006769e-01,3.301425435116256413e-01,-9.522019600301662168e-03,1.824206400499008354e-02,-1.131653802140888693e-03,3.117692501870038182e-03,3.081910312175750732e-01
7.068911364161299671e-02,4.583827000845980826e-01,-4.614198094597982136e-02,-5.998707494999869910e-03,1.506104598461780256e-02,-1.764070257206289821e-02,4.593174457550048828e-01
2.531922537697247622e-01,3.289180181843014417e-01,-1.233164538743461436e-02,1.292064206550379846e-01,4.568700180743007905e-02,-4.965970446426166279e-02,4.001092314720153809e-01
8.465354383184692244e-02,4.607136624833657046e-01,-5.367920667175607452e-02,1.112790799983956469e-01,2.887160841328407709e-02,7.580135039334429808e-03,5.023950338363647461e-01
2.631533040417553537e-01,3.537209187131479249e-01,-1.901353913159817277e-02,8.718272631385541940e-03,2.660880694859002601e-04,5.347167050365446081e-03,3.371791839599609375e-01
2.816470021978731975e-01,2.329172034442216210e-01,-3.237171137181560354e-02,1.557653736363394936e-01,-3.693113848446931240e-03,-2.478859361079377693e-03,3.981559872627258301e-01
2.376105757149553632e-01,3.432209424405411324e-01,-1.113796078154816183e-02,4.260124439270097929e-02,2.870485582373107948e-04,-2.679065070547362662e-03,3.236760497093200684e-01
3.163759706424147944e-01,2.969189910188750892e-01,-1.285341822649704868e-02,1.507567121933962168e-02,9.299704327054833519e-03,-8.715842672457526849e-03,3.217668831348419189e-01
2.732789295831393184e-01,3.018798749039162677e-01,-1.150601888133251371e-02,3.958305086350794033e-02,-9.886681098489114028e-03,4.774225911818688259e-03,3.084277510643005371e-01
3.011333634157629668e-01,3.131608939964475313e-01,-1.582295289821861184e-02,1.173049919960968655e-02,9.228763945251036369e-03,-8.504449923454027518e-03,3.245049715042114258e-01
3.088925529486907795e-01,2.889802221790198633e-01,-3.175969081520774173e-02,9.553101963353174964e-02,-1.283390811678787602e-02,2.854734812772985464e-02,3.741320371627807617e-01
3.251559097291878420e-01,3.227518625136963082e-01,-3.544934700025148544e-02,-8.224920034332991892e-04,-3.137374011699761017e-03,3.144718080553642221e-03,3.594944179058074951e-01
2.913969316080684546e-01,3.249986844509559214e-01,-2.750790138144784680e-02,8.830957757554498688e-02,-1.026841184651247976e-02,1.325397673411890347e-02,3.711929321289062500e-01
2.790260984541843570e-01,3.424692804098903864e-01,2.161022586386007749e-02,8.165250956554676032e-02,8.806527526392873839e-02,-3.078951645689211383e-02,3.643228113651275635e-01
3.274067913598962543e-01,3.272291738782077686e-01,1.496378005126139388e-02,-7.534479821954595926e-04,-7.521766919096355489e-03,4.682051687156215183e-03,3.127337098121643066e-01
3.280234734657755391e-01,3.473961542323248941e-01,2.555338839869644718e-02,1.095203635698386024e-01,7.663438547183371030e-02,-3.217938792384156255e-02,3.929786980152130127e-01
2.776401468317770127e-01,3.864198389735415406e-01,2.825127498314536356e-02,-4.303520671451481483e-02,7.441003895329510731e-02,-1.950189855229231967e-02,3.527944087982177734e-01
3.221223971272298980e-01,3.221537048944103088e-01,-3.449936860133151484e-02,-3.199770672570664961e-04,-1.328709447586488672e-03,-1.789825109572910737e-03,3.566587567329406738e-01
2.987104264245900587e-01,3.398418768585869110e-01,-2.789944954307646552e-02,2.904975043067160173e-02,6.134696928155104236e-03,-7.943067307842712962e-03,3.530348241329193115e-01
3.190824670451789524e-01,3.260975459704338331e-01,-2.249520041426136818e-02,4.532392974149883694e-03,5.436988705587050830e-03,-7.403647009294470754e-03,3.455943465232849121e-01
3.318532641328756916e-01,3.272166988258132792e-01,-1.547497646198475740e-02,-4.650501851805330725e-03,1.920161729816622590e-03,-6.047141188364535576e-03,3.453022539615631104e-01
4.509176340530175464e-01,2.559621848873882000e-01,2.547958032547367746e-02,1.044118543272433419e-01,-2.640374331691995070e-03,-5.266931314749973003e-02,4.208471179008483887e-01
3.291888775452714855e-01,3.278180706930466370e-01,-4.115360360089054259e-03,5.471554212598210684e-05,-2.275891450506602447e-03,-7.165875792642172754e-03,3.328757882118225098e-01
3.394831911412714009e-01,2.734332966910707485e-01,-2.514459105440236542e-02,2.962042584461194519e-03,7.371712133218636526e-03,-1.294002115010722560e-03,3.367888927459716797e-01
3.256549976117566469e-01,3.307858314312780990e-01,1.037624243894680331e-02,2.259363505060355860e-03,5.754884320208497779e-03,8.397972967750178680e-03,3.183879852294921875e-01
3.258316676639584353e-01,3.267032600311822188e-01,1.365602402874288579e-02,-1.805324143458447890e-03,2.325980441070612387e-03,8.918759254973412237e-03,3.130353391170501709e-01
3.366213260637584970e-01,3.008918910245430012e-01,-3.158796428275903456e-02,8.695591966438664250e-03,8.196202845196873948e-03,-9.256638052534687730e-03,3.526814281940460205e-01
2.985250616267598467e-01,3.270384541706889414e-01,-3.041934767618664770e-02,1.281902169496284410e-02,-1.473300407580981075e-02,1.295527032420329926e-02,3.464742898941040039e-01
3.550437012509400914e-01,3.507085301779138131e-01,1.631638922017369930e-03,-3.042714824335575330e-02,5.036157821411418357e-03,-4.194791981735438401e-03,3.553773760795593262e-01
3.277898542024276773e-01,3.254001079433583299e-01,-7.268351526087957204e-03,2.287257332461563493e-03,-9.766226316844090274e-03,3.452653130717359218e-03,3.343749344348907471e-01
2.963686596795328532e-01,3.000212416700920870e-01,-2.044773314259734631e-02,-1.470535201278185683e-02,4.940740599019963729e-03,6.062814728859661564e-03,3.199615776538848877e-01
3.292662864198692141e-01,3.286580241819763160e-01,-5.715120299286113870e-03,-2.490901139620934398e-03,1.049836594569100072e-03,4.130949154593833474e-03,3.347868919372558594e-01
3.337553349415094406e-01,3.137435427887917405e-01,-3.190159539997283744e-02,2.440139766312931537e-04,3.635345110907330091e-03,-1.229381267915158902e-03,3.561353385448455811e-01
3.195359299004953413e-01,3.150754794173885043e-01,-2.990082087301107472e-02,-7.047188179248198986e-03,4.143532669659861535e-03,2.989570914932692530e-03,3.475551903247833252e-01
3.675612756527064651e-01,2.865303550919364728e-01,4.195619337587797038e-02,-3.175411032317200510e-02,2.165798256081795728e-02,3.987061103604839368e-02,3.088717758655548096e-01
3.231727467634595286e-01,3.271800155131673882e-01,2.038906851579316837e-02,1.037313973270962081e-03,3.706347823626002171e-04,-9.580392877420998779e-03,3.052643835544586182e-01
3.296764001253077447e-01,3.441484286620651867e-01,-1.341473583409388826e-02,5.451160930489776409e-03,7.167530943534683625e-03,-1.876045374554195788e-02,3.523993790149688721e-01
3.518633230826570535e-01,3.149655474975492364e-01,3.975964075316060220e-02,4.205862665059342809e-02,6.196521844047521085e-03,-4.480406899861493625e-02,3.141630291938781738e-01
3.269261688772277519e-01,3.263597809739251510e-01,-2.679840940550320960e-03,-1.888987360404183885e-03,-4.828452154369375360e-03,-3.486011170428317089e-03,3.295009136199951172e-01
3.146157442599999410e-01,3.329639314913435122e-01,-3.232224509753925390e-02,-2.752711287459653870e-04,-9.111900461150654155e-04,2.812192041845604489e-03,3.565035164356231689e-01
3.153125329120903819e-01,3.377827741006580453e-01,-3.153389141770543413e-02,4.943670583309816517e-04,2.720258706972075637e-03,-3.690786918789210232e-03,3.586988747119903564e-01
3.247475821210581426e-01,3.300964190850660396e-01,-3.173393949104083567e-02,-1.566021661117286635e-04,1.143804202026705045e-03,-3.720794257335024199e-04,3.591919541358947754e-01
3.249543073729851406e-01,3.316362700761251725e-01,-3.130681783410368957e-02,4.546192457309871591e-05,1.303961900896294813e-03,1.925088787994670421e-04,3.596559166908264160e-01
3.225313983015322128e-01,3.305254772976646827e-01,-3.272443360278645685e-02,3.303730095625834347e-04,-5.305230097925478245e-04,-1.643409422772090203e-04,3.593213260173797607e-01
3.253540749799774812e-01,3.260262503298851922e-01,-7.574363966853986385e-03,-9.094302533809671667e-04,-4.698160208917515068e-03,-6.692410044634152042e-04,3.333701193332672119e-01
3.240442964258455349e-01,3.298469960096772069e-01,-2.873701574259471259e-02,-8.553289551454388770e-05,-1.416583172113960358e-03,-6.948990392941344768e-04,3.557286858558654785e-01
3.237791023333885798e-01,3.281520042804190740e-01,-2.507101302626829620e-02,4.130912923494160305e-04,9.235922097387071856e-04,1.525802992075878410e-03,3.510713279247283936e-01
3.263500961676139012e-01,3.284528839557887547e-01,6.929428190693392997e-03,-1.478395043540640897e-03,-5.403189048134990000e-03,2.949971237618229363e-03,3.206647932529449463e-01
3.177825703307038951e-01,3.197436490221803873e-01,-2.879368893749845171e-02,7.466732990682304651e-04,3.681355721084056051e-03,-3.745214996902076262e-03,3.476823568344116211e-01
3.263367817790679970e-01,3.234755808533350541e-01,-3.310501860742007252e-02,1.031109837620838247e-03,-3.714023592008470782e-03,2.926084377669921181e-03,3.581178784370422363e-01
3.177240995776425825e-01,3.252168242114486518e-01,-3.069655068529456021e-02,1.391883959699664365e-03,-3.509055785648771807e-03,5.585542454459723957e-03,3.524203002452850342e-01
3.313253992354281419e-01,2.648699277755429127e-01,-2.294472495871557882e-02,2.070800950699544854e-02,-1.065504960017223113e-02,1.281909998092038531e-02,3.293941617012023926e-01
3.203894455771906791e-01,3.209414222467423805e-01,-3.333069812616482053e-02,8.264393737649601644e-04,-1.487330855313213299e-03,1.874173216159386425e-03,3.540236055850982666e-01
3.281364918510635276e-01,3.231234215276249655e-01,-3.317124592963324736e-02,-4.949145225859754140e-04,-3.455123675402993998e-03,2.904637473363362241e-03,3.589136600494384766e-01
3.302448078684170896e-01,2.633684069661342830e-01,-1.395761621879962333e-02,2.648748629292835277e-02,-6.424127662688188141e-03,7.355528916980206243e-03,3.198743760585784912e-01
3.232980671229139236e-01,3.203879293496979530e-01,-3.322996672028732945e-02,1.974368086019241588e-04,-3.187798250086159180e-03,2.368777452463644538e-03,3.551487028598785400e-01
3.317851360646658643e-01,3.242533901545676667e-01,-3.143036761226522535e-02,-8.704593415537775791e-05,3.600572347280172952e-04,1.116399853368746451e-03,3.595145940780639648e-01
3.339003802281264033e-01,3.134680375276067132e-01,-3.159714879694155987e-02,3.992604177082722909e-03,-6.961797853080073199e-03,5.032548161881316914e-03,3.560999333858489990e-01
3.151046329630627918e-01,3.756111173227959510e-01,2.500601122382459240e-02,-8.477635493610459483e-02,1.644296196416987835e-02,6.544804052161076746e-02,3.749581873416900635e-01
3.718465907681448024e-01,3.358188974785965564e-01,5.416437362565224012e-03,-1.511356009902307951e-02,-1.509614025975024917e-03,-1.964764552720408425e-03,3.508149087429046631e-01
3.086023561139700777e-01,2.409441159912305563e-01,-5.754512796229960259e-04,-1.281915054185635283e-01,2.816411880958039592e-03,1.770696398826308859e-02,3.598801493644714355e-01
3.255990479980583330e-01,3.271117217645026498e-01,-3.098157578194993267e-02,-1.378239636298410949e-03,2.010973623910485009e-03,3.589803839194611722e-03,3.574183881282806396e-01
3.070081861109524302e-01,3.247736591653306859e-01,2.868106061348013602e-02,-5.098664478992265964e-02,2.034165984616044184e-02,2.252881459791187743e-02,3.054326772689819336e-01
3.849049507509475498e-01,3.497517458867876461e-01,2.852560428205941356e-02,-9.921237351815552497e-02,3.724665737840082008e-02,1.899831584154525188e-02,3.879280090332031250e-01
3.534881869440952840e-01,2.251446696694227034e-01,-1.519842538789509256e-02,-3.392593045388891948e-02,9.391152064319983200e-03,2.496172391518067593e-02,3.326711356639862061e-01
3.173250511554369657e-01,3.000583194314446756e-01,-2.245285110241490578e-02,-1.492355701234667278e-02,6.827624387462232457e-03,6.287816717805655951e-03,3.328767120838165283e-01
3.203340600532802451e-01,2.919331300773065907e-01,-2.471829689677859654e-02,-3.227449040685404121e-03,8.481578689314771963e-03,7.838532161628844475e-03,3.324143886566162109e-01
3.097450973612520531e-01,2.917328579493834173e-01,-1.431192603371000960e-02,-2.299296398536882901e-03,4.868411318612446761e-03,2.380088625238776807e-03,3.156015872955322266e-01
3.068384876873310740e-01,3.093197772204055451e-01,-2.221313184983880751e-02,-5.013693548075742398e-03,4.284139895458579858e-03,4.908596841653982065e-03,3.306060433387756348e-01
2.855849160142958088e-01,3.432857975232830317e-01,-3.276699988281456255e-02,-1.544310765725427290e-02,3.583259747050415549e-03,2.770326042716004383e-03,3.518856763839721680e-01
3.026345439464154241e-01,3.043893473470311584e-01,-1.382014818519047838e-02,-2.202687539898839225e-02,3.950225905108051792e-03,4.834326616088255833e-03,3.198037445545196533e-01
2.579970374464948257e-01,3.029569866566337311e-01,-9.853284752247060130e-03,-4.052039936499264583e-02,1.102204730707382263e-03,-3.806308264632346202e-04,3.012266755104064941e-01
2.931812387918076857e-01,2.610843930723346085e-01,-1.025165029559291230e-02,-4.643131906276657533e-02,-4.311274945769604482e-03,-2.374864187607099962e-03,2.998379170894622803e-01
2.923336231173770394e-01,3.398345765921713668e-01,-2.748933693124067101e-02,-2.050990946131496864e-03,-5.655704262448420965e-04,4.153634194578047917e-03,3.461217880249023438e-01
2.761288375333101897e-01,3.099702972843749738e-01,-9.905871044120551083e-03,-1.180805304659442168e-02,2.981394276625193296e-04,3.027175010271809449e-03,3.051016032695770264e-01
2.523338012224863869e-01,3.319156215819389910e-01,-8.793973128051107979e-03,-1.744961850422080060e-02,-1.222768620919603656e-04,2.568431812085337270e-03,3.102181553840637207e-01
3.420449968904039073e-01,2.513395436705475605e-01,-3.653580372208084515e-02,-4.597994001338799597e-02,1.922419568468826043e-02,4.040642355850916634e-02,3.599455058574676514e-01
3.316465638903430824e-01,2.248004477735666695e-01,-1.168063977014888177e-02,-5.808061802211654523e-02,9.770426817039355033e-04,3.020733561495742969e-03,3.205569982528686523e-01
3.621987758215943765e-01,2.361814083877731563e-01,-1.672005591661876456e-02,-1.080012635990278830e-02,3.257179451127329307e-03,1.293522867934336976e-02,3.355491459369659424e-01
4.777681514128182538e-01,1.205594794015828614e-01,-4.977389750147703795e-02,-1.071129816518851322e-03,-7.301880189712619054e-03,4.896808475061675651e-03,4.665741026401519775e-01
3.450809002133424785e-01,1.810631120090145374e-01,-1.007914710358657762e-01,-1.221617554652402737e-01,1.703067450380934406e-02,-1.855125038342836721e-02,4.463698863983154297e-01
3.336722621504968345e-01,2.761976720723228751e-01,-1.869205449551297749e-02,4.949640224841842136e-03,7.916365512459227691e-03,-1.391089811486104959e-03,3.278402984142303467e-01
3.672609914035065426e-01,1.595799677013172990e-01,-1.007350450803595754e-02,1.235423919703105555e-01,-7.326493968083117037e-03,-1.924721886651849928e-02,3.926933705806732178e-01
3.565567840531032040e-01,2.342845465515249748e-01,-1.686324225098514984e-02,1.083409834728233517e-02,-8.183941165810684759e-03,7.394984889768388588e-03,3.308341503143310547e-01
3.248967427673090658e-01,2.714980215337485792e-01,-1.386952374351349548e-02,5.946408572874673296e-03,9.340645085367077841e-03,-5.977442632020211685e-03,3.162267208099365234e-01
3.038283813121909205e-01,3.038800999244242185e-01,-1.316904544813798927e-02,5.773773315727861663e-03,5.047090380168859670e-03,-4.948563859820407154e-03,3.174171745777130127e-01
3.549052959722918121e-01,2.618738853297299940e-01,-2.693150409042285864e-02,-1.614736201910194069e-02,-1.309554837922608460e-04,-1.075838134878697762e-02,3.464979827404022217e-01
3.661229344024318211e-01,1.925394276884696554e-01,-1.622970738568421667e-02,6.368595132648275509e-03,-2.706936146234694123e-03,-1.492855519788308105e-02,3.328166306018829346e-01
4.222424950798077115e-01,1.707719602622168598e-01,-2.394457641472860776e-02,1.024317283814835458e-02,-3.661237785154813039e-03,2.568551177188248616e-02,3.904505670070648193e-01
3.607532684554695113e-01,1.872727653910352119e-01,-1.524574868662470495e-02,6.664530400321085069e-02,2.279462271806034779e-02,-7.793318378990587644e-03,3.482930362224578857e-01
2.762138410158848645e-01,3.365469918060021159e-01,-1.807791310386785977e-02,-1.026557746884799310e-02,9.837969348103794932e-05,-6.917679802745369672e-03,3.293372392654418945e-01
3.506420376187999177e-01,2.454452351018648060e-01,-1.482467815949287115e-02,-2.036620916139401244e-02,7.210744826517475822e-03,7.197107986995010358e-03,3.282409012317657471e-01
4.201901595788104515e-01,1.190346000495357826e-01,-8.221900472013526917e-02,-1.006873628055618142e-01,4.750800258576479140e-03,-1.020066358961047200e-02,4.718050658702850342e-01
3.828813246563598782e-01,1.292714480350654893e-01,-1.594257112114891295e-02,-1.101536855396629822e-01,1.202804075737726013e-03,2.447333576575045841e-02,4.005439579486846924e-01
3.654181703888934596e-01,2.246799087498970449e-01,-1.086727373668860963e-02,-1.803572540793209680e-02,8.031752931861651720e-03,7.781544603906882449e-03,3.313476741313934326e-01
3.647165183985920378e-01,2.529876796816497575e-01,-2.979534353562102167e-02,-1.994971521060448158e-02,3.849750648000545891e-03,3.248138059868765221e-02,3.583966195583343506e-01
4.129586903162121847e-01,1.445596062400676118e-01,-3.837059333586634313e-03,-1.303278361939003149e-02,1.482576765653743217e-02,-3.156380402462112544e-03,3.675432205200195312e-01
3.633125978676515766e-01,2.362264255809634339e-01,-1.615693315342137115e-02,-6.663387624911235388e-03,-1.353472737762521525e-03,6.404260726410149858e-04,3.347575366497039795e-01
4.582951706520976831e-01,1.664454036679756110e-01,-1.021862940858344060e-01,-1.451865520796781772e-01,-1.148501045136872921e-02,2.891681430414163624e-03,5.471723675727844238e-01
3.902613871934117462e-01,2.296301919880458786e-01,-2.437815915832666769e-02,-1.542175822754646500e-02,4.078049003014327760e-03,1.612075225397634898e-02,3.642352223396301270e-01
3.654801011849870829e-01,2.328301752979418937e-01,-1.025928870371528578e-02,-1.677439531803885664e-02,-2.216783464224352483e-03,1.010543487022987237e-04,3.313505649566650391e-01
1.931542759975073964e-01,4.254382256035426635e-01,-7.175986965440833698e-02,-1.374002233786575100e-01,6.964230479076936181e-03,6.129848639057040166e-03,4.925092160701751709e-01
3.241690302432663207e-01,3.268551336359429849e-01,-3.362027246882751119e-02,-1.755389948809824594e-04,-8.862546407417021569e-04,1.561798964168259864e-03,3.591534793376922607e-01
3.232064785664588991e-01,3.269446573428564928e-01,-3.367500755106286880e-02,-6.419453109532656260e-04,-8.865091406587455617e-04,1.562010536367287135e-03,3.587803840637207031e-01
3.072820971876942808e-01,3.266975693990997742e-01,-3.050043406570704385e-02,1.966142529016099740e-03,-5.483132550552740486e-03,6.515299603988417877e-03,3.482260107994079590e-01
3.228960045205434559e-01,3.247394972387909196e-01,-3.541564364445143331e-02,-3.567493297705483886e-04,-6.913584064965591679e-04,1.340002683460459528e-03,3.592469692230224609e-01
3.233418850693252078e-01,3.246875455679097966e-01,-3.539129300528906508e-02,-1.460046074014234628e-04,-7.617243955651009386e-04,1.345758539342216788e-03,3.594179749488830566e-01
3.168390182066733729e-01,3.288896007761547002e-01,-3.003166462245207557e-02,3.560558750463947188e-03,-4.681863138373521492e-03,5.799911037886249301e-03,3.533400595188140869e-01
3.218416403239710011e-01,2.894884815750830009e-01,-1.967237217988127007e-02,2.953010985640559805e-02,-1.229993455534437140e-02,2.418663181905544857e-02,3.338479101657867432e-01
2.817743925740107680e-01,3.653302344516055622e-01,-7.036943463197359305e-03,-1.304817136557303876e-03,-1.357603580492367998e-02,-1.047144439380050425e-02,3.397240340709686279e-01
2.758331315142998341e-01,3.609354568254589113e-01,-2.903531851616650283e-02,-1.025881391886488553e-02,2.369242377827830356e-02,-1.106130282063448600e-02,3.584675192832946777e-01
1.184269028115985944e-01,4.102047549106364599e-01,-1.020703425097302941e-01,-7.320701507565606503e-02,1.573053890634766583e-02,1.324953240015289309e-02,4.641512334346771240e-01
3.224608719366143794e-01,3.229793557343887955e-01,-3.411891652313880918e-02,6.831610782574113480e-04,2.168058852015131242e-03,2.173718472643675331e-03,3.568809032440185547e-01
2.763768364729490834e-01,3.385862905833376679e-01,-2.561653700903171460e-02,-3.238704545412756861e-03,7.981387396568015782e-03,8.038459937095246421e-03,3.380433022975921631e-01
3.071262546518637171e-01,3.308967467636159121e-01,-2.816033973843545812e-02,2.205506477935281935e-03,-3.574568461044476007e-04,6.078852892952858397e-03,3.479624986648559570e-01
3.172085827252604240e-01,3.309929690869546914e-01,-3.258125564581665357e-02,-6.236238826430032982e-04,4.331067538294989389e-03,3.238674329445838645e-03,3.570062816143035889e-01
3.233782161117385034e-01,3.271324606638210120e-01,-3.122881842979205458e-02,5.462904913634052616e-05,1.224689498830448245e-03,2.708917079097989799e-03,3.565361797809600830e-01
2.879378530508569511e-01,3.740435775063679635e-01,-3.283467093571698636e-02,-2.456869925107241573e-02,-4.775493449677525697e-03,-9.407421101511643721e-03,3.742650747299194336e-01
2.045155431241618693e-01,3.891778978134516342e-01,-2.882392189098356705e-02,2.251721854091651848e-02,3.649154368739250531e-02,-1.835178085472733301e-03,3.703546822071075439e-01
3.258872537877331999e-01,3.298561796053505746e-01,-2.170067921012125423e-02,9.028370872044481736e-04,3.319481385646959673e-03,-4.322435858570550498e-04,3.496408760547637939e-01
3.278953235437991887e-01,3.279182639268821697e-01,-1.812651253630898074e-02,3.020278500723736718e-03,2.978108604311807336e-03,-3.742066954662522159e-04,3.461118936538696289e-01
3.233391682587801741e-01,3.264561526496515542e-01,-2.620304174728863011e-02,4.744977336454138904e-04,-6.540934440818717667e-04,2.425072013849840884e-03,3.511389791965484619e-01
3.038172239137442721e-01,3.322177540866575463e-01,-2.561143802663481961e-02,-1.857689053677951188e-02,1.104895184040985759e-02,1.263067987391780327e-02,3.472260534763336182e-01
4.705881709343817665e-01,4.794832990890933733e-01,5.109522161957202879e-02,6.738520610522172327e-03,-1.290916621018507737e-02,-8.893308322495031490e-03,4.250392317771911621e-01
3.203683829186367849e-01,3.204662928346539430e-01,5.648501400530797634e-02,-2.518255605236275653e-03,-2.982202112445394345e-03,9.093545774074095591e-04,2.640236020088195801e-01
3.271230267761166544e-01,3.261474200745554941e-01,1.349356551179795027e-02,-5.154608873851992045e-04,2.615296953611913854e-03,5.030395961140102408e-03,3.132980167865753174e-01
3.229047425790378956e-01,3.294399495973986403e-01,4.089298937567531489e-02,-1.922365785716011449e-03,-3.689165376884453659e-03,-3.671706234057650273e-03,2.854972779750823975e-01
2.923530717237121102e-01,3.568227094465922233e-01,-4.035758419626014892e-02,-4.544955101757431476e-02,2.774300248533149299e-02,1.970540423399599200e-02,3.820646107196807861e-01
2.657494246220326040e-01,3.229263529705937996e-01,-8.771563409892879637e-03,-7.284564311432380201e-03,-2.604997726862534960e-03,-2.361116170807507370e-03,3.074467778205871582e-01
2.997859351173442488e-01,4.701838261280133491e-01,3.357440169157804855e-02,5.977935530042192622e-03,7.809310155566315248e-02,4.877517925968825885e-02,4.132865369319915771e-01
3.258555319833449371e-01,3.283530461885985630e-01,5.263122159392147337e-03,-1.839091094093389493e-03,4.428999262730573712e-03,1.284889968625253093e-02,3.227238655090332031e-01
3.247901159086479250e-01,3.203464092652599238e-01,-3.240443137298557041e-02,-1.247411778093253810e-03,3.513677574854091185e-03,1.854736233699965688e-03,3.550668358802795410e-01
2.761874202753640262e-01,2.983021433183316029e-01,1.081857947134612363e-03,-8.957286271940648192e-02,2.633534337650946314e-02,6.518409200349175800e-03,3.294450342655181885e-01
2.079453506916821848e-01,3.694188634583173148e-01,-1.952071123731741187e-02,-9.971677489739991240e-02,6.265914647529635673e-02,3.933770243509989578e-03,3.952208161354064941e-01
3.831645670138676407e-01,2.267606212969649759e-01,-2.007203946384397697e-02,-1.845670866193821740e-03,-8.518930564930328507e-04,6.150494117753234520e-03,3.523067533969879150e-01
3.297343734159761119e-01,2.971675372732188736e-01,-2.263598627988946954e-02,-1.097087205391704574e-02,9.050225213531137500e-03,7.478470455136165818e-03,3.384146392345428467e-01
3.390709037358340394e-01,3.274983090071207359e-01,-2.511535194720002084e-02,-2.491583207349393420e-04,3.240932565353983000e-04,3.089074498224476679e-03,3.585806787014007568e-01
3.433299609985046574e-01,2.498293695898157474e-01,-1.493518169487639824e-02,-5.769525168267506006e-03,7.582126127793326065e-03,7.709658566086598046e-03,3.225661516189575195e-01
3.408856318770256966e-01,2.941033345885087913e-01,-2.729982736250236020e-02,-5.460517480222331103e-04,6.119707639855465758e-03,2.745175744068884503e-03,3.473620712757110596e-01
3.347109343908022394e-01,3.144035039643718887e-01,-3.204207749834359076e-02,-2.170815925943979027e-03,-1.905140532055430574e-03,2.470571005042927846e-03,3.570933938026428223e-01
3.556962832389041207e-01,2.714478235333868117e-01,-2.840833225458994082e-02,-7.366262860366621854e-03,1.789128475109983763e-03,1.514768836151000886e-02,3.509055078029632568e-01
2.934182466539261847e-01,3.165854615469887445e-01,-2.527050331678609707e-02,-5.094488632496597946e-03,8.015571109405100411e-03,6.798056011589097974e-03,3.314990401268005371e-01
3.242861732307814604e-01,3.247331752633837998e-01,-3.189132337862010669e-02,3.675607426231179589e-04,1.181194259979223039e-03,1.168233237641724950e-03,3.564133942127227783e-01
3.558719994210810533e-01,3.479119562882595496e-01,-1.017132264510561823e-02,2.296687461864012694e-02,1.349766864161716477e-02,-1.640684149374960904e-02,3.661610186100006104e-01
3.393943658832103694e-01,3.002304702451951135e-01,-3.054356489081103132e-02,1.720611251715786164e-03,5.761982086682194103e-03,-6.497480019893775785e-03,3.523277044296264648e-01
3.307027454620857787e-01,3.130429871279286624e-01,-2.071300230664424591e-02,-1.340198085772831282e-02,-3.848714280496383106e-03,-1.051130047116424944e-02,3.442582190036773682e-01
2.716877075066165270e-01,3.320790988204589400e-01,-2.026164552330853019e-02,3.785923341935026193e-02,3.667686383130978889e-02,-1.933432232122686556e-02,3.405433297157287598e-01
3.280362493552201886e-01,3.273137406199155830e-01,-2.808838587346415561e-02,-6.755083103140856367e-04,1.870224199593837743e-03,-2.615948321185060637e-03,3.558094501495361328e-01
3.232704705704914638e-01,3.230552514378144946e-01,-3.519629251248265756e-02,-4.418626242331017383e-04,2.772599561527407195e-04,-2.703500998736732813e-04,3.583606481552124023e-01
2.478769263477746121e-01,3.281574765199247179e-01,-9.322886175211042570e-03,-2.038104994366014139e-02,2.549138139678694013e-04,-2.793644920652985347e-03,3.074322938919067383e-01
3.256989162111418867e-01,2.976691147332336529e-01,-2.678877296002718511e-02,-5.108422137155189599e-03,-5.869975888722644454e-03,4.074055844454625187e-04,3.396104276180267334e-01
3.378033753520691684e-01,2.826142570848241276e-01,-2.681193071420309715e-02,-2.958356906735964183e-03,-6.421578481597025115e-03,-1.222286041341253196e-02,3.412704467773437500e-01
3.326604620718381922e-01,3.189673863801706366e-01,-3.254104155545325949e-02,-9.677608230668338358e-05,-1.892237185102368284e-03,-3.413591425828213077e-03,3.586148917675018311e-01
3.611557926937691287e-01,1.946973257023327797e-01,-1.417894092650087701e-02,2.856822874578263116e-02,6.217137662731742932e-03,-1.454918537344380980e-02,3.306151330471038818e-01
3.106658774568574755e-01,2.743395682741655572e-01,-9.677677748799129454e-03,-1.085356705656412811e-02,-3.814995861348553091e-03,3.043420260944070519e-04,3.044668138027191162e-01
3.789453583216093047e-01,2.365370505251477573e-01,-3.045661826689646801e-02,-8.870125257100873115e-03,-9.614343303183982281e-03,-3.839708361503878925e-02,3.667754232883453369e-01
3.126931740537990945e-01,3.031402939170702027e-01,-2.494534640708970241e-02,-1.381204065261849162e-02,-7.310036449297248502e-03,-6.658347466261182665e-03,3.342622220516204834e-01
3.327672406783377390e-01,2.855824091861756120e-01,-2.649755636481615495e-02,-7.093333073192121044e-03,-6.465886777558427050e-03,-1.066774210893262770e-02,3.390627205371856689e-01
3.008703147454832583e-01,3.313755000528378902e-01,-2.487000256293678269e-02,-8.268305983127950676e-03,-6.711077440428950443e-03,-9.803121836853985124e-03,3.429323732852935791e-01
3.367182618762720736e-01,3.081348656062345981e-01,8.011971488053354351e-03,-1.246477677105249648e-02,3.917501855814372810e-03,-1.641192842565769409e-04,3.161985576152801514e-01
3.250255667902339218e-01,3.246282764353387584e-01,2.328176947272173059e-02,2.727571223800890395e-03,4.854555534054772609e-03,-6.676514263319929809e-03,3.019210994243621826e-01
3.273993557885198635e-01,3.239491293813065442e-01,2.550978985007959499e-02,2.227603905274073461e-03,-1.474268285941690614e-03,8.990511288435973532e-04,3.002190291881561279e-01
3.262013278908100777e-01,3.283082030300508714e-01,1.641781340125567090e-02,-1.505212838482313659e-03,-4.291704959433101894e-03,-6.052249875965551827e-03,3.111187517642974854e-01
3.600404268815262099e-01,3.576289694793613472e-01,1.608042932175732243e-02,-5.141710334618039731e-03,-2.172987266663524517e-03,9.467597569504729305e-03,3.432888388633728027e-01
4.146337187945967062e-01,1.456737105105116448e-01,-1.644551114666781277e-02,-9.220395101837782284e-03,-1.307032338893950908e-02,-6.087981932547419615e-03,3.782914876937866211e-01
3.655132021629754480e-01,2.093543134741356060e-01,-7.343626802538333331e-03,-3.979967541590055842e-03,-3.389277739369010462e-03,-1.624681036561957670e-03,3.244577050209045410e-01
2.302670636397005643e-01,3.596034857509811111e-01,-1.381384881641314899e-02,3.617110183042277285e-03,-1.089927653812280267e-02,-1.599035101286225887e-03,3.290520608425140381e-01
3.250436444020960436e-01,3.290338905023287852e-01,-2.584626338640064191e-02,4.577000648876900684e-04,-3.011263176012572273e-03,-4.178953018477911049e-03,3.530156016349792480e-01
2.679760838953089142e-01,3.536060692011709916e-01,-2.508050359242655625e-02,-1.249112468892778910e-02,-9.893480833600788726e-03,-4.999917649355360705e-03,3.451750576496124268e-01
2.373365441617552030e-01,3.649113579386689121e-01,-1.395042672111124205e-02,-7.483035352175449254e-03,-9.556954772131275033e-03,-1.255358807318305561e-03,3.345520794391632080e-01
2.582554397576194427e-01,3.533384266013657182e-01,-1.813420915073085671e-02,-5.592805738839814154e-03,3.712792433345982602e-04,-4.520747698528787203e-03,3.344660401344299316e-01
2.864215513100485389e-01,4.080291625798004862e-01,2.683108799335320871e-02,-6.606139322089225538e-03,-5.102888614163963998e-02,-1.830534722790250896e-02,3.502739071846008301e-01
2.980409389418779420e-01,3.209910981108750061e-01,-2.569897047022440262e-02,-3.845996017884893182e-03,-3.108106493988916849e-03,-7.586486619982523577e-03,3.361698091030120850e-01
2.964169654145773491e-01,3.118387367862770487e-01,-2.692581204202915135e-02,-5.664120320028737110e-02,2.357598333186657416e-02,1.525640734141178387e-02,3.489488959312438965e-01
3.336728411246379644e-01,2.705896170997832417e-01,-1.558804024680685019e-02,-3.289339445731250672e-02,1.136995744452854416e-02,7.500493095599095050e-03,3.282265663146972656e-01
3.100308464107071060e-01,3.103503267794728293e-01,-2.576933224102864739e-02,-6.944239654581468510e-03,5.630273996843205078e-03,4.862964359758911899e-03,3.364221453666687012e-01
3.755999651025065389e-01,4.582565650138431534e-01,5.387476422977183210e-02,7.189451705875385401e-02,1.347877709616301760e-02,-5.091824014495088813e-02,4.009506702423095703e-01
4.417242112672915555e-01,3.793149303456030408e-01,6.130704235461856277e-02,4.506462081245427020e-02,5.335511434145426279e-02,-6.752658069775825667e-03,3.736845552921295166e-01
2.926874830351548495e-01,3.959417050649690628e-01,-4.108814605962107791e-02,3.094840010866784646e-02,-3.037488429373373308e-03,-5.601628612619196680e-03,3.994077742099761963e-01
3.254266217172512854e-01,3.287866062088820041e-01,5.316657198176683030e-02,5.414290995594553619e-04,-2.775574191654428709e-03,-5.304269934083547834e-03,2.741532623767852783e-01
3.249316476092309891e-01,3.304459324972827683e-01,-1.344796931975072996e-02,-1.907274380461954078e-03,-3.696140808543671354e-03,-9.578483772847666555e-04,3.412502706050872803e-01
3.728830496430274866e-01,3.708172428606522630e-01,3.137443222069455362e-02,9.694023574630857010e-02,3.832217303526499336e-02,-5.710635468705731882e-02,3.978797793388366699e-01
2.438726384745367182e-01,3.400651167906296179e-01,-1.327898659003598492e-02,3.375747138689652593e-02,-2.138280829425133478e-02,9.566643355880258964e-03,3.243161141872406006e-01
3.042782867879318953e-01,3.646423659258583028e-01,1.081795137192478884e-02,2.490342201844932685e-03,2.177582949078446517e-02,-1.883140872009234773e-02,3.316357731819152832e-01
2.920537226747685899e-01,3.247507430850670174e-01,-2.391745215146656722e-02,3.014952276063208748e-03,6.121801323308192350e-03,-1.055738845692894175e-02,3.342338502407073975e-01
2.774165841475501049e-01,3.451554067318726715e-01,-4.195019084899387352e-02,6.090879796133419344e-02,2.194002991386104565e-02,-2.730772744360329685e-02,3.781905472278594971e-01
2.877023411040003364e-01,3.094037422853120889e-01,-9.447278590225843820e-03,4.355367999342486980e-03,7.297244874906497984e-04,-2.889327391829568485e-03,3.087085485458374023e-01
1.882558765534147749e-01,3.619600602430692593e-01,-2.157563538638629375e-02,1.029307823585208781e-01,-2.590310950461847950e-02,6.011014756922263003e-03,3.802059590816497803e-01
2.400590865589670719e-01,3.438464042667191967e-01,-6.471984373469574781e-03,7.499503518527236151e-03,-7.417015533735615927e-04,2.917890466117629110e-03,3.119809329509735107e-01
2.527180792540004162e-01,3.289982413506582493e-01,-8.657740369708344375e-03,1.722606729128043149e-02,-4.172910014471266252e-04,2.912087598730539375e-03,3.082043826580047607e-01
2.808847742554637650e-01,3.049204115858231701e-01,-1.836618160689304502e-02,3.150757381664489459e-02,-1.055130309868840439e-02,1.064553369187767884e-02,3.177635669708251953e-01
3.278033671943719751e-01,3.251993050002579544e-01,-2.066476196557753831e-02,1.573250784259917854e-03,1.871941670498009774e-03,-1.794720812211129599e-03,3.472131788730621338e-01
3.251372826283089879e-01,3.299411502048725797e-01,-6.194859812580999492e-03,6.126681264716285491e-04,-4.919422219057540020e-03,6.712603254126946412e-04,3.338724672794342041e-01
3.254690298033887652e-01,3.271936567661924977e-01,4.396463989244009385e-03,3.228900271093929249e-03,1.800070291090872295e-03,-7.303717229337329010e-03,3.222504258155822754e-01
3.282594926778047428e-01,3.160827612374640938e-01,-2.992285224921040210e-02,-9.538984504293441125e-04,4.555206719278000888e-03,3.412839633729934392e-03,3.523936569690704346e-01
3.217439688761092320e-01,3.176160935591071377e-01,-3.118349294742805977e-02,-1.631203118350010254e-03,7.405707370981209382e-03,4.415165669951588538e-03,3.512107431888580322e-01
3.283660179452828620e-01,3.281437658122960954e-01,-9.417910174933014078e-03,1.857216366817239419e-03,-1.698475698699162401e-03,3.529984080869078694e-03,3.377563357353210449e-01
3.396263758167256119e-01,2.698934042608129857e-01,-2.902386258497205440e-02,-6.236668381926660336e-03,7.163616772977642218e-03,1.344226767931613366e-02,3.403987884521484375e-01
3.854336305638855764e-01,3.023547317983756866e-01,3.471448591974973796e-02,-7.966973589149148327e-02,3.496966374703868591e-02,3.762563502037679503e-02,3.573879599571228027e-01
3.469155019953118479e-01,3.216288939480823061e-01,-4.093763679571982284e-03,-3.848896306487678554e-02,-3.004286467030588791e-03,2.585975273501402855e-03,3.456333577632904053e-01
3.697813832246397703e-01,4.047040510611498165e-01,4.406312825030722635e-02,-2.585984338105702662e-02,8.901484956148612848e-03,5.973426466794348050e-02,3.628158867359161377e-01
3.292025457058462279e-01,3.204647573751441270e-01,-1.356580887941410962e-02,-1.020185378314995926e-03,4.382288288462253892e-03,-6.028091022975626137e-04,3.385753631591796875e-01
3.289305047465266862e-01,3.274995179425851388e-01,-1.140590540549410448e-02,2.523244707135179413e-03,5.124531422685364018e-03,3.954898793553325576e-03,3.398362994194030762e-01
4.346634361548052938e-01,5.806401732255436765e-02,-2.935648012245420380e-02,1.222698978489278332e-02,-4.720485293473840674e-03,7.403150830900242542e-03,4.278688430786132812e-01
3.322051797514569693e-01,3.356721986440955874e-01,2.140497890594511565e-02,4.734646475654965408e-03,-1.179603811481381125e-02,2.261597876892805937e-03,3.133470416069030762e-01
3.273602364869671044e-01,3.290391380290781931e-01,-1.853201477527469110e-02,-3.387894770751502353e-03,2.892993818057849279e-03,1.722393288356291116e-03,3.468334376811981201e-01
2.763139563830223078e-01,3.404476969196622571e-01,-2.437719040160968298e-02,3.342718351382788222e-02,2.046281693583276370e-02,-1.216031988769348746e-02,3.447675704956054688e-01
3.230372260463463818e-01,3.276416934489825294e-01,3.973853142960195872e-02,-5.124199074086024279e-04,-7.004518856911251534e-03,5.673053172900915757e-03,2.860564887523651123e-01
3.444313633530983187e-01,3.081736688611466102e-01,-2.851383438890991995e-02,3.395696635010740302e-03,4.775642701431553547e-03,-2.459094790879159682e-03,3.563730716705322266e-01
2.916193248867099408e-01,3.189817254106181998e-01,-1.979316580628584510e-02,-7.421663761884629562e-02,2.887638464552448950e-02,7.378504365398668059e-03,3.541703224182128906e-01
2.520277721880750388e-01,3.436288314687070411e-01,-1.231994976386419083e-02,-5.742420098449494900e-03,1.086063610353769394e-02,8.475955933191003933e-03,3.211748898029327393e-01
2.185393937113436214e-01,3.811697530077143292e-01,-1.746610299886169893e-02,-8.131349962731909686e-02,3.717378198509685601e-03,-8.065627208504331982e-04,3.747105002403259277e-01
2.404072088555568310e-01,3.300603156817275563e-01,-1.113133470498622879e-02,-3.188562925336311388e-02,2.217138486257394167e-03,2.655569935249438643e-03,3.113623559474945068e-01
2.718012941989154663e-01,3.282383480474989623e-01,-1.716224543275834957e-02,-1.191156798856000953e-02,2.855211093703622196e-04,7.219688649491036621e-03,3.218316137790679932e-01
2.781799250710704774e-01,3.386288597106444920e-01,-2.363648624569625323e-02,-3.572921654796690563e-03,8.741336679409765151e-03,8.384318079238888000e-03,3.368532657623291016e-01
2.618046079461400222e-01,3.412386380752211457e-01,-2.712664000036885126e-02,-2.404392841312997728e-02,3.023912806524809566e-02,1.267084850913909912e-02,3.430760800838470459e-01
2.726887451162088305e-01,3.672638275215927006e-01,-4.179020086472501339e-02,-4.426578440244621077e-02,2.216511108510739111e-02,1.734744560951969466e-02,3.818879127502441406e-01
2.878032348168000354e-01,3.297155909905228333e-01,-2.378542866331709305e-02,-1.622761863883488004e-02,9.294688096008746694e-03,8.615315565150896693e-03,3.364155292510986328e-01
3.325924249569567337e-01,2.694900504486517079e-01,-1.724953780743551657e-02,1.269671230549595381e-02,-7.686003599650194362e-03,1.667083441628934462e-04,3.239697217941284180e-01
3.520900060877580895e-01,2.384972015228224995e-01,-1.578924669857373342e-02,1.173228607739448294e-02,-5.221716868252877092e-03,1.091353084487251381e-03,3.270295858383178711e-01
3.488628529557953328e-01,2.449453434721645118e-01,-1.690845888146161324e-02,8.953964096800771932e-02,-1.439584032105990959e-02,1.956119279932686320e-02,3.638669252395629883e-01
3.180605190177723252e-01,2.917404526551445332e-01,-2.381373849579954127e-02,5.228916241002601675e-03,-9.161567090259467236e-03,9.227703375230407803e-03,3.303965628147125244e-01
3.273054517783634543e-01,3.298337677803249157e-01,-2.710306040329438226e-02,-2.355702773154061489e-03,-4.943662902831305953e-03,-1.179949551838128323e-04,3.558059334754943848e-01
2.971428780174348305e-01,3.172270872396621977e-01,-2.318583745227337234e-02,2.977164884733386405e-03,-3.332242594585772127e-03,6.063410771375690733e-03,3.310855031013488770e-01
3.366243303522759578e-01,2.549927429959303327e-01,-9.231697784322534517e-03,3.634725290974617079e-02,-6.425598006465828120e-03,3.899874011775017815e-03,3.196563720703125000e-01
3.259007439177307175e-01,2.897539228746735529e-01,-2.351097769280000027e-02,4.323616150210514777e-03,-1.001752963412695825e-02,8.883510969746937977e-03,3.337048292160034180e-01
3.063340845886516339e-01,3.466197596009151782e-01,-3.703353171578457892e-02,5.190814107279748124e-02,-3.523318292638207699e-02,2.150516332339753867e-02,3.828210532665252686e-01
2.537127560615151101e-01,3.373510075800097985e-01,-2.026052804394817830e-02,-1.429684271444024712e-02,-1.340662261447224043e-02,-1.085479676166463577e-02,3.263085186481475830e-01
3.277301433511971562e-01,3.328112759659579423e-01,-1.242202962695809765e-03,2.764841391173845572e-03,3.222092736915393909e-03,-1.043316289276750229e-04,3.316237032413482666e-01
3.677136591312003544e-01,2.741741900215735606e-01,4.241847312043470208e-02,-2.880771708851948693e-02,2.143153338165678171e-02,3.633066882980109935e-02,3.032589554786682129e-01
3.501687112355341691e-01,2.640781538607339662e-01,-2.918554330607367464e-02,-4.739631844908766658e-04,1.107832919354291264e-03,1.596383353383272127e-02,3.455883562564849854e-01
3.451480699190690449e-01,2.982167002298674596e-01,-3.087039067114408231e-02,-2.701753175585836983e-03,-1.366638110929607177e-03,6.593003383598214882e-03,3.551102280616760254e-01
3.559449839715382313e-01,2.328065053923630279e-01,-1.031396380671020796e-02,8.442965559812014645e-03,-2.411274955877278515e-03,1.290102550285395595e-03,3.231786191463470459e-01
3.236728385780088812e-01,2.741733492048911147e-01,-1.466754220038218870e-02,6.275859176968694858e-03,-7.975505650450869302e-03,5.292085184231245902e-03,3.171273171901702881e-01
3.090798277673202366e-01,2.687155082275001217e-01,-1.512364661601980909e-02,3.507870514075304286e-02,-1.574813546299440314e-02,1.598381965461877219e-02,3.144088387489318848e-01
3.649333720528471492e-01,2.230726871589484295e-01,-1.125888959180543214e-02,6.860536869798163073e-02,1.219536101572064185e-02,-4.683719241861600442e-03,3.505856096744537354e-01
3.705701915789857415e-01,2.144905560341845985e-01,-2.496031528015968393e-02,2.162779502043198770e-02,-1.465360104310258317e-03,1.352005986019657116e-02,3.478923439979553223e-01
3.798713782932879868e-01,1.661375387522203151e-01,-1.806994717937551731e-02,3.131626704742860191e-03,3.325732931096913193e-03,4.045329852866918000e-03,3.451052308082580566e-01
3.349034071305272420e-01,2.566432403801738316e-01,-2.822622147476103183e-02,9.646626852202368207e-02,-2.869192580019534061e-02,3.251268534479850869e-02,3.783217072486877441e-01
3.510124232369572495e-01,2.749555262183036031e-01,3.524873694232277810e-02,-5.008113344447370774e-02,-2.069825552020261583e-02,-4.946051297540707270e-02,3.124483823776245117e-01
3.270188223626113166e-01,3.234578511168841319e-01,-1.359342829410636888e-03,1.098771541507638115e-03,-2.309042674440156800e-03,4.496865929383362000e-03,3.267351090908050537e-01
3.266890463483759777e-01,3.189286557569992464e-01,-2.760756151138249459e-02,-5.171418460575037852e-03,-5.336178616404536369e-03,-9.687368623648467958e-03,3.511182367801666260e-01
3.249535595984890946e-01,3.294859516323584425e-01,-2.206435335594858493e-02,2.230187832432684210e-03,4.166702868407436556e-04,2.492635312323055862e-03,3.493549525737762451e-01
3.293109803972575356e-01,3.268985400446298151e-01,1.003579962562556327e-02,-1.010755460593310787e-03,-4.694371623016326163e-03,6.971019421600065796e-03,3.184135556221008301e-01
3.723661623896155071e-01,4.165922191936983765e-01,3.158591052737999560e-02,7.640968464079045397e-02,4.424860295015405759e-02,-4.237956847365507984e-02,4.024123549461364746e-01
4.931140602002784812e-01,3.241961013878507658e-01,6.375825735138068717e-02,-9.472778041616659178e-03,4.012708008089463374e-02,-5.442368980503993481e-02,3.928604423999786377e-01
3.104642705158123239e-01,2.933455179806894186e-01,-1.297952766355045529e-02,-2.598697213541365219e-03,-3.975008622242955439e-03,-2.917619740893862956e-03,3.153810203075408936e-01
3.297598922839816149e-01,3.270717130264234052e-01,2.044530927241505758e-02,-1.155471233690980992e-03,1.408626753304553347e-03,9.486752078856198686e-03,3.084334433078765869e-01
3.270032617776740813e-01,3.301787406581195849e-01,7.854506132592808942e-03,2.497893908388042900e-03,-4.282771877009180009e-03,-4.481841566350109468e-03,3.209571242332458496e-01
3.692844370876074978e-01,3.593466548744488898e-01,3.336780476259032513e-02,6.950389279020005584e-02,7.180519744301446655e-03,-4.370290454538624386e-02,3.605237305164337158e-01
3.694548926737063477e-01,2.290939364116088839e-01,2.798174098617817185e-02,4.906367708547509920e-02,8.015084299371456888e-03,-5.248154273601865483e-02,3.225724995136260986e-01
4.662500679144236937e-01,1.564976389174146387e-01,-1.659851313047369659e-02,9.369590856201104323e-02,-1.892973662167725390e-02,-1.288011689535324342e-02,4.554506242275238037e-01
4.039967589518511648e-01,2.504405571232396488e-01,-2.761785567651045548e-02,3.927471898792623400e-02,-6.835533122780988909e-03,2.254280654752274099e-02,3.871508836746215820e-01
4.035588970099375228e-01,1.334686052895414365e-01,5.168832666611528071e-03,5.595818128898904370e-03,1.439820443487417265e-02,6.200341036951558665e-02,3.692035377025604248e-01
4.929575726477782860e-01,1.795817834587003503e-01,-2.586882754215230618e-03,1.068529662028567528e-01,1.732781561144902671e-02,5.273518197887130249e-02,4.816362559795379639e-01
3.541981089265875404e-01,2.450408209570122953e-01,-2.582040463190260482e-02,1.868944139023332174e-01,-2.062478184231382114e-02,-1.073655363086522922e-02,4.703808426856994629e-01
3.311749704103013059e-01,2.543279502521224034e-01,-1.428511093935871945e-02,1.618717104123899506e-02,8.717795618035900640e-03,-7.002109160596534619e-03,3.160090446472167969e-01
3.002236092073364282e-01,3.011458640951607535e-01,-1.499694239501081494e-02,9.695945448938276395e-03,3.706942494791844612e-03,-4.070696249034996134e-03,3.162728846073150635e-01
2.820962971185479451e-01,2.877540412808551329e-01,-2.917412332774030337e-02,6.756853163214478208e-02,1.555939274171545469e-02,-1.370365387103855172e-02,3.371476531028747559e-01
3.523751063942336392e-01,2.352884439274690598e-01,-1.416915249597489046e-02,1.304848157922379112e-02,1.002866332455079092e-02,-1.279538882230447580e-02,3.262670934200286865e-01
3.454634033251604563e-01,2.850406516608258167e-01,-2.491805536240557228e-02,-3.733450172342217023e-03,-1.713987506032182127e-04,-2.196418877494749067e-02,3.463279604911804199e-01
4.084535413593330944e-01,3.075524169037960887e-01,3.451506987897920431e-02,3.009799676252830625e-02,4.775933831865648155e-02,-5.859036910427857514e-02,3.635095953941345215e-01
3.261562796974127321e-01,3.280021601283136246e-01,-7.645173285844575339e-05,-1.127198929440287583e-03,2.888945854389052097e-03,2.271688508802697896e-03,3.272273242473602295e-01
3.278871087854922095e-01,3.247476210404672825e-01,-1.025416296746600731e-02,-7.377731351719932261e-04,1.102232156931371164e-04,4.846955924376753974e-03,3.366896808147430420e-01
3.662661209454717848e-01,3.451603872853131749e-01,5.635289953668132235e-02,6.868103782747906824e-03,-1.159016733850589190e-02,-2.694154557726114937e-02,3.044220209121704102e-01
3.226746331535551571e-01,3.325043599454111654e-01,-3.239963821331340310e-02,-1.726833697269364852e-04,7.496181786720834943e-04,-2.724128281362540502e-04,3.600925505161285400e-01
3.230931826384707550e-01,3.291294203468508872e-01,-3.275823871082370053e-02,-9.601383089243634410e-04,7.320477491202379483e-04,4.181362450636495043e-05,3.589137196540832520e-01
2.642154687406692570e-01,3.455877286147255312e-01,-1.855164991440114153e-02,4.202290976764496561e-03,7.517065759009218832e-04,3.076471073336712898e-03,3.311663568019866943e-01
3.186637070384388259e-01,3.315612090775355014e-01,-3.068960094334019506e-02,3.506644958100107665e-04,-2.662150073651950704e-03,-9.146725404348243337e-04,3.560112416744232178e-01
3.225622259217609256e-01,3.312599439844603477e-01,-3.248632912252183425e-02,4.334095837184367018e-04,3.801122540515630395e-04,1.982409562238268718e-04,3.594778776168823242e-01
3.224029797055517066e-01,3.304900348577149982e-01,-3.254540652538981393e-02,-4.828628598968685262e-05,1.182752845599738527e-04,-7.615287672794576117e-05,3.590603172779083252e-01
2.920011825326149224e-01,3.384631729191814320e-01,-2.577225034835106676e-02,6.431418056875186362e-03,-1.319582426274146236e-02,7.217332247303218616e-03,3.445370793342590332e-01
3.227600336827147753e-01,3.302456001074914882e-01,-3.296014987385592621e-02,-4.454290758109106163e-04,7.958737742482628347e-04,1.108656503398194187e-03,3.595300018787384033e-01
3.238870279039321454e-01,3.306718735504200479e-01,-3.173369155250960194e-02,-1.091522732905029136e-03,-1.128099383848013733e-03,7.104190189023611244e-04,3.590736389160156250e-01
2.170663213246718515e-01,3.970836839834693821e-01,-2.126339527957504805e-02,4.212170003332105228e-02,-2.188850677591315866e-02,3.066276711867918069e-03,3.726916015148162842e-01
3.224620319012366232e-01,3.283649410736158569e-01,-3.258064200870136595e-02,-1.726900544867281465e-04,-1.942746819900392069e-04,6.920009862544435801e-04,3.580329120159149170e-01
3.194707213922909350e-01,3.699636328296437293e-01,-1.984911561329613661e-02,-2.578856690859096523e-02,-2.912629781606187324e-02,-7.077011407385124138e-03,3.735119402408599854e-01
2.208183281560301692e-01,3.517722842422530971e-01,-2.546573434353766041e-02,3.014537206452724133e-02,-1.978781802840397230e-02,1.332830350106613444e-02,3.383644223213195801e-01
3.159586019597036000e-01,3.253028037700217423e-01,-3.809159480638682482e-02,5.973790444908921859e-02,-3.571438944116566566e-02,3.187211319505642987e-02,3.825272023677825928e-01
2.894246762125042838e-01,3.256060579964985546e-01,-2.198096792868170501e-02,3.566200742716508360e-03,-8.630651043163259026e-03,8.384376808264528899e-03,3.316958844661712646e-01
2.786118633447775550e-01,3.378697327247912607e-01,-2.449005836569301264e-02,3.354548691503210327e-03,-8.978633154552185039e-03,7.979655193466163657e-03,3.373574912548065186e-01
2.894606207869001580e-01,3.444791340583676087e-01,-2.746364447027596634e-02,3.253419178303134859e-03,-1.519009479900566969e-03,-4.599126074751291350e-03,3.478603959083557129e-01
2.638570650616570146e-01,3.583785422346114635e-01,-2.450875956219514262e-02,3.412460118384614584e-03,1.085046121129650161e-02,-4.992641555727763639e-04,3.460271656513214111e-01
2.781671582071475468e-01,3.383149831335645064e-01,-2.750009906128361714e-02,-4.389367523662562019e-03,8.119242248481674945e-03,9.352514158096262784e-03,3.405193388462066650e-01
2.892183401034381096e-01,3.453964513533831493e-01,-2.762470910709111105e-02,-2.405569814857741809e-03,-4.143706079061906691e-04,4.425819919883369237e-03,3.484562933444976807e-01
3.108838590047080519e-01,3.345492428285698483e-01,-3.187496914283066696e-02,2.440346737796796235e-03,-1.063505076758265071e-03,2.814270027084798606e-03,3.552466928958892822e-01
3.111077259905500325e-01,3.375466886608465833e-01,-2.937411390692062918e-02,4.175441226934329406e-04,3.991933719702910575e-03,-4.381949758224274599e-03,3.545910716056823730e-01
3.146892544613982823e-01,3.364087074704796843e-01,-3.203043440053851554e-02,2.413733634258643374e-03,-1.779328359352427098e-03,-2.879820321369512982e-03,3.581461906433105469e-01
2.787311209371715059e-01,3.115325554665648311e-01,-1.544635743807273864e-02,-2.769657300881067652e-02,-6.985652904235456657e-03,-6.434624299303345896e-03,3.159710168838500977e-01
2.642238337480841692e-01,3.230330120892160872e-01,-9.632484179660782964e-03,-8.026827823098780373e-03,2.539297776750345289e-03,2.353293226221536086e-03,3.078803718090057373e-01
3.503020207073357928e-01,2.657531420905424602e-01,-1.810628401404604237e-02,2.229700067952052056e-02,-1.166196417980024623e-02,3.996126015385770280e-02,3.441146016120910645e-01
3.172724321963057981e-01,3.297796782538779392e-01,-2.044623703042280916e-02,8.130244953404839464e-03,1.464763972740803707e-02,-1.487006020218739274e-02,3.463229537010192871e-01
3.279469622401171569e-01,3.272436555438276717e-01,-3.004344101816419643e-02,-2.143907874663142279e-03,1.353274159822631488e-03,-3.107016898349055506e-03,3.577066957950592041e-01
3.268054915127824311e-01,3.205005169258534625e-01,-2.947755953428249365e-02,2.223756831982035258e-03,4.324681022421488635e-03,-5.378941376534068612e-03,3.533960282802581787e-01
3.312887491062658230e-01,3.038878143913416041e-01,-2.792285782508735492e-02,1.006275743484805196e-02,1.157900806524118226e-02,-1.113710696241091216e-02,3.478780686855316162e-01
3.268909223829048472e-01,3.281310603822400473e-01,-4.687860399848753357e-03,-1.501603664234062076e-03,-5.162646893884945132e-03,-1.141104294642600455e-03,3.323369622230529785e-01
3.282352475559576765e-01,3.280909962941802593e-01,-2.046320213677599309e-02,-2.656955489279668337e-03,3.379133809025882187e-03,1.777030193742608734e-03,3.487194180488586426e-01
2.860516950089302957e-01,3.535704272412373284e-01,-2.629865079295776176e-02,5.772520468483684219e-02,2.451638866162299257e-02,-2.639994852236290240e-02,3.702723979949951172e-01
3.153243887365292930e-01,3.012792231616829852e-01,-2.517795708978609603e-02,2.271435231367226627e-03,6.649488921234869912e-03,-3.363373825131826377e-03,3.339741826057434082e-01
3.227512123549955980e-01,3.231364914765954000e-01,-3.543823206770563283e-02,3.471777246929545489e-08,3.432215464155569519e-04,3.838542466720530513e-04,3.583833575248718262e-01
3.230030870821620215e-01,3.230232342654100197e-01,-3.542972283832790392e-02,7.423043607745778011e-05,3.425817323632397737e-04,3.840943009912572807e-04,3.584440052509307861e-01
3.227632251431643007e-01,3.222525407708305423e-01,-3.503008727719483795e-02,-4.004784271199080285e-04,-2.442372648752691843e-08,2.532828173082949004e-04,3.575391769409179688e-01
3.204723692196650431e-01,3.214594582408124568e-01,-3.346232011297836650e-02,-3.878348734705889221e-04,4.031855807699729352e-04,9.865745743370723034e-04,3.544346988201141357e-01
3.229405298218354647e-01,3.229065272745674231e-01,-3.505852510234946928e-02,1.182590229396269814e-05,3.378755261810828764e-04,3.318313166139941249e-04,3.579829931259155273e-01
3.224999591438932889e-01,3.225859306308221375e-01,-3.511535225094117307e-02,4.161392247494325467e-04,2.100396160517578918e-04,4.484330815269631666e-04,3.576600551605224609e-01
3.329929237067161818e-01,3.634027658755719092e-01,-4.269460241318107085e-03,-1.030221607695285674e-02,-1.429507284030053643e-02,4.282544938799985774e-03,3.548425734043121338e-01
2.400326809156990981e-01,3.983153584994113539e-01,2.415571441403160935e-02,-5.437330376724674660e-03,-4.511483182567269101e-02,-2.093706496835702827e-02,3.366536498069763184e-01
2.530129247682599281e-01,3.922982801569512845e-01,2.357255550751952144e-02,-1.048722764456588158e-02,-5.573294903709687803e-02,-4.387742092333882932e-02,3.455793559551239014e-01
2.471968420973502667e-01,3.715291564039246985e-01,1.705991742851362125e-02,-2.443996355909912668e-02,-4.435334768004858819e-02,-2.533640932274345593e-03,3.236477077007293701e-01
3.282654713107722166e-01,3.288870583026187178e-01,-2.996011564220357748e-03,4.131501362575972598e-04,-3.651174839509552239e-03,-5.173357679534869953e-04,3.316349983215332031e-01
4.315052430906530234e-01,4.692662157396578770e-01,6.194034735291215066e-02,-1.516974289027343825e-02,-4.802806732867716949e-02,-6.749864876368878892e-03,3.996327817440032959e-01
3.294229650373267648e-01,3.275978297031366671e-01,2.149795903360018912e-02,-1.169818012998529539e-03,3.697586249317241433e-03,6.438106048746629860e-03,3.072923719882965088e-01
4.571683104420426469e-01,3.439764432092837221e-01,4.865121811917866301e-02,-4.333527164034174650e-02,-4.854852326843930930e-04,-1.691390504883532458e-02,3.740997016429901123e-01
3.490520787328456054e-01,3.016844970174794582e-01,1.288619768367724183e-02,1.739912048741978912e-03,-1.181868016031952483e-02,4.400473296776568830e-03,3.159336149692535400e-01
3.948895081662398554e-01,3.166491260058836299e-01,-6.193239004165573824e-03,1.458608347128573582e-02,4.016099962072777751e-03,-2.146855148751397949e-02,3.710490465164184570e-01
3.288388465210694278e-01,3.261371751767280225e-01,2.321855549826198906e-02,-1.510528251257122010e-03,2.756094305346922825e-03,-2.294232192132993758e-03,3.043530881404876709e-01
3.587017849401162861e-01,2.654770926506190287e-01,-2.843562139841088188e-02,-9.987257993188875579e-04,-2.872900060137060542e-03,1.576845588418191585e-02,3.510685563087463379e-01
3.955576262664105558e-01,2.497518279529269691e-01,2.704318128340496563e-02,-1.182513881853889358e-02,1.061792271591783035e-02,-7.660275936055639667e-02,3.488443195819854736e-01
4.049832776970242465e-01,3.497156646677492264e-01,3.917188668749330138e-02,2.541278229021286250e-02,2.706407575789154807e-02,-4.543687977609010137e-02,3.563471734523773193e-01
3.684127779911696710e-01,2.382241984224449383e-01,4.663189208424692311e-02,4.263085618425752066e-02,2.662034696140710630e-02,-7.517622205780108424e-02,3.211421668529510498e-01
3.606573867377373954e-01,3.937739427969725314e-01,4.607877819897618354e-02,-8.462132683989176396e-02,-1.607543080474396757e-02,-6.212844549666056426e-02,3.798836171627044678e-01
3.830426429921696130e-01,3.141708449745191922e-01,2.390859309530926624e-02,1.970031053526281883e-02,-1.420144168264577365e-02,-9.627862228490186025e-03,3.332173824310302734e-01
3.634642879205174371e-01,2.348824991663588935e-01,-2.281498475848028895e-02,3.567361450991195573e-03,3.737637451848518921e-03,3.556837490238849708e-02,3.463407158851623535e-01
3.245004021109494929e-01,3.292529914451185480e-01,-3.247598684297622884e-02,-5.436239335467576885e-05,-1.202639225273257652e-03,1.337072278211175582e-03,3.593897521495819092e-01
3.222035434508466745e-01,3.304175982379228271e-01,-3.298423181858736730e-02,-2.047600005664651805e-04,4.863401318341397783e-04,6.853812744583079580e-04,3.593683242797851562e-01
3.234558592527340681e-01,3.290890648779091210e-01,-3.255255984878430153e-02,-6.990171811266629497e-04,-1.076795106266254876e-03,1.361281274788712610e-03,3.588728308677673340e-01
3.232377764861297242e-01,3.323532359174555806e-01,-3.247301953409309494e-02,2.428657103914260091e-04,-1.369997916514539144e-03,2.445695546580984366e-03,3.603879511356353760e-01
3.271615455125237437e-01,3.302684578374672775e-01,-2.681495083430890380e-02,-1.307945490310661674e-03,-2.316036996139053672e-03,-3.061779796849791162e-04,3.555703759193420410e-01
3.259353365557310367e-01,3.275656543363911766e-01,-1.926640990847430790e-02,-1.560977887000840033e-03,1.593966737824456309e-03,1.726753547130748618e-03,3.460542857646942139e-01
3.092139632003575445e-01,3.179635698720995052e-01,-3.120552898913531159e-02,3.894636537116959348e-03,-5.319888432820100120e-03,7.035770667212506817e-03,3.452816903591156006e-01
3.208903762860073616e-01,2.661813453182801936e-01,-1.963775255001870557e-02,-2.600232729180201874e-02,7.687568254084516106e-03,-9.078605848086365466e-04,3.202040791511535645e-01
4.572146963677282683e-01,1.498496025583931357e-01,-3.864187304555916080e-02,3.571587484375015470e-02,-1.165647114261755650e-02,4.760744831664186910e-02,4.460627138614654541e-01
3.723072683907089342e-01,1.185099709776293031e-01,-1.128575991848282389e-02,-1.014873592250304934e-01,6.165124484504505217e-03,-6.865869320684505131e-03,3.812562227249145508e-01
3.239403446347584592e-01,2.768869241034149775e-01,-2.014014550885417920e-02,-8.534734273263958060e-02,1.754398119538146811e-02,2.107023304965432303e-02,3.585010170936584473e-01
3.389365697334624228e-01,2.820601113608789401e-01,-3.893327141797592317e-02,-6.647547727162408937e-02,1.427250081965249044e-02,3.469656300269632898e-02,3.768398761749267578e-01
4.030735018376626067e-01,2.305955038885348085e-01,-1.806673616331430643e-02,-1.435243459700799029e-01,3.499028383034153561e-02,3.467254664221695870e-02,4.511624574661254883e-01
3.467643962862906326e-01,3.314950596893820878e-01,-3.099857164270730658e-02,-5.132155079343364568e-02,2.909225646784439900e-02,2.304783363104960167e-02,3.862695991992950439e-01
3.012088438360870923e-01,3.091500325892927448e-01,-1.669947036359276105e-02,-8.709575766930715548e-05,-6.920592882975846669e-04,4.015445725192494895e-03,3.220297396183013916e-01
3.560182161204992202e-01,2.130508903411692523e-01,-9.187499197747805990e-03,1.661915584084474110e-02,-5.218866384627718520e-03,8.760236421080220409e-03,3.205353617668151855e-01
3.079525322067618309e-01,3.019832241763545921e-01,-1.645335548781931556e-02,3.303978946110397441e-03,-7.591511300215138562e-05,9.533860604224605149e-04,3.215180039405822754e-01
2.980573601161495834e-01,2.962084003742508909e-01,-1.235833747461279053e-02,6.832294926645493885e-03,-1.693810115747358333e-03,1.665123858606889704e-03,3.097488284111022949e-01
3.209146296587927494e-01,3.200493933521083578e-01,-3.356832027897610482e-02,-1.932547319429574393e-05,-1.646979677820528025e-03,1.275013758609132948e-03,3.540695011615753174e-01
3.025709230010349415e-01,2.999990683799368396e-01,-1.195851030441566487e-02,1.454518554114871305e-03,-1.853495296170262286e-03,1.762326067977395237e-03,3.132928609848022461e-01
2.895637629661805823e-01,3.083348834583332088e-01,-1.393701867602428757e-02,3.049928310682958020e-03,-4.787266168234162803e-03,5.946691549244047421e-03,3.136317431926727295e-01
3.533666884747073689e-01,3.189723305423534661e-01,3.730120170513009925e-02,-5.743471874274018452e-02,-2.640741271392797046e-02,-4.706928668034572952e-03,3.197878301143646240e-01
3.966139357935685728e-01,3.798667585437663918e-01,5.486735308464510408e-02,8.604653803740284698e-03,-4.195285508801455815e-02,-6.825088041039129028e-02,3.616969585418701172e-01
3.224755989620838870e-01,4.763144351229898210e-01,3.918054664504380669e-02,-4.250564372548636984e-03,-1.669031209846427374e-02,-1.091393583527861325e-02,3.856831490993499756e-01
3.845187657206772247e-01,3.421223945912995057e-01,4.126299966082119797e-02,-1.260407759261771184e-02,-9.254588341605715293e-03,-1.058065111883661411e-02,3.257891237735748291e-01
3.315123311108348902e-01,3.287069369546512521e-01,-4.928426483895187449e-03,1.203255134078654942e-04,-4.857403655723739784e-03,-2.264749707463704735e-03,3.351755142211914062e-01
3.517223766097072879e-01,2.917592907998438068e-01,-2.928128915388353293e-02,-4.745353979393716198e-03,-8.264612063063957875e-03,-1.251627375889983844e-02,3.558871150016784668e-01
3.377990963188135520e-01,3.164367666392128298e-01,-2.451101156415239068e-02,1.601067515344139179e-03,3.440831261538534851e-03,8.232805533383562302e-03,3.524652123451232910e-01
3.278936670870350456e-01,3.297793630505729268e-01,-4.212472091882940584e-03,-5.939588185462681006e-04,3.594198513873638357e-03,-1.202779510765256436e-03,3.331192731857299805e-01
2.996957701697725573e-01,3.863672462096006122e-01,-2.037206946170286304e-02,-8.647132834482781569e-03,6.421222968883304183e-03,5.149126183477999684e-03,3.716499209403991699e-01
3.048311711189617967e-01,3.429557845324110454e-01,2.957722055145967088e-02,-9.582120021860030673e-03,-1.433184306352306391e-02,-2.115246005296414527e-05,2.976639568805694580e-01
3.258906519259839873e-01,3.273930260890810517e-01,2.780955262826811936e-02,-1.275639920929170883e-03,6.131027051577466955e-03,-1.000392513265828615e-03,2.990369200706481934e-01
3.197368454308613384e-01,3.451635257114764599e-01,-6.545451716101768902e-04,-2.707979863949534771e-02,9.676971269451837068e-03,6.523277429039461145e-03,3.377161324024200439e-01
3.276830235635119215e-01,3.429762515585426663e-01,2.098714085618264003e-03,-3.393430309674493744e-02,1.643672051114991942e-02,-4.517136084448553773e-03,3.399184942245483398e-01
2.937508690311141368e-01,3.451068973867801315e-01,-3.027291979776641773e-02,-4.627919677627565474e-03,2.158358178242072989e-02,5.328541313642642246e-03,3.547061085700988770e-01
3.322811335152613399e-01,3.379812232835027741e-01,1.238377259067321989e-02,6.818907465942060028e-03,6.944981670328267097e-03,-4.345733185117665182e-03,3.233126997947692871e-01
4.829178151805398334e-01,2.208991288741087300e-01,1.762118236519025216e-02,1.128411316436193045e-02,-1.974633759213762288e-02,3.832995127061378238e-02,4.113363921642303467e-01
3.712980068567673930e-01,3.279389338539249188e-01,3.575265392058046832e-02,4.752076823436934133e-02,-1.096558941821862941e-02,7.835309914572152756e-02,3.542242050170898438e-01
3.265996823654107040e-01,3.281292875222966976e-01,3.841025797560551625e-02,9.039443304583317639e-04,8.420654807683820506e-03,-3.267156629299751425e-03,2.893846929073333740e-01
3.374227479724885570e-01,3.167771006935352629e-01,-3.030481273583163215e-02,-3.113707350341455779e-04,8.275077075025502561e-04,5.346988118602022735e-03,3.579747676849365234e-01
4.630739864308293097e-01,3.723543739383533557e-01,4.792082210352799354e-02,3.278476958973679245e-02,-1.586355594923373816e-02,1.424979079733232172e-02,3.840681016445159912e-01
3.605411770565077889e-01,3.545846324920478021e-01,5.583553839594629364e-02,7.691358630740307775e-03,-6.011016011917369103e-03,-5.428295615467377232e-03,3.023909330368041992e-01
3.701507106736072195e-01,1.979981093042123552e-01,1.573328009127589189e-02,7.963663344277925604e-02,-1.943344952241913203e-03,4.099548599000795573e-02,3.439673781394958496e-01
3.300332279646220335e-01,3.222783976203485445e-01,-1.374437310018380987e-02,8.953560918608114219e-04,-1.171803244616698332e-03,-1.978945819320518298e-03,3.399933874607086182e-01
2.666748393136478268e-01,2.806408823403744868e-01,-7.645918274675184145e-02,-1.910978151300305183e-01,1.451627480142354994e-02,2.180623193960217268e-02,4.840888977050781250e-01
3.442227207198892969e-01,1.972506718987115937e-01,-2.547731899527946875e-02,-1.093542506260559710e-01,-1.169822396008118881e-02,-3.497909796411248495e-02,3.793409466743469238e-01
3.044065011963177914e-01,2.630631165243355052e-01,-2.838256040940745351e-02,-1.150074800302878508e-01,-2.817677260650702439e-02,-7.875518206386405984e-03,3.754293918609619141e-01
1.971730265598817811e-01,2.981433623561874358e-01,-2.716387983717569177e-02,-1.529693123339981031e-01,-1.514015030118367675e-02,-2.377839206822199292e-02,3.946595489978790283e-01
2.932143827790631430e-01,3.251783861096275152e-01,-2.395335870806558631e-02,-3.231894260939974402e-03,-7.186076978644593757e-03,-8.529426091503644614e-03,3.349022865295410156e-01
2.175251121690402190e-01,3.497757263088555613e-01,-3.230051160739211280e-02,-7.122980910297069257e-02,-3.358147589502866789e-03,-1.640329814043587839e-02,3.591723144054412842e-01
3.055998127957926247e-01,3.289768167612381333e-01,-2.777205842778615597e-02,-1.513494845887718588e-03,5.247435730624090688e-03,7.551803855345921856e-03,3.460304737091064453e-01
3.036890748026386810e-01,3.165459643203916151e-01,-2.559960842114511470e-02,-1.323401472456950737e-02,5.658760415804760940e-03,5.208440534850190123e-03,3.369463384151458740e-01
3.147792767727103369e-01,3.344335447809939632e-01,-2.748456505471735811e-02,-1.072631918771985680e-02,-6.435209052650201367e-04,7.017146127412800943e-03,3.532023429870605469e-01
2.886820204867757145e-01,3.252663665412330873e-01,-2.438523210564633170e-02,-3.885446505027495383e-03,8.257324957495891515e-03,9.184331533239598749e-03,3.336251974105834961e-01
3.046896276839468065e-01,3.137081354695025470e-01,-1.934029881822341146e-02,-2.126394006164425508e-03,3.537944106845720103e-03,7.216193231984115164e-03,3.289473056793212891e-01
3.098226923510928321e-01,3.283731453351441676e-01,-3.081000914983411665e-02,-8.635064716066538984e-04,1.872255744522042403e-04,4.236463151308125091e-03,3.503567278385162354e-01
3.189082610568910736e-01,3.278435995048664120e-01,-3.336816606111800421e-02,-2.373618092686718842e-05,2.766715205901455928e-03,3.394093985053579007e-03,3.569086194038391113e-01
3.069676356593566968e-01,3.041583583940343227e-01,-2.163193260279142049e-02,-4.258973996329989964e-03,4.069668149629113163e-03,2.945613561255105463e-03,3.274027705192565918e-01
2.904437500852877219e-01,3.439585069064493572e-01,-2.815711401834089522e-02,-8.664607099947939633e-04,-8.267593581071423997e-04,-3.058000022378815986e-04,3.484605848789215088e-01
3.278662042709381552e-01,3.291753815226367563e-01,-2.211590817590791680e-02,-3.034647226260533221e-04,4.416126330444429017e-03,1.240730167122361849e-04,3.507224023342132568e-01
2.484463265492648787e-01,4.005751175027867372e-01,-3.690315476577571419e-02,3.189935159068171822e-02,1.733833103536236431e-02,-1.046153617534433845e-02,3.902054131031036377e-01
3.136461561282085087e-01,3.190191525915035409e-01,-2.344641391951746145e-02,1.694708826194143286e-02,1.470303499243315846e-02,-8.029170746182145990e-03,3.423083722591400146e-01
3.063296487377780708e-01,2.806993823830961077e-01,-1.592491970749146390e-02,-2.851061623974187470e-02,7.218497522707870845e-03,4.986388157308898998e-03,3.145074248313903809e-01
3.144419363950103907e-01,2.799773603684165835e-01,-1.569563039251312131e-02,-8.257614630084463697e-03,8.156052657559316466e-03,4.049805748789121924e-03,3.150458633899688721e-01
3.240961370556005861e-01,2.765699908673390217e-01,-1.546580775461486867e-02,-5.255599349491479715e-03,7.820471406599065894e-03,3.384337475771845814e-03,3.189415037631988525e-01
3.292954510845304550e-01,2.713862061810242698e-01,-1.698272957513249914e-02,-8.807552391697077293e-03,6.359047151687610873e-03,-1.939002282684153971e-04,3.218128383159637451e-01
3.242457017134571240e-01,3.274697511902949776e-01,1.517624607390422042e-02,-9.638851790231830422e-04,-9.619332560306587988e-04,6.438413507903811492e-03,3.109030425548553467e-01
3.297799817314385207e-01,3.282306045311690346e-01,2.061788842691400503e-02,9.448631298155083826e-04,-2.792605993995926020e-03,5.548024138141439618e-03,3.085822463035583496e-01
3.262672471970096133e-01,3.249340926621063774e-01,1.985335015399972147e-02,-1.485391829715146383e-03,2.837353405450031545e-03,7.955689401642200564e-03,3.061101138591766357e-01
3.262450897873676592e-01,3.283285208711671510e-01,-5.285529762685814426e-05,3.523469198447794215e-03,-2.267190229710051418e-03,4.530982544718761655e-03,3.275190889835357666e-01
3.337514779094321038e-01,3.244582648040801320e-01,6.415672776001302147e-03,-5.121246047290950974e-03,-8.382696339344856279e-03,-1.465256050206362529e-02,3.242324292659759521e-01
4.678435955388492440e-01,3.122408888291322571e-01,5.233206887270042129e-02,-7.321066313629699673e-02,-1.924791508937172962e-02,-5.308019315922619247e-02,3.973042666912078857e-01
3.535245108302167982e-01,3.377001929850949047e-01,6.196595191902448674e-02,-4.503139967740478651e-03,1.326682863412536120e-02,7.669991905847994840e-03,2.853216230869293213e-01
3.397160494124220054e-01,2.749834589046026845e-01,-2.367600415013088044e-02,3.240664168422603859e-03,-7.615669048467511512e-03,6.277055175738390988e-03,3.362208902835845947e-01
3.442332543916983845e-01,2.446353089845750839e-01,-7.213281308696278815e-03,8.540884894507575972e-03,2.196976075454242904e-03,5.315885152462510727e-03,3.142437934875488281e-01
3.342821862937833677e-01,2.277438358031357302e-01,-8.346315953677879707e-03,3.713912214411480006e-02,6.777684502895370278e-03,-2.793368077912317723e-03,3.107101619243621826e-01
3.842262392288533501e-01,1.644404819590586375e-01,-1.139388173898894796e-02,2.118752872800450625e-03,-1.505287942165309213e-03,-2.237308203159319581e-03,3.433724939823150635e-01
4.991657424793130571e-01,1.531996092535327647e-01,-4.508989618191794335e-02,8.656974254801289015e-02,-1.467363755375322015e-02,2.134853317372191472e-02,5.021045207977294922e-01
2.567361061884341766e-01,3.270249871412197473e-01,-1.486660757947924627e-02,-7.539737332451593513e-03,-1.088811498889757402e-02,-5.143230508892327087e-03,3.136953413486480713e-01
1.134393469946832489e-01,4.451361544429626171e-01,-1.111838047882561242e-01,-1.077201696381814289e-01,8.141391299239452220e-03,-1.285457782809253970e-02,5.200871229171752930e-01
1.369550098307169839e-01,3.710899550768760324e-01,-1.026610903553965004e-01,-1.679260628656295551e-01,-2.755756997159678617e-02,-1.457154945312785950e-02,5.058164596557617188e-01
1.543979195747665067e-01,4.578885606582138168e-01,-9.652669152727905155e-02,-1.333196534720104964e-01,1.299065297534013515e-02,7.697004361500224198e-03,5.340687036514282227e-01
2.181038405297396898e-01,3.559352890278895676e-01,-2.620138872488023130e-02,-9.630341268386997944e-02,-1.238526626069577814e-02,-3.008744861445922930e-02,3.786218166351318359e-01
3.536370326476173664e-01,3.664818989516434589e-01,4.700079054757372310e-02,1.264576934645640464e-02,7.805022312026345735e-03,-1.879278115122398661e-03,3.143287599086761475e-01
3.216286017393016339e-01,3.252260079262282444e-01,-3.385030253808116174e-02,-2.557083510250017077e-04,4.593478466859384065e-04,8.407426901232452343e-04,3.572953045368194580e-01
3.208767985888521523e-01,3.246529886216940053e-01,-3.184314649569741640e-02,-1.623676288283638827e-03,3.307374213280824503e-03,3.581830746112674071e-03,3.547347784042358398e-01
3.135804684877320225e-01,3.304669808759422289e-01,-2.433272384358062257e-02,-9.457451387781055496e-04,3.348294728317781875e-03,3.360893112423199002e-03,3.467662930488586426e-01
3.150877536679986823e-01,3.295104574828252586e-01,-1.732803266858345959e-03,-2.691108247947434392e-04,4.374815815538009734e-04,1.972846139991057534e-04,3.242739439010620117e-01
1.728909439685361316e-01,3.674896698317161592e-01,-8.714527759954765473e-03,-2.752096583736936969e-02,5.772393277554689096e-03,1.863619670394671369e-03,3.295026421546936035e-01
3.262975335341002370e-01,3.274062579779518090e-01,-2.976468800059028919e-03,-2.036882674126299004e-04,-4.088983198150319205e-04,4.038325635028171268e-03,3.299048542976379395e-01
1.645575653951214246e-01,4.112279562558051604e-01,-3.360123328942488108e-02,2.842282453513887003e-02,-3.505599685806429222e-02,9.643801470012714318e-05,3.938317894935607910e-01
2.562105681321262263e-01,4.418837947344785855e-01,1.107391972374033307e-02,-1.148017700365731586e-01,5.634814718921370147e-02,-3.980591511085649833e-03,4.349632859230041504e-01
2.655324709198930710e-01,3.436789453669405470e-01,-2.400078508808375921e-02,-8.341499222228035068e-03,8.564040583607478510e-03,7.901483631899196974e-03,3.364200592041015625e-01
2.662869263085754223e-01,3.514407748028252620e-01,-2.614623377483832334e-02,-1.918033667209841173e-03,1.187142866081623838e-02,4.604566115773896587e-03,3.437550961971282959e-01
2.147889259101212756e-01,3.516334509781504081e-01,-9.334808409360934034e-03,-1.981473255440546408e-02,-5.391860662006411984e-04,-2.528854387509610856e-03,3.175309598445892334e-01
3.269714800304775459e-01,3.301051442777516165e-01,-2.010840384115711310e-02,1.607590042682727465e-03,3.599627565484866173e-03,5.335325333166764930e-04,3.487253487110137939e-01
3.278502358727779509e-01,3.263843931798153242e-01,-9.767609410990807373e-04,-8.961216131044846562e-04,-3.710747684797197380e-04,-8.864978135802116868e-03,3.284599184989929199e-01
3.296589590821499827e-01,3.244327675643604025e-01,-2.867272644170915097e-02,7.269029250300166429e-04,-4.375276512008845578e-04,1.198014899877424379e-03,3.557564616203308105e-01
3.545661111840108237e-01,2.451407148335757458e-01,-3.267021799847513730e-02,8.323137245028037340e-03,7.750116812573037972e-03,-3.742300732029666538e-02,3.523377180099487305e-01
3.910566305512864216e-01,2.743361400273592876e-01,-1.859449247497621527e-02,7.098661307589786140e-03,1.719042498073045447e-02,-3.569217826766514501e-02,3.721324205398559570e-01
3.302576772213173251e-01,3.268910069495560844e-01,5.122710220740733789e-04,-5.464998438167176578e-04,2.006335228078887090e-03,-5.431921877926237062e-03,3.282296657562255859e-01
3.158132096277916356e-01,3.144476182091512917e-01,-3.217959186668895022e-02,6.947094739510203953e-03,6.852432379902653921e-03,-6.165927852019434038e-03,3.478869795799255371e-01
3.281452471523586545e-01,3.252447087198528930e-01,-1.354735179431096337e-02,-8.863525843897923900e-04,3.410648093632394329e-04,3.394258910570732788e-03,3.403063714504241943e-01
3.401832460311199346e-01,3.219238191894142620e-01,-2.592873029844566801e-02,9.484911200466201423e-05,3.206617267151831620e-03,3.710478596231511338e-03,3.574333190917968750e-01
3.183269266605711634e-01,3.166141303948460939e-01,-3.190898798774882694e-02,8.717156954492894221e-04,-5.421819939643502577e-04,-1.868889838728874007e-05,3.493871986865997314e-01
3.242918158946179741e-01,3.227574067877022612e-01,-3.555316394036533989e-02,1.377031394835318001e-04,-1.369053862737363170e-03,-5.971416759989891338e-04,3.590896427631378174e-01
3.280695440602928725e-01,3.223406790583776549e-01,-3.398186704134298353e-02,8.419850971051600231e-04,-2.571948350427666601e-03,-1.479828990458768477e-03,3.592609763145446777e-01
3.253444659017883933e-01,3.247079268201227831e-01,-3.536708296660379114e-02,1.743348107710327236e-03,-1.623580955419116336e-03,-1.050745461885175570e-03,3.604219257831573486e-01
3.197820784337709887e-01,3.127804669570289908e-01,-2.937722818383375900e-02,-6.344472406135593561e-04,-4.242278456815485113e-03,-2.074785342442281126e-03,3.458101749420166016e-01
3.233375885824227858e-01,3.179614025891973617e-01,-3.216320387045293328e-02,3.866634144161397316e-04,-4.401816524829563725e-03,-2.416535237960286712e-04,3.529266715049743652e-01
3.202832095126179057e-01,3.224993199466782423e-01,-3.373810742783861505e-02,4.534961841557503105e-05,-1.084871496963353988e-03,-1.407717468330651339e-03,3.551478981971740723e-01
3.150906140652648402e-01,3.184382287332617745e-01,-3.223086383476034267e-02,-6.723962386099596083e-04,-2.919756013648631618e-03,-5.392244377264398788e-04,3.490471541881561279e-01
3.185213553131943653e-01,3.229228863009223627e-01,-3.311821068900916432e-02,-1.927477372103724058e-03,-2.336885288131014191e-03,-2.780715391671721541e-03,3.539325296878814697e-01
3.316015136629394955e-01,2.497965945757149586e-01,-8.582970719078625299e-03,1.750397789254025047e-02,2.598588542037294155e-03,1.564865840921190782e-04,3.090764582157135010e-01
2.533931979666234624e-01,3.611948968115969993e-01,-1.927054065810279715e-02,-1.529777530950293457e-03,3.213965427077672323e-04,-2.231950123756652835e-03,3.396801650524139404e-01
3.518736827303296510e-01,2.158309404022370481e-01,-9.121109154442641476e-03,1.931229682671376999e-02,8.464103898776873403e-04,-4.745561582267241937e-03,3.176519274711608887e-01
3.444120146086343537e-01,2.448505576008620510e-01,-1.076555154467484510e-02,8.610301906465526664e-03,-3.842469977814532735e-03,-1.068863322785316679e-03,3.177604973316192627e-01
3.312676833482345873e-01,2.461764321212246420e-01,-1.153399530129795014e-02,1.772657015217294491e-02,-6.886403745729605813e-03,2.665046216441180858e-03,3.109507262706756592e-01
3.141590836523476815e-01,2.200563452917166929e-01,-1.303995361043214229e-02,8.375946436580354593e-02,-3.470495247605870793e-03,6.348397764495907099e-03,3.260800540447235107e-01
3.302724280632985954e-01,2.494394583761694595e-01,-9.696706027904650194e-03,1.464597776589687469e-02,-2.983058918747955555e-03,-8.774719955638324385e-05,3.087110221385955811e-01
3.176915263625306185e-01,2.786199152252993860e-01,-9.166324726276986468e-03,1.870385853029727860e-02,-1.860877160326268468e-03,3.217104792380051366e-04,3.108890354633331299e-01
2.430160764221794278e-01,3.402115828910717288e-01,-2.677196079419766339e-02,1.195233407989572672e-01,-3.237822579669261819e-02,3.071725774110495993e-02,3.965954184532165527e-01
2.224309632357600597e-01,3.725552405012962365e-01,2.059130766223582487e-02,2.651588052479552510e-02,-5.950194067885149901e-02,-2.787216545549248050e-04,3.260498940944671631e-01
2.072777739808137898e-01,3.617902662707542238e-01,-1.562172125753860663e-02,8.126785440626807522e-02,-6.644886209453368386e-02,8.759602668755278598e-03,3.758842647075653076e-01
2.240286172922393848e-01,3.774204935604839051e-01,-1.611141375799071684e-02,1.739076267028526884e-02,-1.348393808640584689e-02,-3.941498800234708236e-03,3.457328379154205322e-01
2.445048539874129512e-01,3.636547656240082804e-01,-2.759993335164040440e-02,6.040659159637586009e-04,-2.933559410126491962e-02,-8.529056521291532647e-03,3.513688147068023682e-01
2.828826547078840958e-01,3.440060482932679742e-01,-2.034243397938065301e-02,-1.314310040176839027e-03,-1.224429099884330636e-02,-2.371988222623070807e-03,3.386554419994354248e-01
2.662796827358685503e-01,3.500430822163714817e-01,-2.822889698715344564e-02,5.797017148106836919e-04,-1.461496772927183864e-02,3.637693624764301494e-03,3.451117873191833496e-01
3.292506719562561246e-01,3.502100994709263504e-01,2.173110457393942485e-02,1.185779716219236002e-02,-2.201716405904431337e-02,2.001187298792393363e-02,3.233118057250976562e-01
2.047295896188389419e-01,3.692287121724881493e-01,-7.202000577585687680e-03,-8.491859330056618360e-03,1.106545413228977957e-03,3.591894163595560374e-04,3.271970748901367188e-01
2.076994772963369207e-01,3.934096534830032743e-01,-1.488962639663002352e-02,-3.712344040307925808e-02,-1.840707830300750483e-02,-4.049201365454133637e-03,3.613465726375579834e-01
1.860517367655279974e-01,4.172188916486332944e-01,-1.207279749496834031e-02,1.523152855683767171e-03,-1.318749354644683722e-02,9.525540905066506858e-03,3.732189238071441650e-01
2.205916619252136224e-01,3.509795930342681780e-01,-1.589923095654907637e-02,-2.484084380755969754e-02,-1.396067899618000201e-02,-8.259235876355160502e-03,3.261978924274444580e-01
1.867143576352178758e-01,4.275845358968483056e-01,-3.410142306523378242e-02,-1.038852075332611334e-02,2.000704565609148430e-02,-1.586573200552988255e-03,4.018683135509490967e-01
2.455935139992386773e-01,3.351885543735710904e-01,-1.123976201581589063e-02,4.810607426969161493e-02,-1.070662104735895480e-02,5.623192225558969019e-03,3.230834603309631348e-01
2.062008623412421304e-01,3.792585986183401037e-01,-8.718837649667715572e-03,3.081250331923245621e-04,2.166786041500580722e-03,2.222076120351748878e-03,3.366929590702056885e-01
3.186717641106617260e-01,3.137047805263776246e-01,-4.309447962808077293e-03,2.896599564353838363e-02,1.567373336306591286e-02,-1.949135280812545196e-02,3.273088932037353516e-01
2.343176930464718477e-01,3.538141574127449673e-01,1.724630077742567158e-02,-6.977754858425530560e-02,2.776642676434549692e-02,3.634727028250963471e-02,3.289706110954284668e-01
3.500515180601153076e-01,3.569713033116109768e-01,2.947175416546113369e-02,2.619606135845172802e-03,1.555080213172678472e-02,-3.669063575252747098e-03,3.253061175346374512e-01
3.264187370462535709e-01,3.274258134569295597e-01,1.061288308752589282e-02,1.136401326203120279e-03,4.818070013281696741e-03,8.735087190513551869e-03,3.167882859706878662e-01
3.279620615443615272e-01,3.271117615792095701e-01,1.172100477646415007e-02,-7.273270099671382775e-04,4.669779324179307300e-03,4.829852870339307064e-04,3.159239292144775391e-01
2.447215655055684502e-01,3.418523929027043051e-01,-1.856867957865515617e-02,-3.862122502955588066e-02,-2.355048942744128460e-02,-8.889289361350666274e-03,3.327243328094482422e-01
3.254661865198923421e-01,3.270938176395770114e-01,3.386641282714125678e-03,5.789217964312866251e-04,2.722557292085567987e-03,2.068851554147668748e-03,3.229523003101348877e-01
3.279775085535317491e-01,3.263404607761410392e-01,2.460750452261142862e-02,-2.207177043919130756e-03,-8.548860282097362970e-03,-3.455320464381682853e-03,3.030001521110534668e-01
3.290688924173220675e-01,2.311636583736268735e-01,-9.389854062810093493e-03,-3.458552419269660810e-02,7.496981126346669239e-04,1.394780328720909412e-03,3.075692951679229736e-01
3.555701386391734165e-01,2.028615646151930574e-01,-1.648740151027744405e-02,-4.119651144085099970e-02,5.332214489324614733e-03,7.965299635412695020e-03,3.321105837821960449e-01
3.436821840706559827e-01,2.231181012440520695e-01,-7.976927989896270832e-03,-5.541488188657436864e-02,-1.241834392980901329e-04,3.321514340588247079e-03,3.241110146045684814e-01
2.936223640570997384e-01,2.866163058796630247e-01,-2.705497390409999925e-02,-1.176300975627994627e-01,-1.666501011712246197e-02,-2.369184428581011179e-02,3.803471624851226807e-01
2.935254336684936516e-01,2.948087396618445100e-01,-2.548255574670013623e-02,-5.232000002799304383e-02,2.978083260423304568e-02,1.947662514443969720e-02,3.379171192646026611e-01
3.562541988893564993e-01,2.587224042762378828e-01,-2.930552414680895335e-02,-1.162806150564578700e-01,8.294679423023110579e-03,9.930634725432718052e-03,4.020326137542724609e-01
3.285479598970884596e-01,2.630106087319057928e-01,-1.166733702726771571e-02,-3.501665656014878170e-02,-9.500172072676510079e-03,-5.321502715083771366e-03,3.190281987190246582e-01
3.523466332737590356e-01,2.120011255855049626e-01,-5.730307962327294002e-02,-1.550352053784599948e-01,-1.386346028245864954e-02,-3.357744439494680933e-02,4.539646506309509277e-01
3.626006083558155346e-01,1.555235579394352308e-01,-2.476604411594934829e-02,-1.118397871277208022e-01,1.150256917319303872e-02,1.214644078400368629e-05,3.881242275238037109e-01
3.661493145516936942e-01,1.494051272202540359e-01,-3.472920923527858528e-02,-1.466984517780896002e-01,6.739167159222340941e-03,-5.453803564544655938e-03,4.307903647422790527e-01
3.432515311494204191e-01,3.100659210724744930e-01,-3.134406471051387477e-02,-1.753366334141437301e-03,2.609705400035222753e-04,-3.547642819192966222e-03,3.592202067375183105e-01
3.389246617063598754e-01,2.998696645049950815e-01,-3.149725667999314638e-02,1.574047715512060701e-03,1.996606835956290897e-03,-7.592255010293886414e-03,3.527933955192565918e-01
3.305983334327682321e-01,3.166767238390117423e-01,-3.097033163272006062e-02,1.974337644026939904e-03,2.364369001239991896e-03,-6.123135856459824104e-03,3.550113141536712646e-01
3.369098274589131248e-01,2.436602595709265739e-01,-2.020537240174144489e-02,9.817035416705154061e-02,1.088853726721048139e-02,-9.598614013943195661e-03,3.639646172523498535e-01
2.168204795302057231e-01,3.680327785742573132e-01,-3.856598911979375321e-02,-1.007968274425470462e-01,-2.915395267636061022e-02,-1.220925268050387577e-02,4.002274870872497559e-01
3.297786116188506922e-01,3.133747175069898638e-01,-2.287477467857629287e-02,-2.554087626152384740e-03,-1.816990892663842465e-03,-1.691299876327019471e-03,3.447994589805603027e-01
3.348543202307583400e-01,3.117937340831916648e-01,-3.092075854299589088e-02,6.445066322641232037e-04,2.374401137377484764e-03,1.263155840310943188e-03,3.548396229743957520e-01
3.343134438387541651e-01,3.235080034261758053e-01,-3.134801995217217918e-02,1.184181024692499860e-03,2.421282360332603569e-04,-2.856255217318702782e-03,3.604202866554260254e-01
3.418878358100887471e-01,2.992026033451974931e-01,-3.165176789697690674e-02,-2.788344389646829884e-03,-5.766537245453171858e-04,-8.526044564659471942e-03,3.544737398624420166e-01
3.355043437677770468e-01,3.127516547368064392e-01,-3.154826166951854582e-02,-7.792961164800094357e-05,-2.069650137890728051e-03,9.294155893516343938e-04,3.562433421611785889e-01
3.306179530822828116e-01,3.254755510245689321e-01,-1.381477943620051940e-02,-1.872918432115892873e-03,3.793964999711885253e-04,3.575523201198614349e-03,3.419626355171203613e-01
3.115760815118560068e-01,3.157181098984560008e-01,-2.516240943033537514e-02,-9.336591846624820151e-04,-5.949603809274249750e-04,3.659968281694619009e-03,3.388932049274444580e-01
3.076958375313614824e-01,3.130768138738286854e-01,-2.381413663029688377e-02,7.034801105649459915e-03,-4.912905311893078601e-03,5.926036389435367611e-03,3.347206115722656250e-01
3.118028520137212656e-01,3.091502149260111909e-01,-2.554495582264934561e-02,-1.375080849883688044e-03,-5.991758447673588978e-04,2.290372162333389290e-04,3.360396325588226318e-01
3.209070980133202355e-01,3.209054850235967815e-01,-3.335277377046083624e-02,3.506163904050423248e-04,-1.432388812435284563e-03,1.670282699786277900e-03,3.542800843715667725e-01
3.079380169192297845e-01,3.075080005581969367e-01,-2.067621618685161478e-02,3.876685618844203686e-04,-3.086928932633250210e-03,1.738528802782408293e-03,3.284574449062347412e-01
3.118538662752434742e-01,3.208368511791874211e-01,-2.928727940439582178e-02,7.552520117847657047e-03,-9.454346567423648623e-03,9.885819875778295920e-03,3.467778861522674561e-01
2.959902102018613368e-01,3.160585179658852439e-01,-2.446540674221842071e-02,9.714338848706009430e-03,-7.359435704329494142e-03,8.347546099024626132e-03,3.319340050220489502e-01
3.206063665050384870e-01,3.034854693226562983e-01,-2.553158736754579383e-02,-1.940683383726776821e-03,-6.826473403848333683e-03,2.983097461496902309e-04,3.381268680095672607e-01
2.177699060250118390e-01,3.730863145308718209e-01,-1.412891186655360065e-02,6.849656446143628091e-03,-1.717782464914302532e-02,-8.717350064839934649e-04,3.390371799468994141e-01
2.037635565133416038e-01,3.733989756228803802e-01,-7.065685828700318805e-03,8.337061712709894351e-03,1.132694411411542482e-03,-8.452057818902010454e-04,3.304599225521087646e-01
2.633934681283159329e-01,3.353414546875218560e-01,-1.616256365269655437e-02,4.021733393153039196e-03,-1.688417620320059695e-04,8.928469427056261523e-03,3.220703899860382080e-01
2.266148118815717871e-01,3.536933474260992583e-01,-8.017316391681711396e-03,1.161799719576264191e-02,1.411962274338484551e-04,3.211189391581947133e-03,3.185181617736816406e-01
1.639802141275794600e-01,3.616415993211647972e-01,-1.022651294484272499e-02,5.222296626319056223e-02,5.398313417920614851e-03,-2.566018214197799026e-03,3.348743617534637451e-01
2.700900221331285489e-01,3.402430770608283472e-01,-2.802574736592466920e-02,6.109189082061953699e-03,-1.424670609779242481e-02,6.643905439708081874e-03,3.399433791637420654e-01
2.039487837409022508e-01,3.637955265560740559e-01,-6.530814672515289354e-03,5.604199301528399284e-03,-8.837487190307196858e-03,2.206327444552331259e-03,3.222425282001495361e-01
2.377817492829676360e-01,3.463681082170338987e-01,-8.074341988576677620e-03,6.669954197357714012e-03,-8.315466202381227535e-04,1.977091998906391028e-03,3.147699236869812012e-01
2.464637730194667031e-01,3.335323450757502473e-01,-8.297878291523563821e-03,1.737097000947398009e-02,-7.353905805935978751e-04,1.101644195123688838e-03,3.091547787189483643e-01
6.941687068447044417e-02,4.310433928013992499e-01,-3.966949331112834543e-02,2.243114902091375776e-02,-9.761207256004766908e-03,-8.576019233662109456e-03,4.291130900382995605e-01
3.297255191024102139e-01,3.246871396983677105e-01,-2.873087431547616255e-02,2.673650322399152585e-04,4.649548763891825321e-04,-1.343698676339323246e-03,3.559727668762207031e-01
3.453075028940111313e-01,2.913659592101016105e-01,-2.937465345762826918e-02,4.531564105472706818e-04,-9.376551869899366846e-04,-2.680773664687684677e-03,3.508707582950592041e-01
3.484848626965525442e-01,2.694490709025551545e-01,-2.921753568646492938e-02,-3.471413809024873585e-03,7.336832633893661249e-03,1.267114628205925561e-02,3.460246622562408447e-01
3.336160744204712536e-01,3.161402913138156023e-01,-2.704260517815629261e-02,-1.651983874657665836e-03,2.268078176347056944e-03,3.733538580494708079e-03,3.523389399051666260e-01
3.601445119267616679e-01,2.435273712949372893e-01,-1.917700452036477654e-02,-7.157766923438710349e-03,2.071774879677641895e-04,-5.166595198265887170e-04,3.367545306682586670e-01
3.594396765333505717e-01,2.849872467142458010e-01,-2.618762895713369621e-02,2.704664864501582803e-04,-2.729888831719499455e-03,1.643140840160790470e-02,3.554901480674743652e-01
2.990094190110956229e-01,3.392905599769895364e-01,-3.080198273151327215e-02,1.468508721852396746e-03,1.084486997906590824e-02,1.360163056772687199e-03,3.522047102451324463e-01
3.233591578372639885e-01,3.289858406215993014e-01,-3.041333166247023323e-02,8.247321446725125807e-04,-7.413403366668851798e-04,1.476326254443420137e-03,3.566334545612335205e-01
3.235137192991362487e-01,3.267297700604198663e-01,-3.335242713047387175e-02,7.215706721654156037e-04,6.209433305464685544e-05,1.404202424856496566e-03,3.584954440593719482e-01
3.246627515179155710e-01,3.258609151241098623e-01,-3.075911469114811503e-02,1.209896276389080044e-03,1.860841389803315508e-03,2.584142840659389533e-03,3.560713529586791992e-01
3.304317936532650268e-01,3.231156869744160609e-01,-3.313476544882651420e-02,4.060165533745300473e-04,-1.007445711135095947e-03,2.690474142396800071e-04,3.599694967269897461e-01
3.341988344430667501e-01,3.019601964514364578e-01,-3.026668922864045319e-02,-2.780096699186633633e-03,-6.150083511443468938e-03,-5.324351333845196016e-03,3.497803211212158203e-01
3.327678808444944902e-01,3.152160545593914454e-01,-3.229846117035842235e-02,1.852178166311003061e-04,-1.918763353217784861e-03,9.019304228145997443e-04,3.566335737705230713e-01
3.442493958058453485e-01,2.955399627169955079e-01,-7.190186507878393307e-03,-1.116963101429706951e-04,-5.809861314746630166e-03,-9.901767784120368149e-03,3.303928077220916748e-01
3.284568073951228406e-01,3.224128477690961225e-01,-3.248993343342695961e-02,6.034558072936481649e-05,-1.069257369829879067e-03,-4.201587548956438366e-04,3.579685688018798828e-01
3.290569749310340297e-01,3.242497279489301998e-01,-3.253903898080948154e-02,4.439112329703066330e-04,-1.428271601853496782e-03,-6.129022914052197459e-04,3.592274188995361328e-01
3.265783387805132332e-01,3.075927938073289014e-01,-3.040620666489035617e-02,-1.701338839464142886e-03,-6.127873922617889900e-03,-4.345745938272119538e-03,3.481362760066986084e-01
3.267761463432983238e-01,3.192248800685075771e-01,-3.367496790419788333e-02,-8.523015201696967826e-04,-2.645091825201723382e-03,-1.698630726060663867e-03,3.567800223827362061e-01
3.284542205846759932e-01,3.250410881736653934e-01,-2.932989300461411042e-02,1.041701394603918680e-03,-1.856996406278044057e-03,-3.695657972768862185e-03,3.561664521694183350e-01
1.835787276586436367e-01,4.990618400033488555e-01,9.909500942416271663e-03,-4.664982595676355620e-02,-4.274662338309487275e-02,-1.077767857138526089e-02,4.436656534671783447e-01
3.333497210245767173e-01,3.153657021729265320e-01,-3.183429658932152018e-02,3.714851053227443203e-03,-2.181662989166527344e-03,7.273554565590697324e-03,3.568328917026519775e-01
3.772117535549244227e-01,2.921422321458951865e-01,-3.022463534318020617e-02,2.017613504068476241e-02,-1.800464738643800576e-04,2.700062983086662372e-02,3.768146038055419922e-01
3.400198048945803908e-01,2.961487432502096229e-01,-3.101335364582250009e-02,9.820475598934523456e-04,-2.399580377503432276e-03,7.646876918814853562e-03,3.514373898506164551e-01
3.340684202688464222e-01,2.977967810659291614e-01,-3.113113421212393428e-02,2.610302807903783478e-03,-2.715928976979832803e-03,8.264899347073327573e-03,3.488372862339019775e-01
4.006430483008153187e-01,2.889525829571930604e-01,-3.976697155622721525e-02,-9.522156436007638350e-03,1.819908051613193284e-04,3.721400749858831680e-02,4.020856916904449463e-01
3.743128218802480034e-01,2.173781252236115236e-01,-2.161862708291192869e-02,1.047231324500113962e-02,2.033354616505459334e-03,3.665246919069547506e-03,3.458851575851440430e-01
3.206402197424167433e-01,3.189071247781721796e-01,-3.140954285239225263e-02,-1.042250440492624572e-03,-3.346670455241348220e-05,5.960498677290236970e-04,3.511925935745239258e-01
3.147372293351468064e-01,3.167692863866836683e-01,-2.914131799596042516e-02,-8.051800851703906636e-04,1.273387098209852750e-03,1.997603630778544120e-03,3.449262976646423340e-01
3.206700743653260188e-01,3.206528242576500709e-01,-3.357887864925512833e-02,-9.233979347350536370e-05,9.232391646708332450e-04,3.953977245896719232e-04,3.542446494102478027e-01
3.230139380272653571e-01,3.226995783779446070e-01,-3.544367467957743045e-02,9.814102593376665732e-05,3.191440968129974440e-04,5.458415111135983110e-04,3.583022356033325195e-01
3.256370665132176656e-01,2.904899387252075638e-01,-2.459910663541803322e-02,-3.178738660371143582e-03,8.749967027851383514e-03,7.481606571627302804e-03,3.346921205520629883e-01
3.139714110827067639e-01,3.184854447219112594e-01,-2.745440271259344533e-02,-1.015540122789018208e-03,2.224645830319991503e-03,4.511415480078510322e-03,3.438199758529663086e-01
3.204677307709591361e-01,3.226431658619603460e-01,-3.329534518734059145e-02,-6.902961868113105266e-04,1.703448668869253588e-03,2.807599478027150448e-03,3.549033999443054199e-01
3.298928141508485901e-01,3.229338088560996800e-01,-3.140073430447978819e-02,9.088718857438345122e-04,1.174988345587875882e-03,1.963267976095176893e-04,3.578742146492004395e-01
2.381579798134806358e-01,3.429130262263219153e-01,-3.179305684246247488e-02,-6.930977081207558010e-02,1.946052318137233422e-02,9.077134917615869297e-03,3.576601147651672363e-01
2.702508764031646971e-01,3.442197090104793245e-01,-2.416492880664330989e-02,7.587949986423255661e-03,1.354632529289511410e-02,-7.404363509388316861e-03,3.388471007347106934e-01
2.826415560436683072e-01,3.578134408925052190e-01,-2.906647403320095080e-02,3.878461802065618497e-03,1.126135026890148598e-02,-4.789729433166677063e-04,3.559082150459289551e-01
2.684964181444046694e-01,3.520042996415267966e-01,-2.574830729756857894e-02,6.693475073291915017e-03,8.770196637658836392e-03,-4.858209936454718943e-03,3.443272411823272705e-01
1.738449090717589518e-01,4.065907029608050172e-01,-7.138707724095166851e-03,-4.292309684990797819e-02,4.711699512005183658e-03,3.662213747029931070e-03,3.669916391372680664e-01
3.278077242802625024e-01,3.252498921583715230e-01,-2.942115179399634739e-02,-4.582477871848166309e-04,-1.536536984025781887e-03,-3.117556675973191544e-03,3.560086488723754883e-01
3.289208526021212275e-01,3.175356429212045084e-01,-3.062680496844760736e-02,1.311666724857527477e-03,3.628955508750572601e-03,-2.629723099011041596e-03,3.540847897529602051e-01
3.048856740964709933e-01,2.965702237905865069e-01,-1.287981372829932747e-02,-4.754952827876665448e-03,3.706803824900250371e-03,2.247773073779083322e-03,3.138883411884307861e-01
3.088888340525163256e-01,2.918732324665614386e-01,-1.311605653688485695e-02,-2.632583235797458353e-03,3.877415685855378942e-03,1.254550453664869235e-03,3.139557242393493652e-01
3.124455458562627186e-01,2.844017627630215372e-01,-1.653927503111002340e-02,-1.674701140878463723e-02,5.310888407497092213e-03,-1.148333015752393122e-04,3.173602521419525146e-01
3.285763684133523044e-01,2.461815575964923508e-01,-8.378948985447443043e-03,-1.817058821366693624e-02,2.422080310690093944e-03,1.392544377485253134e-05,3.058962821960449219e-01
3.017831429723962233e-01,2.997617582827764027e-01,-2.121649634858738254e-02,-1.249493903901420337e-02,1.062917203125858696e-02,1.338487128262571060e-02,3.240751624107360840e-01
3.314794116400775481e-01,2.473704620227137052e-01,-8.011506339298257728e-03,-1.582150070313182930e-02,-9.577655070335375134e-04,-1.280750743974815769e-03,3.074618875980377197e-01
2.629896691825113764e-01,3.360092070644199458e-01,-2.132105724442728834e-02,-7.932821866155592705e-02,-2.991424198813351018e-02,-1.525262621477474663e-02,3.594246804714202881e-01
3.271955154867836613e-01,2.582214422187610880e-01,-1.531433913893145982e-02,-1.989537878400293378e-02,-4.687407175102181658e-05,1.382064989266501912e-02,3.165543377399444580e-01
3.272251390835987372e-01,2.872662184478955716e-01,-2.351537357501382042e-02,-6.659617974593499273e-03,1.102891370786117028e-02,8.654648030083693377e-03,3.336511254310607910e-01
3.266978634845632556e-01,3.232398553670033925e-01,-3.452126691738169328e-02,-5.317539694538885205e-04,-1.503756715144692353e-03,5.126012320554207847e-04,3.595142960548400879e-01
3.267011899681151466e-01,3.238008166162769652e-01,-3.448597328237509863e-02,-2.301944073623285198e-04,-1.500408898646186061e-03,5.922230542049580250e-04,3.597568273544311523e-01
3.280820020865334308e-01,3.222687748490506987e-01,-3.390714404909603297e-02,-1.030474503211361876e-03,-1.212869188335045359e-03,-2.327208837986803527e-04,3.591286242008209229e-01
2.144932225168492690e-01,3.491574780095568764e-01,-7.260059168260307727e-03,1.931392114088311199e-02,-5.089811624998665743e-04,2.340498619135708298e-03,3.135402798652648926e-01
3.321063310927574452e-01,3.051241631423443623e-01,-3.224968580948181507e-02,2.877457463339355096e-03,-5.620092826110846540e-03,7.638090813658250308e-03,3.520608544349670410e-01
3.268554455072667508e-01,3.237635342252951354e-01,-2.760500681426847347e-02,-8.164951255214189779e-04,-2.676925589593455359e-03,3.919729533840217743e-04,3.529585897922515869e-01
3.304731076086483421e-01,3.281038337725299403e-01,-2.470308929304876333e-02,-4.127302458853078157e-04,-4.053831139719252588e-04,2.654473815359612368e-03,3.540287911891937256e-01
3.029338604988734973e-01,3.314955871823801470e-01,-3.081692470755750812e-02,2.683303792325057290e-03,-4.793689539621052986e-03,7.159647209111407763e-03,3.492594659328460693e-01
3.162447167463757758e-01,3.319318141586442561e-01,-3.176395480696822538e-02,-1.309795432332810927e-03,-4.547899149757560731e-03,-2.135665346470221569e-03,3.562249839305877686e-01
3.264381055586145219e-01,3.275371974079134274e-01,-1.292504870470087552e-02,8.993527949772452384e-04,3.819993349195960168e-03,3.494771283883364981e-03,3.400358855724334717e-01
3.181689406230208128e-01,3.258704885312054822e-01,-3.193623890405450361e-02,-2.364886193426913447e-03,-4.364950873640411136e-03,-5.061319526335251312e-03,3.542316854000091553e-01
3.304375053799172290e-01,3.117363020726741096e-01,-1.488680521545215907e-02,-5.003147887228182045e-02,-5.918574109285481936e-03,-2.738858378020552625e-02,3.507215082645416260e-01
3.311401937896948366e-01,3.275729239387249470e-01,-2.259923974674829528e-02,4.308821841009674233e-03,3.357698851602674878e-04,-1.984957611690149788e-03,3.520657420158386230e-01
3.262679833119699890e-01,3.282477337320990340e-01,1.344374927675062725e-02,-4.622031190131221717e-04,3.163908383607576258e-03,5.637542396386514484e-03,3.140195012092590332e-01
1.991004120058068871e-01,3.693249156298723523e-01,1.776106355003981285e-02,-6.130741271150508265e-02,-4.347069429233609006e-02,-2.720177016981297283e-02,3.345047831535339355e-01
2.927451160898554283e-01,3.564554524577233097e-01,-2.404977773240604688e-02,-1.017507269747404755e-02,-1.288262608141535134e-02,-2.915696658270613972e-03,3.541681766510009766e-01
3.242904645233258276e-01,3.371407241042159719e-01,-2.080666328678548727e-02,1.311916807510392531e-03,-3.600236314735358149e-03,1.906439997109912222e-03,3.517764806747436523e-01
3.193760311245704142e-01,3.292803315067693859e-01,-1.041042821313450939e-02,-4.318124971480784063e-04,-5.477372372928537327e-04,-2.929327582914093963e-03,3.348891139030456543e-01
2.950724188353744393e-01,3.397516783839026888e-01,-2.586782957701827534e-02,-7.443137242304224271e-03,-1.325626012257076665e-02,-7.876929464946655357e-03,3.467243611812591553e-01
3.287759756764436769e-01,3.369764858933645413e-01,-1.564532363346762822e-02,-1.604310675359537134e-04,-5.094310733164942283e-03,-7.355943715479426994e-04,3.487080037593841553e-01
3.102250698906008908e-01,3.310033865986141688e-01,3.338298562482297505e-02,-5.236493671562822416e-02,-8.733779812285425229e-03,-1.528933751735837496e-02,3.032853007316589355e-01
3.209368575079243335e-01,3.148285285262349409e-01,-3.006614966486498286e-02,-1.576123966260358557e-05,4.214192521809991335e-03,1.239590198516927772e-03,3.480722308158874512e-01
3.233518041510724528e-01,3.271106223929529655e-01,-3.197265356991810248e-02,-2.164077047456924745e-06,-1.209368037703046359e-03,-4.416912118990276993e-04,3.572256565093994141e-01
3.243013650368097855e-01,3.247510434905682697e-01,-3.209379017290306391e-02,3.760928972545303484e-04,4.492155250779135585e-03,5.300614097229214630e-03,3.568238019943237305e-01
3.189461937793743873e-01,3.264920401300260844e-01,-3.346328250435526286e-02,-6.164299565692252410e-04,2.933346452926041160e-03,3.616074209094673371e-03,3.563352227210998535e-01
3.188375281048280163e-01,3.281195584884112337e-01,-3.253877777352967571e-02,-1.956440884411460128e-03,4.756100455868057797e-03,2.857438428790307853e-03,3.562538325786590576e-01
3.255325591715819700e-01,3.264139337103606486e-01,-2.745796198702557533e-02,2.575110410963203384e-04,2.241040946495033090e-03,-7.079353145034823162e-04,3.534557521343231201e-01
3.269059351414712600e-01,3.281349269195966700e-01,-2.328458660474927444e-02,2.109519934488946532e-03,-1.619596596571401060e-03,-8.588421737464004739e-04,3.508400321006774902e-01
3.272385892355964554e-01,3.239652287661524133e-01,-2.561065987054927939e-02,1.444082602719263782e-03,3.094878414430948452e-03,-3.692558293738136869e-04,3.512744009494781494e-01
3.160725195167648494e-01,3.113048088074905073e-01,-2.491405679990946198e-02,1.694055775328938722e-04,-3.820938632697688797e-03,-7.175772391465568912e-04,3.386949598789215088e-01
2.778832561273437696e-01,3.591713366280134823e-01,-4.451813441661009452e-02,4.898645518014806133e-02,-1.927720229659730250e-02,1.766654311763095342e-02,3.821098804473876953e-01
3.299130210937595287e-01,3.192586882635037870e-01,-2.774478109125283476e-02,-2.530294105384276165e-03,-4.264680402218608106e-03,-9.894120358786125113e-03,3.529723286628723145e-01
3.043426393028658139e-01,3.202387289220171573e-01,-2.400710105920655923e-02,-6.358895519491081921e-03,-6.888071160238203733e-03,-8.763572655858120272e-03,3.373125493526458740e-01
3.231603113902830060e-01,3.197693966578994407e-01,-3.425411696157312780e-02,-9.378164443742426516e-04,-2.841594527143315348e-03,-1.394737585008048574e-03,3.557770550251007080e-01
3.134664365441064415e-01,3.148039713045958088e-01,-2.894842505791000997e-02,-1.476339408950936172e-03,-1.754480623536766593e-03,-3.074098512986447960e-03,3.431498706340789795e-01
3.089784063730093844e-01,3.115404528163679410e-01,-2.511098510968282072e-02,1.020421532473995323e-03,-2.218919103683636678e-04,-6.997429055490442208e-04,3.353848159313201904e-01
3.152807507773295881e-01,3.315067931380848987e-01,-2.194834288435168479e-02,-1.013146328754895844e-03,-3.983678799333893392e-03,-3.125342388604883653e-03,3.457435965538024902e-01
3.426193170165702240e-01,3.202701425342519004e-01,-4.007192998541936335e-02,-2.101123974367861622e-02,-1.020169561844323433e-02,2.851103360691175075e-03,3.742462694644927979e-01
3.202066806828086087e-01,3.299966093627277886e-01,-3.354485724277653236e-02,-7.680746938338809662e-04,-2.571616275204904097e-03,-3.019481421959351215e-03,3.588149249553680420e-01
3.156967246381122139e-01,3.336727834824960714e-01,-3.130868851313547974e-02,1.006334267978483809e-03,2.321514403452397141e-03,-5.216046824471353392e-03,3.564751148223876953e-01
2.400776980407899608e-01,3.562943164910485350e-01,-2.319678662542115632e-02,-1.248397710338065847e-02,2.831838077406220039e-02,4.832559157700910867e-04,3.410141766071319580e-01
3.324771246023619509e-01,3.733081959053831111e-01,-1.036111633038608315e-02,-6.297892992815140242e-03,1.293711039722116388e-02,2.477335691167032675e-03,3.658458590507507324e-01
2.540302483315975413e-01,4.410469541421608852e-01,1.549144231489832380e-02,3.541369291996768892e-02,7.115916048316796305e-02,2.989098124181824995e-02,3.976435959339141846e-01
3.229503506897660747e-01,3.229242410653613837e-01,-3.449508694026548472e-02,-2.306027389899972324e-04,-1.275592124831789525e-03,-2.050847886715723156e-03,3.574570715427398682e-01
3.197191551321141301e-01,3.245665953148459959e-01,-3.420215883693447645e-02,-2.426950159351506800e-04,-1.450949427434617637e-03,-3.091930503935856264e-03,3.564191162586212158e-01
3.244304207859696199e-01,3.279280646764585194e-01,-3.357075752324989448e-02,3.904512072853998832e-04,-7.261779739454283719e-04,-3.519563936549347156e-04,3.597660958766937256e-01
3.197009828802427345e-01,3.264763491276521101e-01,-3.392556118484460481e-02,-9.206371205523410876e-04,-1.591446279384968769e-03,-2.510660043663308274e-03,3.571031093597412109e-01
3.227623127645236623e-01,3.263382201547451178e-01,-3.334756828563176234e-02,4.524773617232344392e-04,-4.888581822066618687e-04,-1.942629072768041996e-03,3.579289019107818604e-01
3.240051524421604934e-01,3.175696135805387010e-01,-3.134409127836496056e-02,-1.633038301065860461e-03,-4.879384524269106058e-03,-3.942734142663440779e-03,3.523544967174530029e-01
3.257896540786415773e-01,3.281833615653403369e-01,2.719838595332557674e-02,-1.771548379901208758e-04,2.523233719093586919e-03,-2.981450634834501446e-03,2.998717725276947021e-01
3.277682302954454396e-01,3.297204500746956923e-01,1.990451317411817689e-02,-1.141683501606355355e-04,6.401992165685364475e-05,7.678302065221810288e-03,3.091307580471038818e-01
3.267655653937645011e-01,3.211570229150207956e-01,6.377982236794380033e-02,-1.881416526225539935e-04,-1.376715504660359001e-03,4.501121540729092867e-03,2.603546977043151855e-01
3.280342361485724112e-01,3.304243395431099573e-01,1.980216341449678175e-02,-3.339974677999045473e-04,-2.789785472971842602e-03,2.389318323562184074e-03,3.094999790191650391e-01
2.278511007336252170e-01,3.575580464482919774e-01,-1.803461677230655535e-02,1.955632796968511528e-02,-9.800650460799156805e-03,8.860075285277602131e-03,3.329381048679351807e-01
3.420322534030915684e-01,2.618134801616808227e-01,-2.176076760528355969e-02,-1.530722631704100820e-02,-1.003750313613094476e-02,-1.477559259341050708e-02,3.335528969764709473e-01
3.288124467718973598e-01,2.533485316465446946e-01,-1.155580053030771936e-02,-2.216681792470573745e-02,3.218372526087400366e-03,4.717060457642070423e-03,3.121406137943267822e-01
3.451254283082486607e-01,2.376996741559373738e-01,-7.808852233806090615e-03,-6.891014734324029528e-03,-3.257496509156130367e-04,-1.126093517802095574e-03,3.135845065116882324e-01
3.425580531637391069e-01,2.304782679224728070e-01,-1.950952794422344816e-02,-9.207177960191739036e-03,-7.943068539640291831e-03,-2.049113462176289577e-02,3.236936926841735840e-01
3.799108784538385852e-01,1.453019028001228952e-01,-7.434910953086321106e-03,-7.148040016128248686e-02,1.890992542954830161e-03,-1.256066695029560594e-02,3.605769276618957520e-01
3.419576829657894335e-01,2.727970651117685441e-01,-2.010392228756030519e-02,-1.056400199701587172e-03,-3.120242928780763737e-03,4.043009107029563133e-04,3.329631090164184570e-01
3.285979941141219940e-01,2.556149314523215588e-01,-9.748521297807122288e-03,-1.922593968282866259e-02,-3.304335543041095422e-03,-3.646956417097166510e-03,3.103109598159790039e-01
2.983093550180700437e-01,3.073388839175188458e-01,-1.367383189758283879e-02,1.206044215141167594e-02,-4.236089592533393185e-03,6.474590919868157893e-03,3.175658285617828369e-01
3.291328163201420187e-01,2.571917619371723585e-01,-1.694855274382614518e-02,1.424005564121289674e-02,-8.565322303284042191e-03,1.004327573945548550e-02,3.180902600288391113e-01
3.017752013659159571e-01,2.929280675613072371e-01,-1.683793215162465717e-02,9.603278713444607026e-03,-8.242677788751141127e-03,5.834817622906069562e-03,3.152085244655609131e-01
2.287056033183182402e-01,3.687149136453206077e-01,-9.585094661745419131e-02,2.072315541439818110e-01,-1.481723948750234519e-02,-5.979841314978947935e-04,5.476084351539611816e-01
3.224658771187658424e-01,2.647615398315010249e-01,-9.510737502240268482e-03,3.599255631702812097e-02,3.752490921083919567e-04,-2.928337841174042462e-04,3.134786188602447510e-01
2.747037909968501612e-01,3.007491744903125763e-01,-1.029729262104520093e-02,3.746098556817151898e-02,3.151288162918565710e-03,-2.928693298078260433e-03,3.059288263320922852e-01
3.006384745730531494e-01,2.985681171627384001e-01,-1.362351341746170785e-02,1.024419821920487077e-02,4.661672323519373135e-03,-4.479367154489023728e-03,3.139338493347167969e-01
3.073015300935564298e-01,2.743642129774504501e-01,-1.055514274207206005e-02,1.398767986205080513e-02,2.678124162488361784e-03,-3.704387189594883587e-06,3.037381470203399658e-01
3.409591542162834776e-01,3.242208099509090724e-01,-6.175215878212958476e-03,5.616294558078279743e-03,-2.023969191899967213e-02,1.949649912985876657e-02,3.426892161369323730e-01
3.359861986938040279e-01,3.366264990728334849e-01,3.192425413017757618e-03,-5.839567290617739444e-03,2.794123371117848611e-03,2.444579807495768711e-03,3.333299458026885986e-01
2.350271654734184534e-01,3.644105447014175381e-01,-1.360330099852927188e-02,5.472867570118456100e-03,-1.176639997370923334e-02,4.317584980369538225e-04,3.335139751434326172e-01
2.325339076224322565e-01,3.273126433702929772e-01,1.363214140940446906e-02,9.606470908132769271e-02,-4.132156350877348033e-02,4.018604924046629417e-02,3.395595252513885498e-01
3.399897637940197948e-01,3.596997578558260855e-01,-2.480149946136411820e-02,2.193204836865843624e-02,-1.785625664292679604e-02,8.355828050989893771e-03,3.784973323345184326e-01
3.223945155156145992e-01,3.299492310401889172e-01,-2.675496363569476732e-02,1.017624673595218278e-02,-1.060643792587364145e-02,3.132012786618151683e-03,3.539459705352783203e-01
4.180737410653739827e-01,2.281561497143171913e-01,6.785051115381690590e-03,1.428619789284339692e-02,-4.745445499540895673e-02,3.836247564759385359e-02,3.726918697357177734e-01
3.849278650504426857e-01,3.267844617145650998e-01,3.632706444634686838e-02,1.275267951965945723e-02,-1.557952746460056909e-02,-3.824603055583828976e-04,3.253472447395324707e-01
3.396213113949544948e-01,4.269435253050521961e-01,3.372063990022389213e-02,7.373120673504275635e-02,-4.155239805810057030e-02,7.942191944979715146e-02,4.102737009525299072e-01
2.802777716205824277e-01,3.512466905924419569e-01,-2.461372669656014534e-02,1.168670012642857199e-02,2.668332946113811943e-02,-4.441901414657453175e-03,3.496257364749908447e-01
3.202788907989018719e-01,2.565898901126634768e-01,9.574432474093258483e-03,7.781061789107260318e-02,-2.297655202097449029e-02,5.772782290164216179e-02,3.324903547763824463e-01
3.379838059431408692e-01,2.924407543973538970e-01,-2.320886980673914080e-02,8.693051420853628239e-03,-6.821634032651830055e-03,1.218545642348935545e-02,3.419009745121002197e-01
4.539797235260066288e-01,3.124995634667918631e-01,3.206595176165330519e-02,7.170172250934549185e-02,-4.554242856034040887e-02,6.648021731515561805e-02,4.162211418151855469e-01
3.272129583460152702e-01,3.261939951731044340e-01,-2.510000770780304591e-02,-2.582395969471342124e-05,-2.234183740211388540e-03,3.518492782901332539e-03,3.518786430358886719e-01
3.789410140003383054e-01,2.854930285245343979e-01,-2.720691981727568765e-02,1.841234880072006863e-02,2.709556807235997782e-03,2.001119799570947461e-02,3.714503645896911621e-01
2.707756345381690521e-01,3.972301722215328956e-01,2.812556623244769072e-02,3.312235830226171324e-02,2.057634640279741925e-02,-3.900759010213989547e-03,3.319052457809448242e-01
1.826386636247983586e-01,3.761542070239581870e-01,-1.712046045108822634e-02,-9.674658641106542722e-02,4.575014031604909825e-02,5.430820055224940338e-03,3.878864347934722900e-01
3.013281706247807890e-01,3.295178743180011138e-01,-2.714033376882896142e-02,-1.054410378713399425e-02,7.329099216900460644e-03,6.830448069424991178e-03,3.443548977375030518e-01
3.152324230253525927e-01,3.344621819155171871e-01,-2.915492671290126347e-02,-6.822422217090907612e-03,1.106318187704993967e-02,6.502166402453909803e-03,3.552865982055664062e-01
3.322834581755220174e-01,3.389431401936061627e-01,-1.755979485977887666e-02,-3.469958450443137027e-02,7.162681520687426071e-03,1.054415871811304091e-02,3.589765131473541260e-01
3.225224139614988883e-01,3.308964800533853445e-01,-2.890759068862411296e-02,5.586348828902770736e-04,1.614578994884575090e-03,6.189405450429290908e-04,3.557049036026000977e-01
1.977774443154249329e-01,4.288518005481735118e-01,-1.381117166725981393e-02,-1.249905070101401117e-01,2.422077446824951602e-02,3.888196576262772236e-02,4.474606513977050781e-01
2.764009953999261304e-01,3.733929182193238550e-01,1.716719261376267736e-02,-2.741861109283310477e-02,6.852396770608619458e-02,4.288924780405325293e-02,3.515872359275817871e-01
2.497234923740828949e-01,4.817598727638106038e-01,2.521844013162596876e-02,-2.152306422018326545e-02,7.210999951316690582e-02,2.351597758359003087e-02,4.183121025562286377e-01
2.880801132118215868e-01,3.456659926020876905e-01,-3.142860075480918836e-02,-6.963978276220285368e-03,1.071658972455808920e-02,-3.903986886531512178e-03,3.526143729686737061e-01
3.314698751842412028e-01,3.249976092931050609e-01,-3.121688649796622306e-02,-7.977466898299217027e-05,2.264806903662258967e-04,1.231095320545073533e-03,3.595008850097656250e-01
3.306738398149570157e-01,3.244445289197627202e-01,-2.789896668822816617e-02,-1.031152609348641880e-04,-6.541109874812292026e-05,-9.120016493764056872e-04,3.555026650428771973e-01
3.270459353302485606e-01,3.257098265195405018e-01,-9.308649333070267984e-03,5.875448417739084555e-04,2.213938204642349492e-04,-4.072097593883546723e-03,3.357643783092498779e-01
3.245724734283984558e-01,3.167670235991403849e-01,-3.258860923838655110e-02,-1.773256742199801148e-03,4.120416524096630687e-03,4.518463193898827890e-03,3.534950911998748779e-01
3.306371595491338078e-01,3.270645984926883743e-01,-2.609457781294569068e-02,9.090627455856830144e-04,3.994223496243334164e-04,2.322577730275554152e-03,3.549858927726745605e-01
3.350328302892953691e-01,3.142849384897077325e-01,-3.163639468040324587e-02,9.757427710472126058e-05,4.016001870738353761e-04,-6.656302906514929537e-04,3.567506372928619385e-01
3.304861567850730930e-01,3.251955685266544327e-01,-3.120145786622902095e-02,-5.707645611522234015e-04,-1.347005189416640870e-03,1.100292988486745692e-03,3.590855598449707031e-01
3.461393803247834744e-01,2.816610181335740259e-01,-7.720311845930000194e-03,4.817164959433250376e-03,-3.889643264198326331e-03,2.316830523601218217e-02,3.290640711784362793e-01
3.302198566765190968e-01,3.234743581802674850e-01,-3.308468956560831065e-02,1.544896739858825439e-04,3.943640365443432019e-04,-5.607121612483604699e-04,3.599812686443328857e-01
3.305366207054568628e-01,3.226995681180330200e-01,-3.311385701848065799e-02,4.162187270289444173e-04,7.688731994364435924e-04,-9.237668764169769875e-04,3.598027229309082031e-01
1.899778945430870281e-01,3.666078964956775987e-01,1.111775246124604988e-02,6.349097761836841602e-02,4.440735085532061116e-02,-2.335075972050642060e-02,3.382695615291595459e-01
2.703772528430799515e-01,3.416089615721528139e-01,-2.430157325401649526e-02,3.460846623918295561e-03,1.489798741918493472e-02,-6.958534097059101801e-03,3.372641205787658691e-01
3.104846629439876327e-01,3.205860343395011691e-01,-2.302024414051329071e-02,6.718061904134868534e-03,6.495324835167923770e-03,-9.327445232506883718e-03,3.394398093223571777e-01
2.335968150831550516e-01,3.531289182938570637e-01,-1.589583897513488497e-02,1.107430142660266806e-02,1.568264945130759189e-02,-3.944937633926078220e-03,3.278861641883850098e-01
2.418181190643676481e-01,3.589184284985444950e-01,-1.773307695640807813e-02,5.323952004061666653e-03,3.051544018787883880e-02,-2.201024947636940048e-03,3.381803929805755615e-01
2.620560557852810724e-01,3.511348738613632170e-01,-2.465557002411014609e-02,8.116785453289095554e-04,8.221935777814536397e-03,5.699514460108061169e-03,3.405594825744628906e-01
2.165412192341858721e-01,3.530469580348570835e-01,-8.723224680754593230e-03,-1.810716641703805085e-02,4.837503526669075481e-03,4.735427667641013173e-03,3.181962668895721436e-01
2.514655184408810529e-01,3.312506603173058783e-01,-9.488488983603687865e-03,-1.914890033448556073e-02,1.004898116125388466e-04,2.989713806230127544e-03,3.104992806911468506e-01
2.495012134989020858e-01,3.300090163871026716e-01,-6.887393480918546640e-03,-1.408365033582281364e-02,4.297245319190657947e-04,-3.395557879334786412e-03,3.057582378387451172e-01
2.042530849567748552e-01,3.586571807955044600e-01,-8.983345424359689968e-03,-4.088484298161552261e-02,4.171322138634026878e-03,4.377455265993541143e-03,3.276574015617370605e-01
1.546855274062962915e-01,3.377970152565250572e-01,-2.776618896743374143e-02,-1.426984846655377226e-01,2.133588246556530205e-02,1.066855451614479207e-02,4.037612378597259521e-01
3.302596175463609618e-01,3.229692069163140333e-01,-2.902606321131384615e-02,-4.003689622728913737e-04,7.146099778836269940e-04,-4.148381189591138283e-04,3.557000756263732910e-01
3.299076899973678589e-01,3.238607665843529770e-01,-2.814386540827354399e-02,3.607736252182738509e-04,2.343049059352445040e-04,-1.358460939762528132e-03,3.550752997398376465e-01
3.354682133202663286e-01,2.978523308309612427e-01,-2.835674242428762315e-02,-3.414636900326954456e-04,8.496806475871715057e-04,5.838651925970873152e-03,3.467026650905609131e-01
3.308840130421745185e-01,3.175381534934906269e-01,-3.201499544852509649e-02,4.560078966460547403e-04,1.602818145282330865e-03,3.081276077564484763e-03,3.564651608467102051e-01
3.318214087124328748e-01,3.239024109478890190e-01,-3.126590118711719546e-02,-4.999681193705117607e-05,-1.450235572865075494e-03,9.537496102344339942e-04,3.592058718204498291e-01
3.347269517725499632e-01,3.237954556318057842e-01,-3.151661278043679792e-02,2.823362967417228299e-04,7.462291612688246294e-04,1.581840327258397620e-03,3.609150350093841553e-01
3.314476954589489210e-01,3.238211779037906135e-01,-2.796345972020544690e-02,1.543400212795407545e-04,-2.538867687063456899e-04,-1.260149533202760278e-03,3.556663095951080322e-01
3.314963877076081422e-01,3.189954840092008581e-01,-5.734594986265134642e-03,-3.133472646558152063e-03,-4.421682165957492236e-03,-9.580038077053583487e-04,3.312947154045104980e-01
3.297687740846005355e-01,3.269260528862912851e-01,-3.194063630523757968e-02,7.154201296871638173e-04,-2.943736522785884210e-03,-1.386081930323780197e-03,3.603426516056060791e-01
3.510251053205076799e-01,3.193099251786171155e-01,-3.303909196540205651e-02,-9.383848069060268110e-03,-6.719629601690463479e-03,-1.013606326899440906e-02,3.701868951320648193e-01
3.329650141853761625e-01,3.235739507911279400e-01,-3.330022675751720396e-02,1.946559798388283662e-05,-8.508329298706270461e-04,1.006951997216418886e-03,3.616683781147003174e-01
3.302013819723902399e-01,3.236344610266186361e-01,-3.278090760664198466e-02,-4.432754508314476949e-05,2.506531017782468417e-04,9.928327321601087153e-04,3.597481548786163330e-01
3.294531615265440805e-01,3.280656162914258878e-01,-2.587349258282564679e-02,6.043158386691181109e-04,-3.755221802514518265e-04,-2.172293132896538012e-03,3.546570241451263428e-01
3.273798201582642786e-01,3.251582849248799700e-01,-1.142575612310928190e-02,6.429751452461723513e-04,-1.076822089509149073e-03,3.281835955672163241e-03,3.377551138401031494e-01
3.416329789573189224e-01,3.100496919488403003e-01,-4.837812803061997124e-02,5.913358200169031853e-02,2.436810183646522660e-02,-3.269432575351002151e-02,3.953060209751129150e-01
3.983688762771200320e-01,2.167388033101598777e-01,-1.502219761970352563e-02,4.973214618312221669e-02,-1.723023450370786847e-03,-3.691869106624044716e-02,3.745866417884826660e-01
3.177015592260348242e-01,3.232849029801402319e-01,-3.023016062710268126e-02,-2.308978509075154152e-03,-3.369645439248604608e-03,-3.816745526978027915e-03,3.508903384208679199e-01
3.256445384257069531e-01,3.252457608656745824e-01,-3.138511259345971860e-02,-1.387163306186316170e-03,-5.909272513473604917e-03,-6.129683544412660272e-03,3.571431040763854980e-01
3.303067746488099199e-01,3.265966628348410117e-01,-2.978243856761558783e-02,3.313428390833860274e-03,-3.475396293506773093e-03,-4.741241977862842988e-03,3.584391772747039795e-01
3.183182097120642595e-01,3.041574862707512317e-01,-2.596476979055403755e-02,-1.851573440071565147e-03,-6.525227724578328524e-03,-1.550943577197523820e-04,3.376301229000091553e-01
3.179648973048905258e-01,3.213423659525997955e-01,-3.377350828471051281e-02,-1.064873878507547559e-03,-1.489007520663578315e-03,-1.549971337895100169e-03,3.534636497497558594e-01
3.221758152698802613e-01,3.224597379476824566e-01,-3.554218649512572159e-02,-2.261797892187125355e-04,-7.456594070167208614e-04,-7.196015427537111667e-04,3.578647673130035400e-01
3.114416349085683544e-01,3.094624582996007844e-01,-2.527193162234672719e-02,-3.217534500414571084e-03,-4.105178716945078084e-03,-8.460472328160813541e-04,3.358530700206756592e-01
3.251467612015949693e-01,3.255351685235817749e-01,-3.332281307459644681e-02,8.855402749612486298e-04,-2.089122491614059905e-03,-1.253064778928498005e-03,3.586920201778411865e-01
3.441360538209214948e-01,2.859002901121502904e-01,-1.946178227345402023e-02,2.149993119379341264e-03,-8.414094460053077665e-03,1.853396324725526539e-02,3.401134610176086426e-01
3.404880535600680047e-01,2.661717005292371652e-01,-2.377841678125455771e-02,7.735731891643681662e-03,-7.344755729267737898e-03,1.473164809456696187e-02,3.348648250102996826e-01
3.577362341922003530e-01,3.397920641191510827e-01,-3.505148864755092131e-02,5.014897398721164523e-02,-1.366715853284788257e-02,2.173516571287491955e-02,3.963310718536376953e-01
3.627563034543378473e-01,2.116442932087024276e-01,-8.639893956800120955e-03,-2.736085311663861899e-03,1.494488457688225190e-03,5.209925652766241901e-03,3.236636221408843994e-01
3.259229380026761325e-01,3.081062867579869025e-01,-3.072456302032411379e-02,1.965942032447326113e-03,-6.163388382570330996e-03,4.034128117450391099e-03,3.483317196369171143e-01
2.826203885240263780e-01,3.141957497604340732e-01,-8.697927863426102579e-03,2.210690613204249408e-02,-1.222766632853837391e-03,2.142087670390925482e-03,3.107189238071441650e-01
2.490425368046940424e-01,3.581704746950292728e-01,-1.821937057245945346e-02,-1.591619922875878482e-04,4.155375566789610686e-04,3.938306056726823250e-04,3.354170918464660645e-01
3.622700955036600723e-01,2.248875358673698699e-01,-8.201223828795206616e-03,-1.133636783419793986e-02,3.012223774915182440e-03,1.282963224807629247e-04,3.250222802162170410e-01
3.590167299097166698e-01,2.277798258495992434e-01,-1.297433421157923039e-02,3.852337244523987812e-03,-4.691049914706471244e-03,8.194266219721989264e-03,3.272514343261718750e-01
3.637762296786012373e-01,2.245667112777056940e-01,-8.774711670944151942e-03,1.547682783469683798e-02,2.533057688165411825e-03,-1.920466437865127850e-04,3.271831572055816650e-01
3.527127356041057649e-01,2.254083210499727985e-01,-1.130435042529726042e-02,2.553054682276240453e-02,-1.983568188519021797e-03,5.733339854575188015e-03,3.231713473796844482e-01
3.516188536896692751e-01,2.138934487359070158e-01,-1.115146329917071633e-02,2.050891840645207784e-02,-1.941916861282824269e-03,4.643815512159135336e-03,3.192894458770751953e-01
4.564519331220415754e-01,1.409138546376413614e-01,-2.864093093484232355e-02,1.120174095000755488e-01,-1.646421291974636825e-02,1.763728337968481497e-02,4.703235328197479248e-01
4.037690569326556345e-01,9.984385341844721762e-02,-2.664951250021757589e-02,6.170577995787300540e-02,2.707077312287060802e-03,-1.224159247958215777e-02,3.983842134475708008e-01
3.766717857222964261e-01,2.392042651356165728e-01,-1.503736377657477474e-02,1.228642320496595441e-01,3.068253286947308749e-03,-2.887543794842196282e-02,4.078021049499511719e-01
3.303477799356768774e-01,3.257062629834500678e-01,-2.645637123824842729e-02,2.889105140594712406e-03,4.643961476419096067e-04,-3.744623293644113674e-03,3.546017408370971680e-01
3.437559804066422364e-01,1.422806883183504179e-01,-1.560012702933702422e-02,1.423246124338063689e-01,6.268913256669440132e-03,6.081708026977777556e-03,3.979013264179229736e-01
3.328478701591991440e-01,3.049336033538128099e-01,-2.347490494963869190e-02,1.347362007037896520e-02,1.037110624284987362e-02,-2.311513903037604178e-03,3.445024788379669189e-01
3.231631815998026180e-01,2.429921326117669700e-01,2.116620568336194386e-02,9.423122624267472880e-02,2.911699003135265196e-02,-3.988703981667267306e-02,3.276782631874084473e-01
3.372593473329480451e-01,3.260441401362280112e-01,1.693504194688827402e-02,-8.344587212642197351e-04,5.799225495682985843e-03,1.178472851485182216e-02,3.156906068325042725e-01
3.485769682273512915e-01,3.226366449144963955e-01,1.113722112844786616e-02,3.792038940544275455e-02,3.442180611303331719e-03,-4.483477594606460892e-03,3.319561779499053955e-01
3.438294494709113192e-01,2.450374019132203485e-01,-1.403384779015573458e-02,6.749372538897102300e-03,9.773735210745012128e-03,-1.413387660350472544e-02,3.217056095600128174e-01
3.298895316719304138e-01,3.302469554027090970e-01,1.230548021367230960e-02,-6.912990548790437289e-04,-3.354282357060492381e-03,5.529367090082516409e-03,3.179625570774078369e-01
3.316389379801840676e-01,3.263530644496831501e-01,-7.588831058426170895e-03,3.023908278449982320e-03,-2.387125646141536033e-03,-3.202810929941399438e-03,3.367277979850769043e-01
3.269700051379521577e-01,3.487610873108967224e-01,5.247652944472105951e-02,-6.598498298331770262e-03,2.180402550201188550e-03,-1.581970689296833188e-03,2.862785756587982178e-01
2.330268945502231015e-01,3.479958339188267136e-01,-1.551337957859086347e-02,1.300164580390084784e-02,-9.628768780919193249e-03,7.233870836327572183e-03,3.232750892639160156e-01
2.989674310388557021e-01,4.084173732764806442e-01,1.778242770341523227e-02,6.540823833564156364e-02,-5.816073847043149586e-02,3.519439731138704341e-03,3.805783390998840332e-01
3.266057699634768996e-01,3.254550258623672976e-01,6.376327328111208725e-02,-5.140365291693782339e-05,-1.098963923825596427e-03,5.397049549172253796e-03,2.624424695968627930e-01
3.537794330259382281e-01,3.067463950355122648e-01,-3.141729074102669883e-02,-3.504372480262563788e-02,-5.836327644911261207e-03,-1.429469612449016207e-02,3.699608743190765381e-01
3.688836406023753289e-01,2.754055531726509187e-01,5.032027579148884433e-02,-3.062163980134949889e-03,1.668477268318551907e-02,5.576534836469444756e-02,3.010559380054473877e-01
3.662923467419683665e-01,4.010320311271259319e-01,4.895794499393568699e-02,4.001441745543675953e-03,4.158809167312777638e-02,5.947870942367249752e-02,3.588620424270629883e-01
4.236779981611891177e-01,3.087279954447789132e-01,4.075146426762235596e-02,-9.420632176782807454e-02,1.037078498064104848e-02,4.240599701094576596e-02,3.849295973777770996e-01
3.445479528380535061e-01,3.088707169226617144e-01,-1.238141346883070426e-02,1.008842259539064444e-02,5.774410350054502532e-03,5.631699010960991222e-03,3.412296772003173828e-01
3.433486303188985067e-01,2.967023486228698159e-01,-9.086825009722049318e-03,3.404066561217389264e-02,-9.018877944914356626e-03,4.751578858254601294e-03,3.372460305690765381e-01
1.491929167998240491e-01,3.884366194299968544e-01,-8.934597145463857304e-02,1.423982486715770213e-01,5.582790124531377199e-03,4.783678724247988207e-02,4.888738393783569336e-01
3.258360135001295843e-01,3.254774953665332538e-01,-3.417064430255234431e-02,-2.822842014145780462e-04,-6.099683625064925875e-03,4.155808356994606170e-03,3.600548803806304932e-01
2.646279450156469037e-01,2.997175063306198317e-01,-2.516144579833640149e-02,6.535673657583053464e-02,-3.201268038400485738e-02,2.526836813277748631e-02,3.364255726337432861e-01
3.108026521588941882e-01,2.874640785176459934e-01,-1.717623937583193094e-02,-7.985514990090140930e-03,-5.881644890849128948e-03,-8.008209245380103246e-04,3.174228966236114502e-01
2.801078714062428254e-01,2.514005368323853351e-01,-1.029054843046471324e-01,1.647363846537752141e-01,-2.501168937972942860e-02,8.177698227838550715e-03,4.690625369548797607e-01
2.927719108410022919e-01,3.204033090143115214e-01,-2.275638154244716271e-02,1.862559313762567406e-02,-1.697197408995112719e-02,1.544624295915229470e-02,3.341567516326904297e-01
3.110860823818064058e-01,3.059160964606001398e-01,-2.055939456419875189e-02,-2.197599531634712982e-03,-3.797282589140945144e-03,-2.401334015514320925e-03,3.292049467563629150e-01
2.437176915496957474e-01,3.302734462805667626e-01,-9.142855817253603412e-03,-1.666528628037501625e-02,-3.762020224646277743e-03,-6.150710185281507356e-03,3.070928752422332764e-01
2.299915524119173493e-01,2.943633719572021912e-01,-1.973535756516414663e-02,1.486704746169544566e-01,1.082591384087896839e-02,1.182643281375764417e-02,3.868624567985534668e-01
3.536466645003800147e-01,3.587482503478577334e-01,1.683258022199216053e-02,1.635442375839951668e-02,-1.193224631513164352e-02,-5.877435176432426259e-03,3.413520455360412598e-01
3.287768819992561986e-01,3.326448164133500307e-01,-9.503312350478909654e-03,-2.639715366234850983e-03,-1.925680756326484874e-03,4.448545105123001379e-03,3.403649330139160156e-01
3.782548979164210290e-01,3.256817252092372161e-01,3.265758386367523247e-02,4.200045118653671083e-02,-5.874607029380166795e-02,6.575712762129534705e-02,3.642110824584960938e-01
3.502303614789474828e-01,1.528810285464907159e-01,-3.205385436686830625e-03,1.225463233545468766e-01,-1.147852222931263280e-02,3.719285546492376998e-02,3.790926933288574219e-01
3.729104630196979908e-01,2.471689738647396273e-01,-3.808279786781665344e-04,1.817023114945371665e-01,-8.067102487679809336e-03,5.162121398322903898e-02,4.641721546649932861e-01
3.242145792832171747e-01,3.309879116910399710e-01,-3.290907573656304264e-02,2.189007852157618859e-04,5.422068514994219084e-04,2.338244120288763661e-04,3.605597019195556641e-01
3.242136676409582141e-01,3.316906260633176728e-01,-3.254121762762071657e-02,-7.799928987382028325e-05,-5.466671483499947531e-04,-2.040916310731584818e-03,3.605701029300689697e-01
2.980224537550013597e-01,3.324915475324974334e-01,-3.002256534509112340e-02,-1.063718400143096781e-03,-7.463342968103405146e-03,-2.058865143688697226e-03,3.468317687511444092e-01
2.973324510132354104e-01,3.393428572913367303e-01,-2.994526279865855622e-02,-1.502028396459604382e-03,-7.053085868682574394e-03,-2.289014043702162788e-03,3.504231274127960205e-01
3.191706950244563856e-01,3.298689320804022995e-01,-3.119636735273920158e-02,-1.003906079093415350e-03,-2.289204198429851522e-03,-1.856579620624335689e-03,3.558776974678039551e-01
2.956050215494880895e-01,3.457131259344587981e-01,-3.029709467264463107e-02,3.671265089148511868e-04,-5.059568174523442971e-03,-5.778413721283468538e-04,3.537393808364868164e-01
3.080464071937590864e-01,2.786578525323255562e-01,-1.209002127398381421e-02,-1.121437080903293047e-02,-3.100551672158996866e-03,-2.253860178745407689e-03,3.071872889995574951e-01
2.234874942746963300e-01,3.538705914662352292e-01,-8.366156024053994500e-03,1.118320525636751217e-02,-1.625697730715304837e-03,2.758030986877338386e-03,3.184204995632171631e-01
2.041836832126854573e-01,3.324071730258827406e-01,-1.114872571937172707e-02,7.435380674511804511e-02,-6.913277720683093722e-03,2.112717270748051216e-03,3.273563981056213379e-01
2.011009824928928214e-01,3.884148917754928210e-01,-1.326221969862098615e-02,3.900194141892023014e-02,-2.323930185852166388e-02,-4.246437329915763587e-03,3.569720387458801270e-01
2.868073229498489529e-01,3.496219257740421638e-01,-2.895178555383876029e-02,3.599041929525642960e-03,-9.135723682499423404e-03,2.559971024657505066e-03,3.518418371677398682e-01
2.145658320078804027e-01,3.528660685694142152e-01,-6.528221581588167233e-03,1.928208542299705494e-02,-8.144035483917634252e-03,2.305185208082535103e-03,3.160968422889709473e-01
2.308738331891757034e-01,3.542702426174732522e-01,-1.601165743452198642e-02,9.717671930337833455e-03,-6.127989729756219348e-03,9.100791473843718171e-03,3.275489807128906250e-01
2.920274589236297458e-01,3.181554203106370937e-01,-1.491647299175946628e-02,4.823006632608533434e-02,-2.335707272451225183e-02,2.460852854535121315e-02,3.366732597351074219e-01
2.980289362680422216e-01,3.301630523757780322e-01,-2.357686565555566771e-02,9.289128441264263639e-03,-4.919763272423396082e-03,8.459813765578616182e-03,3.396227359771728516e-01
3.089335565111756554e-01,3.074932750345162891e-01,-2.058830380006665406e-02,-9.775667115683619839e-04,-3.160058882062448567e-03,-2.109129380700321913e-03,3.288742899894714355e-01
2.238072341240910090e-01,3.609273574147227603e-01,-1.454087234565742959e-02,-1.220538577349754121e-03,1.558915610873457848e-02,5.640261859154529784e-04,3.301947414875030518e-01
2.082051363403293331e-01,3.636117664842337671e-01,-7.504939430864054906e-03,5.143591641483221885e-03,8.095581305592779511e-03,-1.455091086420150486e-03,3.232447504997253418e-01
2.013124357834573663e-01,3.714363033043359685e-01,-7.702114721714753420e-03,7.259069411849563072e-03,6.728369871786183710e-03,-1.588942880540669764e-03,3.293767571449279785e-01
1.641816185918690829e-01,3.763834087899881053e-01,-9.080576340083135189e-03,4.367017214382679959e-03,3.538347807036573266e-03,-1.552911086380546080e-03,3.345413804054260254e-01
2.156465588838444303e-01,3.688836067874113889e-01,-8.438678964086371304e-03,-1.290532694151686616e-02,4.895216537187843664e-03,2.401085973000715874e-03,3.295796811580657959e-01
1.179923852651955096e-01,4.103495228728769040e-01,-5.476191565898272384e-02,8.675410473671348044e-02,-2.446259744019960852e-02,5.098464722794320524e-03,4.362049400806427002e-01
2.234344902136984612e-01,3.717757898527784266e-01,-1.642868514823925263e-02,2.110108470197582121e-03,1.210430395645967737e-02,-3.721231526344986017e-03,3.400228619575500488e-01
1.688193888836198031e-01,3.885746240078105096e-01,-1.251553287083717603e-02,-1.777745670151731697e-02,-5.299900255444703334e-03,-5.959386994560084139e-03,3.495181500911712646e-01
3.223938856451323276e-01,3.201739255692049868e-01,-3.225159938816241079e-02,2.283623413218084999e-03,-5.442864489077087371e-03,6.213911847270036162e-03,3.538522422313690186e-01
3.227665614259296323e-01,3.210763946505870714e-01,-3.502500388147808397e-02,2.005480411266098132e-04,-1.273890962993297045e-03,7.015507250704121345e-04,3.569585382938385010e-01
3.169965428357658932e-01,3.165200635239644456e-01,-3.053655091482587736e-02,2.758069764759911793e-03,-2.994153100955508542e-03,3.802628218207731135e-03,3.474290966987609863e-01
3.207616706060056333e-01,3.187801335640416678e-01,-3.178123387612039052e-02,-1.331838648606571999e-03,-2.704041715897451906e-03,5.250945030339518793e-04,3.515962660312652588e-01
3.227676803672658856e-01,3.239279960636404221e-01,-3.514768790562219913e-02,-6.204534841558854172e-05,-3.888931031182632958e-04,1.287998709927991228e-03,3.585045337677001953e-01
3.224457824562030339e-01,3.269054424117342483e-01,-3.322471828977691111e-02,-5.376879420647770079e-04,1.882752141108241250e-05,1.585776733223015836e-03,3.579329252243041992e-01
3.300193847374031098e-01,2.961729775571357859e-01,-2.398662491964403953e-02,-1.145620037467490367e-02,1.005026906703370033e-02,7.688244678457544813e-03,3.396440744400024414e-01
3.499471853543968947e-01,2.662294730094660888e-01,-2.642046491037058908e-02,-1.514878120260045383e-02,6.411751987619149044e-03,2.519108584924738617e-02,3.462198376655578613e-01
3.122176563750230782e-01,3.261647896843389294e-01,-2.775704059383948819e-02,-4.461597761870441173e-03,5.629065471489054333e-03,4.985664994284964152e-03,3.474886119365692139e-01
3.920919183237259187e-01,3.378829783552254051e-01,7.569070050348875034e-03,4.289864931440196677e-03,4.323243941664747965e-03,-8.258497368351849083e-04,3.606455028057098389e-01
4.159236582410800187e-01,1.390379812703125550e-01,-8.957103754836576170e-03,1.448609100541905365e-02,2.337620631709363267e-02,6.421445443844960022e-02,3.926643729209899902e-01
3.454078134479251494e-01,2.890281481992494905e-01,-2.473881034571079329e-02,-1.970905048204161375e-03,1.055368582825793374e-03,1.353730953498380983e-02,3.462415635585784912e-01
3.420789253764370264e-01,3.228182811753546044e-01,-2.885274384043778895e-02,-3.773716207566075315e-03,8.042217908851071167e-04,1.153788515825850472e-02,3.622995018959045410e-01
3.398585793837870517e-01,3.325989288445840852e-01,1.502280346711853953e-02,-6.839156449129683846e-03,9.096710366646982128e-04,2.926235885531161107e-03,3.215295970439910889e-01
3.472905176705289310e-01,2.714949606138336025e-01,-2.816176569067257995e-02,-3.145899284906394661e-03,5.964740351787763475e-03,1.064495710937878557e-02,3.445695042610168457e-01
3.452397054680174104e-01,2.979579484172427684e-01,-2.967120200082015713e-02,1.728963313347458251e-03,-2.017778444129639389e-04,5.907388851456669455e-03,3.538093864917755127e-01
4.661047970153801012e-01,1.865629475775099355e-01,-6.961055015261008450e-03,-7.233089026565776847e-02,2.057691386934239197e-02,4.585355310364265524e-02,4.392794072628021240e-01
3.467230465425580332e-01,2.836245125558571889e-01,-2.650283417907034478e-02,-1.803135208385696266e-03,5.787790537339842882e-03,3.111823535040500726e-03,3.462199866771697998e-01
3.289629235940669250e-01,3.295796925408717715e-01,2.072560753136101774e-02,1.535370221600594522e-03,2.402612565382010457e-03,3.189883950538061584e-03,3.086351454257965088e-01
3.276660999528904772e-01,3.260287497642433974e-01,2.617292474166993399e-02,1.885311666423788741e-03,-6.359772724073200351e-03,-8.139300058034725383e-04,3.009005784988403320e-01
3.222586179931257178e-01,3.254044826861826056e-01,4.653292934486252808e-02,-4.281891103911557870e-04,-5.722116893564787882e-04,-3.218903112818190699e-05,2.773147821426391602e-01
3.981071757784486742e-01,4.189206994938681761e-01,5.219367305104799515e-02,-4.975130989540724191e-02,-6.385212190440380832e-03,-5.872490889971346967e-02,3.810285627841949463e-01
3.286765852980069180e-01,3.316521203137096085e-01,-7.715000645771574739e-04,2.410992659139772100e-03,2.950632271081954101e-03,3.575890105160694360e-03,3.310696184635162354e-01
3.309576310378249397e-01,3.284544266692980274e-01,-8.283786704537332568e-03,3.593630760509450989e-03,5.700244223212606529e-03,4.119662813491264432e-03,3.382734954357147217e-01
3.807970152824330379e-01,3.511687909977996291e-01,5.864471008857052858e-02,-1.391614363280028674e-02,1.853772312109924335e-05,-5.960075259042475759e-02,3.261178731918334961e-01
3.271954796537991372e-01,3.606719538037228556e-01,-7.992274559077250373e-03,-2.487169824764511386e-02,-1.421027284844048923e-02,-7.853913021977120337e-03,3.568460047245025635e-01
3.486031118966630427e-01,3.444196016728355292e-01,5.633475113573488402e-02,3.223109713932892362e-02,-4.908025485122900940e-03,2.539185772257717896e-02,2.988956868648529053e-01
2.688630588906792407e-01,2.958660777310153644e-01,-1.104265228142109478e-02,-5.207902039843192998e-02,-3.186162135272588465e-03,1.254931892650207846e-02,3.086652755737304688e-01
2.591901855717740344e-01,3.570057710745718760e-01,-2.773055483871764149e-02,-1.002280528698449268e-02,2.304635560535420180e-02,4.585049790290165669e-03,3.491626679897308350e-01
2.554191673874137702e-01,3.423080833613676432e-01,3.480695572912501090e-03,-1.046656129111165068e-01,4.182527667427311802e-02,6.167486724639185264e-03,3.621328175067901611e-01
3.101984132703257124e-01,3.440153918218941120e-01,-2.236821122830237596e-02,6.002569507637709563e-04,5.623737519668106470e-03,-1.969293669730571780e-03,3.508534431457519531e-01
2.588081494359363299e-01,3.318952131859376764e-01,-1.766674744590837620e-02,-1.671419465406434601e-02,1.199805839356120341e-02,9.506175736065455503e-03,3.217574954032897949e-01
2.628343461606469367e-01,3.510379914423886749e-01,-2.364576498173595609e-02,-1.785678772794944508e-05,1.148140768086878052e-02,-7.609946150208930175e-04,3.398772478103637695e-01
3.024779993467756056e-01,2.999455502919003980e-01,-1.296642069419359777e-02,-1.236059613093042119e-03,-2.191726660951280430e-03,-1.607943289490621928e-03,3.142284154891967773e-01
3.435534639419539626e-01,3.020027931396959131e-01,-2.417037105956154619e-02,-2.839203770470242506e-03,9.835037103457056756e-03,1.299114428691641385e-02,3.499839603900909424e-01
2.705412160809586020e-01,3.706594621583243487e-01,-3.824890934952043797e-02,-6.721158776072880259e-02,1.650026812360976675e-02,1.161884902158655600e-02,3.886701464653015137e-01
3.012029689347301975e-01,3.340511495721381063e-01,-2.848361925197773203e-02,-1.381000789408327618e-04,1.007230767969362686e-02,6.500260204903156834e-03,3.478980064392089844e-01
3.014283055384321397e-01,3.450904228269280338e-01,-3.102280803876367177e-02,-2.662724157334163920e-03,9.645687510249011457e-03,3.896172960207751682e-03,3.567794561386108398e-01
2.817865569018676020e-01,3.332524307342863423e-01,-2.444435807122521953e-02,-7.383632178526415221e-03,6.645804503866933367e-03,9.971945612490347791e-03,3.358287215232849121e-01
3.254125767878978670e-01,3.441603211294518294e-01,-6.219775163700203002e-03,7.698344975264013188e-04,-7.454971873667406990e-03,1.307287095638129566e-02,3.423887491226196289e-01
3.247866272576596658e-01,3.222547736092635784e-01,-3.354025287491022023e-02,1.413966827565483325e-04,2.828578588668585660e-03,2.221268177470079631e-03,3.571220934391021729e-01
3.226758208828153229e-01,3.200631483593813220e-01,-3.375555736614196944e-02,4.304906711977345786e-05,1.650638054625788546e-03,9.142574350996578256e-04,3.551473021507263184e-01
3.240808279869148989e-01,3.225122477677426214e-01,-3.530776233704155387e-02,-1.090540547087739726e-04,1.140121222650178692e-03,4.020429012341731972e-04,3.586130440235137939e-01
3.246823101368191411e-01,3.257521490912612672e-01,-3.408899234150872259e-02,1.125798202929864872e-03,9.707253135407508445e-04,1.779100356249408267e-03,3.593298494815826416e-01
3.247787275319279909e-01,3.219980803733292762e-01,-3.350625015573188703e-02,2.529185035608328227e-04,2.675542572926630121e-03,2.405982497962401434e-03,3.569574654102325439e-01
3.220671566992969748e-01,3.213803350374160317e-01,-3.409405853302435729e-02,-1.412966097563502941e-03,1.221589936664608861e-03,1.522687183729505133e-03,3.558427691459655762e-01
3.221494986617997602e-01,3.243938812775125635e-01,-3.504894944200689921e-02,1.828087005106822458e-04,9.661231287738390240e-05,1.011498688695538096e-03,3.583303689956665039e-01
3.210075981824270230e-01,3.208524252905774476e-01,-3.312922344574090183e-02,-2.045381198514644588e-04,2.053984118994992263e-03,1.747231879431106194e-03,3.540902435779571533e-01
3.248973972558484302e-01,2.747562825512694928e-01,-1.569662391026788173e-02,5.578715962710947135e-03,7.445640083010723193e-03,-5.096782919691827257e-03,3.190270662307739258e-01
3.345291700172300930e-01,3.221922187798343939e-01,-9.315471727352947484e-03,1.871377733224854553e-03,-2.266352882030317831e-03,-8.270635379169227622e-04,3.378865420818328857e-01
3.002732004714344094e-01,2.635096990460638056e-01,-9.688304009685816398e-03,7.360178912558029696e-02,-2.193481243329919311e-03,5.073001882871339130e-03,3.199620842933654785e-01
3.320834747199461479e-01,2.675969474155697747e-01,-2.483449208076693449e-02,1.823888424600995928e-02,1.169192246483996729e-02,-9.955440147565389891e-03,3.320210278034210205e-01
3.557827862864003654e-01,1.984384510045537620e-01,-2.697504629880129179e-02,2.047597120932460601e-01,-1.302383855431006945e-02,7.625258564383787310e-03,4.873386323451995850e-01
1.656653025643888555e-01,3.094378723095069783e-01,-1.057490271488406575e-02,1.435830303388285767e-01,1.938064563289882206e-02,-1.981257168561145407e-02,3.757956624031066895e-01
3.289387160390239151e-01,3.239974199827850287e-01,-3.249535394365521412e-02,-6.310318412488582227e-04,-1.342754669364347626e-03,8.891555742442784106e-04,3.590014278888702393e-01
3.290643908550078267e-01,3.249295315162581965e-01,-3.242822187048433058e-02,-6.683589967314448844e-05,-1.323638275527770983e-03,1.001492299058621928e-03,3.594545423984527588e-01
3.306008917362607269e-01,3.228440008142721140e-01,-3.289939451580134455e-02,-2.302829345309690507e-04,-6.279213354175314579e-04,-5.167747743994180812e-04,3.596875667572021484e-01
3.279719684175926853e-01,3.076856305524980351e-01,-3.084788945329408616e-02,1.398561095342844068e-03,-5.949717793194645582e-03,3.629106106516074171e-03,3.493360280990600586e-01
3.337705002492121764e-01,3.030146877439590658e-01,-2.967645504359781028e-02,2.117066936346602597e-03,-5.902434408282711265e-03,5.347058126379640279e-03,3.493783473968505859e-01
3.025312701051353637e-01,3.031111415217578320e-01,-1.698893645613169801e-02,8.612049743174234431e-05,-2.481525316174060941e-04,-6.785720834735611872e-04,3.198130130767822266e-01
3.331902359879848063e-01,3.187033779973543757e-01,-3.275637267529132868e-02,2.613687337978283092e-05,-2.096762308145324639e-03,3.339794523394603361e-03,3.589875102043151855e-01
3.345653798669676604e-01,3.142302346710620364e-01,-3.177979016651322208e-02,1.286781555869563064e-05,-3.019376147962196362e-04,-8.060871926221755161e-04,3.566158115863800049e-01
3.182317206694467160e-01,3.028400988820184603e-01,-2.639004097115887904e-02,2.661083408161670112e-03,-6.143266780194753078e-03,1.883163155245446471e-04,3.373890221118927002e-01
3.175499791624899482e-01,2.917444992144449523e-01,-2.132241733202197564e-02,3.327706081429469831e-02,-4.309372304841788646e-03,1.250774317692759235e-02,3.325699865818023682e-01
3.112025755644106106e-01,3.087495931315319964e-01,-2.543176409042452457e-02,3.743951949740398875e-03,-4.058243622720936021e-03,8.049907066953417879e-04,3.355537950992584229e-01
3.121198786200240494e-01,3.195341691594882905e-01,-3.064464199622313201e-02,7.638071125260286701e-04,-2.630205173267313300e-03,4.322235191812912568e-03,3.466444909572601318e-01
3.181867734692510608e-01,3.147356915650936782e-01,-2.833994516527241214e-02,1.249737555443380206e-03,-2.888794389401049684e-03,2.999102782479239841e-03,3.448963463306427002e-01
3.309914675586531629e-01,3.435243126552960380e-01,-2.952665956160061000e-03,1.712038641317817703e-02,4.733932814585558452e-03,5.573719725774482596e-03,3.419075608253479004e-01
3.205029580460505567e-01,3.227339832194215385e-01,-3.347260721917658111e-02,-9.117521706182916789e-04,-2.881877215519635695e-03,1.702222435616240542e-03,3.551471531391143799e-01
3.289480389840659935e-01,3.228817293131286958e-01,-3.010071549567275295e-02,-4.622567864853001449e-04,-1.492482614726502611e-03,-2.972766245932344101e-04,3.560650050640106201e-01
3.192364058930061699e-01,3.228112850213996632e-01,-3.441040797799566064e-02,9.074816307977889428e-05,-1.166108115591896850e-03,1.867986890237020468e-03,3.554682433605194092e-01
3.181261642486902241e-01,3.190896942569563799e-01,-3.032253328674749948e-02,7.755035709500071942e-04,-3.361870716451882072e-03,4.167862993235068453e-03,3.490572869777679443e-01
3.660464711094063572e-01,2.839588941452717563e-01,-3.311112867501467272e-02,1.404308281966527112e-03,-9.781611695031878356e-03,-2.208635589667158269e-02,3.674992024898529053e-01
3.438536998769978759e-01,2.690425023599020693e-01,-2.686220176184289654e-02,-8.143794057618452750e-03,-4.507418313158794917e-03,-1.393272656895956640e-02,3.407866954803466797e-01
3.543533638561676691e-01,2.936129998466303626e-01,-2.540406481647466963e-02,1.136915101855498662e-02,1.135774078664004549e-03,-2.560327641356032607e-02,3.566464781761169434e-01
3.452070094232949637e-01,2.978982612162997534e-01,-3.144268060662536168e-02,1.271559418785401336e-03,-2.595146456428702991e-04,-8.833955194425226892e-03,3.557013571262359619e-01
3.429815266267713936e-01,2.925363992783660549e-01,-2.774862621490314929e-02,-3.171438096855987154e-03,-4.685752677991119469e-03,1.996650777338783607e-03,3.484135866165161133e-01
3.580450886437903102e-01,2.287618447074282746e-01,-1.620303095344691191e-02,3.467993978371543447e-03,2.202500381018042235e-03,-1.169523113899691331e-02,3.299284279346466064e-01
3.290694399455799113e-01,3.303648381005225287e-01,1.193656732413947430e-02,-2.621494873005156268e-03,-4.165730375231434766e-03,-2.863752056418129941e-03,3.179355859756469727e-01
3.106965983199951320e-01,3.241618132192874979e-01,-2.783240297335776159e-02,6.503331322025546202e-03,4.943187829656092887e-03,-6.423919938382968708e-03,3.459270894527435303e-01
3.116298919763282327e-01,3.432718240907660645e-01,-3.065665881110007929e-02,-2.801913063059765802e-03,2.729579691001786813e-03,2.478531390721633396e-03,3.592439889907836914e-01
3.257017159755480895e-01,3.286471922303965676e-01,1.087502219340491516e-02,-1.695500947826800078e-03,4.402820853688637140e-03,-6.938483502501676184e-03,3.166433870792388916e-01
3.266840942439895867e-01,3.293588041373554098e-01,-1.906134335619616427e-02,-1.640855542126864325e-03,-7.091845578562523678e-03,1.592336504510198127e-03,3.473303914070129395e-01
2.688259746605418110e-01,3.500908589183887587e-01,-2.538477120505691631e-02,5.930583021079125113e-03,9.988302120915072344e-03,-3.767719784171167340e-03,3.428124189376831055e-01
3.407776218254749967e-01,3.732465504599687400e-01,2.342138020140072108e-02,-9.612150205849000900e-03,-1.816793963314551749e-03,9.871002114037751712e-03,3.356379270553588867e-01
2.983048071693353842e-01,3.294319662072433541e-01,-2.744678962562197011e-02,3.905184145043363517e-03,5.251751084657538607e-04,6.025273557749283651e-03,3.426050543785095215e-01
2.713183021088296787e-01,3.478275095394132155e-01,-3.122341168681097567e-02,-2.937859365855299745e-03,-1.506221011269888617e-02,1.809326197412488473e-04,3.481938838958740234e-01
2.868035929158829767e-01,3.455054141284687463e-01,-2.802032318151628787e-02,3.517218682862606428e-04,3.578415542562822516e-03,-2.581723209711851794e-03,3.479935526847839355e-01
3.151981660099915650e-01,3.308351276820719056e-01,-3.229866681925125382e-02,-8.348722404820877602e-04,3.542216702028798967e-04,4.077444912516083042e-03,3.556468784809112549e-01
2.603541073440713838e-01,3.255227580571851131e-01,-1.396811921284232816e-02,9.294388149575233404e-02,-9.333740577410671452e-03,1.063492140990241787e-02,3.519846498966217041e-01
3.269062424054108851e-01,3.306809536947564188e-01,-1.442471264156983124e-02,-2.706066923788566069e-03,-1.464288977910228060e-03,-7.721561025375827791e-04,3.432778418064117432e-01
2.645829575320430838e-01,2.889534847564160236e-01,-7.092133025294133919e-02,-2.301180853606288323e-01,-3.269883029267079549e-02,4.774397299436688655e-03,5.324213504791259766e-01
3.043016302322585354e-01,2.923319311965492107e-01,-2.600481392400338931e-02,-1.269981782377953283e-01,-2.151854082807758833e-02,-1.722174884792432303e-02,3.949132561683654785e-01
3.868735307604682649e-01,2.680771874614619188e-01,-4.253000000968287786e-02,-1.685586257243504305e-01,3.237458282664402998e-02,3.084618221193954207e-02,4.885931015014648438e-01
3.300985220539108811e-01,1.929649654242920898e-01,-8.487931815019433834e-02,-1.907760914633775118e-01,1.953988427867893105e-02,4.493044578948466455e-02,5.004928112030029297e-01
2.738740238946101302e-01,2.213932903595178803e-01,-3.696814920717078623e-02,-1.962157535877974146e-01,-3.976962615729929401e-03,7.645566169582155083e-03,4.458570778369903564e-01
1.398387613143110553e-01,3.274054755965888353e-01,-3.934918692845157384e-02,-1.700928596355645306e-01,-9.010625479356099490e-03,-2.368031313811485954e-03,4.335371255874633789e-01
3.083472759749010805e-01,2.421700231937484737e-01,-2.619591830728970616e-02,-9.569184619990185603e-02,4.728174042301395812e-03,1.096822338062188561e-02,3.493682742118835449e-01
2.835338732270505924e-01,3.445134548962066612e-01,-2.678913658400386422e-02,4.335519625714159657e-03,9.512800147238136689e-03,-6.719044160297981891e-03,3.455510735511779785e-01
2.463772265172367026e-01,3.404459747226535882e-01,-2.395635108273486136e-02,3.280807136970026461e-02,2.902365494454100733e-02,-1.627548622086784358e-02,3.375055789947509766e-01
3.289561532817028011e-01,3.267682675487651456e-01,-1.788168701691331131e-02,1.746448851915796425e-03,2.752636577572069310e-03,-1.822574704695419188e-03,3.458096086978912354e-01
3.286663453955957492e-01,3.311488544401867129e-01,-2.439619822170463470e-02,1.929400398245230148e-03,-3.395840736929635166e-03,-6.500704588187856871e-04,3.543766736984252930e-01
3.248618077828671069e-01,3.301280650598422128e-01,-2.685042209190349749e-02,2.272717443658277270e-03,-4.687846561433482023e-03,-2.295726057519572108e-03,3.545118868350982666e-01
3.468704591377176349e-01,2.137766748072163214e-01,-1.903200765055299004e-02,-9.754380703112695838e-02,5.425358626370162252e-03,9.993360064303182314e-03,3.630861043930053711e-01
3.809265737579865529e-01,1.601819944940271467e-01,-9.029145826088241789e-03,-1.613585441450571256e-02,4.697415784100551772e-03,5.495767977176157192e-03,3.400748968124389648e-01
3.882645525408392473e-01,1.756138515556993074e-01,-2.747521955964493667e-02,-4.133628740590829416e-03,3.944936137363094439e-03,-3.982200472471253069e-03,3.602749705314636230e-01
3.644393020567839869e-01,1.492832209258666831e-01,-1.916355782206136116e-02,-1.253834106877571852e-01,-1.055274976543025406e-02,-4.281768340439087543e-03,3.980714678764343262e-01
3.614223924878525729e-01,2.388286179105385543e-01,-1.675902055454286943e-02,-1.790101416679728066e-02,2.953965632766826586e-03,1.067620371789634870e-02,3.361802995204925537e-01
3.733440073639556211e-01,2.413701628238240082e-01,-4.013288552905094897e-02,-1.889947602406582064e-02,1.479056549128312343e-03,5.233434213134458349e-03,3.673858940601348877e-01
3.218997470433558883e-01,3.292261668606851766e-01,-2.823470799019844879e-03,2.112590114898199155e-03,-3.698707319975990879e-03,2.881990470196208864e-03,3.285684883594512939e-01
4.892795257511179385e-01,9.070436647041738021e-02,-2.557249098692632172e-02,-7.002899485706348681e-02,-2.728445195494990511e-02,-1.307852153800963084e-02,4.859898984432220459e-01
3.662850997536691855e-01,1.570837019955200753e-01,-1.976758531604261293e-02,-7.145430894177189074e-02,3.483973744350857965e-02,4.794164718382728368e-02,3.713393509387969971e-01
2.665026222948608248e-01,3.051453376120220051e-01,3.583769539888259636e-02,1.086865801839016765e-01,3.004624967419378470e-02,-5.103283553839941394e-02,3.310177922248840332e-01
1.544942058913516270e-01,4.227420902084745857e-01,-1.813892383069895531e-02,7.276079457815086415e-02,3.422479666345346755e-02,-1.144440292926712961e-02,4.097034633159637451e-01
3.016345675079568078e-01,3.272542436184312509e-01,-2.373240181340108279e-02,2.810183135973868401e-02,1.054803087608791566e-02,-1.061661866129421511e-02,3.433611690998077393e-01
2.806906049454416241e-01,3.062934108681326650e-01,-1.746102816822292514e-02,2.803118093350272233e-02,5.310022900296921394e-03,-7.605860894644558834e-03,3.159094750881195068e-01
2.830600115405289552e-01,3.372924142859782259e-01,-2.555860019046468645e-02,7.385157410940669520e-02,2.038849780493165800e-02,-1.853211308504846416e-02,3.654631078243255615e-01
3.101638995849433922e-01,3.267422863440109237e-01,-2.567993819465874683e-02,6.979315826997982072e-03,6.303510738919825517e-03,-7.542475068834319195e-03,3.450647294521331787e-01
2.231872467018194695e-01,4.013488550792913001e-01,-3.170062123338349136e-02,4.220683756535792419e-02,2.496536240931079495e-02,-8.116793889857257943e-03,3.866941034793853760e-01
3.232105504692082687e-01,3.230623910452923297e-01,-3.378972451329470550e-02,2.862150727919167913e-04,2.650434437679303947e-03,1.981093190771159029e-03,3.569725751876831055e-01
3.273401722318353690e-01,3.249417577154681269e-01,-3.440970547300334359e-02,1.273196008958612808e-03,1.529311280940548164e-03,4.414024723835739618e-04,3.605739474296569824e-01
3.269086353358900965e-01,3.222150239487613366e-01,-3.455713743293473139e-02,2.424360351356405529e-04,1.560044692621275235e-03,2.854325364751657580e-05,3.591523766517639160e-01
3.255409126264964814e-01,3.222896593591894621e-01,-3.463747199313266245e-02,9.343209453696889842e-04,1.575934561518321179e-03,1.355070043876662646e-05,3.585778474807739258e-01
3.273465721827975572e-01,3.231947990327507236e-01,-3.317042035965292457e-02,1.039160473027520709e-03,1.760378316651385394e-03,6.578872970576835847e-04,3.584784269332885742e-01
3.243166121063418283e-01,3.253845598951332629e-01,-3.322197083404793139e-02,9.104092619478514753e-04,6.336237615070618775e-04,1.495694304785740586e-03,3.580882847309112549e-01
3.301246974978595539e-01,3.248316618132078837e-01,-3.180788932849706874e-02,-2.666667027121581409e-04,-2.854358660562112098e-05,7.227785140685205915e-04,3.593177795410156250e-01
3.296062257992617983e-01,3.229012025978214573e-01,-3.214046019070490590e-02,-1.094184144153999608e-04,2.031679634733225825e-03,2.033821737210330435e-03,3.584758341312408447e-01
3.293936040947403887e-01,3.025355018547041808e-01,-3.092831444094015780e-02,-3.923262692853948103e-03,5.845797091577329720e-03,5.131677942470422304e-03,3.479990959167480469e-01
3.266198305821754189e-01,3.063874560748325315e-01,-3.120444392681087642e-02,-2.275316658581214620e-03,6.843963234708402670e-03,4.999137733370025150e-03,3.484809100627899170e-01
3.251928083451313123e-01,3.217752877061494376e-01,-3.488033727389247551e-02,7.494989924776751565e-04,1.384645869034324206e-03,8.717444164965000022e-05,3.583870232105255127e-01
3.279810286239410733e-01,3.233859704180114814e-01,-3.213815478367731959e-02,3.210919811038803404e-04,5.043901098296910916e-04,-2.134574309155064427e-04,3.578454852104187012e-01
3.288506594750407741e-01,3.244397504846603386e-01,-3.080904721673144442e-02,2.406113406595054155e-03,6.485200483758682844e-05,5.318458861962623973e-04,3.575001657009124756e-01
2.769098560621346961e-01,3.390627136018565246e-01,-9.831780172943643814e-03,-3.204252036584899488e-02,2.169567475425408093e-02,1.773254084701114328e-02,3.306677639484405518e-01
3.220338506695673009e-01,3.080379618797193242e-01,-3.065029087722895285e-02,-2.557153411818668086e-03,7.263210434248489576e-03,6.099411477661788490e-03,3.463168442249298096e-01
3.266589439430228614e-01,3.230363138367205456e-01,-3.470184650802804471e-02,2.775087068691356262e-05,1.379271674452514076e-03,6.728050634072230010e-04,3.595729768276214600e-01
3.284865505955247844e-01,3.258168169468607100e-01,5.368377232922968978e-02,1.831224959747797081e-03,-1.350371352897109271e-03,-3.908638398877599222e-03,2.735898494720458984e-01
3.321167490782109821e-01,3.277718381446571572e-01,1.415122826365497466e-02,2.976014222853120856e-03,-1.374303811351995121e-02,-6.801809757352458331e-03,3.169722259044647217e-01
3.274133192676480508e-01,3.260521537260492320e-01,3.366556871021175734e-02,3.868374129827400158e-05,3.166437788758175772e-03,-1.876730785669305070e-03,2.931388914585113525e-01
3.289022551530976779e-01,3.201757835338994718e-01,5.504563099794379522e-02,6.729852925697885676e-04,-2.217786476982673213e-03,4.117563045266541032e-04,2.696301639080047607e-01
3.268104908138327880e-01,3.261839631529554473e-01,5.584013969910869846e-02,1.168783258119592602e-03,-1.425165836007207150e-02,8.721597075031328576e-04,2.717926800251007080e-01
3.312357717958321901e-01,3.256634179626322623e-01,4.226833875941382601e-02,-2.765413331974035270e-04,4.027934212488001528e-03,-6.059015509418376683e-04,2.863092720508575439e-01
2.291551300017590220e-01,3.572071230274590503e-01,-1.871986091273719621e-02,2.756711647054523734e-02,7.658269063964921568e-03,-5.103342105390900295e-03,3.348344862461090088e-01
3.212146981786453415e-01,3.330515292218558798e-01,-3.128997197316207846e-02,1.159278006222837481e-03,-9.291478007984132169e-04,-6.580535120107937038e-04,3.585806787014007568e-01
3.243687013497754679e-01,3.229561500163776189e-01,-3.540155556683208249e-02,-3.865941292643995100e-04,-1.333153805013154777e-03,6.620828945082964621e-04,3.590759336948394775e-01
3.242786513999598164e-01,3.219613939186982132e-01,-3.509458241982194027e-02,-5.433698818966815848e-04,-1.690416535315584102e-03,1.620691060035931472e-04,3.582335412502288818e-01
3.252124139224397692e-01,3.223487592001464397e-01,-3.501288668084362454e-02,-1.231770354869672580e-03,-1.488217692962410556e-03,-2.523129891119110685e-05,3.588176369667053223e-01
3.192890552260288506e-01,3.206481744874201123e-01,-3.400932546688517633e-02,6.078583716441399078e-04,-6.467295127576000186e-04,9.997209772092154056e-04,3.539874851703643799e-01
3.269878936031357375e-01,3.324932170164094369e-01,-3.033673561755759196e-02,3.365509954242259030e-03,-5.187230986557906688e-03,-2.094908465570841463e-04,3.602682650089263916e-01
3.227071237223466116e-01,3.206928816325725351e-01,-3.446419733256711471e-02,-2.435242561437626213e-04,-1.688038885189338490e-03,7.930640293396824933e-04,3.561833798885345459e-01
3.879276530086421815e-01,3.218726647036083688e-01,2.898009408484167326e-02,9.227166333620260077e-03,-1.729683959751061179e-02,1.024906430633776289e-02,3.331132233142852783e-01
3.461290719597671650e-01,3.355146189252025124e-01,3.632769208771985392e-02,-2.497602612739781985e-02,-5.882905968676268443e-03,1.006814953770835894e-02,3.083513081073760986e-01
3.317967909160028372e-01,3.267775227853412234e-01,1.893672924676156888e-02,-1.051551259299216608e-03,3.617203139170778025e-03,-8.777241210731230939e-03,3.108214437961578369e-01
3.388800895154389092e-01,3.334917302573819908e-01,-1.231532948448588183e-02,-7.458051007835340279e-03,-2.798679913194394332e-03,-5.129997870472206324e-03,3.489186167716979980e-01
3.346564615267619835e-01,3.255911624386370051e-01,7.848614407189175024e-03,8.692316003211107873e-04,-1.684062656357299083e-03,4.185191422180389170e-03,3.224689960479736328e-01
4.309148148652335308e-01,2.346222064632611515e-01,1.997118890808174951e-02,3.818747733195141519e-02,4.331202780326477708e-02,5.565619905251163735e-02,3.821462392807006836e-01
3.678607030940380662e-01,3.223949051618117401e-01,5.130746612062045409e-02,-1.400211534864563914e-02,2.989318185877364378e-02,5.532383395150980432e-02,3.167521357536315918e-01
3.134499432241849570e-01,3.338721064764866853e-01,-3.001882557089671777e-02,2.475231352487549177e-03,6.951979387624539729e-03,-5.963903586342230410e-03,3.545029163360595703e-01
3.272561095754764615e-01,3.290770015391348835e-01,-2.654135890480524562e-02,-6.598248459655833549e-05,2.077585072640412631e-03,-1.148449262361985390e-03,3.547352552413940430e-01
3.128970270675193732e-01,3.326314219227048952e-01,-2.451120163809789032e-02,-1.055844218086662454e-03,2.890867204148325938e-03,3.669548814189908543e-03,3.477946519851684570e-01
2.713229520635477288e-01,3.515427919409059854e-01,-2.483108370315920133e-02,5.807681337251558579e-03,1.014698257194977804e-02,-4.898896083437575232e-03,3.440667688846588135e-01
2.784199080446352892e-01,3.041695183084826559e-01,-9.000290905612745584e-03,9.560953661601697545e-03,-5.604688348076828893e-04,-8.389075251573598286e-04,3.015819191932678223e-01
2.668478288925670849e-01,3.217258091824694577e-01,-8.590100737548733711e-03,1.430874817640717667e-02,7.204690426281678932e-03,-2.510623978457942728e-03,3.078668117523193359e-01
3.022650978262791943e-01,3.046326979273625279e-01,-1.472231402768328645e-02,6.807936528594925318e-03,3.496341524505345005e-03,-3.811886411963220055e-03,3.185222744941711426e-01
2.970691870100091725e-01,2.993421195273248681e-01,-1.085657535021819498e-02,1.788542743760671710e-03,2.105194870833954423e-05,-1.182393672117381398e-03,3.090908229351043701e-01
3.125294344823298376e-01,2.882967190665959856e-01,-8.937893125909812664e-03,2.187482119759056112e-02,2.796631137299793006e-04,9.276110105309093214e-04,3.123728334903717041e-01
3.098855523100099152e-01,2.734787590208139774e-01,-9.598232504711534663e-03,1.146841408844201035e-02,-2.733956662917375567e-03,1.974552963740696266e-04,3.036133646965026855e-01
3.390001418107067011e-01,2.979818594282181987e-01,-3.106203260434045599e-02,-3.794093976986666274e-04,-3.891591509072056553e-04,-9.384021330324414725e-03,3.517303764820098877e-01
3.432362763835314912e-01,2.895624383028405635e-01,-2.880192818955082390e-02,-2.637035515059694794e-03,-5.657896795119473667e-03,-9.903403564749543864e-03,3.489064574241638184e-01
3.468646365272324839e-01,2.629242066612589301e-01,-2.596578805803961831e-02,4.566663878571091632e-04,2.117784626364924497e-03,-1.464624578325815496e-02,3.397213518619537354e-01
3.437249340091212968e-01,2.676915173414441407e-01,-2.524727153553754655e-02,-5.514278010070191270e-03,-6.960548881437766087e-03,-1.414944451882029983e-02,3.386805951595306396e-01
1.741779210541051504e-01,3.618589971136267347e-01,-8.239188693307336608e-03,-5.732618354704469010e-02,5.991634125296827623e-03,2.996087168969100139e-03,3.357527852058410645e-01
2.441213856210229793e-01,3.316776691283253586e-01,-8.384337090203169973e-03,-2.092162267498902037e-02,4.231499113122072150e-03,5.373659006113609866e-03,3.081999123096466064e-01
2.970441129491588894e-01,3.146982138345545410e-01,-3.249747451583873126e-02,-6.129737290028840213e-02,2.932049594044069257e-02,1.834018789879786684e-02,3.599824309349060059e-01
2.061757907826409220e-01,2.744564075832514050e-01,-3.614820139151073142e-02,-1.992139686170686097e-01,-1.806749068765367821e-03,-3.302937572446334406e-03,4.461281597614288330e-01
3.339989099895339653e-01,2.517257022374054243e-01,-4.796880994738222936e-02,-2.009974572358343425e-01,-9.130510419717411969e-04,2.715981822125395663e-03,4.924094676971435547e-01
4.341439136913590735e-01,1.531688121773582267e-01,-3.251204870418120119e-02,-1.652349485232297854e-01,7.412027458530296917e-03,-6.239191533052895929e-03,4.977805316448211670e-01
3.062102318917571120e-01,3.064802382284185778e-01,-2.180968453552298292e-02,-3.618718301484039057e-02,1.033339127721047759e-02,1.184584712053296691e-02,3.351947963237762451e-01
2.464708037527947038e-01,2.533086005803094620e-01,-3.704753301728136439e-02,-1.725648514279685686e-01,5.368618774931963565e-03,-1.098241982387491121e-02,4.149123132228851318e-01
2.954668622144444035e-01,3.042236019892160526e-01,-1.316317089776938842e-02,4.965304466750684181e-02,1.946261744096544621e-02,-1.365488174594158173e-02,3.272977173328399658e-01
1.973991463137921565e-01,3.327965661186310653e-01,-2.247764228620466320e-02,1.488049141240501139e-01,1.364642272074348232e-02,-3.316162779357657853e-02,4.083325564861297607e-01
1.875155293556434177e-01,3.998390274995652360e-01,-1.630265838371811049e-02,7.522691450734362781e-03,2.001704465538196170e-02,-4.423481683459580104e-04,3.623133003711700439e-01
2.117488323982773257e-01,3.715105743208583222e-01,-7.639229039365730278e-03,4.509793927516825285e-03,2.851661608835433042e-04,1.422499238573523271e-04,3.297970294952392578e-01
2.282399771635567065e-01,3.619726682464602940e-01,-1.887940260042994534e-02,-1.652338012798087400e-03,2.477993290154881928e-02,-1.857537998951218870e-03,3.374330103397369385e-01
2.234125557033126430e-01,3.367506332055635321e-01,-1.615156772435721866e-02,4.408879306283296912e-02,-1.507667911339409528e-02,6.534130379664949625e-03,3.225363492965698242e-01
2.297177153230756941e-01,3.516591504024266790e-01,-1.042137109608953782e-02,1.597026229078404858e-02,8.981730048975117633e-03,-4.492367062503096163e-03,3.207601904869079590e-01
2.490668456886682147e-01,3.447286519231397839e-01,-9.901106734930997799e-03,6.006246700581844948e-03,7.126337155136200710e-03,-5.029070488427331634e-03,3.183164596557617188e-01
2.707889667697419012e-01,3.525592688956031839e-01,-1.672705497938242747e-02,-1.959636650612284203e-02,9.261325297639583926e-03,6.651022942555679697e-03,3.382368981838226318e-01
2.604282920021713243e-01,3.471426503491533699e-01,-3.536563799089120774e-02,-2.992913526767155413e-02,3.023278190617914238e-02,1.405822287664146471e-02,3.559286892414093018e-01
2.773494873532715843e-01,3.333776400964665321e-01,-1.785413911587713232e-02,-7.739332885358085265e-03,-6.727599842711623913e-04,6.991323583081035520e-03,3.273403942584991455e-01
2.316777027778690878e-01,3.687957635206028373e-01,-1.370808142162835419e-02,-9.438950839754522634e-03,1.477754857673478465e-02,2.317795499399723062e-03,3.370473086833953857e-01
2.357710159110093517e-01,3.525954618482022296e-01,-1.548064746561680916e-02,-1.451221132736536801e-02,1.828208552131374565e-02,7.794624382800190848e-03,3.285490274429321289e-01
2.507311772002582262e-01,3.777973423901245242e-01,-2.672385269579127809e-02,1.232160084595655290e-03,2.277297385914623523e-02,1.459280891187856666e-03,3.604844212532043457e-01
2.421144462489766003e-01,3.417250113031554126e-01,-1.736861312641302391e-02,-5.635437239392715458e-02,2.092356989692863156e-02,1.236578716359633401e-02,3.382315039634704590e-01
3.623301816763783156e-01,2.915152837328807145e-01,-3.238143937718054866e-02,-5.637268923840758894e-02,-1.742831203852282518e-02,-2.875500136864115805e-02,3.818193078041076660e-01
4.144306925586196400e-01,1.751097964055104428e-01,-1.055820898807952046e-02,3.669015359701652962e-02,2.149075259046922745e-02,-4.297625685823929648e-02,3.835964798927307129e-01
4.054819485765908116e-01,1.354608792663049843e-01,-3.005326870711597098e-02,4.059284540812726008e-03,1.284140574344852298e-03,-4.811021557973617357e-02,3.898676335811614990e-01
3.537140334616974968e-01,2.590899362730775257e-01,-2.671689861943091215e-02,-8.250430232803749805e-03,2.901970046243767956e-04,-1.798936229635622261e-02,3.447590470314025879e-01
3.637148785193656808e-01,2.325375997352093216e-01,-1.822296125017069945e-02,9.258780444263228077e-03,-1.923360253205001497e-03,-3.659729213977491041e-02,3.424453139305114746e-01
4.766609125819918358e-01,1.462883224357662826e-01,-3.417322490035143434e-02,3.353131052569521126e-02,9.848106969276947467e-03,-4.162632170251079344e-02,4.584694206714630127e-01
3.646431752055688813e-01,2.744638185501470096e-01,-2.568291177284137694e-02,-4.178735795237627747e-03,5.010917361214029322e-04,-9.996174955568013637e-03,3.544577956199645996e-01
3.052984277815598557e-01,4.492635059497609440e-01,3.136621844945047810e-02,3.550228670499981642e-02,5.955365350609502506e-02,2.009955677816395447e-02,3.883742988109588623e-01
3.106878964310107460e-01,3.398517000096539786e-01,-2.398204719514346328e-02,1.174181722551288006e-04,2.294833432005262321e-03,1.439873316439149557e-03,3.501953780651092529e-01
3.061025017981753860e-01,3.433940376452567222e-01,4.191067372808748859e-03,-2.670879680400990719e-02,2.135883147917493063e-02,-7.684370686735275680e-03,3.278501927852630615e-01
3.178719857374169289e-01,3.666585592727656939e-01,3.174370450438518398e-02,-5.496439923716187059e-02,2.545708930609135584e-02,2.413630569401752773e-02,3.331123888492584229e-01
3.586750218312067529e-01,3.770097991579167696e-01,3.059927432880724107e-02,-2.067296561290844423e-02,5.197749966715611153e-02,2.649724564507238006e-02,3.542293906211853027e-01
2.994449955724564072e-01,2.971955801501510175e-01,-1.071947492251953959e-02,-2.031764131047057460e-03,1.230726636949979651e-03,2.579936750967024798e-04,3.090736269950866699e-01
3.002738483898197419e-01,3.019793704631960063e-01,-1.326821910608838584e-02,-7.715814219340484670e-03,3.144975753925576857e-03,2.409142972482155101e-03,3.147570192813873291e-01
3.145972436089671809e-01,2.962605826124214414e-01,-1.483088639655996688e-02,-1.412798288238725428e-02,7.648184821456596033e-03,5.069811177775811022e-03,3.219781219959259033e-01
2.971007938034082585e-01,3.160718657476858096e-01,-1.711311455414740723e-02,-1.713372095240550327e-02,9.558496589631955767e-03,9.627889572595678055e-03,3.263190686702728271e-01
2.735813958611718055e-01,3.076721736856958822e-01,-9.742937295794368291e-03,-1.126409943316458023e-02,4.741472480893411836e-04,2.521954729721905160e-03,3.024797439575195312e-01
2.724920175367601116e-01,3.097661199610544092e-01,-9.085260385747306877e-03,-1.303921013483507960e-02,1.358108395378078057e-04,-1.855656304255668635e-03,3.028053939342498779e-01
3.017397234411801632e-01,2.971294787063226139e-01,-1.092527863366177243e-02,-2.302368859866186449e-03,1.893215255419375767e-04,2.229626121062891009e-04,3.104116022586822510e-01
3.135580204499452406e-01,3.121029448095378744e-01,-2.570026506467601446e-02,2.865240839592358003e-04,3.865708901539529480e-03,5.813344666175602115e-04,3.386011719703674316e-01
2.923347421554148839e-01,3.003091398542728774e-01,-1.071619261091000253e-02,-7.370670215018811089e-03,3.258554737360830800e-04,1.592185802765882499e-03,3.073939085006713867e-01
3.443200687915575209e-01,2.485563453051851945e-01,-1.659195751168668354e-02,6.230586827954806908e-03,-7.641722424745369183e-03,9.404033008752794506e-03,3.246888518333435059e-01
3.206012195711598345e-01,3.094959847728521174e-01,-3.090268365240650406e-02,2.171134996953876135e-03,-5.936743300119021183e-03,4.294315373206103979e-03,3.463379740715026855e-01
3.315160174974685070e-01,2.643879904859685048e-01,-2.296975298765327467e-02,2.108990396404816434e-02,-1.244809508053331890e-02,4.097895591678029324e-03,3.289680778980255127e-01
3.244002808776784708e-01,2.729778126951184491e-01,-1.378842378825900772e-02,5.665024429668047076e-03,-7.071449749071925632e-03,6.183519647690827355e-03,3.162062168121337891e-01
3.846174832212106987e-01,2.271945178578958779e-01,-2.761691913770605855e-02,3.265083935043304724e-03,-7.037640576773203371e-03,3.545142077056562951e-02,3.657526671886444092e-01
3.433152984148103992e-01,2.755069743692932227e-01,-3.032132512205984454e-02,8.672940040914398074e-02,-1.881186556986675154e-02,3.293584646634035995e-02,3.817702829837799072e-01
3.250485414648957017e-01,2.923509685899096655e-01,-2.399747538970023464e-02,3.350164028020225990e-03,-9.481247234100596485e-03,7.354309737468043943e-03,3.345966339111328125e-01
4.198083547753572731e-01,1.139447144194218331e-01,-8.689549424307957404e-02,1.134907920235299073e-01,4.726820732532117063e-03,2.239840204688441864e-03,4.837785065174102783e-01
4.077964041067344003e-01,2.435472734771837455e-01,-3.425916194070893761e-02,2.868125646830224640e-02,1.098570520364259922e-04,1.565391299303626679e-02,3.911350965499877930e-01
3.224389756766207205e-01,3.218406052720926280e-01,-3.518414540871697693e-02,-4.470586798811031996e-04,9.011402101661089069e-09,-8.373184305761192285e-05,3.573251664638519287e-01
3.224074064967228370e-01,3.229717833734256915e-01,-3.529809293569646789e-02,7.074879854261174344e-08,-4.544468502445744048e-04,-5.908794699754851701e-04,3.579903542995452881e-01
3.204701101409604402e-01,3.219094703697155668e-01,-3.532043781253579873e-02,5.965340838844151929e-05,-1.036535423388857714e-03,-7.893628066883168627e-05,3.565169572830200195e-01
3.226866602712392118e-01,3.225072419165498361e-01,-3.524512382693500978e-02,-3.860448627019056732e-04,-7.287974683885074453e-04,-5.509974861878784869e-04,3.578462302684783936e-01
3.214286650764389686e-01,3.223959666351192688e-01,-3.522303275566193714e-02,6.795514122230657673e-05,-4.434636597250272858e-05,-8.250957759945637187e-04,3.571392297744750977e-01
3.201043945436423677e-01,3.225611587510713307e-01,-3.376145526280180387e-02,-1.852270640167038036e-05,-1.485727627800115334e-03,-1.286274426545639966e-03,3.551169335842132568e-01
3.231642412173620915e-01,3.264814926140677809e-01,-3.341201465234017176e-02,-1.041139179855511514e-03,1.546953745327135947e-03,-1.292768411601952954e-03,3.582679629325866699e-01
2.430467909219473088e-01,3.583925058268331854e-01,-1.488881776531414403e-02,1.041990631918583016e-02,2.496863151701741654e-02,-6.053897105515266587e-03,3.345043361186981201e-01
3.224875043162745425e-01,3.279350836264008917e-01,-3.147439598218162993e-02,-1.944572393958277990e-04,-6.132824295095531822e-04,7.512885561501578486e-04,3.567210137844085693e-01
3.248632417761132540e-01,3.293653425476183449e-01,-2.162535591531866697e-02,-2.114411579406242237e-03,-2.403214369252056970e-04,2.387981389709490764e-03,3.488054275512695312e-01
3.249991745035066271e-01,3.269229098696003755e-01,-2.728974771928799337e-02,-1.382095882531625321e-03,6.008085093638263841e-04,-2.623234051065249581e-03,3.532935678958892822e-01
3.252379901402023821e-01,3.240128648569107206e-01,-2.859516356519337110e-02,-1.088902241564045071e-04,1.359091420556420406e-03,7.123806786063546824e-04,3.532322347164154053e-01
3.302266412624356162e-01,3.148802609745496861e-01,-1.625355569135294997e-02,8.027824233280836733e-03,1.057869191070130374e-02,-1.187312228629641177e-02,3.404684960842132568e-01
3.214115651466795121e-01,3.277682181751399026e-01,-3.215380210343499190e-02,8.686368343937460410e-04,2.359561559549175260e-03,-2.537452167908869904e-03,3.568398058414459229e-01
2.598772738116393866e-01,3.235475964794350956e-01,-8.587155145167807424e-03,9.243451294846114288e-03,-5.207647059034817109e-03,5.521833224245764615e-03,3.060219585895538330e-01
2.138347015538935858e-01,3.610202193508810220e-01,-2.510855504244530190e-02,8.343976910904257749e-02,-2.338676576218820524e-02,1.194702428359058557e-02,3.699757456779479980e-01
2.439435568348612138e-01,3.327617581947042158e-01,-1.231851796722896464e-02,3.475803081512892495e-02,4.075834603966949879e-04,1.293914485185092798e-03,3.161479830741882324e-01
3.309124201602902104e-01,2.616633461304663788e-01,-8.235430441843688554e-03,3.691117246193624524e-02,3.173584837077064909e-03,-1.167649127651596529e-03,3.169426321983337402e-01
2.590878519296143656e-01,3.411583646705467210e-01,-1.326726903417171921e-02,2.691513244815271766e-02,-3.555839917938033445e-02,1.516270958222962206e-02,3.315439522266387939e-01
2.856506184829250561e-01,3.285701602829103063e-01,-2.457077179674393985e-02,1.532755096576235085e-02,-7.857086404774345223e-03,7.413421885911572300e-03,3.353339135646820068e-01
3.157415576609211016e-01,3.318596698715746696e-01,-2.626003054679471038e-02,4.488350928185633713e-03,-4.773147009986425035e-03,1.441976949617093922e-03,3.505314886569976807e-01
4.325618436477577378e-01,2.474799303944083262e-01,1.738926829237627536e-02,1.251597733471202789e-01,-3.631389151945021987e-02,3.687287020019921341e-02,4.298982024192810059e-01
4.042462819222574222e-01,1.574134540781921832e-01,-3.671644881860752774e-03,-5.471140600952764318e-03,1.737509617088731778e-02,6.824875136848604362e-02,3.763045370578765869e-01
2.841204923672434046e-01,3.754111789409524391e-01,-2.350219341618128843e-02,-9.504489923233652368e-03,-3.077407122873491649e-02,-2.415295103546342970e-03,3.663037419319152832e-01
2.119264147061910020e-01,3.901850206694649215e-01,1.671788859678788319e-02,1.830724415611517664e-02,-7.394212158585433681e-02,1.136512880351310192e-02,3.499648272991180420e-01
3.465171138540318330e-01,3.498085046943230636e-01,4.486479917556382424e-02,7.959498029634602678e-03,1.439914887998918966e-02,-1.222685703205128767e-02,3.053823113441467285e-01
2.238585898234173310e-01,3.725920867895484712e-01,9.094664834523313868e-03,6.963357937859605828e-02,-4.861765802426996907e-02,3.065513880327472643e-02,3.530503213405609131e-01
2.484651114443573727e-01,3.939022732116403969e-01,-2.878485130252608770e-02,-2.663405317337718542e-02,-2.600907706175443687e-02,-2.746688096821122901e-03,3.775210380554199219e-01
2.316701646694784289e-01,3.651079855107846606e-01,-1.195286036477977154e-02,8.182003809989167598e-02,1.754893361965188933e-04,-4.367348162402168166e-03,3.602876961231231689e-01
2.304496268138898629e-01,3.622824859956840782e-01,-1.615407898063866976e-02,5.664458936638028458e-04,7.391319013838688369e-03,-3.204570046360564160e-03,3.330156505107879639e-01
2.148976366413748174e-01,3.599150090744588359e-01,-1.949791498707420523e-02,2.419779026945072589e-02,2.577577722209297567e-02,-5.933558890258162563e-03,3.373694419860839844e-01
2.530286024872547834e-01,3.267735703041166340e-01,-1.729590443029080382e-02,4.840116600892192811e-02,1.230984942047622967e-02,-5.376069854247815527e-03,3.256041407585144043e-01
1.573641724214315529e-01,3.340024574171036598e-01,-1.365258516925005328e-02,1.406697911862452022e-01,1.147847596924554507e-02,-1.133068606333385853e-02,3.883301615715026855e-01
8.832360417401546870e-02,4.386790454792812710e-01,-7.002178294960029192e-02,3.576800163762696577e-02,-4.950077973393206959e-03,-2.768816662037233527e-03,4.552295207977294922e-01
1.549457684323933271e-01,4.534470921185879133e-01,-9.290207703396086147e-03,1.284132875690966735e-01,1.166456087690481702e-02,-1.765757408140944396e-02,4.646661579608917236e-01
3.329312485136043942e-01,3.292832692608734235e-01,4.553628074268725734e-02,-3.269843974123582721e-03,-6.380720373937532296e-03,4.322761575399278189e-03,2.859563529491424561e-01
3.723773296284557111e-01,3.582452898848599299e-01,2.562851947645339301e-02,8.575909066206996098e-03,-7.114797474164246023e-03,-7.033441956671814335e-03,3.406685888767242432e-01
3.294325549518165031e-01,3.258216623648949595e-01,2.523680353402854570e-02,-9.804871579579277092e-04,2.307926709206499592e-03,-5.086629484014482637e-03,3.025659620761871338e-01
3.247373079592118517e-01,3.267922499713540319e-01,1.155605543260804224e-02,-2.040503182614744008e-03,1.457075301062812000e-03,9.190664449068785061e-03,3.146467208862304688e-01
3.250114017265402500e-01,3.273766099210017044e-01,1.360982974180641181e-02,1.056464519647402596e-03,-2.245980118507280229e-03,8.803904060595210690e-03,3.129921257495880127e-01
3.249824581977250326e-01,3.276915781104562386e-01,-3.377949840562580186e-02,4.077012976271918859e-04,-1.264052796921054421e-03,-8.100629014011570149e-04,3.601342439651489258e-01
3.228546031138388450e-01,3.266715752344243606e-01,-3.448210368330301145e-02,-5.955149117914751173e-05,-2.103067895625528191e-04,-1.141705618729204827e-03,3.592660427093505859e-01
3.224380735639420514e-01,3.267075775919869862e-01,-3.471244594571493147e-02,4.821448852124476112e-04,-2.289401772800597323e-04,-1.339156026157911974e-03,3.593129813671112061e-01
2.996696107664078568e-01,3.343364606666104910e-01,-3.075423207814972915e-02,-1.264089436326068733e-03,-7.937526418338390274e-03,-2.164852237774596549e-03,3.493484258651733398e-01
3.220889109834300656e-01,3.259706480178764521e-01,-3.398254058918462328e-02,1.476561378126627002e-04,3.398754972588262455e-04,-3.510352207229098685e-04,3.580291867256164551e-01
3.179934553998207680e-01,3.283301661589773657e-01,-3.165900803661195195e-02,3.724922876320863724e-04,-3.359480459155347182e-03,-3.513444323508797124e-03,3.550341725349426270e-01
3.078197952699567863e-01,3.267319281452311097e-01,-2.973987621223467270e-02,-1.834881409924269020e-03,-7.762752911017899507e-03,-7.632218527162542426e-03,3.479278683662414551e-01
2.945498123261018342e-01,2.999783546705117043e-01,-1.362566711227086724e-02,5.232487680160591986e-03,1.528491057754842019e-03,-2.570602528597649549e-03,3.111004829406738281e-01
2.919618807010440631e-01,3.092710934806348622e-01,-1.500268722900943708e-02,2.548387604335230344e-03,2.799150054516450197e-03,-4.481336929346138934e-03,3.161382675170898438e-01
3.471856857130740104e-01,1.938885376685774153e-01,-3.209055783055744793e-02,1.239940263887902294e-01,-7.841659623401527404e-03,8.915254282392317056e-03,3.946580588817596436e-01
3.045090583166331077e-01,3.107675646613350384e-01,-2.163366800329832862e-02,2.753419864081137376e-03,3.796852923456887213e-03,-5.525305585870106222e-03,3.295557498931884766e-01
3.194576159649484826e-01,3.214984408164706098e-01,-2.995535064335869135e-02,3.256840287623257238e-03,5.104899435293304422e-03,-3.487778417623603206e-03,3.506467938423156738e-01
2.991330355955212905e-01,3.014078915687843363e-01,-1.341865251795965053e-02,7.654083979730243008e-04,1.551475514152239306e-03,-2.154871237025075392e-03,3.137318193912506104e-01
3.071093300738781950e-01,3.006237371905184919e-01,-1.309824741015538918e-02,1.526674944945508733e-02,3.790367945350790486e-03,-5.234004030897881042e-03,3.183123171329498291e-01
2.588417160341028866e-01,3.310020506549402608e-01,-1.008664124228100811e-02,1.805368005158570349e-02,7.009265212563246285e-03,-5.063155846364350739e-03,3.132692873477935791e-01
3.112783674151893276e-01,2.834971381606061214e-01,-2.055982223028809952e-02,2.465489714498654214e-02,1.534015596958529168e-02,-2.111530119978054926e-02,3.248640298843383789e-01
3.105761029988873823e-01,2.764876057169843859e-01,-1.018207350477975948e-02,1.017800516032352394e-02,2.314465099547485631e-03,-3.631297821667343884e-04,3.056810498237609863e-01
3.097073781791423452e-01,2.798083247420844466e-01,-1.482026367119598786e-02,1.009557149773483882e-02,5.423575651377223784e-03,-4.202171069752518202e-03,3.113776743412017822e-01
2.674681114635552026e-01,3.123046681132735092e-01,-8.707124607171351505e-03,1.230919409341125689e-02,-4.650540478654872564e-03,5.955936728948457368e-03,3.021451234817504883e-01
3.126026260704936055e-01,2.781683291957326443e-01,-1.501071704324558054e-02,9.126087014394249422e-03,-6.956437025938476404e-03,5.657021335625236728e-03,3.126117885112762451e-01
2.614609314118900851e-01,3.285136328432570196e-01,-1.190520645328413396e-02,2.846492476451554371e-02,-2.446717114712763930e-02,1.104728333404988820e-02,3.196057975292205811e-01
3.328160032799057921e-01,2.609979967975481485e-01,-1.490864680272707687e-02,1.127210694968478269e-02,-7.898898661485156264e-03,6.281566404874166891e-03,3.190362155437469482e-01
4.044714074635658019e-01,1.855681639732561228e-01,-1.613896322834212915e-02,3.910372342570459653e-02,-7.479507124890752076e-03,1.321418774693333339e-03,3.708356916904449463e-01
3.226934423096879390e-01,3.281701966216110655e-01,-3.260623910923537982e-02,1.331893798818114475e-04,-6.426067633406097905e-04,-8.596499243883686751e-04,3.580743670463562012e-01
4.312490487941877393e-01,1.233127362915309166e-01,-9.609850921496365661e-02,3.643693822634358481e-02,-2.367495101101271468e-02,-1.553339406354485759e-02,4.657457172870635986e-01
3.271148208297909310e-01,3.286156714997099937e-01,-3.084545217426656882e-02,2.278841849209951257e-03,-4.616675264193029204e-03,-2.654101505466248141e-03,3.588533103466033936e-01
3.228618902348390218e-01,3.284350202475253555e-01,-3.344409802336917314e-02,3.290605115114145478e-04,-2.146302887189347700e-03,-3.281219512538005242e-03,3.591896295547485352e-01
2.406340698375464271e-01,2.045169388353081930e-01,-2.906507940858615857e-02,1.909363535915754861e-01,-8.199161886137588603e-03,7.629025204938571537e-03,4.171902239322662354e-01
3.253652280644201977e-01,2.911855747586472587e-01,-2.363871718250842857e-02,3.972983729652169657e-03,9.440347617879041309e-03,-7.066603600477576810e-03,3.339276909828186035e-01
3.305025809021830407e-01,3.242960924789516364e-01,-3.271950833167183714e-02,7.173225598536511240e-04,-7.420882533516606012e-05,8.261563850735024724e-04,3.601639568805694580e-01
3.450470188160755236e-01,2.325116446680558779e-01,-6.261531721867996669e-03,7.097097487030211427e-03,-3.138360746694672434e-03,6.167428040032264802e-03,3.111945390701293945e-01
3.607315828983989059e-01,2.215989368914768332e-01,-5.868285163794451087e-03,1.018518801360218662e-02,1.106068883572217327e-03,2.190733439034425560e-04,3.210332989692687988e-01
3.566440940757089617e-01,3.021136910796066166e-01,-2.816677653902327494e-02,5.378185774404993513e-02,9.922469259567500907e-03,-2.859081812200021944e-02,3.761571645736694336e-01
3.258470720478652272e-01,2.694657360915836963e-01,-8.131442204680011665e-03,8.318774411140287747e-03,1.461027377700739333e-03,-1.515414609924203024e-03,3.100181519985198975e-01
2.425613268315228443e-01,3.326961148145916591e-01,-9.883970819150600384e-03,3.410756923804602464e-02,3.795632607433051188e-04,2.133894730845083999e-03,3.132268786430358887e-01
2.363011297400677835e-01,3.561556972236115115e-01,-2.771887358934183032e-02,8.407491740106884381e-02,4.125306846119191663e-03,1.025574180531813257e-03,3.701022267341613770e-01
2.477974644476374777e-01,3.680247544002275273e-01,-3.757223376713747509e-02,7.577039640422174316e-02,2.076243734110232858e-02,-1.378260932015018883e-02,3.863758146762847900e-01
2.228360303532647413e-01,3.585141830939572172e-01,-3.449162158563395808e-02,5.160281716478164193e-02,2.425808822375840820e-02,-2.797360695315946784e-03,3.596070408821105957e-01
1.682062832937812336e-01,4.443400000883765966e-01,-9.387930113553261124e-02,1.689305866492090136e-01,-2.904738868668605822e-03,1.059497771020695596e-02,5.507122874259948730e-01
1.563547840309635062e-01,3.640790606478027658e-01,-9.147604053430735682e-02,1.253176086209871753e-01,3.730742568888456567e-02,3.718030655775163111e-03,4.553904831409454346e-01
3.291186684216036440e-01,2.198981081086882616e-01,-1.561426999785048286e-02,7.573846751070695271e-02,-2.753187235466196276e-03,-1.455040575856560332e-02,3.331438601016998291e-01
1.822924927777100912e-01,3.768501541368272090e-01,-5.350986649355649050e-02,1.747793885850370266e-01,2.304250624724803187e-02,-5.159295806509904374e-04,4.822548627853393555e-01
3.228719274185482546e-01,3.230155931741486852e-01,-3.513079166858723568e-02,1.270457682608833508e-04,2.280222438493934294e-04,3.385763507871306175e-04,3.580753505229949951e-01
3.189931344194197327e-01,3.185232443988900708e-01,-3.173398539634683657e-02,5.558334876355435330e-04,2.575740296284726762e-03,3.941351644655985225e-04,3.505227863788604736e-01
3.373877356613825818e-01,3.178594613687216741e-01,-1.763267004947555172e-02,-4.545005759750705455e-03,6.343358996250184241e-03,3.508803970216663095e-03,3.459877669811248779e-01
3.148586035672124583e-01,3.133918396964630038e-01,-2.769378665709715248e-02,-4.446122319474047962e-04,2.289516417709844265e-03,4.395888938001301337e-03,3.419300317764282227e-01
3.454028031295000023e-01,2.662279716965269549e-01,-2.396872430555657685e-02,-7.839121887640420477e-03,7.466813982957972926e-03,1.176043217233777374e-02,3.379727602005004883e-01
3.235268873238812959e-01,3.195995135837115253e-01,-3.400807575255221371e-02,1.369503940850236420e-04,2.676577599425869480e-03,1.646466897853547228e-03,3.556292653083801270e-01
3.200499688679476207e-01,3.209575100009208759e-01,-3.351552741573793348e-02,-8.830183623258062477e-04,9.574959803348773429e-04,1.539397977793560603e-03,3.540373742580413818e-01
3.380646799891542376e-01,2.845207013192802004e-01,-2.273526334648190428e-02,7.888043593737639747e-03,-7.991065832748557932e-03,1.175138904118152791e-02,3.384042084217071533e-01
3.392437172315676541e-01,2.984442343848950907e-01,-3.102288473325168217e-02,1.240460965833651208e-03,-3.562417875919254243e-03,7.055298875196903442e-03,3.519194424152374268e-01
3.243557133010046001e-01,2.755806785236274425e-01,-1.076342682931458183e-02,-7.386166354742141477e-03,3.425600627631410818e-03,3.477663113238506441e-03,3.139642477035522461e-01
3.295551997230541375e-01,3.222774431844979137e-01,-2.948713760290816444e-02,-5.047300090944844761e-03,1.050030681737761616e-02,9.375073697060299499e-03,3.564017713069915771e-01
3.628991177407591695e-01,2.248918030765044429e-01,-1.698168213676115590e-02,-3.795701519699010672e-03,3.687005888674883824e-03,1.418704302381683033e-02,3.340912163257598877e-01
3.448319340609945494e-01,2.917917668061831837e-01,-2.937765426789767931e-02,-7.634589814599821410e-04,2.946797765882123044e-03,-3.337320681374680593e-03,3.507978618144989014e-01
3.390726965231630752e-01,2.948180593340262723e-01,-2.703265411680946806e-02,4.241243723212610901e-03,-4.651195201070669125e-03,2.944270055063307346e-03,3.463157713413238525e-01
3.338541215446482746e-01,2.972256557912523744e-01,-2.669847200741271021e-02,1.609121977134335066e-03,-7.105366844652345575e-03,-6.911925637026460631e-04,3.439389169216156006e-01
3.438685382497574938e-01,3.123288302776810466e-01,-1.499824239478936283e-02,3.494983422578807892e-04,-1.898189464254751175e-03,2.013077571387686567e-03,3.442163467407226562e-01
3.465587487801319311e-01,2.666179212005767019e-01,-2.811645279709520939e-02,-1.141111945527964510e-03,-1.758597036650589446e-04,1.469982916810037669e-02,3.427425324916839600e-01
3.314146196730732297e-01,3.284326212012833590e-01,-3.718073550864059440e-02,7.694400152885068345e-02,-1.983303184504197486e-02,1.422159169548480213e-02,3.928361237049102783e-01
3.680601825129199423e-01,2.651036717397745601e-01,-3.524521048575077198e-02,4.975426942254456558e-02,-1.797907576273762367e-02,2.323022750423711993e-02,3.764936923980712891e-01
3.504333072600330223e-01,2.642870744059252486e-01,-2.178606449781370080e-02,2.112902592375101585e-02,-1.275881118260556446e-02,1.273566685482681662e-02,3.409067392349243164e-01
3.236924531865459365e-01,3.122239112802814298e-01,-3.082143341504131606e-02,4.481219387669073753e-03,-8.409560539723413483e-03,6.508582364813877627e-03,3.494929969310760498e-01
3.496817455999984281e-01,2.635603762647743542e-01,-1.690662949918392277e-02,2.600308586281425277e-02,-1.745352231621734957e-03,8.079291606041823226e-03,3.353599309921264648e-01
3.259986953739276716e-01,3.282067029557169113e-01,-2.830572923897989313e-02,-2.357119739417915319e-03,-3.146438585030217078e-03,8.797863895719365817e-04,3.554820716381072998e-01
2.726963060850421394e-01,3.095125250009176376e-01,-1.613191991372486811e-02,-3.179610789314413904e-02,-1.206808569730136865e-02,-8.876466812141162871e-03,3.148285448551177979e-01
2.861282630503279023e-01,2.290911561119463036e-01,-1.094938026716357760e-02,1.424436937852819329e-01,-4.806572682062992818e-02,3.266363552408682591e-02,3.815313875675201416e-01
3.888180465351161463e-01,1.994340679372399450e-01,2.416137199879234143e-02,7.292089047901126331e-02,-1.589773337174187062e-02,4.413957642295580908e-02,3.497658371925354004e-01
2.389496716348732952e-01,3.562343945986574667e-01,-1.798062010943790590e-02,-9.050363658451831758e-03,1.098283418595458368e-02,5.455247301307870889e-03,3.325654268264770508e-01
2.454856941659880887e-01,3.323598160082074093e-01,-1.027112285211445597e-02,-1.963947943558434425e-02,4.210410782338186789e-03,4.925431555428424688e-03,3.105807602405548096e-01
2.537288959105169495e-01,3.284662930482525334e-01,-9.128135840394846490e-03,-1.600158857169859186e-02,-3.536684510335702633e-04,-3.144272968985330815e-03,3.084200620651245117e-01
2.473471111464910499e-01,3.464644716565740690e-01,-6.954784820678544532e-03,-1.997822643538667980e-02,-3.622331815187448695e-03,-2.611077713123105114e-03,3.177367448806762695e-01
2.003130735394099138e-01,3.577913139767697759e-01,-9.388565404556542537e-03,-3.593180717453806766e-02,-7.034600006511276338e-04,1.426284469869771015e-03,3.250822722911834717e-01
2.596648290920602342e-01,3.328883947788564002e-01,-1.290092749919208304e-02,-1.452759088559034753e-02,9.345360921375422611e-03,6.355729752517441655e-03,3.172197341918945312e-01
2.631189267098495432e-01,3.384587825547856754e-01,-1.942255276725551871e-02,-4.133379838464258660e-02,1.637962649009357119e-02,1.373951631339324561e-02,3.365844190120697021e-01
2.286065162133527617e-01,3.464306026137672356e-01,-1.347953280193198156e-02,-2.248387603440817409e-02,9.548867899195050829e-03,6.910539765391948003e-03,3.208506107330322266e-01
1.066782288904551401e-01,3.835161704686487205e-01,-2.404547653060123968e-02,-1.203929364661595058e-01,2.305782881573894411e-02,5.489113663233009636e-03,4.184327721595764160e-01
1.877263891586602451e-01,4.079431256455687271e-01,-2.738852784423953524e-02,-1.621677453798987534e-01,4.349040117241669695e-02,9.523290298503699416e-03,4.764275252819061279e-01
2.130738131746762742e-01,3.923447832846979066e-01,-3.547836537200740881e-02,-2.351834060828277700e-02,5.032813945133567807e-02,7.231747085213063343e-05,3.843599557876586914e-01
1.675448835562070860e-01,4.477873002415065917e-01,-2.494841994926885742e-02,-1.124617467710085639e-01,-1.686522858194797192e-02,1.538581426108478339e-02,4.572096765041351318e-01
2.497648815823295121e-01,3.407584682648847618e-01,-1.497695786129427109e-02,4.057572284591925288e-02,-8.075598851345046347e-03,3.212167686998719778e-03,3.280604481697082520e-01
2.051874258788141114e-01,3.531114078336604623e-01,-7.027490261477614686e-03,3.683017668734032968e-02,-8.027229657346848920e-04,-9.607138477407703523e-04,3.199725449085235596e-01
2.453543401352515085e-01,3.323697839966424095e-01,-6.339284736249478636e-03,1.880747785334763514e-02,-3.516997493142912795e-03,3.201039817679548344e-03,3.065152764320373535e-01
2.599923863363404752e-01,3.302189543287428752e-01,-1.510541273512031046e-02,1.416762759352373224e-02,-1.033944440282715330e-02,7.358686233846519105e-03,3.178286850452423096e-01
2.852947640337306634e-01,3.283584373789666944e-01,-2.187048131970895093e-02,1.617231950033025736e-02,-7.055800551731959691e-03,8.464719772023055616e-03,3.325380682945251465e-01
2.724762252341214608e-01,3.241028934007679219e-01,-1.519532380280497197e-02,5.024377490638898443e-03,-5.959242040388534542e-03,7.823852597777680717e-03,3.172343969345092773e-01
2.698720803506411969e-01,3.276739959820075265e-01,-1.476319251033172963e-02,2.857950425918447113e-02,-1.034105737937623601e-02,7.171678557049834118e-03,3.220811188220977783e-01
2.945356619321252700e-01,3.445120377096449471e-01,-2.989107864839299356e-02,-8.889900397593380587e-04,-5.681875823601657653e-03,9.201705743812145684e-04,3.522297441959381104e-01
2.918417710419780597e-01,3.385720706308856798e-01,-2.668830637009406148e-02,2.345310125157503475e-03,5.386149875164615922e-04,4.028107261821557011e-03,3.443779647350311279e-01
3.222033700613117779e-01,3.303559011904059206e-01,-2.943930703048430741e-02,-5.500518180094933355e-04,1.059115278440057482e-03,-1.881928262828552647e-04,3.557951450347900391e-01
3.061219194008166222e-01,2.814591094456510567e-01,-1.373197570843590065e-02,-1.114017126190103638e-02,4.313525802984951446e-03,3.105134981710672235e-03,3.090037703514099121e-01
3.249182234576034611e-01,3.284873221373377783e-01,-1.269139023980428438e-02,-7.372288728831937138e-04,2.498047215222746944e-03,1.185853764494973137e-03,3.394444286823272705e-01
2.917510004555216030e-01,3.481600641649713612e-01,-2.862510495378381425e-02,4.684302599361201726e-03,-1.073248420973702162e-02,2.326471890418286941e-03,3.525940477848052979e-01
3.189831233346450134e-01,3.326253726435381974e-01,-3.248870682474000460e-02,6.659101998715176917e-04,-3.444204075760823585e-03,1.593478140975174194e-03,3.585498034954071045e-01
3.185794642032954149e-01,3.325151904351281162e-01,-3.286071530920295358e-02,4.346413676888129241e-04,-2.696412049332218026e-03,2.456350785624844633e-03,3.586676120758056641e-01
3.243624349690456543e-01,3.299697573253411176e-01,-1.327890862887270984e-02,-7.482160466408586084e-04,3.123817636827789374e-03,8.073879093773237824e-04,3.405279517173767090e-01
3.318241092146557714e-01,2.531092116444534912e-01,-9.322114279257942560e-03,1.731985491446622061e-02,-1.529468734948155476e-03,3.771915040528476658e-03,3.109230101108551025e-01
3.234939934987755006e-01,2.718246497251359806e-01,-8.822168919829148637e-03,8.218534363773306178e-03,-1.666668342414024057e-03,2.573303792544172526e-03,3.101032376289367676e-01
2.966959764008171851e-01,2.696333167314741153e-01,-2.254500454077040805e-02,1.170375678015245502e-01,9.701351970655894622e-03,-1.036536759506346932e-02,3.683825731277465820e-01
3.378040952682036524e-01,2.727589984621311414e-01,-1.780469878472931700e-02,7.971627300718245324e-02,-9.509800582905372085e-03,1.797755181282232814e-02,3.575790822505950928e-01
2.337364963010041263e-01,2.840752337514501069e-01,-1.373908244765500997e-02,9.455086158947516306e-02,1.649839832069708656e-03,-9.355810790937849064e-04,3.210391700267791748e-01
3.110248409744251763e-01,2.732345604615473156e-01,-9.435004532575147485e-03,9.991517424174155976e-03,-2.031613840750207990e-03,3.171032560469100228e-04,3.038495182991027832e-01
3.106527727129813066e-01,2.739966616485098316e-01,-8.565140152623079706e-03,8.929736120785533235e-03,9.217057362525036103e-04,-9.482030259766222220e-04,3.029635846614837646e-01
2.706995574164309248e-01,3.100429834581929778e-01,-1.004770964769916008e-02,1.075020442368672217e-02,4.281839269402479449e-03,-1.609078846126483662e-03,3.030214011669158936e-01
3.409432405751440243e-01,3.008946465921656377e-01,-2.635296615020685240e-02,1.608129860585070722e-02,7.672950530402793297e-03,-1.658104967080244532e-02,3.515365421772003174e-01
3.336703819733171650e-01,2.640224593453316393e-01,-1.140402076283222876e-02,3.384739199006778915e-02,5.762949219159445649e-03,-6.216484598738615530e-03,3.217855989933013916e-01
3.800005666137780125e-01,2.282648335234820081e-01,-2.599619271210512617e-02,-4.852384616804347045e-02,-1.152687381196878212e-02,-3.365474780557409923e-02,3.702878654003143311e-01
3.220598778904937287e-01,2.591549960101591776e-01,-1.031322105178880677e-02,-3.624858467942139451e-02,-6.901702047365598433e-03,-4.393120950318863023e-03,3.125118911266326904e-01
3.100046768422609622e-01,3.020233998810197829e-01,-2.221482080290060335e-02,-8.401196224090685949e-02,-1.576792209167096268e-02,-5.966592426874577949e-03,3.602896928787231445e-01
3.290616789014426669e-01,2.603078880711969800e-01,-1.654662734498546506e-02,-2.864694023444774168e-02,-6.508221504576432517e-03,-3.559347662162354060e-03,3.209942579269409180e-01
3.340446307909534784e-01,2.185605690346952290e-01,-1.178551094421384504e-02,-9.830521463895382228e-02,-5.008314178175844343e-04,2.650132816217833694e-03,3.493003845214843750e-01
3.327429277056997425e-01,2.602025203294796585e-01,-1.351480023180434697e-02,-1.456529584281786652e-02,-8.620731324130588222e-03,-1.100425744360973568e-02,3.182161450386047363e-01
2.323288608475962969e-01,2.948361408101141112e-01,-9.141594654393675468e-02,-1.509811981504352862e-01,-1.142724193004684106e-02,-4.131822858053261355e-02,4.503926932811737061e-01
3.409146372517381507e-01,2.756248131398820189e-01,-2.698963395296552492e-02,-5.812204965229335329e-03,-6.119956679354525940e-03,-1.229667150291309172e-02,3.409739434719085693e-01
3.304773157149382135e-01,3.307300596655000091e-01,-4.709003658914523438e-03,-4.945072646683641704e-05,-3.102290660907499470e-03,-4.548612070097487331e-03,3.354483544826507568e-01
3.315329110132176904e-01,3.455803354240505332e-01,-1.209978153674018397e-03,-2.033214405407521991e-03,-7.858490483969833920e-03,-2.227243417100040982e-03,3.402967751026153564e-01
3.328921258701680319e-01,3.437403976026565111e-01,-7.664473944830302310e-03,5.261536894516450312e-03,-1.916667575458493727e-03,7.085569073849619023e-03,3.464615643024444580e-01
3.295303378053827670e-01,3.851630819509745951e-01,3.409082999970078354e-02,-3.481049540508230136e-03,-1.213965494966784582e-02,-4.540600913688165596e-03,3.276521563529968262e-01
3.510866011330884828e-01,3.409748116737837953e-01,1.070607066308326694e-02,-1.833743060180958312e-02,4.710611870030891046e-03,-1.309692743089427291e-02,3.378005921840667725e-01
3.225957853923463459e-01,3.274584115165614651e-01,6.314978960971082134e-02,-2.881889551917539774e-03,-3.244179277817389132e-03,1.655584490536964873e-03,2.620346844196319580e-01
3.287509352421162934e-01,2.487192655109296546e-01,-8.060568973310061613e-03,-1.565033347326085997e-02,-2.574668032526699225e-03,-5.791560887688167696e-05,3.060166239738464355e-01
3.288954919094740359e-01,3.241302819854910422e-01,4.997464992897657221e-02,-1.548863118643335323e-03,2.923050828740756963e-03,6.332825055891678698e-03,2.768457531929016113e-01
4.044073816720261672e-01,2.093988743475065084e-01,-3.544000107831779545e-02,-6.576348007688041786e-02,5.135709293871641885e-03,4.080208824457712269e-02,4.046827256679534912e-01
3.629035029002716239e-01,2.333735766020764713e-01,-1.521191131429464050e-02,-1.049940444664431045e-02,2.917746084856969683e-03,1.459939306514383868e-02,3.343167304992675781e-01
3.116353976225378908e-01,1.760874326930612077e-01,-1.927514745127478779e-02,-1.682110012459947512e-01,3.500534632274442028e-03,1.670841809902050973e-02,4.108282923698425293e-01
3.764420639335850916e-01,2.054211134669944039e-01,-8.261853502531307791e-03,-1.149936042934834131e-03,1.390702425696641736e-03,5.447295224029495044e-03,3.339934647083282471e-01
3.779431094284224080e-01,1.646630834912340968e-01,-1.163436432786579822e-02,4.946206967917894139e-03,2.276858884540097945e-03,3.150561657467378356e-03,3.380659818649291992e-01
3.611913016566310475e-01,1.660821379489362259e-01,-1.496842857211672095e-02,-1.069400427326830660e-01,4.413295596206741334e-03,-1.015271542469316397e-02,3.752968311309814453e-01
3.629406971468653875e-01,2.165940817966293952e-01,-6.534427980982193684e-03,-1.659323939666812551e-03,7.264686021032720070e-03,5.640291163447473839e-03,3.226759731769561768e-01
3.741900925949935286e-01,2.165007638954656588e-01,-8.951373241367521771e-03,3.537791651845431998e-03,2.783001453938553638e-03,4.215768844772853612e-04,3.336274921894073486e-01
3.317784051509469201e-01,2.597389977911096492e-01,-7.617078973002899822e-03,3.666448234180838539e-02,1.867573390883324165e-03,-2.442349947872011692e-03,3.162124752998352051e-01
4.178735394349012977e-01,1.510832482425579215e-01,-1.752910091352186117e-02,3.491243912922218501e-03,1.643956319002883590e-03,1.609894465721515991e-03,3.803206086158752441e-01
3.325933510636583379e-01,2.664857029234113384e-01,-9.913645417231414791e-03,-3.569989671708652390e-02,2.687762508351656133e-03,4.850374700548583731e-03,3.208654522895812988e-01
3.544786006248409338e-01,3.263287275310784441e-01,7.038890108593368056e-02,-3.025427908518645102e-03,1.006793620976653182e-02,-1.847820741433781359e-03,2.717426717281341553e-01
3.077612318243906908e-01,2.957209592625847927e-01,-1.297463401003778882e-02,-1.742123528593344031e-02,4.043427081545105349e-03,4.044325102292079845e-03,3.164859116077423096e-01
3.252374727428007928e-01,3.259594966141882710e-01,1.748963683565932237e-02,-1.425264345065799590e-03,-3.494105677950667781e-03,1.484021597350248774e-03,3.081895112991333008e-01
3.265182333669828241e-01,3.179304706593047425e-01,6.461996100334069237e-02,2.250329928704896103e-03,4.725837542114557331e-03,-1.197496498782795382e-03,2.578794956207275391e-01
3.696355181163016312e-01,2.123370751287928793e-01,-7.766054804137306755e-03,1.492113817343740855e-03,1.083937994703106870e-03,-1.590489555480107656e-04,3.283600807189941406e-01
3.626939716018608983e-01,2.137873560194288314e-01,-8.474456619382481071e-03,1.320405701132831150e-02,5.536721215088546890e-04,-6.835102640771922519e-03,3.245517909526824951e-01
3.492622631368848540e-01,2.178717168717895780e-01,-6.522865427030788421e-03,2.641111569350551580e-02,-4.064629020364226089e-03,3.676529258461578957e-03,3.150912225246429443e-01
3.227427998045434010e-01,2.758957930599342800e-01,-9.101559801735770172e-03,-6.964642942820387789e-03,-3.494976890199567605e-03,-3.006784344628565461e-03,3.114140331745147705e-01
3.758188063891259034e-01,2.072182615244903270e-01,-7.485346130414100019e-03,-2.198773837990106346e-03,-2.387523344921371206e-04,-2.904024548973208313e-03,3.328106105327606201e-01
3.787896285444537492e-01,1.718543745940437351e-01,-8.720428323382101166e-03,6.547697791910141521e-03,-5.446970915195460303e-05,-3.427404347459148039e-03,3.360961377620697021e-01
3.321973617360881592e-01,2.247097221579714144e-01,-1.518494448366003446e-02,5.738761622944507645e-02,-7.850435939162025284e-03,1.372901483021923830e-02,3.248370587825775146e-01
3.307944369247671768e-01,2.445940800352631728e-01,-6.169529675360663212e-03,1.465485467473329195e-02,-1.704528361634379636e-03,3.122257189101943116e-03,3.043206632137298584e-01
4.112662050073048192e-01,1.853147947502109261e-01,-1.476210811270212142e-02,3.592963073583038680e-02,-4.135931651616381322e-03,-9.675971534652398100e-04,3.744588196277618408e-01
4.550185970475032482e-01,6.163496786750810585e-02,-3.400027177773884413e-02,-2.142558695094730695e-02,2.734285976007394406e-04,-1.929168436459290786e-02,4.516769051551818848e-01
3.241936678113552794e-01,3.244999645745993977e-01,-3.527776924750519738e-02,6.606809635185660091e-04,-6.898886501300575827e-04,-9.133234116211067302e-04,3.596319556236267090e-01
3.224134013475890570e-01,3.286541895303083383e-01,-3.411041181705271041e-02,9.564045084076537584e-04,-1.262831596878148102e-03,-2.535116409600103420e-03,3.597220778465270996e-01
3.222517815962223642e-01,3.225219260454310621e-01,-3.546276386035776551e-02,7.564933930037182281e-04,-2.464030706077811970e-04,-8.959930569254788554e-04,3.578557074069976807e-01
3.233747523494912013e-01,3.241703797662359721e-01,-3.567534511803621688e-02,2.577272401421019173e-04,-5.200681651799202469e-04,-1.083532910739875340e-03,3.594548702239990234e-01
3.921311914943835797e-01,2.786905646365545608e-01,-2.858982595039477603e-02,2.693920304795691112e-02,5.845847645239024039e-03,-1.798433238976051077e-02,3.813109993934631348e-01
3.805080182970949076e-01,1.788978958048478285e-01,2.822615240799400405e-02,1.693194199070327879e-02,9.303931475827972170e-03,-5.811051056328817022e-02,3.239997327327728271e-01
3.806797140943551927e-01,2.915918309150971055e-01,-2.791990845992822767e-02,-2.416633834983302614e-03,-2.295508750239433002e-03,-2.767523223541950086e-02,3.752600550651550293e-01
3.740915708077469093e-01,2.872384728088541173e-01,5.621914621519755184e-02,-1.343464804505834984e-02,9.380290728471895115e-03,-5.445202524327845406e-02,3.011289536952972412e-01
3.355976444272716352e-01,3.356637571180773882e-01,2.236914481598623050e-02,-1.251655525979363491e-02,3.798493888927803770e-03,2.278414154717132989e-02,3.165492713451385498e-01
1.127532353014185085e-01,4.887234559281394275e-01,-2.599856196057931390e-02,7.794641738981290813e-02,-5.236077603221572091e-03,-2.921102877861918301e-02,4.833644926548004150e-01
3.513897574400370316e-01,3.796602212352990224e-01,1.321551854732064268e-02,1.807304386713648112e-03,5.545315761873565417e-03,1.213950826490067803e-02,3.539287149906158447e-01
1.833721039221178628e-01,4.089959350864157406e-01,-2.412574858585289639e-02,2.932360033130289919e-03,1.007467363704212665e-02,4.841465892094757965e-03,3.757373392581939697e-01
2.469990489003164313e-01,3.618871947826443614e-01,-2.234368146027262969e-02,-1.278273794457236712e-02,-3.420960839903115086e-02,-6.428748374653597396e-04,3.474066853523254395e-01
3.942444215662861406e-01,3.707367818368662027e-01,1.414536642312169690e-02,-1.265203436325353786e-02,1.771100332676722039e-02,-6.421082939632134301e-04,3.708303868770599365e-01
2.148059058339364669e-01,3.910187063519393602e-01,-2.401602848496928178e-02,2.763045237429983397e-02,2.588724190601667668e-02,5.838441134800638303e-03,3.668424487113952637e-01
1.668365229071025191e-01,4.577500227071295003e-01,1.057589908175171622e-03,1.263981998136543689e-02,-6.311766949621255840e-02,-2.916815699423563890e-02,4.187168478965759277e-01
2.184084802271132331e-01,3.697857617834165445e-01,-9.649547634258431872e-03,-7.563161871582476867e-03,-5.754192747601939543e-03,-2.548778888659051535e-03,3.312684297561645508e-01
4.104868850468714747e-01,1.421752779808244105e-01,-1.018071102071737566e-01,-7.778637271059807290e-02,-3.043924508944229751e-02,-8.235991519042583017e-03,4.670301079750061035e-01
4.098704124743483557e-01,1.178826410150890791e-01,-2.891080562502029716e-02,-7.856055884115976939e-02,-1.142485528104373801e-02,-4.776376322446717476e-03,4.106608927249908447e-01
3.247012414606137432e-01,2.638349290727175500e-01,-1.366989818885755437e-02,-3.151885046780542043e-02,-9.236393649714947501e-03,-1.044300996989439533e-02,3.180687725543975830e-01
3.281028404983529212e-01,1.786583400076461603e-01,-2.141714070205022469e-02,-1.326413424699283139e-01,-1.259933088574528544e-03,8.630454095187643868e-04,3.808571994304656982e-01
3.253497164740239422e-01,3.289682320903181134e-01,9.682426071370098253e-03,1.457654358584342842e-03,-7.438110167183768946e-03,-3.703221612935356580e-03,3.178280591964721680e-01
3.311000908655931108e-01,2.573318389418404739e-01,-1.559522308548230707e-02,-1.230574984512696965e-02,-7.739726655239051109e-03,-9.391742407242813923e-03,3.177466094493865967e-01
3.604866476180114132e-01,2.528769990798490075e-01,-1.824200048132343377e-02,5.394285344443869659e-03,1.442510445138896159e-03,9.842708454653812788e-04,3.381668329238891602e-01
3.426422517831494430e-01,2.537127407380048161e-01,-1.526645749058516688e-02,-5.565059977139159321e-03,-8.143902341708164974e-03,-8.989861005813844230e-03,3.235935568809509277e-01
3.556274672993064989e-01,2.322464667147588480e-01,-1.074809595893802538e-02,-8.938532590033333725e-03,-1.965417829676865090e-03,9.227444910730396273e-05,3.232668340206146240e-01
2.886204799548904854e-01,3.033581193113439323e-01,-2.945455018826259597e-02,5.183310372737114091e-02,2.586348113545534205e-02,-2.089527772641026210e-02,3.427144587039947510e-01
3.104846709703479313e-01,3.155081823555483389e-01,-2.629413154908655237e-02,5.811404690364527746e-03,6.547750597360198384e-03,-6.368321940366203013e-03,3.398361504077911377e-01
3.200091585235652070e-01,3.004897531557686463e-01,-8.257999644743857504e-03,3.363428909817728352e-02,1.408734010581591707e-02,-1.289450405345482845e-02,3.259151875972747803e-01
3.201869775858728895e-01,3.019365524596143158e-01,-7.706210739735180892e-03,1.280422122919128991e-01,2.457754060062928778e-02,-3.144410255639097651e-02,3.947475254535675049e-01
2.249665956442409298e-01,2.917491826689638801e-01,-1.621427079853046682e-02,1.404516966106124087e-01,2.207168418357226269e-02,-9.868207226129091514e-03,3.737224340438842773e-01
2.253310459797862042e-01,4.091015657965026975e-01,-9.906699113465256001e-03,1.174279052651260868e-01,5.327897928694733110e-02,-1.098745534615148262e-02,4.272987544536590576e-01
2.993746916223865573e-01,3.784922373194549161e-01,2.907821567711521560e-02,2.818887108794680685e-02,3.378803546139407671e-02,8.224583788705988260e-03,3.266751170158386230e-01
3.234432943418671380e-01,3.363890580771936589e-01,1.122201646296488997e-02,1.413099743162424520e-03,6.527865300091151464e-03,-2.602523870491372810e-03,3.191328942775726318e-01
3.104916347761897955e-01,3.101729991543217269e-01,4.382856729541120822e-02,-7.081704972672987763e-02,3.706791672830928031e-02,4.859880354437952354e-02,3.118927776813507080e-01
3.343602703778447705e-01,3.289140770862714058e-01,1.607223853072636821e-02,9.822725739448425700e-04,6.939109050226548343e-03,-1.834611161239078827e-03,3.158495128154754639e-01
3.228954856472068258e-01,3.444829143181480369e-01,3.197989990691652018e-03,-6.981533920367141710e-03,-3.365309957082220256e-03,9.469531545797071328e-05,3.312916755676269531e-01
2.578601591077490651e-01,3.303419532580896822e-01,-8.513865847792401187e-03,1.552445190150547258e-02,5.609874853256643229e-03,-4.089197878516318864e-03,3.104570806026458740e-01
2.335127422370211203e-01,3.508586461216305352e-01,-1.033402960253640424e-02,4.011618689657001080e-02,9.145991050066557687e-03,-6.976083064332098786e-03,3.272164463996887207e-01
2.086536889218388591e-01,3.608865298642235375e-01,-7.530888080535008688e-03,3.268399207742955087e-02,-5.312199050772495670e-03,-7.357732779406509676e-04,3.257483839988708496e-01
3.538497001453946300e-01,3.352888556879166648e-01,3.636460927592971570e-02,1.545245933449430203e-02,-5.541409813708580295e-03,3.304288134233931105e-03,3.099834024906158447e-01
3.577088733836811807e-01,3.622412323785348387e-01,5.145668055361232729e-02,2.065692689184149035e-03,3.182144535687880370e-03,-1.453485670092885367e-02,3.096384406089782715e-01
3.270100119366915470e-01,3.280611969434252262e-01,-1.040497614440599738e-02,3.910660535418048053e-04,3.897759651393820600e-03,6.604491559295566118e-04,3.380118608474731445e-01
3.137948607041850524e-01,3.808457142717530663e-01,-2.147693398210381854e-02,1.801332292446208849e-02,-1.482486122076566264e-02,1.787968957550556057e-02,3.767957985401153564e-01
3.273781106251848483e-01,3.283356420042954360e-01,-1.115560899593154298e-02,-1.333124229204197490e-03,1.884887723004706689e-03,-2.149701586298962894e-03,3.390575349330902100e-01
2.867394119865625535e-01,4.191993093658185621e-01,2.774856010779674920e-02,-3.496860186344824539e-02,-6.482146194313788412e-02,4.322872345087693836e-03,3.677740097045898438e-01
3.137814758757198619e-01,4.547487164081113198e-01,4.740580278881789678e-02,5.668449993803084674e-02,-4.225906566979177603e-02,7.240134398826978020e-03,3.788563609123229980e-01
2.256511678255730402e-01,3.991579556139531748e-01,1.178512735358869246e-02,3.785646141362179751e-02,-5.777274738887296091e-02,-7.132339912323697184e-03,3.569531142711639404e-01
3.311203014622784435e-01,3.567971825762103477e-01,4.015248293979867267e-02,4.228078100153274954e-02,-5.197809332273363447e-02,1.666778555637107341e-03,3.259896039962768555e-01
3.256977965650333373e-01,3.204266369201703157e-01,-2.909537060154371302e-02,-2.730482631661509344e-03,-5.744483273764837937e-03,-3.092967907573858366e-03,3.524001538753509521e-01
3.182743379980358389e-01,3.083888300248738279e-01,-2.702288057928001197e-02,-5.667228225192614405e-03,-7.133465071060942145e-03,-7.023857277927650182e-03,3.410446643829345703e-01
3.195074678681225633e-01,3.186346183930847120e-01,-3.196057662975501645e-02,1.016070419311708830e-03,-2.696498647669742788e-03,-4.062094734746049952e-04,3.510686159133911133e-01
3.079306056707431516e-01,3.208843179418732205e-01,-2.517457675161677289e-02,-5.765755543385718378e-03,-4.299822177119763320e-03,-7.462428564443126904e-03,3.402411937713623047e-01
3.202488227722861680e-01,3.212452453153551435e-01,-3.381275527352151089e-02,-3.726250771627303789e-04,-1.086864779479051937e-03,-1.467701412831117673e-03,3.545755445957183838e-01
3.202016546927370921e-01,3.204700472482678864e-01,-3.386555203447386142e-02,-2.309751897385798995e-04,-1.513759030458288390e-03,-1.290354241151113902e-03,3.542184531688690186e-01
3.132207470293169038e-01,3.197123290021788300e-01,-2.900345553382921437e-02,-7.475190061289932377e-04,-2.686737365318801057e-03,-3.577475801961958746e-03,3.456050455570220947e-01
2.879512416858358570e-01,3.260063931512121593e-01,-2.514918677847158279e-02,-4.765977023355063777e-03,-7.697690500367490585e-03,-1.032701628578707072e-02,3.346057534217834473e-01
2.520370555702012294e-01,3.508269403751336224e-01,-1.634784814056333691e-02,-1.377385944284463190e-02,-1.255074799861811106e-02,-3.820884636365380616e-03,3.307402729988098145e-01
3.143428228754145959e-01,2.976551296601810948e-01,-1.443069471931954229e-02,-1.498785341097341045e-02,-8.625211555950884970e-03,-8.944834381242871071e-03,3.225231170654296875e-01
2.452961878311108179e-01,2.154040572948890397e-01,-2.687599722623035259e-02,-1.880372926014212132e-01,1.027407984447392675e-02,8.151168719039220828e-03,4.164438545703887939e-01
2.117089062722629922e-01,3.383236634762453177e-01,-4.326498681046125894e-02,-1.945383134364139510e-01,3.280426466298872693e-03,1.945512875320578542e-03,4.763460457324981689e-01
3.274551405830211648e-01,3.155318826524553533e-01,-3.033579713631429087e-02,4.469852137039323318e-03,-5.571536001919010286e-03,5.189600812644390090e-03,3.523128628730773926e-01
3.274148472545945765e-01,3.234081144229800087e-01,-3.368637575267377504e-02,3.721148490369242576e-04,-2.796140561948923502e-03,1.765759201394230277e-03,3.591608703136444092e-01
3.276092055405563919e-01,3.186234759333162470e-01,-3.397906339705292211e-02,6.978317766481439022e-04,-2.776780742722490241e-03,2.448997433978781363e-03,3.572397828102111816e-01
3.253656058471764423e-01,3.225740859298213969e-01,-3.462019192090409758e-02,-4.792735780156154096e-04,6.831819807612756769e-05,-4.128696837518849253e-04,3.585998713970184326e-01
3.271207147178262220e-01,3.257245284138950425e-01,-2.734197262566490094e-02,-1.402378591584509593e-03,-2.212206186841781611e-03,-2.679293036954953763e-04,3.537960648536682129e-01
3.251624071796729853e-01,3.252213492623703406e-01,-2.801465768809821566e-02,-2.010488862833774616e-05,-1.166052687468101647e-03,-1.096955831485220889e-03,3.532174229621887207e-01
3.285440514761051589e-01,3.247852751830843654e-01,-3.262777601745145417e-02,-1.497381628649593422e-03,-2.748757902738149100e-03,1.895403760395781862e-03,3.593630790710449219e-01
3.272694242929431452e-01,3.234552137665439586e-01,-1.328148771757634017e-02,1.725320666868126497e-03,1.616993752612499828e-03,-6.546738748721764789e-04,3.386865854263305664e-01
3.215274677926748259e-01,3.085949105151277183e-01,-2.724979321258724774e-02,2.492314427296664012e-03,6.209088445489797589e-03,-1.149635264347695623e-03,3.426959514617919922e-01
3.223886832444726180e-01,3.267162767636521137e-01,-3.384134781765119060e-02,-4.076159281129972155e-04,3.117402845204156575e-04,-1.643416429612104762e-03,3.584258258342742920e-01
3.146945505757421935e-01,2.792535710785728487e-01,-1.587250614889687550e-02,8.828095434431621966e-03,7.022865710612975244e-03,-5.736643080178281152e-03,3.151119053363800049e-01
3.526972592555607244e-01,2.694717241046147849e-01,-2.887807842725742535e-02,7.985845682188682376e-03,2.901762182011400747e-03,-4.152214135263597623e-03,3.479047715663909912e-01
2.416075426949296223e-01,3.397648557151650706e-01,-1.442336121756102041e-02,4.426266919455482812e-02,-1.758698621921525942e-02,8.401824134040442385e-03,3.276205360889434814e-01
3.124888274692820822e-01,3.060503254537856321e-01,-2.493322893343921653e-02,5.201317303935358224e-03,5.477421316000514497e-03,-4.357826692143528663e-03,3.345904052257537842e-01
3.026528379990349737e-01,3.134337569272580559e-01,-2.066183455443165728e-02,6.491153772330353691e-03,5.002243127622684957e-03,-5.994785088997081277e-03,3.293076455593109131e-01
2.966409404546392903e-01,3.039829608587815146e-01,-1.337211251260184142e-02,4.345623685190515284e-03,1.782591398358094161e-03,-3.329134689266930076e-03,3.139069080352783203e-01
3.142637910944288127e-01,2.903303456202979138e-01,-1.727184745237905772e-02,8.316189501416498472e-03,6.142620881891786705e-03,-5.440895408650059818e-04,3.207420408725738525e-01
3.314982881140789428e-01,3.236722622604317201e-01,3.554031506320620704e-02,2.125414591834183173e-03,-2.834627459330276225e-03,-1.700542650779716773e-03,2.922028899192810059e-01
3.293603743191516053e-01,3.431352132583860293e-01,5.786967578833038250e-02,3.936766863799111087e-04,-9.079201742031690284e-04,1.740200434473909707e-02,2.802643775939941406e-01
3.291924657617555372e-01,3.258116578951325004e-01,5.285729500799987712e-02,2.099550317299313067e-03,-1.652041147234778007e-04,1.257827940472507761e-02,2.755472064018249512e-01
3.296254503997892993e-01,3.263836336831331675e-01,2.584891734483715786e-02,1.303364465286795202e-03,-1.218198742971972120e-03,-4.963490586678437691e-03,3.023067414760589600e-01
3.294826778810581724e-01,3.248289129360705796e-01,4.015690562579798950e-02,1.007461186438370678e-03,-2.750826837754850786e-03,7.336532566010128299e-03,2.873531281948089600e-01
3.276526417148892811e-01,3.279738227079570523e-01,3.745397024643382089e-02,-2.939793308459448529e-03,-1.405273772595083464e-03,1.898312614170324930e-03,2.904328405857086182e-01
3.282781184737535440e-01,3.284222100040973813e-01,-1.184736509240988389e-02,1.588601399766290199e-03,-1.041965208786474299e-02,2.028448920491377101e-03,3.407051563262939453e-01
3.601920850173779831e-01,3.599136761095549364e-01,4.680399529455439578e-02,-7.450310259823256578e-03,-1.232136667242440288e-02,2.056484337113529716e-03,3.142603635787963867e-01
3.252613738636410678e-01,3.247869140981582969e-01,1.490875603452845866e-02,9.695256510600771052e-04,-7.341462089590088808e-03,1.568133512675372841e-03,3.103926777839660645e-01
