sxx,syy,szz,sxy,sxz,syz,smises
5.324075154058123260e-01,-1.425757630475416038e-02,-4.114777144260117758e-03,-6.067476385391927171e-03,1.936845299345543552e-03,3.482932649429359290e-02,5.451255440711975098e-01
5.557539642181014150e-01,-3.987932278801786801e-03,-3.366558477692560558e-02,4.821613614499621094e-03,-9.831374416831375768e-04,2.963598859509281036e-02,5.775042176246643066e-01
6.022354973374650644e-01,-1.657900912515697378e-02,-1.939056736744698695e-02,-3.918107226644246266e-02,-1.070207415452897708e-02,2.997491907196191130e-02,6.263574957847595215e-01
5.891347895814603719e-01,-4.703564384218095196e-03,-2.496901730827005839e-02,9.653330024663106523e-03,1.917465637901626802e-02,3.964912139130647578e-02,6.092518568038940430e-01
5.636102723070895992e-01,-1.511969379565691884e-02,-1.500839765758185673e-02,-2.995672474650798271e-03,-8.262132788743993886e-03,3.252269536931264027e-02,5.816088318824768066e-01
4.986182776529872740e-01,-4.872607563264205743e-02,-3.052288098683625384e-02,-2.862346629013418770e-02,-7.334896494633636604e-03,-1.190049396899409140e-02,5.412928462028503418e-01
4.711747037777112013e-01,-1.780412151641133645e-02,-3.691293218313990154e-02,-4.198002108959888318e-02,-3.638564190904633629e-03,2.907775553879491021e-04,5.041192173957824707e-01
4.713391623826836963e-01,-3.857863637747180330e-02,-2.251625730042913776e-02,-3.782081543367993293e-02,-3.786437649091873702e-03,7.935641304008879057e-03,5.065637826919555664e-01
4.998854922197558115e-01,-5.545222271562932903e-02,-3.222938079533457789e-02,-2.515691204861540686e-02,-9.368107127370340487e-03,-8.595681231542529055e-03,5.462840795516967773e-01
4.999472100259414464e-01,-4.459243266344412038e-02,-3.347261569422016469e-02,-1.623082145030549719e-02,-5.587281226398170542e-03,-6.211941799926378079e-03,5.399922728538513184e-01
4.256343033925562569e-01,-3.906701591504246895e-02,-2.416055660220586820e-02,-3.103320661718908871e-02,-6.319981001413969325e-03,-9.073779892855423843e-03,4.609755575656890869e-01
4.707073336705287492e-01,-5.255716914689589903e-02,-3.582239983966070684e-02,-3.694507060878314542e-02,-5.613138754791326124e-02,-2.096188106294936092e-03,5.280996561050415039e-01
4.755216051731158133e-01,-5.182818950964973581e-02,-3.206101795645630026e-02,-4.245434393537859952e-02,-1.182375068983308221e-02,-5.312533210117167948e-03,5.234267115592956543e-01
4.752810374753744238e-01,-5.696235142376213090e-02,-2.234175129843671281e-02,-1.514012212543284705e-02,2.565085026027305571e-04,-4.011695453201938669e-03,5.165182948112487793e-01
5.018287616243003457e-01,-5.564001769589418944e-02,-3.317696294002134283e-02,-2.519242807324809097e-02,-1.001903238655372542e-02,-8.344129689377945830e-03,5.487873554229736328e-01
4.513826673647812759e-01,-4.175149610193343297e-02,-3.293110473472113386e-02,3.916570937724443702e-02,-2.782171057502873246e-02,8.802212055161880502e-03,4.960502982139587402e-01
5.166605766947565126e-01,-4.667558435026294972e-02,-3.650829556598181314e-02,3.164823777374052571e-02,-2.647407406405736813e-03,1.040635245891470724e-02,5.613146424293518066e-01
5.220244347415883279e-01,-3.809673939530872078e-02,-4.070457937801069681e-02,1.034151610494394094e-02,6.729411853182144972e-03,-3.645935171741815427e-04,5.618365406990051270e-01
5.000849942388929659e-01,-5.030346435326918386e-02,-3.505138713942168582e-02,3.725057388417581453e-03,-7.995946071746229053e-04,3.118847208433746070e-03,5.429900884628295898e-01
5.267750966265856150e-01,-4.605305283146238216e-02,-3.915977499741288281e-02,1.831239514860132089e-02,2.254479070380696702e-03,-8.529994559185368743e-04,5.703107714653015137e-01
5.260168358098142871e-01,-4.525212249704874123e-02,-3.674375070749771877e-02,1.838020469221080325e-02,-1.341138714809868705e-04,3.381209439854003084e-03,5.679858326911926270e-01
5.113846315229895190e-01,-3.163605836890617806e-02,-3.684564685287433639e-02,1.226129515201533973e-02,-9.011810191527626314e-04,2.178662799828326013e-03,5.460725426673889160e-01
5.136711608233592852e-01,-3.749749058650045375e-02,-3.767343138921455670e-02,1.112121208725089412e-02,-2.707120998819605509e-04,-6.987484068137879640e-04,5.515946149826049805e-01
5.435197958366997373e-01,-7.220944464146117348e-03,-3.006242495037592111e-02,-1.698338364630192117e-03,-8.833913512352283741e-04,-1.072165786845539169e-02,5.628256201744079590e-01
5.367965707872361936e-01,-2.522658591097498570e-02,-2.498197447025418683e-02,-2.249581699838551323e-03,1.145111949481074018e-02,-1.500416420116188962e-02,5.628646016120910645e-01
5.506953418730676786e-01,-2.416838375970045694e-02,-3.148521076693774901e-02,1.090187710741728072e-02,-8.583001589133904680e-03,-2.155138273594348064e-02,5.802576541900634766e-01
5.750045474125804468e-01,-2.686176047749197493e-02,-3.167064865087620973e-02,4.776693518476864131e-03,1.007536469726737043e-02,-3.023286670550713595e-02,6.068571209907531738e-01
5.341500532879718266e-01,-1.441238063656877233e-02,-3.362144417104934169e-02,-2.622895681226140689e-03,2.345425017012054032e-03,2.930240394036775619e-03,5.584711432456970215e-01
6.096437600529545087e-01,-1.633373382307909405e-02,-2.347956468574671773e-02,2.216072372188615460e-04,-4.229682681322460814e-04,-5.422018729012882676e-02,6.365470886230468750e-01
5.276158366434640090e-01,-1.589410037098146211e-02,-1.961931618964993240e-02,-7.185875763348232052e-04,-6.880628361368839327e-04,6.979750138612304637e-03,5.455187559127807617e-01
5.568123370752048329e-01,-1.564940455442898060e-02,-2.925740531107290376e-02,1.114615815337809861e-03,1.191373729683764060e-03,-3.730104147157279476e-02,5.829834938049316406e-01
5.444207306524997403e-01,7.794099880281124548e-04,-2.975766100490748189e-02,7.317938508605059721e-05,6.122543093413796052e-03,-3.273855059003170920e-02,5.625011324882507324e-01
5.283666614010888996e-01,-3.958088058103814699e-02,-5.093559012089238225e-02,-7.253130892111336187e-03,2.283966576292124906e-02,-2.894233768936099651e-03,5.752304792404174805e-01
4.715401125885916311e-01,-3.225089382813906003e-02,-4.927926638803301063e-02,-1.844650464354280830e-02,1.321910492189796657e-02,2.641324900687186308e-03,5.140428543090820312e-01
5.059767940084927140e-01,-3.320122871302366718e-02,-3.983499536282880671e-02,2.624466621910192393e-03,9.536123010755410967e-03,1.730049671514484206e-03,5.428040027618408203e-01
5.200713823989039364e-01,-4.053912459110053934e-02,-4.087062211698744285e-02,-5.959599753008300131e-03,8.824994764574316253e-03,9.512106873597644518e-04,5.610820055007934570e-01
5.343008882942301696e-01,-4.734215783503964436e-02,-2.595839268291236235e-02,4.971253032093062713e-03,1.390724599176123948e-02,-4.855860155982781416e-03,5.718857049942016602e-01
5.304214517019247843e-01,-4.935192120182277375e-02,-4.465782845266094703e-02,8.636034267503116615e-05,2.758282831360714567e-03,1.274792997297734482e-03,5.774646401405334473e-01
5.405678793004349281e-01,-4.017086389222659926e-02,-3.783796265632768940e-02,1.198348623935761165e-02,1.635668670440628206e-02,-1.323856052322817511e-03,5.806434750556945801e-01
5.371963848807475017e-01,-3.132857119618379094e-02,-3.591302890293288086e-02,-4.540797676606690009e-03,-5.816394037285452408e-03,3.609109536497492367e-03,5.710082650184631348e-01
5.441061094471965065e-01,-2.574383676388725117e-02,-3.340169837419648680e-02,3.700479286732008804e-03,3.183495199995538955e-03,8.074916366634779519e-03,5.739499330520629883e-01
5.229922628433566478e-01,-2.181557468783351661e-02,-1.578341187135076651e-02,-9.719936014625384004e-04,-1.730338809937813263e-04,1.179037754113654085e-03,5.418235063552856445e-01
5.183323322206052630e-01,-3.647184682527668254e-02,-4.669556300302715734e-02,9.050465837808632308e-04,5.508119125645183183e-03,2.338718047391532152e-03,5.600841641426086426e-01
5.419769690464685263e-01,-3.560491739874066530e-02,-2.789451779493926087e-02,-1.882269574276787798e-03,-1.622476491818932451e-03,5.340329143995471359e-03,5.738562345504760742e-01
5.434850660109415976e-01,-3.719143192697127454e-02,-3.185407905007142659e-02,-3.020548635758401289e-03,5.925706470018468792e-03,9.637109781359004881e-03,5.783820152282714844e-01
5.438282512538794577e-01,-9.287526034645499085e-03,-4.634740983807564274e-02,2.613896806700142551e-03,6.135264281106208271e-03,8.281711783639152460e-03,5.728421211242675781e-01
5.356197796828527924e-01,-2.707553393837100475e-02,-4.478252927150780383e-02,-1.621203631434753670e-02,6.783833736086413574e-03,5.227847935149381418e-03,5.726357698440551758e-01
5.193285918299569426e-01,-2.886354870450735799e-02,-4.349619478015706586e-02,-3.137501801115823424e-03,9.390214612931277807e-03,1.395039305777137379e-03,5.559228062629699707e-01
5.536023692723106571e-01,-1.716469862593994478e-03,-6.046559121400374437e-02,-3.683306352949815288e-02,2.883864364843633909e-03,3.271164576975600993e-03,5.904083847999572754e-01
5.375744723622809529e-01,-1.899767069410829290e-02,-5.469447778918015701e-02,-1.033593140401743195e-02,7.127597675113176573e-03,-3.332785266770350494e-04,5.756630301475524902e-01
5.237457167652829204e-01,-3.796364022267434413e-02,-5.674561593351512556e-02,6.804560121089904784e-05,2.178216318591848829e-03,2.071650481679134046e-03,5.713556408882141113e-01
5.218044515313507992e-01,-8.905009869800750710e-03,-4.914364888370895135e-02,-1.832634079545429270e-02,9.228244803238958016e-03,7.843516528234794911e-04,5.530746579170227051e-01
5.387656126854376559e-01,-3.255645480724461693e-03,-5.142388099398464973e-02,-3.008424079841547777e-02,5.842322267392148841e-03,3.603096127871894573e-03,5.701508522033691406e-01
5.440933431835126566e-01,-2.084810184383409370e-02,-5.052411037975440555e-02,-1.268715890677679127e-02,1.091485621857674840e-03,8.729192798173693573e-04,5.807697176933288574e-01
4.897913713822182880e-01,-3.477609298626899159e-02,-2.871152417384734146e-02,1.120368032628760689e-02,7.351907334703548270e-03,-4.912764715746548855e-03,5.221471786499023438e-01
4.448701132494402577e-01,-3.326989378988777502e-02,-3.914735573460219331e-02,4.932519844047231899e-02,3.874955193010784504e-02,-7.212061897784078929e-04,4.932217895984649658e-01
4.916177563884368551e-01,-3.590350552033141907e-02,-3.180653317120990531e-02,1.209487446381042955e-02,1.021225458492313817e-02,4.474037343754157562e-04,5.262001156806945801e-01
5.726025343472349594e-01,-3.740352799978044485e-02,-4.630973852242215028e-02,2.349744441433563799e-02,2.340667716629597425e-02,1.100306076590478865e-03,6.171897649765014648e-01
5.554572757829118190e-01,-2.388748479794705615e-02,-4.387589493793492279e-02,1.070489919272620168e-02,1.132664503079337109e-03,9.969676236232957039e-03,5.901405811309814453e-01
5.474086001999269868e-01,-4.395619280950002761e-02,-5.017729507514401277e-02,2.991662205985408732e-02,1.049805666234814548e-02,-4.519246522605929219e-03,5.970819592475891113e-01
4.574309616283884772e-01,-1.901972993200101714e-02,-5.075816150512774128e-02,5.484766668082413470e-03,-1.157877713121674423e-02,4.616063837751557472e-03,4.936504364013671875e-01
5.267469463812545216e-01,-5.017908966131684467e-02,-4.061253211082124781e-02,-5.954306044128940441e-03,9.257927482273419981e-03,4.063292659721782010e-03,5.725635290145874023e-01
4.751606772959872105e-01,-3.071862648326767475e-02,-2.788358464946910642e-02,-2.969298087094786667e-02,2.214330307638514087e-03,4.928098434285268017e-03,5.071688890457153320e-01
5.162210561925391072e-01,-3.980270798829207979e-02,-3.674448484429468365e-02,-1.763630175815776233e-02,7.895940772191491902e-03,6.345386420245881232e-03,5.556188225746154785e-01
4.865772256431910026e-01,-4.894858362330686830e-02,-2.929569712901991529e-02,-3.108853767930283216e-02,8.173795694550387014e-03,6.139968421419972691e-03,5.290203690528869629e-01
4.531139436649465613e-01,-1.981313852282837185e-02,-5.342061125824915102e-02,-3.488040315951074742e-03,-1.707332565730221643e-02,-3.275682945973295603e-03,4.915552437305450439e-01
5.320771478202841465e-01,-5.062157105118716971e-02,-4.115275152647604462e-02,-2.742319188776956313e-03,7.602250394019390532e-03,2.069560993572710887e-03,5.782030820846557617e-01
5.089477276078822054e-01,-4.112752862255764086e-02,-3.825980398829173512e-02,-2.900999975632755773e-02,1.245208120484419048e-02,9.740544673676158546e-03,5.516231656074523926e-01
5.162543192768414002e-01,-3.511436781695503884e-02,-4.106624340028142139e-02,-5.703001199986106745e-03,3.522338335568057140e-03,8.750671146299719531e-04,5.544922351837158203e-01
5.399378481021118725e-01,-4.950582890536456282e-02,-4.173994140161788047e-02,-3.505686593944350279e-07,-4.616912361836187593e-05,-1.783786927599473023e-03,5.856075286865234375e-01
5.341620105654732997e-01,-4.809814876956214347e-02,-4.095571132309089313e-02,3.520287944959409315e-03,3.374292268745375436e-03,-4.878497208143681846e-03,5.788453221321105957e-01
5.410003580010160906e-01,-4.941975082724878177e-02,-4.311325843417279646e-02,6.041492096551942526e-03,4.245496179532967998e-03,-6.328672719094366982e-03,5.875337719917297363e-01
5.333417177995993796e-01,-4.895528640052779212e-02,-3.942023671406302832e-02,8.578150428415234592e-04,6.908354353070922556e-03,-8.251596077082312686e-03,5.778911113739013672e-01
5.023827145799810712e-01,-4.225256858154188833e-02,-3.145817482895707506e-02,4.491416575910644506e-03,3.475939902966125421e-03,-2.952339182433031794e-03,5.394330620765686035e-01
5.095178456325281102e-01,-2.723666987691689134e-02,-3.860190779836558672e-02,2.208664357034108381e-03,-1.304239144487206277e-03,2.527240331327165832e-04,5.425447821617126465e-01
5.716670192539170525e-01,-2.496849373475745759e-03,-1.520781722885272691e-02,-7.488032323555359956e-03,-6.935988243948429735e-03,4.248147475663913153e-02,5.855343341827392578e-01
5.331984128884021956e-01,-3.811338480830941955e-02,-4.719452793898842868e-02,-6.148502935433618286e-04,3.092532500752744658e-03,-8.338119747064850693e-04,5.759337544441223145e-01
8.428592106196840517e-01,-1.742034555503735316e-02,-4.488197202798310803e-02,-7.081177380130483645e-02,-8.603839903064852343e-03,5.156160090204935098e-02,8.875249624252319336e-01
5.610314292832528915e-01,-2.182499681297495053e-02,-3.370920171824540179e-02,1.304246579154839589e-02,1.112222376029966923e-02,2.051560472793126366e-02,5.907061100006103516e-01
5.518557732354034684e-01,-1.380584322036451650e-02,-6.079779479225722039e-03,1.717650367073772890e-03,-9.548349081451934853e-04,3.504203913326596476e-02,5.651175379753112793e-01
5.537865878742418424e-01,-2.103210709715755411e-02,-2.879262235767365841e-02,-9.844184407393945582e-03,-1.005786784097776471e-02,2.296910048895584033e-02,5.806156992912292480e-01
5.377960338882665781e-01,-1.375641240193276049e-02,-1.368181210435781558e-02,-4.507794816336081062e-03,3.452487999970789076e-03,3.360451499857038810e-02,5.546652078628540039e-01
5.336797528460667239e-01,-4.908860440196721742e-02,-4.022327847801782097e-02,9.298557786685002777e-04,-1.360002461299712317e-03,-1.191485264959776932e-03,5.783973932266235352e-01
5.340633312322324855e-01,-3.252234940069265168e-02,-2.824950052103938902e-02,3.222432152847568704e-04,-3.464977834846952147e-03,-3.870845773641795520e-03,5.645333528518676758e-01
5.308527708160218905e-01,-2.486608002314050214e-02,-2.066663866903331592e-02,-9.677655820924335956e-04,4.223523677621319160e-03,-6.325993748281361594e-03,5.537903308868408203e-01
5.411720405728615013e-01,-1.935134822027398394e-02,-1.730557759727788247e-02,-6.758912707113630403e-03,8.756968957880317123e-03,-1.132099397152724202e-02,5.601745843887329102e-01
4.990093562933528015e-01,-5.761449898227705146e-02,-3.129201820604482487e-02,-2.099741052657376830e-02,-1.414181891273080804e-02,1.786646500351432619e-03,5.457137227058410645e-01
5.134901183151721060e-01,-4.631235494640856265e-02,-3.919324909288940395e-02,-3.874572994177833546e-02,-3.336873140172996743e-02,-3.638063250638181190e-03,5.633187294006347656e-01
5.109138412651412775e-01,-5.443307660271762272e-02,-3.054941807215835747e-02,-1.551435525504997687e-03,-1.598240083668459217e-03,-5.252854838660806110e-03,5.538796782493591309e-01
5.316918903001833785e-01,-4.344299135349216634e-02,-4.800227390643288516e-02,-3.294780291315652890e-04,-1.438381113063110601e-03,1.005534178322401318e-03,5.774363279342651367e-01
5.064934706164375688e-01,-4.048454999995323988e-02,-4.601589174298442719e-02,-1.332578354468458466e-02,-3.358885206859719280e-02,-7.581450118780691007e-03,5.534716248512268066e-01
4.717835161969995417e-01,-3.716133102996435622e-02,-3.258900251573845774e-02,-2.759531807496722750e-02,-3.597965045349835883e-02,-4.269204774053190002e-03,5.127782225608825684e-01
5.081028294942738777e-01,-3.960258360565704905e-02,-3.980951457240611280e-02,-4.094251820850576019e-03,-9.755432258762724435e-03,-4.545516490557645166e-03,5.481718778610229492e-01
5.036026711127505884e-01,-4.109774084429734797e-02,-3.936049451369508234e-02,-1.668455327907075389e-02,-1.003739687644648708e-02,-7.680256039215885636e-03,5.450409054756164551e-01
5.369379276823181835e-01,-2.502344628726399511e-02,-5.210299539135324065e-02,1.372565203265320444e-02,7.350709376832195198e-03,4.436586774543790934e-05,5.766097903251647949e-01
4.976868377886013439e-01,-6.048017856144036197e-02,-2.984697486067577898e-02,-6.065896604231635521e-03,-1.632903550793314605e-03,-3.083082959036043298e-03,5.436334013938903809e-01
4.671087431367220155e-01,-3.511404285602937048e-02,-4.341500059316544258e-02,-2.399191591211191632e-02,-2.127476955350405055e-02,-1.254966865776804656e-02,5.099242329597473145e-01
4.666710396649703108e-01,-3.214575926274182427e-02,-4.582464860075302626e-02,-2.107233096972405129e-02,-2.874067617386837775e-02,-8.625346272889843416e-03,5.097665786743164062e-01
5.313138839079201148e-01,-4.202709840580209910e-02,-4.288467895647013473e-02,-9.793857872690291122e-03,-7.431977362728370978e-03,-5.925042431997108380e-03,5.742569565773010254e-01
4.864217923885442163e-01,-3.437594328053616977e-02,-4.132922436268535171e-02,-1.581554719976822551e-02,-1.777352347613493991e-02,-8.076734033549881966e-03,5.261118412017822266e-01
5.036186795031749597e-01,-3.288298574061870871e-02,-4.769834117143381680e-02,-5.026478485555410138e-03,-2.172970962559773317e-02,-7.125965005813004322e-03,5.455700159072875977e-01
5.122041574409340603e-01,-4.390843242089198517e-02,-3.511208343117269703e-02,-9.514706629661298307e-03,-1.816686654876889127e-03,-4.382015113097909899e-03,5.520741939544677734e-01
5.046938112746078842e-01,-4.476783856942609385e-02,-3.946505518160542403e-02,-1.300267372288186826e-02,-1.126176666217742692e-02,-7.907974301888453378e-03,5.478118658065795898e-01
4.824432954836599396e-01,-2.773939318919843577e-02,-3.361622082637535924e-02,-1.080084819810732746e-02,-7.916854636512852053e-03,6.825153811175673759e-04,5.136716365814208984e-01
5.211781004963289554e-01,-3.960617430765994706e-02,-3.986335881975433537e-02,-8.640849929420968065e-03,-1.331207545456586372e-02,-3.639735003253306758e-03,5.616214871406555176e-01
5.838490919788028588e-01,-1.294428907725761468e-02,-1.038185903448418657e-02,-2.665507642046064003e-03,-6.542541420961260450e-04,3.493172864451173781e-02,5.986008048057556152e-01
6.321031985831222499e-01,-3.922999850441061254e-02,1.272519223475498951e-02,2.000748162732354177e-03,2.521164878104660816e-03,5.492289657005112319e-02,6.539028882980346680e-01
6.056981220163626389e-01,-4.328773199478608280e-02,-1.120072838605337684e-02,2.258285706305960053e-02,1.461187217363120114e-02,3.303028653832223993e-02,6.378335952758789062e-01
5.848261554043745480e-01,-2.015513020859083237e-02,-3.814018215892805985e-03,-1.217213672376451020e-02,-2.906015728015489980e-03,6.788241082656489012e-02,6.088326573371887207e-01
5.481589179789599919e-01,-1.202052432307651464e-02,-1.873463602982544662e-03,-3.976481531488953135e-03,-2.951072655747689552e-03,4.024512849249912982e-02,5.596001744270324707e-01
5.531427256377199342e-01,-3.008918339828436928e-02,-2.323150962787398632e-02,-1.151129892252645334e-03,3.876074991314735021e-04,2.172601226854709369e-02,5.810571312904357910e-01
5.513941901770964549e-01,-3.607024227993074761e-02,-2.283809698951450029e-03,-1.324319297720681242e-03,-2.250248525023783395e-03,3.809978805811871372e-02,5.751372575759887695e-01
5.414019284389293141e-01,-2.083864812603899996e-02,-1.163406338931360917e-02,4.357397911480809065e-03,8.479987246757736885e-04,3.147938142196489431e-02,5.604069828987121582e-01
5.274331996804945133e-01,-2.495527645639070147e-02,-3.240051698616142062e-02,1.236129107167662639e-03,1.728150861529274699e-03,7.779483991091176373e-03,5.563238263130187988e-01
5.641540658422352639e-01,-2.864144132318754976e-02,-4.277209791926511739e-02,-3.076295374229069332e-03,-1.056045100779836980e-02,8.534016505264899535e-03,6.004700064659118652e-01
5.393548807587689176e-01,-3.658739025346782747e-02,-3.907078554042497931e-02,2.545242523829384894e-03,-3.903022070562256474e-03,3.920423853541177110e-03,5.772843360900878906e-01
4.964564980986991838e-01,-1.542840644425733099e-02,-3.412022693397256945e-02,3.837029074672739654e-02,2.658574158721625780e-02,7.499554630864361041e-03,5.278726816177368164e-01
5.437673285477014895e-01,-1.281487067951170289e-02,2.415159191142990380e-03,-3.861236906635584411e-03,-5.736339510649693559e-03,3.501123187424804578e-02,5.525936484336853027e-01
5.498311525608229333e-01,-5.011184150406772231e-03,-4.921413132517094002e-03,2.158591235158419715e-03,-3.554322528833726976e-04,3.970170527341555788e-02,5.590556859970092773e-01
7.316073724072621465e-01,-4.787196038402777298e-02,-6.537279106036436582e-03,-6.109763110035462685e-02,1.030052255462864524e-01,5.906785804585991395e-02,7.940863370895385742e-01
5.545997371700923662e-01,-9.179093669515081544e-03,-3.147247072418785097e-02,4.239977329738822860e-04,1.959402559274093082e-04,2.771981131115557398e-02,5.772503018379211426e-01
6.125854835141327781e-01,-3.886043144873349564e-02,-1.877011789715943291e-02,-4.799888928717081088e-03,-1.787556472437168420e-02,3.971118702622167956e-02,6.461085677146911621e-01
5.922688990023960987e-01,-1.289198810518335514e-02,-1.549017094003990458e-02,-2.889544681015636732e-02,-7.904195308094472822e-03,3.313550629432591293e-02,6.113795042037963867e-01
5.289853405266378150e-01,-3.703445759680598637e-02,-2.977640564876268825e-02,-3.478710750027671789e-03,-1.402615423000374163e-03,8.435649978881619568e-04,5.624653100967407227e-01
5.259600224955944814e-01,-2.487057834184860927e-02,-3.198902571724512867e-02,4.171995497150039409e-03,5.866213794537359846e-03,5.097810079591006023e-03,5.546345710754394531e-01
5.319800641699986565e-01,-3.729958529792551380e-02,-3.336053407829706052e-02,-3.707453705049382903e-03,-2.098368387268234950e-02,2.009630096802491033e-03,5.685303211212158203e-01
5.262695808669841657e-01,-4.274153351482054553e-02,-4.278842760813048041e-02,-5.704881514658739425e-03,-1.390036946087142098e-03,-7.113984105258343987e-03,5.692588090896606445e-01
5.270935057480471420e-01,-4.266071826866826844e-02,-4.303626324331247255e-02,-3.162054348520122130e-04,-1.737603440339682359e-03,-5.919543687422750000e-03,5.700424909591674805e-01
5.298096558954490387e-01,-2.919773798169394974e-02,-3.744900880171320168e-02,-6.905014084854194101e-03,-5.329489338421556158e-03,5.613746956477511096e-04,5.633817911148071289e-01
5.092836923355936740e-01,-3.392207173391759145e-02,-5.760259090750652344e-02,-1.674861171149423121e-03,-6.462360761235707608e-03,-6.073639975650154885e-03,5.556446909904479980e-01
5.186247495777950300e-01,-3.689002866489052290e-02,-4.141490182131160602e-02,-5.481563232411803405e-03,-1.084821474526413091e-03,-1.931706435647253563e-03,5.578849911689758301e-01
1.252181825942534910e-01,5.385509997402962434e-04,4.946921504434938222e-03,7.213443721481595239e-02,4.056400422710530057e-02,1.005049608591055636e-03,1.885849535465240479e-01
5.001743281146628917e-01,-3.112526383649918960e-02,-3.560599708061104596e-02,-1.085291645695037228e-02,-4.695593247196638668e-03,1.330128629476739696e-03,5.339519977569580078e-01
5.533909026110107598e-01,-3.783609306278967743e-02,-1.680436579205923930e-02,-2.732890867388017633e-02,-1.371733376551361253e-02,2.657461279160855741e-02,5.852186679840087891e-01
5.519471047557762411e-01,-3.102888921336122152e-02,-3.919556103003205005e-02,-5.415014623674219152e-03,-1.139874883352101284e-02,2.091185530586866376e-02,5.886241197586059570e-01
5.546221368123078754e-01,-3.287042379150809102e-02,-2.787465272908404290e-02,-3.309401529231470289e-03,3.005411061631732203e-03,1.550827075687064537e-02,5.856782197952270508e-01
5.384047108432081785e-01,-1.840272965116918069e-02,-2.478359375931848962e-02,1.585127235084939231e-04,-3.636937400490011189e-03,1.795328749047169284e-02,5.609232187271118164e-01
5.274998238335866230e-01,-2.253018423363070677e-02,-2.955069571970164732e-02,-8.015108579317224355e-03,-4.840278018070512910e-03,9.109802226519789214e-03,5.540359020233154297e-01
3.056418520290727914e-01,-6.159108680363886701e-03,-3.195668868482623437e-02,4.258133636284155976e-02,2.952190823828085287e-02,4.606125370953065117e-03,3.377082347869873047e-01
5.283880964544299674e-01,-2.855482257596045348e-02,-3.488460930446424246e-02,-2.868157961766514604e-04,9.016284843554509508e-04,3.464155275870432846e-03,5.601691603660583496e-01
5.221805967660241299e-01,-3.127333039246141255e-02,-3.545351949786362811e-02,-1.405282771879657645e-02,-2.199637642388311068e-02,3.893955591964601629e-03,5.574331283569335938e-01
5.483139198163924366e-01,-3.740348482392352736e-02,-3.293129388271892610e-02,-1.907033182237978519e-02,-2.070307479165212419e-02,9.340021792824256333e-03,5.857508182525634766e-01
5.083750733822238743e-01,-3.208025329853303464e-02,-5.322215672978339307e-02,-4.831953487887747289e-04,5.842665611982190109e-03,1.696462834851139535e-03,5.514317154884338379e-01
5.034745780951745964e-01,-4.134376468401870786e-02,-2.743871270551970221e-02,6.730016861666908955e-03,9.831015424770864555e-03,2.837091410992515980e-03,5.384186506271362305e-01
5.127818604156761939e-01,-3.320222416853460534e-02,-4.460278726884917000e-02,-5.229041402375701579e-03,7.062117269888142090e-02,3.021552955890361054e-03,5.652650594711303711e-01
5.061760349734016895e-01,-3.363606056321327697e-02,-5.121811334194847909e-02,3.746751144674734853e-03,-9.928939081061303410e-04,4.783177755214513757e-03,5.489179491996765137e-01
5.146820054981686710e-01,-3.897908914714345863e-02,-2.370690560588104012e-02,9.077063648915622424e-03,-1.825885966172231117e-02,-2.029764184668030307e-03,5.473371148109436035e-01
5.278588622147184495e-01,-4.824808288671136869e-02,-4.840763067818656951e-02,1.841388608350323641e-02,-1.319179795769255537e-02,9.733616584087424750e-03,5.777669548988342285e-01
5.177370747174182553e-01,-4.113589225134889338e-02,-4.214660047730581227e-02,1.927917862294993914e-02,-1.385350346366261663e-02,3.798820606723849608e-03,5.609269142150878906e-01
4.943299880037396177e-01,-3.641797449394085229e-02,-2.208806522094375335e-02,2.855739746217275318e-02,-4.432804593077309396e-02,-4.439986957353734415e-03,5.316895842552185059e-01
5.191762018057786143e-01,-3.660654066883686775e-02,-4.767899918898060863e-02,1.421594676282678278e-02,-9.559449856399716144e-03,1.026247526471448131e-03,5.621872544288635254e-01
5.171537600499778176e-01,-4.023743876086163795e-02,-3.553042780577575499e-02,1.019465684749188208e-02,-3.160471839538767265e-03,4.817390668302169959e-04,5.553610920906066895e-01
5.348309597030926898e-01,-4.741856829967625031e-02,-4.908132795574057794e-02,1.848466725706568448e-02,-1.407298999657181915e-02,-1.563419961518490615e-03,5.844758152961730957e-01
5.167351268134429132e-01,-4.057708737524029496e-02,-4.045311972861265204e-02,1.085460043674180836e-02,-6.775996773262116073e-03,2.264367940359821463e-03,5.577046275138854980e-01
5.055456876089911011e-01,-3.979482196342806755e-02,-3.999760099207050335e-02,-9.834138021252287337e-03,-1.560550540681237934e-02,-4.479325946218823927e-03,5.464318990707397461e-01
4.980679624067163580e-01,-3.521609995738284038e-02,-3.556052594235573072e-02,-7.371383119293327402e-03,-6.211121364568323450e-03,1.360565010498456700e-04,5.337176322937011719e-01
5.269526205668817465e-01,-3.626904643025957720e-02,-3.861496985477108623e-02,4.620747716995412396e-03,-2.307343129381162622e-02,-2.816837536319156173e-03,5.658890604972839355e-01
5.146157748064696946e-01,-3.963366845492366508e-02,-4.387054604951817760e-02,-6.276830839088857160e-03,-2.859368329142200627e-02,-6.120972680840260603e-03,5.587862730026245117e-01
5.156245474150843444e-01,-3.730131979522013919e-02,-3.845795662501130807e-02,8.180939809132014564e-04,-9.315117830034354979e-03,-1.862639060210818888e-03,5.537514090538024902e-01
5.456756809594442981e-01,2.523798068568605668e-02,-4.198788510248005479e-02,3.426014336298631533e-03,7.453245535796870248e-03,3.367570309978341891e-02,5.603263378143310547e-01
5.459226630299985894e-01,2.403752985899484940e-02,-5.767024289927380476e-02,1.441414848438017128e-03,4.351940950682330056e-03,1.293753097689109496e-02,5.676684975624084473e-01
5.301092252000818572e-01,9.559218425232607341e-03,-2.916818363205661568e-02,2.387145215236160731e-03,1.476849216260856575e-03,1.121567421720187814e-02,5.413249135017395020e-01
5.514423484526259633e-01,-1.420611752958686469e-02,-4.261274424570130059e-02,-6.462156733261724059e-03,-3.358230855547546245e-03,1.129289612170299682e-02,5.808398723602294922e-01
5.360806563264004510e-01,-1.029267436377453993e-02,-3.418453020033201950e-02,-8.887300993639152616e-03,8.770062233529711537e-03,2.062196164118546698e-02,5.602606534957885742e-01
5.055047499464775385e-01,-3.354743862532291732e-02,-2.819189271633765204e-02,-1.241046042007524532e-02,-1.635171847609260404e-02,3.749181870339374657e-03,5.376108288764953613e-01
4.810700761327375008e-01,-4.484149148534768980e-02,-3.281990441741755582e-02,-4.510796822205336704e-02,-2.384158392934972517e-02,-1.029530582710999446e-02,5.277619361877441406e-01
4.528617382588765450e-01,-4.434204794202539768e-02,-2.528482739505458210e-02,-2.241614651172581935e-02,-4.965831228666045712e-03,-8.581246257556532364e-03,4.897977113723754883e-01
5.128151240600034022e-01,-4.637376006603255441e-02,-3.688236437953473779e-02,-1.170292911290436721e-02,-1.927796228634929415e-02,-1.112969550675980447e-02,5.562123656272888184e-01
4.869383053960115726e-01,-3.763595099723304749e-02,-4.328356010512329766e-02,-3.051387169157073354e-03,-1.208694856344822051e-02,-1.109607388257007402e-02,5.282123088836669922e-01
4.556126720130037056e-01,-3.464105651099125271e-02,-3.675842570866885706e-02,-2.208621455298964698e-02,-1.404834005076484142e-02,-1.350312321164299709e-02,4.939572215080261230e-01
4.353564178591829981e-01,-3.368273875750910085e-02,-2.870878338032833987e-02,-2.502281152395172126e-02,-3.448593029881819039e-02,-1.385589105899901266e-02,4.729817211627960205e-01
5.539701116750801457e-01,-2.964118305454235824e-02,-3.836938118771385242e-02,1.121318822556921849e-02,5.411495474257935982e-04,-1.239001609243118966e-02,5.887366533279418945e-01
5.452977995872784200e-01,-4.243105127097582252e-02,-5.191828327568348556e-02,-5.557862381415958931e-03,1.799875570940643807e-02,8.851623799414021177e-04,5.934290289878845215e-01
5.230536222802841806e-01,-3.174852069225075901e-02,-3.972718396851587785e-02,-4.729088571658198424e-03,1.637174289491877960e-02,-8.886966750546860389e-03,5.598247647285461426e-01
5.233157081955088774e-01,-3.070980636125655860e-02,-3.556217122177765533e-02,-1.172753131725149875e-02,1.683663139333655551e-02,-4.546470206320755124e-03,5.576568841934204102e-01
5.932982802928311594e-01,-3.451844991934233109e-02,-4.587211696502538349e-02,-2.390095030229045722e-02,3.820652895611584970e-02,-9.096898989152760531e-03,6.385546326637268066e-01
5.538826059371998456e-01,-2.766326463424842452e-02,-4.365957275837481499e-02,-9.385629460293769613e-03,7.203038789180806140e-04,-3.424168607178514068e-03,5.899619460105895996e-01
5.104784458834574767e-01,-4.343370719999151142e-02,-4.777160714705219746e-02,9.742504072772426027e-03,-3.397467743710439522e-03,8.679893799095211165e-03,5.565839409828186035e-01
5.292783566084930946e-01,-4.374603015753297797e-02,-4.222084788463062455e-02,7.170680842702360606e-03,2.632881190452359722e-03,5.564394428504289628e-03,5.724973678588867188e-01
4.851599943456236241e-01,-4.140832206601877119e-02,-4.519041523039996067e-02,1.418123157197052203e-02,-2.253013411774298577e-02,7.763735901747091835e-03,5.306476950645446777e-01
5.392099693956857731e-01,-4.704018824413735977e-02,-4.956864932486929054e-02,1.143524939422849336e-02,-1.450703774828214325e-02,9.409837648847743652e-03,5.886147022247314453e-01
5.218034881363033950e-01,-3.741685794030472079e-02,-3.528330694448333915e-02,1.253054964552349250e-02,-5.705003522277266731e-03,-1.738701630978256888e-03,5.586739182472229004e-01
5.156350941547889200e-01,-4.836945146337798263e-02,-4.073010454924091972e-02,1.092838634644101650e-02,-9.510238445044160230e-03,5.206199249221690056e-03,5.608580708503723145e-01
5.352097691616407582e-01,-2.084096140754090887e-02,-2.885133935412320660e-02,-4.761135494687298610e-03,-7.673001666225209155e-03,1.084245349719153984e-02,5.606318712234497070e-01
5.376614648380976247e-01,-1.649025769682957443e-02,-9.345569753583804484e-04,-7.547123663651626041e-03,-9.950210236031329161e-03,2.079903405167901273e-02,5.481528639793395996e-01
5.384276422544836960e-01,-2.371446273236543778e-02,-1.654161578663745913e-02,-1.974228351933470394e-03,-3.300116074031773407e-03,9.892240121282003598e-03,5.588926076889038086e-01
5.303070951038093561e-01,-1.945561965723960340e-02,-2.022728038307808340e-02,-9.073219374337847818e-04,-9.750937046318212172e-04,1.167140289872429723e-02,5.505250692367553711e-01
5.323700261000199330e-01,-1.997163868756984817e-02,-2.489285204037433585e-02,-7.046106654497998013e-04,-3.162508074956439565e-03,1.276516149845889278e-02,5.552873611450195312e-01
5.395714115492266094e-01,-1.714537041502395276e-02,-2.216054804792413901e-02,-8.331959670854668584e-03,-7.716797492941673440e-04,2.278727818194227830e-02,5.608195662498474121e-01
5.347692258699968670e-01,-2.103236741140332433e-02,-2.788612922295138907e-02,-8.293983935214428033e-03,-1.036352257270740582e-02,8.185634324596735567e-03,5.599118471145629883e-01
4.346026908433817670e-01,-3.599576260606475453e-02,-3.196903121817716575e-02,-5.078377016927365650e-02,-8.610896170444349434e-03,3.893139527993883311e-03,4.770629107952117920e-01
5.381659903201834183e-01,-4.764908301143222502e-02,-1.415256797812725065e-02,5.521724550825816806e-03,-1.225883328619602544e-02,-4.900035774203520371e-03,5.703445076942443848e-01
4.520725146402755357e-01,-4.414141675438437717e-02,-2.513628353405425453e-02,-3.328339022250172835e-02,-4.440978577073807082e-03,-1.020329410458099655e-02,4.907684624195098877e-01
4.697301782160890893e-01,-2.596569133413728636e-02,-3.595552818286171237e-02,-3.323034922448149520e-02,-9.702126591977911288e-03,3.960061228395239316e-03,5.043890476226806641e-01
4.155129007637410332e-01,-3.323080731962575751e-02,-2.586847693780879032e-02,-4.960406429108518700e-02,-2.941570054216019470e-02,-6.768106734618399394e-03,4.563291370868682861e-01
4.787027781934844461e-01,-4.427941543190647145e-02,-3.474600273797909256e-02,-3.738148041528623761e-02,-1.998311894863762442e-02,-1.272029185567155607e-02,5.239188671112060547e-01
4.483255300673094079e-01,-4.540903638249116359e-02,-2.491341254856088705e-02,-4.459965827832113733e-02,-1.996072585996011561e-02,-1.111512154321551635e-02,4.915361702442169189e-01
4.973703181939449491e-01,-5.751462773428128727e-02,-4.031054077511081468e-02,-3.339758542633616822e-02,-1.764753316955691362e-02,-8.124334197616715075e-03,5.505683422088623047e-01
4.941755576704985886e-01,-2.729072120895928433e-02,-4.395223045256821393e-02,2.574521860874717186e-03,-1.256928276744942105e-02,2.070877430662166133e-03,5.304713249206542969e-01
4.989690544211843326e-01,-2.807178076039620884e-02,-5.584679704044895332e-02,-1.764985687533425756e-03,-1.810885218939781161e-02,-4.252259485242069819e-04,5.423796772956848145e-01
4.921033707918726074e-01,-3.330859986774173387e-02,-4.992863920058637772e-02,-7.540924904338118344e-03,-3.557716916741417157e-02,-1.725610579508506917e-04,5.376190543174743652e-01
4.978988972805248325e-01,-3.015804092045937246e-02,-4.129788407010312468e-02,-1.520259991664038254e-04,-1.818178335904364548e-02,-5.012857889030508185e-04,5.346431136131286621e-01
4.867536586050904557e-01,-2.622258647904376905e-02,-5.924846190234714371e-02,5.924673280790662515e-03,-5.219158415819113300e-03,4.919068047143701885e-04,5.304381251335144043e-01
4.944674495040830564e-01,-2.835170411387033518e-02,-5.687074635337227568e-02,-3.742764936877772397e-03,-1.662103424083681905e-02,-6.209263760407949737e-03,5.385628938674926758e-01
4.926671889289001016e-01,-2.905308356012326065e-02,-5.587490897817312674e-02,-5.049488464879674232e-03,-1.084966985415544705e-02,-2.687165665717665061e-03,5.360562205314636230e-01
5.238304312904650262e-01,-4.238798147371969360e-02,-4.030540959233624987e-02,-9.422355443443721293e-04,2.880118347096482611e-04,-9.011469695490371056e-04,5.651847124099731445e-01
4.444942383225116145e-01,-2.402111885153332405e-02,-4.368925799588974090e-02,-8.677914194521568455e-04,-3.096124899766981853e-02,2.442725352476645719e-03,4.816682040691375732e-01
4.755685633241870658e-01,-2.495160640156821041e-02,-5.356219688530958201e-02,5.303833596280053964e-03,-2.463532418053726580e-02,4.353179167250358084e-03,5.173211097717285156e-01
4.440021840626747762e-01,-2.535502775515638407e-02,-5.000901011580133337e-02,5.798637426613646034e-04,-4.334030221901893215e-02,-5.672309138680242148e-03,4.880657792091369629e-01
5.556003413653115564e-01,1.045279228073664468e-02,-4.294629116250692213e-02,2.830192165402550114e-02,-5.242933434686175044e-03,4.450509971308587442e-02,5.810122489929199219e-01
5.643287456773024013e-01,-4.909366798789380204e-02,-3.781552566835061358e-02,3.619928139234273451e-02,-2.873254951545234706e-02,-2.368178600250519725e-03,6.131237149238586426e-01
4.887364383979542759e-01,-4.020234701706856817e-02,-3.799319311493359885e-02,5.065237227572032958e-02,-3.025533157423616198e-02,2.300575756040721363e-03,5.376538038253784180e-01
5.237229499182172177e-01,-1.985497462786292577e-02,-3.471448621689635083e-02,2.303091915688458904e-02,-9.459651162464116289e-03,-1.401319312233980340e-02,5.533750057220458984e-01
4.920238227395152264e-01,-4.563788239983548878e-02,-3.458979076591298107e-02,5.977415754240698181e-02,-1.937072359287519410e-03,-2.011289449734775595e-02,5.433284044265747070e-01
5.363505583755631134e-01,-4.269121012135687621e-02,-2.577969508411898092e-02,1.527800463441615457e-02,-6.091480751259046970e-03,-8.848725558191333426e-03,5.716899037361145020e-01
5.571659923175146245e-01,-4.674515781483967736e-02,-4.372765895378330492e-02,9.663358784706102544e-03,-1.034422268982313278e-02,7.154453087984973978e-04,6.029080748558044434e-01
5.479385780536890627e-01,-4.450260477792730707e-02,-4.106102550414014729e-02,1.312780185758332004e-02,4.715085274201375951e-03,-1.147700908716262590e-03,5.912250876426696777e-01
5.426367217452782166e-01,-4.161953309978486115e-02,-4.667902080637004181e-02,5.974946032736146119e-04,5.072879265451913570e-05,-1.341673955419634941e-03,5.868079066276550293e-01
4.864002751201711439e-01,-3.249364501249873971e-02,-4.038348443746653249e-02,5.011104426320733135e-02,-3.363175876150840959e-02,6.786412977962305235e-03,5.333591103553771973e-01
5.106732198610359763e-01,-3.862018489137192256e-02,-3.734563969734724931e-02,1.691938871373187964e-02,6.787117930095483550e-04,-3.327362802327736742e-03,5.494707822799682617e-01
5.072134581894125471e-01,-3.811160446012115677e-02,-3.968492506459633806e-02,9.901315194628742752e-03,-9.616891946024760940e-03,-1.330967973328082586e-03,5.466413497924804688e-01
5.375004722752501074e-01,-4.184331280862169100e-02,-4.075988118447684827e-02,-3.720779890326755910e-03,-2.069827121781199486e-03,-3.258562815132868759e-03,5.788773298263549805e-01
5.340158679178744761e-01,-3.871462585172924520e-02,-3.878870607760728784e-02,3.458619370354619818e-03,2.761413932032809326e-03,-6.823812746528430892e-06,5.728188157081604004e-01
5.356093945624501584e-01,-3.960452588183424605e-02,-4.396072703632875056e-02,-2.245479850870093011e-03,-3.301031023122421790e-03,-1.266539646567213517e-03,5.774499177932739258e-01
4.467987570706196676e-01,-3.595917996150568841e-02,-2.112399740637035950e-02,1.109669443741319707e-03,2.451140725688173813e-04,-4.457397310621070627e-03,4.755806922912597656e-01
5.017797157507899453e-01,-3.272295046023457332e-02,-4.686736853273690273e-02,2.380714189722158564e-02,-2.430615506349937532e-02,4.413566345667320999e-03,5.449628829956054688e-01
5.456054432924163367e-01,7.942532992154804905e-03,-4.520318722332980488e-02,-4.571574006571060660e-03,-1.567410521740514925e-03,1.979420674526937915e-02,5.672088265419006348e-01
5.702316800500139005e-01,-1.357833550842107995e-02,-6.324831139207676145e-02,-1.380550266804150827e-01,-1.080814603393196460e-01,7.746920593633994934e-02,6.946408152580261230e-01
4.855015210456462005e-01,-3.576880033888046873e-02,-4.482258998945551354e-02,1.775854331662602911e-02,-2.159576579893672868e-02,9.266597716424995398e-03,5.283247232437133789e-01
4.984597711806663667e-01,-3.300395421652957406e-02,-5.306366851409696772e-02,1.642710655868362141e-03,1.101779761273812214e-03,6.820200007458482837e-03,5.419117808341979980e-01
4.913574813288729137e-01,-3.288469521647974236e-02,-4.630297640377550872e-02,-1.097311949732496543e-03,-3.926955786648531239e-03,8.878102394780942874e-03,5.313479900360107422e-01
5.026819038253937943e-01,-3.750449429303409632e-02,-4.136065863846233315e-02,1.335439177338173036e-02,2.130710763059905782e-02,-1.219466172447517417e-03,5.438756346702575684e-01
3.571921815524780053e-01,-5.029560679440564508e-02,7.464067802930504647e-03,-3.337633793731738241e-02,7.710083229424967433e-02,-1.067509086838303554e-02,4.091008901596069336e-01
6.390207531607460245e-01,2.902027766454054469e-02,-7.269565953145715187e-02,-2.482113861770160468e-02,-3.923453597135912255e-03,1.507440874984863942e-03,6.681277751922607422e-01
5.343478064446737230e-01,-4.014887164111483053e-02,-4.035362473096609781e-02,1.601098567563104952e-02,3.644618460368828639e-02,1.481516289991941480e-03,5.787268280982971191e-01
4.224973909943435801e-01,-6.066914395837651186e-02,-6.390343374298168566e-04,-1.754184515552015960e-02,7.832252789503778290e-02,-4.021797891002201406e-03,4.768898189067840576e-01
5.271442798886996073e-01,-6.984589504453023179e-02,7.182531061004221451e-03,5.110899221229564526e-03,2.174712260200259775e-02,-1.331173509693974605e-02,5.642465949058532715e-01
5.469092113186387882e-01,-4.433666331762819990e-02,-3.734907143666116314e-02,-6.157190723257158042e-03,1.944577591250894882e-02,5.715819837160081296e-03,5.889272093772888184e-01
4.234878690954874125e-01,-4.568906694625550491e-02,-1.911104434506209759e-02,-8.645159884689483654e-02,1.606930482767102847e-02,3.940487225556531248e-03,4.812551140785217285e-01
4.965498898675020367e-01,-4.089916373446253473e-02,-3.574417110446501122e-02,-1.417259179602556318e-02,1.664234584214984575e-02,-9.637671354809770538e-03,5.364882349967956543e-01
5.352218656028124855e-01,-2.389599076893511587e-02,-3.021377399617422577e-02,1.316440758222055989e-03,1.387954289650956919e-03,5.751167870804824687e-03,5.624013543128967285e-01
5.446712718241465412e-01,-4.415464644078254119e-02,6.883611399013084275e-03,-1.733833647997878175e-03,1.918854786270916433e-03,2.334996216499038782e-02,5.665014982223510742e-01
5.343752215895618551e-01,-3.251323132607691901e-02,-1.375623807405265686e-02,-7.742140726899535141e-03,-7.511126464889410735e-03,3.551863680886978899e-03,5.580933094024658203e-01
5.344241864464264191e-01,-3.259687599305202688e-02,1.155831666258599899e-03,-3.870921382060570504e-03,-5.316184781417872089e-03,3.803135582569502644e-03,5.510778427124023438e-01
5.383136772307874907e-01,-3.787984396759222494e-02,6.719312220565598626e-03,-2.526637038108002411e-03,-4.799420896620350437e-03,2.049640050310037181e-02,5.564520359039306641e-01
5.566477520443551263e-01,-3.181764350772023353e-02,9.313934045402427753e-03,5.067621673082290008e-03,4.653847817121321145e-03,3.357933698153615920e-02,5.721045136451721191e-01
5.320294215309709918e-01,2.425257232334693258e-03,-3.337228551965282231e-02,-3.275125462851324908e-04,-5.707959732154402289e-04,4.881805910483276792e-03,5.484462976455688477e-01
5.397245331520782452e-01,-3.975371429495022646e-02,8.914609793108957403e-03,-1.365705852566683311e-03,-4.747962875818205822e-03,1.397039195903365845e-02,5.573330521583557129e-01
5.335935832424917313e-01,-4.073067676358180234e-02,1.401100307137331802e-02,-1.322422149897033768e-03,-4.232281102687854811e-03,1.152333691408008974e-02,5.494204759597778320e-01
5.305038265448410728e-01,-3.964310666336426370e-02,1.146225626945809872e-02,-1.362322338612647048e-03,-9.503410795190683595e-04,1.200550942337844096e-02,5.467928051948547363e-01
5.123088837377365312e-01,-5.893599520161160732e-02,-2.910398168860311996e-02,-7.577780991770534727e-03,1.808911882867437863e-03,-1.202376095805424584e-03,5.570957660675048828e-01
4.991638506730791125e-01,-6.076179716855664714e-02,-2.820832529603392591e-02,-1.244747034047789152e-03,2.779473612130311903e-03,-1.621245616038519783e-03,5.444121956825256348e-01
5.229795788743900609e-01,-2.447561554929153504e-02,-1.840085709158187366e-02,-1.393668301955580799e-03,-9.948469021876188510e-04,2.669365115234102574e-03,5.444709658622741699e-01
4.812998659450251071e-01,-4.186619572306912729e-02,-2.684333267744254403e-02,-2.806604766444396187e-02,3.569210094681158057e-03,-4.196989897563957982e-03,5.181921720504760742e-01
5.028591262690418340e-01,-5.090172491579050829e-02,-2.873509931348630642e-02,-5.297303527166214929e-03,-1.018239443209467817e-03,1.582914885191958080e-03,5.431042909622192383e-01
5.071875788158051179e-01,-4.358234607195787813e-02,-3.643540362512900921e-02,-9.297249842478446866e-03,-5.042464931156575431e-03,-4.965335806777776070e-03,5.476055145263671875e-01
5.020816153482354771e-01,-6.107781406685919290e-02,-2.909452433354520196e-02,-3.979310263178811001e-03,2.300201485863277110e-03,-2.584838337398871755e-03,5.479445457458496094e-01
5.134361364942148231e-01,-4.960058830347571779e-02,-3.610172638830821956e-02,-1.445729895926255518e-02,-8.978432791723264805e-03,-5.793173163229785143e-03,5.572807192802429199e-01
4.414030195695195502e-01,-4.567534837686323956e-02,-1.880465881279883011e-02,-4.895158874664091997e-02,-1.065259124410979433e-02,-1.488461612468293914e-03,4.820944964885711670e-01
4.655729759415025981e-01,-4.173436199044408546e-02,-3.521958326258939342e-02,3.847471384544914885e-02,-1.355476163620027499e-02,7.393969310183595191e-03,5.091702342033386230e-01
4.671475678426927347e-01,-4.167686621499730459e-02,-3.835884529892610861e-02,3.742594268361032483e-02,-1.317656444810907067e-02,5.566522058003658263e-03,5.118993520736694336e-01
4.262689197340522318e-01,-2.089414458510278905e-02,-3.623290584149284344e-02,9.555258530229830682e-02,-1.258706692431710988e-02,-2.508169937474979787e-03,4.846999943256378174e-01
4.912505020735369321e-01,-4.415792167457413542e-02,-3.429502518925986454e-02,-2.655127570843417856e-02,2.477935288894951918e-02,9.033358126548134831e-03,5.344909429550170898e-01
4.379262966020255332e-01,-1.936365277905729987e-02,-2.755613366429790489e-02,-2.231713166642130056e-02,2.119873831005428602e-02,1.291988952199357331e-03,4.645157456398010254e-01
4.296238554315338631e-01,-4.505316897381002328e-02,-2.209725444960412843e-02,-6.794639132232599410e-02,1.079281202104300993e-02,7.245442614839194689e-03,4.788587391376495361e-01
5.314349650809292447e-01,-3.979486108373367359e-02,4.145691177324467569e-03,2.620444926588678166e-04,-6.471999626451952143e-04,-5.212622644835704019e-03,5.506515502929687500e-01
4.878412743124270756e-01,-5.126023243982896771e-02,-2.782775862042874415e-02,-2.901303990952917855e-02,5.322030455819448322e-03,5.411669107862483730e-03,5.303254723548889160e-01
4.427966979942870585e-01,-2.969247213736465885e-02,-3.911600302469071810e-02,-5.090167797493560381e-02,4.539189881967711088e-02,-5.013209737656836897e-03,4.917488694190979004e-01
3.579804216998956901e-01,-2.431316330318818164e-02,-1.471302518246142554e-02,-7.238598327028715473e-02,1.760272612664736877e-02,1.994513408542395935e-03,3.990378081798553467e-01
4.331543694349464513e-01,-4.701664019187123955e-02,-1.874266453199160964e-02,-3.513904811790280469e-02,2.206649209023408068e-02,2.848432125776957993e-03,4.722040593624114990e-01
5.321194740954734437e-01,-1.270681015836366834e-02,-1.587695325121943335e-02,1.519966369461769808e-04,-1.119470188043475119e-03,1.781881084048928324e-02,5.472926497459411621e-01
5.296468752376133349e-01,1.118199731738281355e-02,-2.098684063557593182e-02,-2.621582089770002101e-03,-2.243106732598172583e-03,2.450511134602787952e-02,5.369881391525268555e-01
5.309216528860905004e-01,1.323099720043879879e-03,-1.543219183850691456e-02,2.022519883068661997e-03,2.100243260875817378e-03,2.416852773145748701e-02,5.398210883140563965e-01
5.459094065873066892e-01,-3.075146343178400410e-02,6.111379054828114388e-04,3.818702530642373050e-05,-6.483714018177626735e-03,4.187979954832097423e-02,5.664129853248596191e-01
5.504814457564977115e-01,-1.720691391472589649e-02,-1.774262280620902965e-02,7.513124163494993950e-03,7.816864565295220113e-03,2.525891124735375401e-02,5.699483752250671387e-01
5.326424502727465926e-01,-3.406094541124057851e-02,-1.590397835339532606e-02,-2.908683398736009069e-03,-3.237095892745826212e-04,7.535209535078588386e-03,5.580222606658935547e-01
5.179915018793667114e-01,-4.423977860640496140e-02,-4.473261025217192821e-02,-6.557263576717525973e-04,6.494736831104407603e-03,-7.312127240072500804e-03,5.627340078353881836e-01
5.314192858595756519e-01,-1.656106244841817898e-02,-2.281797817589323318e-02,-5.355465728968573230e-03,-2.503375722247388156e-03,1.320862082320370043e-02,5.517051219940185547e-01
5.361721629085665075e-01,-2.316363287597233978e-02,-2.844735114010718546e-02,-6.478327326866151203e-03,-8.074825075765701757e-03,6.954165317101920242e-03,5.624112486839294434e-01
5.481130712207719080e-01,-1.818040260779293926e-02,-1.703855728508307799e-02,-3.532113185338782869e-03,2.468596883330041042e-03,1.926254724502744070e-02,5.667555332183837891e-01
5.702775546416285479e-01,-4.878929355570002513e-02,-6.504472930905613737e-03,-2.536098981598907710e-03,1.693118745762863669e-02,2.976240595651317294e-02,6.019894480705261230e-01
5.767251674405061701e-01,-3.977635130374498895e-02,8.902731825628229512e-04,7.917083676720502658e-03,2.002580721351285460e-03,1.979666351774195601e-02,5.983582735061645508e-01
5.487047494168103556e-01,-3.280537480862372179e-02,1.577275570100761248e-02,-9.990890257554401951e-04,-3.453065547749150678e-03,2.994285290436185867e-02,5.612429976463317871e-01
5.971218768793947751e-01,-5.161541647369935482e-02,3.709688276351300051e-02,-5.648610811341543518e-03,1.025433031544959774e-02,4.295274555807841038e-02,6.141049861907958984e-01
5.795382867799757642e-01,-4.920570294299567160e-02,3.761069484652718176e-02,3.849946950952485517e-03,7.241399558541222747e-03,4.434821762904352788e-02,5.952922701835632324e-01
5.908091060953115647e-01,-3.378443139575967868e-02,1.291435425767595291e-04,-1.666529489169253295e-02,-1.661386275285849784e-02,4.274164120500240777e-02,6.141879558563232422e-01
4.464514254245508518e-01,-1.828345406191816958e-02,-4.791850308572606632e-02,2.399207274674242975e-03,1.965989276231648250e-02,4.029364762646110015e-03,4.815129339694976807e-01
3.709817521485569980e-01,8.667345157831463087e-04,-1.924456718235115216e-02,5.348829021037243385e-03,3.464561338461811385e-02,-1.153841652725684633e-04,3.853828012943267822e-01
3.870780849352805086e-01,-1.452718221294616030e-02,-2.112649925203535783e-02,-3.691296655358536349e-02,3.946329762850296630e-02,4.352823739079535008e-03,4.156889021396636963e-01
4.272815472407535675e-01,-2.793872408626045523e-02,-3.459343323570164552e-02,3.697113351279157807e-03,4.223148705596706937e-02,-9.734768627468238372e-03,4.647310376167297363e-01
4.868525568704512585e-01,-2.102296734149319835e-02,-5.171677746310437973e-02,8.759892581763007585e-03,1.717564669968877841e-02,2.506945977803028223e-03,5.249784588813781738e-01
5.364759892685563303e-01,-2.742896478584136433e-02,-8.354418404310448576e-03,2.139279943012855310e-03,1.812053738004806239e-03,1.737582842522231510e-02,5.554509162902832031e-01
5.590865362308679032e-01,-2.537562501323875619e-02,-5.469339871165604383e-02,-3.592059448364123136e-02,-1.119662528050924602e-02,4.302358909669301741e-03,6.032356023788452148e-01
5.512713960432937821e-01,-1.026373767351990152e-02,-5.573330043979071724e-02,-2.740343921881792377e-02,-1.121478555720865780e-03,9.881100260361283180e-03,5.877681970596313477e-01
5.357963599129720311e-01,-2.175227281531716406e-03,-5.139328999481268534e-02,-3.034508078820647575e-02,-9.923580828621277050e-03,9.859888717197723765e-03,5.671536922454833984e-01
5.503282356164225231e-01,1.293959469551320129e-02,-6.366060621573690903e-02,-1.314595286382675039e-02,3.922168431842011117e-03,2.085818061177027380e-02,5.811092853546142578e-01
5.499880886541037572e-01,-4.375325662923373882e-02,-3.261986159906668514e-02,3.665790915267934380e-02,-2.778825966384823251e-02,-7.738534295542627735e-03,5.937760472297668457e-01
5.502513562406503578e-01,-6.321216264186885203e-03,-3.136631079956556101e-02,1.135715239681090978e-03,1.217886660772271763e-02,-2.494073310206556399e-02,5.715370774269104004e-01
5.207548909878709775e-01,-9.040362730902667954e-03,-3.818226677601699315e-02,1.827931506959431726e-02,-1.236937156759270254e-02,-1.912223132541257184e-02,5.472932457923889160e-01
5.504861196926378319e-01,-2.035262691288197701e-02,-2.850204320060012453e-02,7.384289509365961346e-03,-1.008819039542809166e-02,-1.366541072426124062e-02,5.758510231971740723e-01
5.186078637997115770e-01,-4.324452287718602572e-02,-2.038469512970841890e-02,1.133185647343911730e-02,-2.282396177426630410e-02,-1.896083464146070333e-03,5.525537729263305664e-01
5.460231725856067309e-01,-5.245259404041735518e-02,-2.378353416822376332e-02,2.959458827767192778e-03,-5.216772939521874264e-02,-7.729969103675692760e-03,5.917832255363464355e-01
5.048208795368424040e-01,-4.374774586113125419e-02,-3.148417061608696499e-02,2.427288272539829608e-02,-3.858043603673775440e-02,-7.033792534236043940e-03,5.483902096748352051e-01
4.989594531045594139e-01,-5.180926231340726718e-02,-2.270746857426433896e-02,4.168112710997672055e-02,-4.446952872092636844e-02,-1.443496071989864085e-02,5.476626753807067871e-01
5.451557752109100763e-01,-6.700548846874787579e-02,-1.279553231062907637e-02,2.198927813005496779e-02,-8.851118025680407286e-03,-9.130016725587403875e-03,5.885835289955139160e-01
5.263767739619260588e-01,-2.184161264540659952e-02,-2.439783159741804042e-03,-2.229094700508217446e-03,1.267679599084477627e-03,9.618252104739495600e-03,5.390553474426269531e-01
5.319589129788653281e-01,-4.212673829600668829e-02,-1.082071906038270526e-02,1.431657511584618486e-02,-1.040218031514789435e-02,-1.663089372747380418e-02,5.606704354286193848e-01
5.302002940191916647e-01,-1.334761191546335324e-02,-1.982529000825608567e-02,-3.752329113109334393e-03,-4.984232062597725513e-03,1.000347007994730961e-02,5.471966862678527832e-01
5.264256817839222391e-01,-1.634142210680544771e-02,-1.570739504527760011e-02,-1.458136739920286567e-03,-1.826379392595297788e-03,6.650896848526873656e-03,5.425877571105957031e-01
5.256299738355838524e-01,-1.286972119398405168e-02,-1.807847124632833147e-02,9.874117151614607551e-04,-5.062321817368041141e-04,4.236044437662728548e-03,5.411760210990905762e-01
5.260050869552871378e-01,-1.114042156209965606e-02,-2.275352283915138552e-02,6.876926468229992975e-04,1.184449445890455651e-04,3.433719555506039613e-03,5.430791378021240234e-01
5.236016121938941170e-01,-8.978305353819243662e-03,-2.064593672448877815e-02,-4.127614787806331391e-03,-8.833120085148593115e-04,2.082325245204362865e-02,5.397645235061645508e-01
5.320961399931077862e-01,-1.464659219027023007e-02,-2.908868914869991440e-02,-3.646505632256246462e-03,-4.479290731494610031e-03,8.469462671441430751e-03,5.543893575668334961e-01
5.299009082799047698e-01,-2.652736384578183171e-02,-9.192457500373674151e-03,-3.295246980363661284e-03,1.655735901214086840e-03,5.164044278952656560e-03,5.480767488479614258e-01
5.319903333717151961e-01,-1.397435716966186070e-02,2.107535629238266317e-03,-6.269749245182940599e-03,-4.745451746339308420e-03,2.809408811425078561e-02,5.404713153839111328e-01
5.644874564132392747e-01,-9.313551793154489777e-03,-2.583220801027419355e-02,-4.513915931566976625e-03,-6.898987951161414042e-03,3.174924329259006667e-02,5.850015878677368164e-01
5.341209573436660474e-01,-2.818996124640676948e-03,-1.546151634801518071e-02,7.978183646872463817e-04,-5.812256465957781331e-05,2.150531800199018129e-02,5.446484684944152832e-01
5.248239852733902477e-01,-5.165232694506194377e-02,-4.547713293752073116e-02,1.442842467475870900e-03,-7.064252531220130416e-04,1.066021697061878600e-03,5.734233856201171875e-01
5.343243674747635286e-01,-2.138261111724520935e-03,-2.398514738209570063e-02,-3.308657011640566553e-03,-3.312237350186119679e-03,3.120138486440404008e-02,5.504323840141296387e-01
6.416536424800404204e-01,2.806381434089991189e-02,-9.424098317208773334e-02,-1.327326683215905925e-02,5.486877572886332370e-04,9.589841607009283106e-03,6.835943460464477539e-01
5.653444991137033249e-01,3.169058045233921761e-02,-6.599755993348355165e-02,8.255740041364059874e-04,-4.471680976764840464e-03,5.070285419359871378e-03,5.887277126312255859e-01
5.720856738672422948e-01,2.969884707746570096e-02,-6.942271674594993613e-02,1.394445655233263063e-03,6.397439472938555062e-03,3.016309211260452820e-04,5.982471704483032227e-01
6.547594494726621805e-01,2.211941251694959920e-02,-9.996898275407331558e-02,-5.100916230772883052e-03,9.341368706191259183e-03,4.859122725467350697e-03,7.019883990287780762e-01
5.577648175391518581e-01,3.254250454892509969e-02,-6.847042607828890404e-02,2.146066240924354111e-03,5.554416217135693494e-03,-2.190103699577976651e-04,5.824283957481384277e-01
5.613177948458456523e-01,3.042730357326872692e-02,-7.084562780075340238e-02,-1.884154578668577676e-02,1.249255992359381631e-03,-4.927484723899686059e-03,5.890740752220153809e-01
5.423538107944753106e-01,-4.633409892133927288e-02,-4.304815516324753122e-02,-8.787858732328358499e-04,-6.677219779060497833e-04,-1.775243665264564057e-03,5.870630145072937012e-01
5.135640615686125621e-01,-2.877501745532751176e-02,-3.958697108010875154e-02,-2.740204175703131809e-02,9.157502399954478914e-04,3.023489097767301063e-03,5.499044060707092285e-01
5.357327637397449882e-01,-2.055869571244373084e-02,-4.892215177298256390e-02,-3.371066903495236605e-02,-3.838817088543119288e-02,1.175863543330767785e-02,5.781764388084411621e-01
5.623969800491268600e-01,6.911588718936656495e-03,-4.985964660793942849e-02,-3.267347001196731909e-02,-2.460019332810476841e-02,1.604407036949490398e-02,5.908578634262084961e-01
5.361223878409240307e-01,-3.287149798472330242e-02,-4.215520515073323260e-02,-2.823492910913010315e-02,-9.087771619878007995e-03,7.072490816454534042e-03,5.761181116104125977e-01
5.304954382101604304e-01,-5.169360375426446108e-02,-3.917959106455884410e-02,3.385755330069810300e-03,9.343250451662847306e-04,1.583977861255191815e-03,5.760726332664489746e-01
5.335151181016630773e-01,-1.487371975164811233e-02,-2.928117542970767873e-02,-1.767253943653213435e-02,2.225044915427447085e-04,2.163267442814188410e-02,5.578349232673645020e-01
5.219467648646310964e-01,9.240935196555333242e-03,-5.207649643661432792e-02,-2.758612631893220257e-02,-4.561033960542122331e-04,1.525863535776478958e-02,5.486775040626525879e-01
5.600090309988952075e-01,8.520055904596424146e-04,-4.572277028671925536e-02,2.559089062039186357e-03,5.085827133573943585e-04,1.412687077380553151e-02,5.843693614006042480e-01
5.635230718440498165e-01,2.427297899774474854e-02,-4.781141813013325970e-02,9.330151978193531453e-03,5.188698379903744148e-03,3.844808326844935398e-02,5.827821493148803711e-01
5.469913612618628740e-01,2.320633495280333136e-02,-3.175571112567543430e-02,-3.618902939069890221e-03,-4.642692891225858216e-03,3.538819453761928024e-02,5.567951202392578125e-01
5.681856738573881627e-01,4.924513748809908331e-02,-6.523051098023807670e-02,3.527938228978481916e-02,2.296209265764164245e-02,3.747372935779166858e-02,5.927381515502929688e-01
5.932374463436496104e-01,-2.541185761566017165e-02,-5.866544668531115114e-02,1.669783433260550384e-02,-1.624907482863131511e-03,1.988813643198228745e-02,6.375233530998229980e-01
5.334701882750094715e-01,-4.011660162379684924e-02,-1.317725644817949182e-02,-2.003584127517005296e-03,7.373882755276200095e-03,-1.465023496055717182e-02,5.613328218460083008e-01
5.168867235010244920e-01,-2.504491079518503249e-02,-2.804336764497414314e-02,-2.453937102855099223e-02,3.446291932191757751e-02,-1.533736500785008727e-02,5.489983558654785156e-01
5.259224645354078076e-01,-4.089618030171973673e-02,-3.660202912454765811e-02,-3.039017523434626566e-03,3.801218649576974546e-03,-1.710247985385078898e-03,5.647544860839843750e-01
5.260717804920816976e-01,-2.167723115095909758e-02,-2.728960468899971348e-02,2.983047682549555459e-03,1.944021387861698475e-03,1.143813291213732850e-03,5.506147742271423340e-01
6.061310795893206649e-01,2.401775990417034934e-02,-6.182837399088761399e-02,-6.443520778167469154e-03,-9.129367317515251282e-03,2.269692533024046666e-02,6.309657096862792969e-01
6.348607035564293177e-01,2.387344079383701967e-02,-7.002889226790592891e-02,2.771763891207297634e-03,-1.381327700586783454e-02,1.851880872174513012e-02,6.641690731048583984e-01
6.066845190692553569e-01,-9.805620709557205661e-03,-5.374223182556153722e-02,-8.438035426598260169e-03,-9.580137273576556228e-03,1.776506271704248949e-02,6.407126784324645996e-01
5.597510715714089091e-01,-1.353327257483671886e-02,-4.395652533023849950e-02,-2.719875187360056359e-02,-3.107458478567590079e-03,2.136498822502196776e-02,5.921480655670166016e-01
5.491630134169734889e-01,3.113626090087642795e-02,-3.324376725339148186e-02,-8.952250116426578586e-03,-1.954164241476875376e-03,4.263501254419797132e-02,5.581685900688171387e-01
5.578941050493024800e-01,1.949731547646244012e-02,-5.487251182898400526e-02,-1.241775438330319781e-02,4.339365805652670854e-04,1.685535089617232890e-02,5.803084969520568848e-01
6.163277394708225332e-01,2.415849598067165704e-02,-6.615103142627012933e-02,-2.941876993841024968e-02,-9.168245674484109403e-03,3.554422931079172232e-02,6.472538113594055176e-01
5.980686848098886177e-01,-6.429858079439590424e-02,2.539358816616132941e-02,1.861537478369969245e-02,7.828102997722694023e-02,3.525764550502102218e-02,6.407172679901123047e-01
6.283563569319354780e-01,1.379422777024288949e-02,-7.499172314421639896e-02,-2.643413576885324939e-02,-2.194901372051620819e-03,2.649784973379986155e-02,6.665967106819152832e-01
5.221807527806295868e-01,-4.581208206133358107e-02,-4.327065376127534058e-02,3.088896369090326274e-03,-3.472239149923964964e-03,2.826034047895306916e-03,5.668047070503234863e-01
5.029750986858740891e-01,-3.404206644251653313e-02,-4.062459606222390551e-02,1.169080440582373134e-02,-3.724984891361410311e-02,6.792284403759656780e-03,5.446804165840148926e-01
5.117071003678737018e-01,-3.757202877179627309e-02,-5.063922647077259698e-02,4.593725908715488165e-03,-5.958228754437331492e-03,7.544137239267320605e-03,5.562341213226318359e-01
5.280339952936290437e-01,-4.095386629342981366e-02,-3.981423748639328908e-02,6.717564161652627569e-03,3.789976256425923486e-03,1.237184665891055083e-03,5.685799121856689453e-01
5.046842212992388443e-01,-3.504424936902744703e-02,-4.833339892103316604e-02,9.550751088898469868e-03,-1.934940830506197418e-02,6.688640936728949653e-03,5.478932261466979980e-01
4.798257621163250497e-01,-3.159591981199796895e-02,-4.704452764360544936e-02,1.100015698093176689e-02,-1.614577489041732483e-02,1.030235441928483917e-02,5.207254886627197266e-01
5.259673815053662604e-01,-4.101328017532759884e-02,-4.906237093676621419e-02,1.316774249248279724e-03,-6.969909460282482094e-03,3.497397930755803339e-03,5.712119936943054199e-01
5.331379272739185105e-01,-2.569040711468778548e-02,-3.831808879845052807e-02,2.289868683879915656e-02,-1.230665672871544825e-02,-1.124873541316886473e-02,5.673731565475463867e-01
4.815225700548583232e-01,-3.640638551645059007e-02,-3.973315849689440515e-02,-1.354668082324098251e-02,-2.791550678979332761e-02,-1.244644549473863764e-02,5.228170156478881836e-01
5.229347442939270563e-01,-3.689505232473480612e-02,-4.153287383570539171e-02,4.917423243578163128e-02,-3.753008269367680023e-03,-9.479778837231696634e-03,5.688527822494506836e-01
5.405072379612585465e-01,-4.630238933032757020e-02,3.053630077445423918e-02,1.919539082171872442e-03,1.060757832726758054e-02,6.025962801996558732e-03,5.528268814086914062e-01
5.286961476395380943e-01,-4.211033302108130316e-02,-4.353915529941307372e-02,2.034531285817483409e-02,-1.182461265061809236e-02,3.375225945913206630e-03,5.730035901069641113e-01
5.194702625843536925e-01,-3.819618177886666133e-02,-2.769754203552843297e-02,9.129652773744154938e-04,-5.502383850513029376e-03,-1.486335770277901272e-02,5.531757473945617676e-01
5.342221734803178634e-01,-2.570201192719837047e-02,-4.329553600436297778e-03,-3.040113466419856400e-03,-3.238095673785995176e-03,6.414552610411058085e-03,5.497158765792846680e-01
5.238249783345186872e-01,-2.502262462735302395e-02,-2.822022451254499464e-02,1.081876477553274200e-02,-2.777884390423853832e-03,-1.215780177336930716e-02,5.511956214904785156e-01
5.261315951443399364e-01,-2.573617143758782921e-02,-3.493617281554817211e-02,1.270833657644632880e-02,5.328165712899459242e-03,-1.396839390050397950e-02,5.575615167617797852e-01
5.174540552530302318e-01,-4.120996995137468644e-02,-4.090414426040361873e-02,2.430355121312445521e-02,-1.342053543663502407e-02,6.964513333501282663e-04,5.605787038803100586e-01
6.017517943669582481e-01,4.839968880432216070e-02,-8.274162507236848541e-02,4.596238433785192201e-02,4.370768405214669680e-03,3.271461436842770104e-02,6.368434429168701172e-01
5.645464973206320014e-01,4.605638661966629521e-02,-8.754781791187007944e-02,1.295118050263273021e-02,-1.187513899571560408e-02,4.414400463489917201e-03,5.974439382553100586e-01
6.457593733043485162e-01,4.008229880827504643e-02,-8.813729202495829140e-02,2.488070325005205252e-02,-2.439685128970003978e-03,1.051090223128862966e-02,6.805520653724670410e-01
6.352390841381390096e-01,3.640134698967331661e-02,-9.503674567488673564e-02,2.815193181636336042e-02,9.887337672095248761e-03,7.505152408024431260e-03,6.763375997543334961e-01
5.581859120873764457e-01,5.179395735232722453e-02,-1.241249732774986902e-01,-2.810164999173289310e-02,8.194718101448544845e-02,1.745963477857010240e-02,6.323716044425964355e-01
6.750789209873365726e-01,2.988926424130158854e-02,-1.135328814960059607e-01,-3.154745347962099877e-02,5.784996128728221026e-02,2.270669154450124377e-02,7.375272512435913086e-01
6.097590566408181978e-01,5.156069600861867830e-02,-8.728226339432648695e-02,-1.295091340150784642e-01,9.120214570615603131e-03,-6.207242926024790670e-03,6.775305867195129395e-01
6.313169363975004167e-01,4.779533367599633764e-02,-9.111708930135165030e-02,1.729559473102704192e-02,2.241219497541529007e-02,9.877942455093735932e-03,6.659951806068420410e-01
6.347090306844404006e-01,3.272503821811806324e-02,-7.848703314159050093e-02,-1.998375779451286999e-02,-7.607107541437799214e-03,1.244405376063973702e-02,6.659857034683227539e-01
5.606958999423401480e-01,3.479582347747264826e-02,-6.986475029001806836e-02,-2.422296174415933950e-02,6.486185227737627582e-03,1.131698978966065323e-03,5.869037508964538574e-01
5.397753019822957299e-01,3.814163266261369478e-02,-5.807182105857905396e-02,-2.168729026783478356e-02,3.029753595887070636e-03,6.468235874196796679e-03,5.574238300323486328e-01
5.324826303020813167e-01,-1.861869703231278095e-02,-2.142633689135756137e-02,-1.385541188570980041e-02,-1.014213035439857913e-02,2.306247978007107402e-02,5.547503829002380371e-01
5.349767999616816816e-01,-4.341809374758273665e-02,-4.288603510719113387e-02,-1.355022172427341846e-02,-7.018689377884205528e-03,-1.037859020965060117e-03,5.787357091903686523e-01
5.414077942047408332e-01,-4.011927869689621562e-02,-2.943228767949337965e-02,-1.823020465629427919e-02,6.021544799203741583e-03,6.438677101786545627e-03,5.773242712020874023e-01
5.224715939231862061e-01,-4.794448267274539766e-02,-4.368726992954252708e-02,-5.692069121766993312e-03,-5.660856927960613433e-03,-4.999188642388234516e-03,5.685354471206665039e-01
5.081464790836521805e-01,-3.822932612945970088e-02,-3.587396009431534361e-02,-9.802567317540858069e-03,-8.791625665253438235e-03,-2.716542048043009416e-03,5.456990599632263184e-01
5.241899344688635276e-01,-4.834993627540806749e-02,-4.290739703711554665e-02,-5.620196566356648257e-03,-2.005004033147103886e-03,-6.183494085194690161e-03,5.700324177742004395e-01
3.585963964785454094e-01,-1.004907212480249390e-02,-1.625273748700570287e-03,-8.738475672770509850e-02,1.092032681871037275e-01,-3.521358275677768240e-02,4.418929517269134521e-01
4.776193455893040229e-01,-4.393036277241973986e-02,-4.485501390268326061e-02,-7.029642343269462690e-02,4.598152842387186190e-02,1.001880211560598598e-03,5.419113039970397949e-01
5.143869999775121382e-01,-4.478039663376007229e-02,-4.489980241755880952e-02,-4.615267699239897214e-02,8.656755120437800710e-02,-3.123420767707016897e-03,5.844965577125549316e-01
5.772433729312642647e-01,-6.170310468014089667e-02,2.434362564352951508e-02,1.279753270698955059e-02,6.403330129042761332e-02,2.762330685191882046e-02,6.129915714263916016e-01
5.239235616935893347e-01,-5.197171177166301503e-02,-4.662745140692026169e-02,-5.799078671695669096e-02,8.512339240033006682e-02,-6.182027137591616581e-03,6.004561781883239746e-01
5.393566010565228330e-01,-4.173946330655989301e-02,-4.075777254283385886e-02,-6.890405618256394485e-03,-2.727842226395108677e-02,-7.973540557265711539e-04,5.826489925384521484e-01
4.270729646086924847e-01,-3.530207225803921878e-02,-3.354818236046608337e-02,-4.001264964231135424e-02,-6.877188535192638175e-02,-4.119805419821239226e-03,4.816902279853820801e-01
4.483798689961167039e-01,-2.656085268765123741e-02,-3.585730572263046145e-02,-2.173789943526790308e-02,-8.105602231712703831e-02,-1.037116897125285424e-02,5.015186071395874023e-01
5.354905237719955746e-01,-3.359828513950902096e-02,-2.552329755744939255e-02,2.268123253884806335e-03,5.874390059119420464e-03,-1.300937665626304349e-03,5.652043223381042480e-01
5.038471205638360706e-01,-2.518354431264971383e-02,-1.976991431440267011e-02,-1.331276686920492176e-02,-3.123132644973650521e-02,1.548126832245395185e-02,5.302976965904235840e-01
4.214490655088004578e-01,-2.675492668583151490e-02,-1.556862421794610873e-02,-2.369265315736338029e-02,-4.327219388018631319e-02,7.272060604803939031e-03,4.510635435581207275e-01
4.900138782881988120e-01,-3.433938703509042956e-02,-4.386742266269205714e-02,-4.644556423532267275e-02,-3.365662882271087952e-02,7.183886614845249804e-03,5.385702252388000488e-01
5.341693314513322743e-01,-3.670365207992942747e-02,6.895271628556881582e-03,8.713363341789358328e-04,-4.561138802310327721e-03,2.005805821193806446e-02,5.515242815017700195e-01
5.131782593829105066e-01,-3.615369478169072615e-02,-3.912561079334050951e-02,-5.668018623485069490e-03,-2.883915945513143217e-02,-1.014642517006585174e-03,5.531740784645080566e-01
5.389563080558876784e-01,-4.270212940666040513e-02,-4.608221707121198940e-02,-1.293975221096720302e-03,1.954647711384671388e-04,-5.877589952043236468e-04,5.833610892295837402e-01
5.263455003691546175e-01,-4.310143968490201538e-02,-2.169954296395626425e-02,-5.296803099683675131e-02,-5.359477902583945075e-02,1.144756680176906884e-02,5.744282603263854980e-01
3.881715738740525445e-01,-5.340466108132060907e-03,-2.734542130821619732e-02,1.260574551311573373e-02,-3.277355711992467613e-02,7.011871642564561705e-03,4.096848666667938232e-01
3.778964847831243201e-01,-2.462258123936704457e-02,-8.754328901342409153e-03,3.529244702634334180e-02,-1.389987213062495244e-02,9.376367929365015536e-03,4.005822837352752686e-01
4.116578048560425862e-01,-2.741275782525143256e-02,-2.854507802644076775e-02,4.524347940420300751e-02,-4.004860811983668167e-02,9.932160463209879081e-03,4.522498548030853271e-01
3.678814652386968032e-01,-7.267420938323956858e-03,-7.530654786272295009e-03,1.923722671898019446e-02,-1.421101910939796993e-02,1.496270788922552872e-02,3.784484565258026123e-01
5.802479828272333329e-01,-2.671307022231544925e-02,-5.359853557559401960e-02,-2.854022148094421604e-02,-1.145938763958551966e-02,1.028532498343950365e-02,6.233762502670288086e-01
5.417466898188587621e-01,-4.046141188855881254e-02,-4.269178438573872914e-02,-1.878870992507484725e-02,-1.146816468924019734e-02,1.863697750802798935e-03,5.845800042152404785e-01
5.558004638302356248e-01,8.514680798894308511e-03,-5.269689292076759624e-02,8.791852672175777018e-06,9.958874033952147889e-03,1.654665288148599034e-02,5.812811255455017090e-01
4.971838445865625067e-01,-2.533223353752939166e-02,-5.857721077836156032e-02,-1.098759379000820895e-03,-3.260846159498318603e-03,1.880522866840258133e-03,5.399494767189025879e-01
5.389541238744283147e-01,-8.831384435130262833e-03,-5.321454563287567052e-02,-1.998875149758850417e-02,3.065881712298900753e-03,1.012160256049490260e-02,5.726128220558166504e-01
5.334184418134486627e-01,-1.701403481025196007e-02,-3.917086165999722480e-02,2.874850954558303903e-03,-6.786730343544229889e-03,1.010325831657698896e-02,5.622560381889343262e-01
5.648992787223323653e-01,-1.577653103659687472e-02,-4.568561456252684394e-02,-7.774452817147952874e-03,-4.692377491788877163e-03,1.001942409256293201e-02,5.966531634330749512e-01
4.949437566293234392e-01,-3.021930651244841837e-02,-5.491788507683781351e-02,1.263193835927588909e-02,-2.014965486798517627e-02,3.029630509570071205e-03,5.395380258560180664e-01
5.162648990886521405e-01,-4.146531393308677815e-02,-5.168145541099036788e-02,1.463719913576623033e-03,-4.402979666618123122e-03,4.811258185266700967e-03,5.630268454551696777e-01
5.030696725731993446e-01,-6.198336407181945229e-02,-2.580470242694846150e-02,3.683527633629747611e-02,2.348398463125720304e-03,5.143335789599010272e-04,5.515784621238708496e-01
4.081193527407011024e-01,-3.621030752831119748e-02,-2.268839461293500892e-02,4.180541359501946386e-02,-1.725321785087596121e-02,-1.078046274051516068e-02,4.450710713863372803e-01
3.238737716376814957e-01,-1.907411029094774335e-02,-1.885011527731407510e-02,9.174267869871076397e-02,2.280634619347896019e-02,-8.840043209604856594e-03,3.802386820316314697e-01
4.017359666720539124e-01,-1.470960884802921531e-02,-1.959198650588894752e-02,4.178458596786772256e-02,-1.706613989608934609e-02,-2.698755595228520716e-03,4.261659979820251465e-01
4.989593784761198192e-01,-5.287469476333375717e-02,-2.900318399254792068e-02,1.354097491335114201e-02,-4.088862038544738113e-03,1.136532345985533619e-02,5.412072539329528809e-01
4.216105256771204290e-01,3.114387498006783439e-02,-1.878428237497956066e-02,1.199161907687622125e-01,3.624846874508338285e-02,2.438255609569177015e-02,4.725646674633026123e-01
3.570649030227259213e-01,-7.338393906796165933e-02,-2.364893563446450464e-02,1.043465133023737843e-04,-7.269027298459598135e-03,-1.406268453241067695e-02,4.087826311588287354e-01
4.485005286034035588e-01,-3.086378016588056661e-02,-3.040770493184472012e-02,7.337617395790556329e-02,1.035615194054412269e-02,-1.694699890089741310e-03,4.960385859012603760e-01
4.264777546253282203e-01,-1.580629637456068548e-02,-2.533695409089950501e-02,8.687888653919968729e-02,-1.919240211791054321e-03,1.266150955034194524e-02,4.722892045974731445e-01
4.840462721522406087e-01,-2.766295785338215851e-02,-4.389709772794933573e-02,-1.453624375535428510e-02,-2.252056131203203707e-02,-8.739818698016398046e-03,5.223041772842407227e-01
5.302992286525904930e-01,-4.173350346635407160e-02,-2.645122242045952476e-02,-9.890615217190586866e-03,-8.568429663074571614e-03,1.814696228922275641e-03,5.650103092193603516e-01
4.977749247797378374e-01,-3.176022921314813896e-02,-4.832127312986914114e-02,-5.734854097079271872e-03,-9.364422750784213295e-03,-2.576283587647956730e-03,5.383614301681518555e-01
4.948591042369093751e-01,-3.063898323845523630e-02,-5.389914496843456471e-02,-4.879259425983760792e-03,-6.791677225067595074e-03,-6.216633503845234686e-03,5.378087162971496582e-01
5.172967936438407355e-01,-3.867355459868201950e-02,-4.270966846350088275e-02,-3.575895750454228649e-03,-1.174975628659226390e-02,-5.513567708560963843e-03,5.584863424301147461e-01
5.320999118268098238e-01,-3.771468247207773739e-02,-2.499043971138106834e-02,5.471883589059423937e-03,6.347460068797918182e-04,4.267082497989510038e-03,5.636894106864929199e-01
5.391426581040339450e-01,-4.490526642045830630e-02,-4.122253204781223257e-02,-3.225845516579714956e-03,-2.183704942025939399e-02,-6.140958293060693081e-03,5.835662484169006348e-01
5.008234652756891059e-01,-3.728280037216336051e-02,-3.529869154084333549e-02,1.148818326411984699e-03,-1.022385662064087541e-02,7.188621025044263503e-05,5.374124646186828613e-01
5.254718179392542377e-01,-3.365419863757648788e-02,-4.171919431046475224e-02,-2.716926364943899469e-03,-8.786849914644066437e-03,2.702388673855896876e-04,5.634272694587707520e-01
5.130495709546697425e-01,-3.843209124247143338e-02,-2.872796806711752637e-02,6.882531886390127855e-03,-3.484762093230936181e-03,1.380754540070223231e-03,5.468627214431762695e-01
3.767608431239625744e-01,-1.871642152166481943e-02,-2.095388309624607315e-03,-3.354553464201281282e-03,3.876123722007311341e-04,-5.325803584844877002e-03,3.875881731510162354e-01
5.114160565807472913e-01,-4.824696451431237376e-02,-3.958972920461578671e-02,6.434670667470949361e-04,6.204760815978638960e-04,-5.887365920136435234e-03,5.554807782173156738e-01
5.125098823155370686e-01,-3.059078284746100107e-02,-5.962302828468724059e-02,3.391688936927662965e-03,-2.009124408372914630e-03,3.058206770046113625e-03,5.582502484321594238e-01
5.319136789398750675e-01,-4.001336563431923121e-02,-4.502640149265865754e-02,1.633467682860288489e-04,-1.404886309089689415e-02,-5.056408643863290892e-03,5.750318765640258789e-01
5.307797742358009163e-01,-3.827697078859410018e-02,-4.511032918570107020e-02,1.138677250126041455e-03,-4.151796406581624403e-03,-2.257064426748125584e-03,5.725659132003784180e-01
5.271900360772502347e-01,-4.204870092306203788e-02,-3.396682433965908521e-02,-2.948650212021245755e-03,-1.105718163318091148e-02,-2.248435431833390244e-03,5.656019449234008789e-01
5.189848902243424655e-01,-4.401101780960750554e-02,-4.450287113018888685e-02,-9.564318401530411823e-03,-1.288341249793778509e-02,-8.523707116132471853e-03,5.641204714775085449e-01
5.188720941229761907e-01,-3.213536663966909401e-02,-3.675727559641187026e-02,-2.443860168222652951e-02,-1.958853867783131100e-02,9.586320081378206862e-03,5.562336444854736328e-01
4.987334776337971620e-01,-4.503264951718005671e-02,-3.709261810161063044e-02,-2.187601446873778388e-02,-4.069638028516266159e-03,-8.190117832092759509e-03,5.413997769355773926e-01
5.168487185440195919e-01,-3.606626269103660465e-02,-4.376488438177766893e-02,-1.362236011790036311e-02,-1.607124212977013855e-02,-4.683681745667517618e-03,5.580576062202453613e-01
3.933660394134721461e-01,-1.013168484339010966e-02,-3.217758907117004852e-02,-1.097833084882542526e-01,-1.716870796107929260e-03,4.116259709374482482e-03,4.565180242061614990e-01
5.019177704159583087e-01,-4.309320053670923079e-02,-3.691344131131979456e-02,-2.372030509837458681e-02,-9.437155352581848289e-03,-1.518513952142709275e-03,5.437546968460083008e-01
5.055703857493648590e-01,-3.826215449603176388e-02,-3.654134435815400983e-02,-2.983354338277166215e-02,-7.173314502201521767e-03,-5.318257667802464214e-03,5.456466674804687500e-01
5.249017131335027564e-01,-4.401902708858859703e-02,-3.891856972477683585e-02,-1.807955160289587138e-02,-4.195698959553799574e-03,-1.446355569468142860e-03,5.673048496246337891e-01
5.031029880854707148e-01,-3.670976054404623268e-02,-3.520342161728612362e-02,-2.546662220139233809e-02,-2.997311963319160277e-02,2.518015586704452566e-03,5.433661341667175293e-01
3.957130718102160327e-01,-3.520712934033953800e-02,-2.530075659159833346e-02,-2.426981666738076485e-02,-5.546901739913228518e-02,7.796022402162589363e-03,4.389775991439819336e-01
3.867852412452247313e-01,-1.192594150915868290e-02,-3.380917369831701325e-02,-1.598285807376667979e-03,-4.842770605242479459e-02,1.353735336829274766e-03,4.185970127582550049e-01
4.072435210163326547e-01,-2.807748453123999621e-02,-3.502989293643339608e-02,-2.457724161909674576e-03,-4.651746432609394494e-02,3.547891491698928600e-03,4.462361931800842285e-01
4.474044780748496208e-01,-1.640643643033493082e-02,-4.834937085243373733e-02,-6.288946503594031179e-03,-5.196569048656898143e-02,-1.548085652404781933e-03,4.890639483928680420e-01
4.409990630305544723e-01,-1.831703871333698053e-02,-5.280688385648046879e-02,5.935949676573240401e-03,-6.093433214587661712e-02,2.939906065124829517e-03,4.891555905342102051e-01
4.085595168662626842e-01,-2.234428754807078754e-02,-3.364822793713238835e-02,2.467257833834049160e-02,-5.973996886292360503e-02,1.787352102883237980e-04,4.507878422737121582e-01
4.672471715583416119e-01,-2.556995657441687997e-02,-5.434304967843045509e-02,1.214552420146771707e-02,-5.691882157167246076e-02,5.548255401339993557e-03,5.178133249282836914e-01
5.128521646373501719e-01,-2.852590236088797804e-02,-5.929251324492140762e-02,2.516024905545634089e-03,-7.897356952181942141e-03,-7.042604533080352698e-04,5.575847625732421875e-01
4.948952759969239557e-01,-3.598132626261835165e-02,-3.268246030952165482e-02,2.734070461287511564e-03,-2.839977422413645855e-02,-1.072607282512452612e-03,5.315402746200561523e-01
4.825256249260624353e-01,-2.724186457205984846e-02,-5.358990687109052575e-02,1.383732394362289391e-04,-3.747521802212546577e-02,-1.316796390277660735e-03,5.274532437324523926e-01
5.160027201261029317e-01,-4.797991665735376610e-02,-4.342428695429326191e-02,-4.086788971579371262e-04,-2.211709475521506357e-03,6.759016564491350867e-03,5.618541836738586426e-01
5.181298223888015642e-01,-4.804335997574366024e-02,-4.351908287767547456e-02,1.832765814638984614e-03,-3.469321703943696773e-03,4.471583594816398721e-03,5.640187859535217285e-01
5.313849708452147436e-01,-4.786291312369367335e-02,-4.744831145673036876e-02,-1.541785964810175327e-04,1.186362254760785434e-03,2.443427193555446596e-03,5.790598392486572266e-01
5.283817119880531710e-01,-4.606817020288037079e-02,-4.716314914227895394e-02,3.018625327746801311e-04,-1.906116351200145859e-04,3.709848585499297448e-03,5.750343799591064453e-01
5.259029689526345530e-01,-4.618925476015242615e-02,-4.694757255819803632e-02,-1.743940797091656164e-04,-6.776913145725495550e-04,3.681101683487533489e-03,5.725085735321044922e-01
5.120770848977147516e-01,-5.873806116429730606e-02,-2.933595236017583208e-02,-8.075443484847955045e-03,-1.117690236497064296e-03,-1.037489590071782181e-03,5.568786859512329102e-01
5.593619956529188864e-01,-2.989056681276214267e-02,-1.539069699161801918e-02,-2.963540333379259279e-03,-3.676399475381860946e-03,2.695365024728458778e-02,5.840643048286437988e-01
5.368295676853298559e-01,-3.381085422646279426e-02,-2.559676418227599393e-02,-7.987172268667684302e-03,-7.948061637642710522e-03,5.447315182525391819e-03,5.669925808906555176e-01
5.025195129422544982e-01,-2.921240952085679687e-02,-6.100704610775622982e-02,2.367044064934384264e-04,-1.176729978575691456e-03,2.763135120612621350e-04,5.483251810073852539e-01
5.367244823196478665e-01,-2.243203687946487834e-02,-2.796907645055193847e-02,6.877012796793872691e-04,-3.336879752293368394e-04,1.026829207569372043e-02,5.622284412384033203e-01
5.364588237622560651e-01,-3.182853626066889374e-02,-2.495079533545724315e-02,-7.380085211138378253e-03,-8.083890478362764156e-03,4.072522187468690172e-03,5.652419924736022949e-01
5.375069714504348006e-01,-3.065501873557233137e-02,-3.400922878758863566e-02,-7.542636020641617887e-03,-8.476528966598990619e-03,3.411279633703223277e-03,5.702158808708190918e-01
6.051142476701139028e-01,-9.060695082754138818e-02,1.586523687540009053e-02,2.329150741250508860e-02,-1.480569823463907288e-02,-7.818101078106988802e-03,6.509668231010437012e-01
5.384041468449687340e-01,-6.613132305603816596e-02,-3.015285617824603470e-03,1.842596850535148725e-02,-3.424423752763949141e-02,7.412441323068055463e-03,5.796483755111694336e-01
5.293971937102224246e-01,-6.441298185648625108e-02,-1.197152165253098643e-02,1.801291739534737271e-02,-1.472816058425399470e-02,2.902199716939564845e-03,5.708500742912292480e-01
4.974499946015200624e-01,-6.695599886623224140e-02,5.721959812643620524e-02,1.049531205245412060e-02,-1.462342175256872712e-01,1.292814245418062551e-02,5.734748840332031250e-01
5.714657311642185045e-01,-8.692378987873455864e-02,5.089884765096430730e-02,2.145687386725605994e-02,-8.655650358890605578e-02,-3.154452243328541988e-02,6.233564615249633789e-01
5.226596079822296570e-01,-4.798278801393715542e-02,-1.148720377781206614e-02,1.937911209557839631e-02,-1.462883808840330108e-03,-2.181462488601928346e-03,5.543339252471923828e-01
5.588312113967460748e-01,-1.753446486643919777e-02,-4.345399649442222012e-02,-3.424428825528912090e-02,-1.861796655912844808e-02,2.105796500009915126e-02,5.947239398956298828e-01
5.625715273238960368e-01,-3.656054406951417257e-02,-3.545775631804912176e-02,1.506994107389587022e-03,-2.093354412352066516e-03,9.030965010568365800e-03,5.988024473190307617e-01
5.313098884895517404e-01,-2.820171403559776357e-02,-2.293763467888843000e-02,-6.615704477989126607e-03,-5.292951305274007194e-03,1.763283279906559600e-02,5.579280853271484375e-01
5.499883251578426835e-01,-2.224181893363488816e-02,-2.068382661421433455e-02,5.813662547775180940e-03,4.993168505287944384e-03,2.311613018403322825e-02,5.730074048042297363e-01
5.136206691077853659e-01,-4.866313239406266922e-02,-3.888790363205477107e-02,-8.109386686924636642e-03,-1.382144447801239920e-02,-7.839043515958144664e-03,5.583161115646362305e-01
5.428629233016928346e-01,-3.810622647430511600e-02,-2.072697432419384755e-02,-3.016633855200221911e-02,-5.755128402533393750e-03,2.031573972882723747e-02,5.760190486907958984e-01
5.262753975984144628e-01,-2.287392475824362448e-02,-1.445349416397942455e-02,4.870106086148376053e-05,1.144306832695637802e-03,3.872989200761181409e-03,5.450327992439270020e-01
5.275374462103046280e-01,-1.999595384660105002e-02,-1.411457093147971964e-02,4.102874533516442240e-03,1.352388395625471994e-03,1.416533186031490067e-02,5.452202558517456055e-01
5.273799752973922228e-01,-2.451908854872156263e-02,-9.727905666411795771e-03,7.515781315932786250e-04,-1.840321841058809417e-03,1.621000585755699415e-03,5.446722507476806641e-01
5.233208411126735182e-01,-3.978954175278165417e-02,-2.998865208509224334e-02,7.234460671095203563e-03,1.189122259567448187e-02,-9.813991200493043382e-03,5.590532422065734863e-01
5.223667560264010357e-01,-3.428239242660191533e-02,-2.689985892371737908e-02,-3.910082013179459748e-03,1.256101160784395439e-02,-8.390216116179769618e-03,5.536548495292663574e-01
5.352723540843714600e-01,-4.011645763751006677e-02,-3.995750881646495389e-02,3.243686012416267632e-03,9.336881423931469789e-04,-7.262791346776849418e-04,5.753404498100280762e-01
5.237917675951870855e-01,-4.502199190132960549e-02,-4.811189470076207564e-02,-1.229572416231417779e-03,1.903681091471317016e-03,1.386838407023462507e-03,5.703835487365722656e-01
5.416495493656345861e-01,-3.969238412872080901e-02,-4.581071502066361156e-02,7.942482767656515452e-03,3.359456649212702942e-03,1.374352555201122181e-03,5.846208333969116211e-01
4.877694655969798676e-01,-3.592080777891079602e-02,-4.629279033787597752e-02,-1.860625787864540184e-03,-4.653452715016705328e-03,-8.332493247041950976e-03,5.292205810546875000e-01
4.735136367760596765e-01,-3.660776139072602353e-02,-4.122988604576097171e-02,-5.653884350714257628e-03,1.608041442618511973e-05,-1.221042719288179153e-02,5.129778385162353516e-01
4.802347058675409119e-01,-4.482457254708291372e-02,-3.712650831717301259e-02,-1.686848493705263644e-02,-2.258289037286300479e-03,-1.110172751136394124e-02,5.224397182464599609e-01
5.066955190903492667e-01,-4.759712236178595401e-02,-4.059596066149673277e-02,-6.049258753508957552e-03,-4.831813977311653387e-03,-7.057055294022010310e-03,5.511242151260375977e-01
3.156166206881234060e-01,-3.204546940725279403e-02,-8.263517172229298269e-03,-3.894902695234857271e-02,1.138590035989781035e-02,-8.960775805550703216e-03,3.440164327621459961e-01
4.619223371703501391e-01,-3.588970214031117489e-02,-3.584787369593153694e-02,-5.055704689673451435e-03,-4.405181513857121985e-03,-1.182858281468974343e-02,4.983479082584381104e-01
4.831937471920275673e-01,-4.601406005321964643e-02,-3.721390185491518787e-02,-7.759651653573290328e-03,-5.753094037667121421e-03,-1.017558087783613022e-02,5.254253149032592773e-01
5.409035410190273785e-01,-4.055995223462602328e-02,-3.135016383719654853e-02,-1.072998678361338117e-02,-2.032095763113773643e-02,6.702971438266771241e-03,5.784016251564025879e-01
5.536196031495033143e-01,-3.207706399701779065e-02,-1.351123305828183518e-02,-2.332264759540394680e-03,-3.968041766569519943e-03,1.282769740379312816e-02,5.771209001541137695e-01
6.115270630344146197e-01,-5.061855234338455412e-02,-1.696900446264051898e-02,-1.137973429597669006e-02,-2.598871317107734683e-02,2.642689197434972340e-02,6.494598388671875000e-01
5.607196865099990379e-01,-3.645609347854220084e-02,-1.027763852730997907e-02,1.499162771242994012e-03,-1.689531697908651028e-02,4.011127043304765077e-02,5.893733501434326172e-01
5.224314688881093183e-01,-3.043949266503795381e-02,-1.349342838105951903e-02,2.501554517587179730e-03,-4.788310032714063712e-03,1.459749690254835523e-02,5.452625751495361328e-01
4.866977638224843639e-01,-3.391287294409336961e-02,-4.114925565718616229e-02,-5.263210132359568555e-03,-3.702251589458956799e-02,-3.882910583222367153e-04,5.282524824142456055e-01
5.005603229509067997e-01,-3.964579082521343945e-02,-2.724872618313817219e-02,3.732281766243650181e-03,-1.687099201275966270e-02,8.532886722127996449e-04,5.349553227424621582e-01
5.111312782215160500e-01,-4.035336918437112952e-02,-4.435307611277791717e-02,-1.681078445363913196e-02,-1.977150561577438459e-02,-8.506401351460569221e-03,5.555130243301391602e-01
4.396666964079471995e-01,-3.388170601571605101e-02,-3.056805699973957902e-02,-3.700071418218209285e-02,-7.895424619593782722e-02,3.150547586685789863e-03,4.955079853534698486e-01
4.602488953175852826e-01,-2.567155099359597070e-02,-4.771720419565853022e-02,-1.506078588131200095e-02,-2.462292684531406164e-02,-1.082029335963601534e-02,5.001676678657531738e-01
5.070007369589599744e-01,-3.515704972236258219e-02,-5.123939298905277884e-02,-1.183316363727499911e-02,-4.132709960714153752e-02,-3.104471632090892354e-03,5.554148554801940918e-01
5.062063171478231594e-01,-3.888152409407563681e-02,-3.562996733219100931e-02,-7.589625300986566070e-02,3.567235833773916859e-03,1.629740559733878569e-03,5.591831803321838379e-01
5.386718316611808222e-01,-4.262987220054609283e-02,-4.109438686743105418e-02,-3.575008055843938853e-02,6.137546403145207122e-03,-5.805635275326831608e-03,5.840117931365966797e-01
4.752351683733432863e-01,-3.413988792992533883e-02,-3.349579783770817443e-02,-1.356379699386945671e-02,7.694192373668485782e-03,-1.248586380335104870e-03,5.097739696502685547e-01
4.919754132133916658e-01,-2.568601327154318437e-02,-5.590468468253936840e-02,-5.285606993314541716e-03,-1.116820927924237240e-02,-2.139856475294391394e-03,5.338551402091979980e-01
4.817059130273037004e-01,-5.237669818491552665e-02,-2.554676541809119961e-02,-3.570480980199804144e-02,4.383144050033696212e-03,-5.303773049055326982e-03,5.249773263931274414e-01
5.278802091020392551e-01,-3.707009853567691526e-02,3.940547020495233088e-03,6.650965944147295070e-03,4.244587250760786454e-03,2.009415907843834989e-02,5.468819141387939453e-01
5.431838165165521204e-01,-4.187321376930544514e-02,-4.085586181921704862e-02,-2.201591159604419229e-03,-7.786741625127690082e-04,-2.956061154637972411e-03,5.845854282379150391e-01
5.386580701610385047e-01,-4.641513535997793261e-02,-6.742098664351381387e-03,-9.197897880388624216e-04,7.327499712567587739e-03,3.084135110051293774e-02,5.689377188682556152e-01
5.957453882507814935e-01,1.768269239588143860e-03,-2.570822419163873440e-02,-1.586623364762261221e-02,-9.730658531574051806e-03,5.289932208750144915e-02,6.158883571624755859e-01
5.190457303409015122e-01,-4.729418135739785201e-02,-4.360992221403686697e-02,4.104266131365263796e-03,-5.714295232822041472e-03,8.197716436785880759e-03,5.648168325424194336e-01
5.227077334579645074e-01,-4.473028403593481972e-02,-4.051856659016950246e-02,2.428064098747554581e-03,1.325600584732912826e-03,2.566720301682215866e-03,5.653817057609558105e-01
5.278187408401106007e-01,-4.138308360941045372e-02,-3.898128374515902328e-02,7.383527431618193415e-03,-2.554935527372627271e-03,-5.848101341033339669e-04,5.681667923927307129e-01
5.221344052296432725e-01,-4.449922898837146978e-02,-4.324307951746222956e-02,3.428566168337056179e-03,-2.874001793910846078e-03,2.515633725272287298e-03,5.660763978958129883e-01
5.047586771516372472e-01,-4.107746857004279661e-02,-4.273161564093080900e-02,9.944755150072905059e-03,-6.788406802677567943e-03,8.440855199365788347e-03,5.472580790519714355e-01
5.266507402692028883e-01,-4.358712609306586439e-02,-4.230934152897020128e-02,1.543505358213345625e-03,1.987129655473049775e-03,2.160814833145197414e-03,5.696290135383605957e-01
5.260213631113823674e-01,-4.460965366585931124e-02,-4.802882049205706161e-02,5.837136870273795450e-03,-3.427006731327617624e-03,1.056693263885245078e-03,5.724712610244750977e-01
5.237392920836443366e-01,-4.158018588832076978e-02,-5.262440525512762646e-02,7.301811923931079279e-03,-1.096604619983791544e-02,6.648363574878373219e-03,5.714935660362243652e-01
6.124763932532912847e-01,-7.378869070477328540e-02,2.603578342135262624e-02,-1.324701057181506235e-03,9.079212964082078452e-02,-4.204201080906713739e-02,6.651737689971923828e-01
6.310651174955588250e-01,-9.095638283749246655e-02,1.974674420862801427e-02,2.238064362263008159e-02,-1.708695039556248560e-02,-9.420418034897822326e-03,6.754887104034423828e-01
6.141429041482923123e-01,-8.211737908672120390e-02,3.775658224271871699e-02,7.952260016490604946e-03,-5.077785881626540460e-02,-2.334556718825360130e-02,6.521078348159790039e-01
6.191526887196050488e-01,-8.226207177935618287e-02,2.193565962404542269e-02,8.910815005880564146e-03,-1.164484447741879342e-02,-1.239005604554150111e-02,6.563989520072937012e-01
5.377331790973512993e-01,-3.951078934763030404e-02,-3.533676875459565436e-02,-7.176236339922455534e-03,-5.960708732204013025e-03,-5.881724053496393580e-04,5.753961205482482910e-01
5.049892160334843449e-01,-2.935992478195567634e-02,-5.551084670416278621e-02,7.219980907271044942e-04,-1.930592487026409204e-02,-1.320526553750343357e-03,5.489185452461242676e-01
5.272579286350781436e-01,-4.009239701284950108e-02,-4.600449918271323768e-02,7.117123034671375519e-03,7.197721567998168271e-03,-6.378067413252510622e-03,5.707057118415832520e-01
5.265845287973547340e-01,-4.070629569940575898e-02,-4.092689046924219420e-02,8.408517427796764060e-03,7.995767022958262873e-03,-3.012994608805452407e-03,5.677809715270996094e-01
5.530106384476989323e-01,-4.305758149224955811e-02,-4.265025071318470640e-02,1.712357419901751245e-03,6.454152594062980558e-03,-3.885777646340200526e-03,5.960149168968200684e-01
5.449971474881052380e-01,-4.098604131111679982e-02,-4.225473494581069578e-02,-3.652134345170174583e-03,9.664210824429668098e-03,-2.780356214119450355e-03,5.869112014770507812e-01
5.253759682119154562e-01,-3.962842293322138554e-02,-4.061969134103662893e-02,-2.285520955036336233e-04,-1.392932189327395062e-03,-1.711828942617400675e-03,5.655137300491333008e-01
4.835264384790131653e-01,-2.672250665375033862e-02,-1.925263004763164143e-02,-2.805118585760012218e-02,-3.617955223141722243e-02,1.642221748544210602e-02,5.135122537612915039e-01
5.492002528559847274e-01,-3.354990344509306555e-02,-1.871776856914125764e-02,-6.760929924027800179e-03,-9.665166976781956742e-03,1.940637811400167459e-02,5.768201947212219238e-01
5.449334454094345581e-01,-2.811322782171998824e-02,-1.684641022570132485e-02,-4.129690444660159832e-02,-6.406650423219910351e-02,2.182735099507665186e-02,5.838768482208251953e-01
5.183383110094739177e-01,-3.200072538267695332e-02,-3.087539114381021577e-02,-2.542650170835033391e-02,-1.682966823698357761e-02,8.357558043226022762e-03,5.524977445602416992e-01
5.349557942581000258e-01,-3.632082110548745524e-02,-3.591261715075044769e-02,1.580620229453221426e-03,-2.568649553445371343e-04,4.115817513082131382e-03,5.711238384246826172e-01
5.183712926225103601e-01,-3.859012021523100522e-02,-5.999126189109818541e-02,1.193040356578446053e-03,-1.684815428874937224e-02,4.147905779094443815e-03,5.687627792358398438e-01
5.048714528867161988e-01,-3.159375946637732469e-02,-3.449817441233826720e-02,-1.171684629509856662e-02,-1.987790524811039114e-02,3.238791814234873948e-03,5.394350886344909668e-01
2.563873909223267633e-01,-4.088604061103159881e-03,-9.043487105252039082e-02,-7.927537373035262180e-02,1.992946455370862846e-02,1.193982344595483558e-03,3.432843387126922607e-01
5.268050003739841447e-01,-1.929352987402180308e-02,4.350164838919035049e-03,3.550394453006121449e-03,2.620729573447723795e-03,2.076176696442700448e-02,5.359313488006591797e-01
5.333740410362649564e-01,-3.473571902753344598e-02,-3.026310551854871633e-02,-5.247565175137279721e-03,-5.994530254952278557e-03,3.776728921968513716e-03,5.660927295684814453e-01
5.294452715642004037e-01,-3.267118712155961391e-02,-2.937294770324849758e-02,4.989453809149149190e-03,3.600714133200120289e-03,4.940070639529167869e-03,5.606412291526794434e-01
5.461378030940491346e-01,-1.702289589467192998e-02,-2.113615657157319472e-02,7.352988213358372174e-03,3.271468234419823429e-03,2.511227594327723397e-02,5.670709609985351562e-01
5.309608062649671112e-01,-2.208447833828777740e-02,-2.744570772354135157e-02,-6.287957081780550482e-03,-8.092621663054603773e-03,7.671399197114779980e-03,5.561874508857727051e-01
5.232523488118177024e-01,-3.659780808949794628e-02,-4.275598063725344344e-02,-1.498129054694949044e-03,-1.100215254412874842e-02,-4.284863765795714034e-04,5.632833838462829590e-01
5.283431489766123867e-01,-2.395455312913805090e-02,-2.953534218022382807e-02,3.752829048606131333e-03,3.454513471225702757e-03,4.265648495856529804e-03,5.552285909652709961e-01
5.246826022179698068e-01,-1.060904748189420155e-02,-2.757756088126742111e-02,1.503141007691187253e-03,-6.932651625378140293e-04,1.110141918504282087e-02,5.443217158317565918e-01
4.986418939031845299e-01,-6.283408687750588473e-02,-2.576548149091387185e-02,3.445917444845241536e-04,6.265984342666468601e-04,-7.973960153978188912e-04,5.438930392265319824e-01
5.232135308823387954e-01,-2.257095729181904376e-02,-1.657242377401949018e-02,-1.126109049256469700e-03,-3.531055748751124536e-04,3.996856009757908043e-03,5.428580641746520996e-01
5.242908977960687444e-01,-1.427445465372306765e-02,-1.479518962777529034e-02,3.622845563276475347e-03,2.240082453709745566e-03,4.622425396645009690e-03,5.389358997344970703e-01
5.249269072895810240e-01,-2.247860552427627390e-02,-1.125230505004168324e-02,3.081565740128930884e-03,2.732408865365867044e-03,3.020577210228004694e-03,5.419517755508422852e-01
5.262080980681201892e-01,-1.464647850406111673e-02,1.767704068721454025e-03,-4.977407131198784140e-03,-4.052750786692867896e-03,2.245126452738923500e-02,5.343698859214782715e-01
4.665065569085815045e-01,-4.772458472469540136e-02,-2.309168005632852849e-02,-1.966242142536230031e-02,-7.934163708861239825e-03,-1.194861797902225901e-02,5.041333436965942383e-01
5.255965379340494792e-01,-2.516305438925467430e-02,-3.529564593555661878e-03,-2.754044871705865240e-03,-1.645367661255487876e-03,1.089115215152005808e-02,5.406255722045898438e-01
5.328816174900564695e-01,-2.565425631739748358e-02,-3.295859531413231069e-03,-1.868209771985263274e-03,1.589977300613112324e-03,1.087497800643020748e-02,5.480393171310424805e-01
5.167073189912479991e-01,-4.293338557660245081e-02,-4.117006162705122430e-02,-3.155247808907634798e-03,7.443657598407439277e-03,6.333654705449191444e-03,5.590442419052124023e-01
5.125940808055646780e-01,-4.137336909251404515e-02,-4.692134830640898313e-02,-1.709988770309353752e-04,6.208275397108627310e-03,5.360774593813071205e-03,5.569434762001037598e-01
5.236829504682167791e-01,-3.441304992806246132e-02,-3.699487221948816185e-02,-2.321821789809651608e-04,4.779213998576595582e-03,-3.013971586505105171e-03,5.594771504402160645e-01
5.352214127390586551e-01,-4.335520890771826785e-02,-4.919076114431800151e-02,-1.077971523578295614e-02,1.938967580909576466e-02,5.119342599659351505e-03,5.828519463539123535e-01
5.205081173778638437e-01,-4.418286676878274699e-02,-4.210033825188605472e-02,-1.656297710983700364e-02,2.073196205371562878e-02,7.019760133938973516e-03,5.656540989875793457e-01
5.052336157821433194e-01,-6.260108371910763636e-02,-2.622929134882784341e-02,-3.540228217335870085e-03,5.358678974640218107e-04,-5.977491679418282626e-04,5.505865216255187988e-01
5.305726163441569776e-01,-3.806160273805586636e-02,-3.677893366294890387e-02,1.015447469134983448e-05,1.235538770428169938e-04,-1.040574265197339188e-03,5.679968595504760742e-01
5.222935149553226131e-01,-4.355538644749784583e-02,-4.830530608773744849e-02,2.188201739325048092e-03,-3.786790403377571527e-04,6.278196854553369684e-03,5.683557987213134766e-01
5.088756635460522926e-01,-3.800928413037046871e-02,-3.612842158192119957e-02,-4.672919093412108114e-03,-9.127834457708018656e-03,-1.459259139276019180e-03,5.462416410446166992e-01
5.277115806020932220e-01,-4.578391161966682832e-02,-4.634387345937102110e-02,3.118552662151001910e-04,6.987694292508039732e-04,7.997617688023390264e-04,5.737788677215576172e-01
5.274788890104502581e-01,-4.434416968430626715e-02,-4.740616716865694857e-02,6.016197877414732487e-04,1.187739170934597362e-03,5.018845903781278626e-04,5.733655095100402832e-01
5.520718687666816837e-01,-2.863178574695093848e-02,-1.342778944402814312e-02,-3.609575264929583763e-03,2.179199204620859472e-03,-1.974233461362422809e-02,5.743182897567749023e-01
5.306397803651342615e-01,-2.861575049327499953e-02,-2.136068064084886697e-02,3.427003045087703183e-03,2.114608805382438284e-03,-1.183156465680834137e-02,5.560850501060485840e-01
5.416850069094137909e-01,-1.656811340445465963e-02,-2.037724494073636650e-02,6.177978924602869730e-03,-4.568791647421750757e-03,-1.284639265040309584e-02,5.607671141624450684e-01
5.499426720436292326e-01,-2.139641043344495119e-02,-3.874078043447712338e-02,-5.000583383676569967e-03,1.053489243152377040e-02,-8.540619662267589021e-03,5.807456374168395996e-01
5.434138103228470795e-01,-1.890213574044252720e-02,-3.123903523412527306e-02,5.773635910676444896e-03,-5.311544679334253422e-03,-1.768190475634988032e-02,5.695711374282836914e-01
5.314088524706881422e-01,-2.136062826495624400e-02,-3.528647817272170806e-02,4.722117363301449322e-03,-1.976925644594182321e-03,-7.640706596515778326e-03,5.600888729095458984e-01
5.104124118754649331e-01,-3.886308122553949751e-02,-4.642443514153440920e-02,-6.424048265629448903e-03,-2.482644708132429948e-02,-5.970724974145717387e-03,5.549719333648681641e-01
5.328158005430625455e-01,-2.316211073702878487e-02,-1.741072228844531278e-02,-6.220883349524098001e-04,-1.658741193234661813e-03,-3.747958932907133073e-03,5.531712174415588379e-01
5.312920816315596095e-01,-1.745415145531514778e-02,-1.343498416461208489e-02,-1.393986046482792495e-03,2.877092403307689693e-03,-1.416396437285270468e-02,5.473258495330810547e-01
5.300447478668526280e-01,-2.244530507610631442e-02,-2.929555203633568694e-02,2.257918030367286194e-03,1.052497543305990803e-03,-4.553843822834128217e-03,5.560195446014404297e-01
5.036754990757728034e-01,-1.814644061466311187e-02,-3.591429931624140481e-02,3.592576783278138286e-02,3.308844315886472383e-03,-4.902641583726458779e-03,5.346610546112060547e-01
5.394702849499612984e-01,-3.031538260849506172e-02,-4.392858276136690776e-02,-2.898949246780344480e-03,-9.760328675638830880e-04,-1.490808727512883854e-03,5.767428874969482422e-01
5.376722167994180124e-01,-1.239400963191084060e-04,-5.661079467767832218e-02,-4.767078764571231744e-04,-4.744400916566994357e-03,2.535167581464476023e-03,5.682265162467956543e-01
5.466912498822271704e-01,-1.188258151896270931e-03,-4.771190027334890060e-02,-1.362563675087304776e-02,7.908410614813716696e-03,-1.063842269121444140e-02,5.735066533088684082e-01
5.337977576087453713e-01,-3.341258841912295163e-02,-4.331226354332101680e-02,-4.541969949424678500e-03,-1.951870834637043587e-03,-1.685619984055852392e-03,5.722959041595458984e-01
5.431111781342724543e-01,-5.105697646591847438e-02,-4.803910117977142069e-02,2.006765396073011479e-02,-3.617969255945398949e-03,2.524552408331873742e-03,5.937325358390808105e-01
5.340138606891662310e-01,-3.849711732648519735e-02,-3.614417830837493573e-02,-3.822113137615500405e-03,7.174255013555663524e-05,1.237192139506613098e-03,5.713805556297302246e-01
5.195404657314243169e-01,-4.352096348963213623e-02,-4.243941399420550487e-02,-4.776454809825190703e-03,-3.714718133073446459e-03,-2.317311790969864109e-03,5.626333951950073242e-01
5.569795738000387075e-01,-4.437950705586390932e-04,-5.010096457525911595e-02,-1.600691656850064537e-02,-8.478268865046344194e-03,1.256273592195486163e-02,5.850850343704223633e-01
5.462620013352906811e-01,-2.265305434835446219e-02,-4.997832457695225439e-02,-2.601418655084944062e-03,-1.434259931929005765e-03,2.737307708235507588e-03,5.831000804901123047e-01
5.782407337790267388e-01,-1.553699284787105062e-02,-3.398437536458956409e-02,1.675571494136618780e-02,-8.297956545454617666e-03,3.485248936049787499e-02,6.070904731750488281e-01
5.333353187707683407e-01,-2.034037786036710371e-02,-3.788544216089459460e-02,-4.502777238083974752e-03,-4.921674604933746339e-03,6.610209377667346752e-03,5.628885030746459961e-01
4.925587056480201786e-01,-1.914179804510399152e-02,-3.596164771264753757e-02,3.382676460068839014e-02,3.053439244522208884e-02,1.061405458236763799e-02,5.265879034996032715e-01
5.435849934431660202e-01,-4.413153872749869810e-02,-4.912718659780865305e-02,2.542840105822501487e-02,2.052096625752489537e-02,-4.208401654095601102e-03,5.929822921752929688e-01
4.446603609526025291e-01,-4.190054404417004053e-02,-2.190560090593832165e-02,3.525356999676482889e-02,-6.394261178147222710e-03,9.951329550951761721e-03,4.812075793743133545e-01
4.645046068276643680e-01,-3.310958380408252077e-02,-4.529584436749586884e-02,3.726176710524794350e-02,-9.605205709301839825e-03,3.739416783202982250e-03,5.082484483718872070e-01
4.650820613205163268e-01,-2.732278247467043175e-02,-3.148367556919251520e-02,3.006469788271127347e-02,-1.686047850263509146e-02,1.504953105692361653e-02,4.987711310386657715e-01
4.062656280804184394e-01,-1.884723253895076445e-02,-2.012536204996881462e-02,3.308472894276335424e-02,-1.400202240049214925e-02,9.542968132262734382e-03,4.305938780307769775e-01
5.013192764249764233e-01,-3.761172344743757279e-02,-4.151171872943912322e-02,2.859244749936830018e-02,-4.040904258436272406e-02,-1.719050521255525293e-02,5.484536886215209961e-01
5.254806647840448708e-01,-4.331863358112178486e-02,-4.275247506497006911e-02,4.244874123748405143e-02,-5.263835621511223258e-03,-4.512902661292011661e-03,5.733767151832580566e-01
4.295849588184978973e-01,-2.033018819774030927e-02,-4.178995322603622220e-02,5.733338286020573521e-02,1.780792200645096510e-02,-8.610033003103329668e-03,4.728364944458007812e-01
4.972436527554713326e-01,-3.748508693240676370e-02,-3.911884609733712326e-02,9.847337554288123490e-03,4.631521109288399933e-03,-2.455999811278931130e-03,5.358959436416625977e-01
5.351306761168144188e-01,-3.239615670161313798e-02,-2.468239662359184017e-02,-1.147392330503100265e-02,-9.900632374504343691e-03,8.112510022212023747e-03,5.644952654838562012e-01
4.809164668591262570e-01,-3.529009875612304503e-02,-3.656345705136732072e-02,-4.060078786148178104e-02,-2.163511271135782482e-02,-4.309199292265418132e-03,5.230041742324829102e-01
5.280290691332482078e-01,-2.510688879323563771e-02,-3.947025377670776436e-02,-4.026413873454222532e-03,-5.490302432263763702e-03,7.899989123736172840e-04,5.605814456939697266e-01
5.297010504372861028e-01,-4.410404199172207607e-02,-4.145441437926108974e-02,-2.639181283462565392e-02,-1.412119857582042406e-02,-3.224717557669378332e-03,5.748547315597534180e-01
4.928376353080660133e-01,-4.037716082684505992e-02,-3.520147714285964957e-02,-1.871191922142406011e-02,-1.014596914409357465e-03,-2.177340886817990401e-03,5.316509604454040527e-01
4.786189550070542031e-01,-2.573841955088301825e-02,-5.861751199373374521e-02,-8.042502791026672967e-03,-7.218492254233754672e-03,8.588039158397919133e-04,5.219126343727111816e-01
4.924314132943989897e-01,-2.870090500858443749e-02,-5.535107290426941051e-02,7.040940662751786483e-03,-1.204202099291673371e-02,2.645933831301509453e-03,5.355204343795776367e-01
5.237402983470629270e-01,-4.257013412465199265e-02,-3.550408700478624446e-02,1.206541243994337749e-03,-6.651573029914011059e-02,-3.147891851989837939e-03,5.745110511779785156e-01
4.937546692342421606e-01,-2.784809967085408178e-02,-5.057777850142369802e-02,4.218790253680162854e-03,-4.560672458573873309e-03,7.266819069201907975e-03,5.335879921913146973e-01
4.891282852085097055e-01,-2.694213216683996603e-02,-4.821723089275251062e-02,1.832260243244476436e-02,-5.138341289155189118e-02,5.318787026336140034e-03,5.355123877525329590e-01
4.901805056451663534e-01,-2.710279844459503873e-02,-5.048740597650619444e-02,5.422889338498662441e-03,-1.267468568081877266e-02,5.894414057874036890e-03,5.299997329711914062e-01
5.191537836982385024e-01,-3.457986801478665773e-02,-5.817586771985297500e-02,-2.995267989153425209e-03,-1.341287758126862364e-02,-3.942479535362962764e-03,5.664423108100891113e-01
5.115578126435433859e-01,-3.675388470208887370e-02,-5.062629056608525246e-02,1.507609154813629657e-02,-9.694905893980280617e-03,2.506627358110705139e-03,5.562618374824523926e-01
4.446122137904150451e-01,-2.022318330244413098e-02,-4.630996345558444083e-02,1.872085176607434084e-03,-3.380514272138227666e-02,1.462319721668873650e-03,4.819998145103454590e-01
4.438478670536432080e-01,-4.122405253806857295e-02,-2.156873112144547244e-02,-3.433600272376742665e-04,-7.469221197395598845e-03,-1.157859275692800852e-02,4.761478304862976074e-01
5.378199154120365533e-01,-4.396978519496672067e-02,-3.433405961311450372e-02,9.281409416048059732e-03,-1.369917782807747106e-02,2.600153078965233670e-03,5.777610540390014648e-01
5.177326035089316880e-01,-5.452806889303099536e-02,-3.725557818963601275e-02,-1.811602402778794522e-03,-7.075458490450431100e-04,-3.115826656748899547e-03,5.638588070869445801e-01
5.410627227110670345e-01,-4.723464483474484887e-02,-4.659027928007319908e-02,7.878884595118686163e-03,-1.999715647337661426e-02,-5.172063505729326436e-05,5.891528129577636719e-01
3.236846458754026878e-01,1.376800277863171607e-02,-7.058815169172774628e-02,-8.881639492802247127e-02,1.204759728694600879e-01,-4.707638108202069627e-02,4.507378935813903809e-01
5.134546525009091589e-01,-3.659163267269582853e-02,-4.522041111793403956e-02,1.015546310313916213e-02,-2.209995208639984818e-02,-2.111091992048843083e-03,5.560212135314941406e-01
5.281944151474754490e-01,-5.716964547076761050e-02,-4.593555117553835276e-02,1.124360599694406403e-02,-2.600648147593472015e-02,1.203669591713697230e-03,5.819053649902343750e-01
5.560967264793296172e-01,-2.280971503068973671e-02,-4.030482960720765950e-02,1.613187830278928897e-02,1.858578159220721079e-03,2.603386195518540142e-02,5.902466773986816406e-01
5.544657969146261633e-01,-1.296639539847585509e-02,7.411485629404995779e-03,2.129258930169151531e-03,1.186879725189037135e-03,4.574853509332311302e-02,5.631412863731384277e-01
5.654748386667917126e-01,1.365761912634994024e-02,-5.176124286809746788e-02,-1.581642066022651699e-02,-8.102438007164397549e-03,2.147846908848771719e-02,5.892474055290222168e-01
5.304099388128877823e-01,1.005018633326359989e-03,-2.224754060798952993e-02,4.476979506809781063e-04,2.690203815527517648e-04,2.035084353722530284e-02,5.425528287887573242e-01
5.894150455964956015e-01,1.942384215012846194e-02,-5.864972879514970816e-02,4.173324840090961163e-03,-4.003523377989158354e-03,3.549109992993770835e-02,6.159268617630004883e-01
4.072595049313453841e-01,-3.116919838345051652e-02,-2.506489625776343877e-02,-7.076155919189341947e-02,-7.547664481328357489e-02,-8.277147104543535611e-03,4.710604846477508545e-01
5.593849077663520797e-01,-4.081619575021205870e-03,-3.892248233089437570e-02,3.333633099772376034e-03,5.658966869739263765e-03,2.109705131735835348e-02,5.829277038574218750e-01
3.828217733264187572e-01,-3.135231565199293746e-02,-2.202892946885205705e-02,-7.790622465144209086e-02,-3.551665427123713165e-02,-1.141324648642027054e-02,4.360605776309967041e-01
4.077960003816095691e-01,-3.368677767483301000e-02,-2.104781802852619121e-02,-6.433687656819299383e-02,-2.535916203988856921e-02,-9.575138910808486323e-03,4.517841339111328125e-01
3.234406573147282082e-01,-2.716833901132829909e-02,-7.150902789929358683e-03,-5.644717993988303956e-02,-6.730104073315019628e-03,-4.895675728832914533e-03,3.550714254379272461e-01
5.422490750067543441e-01,-1.604509153423505641e-02,-2.631485037299802210e-02,4.521035361568706036e-03,2.469996362482989281e-03,-1.853969365176257739e-02,5.644840002059936523e-01
5.408379595082325464e-01,-4.312961163562231692e-02,1.112277579717438347e-02,8.812707921382207862e-03,-1.834299903219234473e-02,-2.583382673209366764e-02,5.617155432701110840e-01
5.425746209893411720e-01,-2.225374032336421837e-02,-2.406249372610022585e-02,-5.713926439135370676e-03,1.256063424691057639e-02,-1.671670937838219684e-02,5.669793486595153809e-01
5.360617493389424615e-01,-2.960255365573249975e-02,-2.775233356992054534e-02,3.344026724679684693e-03,-1.346162798858518972e-03,-1.007875764916728572e-03,5.647786855697631836e-01
5.346955082647681934e-01,-4.102003238987003697e-02,-3.925209128600848363e-02,1.191909836261358232e-03,8.347048829748147936e-03,-1.460991384684864751e-05,5.750191211700439453e-01
5.445618547677945065e-01,-3.811026220340649195e-02,-2.135281788922474555e-02,1.049590952410664989e-02,-9.378591164082846626e-03,-9.916050386645596654e-03,5.752502679824829102e-01
5.339207102497991464e-01,-3.309339923994594757e-02,-2.512543042071185839e-02,3.592284610178617002e-04,-2.893741163706765071e-04,-8.434354146189024237e-03,5.632624626159667969e-01
5.350058777369932628e-01,-3.633437519904617052e-02,-3.783849428209246080e-02,1.351502912631995408e-02,-5.325829275066771250e-03,-6.859302955026943226e-03,5.727700591087341309e-01
5.335587646949062623e-01,-3.658522342857190024e-02,-2.566777008060469600e-02,1.279449854901336565e-02,-9.993818924861843159e-03,-7.452071900294615116e-03,5.656113028526306152e-01
4.104277386004523409e-01,-3.474680885209699421e-02,-1.972435627311866502e-02,-2.656821153190046941e-02,-1.116749021280189456e-02,-1.230267183277132526e-02,4.412077069282531738e-01
3.053599488970968889e-01,-6.432076431996405774e-03,-5.779639971270025822e-03,-2.422204009502454750e-02,-3.250650679677598992e-02,-4.348791194856852296e-03,3.193714916706085205e-01
4.015967977694887558e-01,-3.071710118256976152e-02,-1.632945519029596615e-02,-4.351292783984873902e-02,-1.934702149369658952e-02,-2.903955841481334864e-03,4.332559108734130859e-01
4.608281737685571144e-01,-4.284777449305615660e-02,-2.999418077007112715e-02,-2.773530254321125363e-02,-9.291830289732112488e-03,-8.728416956133624657e-03,5.001758933067321777e-01
4.278917746925802734e-01,-3.048749779442806729e-02,-3.037299983025158745e-02,-6.409323251148653366e-02,-5.272879628785800965e-02,-1.265027188516919948e-02,4.808367490768432617e-01
4.333120417630973442e-01,-2.747218867903872264e-02,-3.049438247172353567e-02,-1.439470596796702841e-02,-2.775405620713289681e-02,-1.365350749788863186e-02,4.660638868808746338e-01
4.735151646514708101e-01,-5.097451646268635894e-02,-3.160542302359206634e-02,-1.269834069301875243e-02,3.536354834465833038e-03,6.923065061636239463e-03,5.157235264778137207e-01
4.823118448821518411e-01,-3.657748689572518086e-02,-4.719421606051490969e-02,-8.788591338489099708e-03,1.054535259895713478e-02,1.133818001841067728e-02,5.251845121383666992e-01
5.278685427462581625e-01,-3.852925014621660926e-02,-3.389072592319905541e-02,1.484582899161178589e-02,-1.529353177057487037e-02,-1.976849378794490273e-03,5.653099417686462402e-01
5.403739850705708836e-01,-2.115482924265893461e-02,-2.815095090847408166e-02,-6.919171573187111492e-03,6.985497471851833014e-03,-1.275390779039412698e-02,5.657473802566528320e-01
5.650557614206723756e-01,-4.389659618492292026e-02,-1.417279729122739029e-02,1.817253885803241098e-02,-4.074366049696556170e-03,-2.055994192969393813e-02,5.965859293937683105e-01
5.428663640912274602e-01,-4.314471449342457965e-02,-3.469647872627174001e-02,9.103363506179687741e-04,3.421414873361839238e-03,1.610824144502467188e-04,5.818653702735900879e-01
5.427843679459658510e-01,-4.377343722285581551e-02,-3.420518064088420851e-02,1.514870936537682667e-03,3.533685203261737687e-03,8.057522230775896778e-04,5.818724632263183594e-01
5.446280114773598413e-01,-2.410253821500812910e-02,-2.751240700055695987e-02,1.289784862106718027e-02,-1.064081084855091411e-02,-1.281643037411842219e-02,5.716090202331542969e-01
5.431485139418380514e-01,-4.186549920214993614e-02,-3.908221439198716896e-02,6.123426412637520463e-04,1.890091788629858242e-03,1.690811937343888235e-03,5.836448669433593750e-01
5.395022857942454175e-01,-3.845340104656086444e-02,-4.204013441932519246e-02,1.215843318691795134e-02,1.895799064868918318e-02,-1.092859907998524737e-03,5.810713171958923340e-01
5.454500245173092843e-01,-4.577507352427406806e-02,-3.324349823217359612e-02,5.289478953018733609e-03,8.511005758036637239e-03,-2.733996815946545395e-04,5.853175520896911621e-01
4.840219342301353422e-01,-3.968329141861842713e-02,-2.757019314106290420e-02,-2.374179244198223668e-02,5.560369346275489087e-03,4.674865669519969250e-03,5.195378065109252930e-01
4.963175445590312096e-01,-5.528807653368555952e-02,-3.665495838902721459e-02,-4.308841649380881766e-02,8.541358290716125415e-03,-1.547339869658857303e-03,5.478445887565612793e-01
4.872273748474595934e-01,-5.598010317424029214e-02,-2.781412066603156097e-02,-6.927034444572647241e-03,9.346638572684928120e-03,2.620868652198380094e-03,5.300890207290649414e-01
2.539227094055454548e-01,2.500881636274456671e-02,-7.320141985152367470e-02,-1.014870709018297484e-01,3.747612621223330581e-02,-2.400045656575236497e-02,3.483802974224090576e-01
2.567218784726437719e-01,4.948336860318702790e-04,1.078012172791729950e-02,-8.014280808131298006e-02,4.706300838164158978e-02,-2.104839746705258405e-02,3.006080687046051025e-01
3.512507332711223840e-01,-2.235952472455313145e-02,-1.036293560897526278e-02,-6.195276835385835068e-02,4.191746076087506795e-02,-2.559811035579274974e-02,3.924257159233093262e-01
5.377813088544203257e-01,-3.959293634105992554e-02,-5.699380836605910661e-02,-7.255563430108390166e-02,8.181358707498091049e-03,-5.003619901866989024e-03,5.998162031173706055e-01
4.080667036226506283e-01,3.983631196792017382e-02,-5.106996737728650149e-02,-1.112378472216214026e-01,2.136485297870404157e-02,3.823703569299722292e-03,4.646147191524505615e-01
3.939363677785693851e-01,3.366683295897737738e-02,-3.866881856551052099e-02,-9.807076242022912116e-02,1.318547806381571014e-02,3.032449679132678474e-03,4.364512562751770020e-01
4.011202241023009707e-01,-4.545403902404157592e-02,-2.336086271163106964e-02,-7.829858968782532624e-02,3.164500547794164842e-02,5.298234409008933899e-04,4.598342180252075195e-01
5.360507603924391518e-01,-4.043529335943038538e-02,-5.608726465999513966e-02,-7.603980492223040566e-02,3.648474597758911281e-02,-1.902795371771056742e-03,6.024572253227233887e-01
5.348905150809433184e-01,-2.854829048918966494e-02,-3.201818526427313572e-02,3.575511836128711807e-03,4.036587260369880505e-03,-9.191635748904472807e-04,5.652611255645751953e-01
5.426843309980832197e-01,-2.847076961422095875e-02,-1.756656685273186302e-02,8.046346873409652989e-03,-5.067071774415126025e-03,-1.308449204325191212e-02,5.664749741554260254e-01
5.326131713895736475e-01,-3.791004736054248703e-02,-3.178387956711689610e-02,1.771595422180867463e-03,1.164060215564082824e-03,3.547567200850237977e-04,5.674971342086791992e-01
5.396246855011395116e-01,-3.537353278679680746e-02,-4.032445550294744274e-02,1.895993683089520392e-03,2.345600143997621755e-03,7.503779741538875361e-04,5.775147080421447754e-01
5.287411122585057299e-01,-2.008484742277688584e-02,-3.592236022831910014e-02,-6.311236074104291729e-03,5.823918777264029158e-03,-6.376327194533874462e-03,5.572217106819152832e-01
5.479912076290641698e-01,-6.892129028149535097e-03,-3.340930389734650396e-02,1.096037387744737152e-03,4.348121804645803043e-03,-1.829597382591568316e-02,5.695412158966064453e-01
5.343580692804246191e-01,-2.788255532101516221e-02,-3.031864747011023264e-02,2.681259145036390523e-03,-4.726040765773432658e-04,-2.152083883024499388e-03,5.634946823120117188e-01
5.407035305096776767e-01,-3.843323529629236179e-02,-4.391777067013785674e-02,2.859956842535003874e-03,3.651883287975512659e-03,1.401208430768024907e-03,5.819589495658874512e-01
5.381446017768718448e-01,-3.185782001568110422e-02,-2.837798946883623996e-02,7.231609604572105006e-03,-1.116363165604023757e-03,-1.000493702482994560e-02,5.686758756637573242e-01
5.385870045769816095e-01,-3.006204111316898575e-02,-1.719044754709894707e-02,1.764411479553377711e-03,6.073509346434358136e-03,-1.568283317593418061e-02,5.630860328674316406e-01
5.472342024935192839e-01,-2.181488495119204840e-02,-2.060229766496299297e-02,-2.317731405291572396e-03,-1.007394491300650334e-04,-1.121397545211132510e-02,5.687897205352783203e-01
5.460722410786332803e-01,-7.845385410798572101e-03,-1.759070393696299250e-02,4.182203419068239100e-03,-6.398178502999471093e-03,-3.026431381364678291e-02,5.614631772041320801e-01
5.475336144575688735e-01,-2.965459400210090912e-03,-4.705233447789541890e-02,7.456557389876510358e-03,5.973597216845126685e-03,-2.194384978251737867e-02,5.753095746040344238e-01
5.124526276053249507e-01,-5.938234291699784340e-02,-3.030600195200500169e-02,-1.945969236721874912e-02,3.977610453207304497e-03,7.455909074727542444e-04,5.589266419410705566e-01
5.492951152539109483e-01,2.928782396060886084e-02,-6.482706377744276716e-02,-1.624066005315292008e-03,2.989454105208818983e-03,-7.968102872737184081e-03,5.730888247489929199e-01
5.816424703161149345e-01,-1.719610392116333042e-02,-5.593012862493737525e-02,1.375418559153714082e-02,4.538976302970777928e-03,-9.772228716535680607e-03,6.198542118072509766e-01
5.097216610540888926e-01,-3.698091205024661710e-02,-4.012999676220915801e-02,-1.107158969817404089e-02,1.384776882418260920e-02,1.879778546165638458e-03,5.491528511047363281e-01
5.522739447096733922e-01,-4.534168027022972280e-03,-5.310991047594459946e-02,1.162164798357190288e-03,4.193319813709839999e-03,-7.237106767283712355e-03,5.828002691268920898e-01
5.508336652472548556e-01,-2.240786396142668835e-04,-4.814118260223582135e-02,-4.987381357988608307e-03,4.497812992465233597e-03,-9.890206076218601219e-03,5.768834948539733887e-01
5.522112805265559921e-01,-1.963609925128598221e-02,-4.816844424360677834e-02,-4.827525274011774253e-03,4.063004884340503872e-03,-1.692453208871598199e-03,5.867432951927185059e-01
5.445448914376921357e-01,-2.222533720736477592e-02,-4.937545325824266307e-02,1.128820789238385754e-02,1.058547720284980231e-02,-2.169060978896177397e-02,5.826520323753356934e-01
5.287406826343339361e-01,-3.206556372607238803e-02,-3.523057241832522335e-02,2.092224041956198286e-04,-2.083469436677816422e-03,-2.651927326463649186e-03,5.624258518218994141e-01
5.272996499306257245e-01,-2.923257516748023477e-02,-2.924484895493395520e-02,5.515997750499572125e-04,4.332008879415928247e-04,1.739398789765798405e-03,5.565478205680847168e-01
4.898182264820942766e-01,-4.285167618234078657e-02,-3.491093257699770525e-02,-2.414103148479553734e-02,6.110284916121493451e-03,2.095036085118912560e-04,5.305007100105285645e-01
5.339050547882293607e-01,3.666272987994961818e-03,-3.263894624594862459e-02,1.196677695723071108e-03,4.677391831573327811e-04,6.863620760199805847e-03,5.494251251220703125e-01
5.186785350918938775e-01,-5.496420642543986546e-02,-3.446006888838626381e-02,-1.332555520461890797e-02,2.377188396229678105e-03,4.375905046304713782e-03,5.642086863517761230e-01
5.118311482417498004e-01,-4.998792864456241825e-02,-3.808007694551060474e-02,-8.767813026211079483e-03,1.423524571732207034e-02,6.751667550320065818e-03,5.568372607231140137e-01
4.998633429021912544e-01,-4.127301731937663143e-02,-3.739919230238758496e-02,-1.729051011288193149e-02,2.195506968602978573e-02,2.335365354037647126e-03,5.413932204246520996e-01
5.091028370852631602e-01,-4.833009547498340330e-02,-3.707463768856159025e-02,-3.814889989899550912e-03,1.433028081139616113e-02,9.505012091850152667e-03,5.527338981628417969e-01
4.804248275715760630e-01,-3.987237675646046475e-02,-3.532574914785660547e-02,-1.805084510334691375e-02,1.199919352607866328e-02,7.516431032285892343e-03,5.195605754852294922e-01
5.375159779576528241e-01,-1.033872193201459955e-02,-3.047793285672439900e-02,-8.937554549212804039e-03,-8.031464308573097940e-03,1.334603098317797831e-02,5.590627789497375488e-01
5.310303913025953282e-01,-2.365840521189463419e-02,-1.822834290963129544e-02,-5.125152415166565493e-05,1.805311177685859064e-03,8.256128321372572382e-03,5.521878600120544434e-01
5.320705883935143987e-01,-2.476704044301469843e-02,-2.112374326991878215e-02,2.867284281450211553e-04,-2.202332842703897970e-03,9.523644795510446959e-03,5.552833676338195801e-01
5.284679396242890626e-01,-3.066403222874980461e-02,-1.177244620269182751e-02,-3.286691016063102242e-03,1.653186720736438261e-04,1.309996206050654394e-02,5.504270195960998535e-01
5.590268959300705998e-01,-2.279627512409287959e-02,-2.338608951652212942e-02,1.197361580756142220e-02,1.261942742531768982e-02,2.227433750594201220e-02,5.841729044914245605e-01
5.523666353386862404e-01,-3.049360820557203700e-02,1.736781168712198120e-02,-7.480848123926305861e-03,-9.076901718208803260e-03,3.313230288022261938e-02,5.637628436088562012e-01
5.338588347770629738e-01,-4.026252297156834858e-03,-2.278026063053989470e-02,-3.684971591998712197e-03,3.469474701516019922e-03,3.554380028770132843e-02,5.510231256484985352e-01
5.573569986868914805e-01,-3.775970418788177074e-02,5.676510544023821714e-03,7.020532814032477177e-03,-1.277580404375702630e-04,5.133109272063898776e-02,5.815956592559814453e-01
5.550559886233525919e-01,-3.452611905757896338e-02,-3.853778596429990877e-03,-1.025130948036755835e-02,-3.401034102613375958e-03,4.172407522287602255e-02,5.796867012977600098e-01
6.260965931117270511e-01,-2.520098984945307041e-02,5.792007907377688669e-03,-1.737079636976841465e-02,-3.140030921108896700e-02,6.245957567731520721e-02,6.484829783439636230e-01
6.234995524184600013e-01,-2.676302841849864667e-02,2.080132246593813239e-03,-3.214384615145103596e-02,-5.146063245824027133e-02,5.589471831515544636e-02,6.521768569946289062e-01
7.285242666332906181e-01,-4.286116049643795556e-02,-1.065027403847659815e-02,-6.338717537317951900e-02,-7.238044522822079108e-02,4.860343980108835366e-02,7.785136103630065918e-01
6.335101587397378164e-01,-3.067758920439062065e-02,-2.280034759295446189e-02,-4.163471903614065356e-02,-1.775463183258497654e-02,6.715402704605402673e-02,6.750188469886779785e-01
6.360741760119016375e-01,-3.151036471359280888e-03,-1.978073212191316932e-02,-2.366431394552661466e-02,-2.244657053355498047e-02,5.963649814868054316e-02,6.583134531974792480e-01
5.048795072984637589e-01,-5.280160890717686129e-02,-3.108217257694748104e-02,3.092289297466133471e-02,-3.456914867339495531e-03,2.676224352718206689e-03,5.498121976852416992e-01
4.955501903151742216e-01,-4.551485360299362126e-02,-3.435958775414146849e-02,9.405949537812031275e-03,9.447631064828636988e-03,-1.978946015312689141e-03,5.360830426216125488e-01
4.872815160142928148e-01,-4.672705313091535251e-02,-2.575643806666505498e-02,1.414860424131989154e-02,2.450503337630575984e-03,1.454487430866328911e-03,5.244343280792236328e-01
4.292537693593102555e-01,-3.620480203719739221e-02,-3.029333019473429145e-02,5.009702004387284191e-02,5.988408332981949925e-03,-7.183180237208309799e-04,4.707157909870147705e-01
4.816370332986463776e-01,-4.006331376830896129e-02,-3.920878214897052794e-02,-1.782162430327753969e-02,2.069905516880713933e-02,6.281194770485031172e-03,5.235291123390197754e-01
4.103658503207777697e-01,-1.574624942881332201e-02,-3.650756735002939901e-02,-2.283913262948482695e-03,5.725454394687790743e-02,-2.137772311449623384e-04,4.479946792125701904e-01
4.933469447993913959e-01,-2.572972654997804365e-02,-5.145327315983999616e-02,-6.498288666910233919e-04,1.755225284023261001e-02,-8.639104066085960369e-04,5.332753062248229980e-01
5.333318464362198918e-01,-4.502070125209628459e-02,-4.320293219266133078e-02,-2.424719442512262603e-03,5.755378953181028434e-02,-6.237501718843919615e-03,5.861018300056457520e-01
5.349333831367230063e-01,-4.784326297020075058e-02,-5.197567103272413003e-02,-1.143088099932032704e-03,1.848406621136798947e-02,1.115594470201645440e-04,5.857328176498413086e-01
5.309087280786144447e-01,-3.603723031687211531e-02,-5.178076032550249508e-02,5.147556882948323576e-04,1.914578802038843786e-02,1.192895224712746480e-04,5.759356021881103516e-01
5.532583964985128278e-01,-1.608558284869776589e-03,-2.843589831389065070e-02,6.161348892949372949e-03,-7.303263215828341469e-04,1.852213645292893548e-02,5.697607994079589844e-01
5.315122273853787327e-01,-2.029551800996873268e-02,3.415303224256260872e-03,-2.827767727368252996e-03,4.425986485263720834e-04,2.095987591224035551e-02,5.415835380554199219e-01
5.312332394734110563e-01,-1.558569097216117028e-02,-1.106467800691995906e-02,1.923844740310880382e-03,2.376058997421272648e-03,3.096669895989379376e-02,5.472331047058105469e-01
5.449229976016083388e-01,-3.301906592459058487e-02,2.151058630278490647e-02,-6.389552738197337191e-03,-8.340642226904355222e-03,3.207574995529651612e-02,5.557816624641418457e-01
5.310634093238489895e-01,-1.932588509460661519e-02,-1.613728812045889249e-02,-5.088160873474658914e-04,-4.432849405537685021e-03,1.073974815131075768e-02,5.491715073585510254e-01
5.845635569291620648e-01,-3.835277506039272422e-02,-5.327188686906653148e-03,-1.274339887939162676e-02,-1.487209596997647598e-02,3.748069752357492679e-02,6.114804744720458984e-01
5.847489751854064721e-01,-1.281202152377450276e-02,-1.365420403651362857e-02,-6.976516125552689220e-03,-9.686224375392769826e-04,4.854646395349994370e-02,6.039885878562927246e-01
5.435266802722596990e-01,-2.796206761402827978e-02,1.998075722365846851e-02,-9.611631376475254437e-04,-3.198238318172011256e-03,3.327918695812311090e-02,5.521368384361267090e-01
5.199516224758140570e-01,-5.466930756364804522e-02,-3.456910342345562159e-02,5.797200351570357818e-02,4.954296338793493654e-03,5.420332085150515906e-03,5.738355517387390137e-01
5.204776075676429414e-01,-5.271937468122478432e-02,-3.437780686945526853e-02,6.552661522211951188e-03,3.106505528678965913e-03,2.883964601027255454e-03,5.644116997718811035e-01
5.421339414795245393e-01,-2.082628945927389452e-02,-4.457181034581983448e-02,3.145636863937966571e-02,3.387282183324841992e-03,-5.843472377207424746e-03,5.778937935829162598e-01
5.424070914962424439e-01,-3.683444373107810921e-02,-4.201655433768136660e-02,1.808028035249757345e-02,5.810859422045358547e-03,-6.134600415656924280e-04,5.827798843383789062e-01
5.157456975581005132e-01,-3.951890959380754964e-02,-3.395483478359692664e-02,2.650301510273835211e-03,2.277522783980294018e-03,-1.052929345278319988e-04,5.525367856025695801e-01
5.516420129571758535e-01,-1.032300869758501216e-02,-6.074990594190490811e-02,-9.489593074196571790e-03,1.121911230317713427e-02,1.249350868527868965e-03,5.893540382385253906e-01
5.373440734863468293e-01,-2.147097228911490352e-02,-4.361023464013680240e-02,5.948978917110925128e-03,8.952174846457163718e-04,-1.186225875853060821e-03,5.703060030937194824e-01
5.404600434221118466e-01,-3.426743434707460456e-02,-4.706087544463749550e-02,1.585802167911690500e-02,1.331246361731090906e-02,-3.676875412382163595e-03,5.823699235916137695e-01
5.701589164144023059e-01,-7.860446293644432481e-02,3.323979784817893135e-02,2.951217805350922572e-03,6.247714838354434183e-03,-1.481580407649050156e-02,6.013687252998352051e-01
5.955174362531832077e-01,-8.896899748953870923e-02,3.892744619074767209e-02,-4.609994766580524823e-03,-1.262785463538041442e-01,-4.845627296029830235e-04,6.672623753547668457e-01
6.041835713643044503e-01,-1.162199478259272611e-01,2.925767287588071364e-02,8.164007234452222428e-02,-3.688858248807096868e-02,-1.894819883895606377e-02,6.785993576049804688e-01
5.804181577069715825e-01,-6.163988376164442062e-02,3.159754369701026078e-02,2.459127831878235929e-02,-2.781477734695230949e-02,-1.964813776149744451e-02,6.052778363227844238e-01
5.651268153443951281e-01,-6.432028684737625679e-02,1.250181531574348637e-02,2.228551180102227372e-02,-4.982859444048971277e-03,-1.684613814431979231e-02,5.967961549758911133e-01
8.009486176104489985e-01,-9.893757574624156836e-02,2.195414300231002258e-02,3.442841505661761031e-02,-9.227653916775725718e-02,-2.753530883887641157e-03,8.629859685897827148e-01
4.966514092455542317e-01,-3.657353595798401580e-02,-4.688312581467468654e-02,3.919116136573462875e-04,-4.849768503303007738e-03,-8.469811076789603155e-03,5.387194752693176270e-01
5.248150108894730215e-01,-4.304881252378020551e-02,-4.813557892679731776e-02,-2.253857749571777050e-05,-2.504044867769898448e-03,-5.476828306069803608e-03,5.705195665359497070e-01
5.161961232997891447e-01,-4.327607957754425749e-02,-3.920728417963878498e-02,1.607701457019733481e-03,-2.385524952231021876e-03,-2.204058863186495864e-03,5.574842691421508789e-01
5.178441475044863740e-01,-4.905692094381564061e-02,-4.154257937243627241e-02,-4.932423016286455707e-03,-6.752349653873193809e-03,-5.988490759680728873e-03,5.634631514549255371e-01
5.254691272261138302e-01,-4.749240062618312330e-02,-4.727501913655365873e-02,-1.851982801560162492e-03,-2.422019199568442311e-04,-4.651067297170655319e-03,5.729186534881591797e-01
5.153913436678371207e-01,-4.295920982656278864e-02,-4.042975315427113636e-02,6.150207557453471387e-04,6.082562018610086064e-05,-2.205854007943677114e-03,5.571042895317077637e-01
5.466883794796060236e-01,-5.472432324920598057e-02,-7.679934307978919517e-03,4.118993156713973008e-03,-7.105289391682570455e-02,1.232494513414095043e-02,5.926799178123474121e-01
4.491513628605656727e-01,-5.450306407599189717e-02,-1.513634135541425119e-02,-1.759360443146841882e-02,-6.384811858727989110e-04,-8.109175383348924803e-04,4.861297011375427246e-01
5.769222652873700063e-01,-7.875596445035301651e-02,3.836902722878843264e-02,-2.444501632670384797e-02,-1.176270461663476014e-01,1.536194701795097310e-02,6.409718394279479980e-01
4.690292565778334533e-01,-5.116452890638176210e-02,-9.564716515968962884e-03,-1.199564661924138950e-02,-9.940970559101060255e-02,9.935410820359079700e-03,5.301573872566223145e-01
5.133673981784250273e-01,-7.899367281516916917e-02,3.404785367828440379e-02,-2.739902559548686167e-02,-1.458393098769140139e-01,9.505324721203011265e-03,6.025272607803344727e-01
5.545883710604997408e-01,-2.200420063391048120e-02,-4.059008854404577704e-02,-7.002223916337222374e-03,2.407916855637235246e-02,-2.040647711962014985e-02,5.887755751609802246e-01
5.501496026636718550e-01,-2.209478827045519012e-02,-3.747691327384530813e-02,-7.454778557526037068e-03,9.323108878085316353e-03,-7.301423380975812123e-03,5.805945396423339844e-01
5.450425462614251204e-01,-4.113833875994166167e-02,-4.440493783845825271e-02,-4.447341079416643889e-03,9.453879534627547196e-03,3.871008362162550818e-03,5.881376862525939941e-01
5.329968862796712337e-01,-2.128448568223995085e-02,-4.485511687763160671e-02,-9.169717086488391941e-03,5.282232045868895040e-03,-5.776236597086854482e-03,5.668193697929382324e-01
5.073253794937842009e-01,-3.756415716143160499e-02,-3.525548893033897402e-02,1.285565170294503991e-02,1.350301565777721480e-02,-3.282483643014486865e-05,5.446969270706176758e-01
5.119968355788102610e-01,-3.614786726745711221e-02,-3.905664373478626161e-02,1.327644319610736708e-02,1.449251238894057846e-02,9.333463660507453432e-05,5.506581664085388184e-01
5.123370630992314378e-01,-3.544668662260552772e-02,-2.969707229777407420e-02,4.318073277959789263e-02,2.664035270297874722e-02,6.924330504759062047e-03,5.521025657653808594e-01
5.404269931735549148e-01,-3.999587434883600245e-02,-1.651111617444148139e-02,3.477252969287279792e-04,1.874036743186429863e-03,2.659463496819526596e-02,5.709149241447448730e-01
5.210703780272700758e-01,-4.138241682481533235e-02,-3.496296762600101249e-02,8.643597746395906278e-03,-5.178145208378360891e-03,1.605698354900617813e-03,5.595498681068420410e-01
4.999588914576813536e-01,-5.191792302998041175e-02,-3.631702871202319161e-02,1.399564637373027984e-02,-6.787905717753813309e-03,6.893471341120808657e-03,5.450413227081298828e-01
4.674318543597236197e-01,-3.718093618138340606e-02,-2.785681836910153253e-02,4.917659656730834217e-02,-2.287383000793004675e-02,2.411023696035312705e-03,5.087808966636657715e-01
4.623611402809499338e-01,-3.104546617060197078e-02,-3.902474417282233987e-02,6.227880515878363166e-02,-5.824193939979165069e-02,-3.447338856554662146e-03,5.189400315284729004e-01
4.632010817449059292e-01,-3.114986134636074655e-02,-3.798814802400343749e-02,7.980299804502540006e-02,6.547396397759103030e-03,-2.535380425885883689e-03,5.167819261550903320e-01
3.981590826898596669e-01,-2.745747254449766583e-02,-1.920301463929403873e-02,4.955935173599907567e-02,-3.495758660420266589e-02,1.073291895880990401e-02,4.348383843898773193e-01
4.990552798741422214e-01,-4.668718431612184361e-02,-3.481316137347420514e-02,1.254990154974247249e-02,-7.288977543676798329e-03,9.810922850893716296e-03,5.407553315162658691e-01
4.949754924283240043e-01,-3.882889587116172825e-02,-3.098632563745207236e-02,3.458367442189953789e-02,1.370681564898301643e-03,-1.602558173568292355e-03,5.333138704299926758e-01
4.907052769553486571e-01,-1.928723473021670687e-02,-3.807535685494159439e-02,1.901172188286430476e-02,-4.467098233227284783e-03,-8.506363497764598061e-03,5.209495425224304199e-01
4.755195620849340665e-01,-4.860062592146022209e-02,-2.336303688055596517e-02,2.275219110758452609e-02,-9.933918359671336032e-03,7.678383893540339372e-03,5.139428973197937012e-01
5.133814302461905399e-01,-4.241846132848042794e-02,-3.213818619018429801e-02,2.731107867030940425e-02,-1.621110012901861436e-02,-4.095655707583348813e-04,5.534726977348327637e-01
5.866368453056063359e-01,-3.719689978920898143e-02,-4.838347062232400964e-02,6.610175669704931867e-02,-1.372515684584892960e-02,-1.260056637345464275e-02,6.406418681144714355e-01
5.351613018621745876e-01,-2.431544159701809482e-02,-4.459225802216451595e-02,2.050895075080252927e-02,-5.074981978957472488e-03,-1.311310085856805946e-02,5.715109705924987793e-01
2.845867011802495350e-01,-4.111059207191111731e-03,6.813317833245888244e-03,-2.889973196523704449e-02,-7.843973909450975210e-03,-2.117486335652334073e-03,2.881241440773010254e-01
5.305410582946833431e-01,-4.438950198087063259e-02,-4.278725936886726422e-02,-2.858105936847826420e-03,4.574698339535626483e-03,7.108596565384031271e-03,5.743390917778015137e-01
4.698358246666589078e-01,-3.544376380563443729e-02,-3.530705686419735589e-02,-6.535546130437394109e-03,2.629342602222190656e-02,1.013970691023208769e-02,5.076898932456970215e-01
5.069218603229281861e-01,-3.628659427960292949e-02,-4.681214942845943194e-02,-3.868934439093126964e-03,4.746430437675855894e-03,5.210195942308776945e-03,5.487236976623535156e-01
5.043276032584720348e-01,-5.821340220691645362e-02,-3.173165891702581232e-02,8.918538620274259199e-03,-2.337480328171491028e-04,2.873041577360192864e-03,5.500183105468750000e-01
4.778460287319203914e-01,-2.859356808047464060e-02,-4.765079809651032172e-02,-1.257581475051190029e-02,1.916352225062187276e-02,7.557735430835935825e-03,5.179219245910644531e-01
5.164868844648511370e-01,-3.318763478082714657e-02,-5.021692294445254112e-02,-3.474556761608187279e-03,2.502241557494517404e-02,7.699297910446337156e-03,5.602544546127319336e-01
5.205122499697674154e-01,-3.620872257101698244e-02,-3.793586228449483122e-02,-1.754030727853227514e-02,-8.906509021180390728e-03,-3.628392927139079626e-04,5.586270093917846680e-01
5.301587448675009195e-01,-3.772357905300652292e-02,-3.739498191945747618e-02,-1.120487225410893815e-02,-7.592115764720781465e-03,-1.811620561369390106e-03,5.682105422019958496e-01
5.196217165494549928e-01,-4.405500257108296847e-02,-4.798525560121896794e-02,-1.483614518266734720e-03,-4.192270367222054525e-03,-8.238718906838629272e-03,5.658844709396362305e-01
5.253802275421177725e-01,-3.750070410471734172e-02,-3.685900985516873951e-02,8.180312858781815756e-04,3.416765916795493356e-04,3.973386848599596601e-04,5.625628829002380371e-01
5.077762457158394582e-01,-2.818633771815620692e-02,-6.387333461838423654e-02,4.349941997989952903e-04,-1.767750765284150077e-03,-7.726807218872938469e-04,5.546783804893493652e-01
5.224791656346300384e-01,-4.072248323701521677e-02,-4.839589414320660810e-02,-4.546257297525654016e-03,-3.261222180318289199e-03,-3.469747022807556647e-03,5.671919584274291992e-01
5.270526482751296538e-01,-4.323492577549722937e-02,-4.410208798322684531e-02,-4.649032838228952386e-03,-3.774420616515753932e-03,-6.360180242616026228e-03,5.709221959114074707e-01
5.048134646103988876e-01,-4.111917568320527794e-02,-4.162248982861763147e-02,-5.892520375578651562e-03,-3.714890247625781197e-03,-7.159243615267325833e-03,5.464584231376647949e-01
5.294197905564456130e-01,-3.802595751601245411e-02,-3.876259621357222573e-02,-6.305035305826251976e-03,-8.128858666161902641e-03,-2.041285799789921244e-03,5.681049227714538574e-01
5.279375847481908579e-01,-3.685342903478597276e-02,-3.200284170344491752e-02,2.550474328979916282e-03,2.905643757757833331e-03,7.415924704786132186e-04,5.624227523803710938e-01
5.113102924817941597e-01,-3.280762978680423769e-02,-4.254842292559501971e-02,-1.277051052856801152e-03,-4.682166184106936919e-03,-4.326185215334005696e-04,5.491179823875427246e-01
5.315952698746662097e-01,-1.664524845888679105e-02,-1.847903178682136494e-02,4.577050903875044298e-03,-2.927891342597087158e-03,-1.343801918691327549e-02,5.497332811355590820e-01
5.421752398716722654e-01,-1.888136544607577072e-02,-3.452106582982578109e-02,-1.904797882997814580e-03,6.821251716757683985e-03,-1.451344627540476252e-02,5.697247385978698730e-01
5.672218439781424593e-01,-4.615889190598521097e-03,-2.815301785093313192e-02,-5.320243466211669638e-04,8.633054935166455807e-03,-2.508415621715606725e-02,5.857678055763244629e-01
5.534887857543469014e-01,-3.308002574503804416e-02,-2.078933457077003499e-02,1.437130762841826170e-02,-4.284466141452026970e-03,-3.795971740409070927e-02,5.848095417022705078e-01
5.411771041307207319e-01,-1.775749934277445763e-02,-3.493073800183177369e-02,2.571599990634813697e-03,-2.173234846677433096e-04,-1.517445602995743867e-02,5.683417320251464844e-01
3.276147969573666163e-01,-3.431042740234258037e-03,-2.608670270054777585e-02,1.507726495935230631e-03,-6.750770088646258771e-02,-5.428682840528038442e-03,3.624524772167205811e-01
4.418785098846215731e-01,-2.494767030599104318e-02,-4.148194789569042973e-02,-1.353223924074633232e-02,-2.170614726178989040e-02,-1.131844093070130501e-02,4.777717590332031250e-01
5.476475588166174191e-01,-2.756166318208450039e-02,-4.002135821290481177e-02,-3.960148425594505091e-03,1.444523001404546779e-02,-3.225835437488507908e-03,5.821443796157836914e-01
4.357441670295625902e-01,-3.672516102664324933e-02,-3.888902554885403928e-02,-3.183265717828893254e-02,-7.180503595299513042e-02,-2.910546632078743912e-03,4.927347898483276367e-01
5.058188282662321456e-01,-2.654729635949676370e-02,-6.373751477917011243e-02,3.242657969323692844e-04,-2.386064968320960981e-03,-2.624416682703357463e-04,5.519177913665771484e-01
5.695986731193587449e-01,-3.500607107068329227e-02,-3.107413076786350037e-02,1.658707864249967532e-03,2.164459204905253877e-04,-9.604733774950019801e-03,6.028849482536315918e-01
5.073944531536747071e-01,-4.571847759156807967e-02,-3.781906360717227078e-02,1.138648357096124289e-02,2.192018240606152801e-02,-2.263723610418925947e-03,5.508837103843688965e-01
5.510580285160548986e-01,-1.440836097131917293e-02,-4.021493787784827245e-02,4.835154230709798849e-03,5.454597533281375053e-03,-1.575942354889550007e-02,5.795821547508239746e-01
5.182539901060524423e-01,-4.946711232259984325e-02,-3.728580101221623533e-02,-1.533816469008708432e-02,8.767909104070289658e-03,4.306312446826963958e-03,5.626118183135986328e-01
3.788418303733349646e-01,-2.902270816941196485e-02,-2.868878441808148105e-02,-4.726744141608545807e-02,-8.227085798458959320e-02,-1.373950410105677020e-02,4.402179419994354248e-01
5.092778679664620167e-01,-4.222582765357227319e-02,-4.090729610452470411e-02,-5.788998651404971690e-03,4.227835657313973317e-02,-1.145465208229248973e-02,5.561361908912658691e-01
5.004558734698534295e-01,-4.594657061260720710e-02,-3.477487239721513412e-02,-2.528412709684767570e-02,2.265277740169410400e-02,9.442866814039546988e-03,5.443353652954101562e-01
5.114019440435340069e-01,-4.352148062255140060e-02,-3.701109688969350664e-02,-1.625683940018414486e-02,8.521640232904552012e-03,7.075444128462208063e-03,5.527481436729431152e-01
5.239541748961403789e-01,-2.566805980616476690e-02,-3.887395325953429959e-02,-2.678412413360389821e-02,2.955187155125275217e-02,-7.970954053965856670e-03,5.607851147651672363e-01
5.771247800420712393e-01,-3.016751763974531708e-02,-4.360269426213903010e-02,-2.186713309663042282e-02,2.964192279802795385e-02,-9.451186006199499556e-03,6.176422238349914551e-01
5.063038339840496560e-01,-3.745724874828398887e-02,-3.756200823113284293e-02,-1.324861054030039564e-02,7.362957587368120990e-03,8.667386712137843501e-04,5.444488525390625000e-01
5.313942123943566909e-01,-2.093548849882517771e-02,-3.368784827742968280e-02,-9.148532627549593038e-03,8.913245426523294310e-03,-1.050013460866803562e-02,5.595483779907226562e-01
5.097888564792583121e-01,-4.427817073149292737e-02,-3.760212505409182837e-02,-1.260225254085651017e-02,9.729917739275218552e-03,4.767308442317522502e-03,5.515111088752746582e-01
2.558417425583850435e-01,-2.071806830693131984e-02,8.066392797559954198e-03,-6.594268371735457004e-03,-9.235384370282008482e-02,1.795012795165505659e-02,3.099000155925750732e-01
5.490201341196702112e-01,-4.050536000988763652e-02,-5.098271239134288813e-02,-6.575866704829559824e-03,6.568518018893009305e-03,3.978809808594915669e-03,5.950911045074462891e-01
4.673057508876836685e-01,-3.393169811617632869e-02,-4.161679399377343769e-02,-9.676050039226693350e-03,2.146079181601238950e-02,6.477993591930643856e-03,5.068910717964172363e-01
5.091965961561224496e-01,-3.736878215445627038e-02,-3.937421843440411240e-02,-9.956244730793642125e-03,1.373647656184908902e-02,3.285306251737416493e-03,5.483882427215576172e-01
5.037748774078112390e-01,-6.084733266370950799e-02,-3.032006022182218152e-02,4.008570198087256379e-04,-1.720073001285722094e-03,-2.528299765346286258e-03,5.500202775001525879e-01
5.428107461967783820e-01,-3.983309399996826095e-02,-3.788480841053459836e-02,1.307964957232273483e-03,1.578578022255697558e-02,-5.595008289947776565e-04,5.823196172714233398e-01
5.329004954167486652e-01,-4.230035384502181528e-02,-4.954413194672577236e-02,-3.452165174517030696e-03,2.417338499391069248e-02,5.021439516859427590e-03,5.804649591445922852e-01
4.169328242487655434e-01,1.258614578774938653e-02,-1.154731078241054559e-01,-1.105712414388808768e-01,7.258613219936964345e-02,-3.064761330902338043e-02,5.357031226158142090e-01
5.315133397025044726e-01,-4.433837121769140799e-02,-4.455232406715697868e-02,-3.339246952134265669e-03,5.096860827680638369e-03,6.269076586218827983e-03,5.761577486991882324e-01
5.513616079878228549e-01,-4.438954345640078181e-02,-4.013548333541763768e-02,1.320728383438413145e-03,1.294338547067007579e-02,-3.757599483913905830e-03,5.940987467765808105e-01
5.445905776073080018e-01,-4.192916881260241868e-02,-4.624442743312601189e-02,1.792091344016573905e-03,1.143253228962451927e-02,4.569492609020567460e-04,5.890308618545532227e-01
5.317342205347702633e-01,-3.126786390088345802e-02,-3.788199550118534487e-02,-2.282817710024410279e-02,-3.918660187301545826e-03,1.876116750189561451e-03,5.677665472030639648e-01
5.298338456114723982e-01,-3.810288333008846062e-02,-4.071904075477142393e-02,-1.930104345653720738e-04,-1.153881439195413895e-02,-3.328579064653975229e-04,5.696004629135131836e-01
5.352499637693074463e-01,-5.438443049958630038e-02,-1.442523758366687225e-02,-8.989600646803147868e-03,-1.250898138564595329e-02,7.283774508135425901e-03,5.714675784111022949e-01
5.033640850358458430e-01,-4.115316573563243541e-02,-1.167991712164057061e-02,-1.054878061649431285e-02,-1.461162813671856159e-02,4.183902768384446975e-03,5.313622951507568359e-01
5.225487343615304869e-01,-4.650638852073607499e-02,-4.179323942944018766e-02,-8.986127534484522617e-03,-5.307949328307663348e-03,-7.105323236105179872e-03,5.671350359916687012e-01
5.059869538631327490e-01,-4.516237223449587335e-02,-4.730433396402605739e-02,-1.056434595027241734e-02,-7.044518645110985945e-03,-7.392043115033449831e-03,5.528094768524169922e-01
5.348426443500904348e-01,-2.920604781539687389e-02,-3.225205864548250090e-02,-3.031901921847582684e-03,-1.824792040736967829e-03,2.306605485245575259e-03,5.656251907348632812e-01
5.237521070021251557e-01,-3.470479941333484697e-02,-3.836416261757780166e-02,-8.742897845420169109e-03,-7.001503570116794986e-03,-1.539624267886040678e-03,5.606376528739929199e-01
5.298090106879899119e-01,-3.511581774825886515e-02,-4.177577632550960596e-02,2.337602063048693259e-03,8.753069665797928332e-04,-6.524573456842370448e-04,5.683016180992126465e-01
5.068202609289500504e-01,-3.770098699162910405e-02,-2.960667303389008520e-02,-1.178637636873320835e-02,-1.609237215990037481e-02,6.606987633313752065e-03,5.417434573173522949e-01
4.822808573209387273e-01,-5.317400072947769951e-02,-2.700747643164866374e-02,-2.787090442193276840e-02,-8.000919499809293345e-03,-5.885042773519187122e-03,5.253683328628540039e-01
4.911736180974833887e-01,-4.353557881141917330e-02,-3.181973390953457548e-02,-4.565647906946258133e-02,9.661258935300225115e-03,-7.665730458132521442e-03,5.352536439895629883e-01
5.658358970017981493e-01,-1.106754785376756756e-02,-5.339861531522641092e-02,-4.382175020150184258e-02,-1.711350358639315491e-02,1.094183674907739032e-02,6.050035357475280762e-01
5.233339152474859590e-01,-3.754124950496029456e-02,-3.979867796245142864e-02,-3.048005276477341874e-02,-7.486504993097118157e-03,-3.812663661456157631e-03,5.646689534187316895e-01
5.300462218203021436e-01,-2.232194147718347121e-02,-4.413644987431275535e-02,-1.228603034664029620e-02,1.208234866279876696e-02,4.233936126524917923e-03,5.644295215606689453e-01
3.527474657799598567e-01,-9.154486700332822857e-03,-2.966954762947851543e-02,-8.206187720563989929e-02,-7.303464441255545780e-02,7.395865559745436364e-03,4.185535311698913574e-01
4.443088232245572811e-01,-3.854422888792100044e-02,-2.665836999054810308e-02,-3.562396167023682697e-02,-2.405664395428691940e-02,-1.635199978644134508e-02,4.836266636848449707e-01
4.296711515568599760e-01,-2.766841372656836384e-02,-2.282605919471947242e-02,-6.610761568446810177e-02,1.320771210211813158e-02,-6.035779447528660628e-03,4.697995185852050781e-01
5.158799186350460086e-01,-3.999548256771942589e-02,-4.381274653056269064e-02,-2.637015329308814958e-03,-1.562723946612805045e-02,-9.042127595791940586e-03,5.586884021759033203e-01
4.028024245127425074e-01,-4.393426469147856950e-02,-2.075534332201073306e-02,-6.866969529710244269e-02,-3.422759327367899673e-02,5.945826360826998898e-03,4.555472433567047119e-01
5.175993699993753916e-01,-4.286940622125887113e-02,-3.891529034692178812e-02,-3.417743533453473231e-02,-5.598008844453581517e-02,6.206486679491064751e-03,5.700402259826660156e-01
5.045858780201623039e-01,-3.793699033562877854e-02,-4.599620149919769752e-02,-8.073764111619351549e-03,-2.256265000336651547e-02,-9.056888640364271076e-03,5.483950972557067871e-01
4.946754305519690531e-01,-3.269153828777815463e-02,-5.498932272526893539e-02,-2.924298267112872274e-03,5.869582935155153759e-03,-7.179514715520888754e-03,5.391250848770141602e-01
4.725797166901669066e-01,-3.087744356498348108e-02,-5.035308872875760011e-02,-2.082235858894977264e-03,-1.066542316057482107e-02,-8.966905211392966341e-03,5.140516161918640137e-01
4.578129097084452925e-01,-1.927790866394538116e-02,-5.402088278171465752e-02,5.322106192781531466e-04,-2.343445463750670407e-02,-7.211807234667855226e-03,4.971947968006134033e-01
5.096654912653051372e-01,-3.415963998626320164e-02,-5.437932542198131713e-02,-5.993865053834886766e-04,-3.515754612849933403e-03,-5.661871265200962497e-03,5.543328523635864258e-01
5.089151281468038412e-01,-3.215138188598809510e-02,-5.939525709012316579e-02,-1.712585446943981583e-03,-5.534722662218920924e-03,-5.385599677749841954e-03,5.553590059280395508e-01
5.243002205193116882e-01,-4.351264956722261656e-02,-4.829901058276026005e-02,-6.229097234400019639e-03,5.194808976892156989e-03,3.899454357197012968e-03,5.704341530799865723e-01
5.227996658446818490e-01,-4.267256356811002793e-02,-4.640174782420514177e-02,1.941622249233385285e-03,7.338015807279366217e-04,3.291990603209835661e-03,5.673860311508178711e-01
5.297252627024683358e-01,-4.042760854914920210e-02,-4.268926275673687321e-02,3.248703765445287803e-03,-1.573951908137576072e-03,-3.432068748103174818e-04,5.713216066360473633e-01
5.291868406633312150e-01,-4.184761822387536578e-02,-4.897592438010875404e-02,-1.042609188143296412e-03,-7.739634539862442304e-04,2.248858904579689646e-03,5.746493935585021973e-01
5.307098466986721608e-01,-4.434934543327256895e-02,-4.786416068258297907e-02,-2.281963221523555004e-04,8.805933875106487221e-04,4.421953476868945541e-03,5.768776535987854004e-01
5.820338951462553645e-01,-8.857517451849872270e-03,-8.656516164126853985e-03,1.726098682992631070e-02,4.708310678238641737e-03,4.199524704638842032e-02,5.960579514503479004e-01
6.436790779998138312e-01,-8.107228968857821405e-03,-3.939311719154175995e-02,7.547848810526848994e-03,-1.190419124335598267e-02,4.239421548488681718e-02,6.724460721015930176e-01
5.331868159336828894e-01,-2.932665545224283354e-03,-2.133429655247959245e-02,-9.627471151934008419e-04,-1.538303648081306048e-03,2.194592041409066177e-02,5.468847751617431641e-01
5.500635653751337895e-01,-3.922588155945924693e-02,-1.470569302609048279e-02,-1.766141624820555256e-02,-2.576987911733486306e-02,3.331679622361545523e-02,5.828137397766113281e-01
5.335072479957725378e-01,-3.783963282587995969e-02,3.137019785811739903e-03,5.187682286193527961e-04,-2.257529741646033955e-03,1.703760184248754098e-02,5.528032183647155762e-01
5.557054836357446792e-01,3.596501997308987342e-03,-2.962272824312456310e-02,1.362334990872030678e-03,-1.016415563162290092e-02,4.842652973969796548e-02,5.758640170097351074e-01
5.076660244237753972e-01,-3.566015994671556388e-02,-3.196824617477994623e-02,-5.173206204420060378e-03,-1.366381058121957440e-02,1.840975412615219456e-03,5.420900583267211914e-01
5.292237793403434809e-01,-1.114298495544405188e-02,-2.318660271889835811e-02,-5.184446041382500397e-03,-5.269514737124736566e-03,1.604170745367412831e-02,5.473437905311584473e-01
5.365298746221753845e-01,-4.093061097822153771e-02,-8.085298475994179279e-03,4.354762323338228457e-03,5.835456274939592076e-03,-1.199267965567877778e-02,5.622838139533996582e-01
5.486703297197208506e-01,-4.744432136192616722e-02,-2.757939605933082405e-02,-4.760607684985678455e-03,-9.778929647161805488e-03,1.367628274026482134e-03,5.867418646812438965e-01
4.728635875352118489e-01,-3.807786743589794409e-02,-3.899645193016559874e-02,-4.207792981934561222e-02,-5.199314846251486960e-02,-4.289207570386195699e-04,5.243600010871887207e-01
5.540746525863797789e-01,-4.943634216289752303e-02,-2.101433308064479255e-02,-3.180915942027317568e-03,2.903025189905754713e-02,-5.585485153788012115e-03,5.920578837394714355e-01
5.396604125952416675e-01,-4.616332262449746038e-02,-4.311933663521724802e-02,-1.148886668346890303e-08,-2.221440214696078063e-03,-9.575582611209832980e-04,5.843226909637451172e-01
1.405354704213060413e-01,9.138183513891035004e-03,4.770041578309423824e-03,-7.115103412758739740e-03,-7.258585970336314808e-02,1.286912731972389770e-02,1.852380335330963135e-01
5.676957507492433885e-01,-6.346787400964498671e-02,-8.271920419743894470e-03,3.380079763569334306e-03,1.051266528920217699e-02,3.955333851480143451e-03,6.057963371276855469e-01
5.345848599086102659e-01,-4.736263495463699513e-02,-7.569210361595968273e-04,1.875268739958168120e-03,7.740164191557511071e-03,-1.232193996560415616e-02,5.606769919395446777e-01
5.457193536222550989e-01,-5.227679656633579808e-02,2.109820846752819001e-03,-8.581608570352852522e-04,-8.822796440167609763e-03,1.127879663440306416e-03,5.729519128799438477e-01
1.719592359466926013e-01,5.830573079089046429e-04,1.114629808400775801e-03,-5.761316725573032566e-02,2.117792879359206570e-02,-6.383663672152415682e-03,2.017537504434585571e-01
5.306688678542672566e-01,-4.629225293426975085e-02,-3.032329851991977243e-02,8.416189756340325791e-04,-3.172836404503864491e-03,-7.282429314366966906e-04,5.691744685173034668e-01
6.231301232407759905e-01,-9.370344970018154585e-02,4.404337095771662658e-02,1.125493103025596194e-02,5.731324966684310518e-02,1.046733995063783970e-03,6.665738821029663086e-01
5.048187359786540096e-01,-4.249520169158424454e-02,-3.940835165691272679e-02,-2.614854248072229909e-02,1.643640277551974838e-02,7.331065311704170612e-03,5.485394597053527832e-01
5.212143817738530416e-01,-4.303332639336310272e-02,-4.276098499348504611e-02,1.002670853997124313e-03,9.742247858196606601e-05,3.690879278001209934e-03,5.641505122184753418e-01
5.214188666737940014e-01,-4.769238782308013458e-02,-3.966556046767316657e-02,-3.610836300420374205e-04,2.857055924577626537e-03,7.663031832534576704e-03,5.653184652328491211e-01
4.917276779849609758e-01,-3.021416376330518516e-02,-5.300973636097974784e-02,8.943766440057395600e-03,-1.653687270020678945e-02,5.058893028992759652e-03,5.347691774368286133e-01
5.069794248661507741e-01,-4.241075821013221003e-02,-4.058498411891917068e-02,1.001189221925556693e-03,4.832175636588926723e-03,8.270655374938420609e-03,5.487331748008728027e-01
5.417300969579235126e-01,-4.023376436538372847e-02,-4.026004291014170788e-02,3.565012866597552614e-03,5.309725065397315983e-04,-1.289868896333738139e-03,5.820147991180419922e-01
5.043964720298086402e-01,-3.891843464472177772e-02,-3.675372989132819068e-02,2.437068294881375528e-03,1.502934092648475911e-02,-2.484307525570404306e-03,5.428937673568725586e-01
5.232450070069143422e-01,-3.271022539819568031e-02,-5.674065325379151759e-02,1.876907590305098726e-04,2.085431630520565016e-02,-6.320127463358883417e-03,5.696035027503967285e-01
5.047146902562491544e-01,-3.665563439626368103e-02,-5.553716848941278594e-02,1.286416806728082896e-02,2.240269144382463912e-02,-6.593525869802923517e-03,5.529853105545043945e-01
5.073654462329030279e-01,-3.158992070944818820e-02,-4.674017949714087683e-02,1.831331624710325415e-03,5.164314270983461075e-03,-2.885769701994042591e-03,5.467931628227233887e-01
5.339369517287739786e-01,-3.984713547664792133e-02,-4.455675241406342746e-02,8.145725854673886712e-03,1.309703671151801752e-02,-1.779785743602703158e-03,5.767805576324462891e-01
5.360514066599342264e-01,-4.124626060220634716e-02,-1.994245570376246279e-02,-8.246676204129130576e-04,-8.381400710462576578e-03,2.519596362192049171e-03,5.671504735946655273e-01
5.450299913170816302e-01,2.579251594958945071e-02,-2.754217202926945163e-02,8.212260044102762113e-03,6.281750442171545913e-04,4.020015357163159164e-02,5.524465441703796387e-01
5.475558795456449968e-01,-3.778528973819023085e-02,-1.695135211726150892e-03,8.860106136540645298e-04,-1.777016302628524856e-03,1.772648564062286394e-02,5.689958333969116211e-01
5.573368440166532878e-01,-1.664441827538135077e-02,-3.902207881556277180e-02,-1.685778234121150521e-02,-1.393691238285944302e-02,2.355898522700574163e-02,5.881326198577880859e-01
6.366570903828979722e-01,-2.975601443950082192e-02,-3.086859976015191021e-02,2.800093650741661104e-03,2.130723365218650626e-03,4.433514555256685974e-02,6.714038252830505371e-01
5.505118112669844521e-01,6.820001778943346471e-03,-2.529104752171823511e-02,-1.263939593755645076e-03,-6.699521163038272935e-03,4.543993776482729841e-02,5.660602450370788574e-01
5.923633722240261301e-01,1.251186158665676396e-02,-4.847329599089023056e-02,6.874997420096735923e-03,1.017117504700368671e-02,2.548151764299533967e-02,6.145806312561035156e-01
4.961720707385874896e-01,-4.042041380149744012e-02,-5.724268409314753336e-03,2.208388532532997665e-03,-1.760742627896525955e-02,1.236344324881888596e-04,5.210205316543579102e-01
5.126182171722586389e-01,-3.940990690817677833e-02,-3.776239199899728005e-02,-1.104723598029114066e-02,-1.974173843994193184e-02,-1.896826703110448013e-03,5.526069402694702148e-01
4.538632032394125937e-01,-3.444154367432908370e-02,-2.849765672313250842e-02,-3.103551527951900479e-02,-1.087058939527109358e-01,-9.029775782173916486e-05,5.233688950538635254e-01
4.850035591678795166e-01,-4.236527198137168826e-02,-2.059567531409636776e-02,-2.522276246663102475e-02,-8.752887681557153243e-02,-1.127857347319745135e-03,5.403771400451660156e-01
5.143594524185111094e-01,-4.209490174365226878e-02,-4.873897369996349482e-02,-2.634885553313517405e-03,1.656522545409821372e-03,5.267154159614977071e-03,5.599062442779541016e-01
5.059377802887479181e-01,-4.744731131129301116e-02,-4.171083805628666985e-02,-1.088757132047405568e-02,1.054166175760564393e-02,1.068422973925276659e-02,5.514752268791198730e-01
5.365581369578346083e-01,-4.153378310491914749e-02,-5.372566799232153523e-02,-1.314573277968077028e-03,1.998631363699153538e-04,-3.567171056691740769e-03,5.843204855918884277e-01
5.042438306862704334e-01,-5.330943462069440142e-02,-3.307495787719938463e-02,-4.175526067660696207e-03,2.264198259849047479e-03,5.126542463643282178e-03,5.478501915931701660e-01
5.078104783412347167e-01,-4.836718943386442149e-02,-3.905374558069277247e-02,-2.428720174512375221e-02,1.443507214587314708e-02,7.130842936250717662e-03,5.538841485977172852e-01
5.253363275692954915e-01,-4.304725493830804939e-02,-4.028711777196561372e-02,-7.294020934910068650e-03,8.117619711352509412e-03,6.433469079865496848e-03,5.674329400062561035e-01
5.046622873095075734e-01,-4.939149255533836769e-02,-3.950431229824719059e-02,-1.292406487126153761e-02,1.063869922023182556e-02,9.437763064632254464e-03,5.501846671104431152e-01
5.042743341448305827e-01,-5.287269485416698500e-02,-3.933643328449612508e-02,-4.291454721203971645e-03,4.653573811122446377e-03,5.725110352104418807e-03,5.507022142410278320e-01
5.070610283137880758e-01,-4.143158944648142605e-02,-3.239861843164623667e-02,1.072723140908309579e-02,-5.507116606099972562e-03,3.377112825304176384e-03,5.444645285606384277e-01
5.417604250784012754e-01,-4.651331172852485318e-02,-5.477920226086230304e-03,-6.389588217105056020e-03,-1.118890066367947758e-02,3.303838428767771201e-03,5.693334937095642090e-01
4.987695826396729704e-01,-3.304035022606593985e-02,-4.387012315436897292e-02,-3.768921569723803020e-03,-1.471678285288156689e-02,8.212379851015498208e-03,5.381386280059814453e-01
5.460608909497856045e-01,-5.659408324776760146e-02,-2.954106648004689584e-03,2.207571272245823293e-03,7.646921411943891425e-03,-4.364647775038323595e-03,5.779196023941040039e-01
4.736684050427784065e-01,-4.044126604764877730e-02,-4.328652542804317660e-02,1.578276655595265213e-02,-2.792790623387596607e-02,1.161237028378856936e-02,5.189136266708374023e-01
5.455108567097554095e-01,-4.304193045228088543e-02,5.972769980967268522e-03,2.626996812001569648e-03,4.085030900310265486e-03,8.246174662354699078e-03,5.658832192420959473e-01
3.470390926639384532e-01,-1.167373419195795459e-02,-3.025907428255915355e-02,1.691350029555015178e-02,-4.632292012209952153e-02,7.219595121790874787e-03,3.783372938632965088e-01
3.064192770856213333e-01,4.897111966380207626e-03,-1.653737053410180013e-02,5.042756217648924899e-02,-4.760418694878517515e-02,1.022628920727197688e-02,3.355280160903930664e-01
3.537269176089725131e-01,-1.474756313609382197e-02,-1.626096249667179083e-02,1.012880595358735605e-02,-8.792404320018976094e-02,3.795567657025824930e-03,3.998453319072723389e-01
8.702682686091700592e-01,-1.181839766348223852e-01,7.898593496979744444e-03,1.655694135301016834e-02,-4.305627602652171981e-02,3.078014744989613499e-02,9.367679953575134277e-01
4.064698468229176465e-01,-4.501279080979742053e-02,-1.692694048349685509e-02,-7.756972627520813957e-02,9.320676983971577789e-02,7.915499711824050544e-03,4.860522449016571045e-01
4.487626530850097328e-01,-2.884777803728860723e-02,-3.059523894439614145e-02,-2.455361810544923890e-02,5.616809748993276813e-02,3.071678367915598156e-03,4.901539385318756104e-01
4.614977414958590929e-01,-3.145751011558012289e-02,-4.854096333702387356e-02,-2.153603825767459387e-02,5.565010204025085117e-02,9.790294340383625532e-03,5.125308632850646973e-01
4.912590554203549731e-01,-3.974540396271686316e-02,-3.189834082358905532e-02,-2.344666522081425772e-02,4.590181962377653385e-02,6.536404317540997673e-05,5.346313118934631348e-01
4.205402680524753523e-01,-2.793813778412893023e-02,-3.033915319492369589e-02,-6.910258301593599772e-02,2.037636387496044588e-02,1.350125172829867715e-02,4.672615826129913330e-01
5.886180784525334442e-01,-2.371159030195352235e-02,-4.260188740035958377e-02,2.137443484657494674e-02,1.728189067883150257e-02,1.277755464138020068e-02,6.242018342018127441e-01
5.176688670347342480e-01,-2.731899324279837837e-02,-2.499780592215175568e-02,1.898658511971477655e-02,2.117981755922400400e-02,1.641564977526070723e-02,5.467977523803710938e-01
5.310964716330922597e-01,-7.531682067816569681e-03,-2.057915761849457570e-02,1.047063660384093750e-02,-1.556082839397654696e-05,2.768162227568665007e-02,5.476732254028320312e-01
4.675138620168431403e-01,-3.744809552302841293e-02,-3.988973401339582225e-02,4.423088063027012795e-02,5.980764613476950708e-02,-1.564293872357820983e-02,5.230292081832885742e-01
4.631349292504352566e-01,-4.304503203315696025e-02,-4.190952664013389284e-02,5.061864720219363262e-02,5.112576560939663395e-02,-8.608581185278832773e-03,5.209560990333557129e-01
5.227717689663051726e-01,-5.363776193371072587e-02,-2.681195136459907369e-02,1.486528629118533812e-02,1.824334787164669236e-02,8.237840150866317449e-03,5.651282072067260742e-01
5.002178312421992068e-01,-3.494745410401209340e-02,-3.001687703992889089e-02,2.646886548183223151e-02,2.873220016075165445e-02,4.708887937055265989e-03,5.370590686798095703e-01
5.674674459947693927e-01,-3.363681213228678080e-02,-3.193764037440977033e-02,-5.646337169877800599e-02,-4.950783936269922969e-02,2.659271681466212831e-02,6.159113049507141113e-01
5.421525040086752067e-01,-2.019976630211747781e-02,-3.091418344140109409e-02,8.222236935770764867e-04,-5.544789373477856768e-03,1.333826283934046002e-02,5.683380365371704102e-01
6.190591209410143403e-01,-3.555670715220807243e-02,4.051263049980019515e-03,1.814036363009400308e-03,8.981305741297984993e-03,4.395882361638091262e-02,6.404777169227600098e-01
5.592991684505214112e-01,-4.087181559882729909e-02,-1.021374645226477695e-02,-1.612554373364315577e-03,-8.542225345595353195e-03,1.239708317831113640e-02,5.860314369201660156e-01
5.464399798954555632e-01,-4.664419486005433324e-02,-2.606000234935604287e-02,1.799483223757088754e-03,-1.566103424104008449e-02,2.004641468209094907e-03,5.837139487266540527e-01
5.345251200710242623e-01,-3.777516787459461733e-02,-2.754218969811828011e-02,-5.876370677015391349e-03,-8.728775216483658506e-03,1.933534065735524003e-03,5.675556063652038574e-01
5.260819515013236414e-01,-3.656176975854025235e-02,-3.032727487045339121e-02,-1.251162728092256515e-03,-3.208808392672163508e-03,2.014841040219176801e-03,5.595952272415161133e-01
5.271133895335545771e-01,-3.086523000854426990e-02,-3.416136559507176873e-02,-3.107196703335823179e-03,-1.324106348269036681e-03,2.854766876766823541e-03,5.596863627433776855e-01
5.185453596552336286e-01,-3.596104034536715122e-02,-4.723254330697004844e-02,-1.285711803554732448e-02,-3.721800487934480428e-02,-4.123823644610180757e-03,5.644085407257080078e-01
5.364533987680910609e-01,-3.288241445857678635e-02,-3.913712777481409555e-02,-2.157569928857717284e-02,-1.769653338228829170e-02,5.933911396201215979e-03,5.746173262596130371e-01
5.294000599387611583e-01,-1.952714879096045797e-02,-2.614109590860794197e-02,-4.117787454998020520e-03,9.358985266906867271e-04,2.000155519836648368e-02,5.533977746963500977e-01
5.302614877175728658e-01,-3.927883290375777658e-02,-3.844870912602532664e-02,-1.035522695044584045e-02,-9.074796791258414250e-03,5.910614467612635748e-05,5.696251988410949707e-01
5.363715619072064733e-01,-3.505354167451893432e-02,-3.012282407521507666e-02,-3.478795079405743937e-03,2.018039691801631723e-04,4.444210536288064825e-03,5.690598487854003906e-01
5.345054901152995752e-01,-1.980779108607166883e-02,-3.506979834937914986e-02,-1.686944302670218649e-03,-5.678195173209905217e-03,1.461986917390314077e-03,5.621990561485290527e-01
5.311295313842512300e-01,-1.964431104120606397e-02,-2.917363976201070574e-02,-2.690759317838057989e-03,-6.152113368928217689e-03,2.458048684001109662e-03,5.557378530502319336e-01
5.312967237742129978e-01,-2.156122937916862825e-02,-2.404180565433464145e-02,-2.105315312753530937e-03,-2.032525399778363929e-03,3.425583873780096728e-03,5.541573762893676758e-01
5.313774159324036184e-01,-1.993819696346627035e-02,-1.884044449732816262e-02,-4.084088672512387400e-03,-5.334127801629673371e-03,4.752359613597867231e-03,5.509519577026367188e-01
4.894422560903645136e-01,-4.898730747202253988e-02,-2.746357583137068459e-02,-3.230378847517945823e-02,3.606052574362701279e-03,6.672069718509835053e-03,5.311156511306762695e-01
5.322879733827147186e-01,-2.829023694561882962e-02,-2.688236827239587345e-02,-5.306367948309432918e-03,-6.739568461621728290e-03,3.397692555459823436e-03,5.601035952568054199e-01
5.334164970719076360e-01,-4.659355059206321537e-02,-3.989194056586226056e-02,1.732647938641500643e-02,-1.793634159621278765e-03,1.892289363430338248e-03,5.774864554405212402e-01
5.206542487212456605e-01,-5.523123144433719767e-02,-3.653237834867051337e-02,2.469632946315632877e-04,-3.450649108077971454e-04,2.485857817477420996e-03,5.667842626571655273e-01
5.241615299614732493e-01,-4.238888164867915531e-02,-3.596191215372179784e-02,-9.888292473110079240e-04,2.555400984094832739e-03,1.116204338368677025e-03,5.633877515792846680e-01
5.206557836807568229e-01,-5.273945961467302324e-02,-3.849820239077492157e-02,-3.016221453238425660e-04,2.772910298408314510e-04,1.061743828070552424e-03,5.664123296737670898e-01
5.225730837537541085e-01,-5.464860208900465532e-02,-3.946815343553569666e-02,3.499908233295095841e-03,9.579522031870102731e-05,5.764378798802936681e-03,5.699028968811035156e-01
5.295812945683495698e-01,-2.752708549225113543e-02,-1.724044126431054091e-02,-3.175934969433657964e-03,-8.576376758564629868e-04,1.212258789350835649e-02,5.524654984474182129e-01
5.292286258322258519e-01,-4.554944476533048792e-02,-4.136452020471936830e-02,1.060339681400095189e-03,-1.451453951880372168e-03,2.544680374455184860e-03,5.727224946022033691e-01
5.405878994691666328e-01,-4.906038661754197339e-02,-4.252430904200882322e-02,1.006508057552708314e-02,4.038499164532968928e-03,5.595155089648226436e-03,5.867883563041687012e-01
4.965253322422868987e-01,-3.067829406505395706e-02,-2.796731250500722465e-02,1.654718617377862189e-02,1.162517065271853438e-02,-1.426449684144476433e-02,5.275974273681640625e-01
5.938339621148863712e-01,-4.440538914773334289e-02,-3.407594366095959004e-02,2.907265995634251629e-02,-5.323667001096109991e-03,-3.032879520715427157e-02,6.373724937438964844e-01
5.343950412294029562e-01,-2.961497293204209957e-02,-2.615359780591489103e-02,1.919345430704104578e-03,9.492442718993541811e-04,-3.753894778595950540e-03,5.623371601104736328e-01
5.558932159258850314e-01,-3.391512352664385888e-02,-1.898301831166884779e-02,-2.016356675431480675e-04,3.913635853493649397e-03,-1.537392239292400403e-02,5.831336975097656250e-01
5.267795933952204024e-01,-6.898825745237646689e-03,-2.013861008759257332e-02,1.969523104906291486e-03,3.978763365145908480e-04,-1.057571202714725940e-02,5.407415032386779785e-01
5.780789680497798733e-01,-1.440281919406272149e-02,-2.065088876828052866e-02,-8.749149056423826884e-03,1.959678410165924603e-02,-5.483259383364809392e-02,6.042988896369934082e-01
5.403337487945567563e-01,-3.356982534367816684e-02,-2.783073940666289103e-02,1.680573729800464641e-02,-1.449730407921522024e-02,-1.271427697467682714e-02,5.727716088294982910e-01
5.646668329283734966e-01,-3.001890897912753986e-02,-1.471134674500976236e-02,1.101860480839975467e-02,-6.044921691119782906e-03,-1.987752366989148714e-02,5.885927677154541016e-01
5.297562527619346096e-01,-2.262339406240795880e-02,-4.108784294528503023e-02,1.181013275570612017e-02,7.270765548688597375e-03,-1.007618363877899048e-02,5.626235008239746094e-01
4.892714659843815372e-01,-4.380057225264030740e-02,-3.861503334151153433e-02,5.132945200274172809e-02,-3.012237872448723236e-02,5.542300881893693926e-04,5.404216647148132324e-01
4.876886014841251837e-01,-4.681301092541828579e-02,-3.293393465597729830e-02,3.832446142799374178e-02,-2.583120563084647867e-02,5.209539183338267321e-03,5.338124036788940430e-01
5.121577286604159784e-01,-7.402688973574544917e-03,-4.545418011344221076e-02,1.812769896294578326e-02,3.473072927174066481e-03,-1.459182278675933211e-02,5.411301255226135254e-01
4.601061769233569798e-01,-4.624032571796340974e-02,-2.725686463958848504e-02,1.568089313399539594e-02,-2.738016515268745007e-03,7.835183144159263424e-03,4.980755746364593506e-01
5.039689314231445838e-01,-5.962997150271262536e-02,-3.102655646059568340e-02,-3.147548433326480613e-03,3.329241536151738602e-03,7.995765390137539626e-04,5.499144792556762695e-01
5.033838593173041165e-01,-5.155392638315026144e-02,-3.571128607548584855e-02,1.169828408219298656e-02,-2.132594535402220631e-03,4.305720694791725749e-03,5.476267337799072266e-01
5.369054211237106466e-01,-5.164982878052684634e-02,-4.368414341043488913e-02,3.892430917965252618e-02,-1.213266203711884338e-02,3.630792778429492614e-03,5.888963937759399414e-01
5.203240350164588524e-01,-2.509105263222549675e-02,-4.461204814864327961e-02,1.957286672481467135e-02,9.260868599555129727e-03,-3.099948573610769934e-03,5.567235946655273438e-01
5.157312621689650323e-01,-4.675166852370266080e-02,-3.855848081121646120e-02,1.845527269204063139e-02,-9.397596621425154855e-04,8.417091641338660807e-03,5.595378875732421875e-01
4.591041092769341248e-01,-2.192015066297517412e-02,-4.596691889438342393e-02,1.251503334184468456e-02,1.689642599779251839e-02,-9.194167095161034919e-03,4.950854480266571045e-01
5.413914868623591614e-01,-5.249098826249920524e-02,-4.627608652197190420e-02,2.271159840919467765e-02,7.343944701219508493e-03,-9.270524635871457090e-04,5.922465324401855469e-01
5.551213442598714742e-01,-5.099195272603568307e-02,-4.692248664264903057e-03,3.948238971475608039e-03,-1.716278371274790977e-03,-9.017417044467250856e-03,5.845969915390014648e-01
5.557754277488845540e-01,-6.008555489557101947e-02,2.477679762338971803e-02,7.511807903631454938e-03,-3.151143655166785320e-03,-4.160430543123434799e-03,5.783372521400451660e-01
5.384326211785391836e-01,-5.312953015569435444e-02,2.041796230673725843e-02,5.452543308075518021e-03,-1.213454166332141385e-02,-8.741465141618951287e-03,5.591129064559936523e-01
5.506185626112278797e-01,-6.018786026899072827e-02,-4.603423705199227722e-04,5.963117022778614482e-03,5.881687825416228449e-03,-5.085065438039910492e-03,5.834877490997314453e-01
5.537678225998815540e-01,-5.007219659465747541e-02,-3.064034537132082070e-03,2.885987328997026685e-03,9.134543155276803311e-04,-2.933326122293313919e-03,5.818079113960266113e-01
5.467912343788320362e-01,-5.986831578543572174e-04,-3.769890509352114005e-02,-4.772720456543860269e-03,2.301407476357154782e-03,1.597259452046908765e-02,5.676002502441406250e-01
5.300612054672272366e-01,-1.669311482308563632e-02,-9.384690619511443233e-03,7.948708169481222535e-04,4.160638544233805081e-03,2.188964803107830773e-02,5.445080995559692383e-01
5.361590509527985882e-01,-3.466507147200628691e-02,-2.895139101793417491e-02,-2.894229417990564369e-03,-2.075528684275465378e-03,3.606244508235057107e-03,5.680567026138305664e-01
5.326295015072309846e-01,-4.017246137339533507e-02,-4.559300062052987212e-02,-6.482434516986860032e-03,-1.193690916481594810e-02,-3.575332655006853953e-03,5.760453343391418457e-01
5.074609532826860336e-01,-2.268345254059780935e-02,-3.785602802208909434e-02,-4.484611976759354801e-02,-3.955170703279637517e-02,1.020615940954209752e-02,5.480565428733825684e-01
5.323990690930011649e-01,-2.668738847271101555e-02,-3.889768474500826523e-02,2.212931717963287359e-03,7.785295343860050912e-03,5.037585612507639032e-03,5.655316114425659180e-01
4.054352414927977488e-01,-2.824577107499159911e-02,-1.703762289433091714e-02,7.192686299339674794e-02,-1.041890321797077357e-01,-3.801531668837136203e-03,4.811173677444458008e-01
3.558486374286508047e-01,-2.908853723828848381e-02,-1.342795228835706733e-02,3.440130236334652813e-02,-4.305510311564869630e-02,7.059815257984968992e-03,3.894286155700683594e-01
4.074525859248927517e-01,-2.529182833563159427e-02,-1.456558301108315523e-02,6.297911723642969639e-02,-1.084271218454694180e-01,-1.133907801986855715e-02,4.798908233642578125e-01
4.860657745777218208e-01,-4.428063743358831572e-02,-3.632874505456870629e-02,2.339746164769692868e-02,-1.903322096500864244e-02,1.027420242585647299e-02,5.293005704879760742e-01
2.800372507092770413e-01,1.356444192943603855e-02,-4.358077487182823728e-03,3.130514504223708139e-02,-2.472344267687842656e-02,2.925724758039103483e-03,2.844368219375610352e-01
2.895041061617081857e-01,-5.020226917345771422e-03,-7.421009836706543572e-03,-1.659977820342220522e-02,-3.951233499121305920e-02,-4.904734810508890042e-03,3.050244748592376709e-01
2.853190851912774662e-01,1.822407156935601513e-04,-9.433829097110185691e-03,-3.672319600463394562e-02,-3.103968261278483576e-02,-3.270730447109058015e-03,3.018371164798736572e-01
2.057937093578143251e-01,-1.478796755652836414e-02,-3.553526966278225396e-03,-5.686414685867508673e-02,-6.181293461631955782e-02,-1.508193232129140943e-02,2.610553205013275146e-01
3.071804124926796331e-01,-6.951019946241643321e-04,-3.163703222818420313e-03,4.032751737335868447e-02,-4.570414693801431311e-02,1.020006835063318358e-02,3.271255195140838623e-01
1.809188443053750261e-01,-7.167493978599386029e-02,7.707613857678298486e-03,-1.172749363022657608e-02,-8.033672948917509882e-02,8.807438318532655880e-03,2.646903097629547119e-01
5.202668356826539720e-01,-5.148986530494722991e-02,-3.653466491081128198e-02,-1.142016804086273818e-02,7.567019641092513410e-04,-4.862061007884080528e-03,5.648385286331176758e-01
4.984585016213198827e-01,-5.188434401073377389e-02,-3.658337464667454908e-02,-6.822714013446149264e-03,-4.786164509074150028e-05,-8.479171368723323332e-03,5.431813001632690430e-01
5.068614735518282011e-01,-4.011270375445544212e-02,-3.989950605769806979e-02,-1.183647276932151340e-02,-1.766379374547803402e-02,-3.213858987486997113e-03,5.481345653533935547e-01
5.229253792754744445e-01,-5.623903908086669290e-02,-3.422719174504651463e-02,-1.233864094364465341e-02,-7.171922843734383421e-03,-6.068678215563966943e-03,5.691124796867370605e-01
5.164970852778979493e-01,-4.037593948392345644e-02,-3.840135990330562077e-02,-6.395129795853471931e-03,5.483296242572423219e-04,-2.419837945865996841e-03,5.560153126716613770e-01
4.738513214864921719e-01,-1.791662273678973349e-02,-5.021187509807750748e-02,1.528880075794167813e-02,-3.640413864019653029e-02,-1.246251105202764988e-03,5.132661461830139160e-01
4.151608201256577479e-01,-2.412577854418811174e-02,-2.767613629314043255e-02,1.527799981424604256e-02,-9.983056521474711897e-02,-8.889220207411110616e-03,4.747427403926849365e-01
3.622540425863349789e-01,-2.576756261692481065e-02,-1.725080703572248741e-02,9.130875746713132401e-03,-8.597712618745387281e-02,-1.746873114540474156e-02,4.131227433681488037e-01
5.386007040282474456e-01,-4.441243064449479361e-02,-4.216309516344760033e-02,-2.373151228660088687e-03,-3.209350522335629313e-03,-1.233728014089625642e-03,5.819367170333862305e-01
4.851379348777044576e-01,-2.258262421655943264e-02,-5.694014322617382828e-02,-1.497267825763892637e-03,-2.279338454249434098e-02,5.186374140889470769e-03,5.273050665855407715e-01
5.363554710585054508e-01,-4.049061185679131425e-02,-3.031168877311560261e-02,1.542862431879895267e-02,-8.573685268991161970e-03,-2.403481572901679502e-03,5.726563930511474609e-01
5.039840787806291189e-01,-3.674444797650860961e-02,-3.378770827129415344e-02,1.055215053938592974e-02,-1.070189524838108426e-02,1.782330115750342409e-03,5.398930311203002930e-01
5.423322747029044599e-01,-4.325392835638336431e-02,-4.001784844730207902e-02,3.656279515440356148e-02,-1.751386136766812027e-02,4.106480423908084767e-05,5.881814360618591309e-01
5.575937893473212892e-01,-3.602025427980826144e-02,-4.946885487461188946e-02,1.274102216428855613e-02,-4.320105671347468368e-02,-1.709228083888013686e-02,6.062212586402893066e-01
5.092906574191625735e-01,-4.214124137266045400e-02,-4.303883049901285895e-02,1.104260862777020277e-02,-1.640340704925884532e-02,1.041999221754945706e-02,5.532374382019042969e-01
5.033483116862671469e-01,-4.193353180027858951e-02,-4.800153536785625730e-02,2.153678293186255324e-02,-4.749780495666263563e-02,6.065899627107427215e-03,5.558308362960815430e-01
4.651769123233165382e-01,-1.033778454600085689e-01,-1.039779732087410535e-02,5.706518035388261079e-02,-1.265539305523820379e-01,-3.049793457780566874e-02,5.827889442443847656e-01
5.587332700490938997e-01,-2.701891588747637463e-02,-1.417137658027445291e-02,-3.648823285770472213e-03,-4.238140388828753533e-03,1.541959128217667598e-02,5.801312923431396484e-01
5.338302712032222397e-01,-1.903398192250252419e-02,-1.597330719184153480e-02,-2.482011876197065103e-03,-2.520752228853854072e-03,8.921657130424028720e-03,5.515908598899841309e-01
5.308237791117896842e-01,-5.747564988096226513e-03,-2.816312671526505218e-02,-9.328335794422833172e-04,-4.026225814371414517e-03,8.072774248588343929e-03,5.483480095863342285e-01
5.323422648129410018e-01,-2.210446325134465817e-02,7.308065395622953542e-03,-4.974476341605968584e-03,-5.165491823873503627e-03,2.125670625452317358e-02,5.417364835739135742e-01
5.359783903336217126e-01,-4.243515674691988870e-02,-4.530235075971039693e-02,-3.446062953139184936e-03,-3.880190858801887618e-03,-4.654598008042820124e-03,5.799781680107116699e-01
5.479626453450310297e-01,-5.313800095675105806e-02,-8.386528345697252806e-03,3.845827974570217508e-03,-8.377984161999198556e-03,-7.231731460899255533e-04,5.802422165870666504e-01
5.804137898709158527e-01,-4.632970455058796344e-02,2.011422617309854832e-03,9.052418980497175865e-04,8.158637511699266126e-03,3.623695585685532405e-02,6.074440479278564453e-01
6.430164606329066279e-01,-4.740399959060331847e-02,-1.992967355353231218e-03,2.300603561459264174e-02,2.706849011827822116e-02,4.701886474302497537e-02,6.766151785850524902e-01
5.992353489091994945e-01,-3.089213274875962645e-02,-3.137381690112570065e-02,2.382360282763703457e-02,-1.332004330746953957e-02,4.573638694214028633e-02,6.370830535888671875e-01
4.389729563510494925e-01,-4.065462302693476082e-02,-2.199514422730308727e-02,-4.672527966606204036e-02,-2.149650790194584937e-02,2.025869773124067824e-03,4.789462983608245850e-01
5.300094990072139467e-01,-3.393660715567350938e-02,-7.275256701345933497e-04,-2.256717232291343377e-03,-7.119678509354280919e-03,1.147788416971167250e-02,5.486096143722534180e-01
4.229601676655686537e-01,-3.951921662181592798e-02,-9.827481852658859207e-03,-4.627413748955196832e-02,2.871265789859976311e-02,8.910017360654637342e-03,4.584454894065856934e-01
4.258800282809650506e-01,-4.674934655019730156e-02,-1.682011713439049427e-02,-5.422911652528434462e-02,2.187755683970925638e-02,1.865400710836545356e-03,4.694651961326599121e-01
4.247705083781757041e-01,-4.705998154703569525e-02,-1.372211518163740651e-02,-6.822396127153675105e-02,-1.126693312255641621e-02,-3.519592495281710707e-04,4.715403914451599121e-01
4.233923784625818754e-01,-4.682103527189289405e-02,-1.336069883547218173e-02,-4.045309428044124855e-02,-6.318741989742773096e-03,-7.791285243905893103e-03,4.601065218448638916e-01
4.016783488759081422e-01,-3.655555501799337415e-02,-1.316635743701316530e-02,-2.301312144105590110e-02,-1.504328849993205423e-02,-6.103661493607980253e-04,4.296683669090270996e-01
3.445680089603349594e-01,-2.718871996028965343e-02,-9.140272215140396450e-03,-7.124189391602810117e-02,-1.211320042570612592e-02,-4.944481797392911819e-03,3.841339945793151855e-01
4.565947352846992935e-01,-2.911121442222744382e-02,-3.412117560818550555e-02,1.689554671797927760e-02,-8.601355663547478880e-02,-2.630442981730388152e-03,5.113129019737243652e-01
5.406746736148788646e-01,-4.687150311081750287e-02,-2.893066977050270938e-02,1.404126921303743697e-02,1.733039304155530860e-03,-4.697897213893497022e-03,5.793600082397460938e-01
5.587742066740066793e-01,-4.559069257144568454e-02,-3.682298448697579607e-02,3.505903839927457244e-02,-2.444135016169459926e-02,-8.339772089559865237e-03,6.047504544258117676e-01
5.715953933105932805e-01,-4.495643563621579131e-02,-3.343292868943253948e-02,3.026950729600692835e-02,-1.165941698895723438e-02,-1.106614491106436109e-02,6.137491464614868164e-01
5.411346750691191643e-01,-4.354634947953545110e-02,-4.831985026340418488e-02,-1.725946579080657895e-03,-1.537561668513021639e-03,-7.829992237543117800e-04,5.870975255966186523e-01
2.694804245714604862e-01,-6.089877939435800469e-03,-2.811912180317205356e-03,-6.384478974370991211e-02,-4.935063475105267577e-02,-1.223019743061255077e-02,3.082695007324218750e-01
3.059481828667527381e-01,-2.274721658107750621e-02,-6.201090857347005270e-03,-7.146926389761189269e-02,-3.953526628602591075e-02,-6.112096043639563339e-03,3.507143557071685791e-01
3.891614557752452463e-01,-3.296709448003971865e-02,-1.054373923070310581e-02,-2.622959652514191692e-02,-1.396617219225200490e-02,-7.337410105735029178e-03,4.147775769233703613e-01
4.240794790423970118e-01,-2.362867478833496904e-02,-3.321558247070408032e-02,-2.072786948118507389e-02,-4.866679879409128301e-02,-1.623627868383278536e-02,4.626140892505645752e-01
4.072911258314213523e-01,-2.991712890871643660e-02,-2.668582295944833815e-02,-7.635612640223866932e-02,-7.374392144284365458e-02,-5.987252791714818036e-03,4.729287028312683105e-01
3.992571931463881896e-01,-3.413161321509954049e-02,-1.970379577895746415e-02,-4.827511456271483398e-02,-2.278619655657563442e-02,-1.455293374634345632e-02,4.369961321353912354e-01
3.944539822508310034e-01,-3.439338330953782552e-02,-1.815773268176125443e-02,-4.657434810138329218e-02,-2.765569145555389283e-02,-1.282240567805320586e-02,4.318637549877166748e-01
4.704582611672187276e-01,-4.048755680917479061e-02,-3.154516440037899438e-02,2.495583744482678112e-02,6.057793255381544589e-03,-1.192951922088792381e-02,5.089026689529418945e-01
5.301119293500909935e-01,-4.051950111232652252e-02,-4.596721425755620483e-02,-2.480435413390655926e-03,-1.072774543630554932e-03,-8.002146452202344926e-03,5.735613107681274414e-01
5.309884925532166733e-01,-4.193374185182954794e-02,-3.866600555281671237e-02,2.440026519065233916e-04,-1.541192769319960207e-03,-1.369415044804251583e-03,5.713067054748535156e-01
5.404977418662150201e-01,-3.916648914790121783e-02,-4.159022477118995420e-02,-2.964549446599948779e-03,-4.781148165835700896e-03,-4.263137554825036785e-03,5.810085535049438477e-01
5.444368597539943622e-01,-4.320939918702310090e-02,-3.926675603518101076e-02,-4.204850750479354436e-03,-2.503648019069454594e-03,-3.431986443351930406e-03,5.857763886451721191e-01
5.296563140027356065e-01,-2.480677256339575143e-02,-3.974824980094571192e-02,-5.540345644979712339e-03,-6.768091842790558213e-03,6.223677771068924364e-03,5.623902082443237305e-01
4.972718186357111270e-01,-3.468017230223727210e-02,-4.841101548283213707e-02,2.837541627140150857e-03,-1.110460200835253122e-03,-8.210396294852775889e-03,5.391620397567749023e-01
4.777105906943650560e-01,-4.189166671100758021e-02,-3.595444795544677774e-02,-2.574704680107779003e-02,1.549259113907489917e-02,1.020130598078383688e-02,5.195745825767517090e-01
4.913682160586462788e-01,-5.278706322399095985e-02,-2.910687115390331314e-02,-5.270334790441486353e-03,1.062063797270623722e-02,3.049848579691331364e-03,5.331318974494934082e-01
4.698836195109571401e-01,-4.412265372119145157e-02,-2.477827518682454433e-02,-7.183107205145053409e-02,5.480368476027450142e-02,2.257035459082359051e-03,5.283353328704833984e-01
5.413049471123976275e-01,-2.154014878989912729e-02,-4.354573772630565553e-02,-7.638483059465096640e-03,1.494811083228644866e-02,-2.195121892645100596e-03,5.749125480651855469e-01
4.233809675618093737e-01,-4.563063318616490671e-02,-1.195198043978808189e-02,-4.361713084092763010e-02,-6.008038273878688225e-03,-1.230719895462767215e-03,4.594895541667938232e-01
5.189626727006501072e-01,-4.217868925697987326e-02,-3.651893460374083800e-02,-3.755775871799551385e-02,-2.486594568906555069e-03,-3.119119179578736488e-03,5.621523261070251465e-01
5.044530928823682814e-01,-1.594736190754811322e-02,-6.299375494842335277e-02,-3.220692917787377346e-02,-1.716658197085034476e-02,7.978403263114531099e-05,5.490982532501220703e-01
4.275156884581546857e-01,-2.822847709211241674e-02,-3.251904988664018614e-02,-6.559759990055072376e-02,7.746129264620008233e-03,-2.182647893656786391e-03,4.719957411289215088e-01
5.327275631884356155e-01,-4.446931858336716781e-02,-3.891328502807817058e-02,-3.265742565115668100e-02,1.077287953335702604e-02,-5.497168346942557775e-04,5.775194764137268066e-01
4.308291783299434963e-01,-2.762371062079788109e-02,-4.376975555512704896e-02,-6.331654869134166475e-02,6.808418228266994825e-03,1.601981055259370148e-03,4.795994758605957031e-01
5.474697078471790768e-01,-5.200539548924862365e-02,1.910591323524199470e-02,6.574535577431818781e-03,-4.195501539669780136e-03,-8.804408816043503283e-03,5.676379203796386719e-01
5.328212364223647857e-01,-4.295009804299182443e-02,-4.693197636009463491e-02,-2.857965909703766923e-04,-1.041723885117477617e-03,-6.197892471516858529e-03,5.778753161430358887e-01
5.563409165701213022e-01,-6.311853933074770828e-02,2.336298124142976995e-02,9.367875350950292598e-03,7.764107561685718245e-04,-2.139238887932805311e-03,5.813055038452148438e-01
5.464833761564215076e-01,-5.597659445662248046e-02,4.477022110831671564e-02,3.057105087780229331e-03,2.772876604942785175e-03,-8.118477619775740090e-03,5.591608285903930664e-01
5.424894836453482139e-01,-4.896380788618753810e-02,2.902758744453062811e-02,3.442233605550679750e-03,-5.739493299549390526e-03,-1.923805889008141368e-02,5.576881170272827148e-01
5.461481970881401082e-01,-5.440096684443851416e-02,2.189516887500037035e-02,3.450601324331556592e-03,6.709143601870952260e-03,-2.452920831712935429e-03,5.664358735084533691e-01
4.837414394536767581e-01,-3.293085035513260150e-02,-2.793500553029870659e-02,9.589861947171190310e-03,1.651411906187635892e-02,1.288810742658045997e-03,5.152601599693298340e-01
4.947178528221475857e-01,-2.892443397932276117e-02,-4.807715335142559443e-02,5.989495212249049128e-03,1.313332530114723860e-02,-5.846370229901181464e-03,5.341581106185913086e-01
5.085380930227529905e-01,-3.445212326148999749e-02,-3.616347267970168589e-02,-1.350156347668468376e-03,8.196591501287910086e-03,1.649109372505018099e-04,5.440382957458496094e-01
5.345292367337496353e-01,-3.873477151197435298e-02,-4.467189668973187144e-02,-1.299321631426168062e-03,7.352071490521295410e-03,-1.530313931816351019e-03,5.764066576957702637e-01
5.254611483547320105e-01,-4.828346298804733761e-02,-2.727676796280489868e-02,1.711291751249744211e-02,4.259743097468866174e-02,6.172339692563872347e-03,5.692171454429626465e-01
5.075134903721872925e-01,-3.707313164831341212e-02,-4.143360355486999658e-02,1.302794378233594098e-03,6.423408061163990782e-03,-9.960952314411806834e-04,5.469004511833190918e-01
5.260214485718209820e-01,-2.906160057089543503e-02,-3.094645729628542341e-02,-1.673910290967946593e-03,9.813115071287212970e-04,7.045505004391317688e-03,5.561718940734863281e-01
4.663548676450254282e-01,-4.384992338341503482e-02,-3.890970968464210755e-02,7.379323204055518275e-03,7.990947584239194157e-02,-5.768300771914492038e-03,5.265287756919860840e-01
5.099759836007047298e-01,-3.458118608015101070e-02,-4.443095542946590149e-02,-1.902086215520361421e-03,3.456922540630106514e-03,-2.761855546946764481e-04,5.495909452438354492e-01
5.081663356891001904e-01,-3.291855697501913647e-02,-4.466688451823863648e-02,1.985369506178877742e-03,1.871349140332600591e-03,-5.996318105069474246e-05,5.470740795135498047e-01
5.279743106758975069e-01,-4.395008679424347586e-02,-4.062476568698153434e-02,-2.019234671780589449e-04,-1.903456511286620448e-03,-1.599124402419390290e-03,5.702853798866271973e-01
5.280613578601041080e-01,-4.649283606927850920e-02,-4.836705173829686233e-02,-2.660640484785999787e-04,-4.826593500139671655e-04,-2.272042120769140940e-03,5.755078196525573730e-01
5.216935304131521400e-01,-4.148041492063808677e-02,-4.345414532041375066e-02,1.174338825142829529e-03,5.648437311356848583e-04,-1.346955924656119841e-03,5.641727447509765625e-01
7.812988486891853102e-01,-1.196089867416339769e-01,3.171726485958786812e-03,4.920624542739518437e-02,5.585919226995429004e-02,1.495397168882891224e-02,8.563826680183410645e-01
5.311060450972512337e-01,-5.328004343343631377e-02,-3.875261473748556340e-02,3.075088049387419628e-03,-1.851507144607124084e-04,-3.795078366470836222e-03,5.773215889930725098e-01
5.250234129874650213e-01,-4.360443915964062889e-02,-4.814098966254162781e-02,-7.137437447520371945e-05,-5.137907861803528865e-04,-2.154888407945408559e-03,5.709225535392761230e-01
5.255089857676551457e-01,-4.249516131228275873e-02,-5.120612766820697992e-02,-2.194483857024907315e-03,-6.764726048061127546e-04,-1.445803204913291475e-03,5.724286437034606934e-01
4.912766604393601355e-01,-2.879652640876892433e-02,-5.258645037699616331e-02,-3.302123195510596877e-04,-3.865780069212992518e-04,5.307127420795377734e-03,5.324470400810241699e-01
5.251868196268413280e-01,-4.182465088364567540e-02,-5.003230126344879181e-02,-1.901969526625378929e-04,-1.744134393960819311e-03,-2.667967832531206122e-03,5.711863040924072266e-01
5.526840166532048793e-01,-5.888097942452483191e-02,-4.005055490585063271e-02,-2.084530842737933494e-03,5.511385275450419313e-02,-1.420482213292886646e-02,6.103943586349487305e-01
5.393884233573100762e-01,-3.975908635824423887e-02,-4.080093263488707156e-02,-3.478232033686054752e-03,1.502665020543294313e-03,-2.411271973532417862e-03,5.797213315963745117e-01
5.201390422999420116e-01,-4.409194892296108836e-02,-5.997081312669191866e-02,3.293350992160997553e-02,9.172738129573591859e-02,-1.666915884880570964e-02,5.974087715148925781e-01
5.405860577594562288e-01,-4.944904962397797532e-02,-2.863507114751764893e-02,2.282811810237403427e-02,4.815279866838903522e-02,7.287468043437926937e-03,5.873435139656066895e-01
5.112237359474844922e-01,-3.489693962860093701e-02,-5.270871631686005476e-02,-7.520458693374549447e-03,2.749950509786732930e-03,3.847387040256119908e-03,5.554540753364562988e-01
5.107451827116243903e-01,-3.772494204863990896e-02,-3.547498095730869383e-02,1.492357752356108548e-03,1.433330481886232848e-02,-3.674824445777692683e-04,5.479177832603454590e-01
5.329257780749976359e-01,-3.965114606410982678e-02,-5.463397244199549863e-02,1.017357902099553461e-03,1.066616393415572954e-02,2.333978683883291584e-03,5.805242061614990234e-01
5.070954794304318725e-01,-3.796437310314623725e-02,-4.920103801621655837e-02,-4.880460305646859911e-03,8.964357679772806675e-03,1.147357732015013079e-02,5.514060258865356445e-01
5.073597123217823412e-01,-5.381270603433063737e-02,-3.361687223636408706e-02,-1.957025827283716615e-03,-3.048244986237817842e-04,-3.378599852230095880e-03,5.513936877250671387e-01
5.572153111106495915e-01,-3.804530006623305094e-02,-5.668316908105452967e-02,-1.538642996169585497e-02,1.893515644957766836e-02,3.424396066469610755e-03,6.062985658645629883e-01
5.395022160188595040e-01,-4.442042122374792457e-02,-4.504249620911091045e-02,-8.323590919346652477e-04,4.261911740659581798e-04,-3.664583522178762806e-03,5.842706561088562012e-01
5.421988052213374543e-01,-4.548127576053107024e-02,-4.514073450172478852e-02,4.809664340205820499e-04,9.526954220595223533e-04,-3.548176436068326521e-03,5.875449180603027344e-01
5.355985175037725199e-01,-4.244437428329245199e-02,-4.525181697855631957e-02,1.316149475368157129e-03,1.866843285677897979e-03,-4.667107751745941738e-03,5.795215964317321777e-01
5.376225322724808020e-01,-4.298647338002023477e-02,-4.427789116522484747e-02,-3.584090384913931303e-03,-2.358036222086596061e-03,-4.588904172563868997e-03,5.813575983047485352e-01
2.716118717865157461e-01,2.440523701670387069e-02,-1.853917560689914701e-02,-1.352700189953737198e-01,-1.863935159541224573e-02,2.983172878933116126e-02,3.635622262954711914e-01
3.056109287222975590e-01,-1.569227391249967962e-02,-6.775499742122589875e-03,-7.320221735455523238e-02,-3.958979572482958925e-02,-5.246955571787621786e-03,3.482967317104339600e-01
3.475368423532768092e-01,-2.296712282350819867e-02,-9.281152961929842182e-03,-6.310731436142112682e-02,-1.411487801719729998e-02,2.068120633931225770e-04,3.807035684585571289e-01
2.171008328363047135e-01,1.285409310334550970e-03,-2.383343961394451815e-02,-9.731235370979376964e-02,-2.377109710713620067e-02,-1.225254805716852191e-02,2.884145379066467285e-01
2.149627418516974198e-01,-1.596360089773929403e-04,-4.249378829764394183e-02,-5.632894264979955434e-02,1.031453137579452055e-02,-2.647998161614128348e-02,2.629038393497467041e-01
2.662333292735946100e-01,-6.152117087649816574e-03,-5.216153101736814568e-03,-1.124926345646745651e-01,-1.759487716929786227e-02,7.460419203178601799e-03,3.361536264419555664e-01
5.430499894780080883e-01,-4.164494073644661731e-02,-4.570360322712010981e-02,4.401988847991205158e-04,-2.149751534651933062e-04,-1.272133672150725430e-03,5.867395401000976562e-01
5.267057785348857601e-01,-3.215069166865516803e-02,-4.313394485170501946e-02,4.666872587305363057e-03,-8.193552289659634599e-03,-1.689351230896088667e-04,5.646645426750183105e-01
5.432423915551541915e-01,-1.644257875351917697e-02,-4.921581369310012999e-02,2.966183209623302498e-03,-2.379902185188199557e-03,9.031630155084511766e-03,5.770200490951538086e-01
5.294042548417070559e-01,5.131897408771124436e-03,-4.237156277004514027e-02,8.721636718386388196e-03,7.385196645120128446e-03,1.592922565723131970e-02,5.506141185760498047e-01
5.474907737224978810e-01,-2.562743313258980526e-03,-4.601978842380946566e-02,-1.282787968010994095e-02,3.825497141328623035e-03,-6.611729691771396460e-03,5.736024975776672363e-01
5.472139540610079234e-01,-3.696238098504953107e-02,-4.455415181463603935e-02,4.664465276330367893e-02,1.392824964454515875e-02,-1.738266925265487739e-03,5.940309762954711914e-01
5.195655010356265979e-01,-2.327625043028128116e-02,-4.740672232497830652e-02,5.367701737827459962e-02,-2.320549417740762690e-02,1.534626068738661683e-02,5.650877356529235840e-01
5.083522607718111708e-01,-3.954371308712548161e-02,-3.687140628094906503e-02,2.013581917215392578e-02,-1.000806693625029727e-03,1.956043137992208400e-04,5.476791858673095703e-01
5.519225159525052993e-01,-2.763615732297960981e-02,-4.821056059055134346e-02,5.270131689746052756e-02,1.287603090030001000e-02,5.324341568454881921e-03,5.976205468177795410e-01
5.698177799924709630e-01,-3.395946720328640867e-02,-6.243508708245465444e-02,3.640776991646788724e-02,6.054030991336578106e-03,1.294332157311037712e-03,6.218056678771972656e-01
5.294879932313415472e-01,6.920618183002685830e-03,-4.554814286789080069e-02,8.483605596345001124e-03,1.000522848907576742e-02,1.097377197768074214e-02,5.514758229255676270e-01
3.754508545603021386e-01,-2.726740053506465644e-02,-2.520964556115390387e-02,-2.548850618330734952e-02,-5.735020610224143139e-02,-1.097605819906792395e-02,4.165754318237304688e-01
4.433809290273623138e-01,-1.755010572320586659e-02,-4.444990841454860009e-02,-4.061866911813455058e-04,-1.021391428550655648e-03,-6.814583266842868040e-03,4.751030504703521729e-01
5.075408253568698402e-01,-2.809910574780938308e-02,-6.229398856338924650e-02,1.370346532609927667e-03,-4.131287592792100977e-03,-1.610917419003168437e-03,5.535884499549865723e-01
4.148778963788186669e-01,-1.427603865573662256e-02,-3.778181875286204527e-02,-9.286422998623700131e-03,-3.247865807652861037e-02,-1.577475716119721956e-03,4.452459812164306641e-01
4.081981652208968581e-01,-3.456410214941317560e-02,-4.818864733302356818e-02,-1.349021832532469427e-02,-9.188486102694945479e-02,-1.051286862383316555e-02,4.779775142669677734e-01
3.656975959688861799e-01,-1.017331888633959958e-02,-3.130802991025963267e-02,-4.056333524028743476e-02,-3.737023422291529950e-02,-1.035120257275096156e-02,3.988943994045257568e-01
3.930699214392707197e-01,-9.286447176592645125e-02,8.111789354527249030e-04,-3.557112578953807065e-03,-1.053762847036790185e-01,1.555699485336310521e-02,4.831807613372802734e-01
5.347796141953832239e-01,-4.392551140302197732e-02,-3.038648337763738549e-02,3.429571129804139407e-03,2.661084670665285219e-03,-7.792416192105528026e-04,5.721067786216735840e-01
5.230613822681304814e-01,-3.927862242351867761e-02,-3.751105094759377145e-02,-4.396320828594177214e-03,-2.988451488681983723e-02,2.687963783150817444e-03,5.639098882675170898e-01
4.960396591017631751e-01,-3.092679173661444514e-02,-5.658892740789178699e-02,-5.217189699936037629e-03,-1.674302215101546032e-02,-8.348506163973364730e-03,5.413011908531188965e-01
4.812814583930707379e-01,-2.880312891803551989e-02,-4.738058292433433571e-02,-6.515712558497878913e-03,-2.471715573039640415e-02,-1.112875999430450007e-02,5.218613147735595703e-01
6.323274913722208845e-01,-3.658188109313464942e-02,-1.538688569261023598e-02,4.284369049075557531e-03,-3.351287922481473690e-03,4.381516769752048096e-02,6.629928350448608398e-01
5.338138515342230050e-01,-3.655778748781468579e-02,-3.162528388843044436e-02,-2.292626992174434056e-03,3.931694457957256653e-03,9.773399753504764115e-03,5.682283639907836914e-01
5.292875035710945530e-01,-4.449556585076197557e-02,1.334889060604591005e-02,2.338984942578998041e-03,-2.557485965983960496e-02,1.876148313268423060e-02,5.499249100685119629e-01
5.312513811445526146e-01,-3.648380932286574008e-02,1.269006085583779253e-03,-2.562806420029922240e-03,-1.328032309592174854e-03,1.808698559454550644e-02,5.507461428642272949e-01
5.004610361720558398e-01,-2.585644760122460251e-02,-6.360608810131687663e-02,7.067647921965075012e-05,2.583699251551351645e-04,-6.298217028526246521e-04,5.461729168891906738e-01
6.467915110125925793e-01,-5.181620728536384668e-02,1.068985630763286121e-02,1.117786680654465903e-02,1.588328119691253745e-02,3.722988232785830881e-02,6.734852790832519531e-01
5.826792998485035291e-01,-5.137213620228656130e-02,9.938909675504620234e-03,-4.450811677187460451e-03,-2.282046050813480928e-02,3.246691136604305111e-02,6.096637845039367676e-01
4.631537375434374715e-01,-3.163352100450764204e-02,-1.072666358780624551e-02,-2.289606916761794189e-02,-3.311009285734129587e-02,8.898689191542625068e-03,4.899042546749114990e-01
4.876025377078211376e-01,-3.024918697375206245e-02,-3.317294826124886353e-02,-3.085616305277484595e-02,-3.487019891715179704e-02,2.445695163388272170e-02,5.272490382194519043e-01
5.306742154235466469e-01,-4.429347399589114720e-02,-4.461577778996544952e-02,-2.795043688168900170e-02,-1.693871106454689079e-02,-1.029217092969609681e-03,5.779107809066772461e-01
4.352248433369497738e-01,-3.392464555542307192e-02,-3.110166197645811148e-02,-6.137940317314503902e-02,-4.724153273995779223e-02,-6.588253345223888183e-03,4.867366850376129150e-01
4.801290564876730671e-01,-2.742125187740690473e-02,-3.399331818972836650e-02,-3.849507459240422008e-02,-2.897420043138540513e-02,1.872810641568676149e-03,5.176492929458618164e-01
5.151731938288215407e-01,-3.454155795254279515e-02,-4.969231357814399286e-02,-6.925238715884206959e-04,-2.425301197122147531e-03,-3.761831101634451383e-04,5.574620962142944336e-01
4.638466622457935173e-01,-4.056896995711817278e-02,-3.324983894487884561e-02,-4.954405017144859064e-02,-8.709053132213144532e-02,-5.637147957085890046e-03,5.301040410995483398e-01
4.523369716313880851e-01,-2.377441384232295563e-02,-4.693497571428542625e-02,-1.902190086724907941e-02,-3.195655204621273421e-02,-9.555939448184801177e-03,4.926140308380126953e-01
4.793096990143028702e-01,-2.160560145371548391e-02,-5.485255189318524738e-02,-3.055013871499841238e-04,-1.182880082155750995e-02,-3.695289098561238637e-03,5.187835693359375000e-01
6.074029859405924991e-01,-7.057946152011537744e-02,4.488967840885482730e-03,1.927733222566269805e-02,2.739364525232310110e-03,-1.329056661649196010e-02,6.450330615043640137e-01
6.035825621492230120e-01,-6.372616558749791271e-02,2.182718434411901054e-02,3.037392580915207300e-03,-2.593827777846005253e-02,6.169530257720746112e-03,6.306267380714416504e-01
5.963159245685185628e-01,-7.444255000548233303e-02,4.064653267122947389e-02,-3.778650873835012747e-04,-5.915656520657322504e-02,3.677871770904987681e-02,6.328684091567993164e-01
6.657673431717744394e-01,-1.227096325646746811e-01,2.906279534588929181e-02,2.978175246620165875e-02,-5.156194422825903512e-02,2.056899363157463009e-02,7.327808141708374023e-01
5.895267335738876291e-01,-6.307500373172750252e-02,1.397528081656729260e-02,1.269990285961581375e-03,-1.992064883784543800e-03,6.052544033494779846e-03,6.177938580513000488e-01
5.070312002654829842e-01,-4.948036281022938354e-02,-3.027475787641151217e-02,-1.277733210972815427e-02,1.491122263476232475e-03,8.920931366427999054e-03,5.478330254554748535e-01
4.164840795688915520e-01,-4.602813379279724337e-02,-9.986256976551366460e-03,-5.403937341293664487e-02,1.110576541000916212e-02,4.155000412049006191e-04,4.557170867919921875e-01
2.731424717563060156e-01,-2.838450250274598963e-03,4.136149092358321067e-04,-3.111496089600201964e-02,-2.186966990929439456e-02,-2.121905306554693407e-03,2.821902036666870117e-01
4.203957161818971944e-01,-3.914396836011747871e-02,-1.433243651612127467e-02,-1.173569631387361006e-01,3.441197707225438374e-03,-5.922957829681023932e-03,4.917816519737243652e-01
4.781135243000483870e-01,-3.636377071751759060e-02,-2.485469466248960146e-02,-3.251806445306900523e-02,3.743534393689597166e-03,-2.137540356290813911e-04,5.119693875312805176e-01
4.684884176035655212e-01,-4.456670278384980421e-02,-2.755966042928173487e-02,-1.935218798759845080e-02,9.842493323934513663e-03,7.681907153693759947e-03,5.063402056694030762e-01
5.981474196751377370e-01,-3.097876378602898439e-02,-3.368639285996755106e-02,4.341935131655348667e-02,-1.740065685746903547e-03,-1.801604849265053127e-02,6.357271671295166016e-01
4.856477744013788511e-01,-5.696595410036878193e-02,-2.494541151977702764e-02,-1.354319539568765197e-02,1.854151215763776266e-03,-2.051073191551867295e-03,5.278763175010681152e-01
5.461485155759984167e-01,1.795075612980162605e-02,-4.863450900258969867e-02,-1.787690593124027956e-03,2.258887642015710781e-03,4.917525035603711667e-03,5.645299553871154785e-01
6.007094328061226562e-01,2.598480847170236974e-03,-5.778372994410094221e-02,4.663737358694190066e-03,-2.215300893288622668e-03,1.416555018084032259e-02,6.310150027275085449e-01
5.299071530466933355e-01,-2.509636380219423812e-02,-2.285571742520334237e-02,-3.319732492554351190e-03,-3.477127843661518680e-03,1.038471551503402420e-03,5.539520978927612305e-01
5.592509083235991385e-01,5.618264181019544390e-03,-6.141293793440033566e-02,1.444228309272441299e-03,1.448339818297175730e-02,1.496157058356576211e-02,5.911176204681396484e-01
4.883532083373006705e-01,-3.056646556890707522e-02,-4.580269440274828407e-02,4.980410017711643655e-02,4.033072330012798384e-02,-1.333859756133111592e-02,5.387679934501647949e-01
6.380205252550019690e-01,-9.722996053507571013e-03,-6.158910109728715776e-03,4.938657177233482520e-02,5.759532549605695523e-02,6.564503708601480969e-02,6.689337491989135742e-01
5.414008926492948071e-01,-8.131173853306833399e-03,-3.767578642651811527e-02,1.671675041891285650e-03,-1.506247501135907132e-03,1.467382143406234171e-02,5.654690265655517578e-01
5.406880394222903785e-01,3.114323937424057220e-03,-3.605986275186381929e-02,-7.291048474830750734e-03,-2.729358389758963690e-03,2.309428491289913787e-02,5.597865581512451172e-01
4.931041481564782947e-01,-3.066860163000473261e-02,-5.544657298515559551e-02,-2.925552450953616563e-03,-9.371408749317864176e-03,-2.881879077211350546e-03,5.368835330009460449e-01
5.448035535802479012e-01,3.897185554394250184e-02,-4.930319636852492637e-02,-6.312478657754013421e-03,1.285270027394666429e-03,2.758345271840286633e-02,5.574204325675964355e-01
5.178432903628832351e-01,-3.571013253415628030e-02,-5.207853940731846376e-02,4.348114719944539460e-04,-8.748356766002263890e-03,-4.899034758286620155e-03,5.621852874755859375e-01
5.533263347141373911e-01,8.310988622787729430e-03,-4.032521770836983155e-02,-2.868342047710635209e-03,-2.863618843455783582e-03,2.459856553130505483e-02,5.725200772285461426e-01
5.404293551441632371e-01,-5.620362013997912132e-02,3.455393951147930909e-02,-9.141010255787428271e-05,-1.161504674058536080e-02,1.687129529467726319e-02,5.579583644866943359e-01
5.473687165800236176e-01,-5.864996634489366700e-02,8.949325892681325723e-03,4.962616553250274358e-04,5.759378621325251559e-03,6.756909196784788296e-03,5.754120945930480957e-01
5.433661504725659785e-01,-7.227009407510548433e-02,1.585341925275374209e-02,2.842192373621557980e-02,-3.174308582922931443e-02,2.127009193277952862e-02,5.825163125991821289e-01
5.915801383972281169e-01,-7.395612015002608897e-02,-1.068032036644059324e-02,1.703965515711701462e-02,-4.231043595361316800e-02,1.186591200190885952e-02,6.414779424667358398e-01
6.201446449775565029e-01,-7.886622783539168347e-02,3.228042933998626074e-02,1.020071652268275848e-02,-3.242514111138963123e-02,2.998800695696006435e-02,6.553176641464233398e-01
5.710967247158574844e-01,-6.341878183869018026e-02,2.885717127738612886e-02,1.290198731280943565e-03,-6.362892825946930841e-03,8.744497520959543246e-04,5.938880443572998047e-01
2.579933881640571469e-01,-6.711559128740579583e-02,-3.606108702577545677e-02,-4.269922475369001408e-02,-5.469973923847260694e-02,1.501245575445464032e-02,3.341947197914123535e-01
5.814999496599375650e-01,-8.407948483209701229e-02,4.562733515120048766e-02,1.123474426039830672e-02,1.074781112052906537e-02,8.950162635061988461e-03,6.119274497032165527e-01
5.244876952886069477e-01,-4.113744838946326032e-02,-3.825121817832707882e-02,-1.380274288725768204e-02,-6.792424316436422235e-03,-3.658527238786815801e-03,5.648519396781921387e-01
5.159281794961593226e-01,-3.165258342597185304e-02,-6.223489880399049601e-02,1.393812071268507287e-03,-3.217056381068093569e-03,2.644317038351481908e-03,5.635460019111633301e-01
5.574317751882961192e-01,-4.802329494547025179e-02,-2.909902259118871126e-02,6.629122590000497556e-03,-2.009385351847597923e-02,3.396724363210820198e-03,5.973725318908691406e-01
4.611870399957003208e-01,-3.595743020842637194e-02,-3.495569192422492977e-02,-1.608050183649253895e-02,-3.109294073131432107e-02,-3.706352637342252322e-03,5.003727674484252930e-01
4.812200313998180601e-01,-2.670995350037808080e-02,-2.697752941976913621e-02,-4.449646054811592227e-02,-3.304387335935991821e-02,1.355447092134440430e-02,5.175862312316894531e-01
5.682472962108739978e-01,-3.895876159995767529e-02,-2.087866777623764714e-02,-4.727022879725820831e-02,-6.370845892946960798e-02,2.676842142654514700e-02,6.156923770904541016e-01
3.278175349027418473e-01,-2.049286489118454235e-02,-1.536684451122190265e-02,-8.597575560280287105e-03,-3.386099462984491076e-02,9.580493300703304960e-03,3.514225184917449951e-01
4.824103779808435744e-01,-3.504513141417373023e-02,-3.116915154034111124e-02,-1.280630737374852980e-02,-2.367900024640760825e-02,1.721646283353999189e-03,5.176413655281066895e-01
4.968379919049427107e-01,-3.367069612152429059e-02,-3.747414623244665899e-02,-7.963139793361296084e-03,-1.339727119982405366e-02,-1.567130329653680946e-04,5.331045389175415039e-01
4.535317145918066895e-01,-1.536632838440338267e-02,-4.953220997162049999e-02,-1.260209807949832887e-02,-4.948836186605241882e-02,-1.441590719061762145e-03,4.948565065860748291e-01
5.530653342681353113e-01,2.298649131882313235e-02,-7.008339171004415724e-02,-6.593447109352609109e-03,-1.131482581396837418e-02,8.205852895968731089e-03,5.828348398208618164e-01
5.538629732640721892e-01,1.738483208610006048e-02,-3.959456748388806568e-02,-2.496790826614540739e-03,-2.186269588885379929e-03,3.073945255939198110e-02,5.696414709091186523e-01
5.885527896949271920e-01,-1.228309297403915035e-02,-7.654564052398901697e-02,-1.404352177993390370e-02,1.254949850935976191e-02,1.342859416503742499e-02,6.366708874702453613e-01
4.532616148898960251e-01,-2.629062490357328419e-02,-4.258163310961837755e-02,-6.860180437281438934e-03,-2.193971095900713875e-02,-1.271180081776292561e-02,4.900185167789459229e-01
6.069104924630241982e-01,-7.622312503582800991e-02,2.699899920391934938e-03,-8.196381621724762147e-04,-2.266054728780771133e-02,5.950123369636474945e-03,6.485631465911865234e-01
5.258617859282020968e-01,-4.352880326925354093e-02,-1.623416533239699366e-02,5.328769992652694978e-03,2.302460858242891348e-03,-2.081069651292979678e-03,5.563482642173767090e-01
5.719997499960143283e-01,4.519238840345490837e-02,-6.026766480375428392e-02,2.054951348440035852e-02,1.007466197026911196e-02,4.652601276037258288e-02,5.935236215591430664e-01
5.670844189789479017e-01,2.080470503934203630e-02,-6.660139353060925971e-02,2.001991705830136192e-02,1.293007092713520899e-02,9.976256282509367648e-03,5.964998602867126465e-01
5.876462448661297078e-01,2.256002789069258552e-02,-6.984344035789941119e-02,7.902246392855050497e-03,1.079370353314682875e-02,1.389019556366278413e-02,6.174077987670898438e-01
5.471974368974952263e-01,2.399078429095519160e-02,-4.771532308175135961e-02,-5.353438007117318313e-03,-2.987972688925651533e-03,1.096726746554289172e-02,5.629189014434814453e-01
6.041803059914701013e-01,3.882856311973292840e-02,-7.819800194253578862e-02,8.740894699462065445e-03,3.374922864833726586e-03,2.016833868383051745e-02,6.332161426544189453e-01
5.363347615725109208e-01,-3.591631126839600618e-02,7.750069408744147959e-03,-3.031038525378837553e-04,-1.129172735827372242e-03,9.785213446872283172e-03,5.519794225692749023e-01
4.969630615805228913e-01,-4.089324163251037425e-02,-3.956607566850964264e-02,1.374431128198455067e-02,-3.832634882207607875e-03,-3.712788340280132916e-03,5.378006100654602051e-01
4.904399012879551156e-01,-4.522766478896791953e-02,-3.629566189645533347e-02,2.305396697195980296e-02,-1.650912137545756594e-02,1.103367459983764162e-02,5.338653922080993652e-01
5.345739098224342456e-01,-4.409241407269146040e-02,-4.426653048394427192e-02,4.364977805162584962e-03,5.704932020589326700e-04,4.747552040202510093e-03,5.788620114326477051e-01
4.162851546808157277e-01,-1.970465060463388873e-02,-3.296630702720390604e-02,4.398474694115279970e-02,-2.557859867559120898e-02,1.108098570318017534e-02,4.518628716468811035e-01
5.193360828904388660e-01,-4.450705823395217919e-02,-4.344362393148518131e-02,3.892841631866463415e-03,-1.240091822839680313e-03,3.532960733983264712e-03,5.633898377418518066e-01
5.087737534917881055e-01,-4.164197897774998824e-02,-4.192744133550777019e-02,1.018765800779406448e-02,-3.662242582384698207e-03,5.491547690901283502e-03,5.509598255157470703e-01
5.215508494629911285e-01,-3.719613643796854108e-02,-4.323781256686021202e-02,9.974308805240493514e-03,-2.205654296827782440e-03,3.025200712114600385e-03,5.620951652526855469e-01
5.128504452570658012e-01,-4.599225178372684519e-02,-3.984282675203135171e-02,6.043616756125518887e-03,-9.662333242904797351e-03,7.689741156140688857e-03,5.563033819198608398e-01
3.857462687773313137e-01,-2.593791312752660727e-02,-2.113257689190811695e-02,3.075750470356489186e-02,-4.268634486489016056e-02,2.056083211574684638e-03,4.193397164344787598e-01
5.187398481483758150e-01,-5.774977092856753424e-02,-3.308474434702809996e-02,1.371276738768936049e-03,7.188354180137569889e-04,1.557108870963827725e-03,5.645741820335388184e-01
5.197050611510907192e-01,-4.731902154800474158e-02,-3.963877454548253576e-02,3.474383743769312791e-03,3.809420545843804720e-04,3.858346017108513302e-03,5.632954239845275879e-01
5.263343863432543568e-01,-5.128629728850256364e-02,-3.713053157179202479e-02,1.020595745850031745e-02,5.011131959385265074e-03,6.107015965424128154e-03,5.711121559143066406e-01
5.075056201812230272e-01,-3.894292445107677691e-02,-4.871941914731414691e-02,-1.868779475784992233e-03,-3.562930381624255811e-03,7.149701535671869335e-03,5.515848398208618164e-01
5.255623601471024475e-01,-1.637104028686731105e-02,-1.878207256924815938e-02,-5.510848478059829537e-05,-1.995479809985782095e-03,1.131055362786185592e-03,5.431574583053588867e-01
4.170279120931949524e-01,-2.634748311633221263e-02,-3.218601246495440826e-02,4.026094206839657408e-02,-2.855512286922865309e-02,8.977062577845995942e-03,4.547034800052642822e-01
5.061372382529645275e-01,-4.748841337704104437e-02,-3.741594901796821415e-02,9.917090628289900942e-03,-1.631999884933767403e-03,7.709017057946790027e-03,5.490972399711608887e-01
4.087666983735197546e-01,-2.534009835917894193e-02,-4.035687534775381224e-02,1.575866206456574478e-02,-6.899812664026898357e-02,-4.717336839879131445e-03,4.585706889629364014e-01
4.401852066733596969e-01,-2.587365692286250352e-02,-3.605353675058950436e-02,5.014751135780017022e-02,-5.256552677501027254e-02,4.524160591537174439e-03,4.878053367137908936e-01
4.679818381032504471e-01,-3.847515040793547669e-02,-2.225764305197008852e-02,1.834974167922212226e-02,-4.016621788565613582e-03,1.311529322086747718e-02,5.001227855682373047e-01
4.240759413721971183e-01,-2.049767350098004315e-02,-3.340774121536256580e-02,1.864808034045477639e-02,-2.270027576712221884e-02,1.178132230356627834e-02,4.544858634471893311e-01
2.902888051754843324e-01,-1.267870409571436596e-03,-5.653850409961802548e-03,3.262585172925744348e-02,-3.141005326316171492e-02,2.254671218026516304e-03,3.040915131568908691e-01
3.779428788637148040e-01,-3.265311474232086841e-02,-2.095792016765486709e-02,4.313554065636118068e-02,-4.078271754942151828e-02,-8.557375699560293902e-04,4.177292883396148682e-01
3.522322433596570268e-01,-1.644346010870582908e-02,-1.804996251730851820e-02,6.944461842958381259e-02,-4.582545646342213452e-02,1.379957422280095498e-02,3.973103463649749756e-01
4.152802460631719317e-01,-2.125542349233294770e-02,-3.379220222657897121e-02,-1.784155645492811054e-02,-7.316471028544706268e-02,-2.301281190185868863e-03,4.617611765861511230e-01
4.139178291858841008e-01,-2.013635491166858305e-02,-2.859190379185903852e-02,2.615989445564229077e-02,-4.520805914206246778e-02,1.110572594079600912e-02,4.479944705963134766e-01
3.649008488628986413e-01,-9.459301254974281092e-03,-2.465395102420735174e-02,5.195430981930590497e-02,-4.818235213007270729e-02,1.025813092489044967e-02,4.017993509769439697e-01
6.075697459502940045e-01,-6.234302920483619781e-02,1.460823023675020260e-02,8.204288562871731028e-02,5.511716209301555092e-02,4.731745694263726071e-02,6.627047657966613770e-01
6.150338820844211130e-01,-4.696000778479447746e-02,-1.135056667124620389e-02,1.951816213573244821e-02,8.666871729373959443e-02,4.844095352809557609e-02,6.683169603347778320e-01
5.408717350272180813e-01,-5.142675986266093124e-02,-3.187829751920723265e-03,-1.429027306895068201e-03,-8.281252461769972317e-03,3.263980037414908938e-03,5.699267387390136719e-01
7.675499447396926245e-01,-4.879387459779890857e-02,-8.100595891530393278e-03,-1.566012727788749365e-02,-1.677489690908014197e-02,5.003464419196423929e-02,8.024610877037048340e-01
8.516517601526307768e-01,-7.175473481753386062e-02,-1.452724005646366390e-02,4.193909831604257510e-02,5.883850534592942327e-03,4.672858606697366524e-02,9.027965068817138672e-01
5.560671133578878322e-01,-5.452333713760446066e-02,-2.137119628645905989e-02,6.003168225621668616e-03,2.958421620561504928e-02,2.502641560417120589e-03,5.970175862312316895e-01
7.905525482211535060e-01,-5.276361510741328642e-02,-4.223273011113010122e-02,-2.116582187312578481e-02,5.202059640068832334e-03,5.484203717354059482e-02,8.443105220794677734e-01
9.441780231057159689e-01,-6.325128996028589468e-02,-5.044760193525532621e-02,-6.313461264702033282e-02,4.349593255846277706e-02,5.390658851965084847e-02,1.014164805412292480e+00
5.114765779180598937e-01,-3.992599802848856294e-02,-5.138726346307620485e-02,-3.927854847932279667e-03,-7.032375129629790840e-03,-9.041742773666970948e-03,5.576162338256835938e-01
5.191790370676573341e-01,-4.814768138277272791e-02,-4.256817354982070367e-02,-8.451376569635780508e-06,-5.154652622864549887e-03,-8.676439518751013699e-03,5.648282170295715332e-01
5.267436557812756881e-01,-3.212872402773261915e-02,-3.120545355379256147e-04,6.538404390771426766e-03,5.564509532055300460e-03,5.139639428532109637e-03,5.439389348030090332e-01
4.860816785673663376e-01,-1.384778390898133704e-02,-2.749321632168130747e-02,-3.950801478583548104e-02,-2.395294074054131125e-02,1.703052094564490304e-02,5.140150189399719238e-01
5.001796565159697394e-01,-4.348516837755422859e-02,-4.065348042000571649e-02,-1.228105606188106824e-02,-1.209798535399541491e-02,-8.527792395671529579e-03,5.432767868041992188e-01
5.053417835275919590e-01,-3.512568487058728706e-02,-4.848353870175201030e-02,-4.132855294299623249e-03,-5.667402323103176362e-03,-5.499922666126445640e-03,5.474863648414611816e-01
3.249153125370817241e-01,-1.599027896325852516e-02,-5.798029103479392099e-02,-8.937075472500738416e-02,-1.811486986079805309e-02,2.891754980037485392e-02,3.996860384941101074e-01
4.786277369714260210e-01,-2.296862136217514561e-02,-4.268534707821000640e-02,1.114302898521632619e-02,-2.186945243373199232e-02,1.353740449975342729e-02,5.140375494956970215e-01
5.138135138172799099e-01,-3.730035931056080445e-02,-5.141927538799709319e-02,-2.556735971864949278e-03,-4.925326975065044167e-03,-7.504399552062831352e-03,5.585412383079528809e-01
5.194557048651144981e-01,-3.546566384419919116e-02,-3.828016604282794000e-02,-5.537854324347608187e-02,7.266515651877200610e-02,-8.493122427712054715e-05,5.784016847610473633e-01
4.549321034579345557e-01,-4.137639197795914270e-02,-2.033801008807037403e-02,-3.191394274362971406e-02,7.197708409583526527e-03,1.157897626822401542e-02,4.898329675197601318e-01
3.918963302162746798e-01,-2.149042697882752595e-02,-1.747462842557429008e-02,-4.402639211462409247e-02,5.335168783074138027e-02,9.535672649199335160e-03,4.288025498390197754e-01
3.923427565386654603e-01,-2.489330238309919729e-02,-3.102987557637781890e-02,-4.801782671186242968e-02,4.823805460541184809e-02,1.208408128831255568e-03,4.365618228912353516e-01
3.317597727487992532e-01,-7.978677518418839099e-03,-1.594835406686991031e-02,-8.968344542539434527e-02,2.743153891951093798e-02,-3.097172953436943404e-02,3.840024769306182861e-01
3.921766372977326109e-01,-2.186583680191410417e-02,-2.301109905739061323e-02,-4.363314716650853325e-02,5.549088709426548693e-02,7.724167905334203971e-03,4.324753582477569580e-01
4.571696483723040050e-01,-3.875193139523416819e-02,-3.322107998192644351e-02,-1.859684112862333011e-02,-2.204067092939432024e-02,-1.204619814293371796e-02,4.961412847042083740e-01
4.523811989176134141e-01,-3.613905818316956453e-02,-3.435006114497229923e-02,-1.465416587784107959e-02,-1.895113139225953688e-02,-1.300247171736169070e-02,4.899083077907562256e-01
5.446687057540668953e-01,-4.792930163088340856e-02,-4.245119027668403655e-02,5.269904162947848525e-03,1.960470211549813352e-02,-3.218725973144373649e-03,5.909513831138610840e-01
4.933993922784841724e-01,-2.992711391122110376e-02,-5.350207872753834359e-02,1.012692826794487494e-02,-2.219241007949675562e-02,3.847766750506442009e-03,5.372089147567749023e-01
5.248307691986777712e-01,-4.013255616094793532e-02,-4.225713260211735878e-02,9.190504500947337813e-03,-1.689995481416659701e-02,2.543474925889089352e-03,5.670256018638610840e-01
5.164967009486126637e-01,-3.390798143349232907e-02,-5.665875547973156512e-02,2.492676851051145882e-03,-1.646190592901094693e-02,-1.011972723435479362e-03,5.628674030303955078e-01
5.251768542074117807e-01,-3.631065396009286461e-02,-4.251387403204195947e-02,1.106961757073007466e-02,-1.474301475725593724e-02,-1.962541368042608047e-03,5.655271410942077637e-01
5.175840222143943681e-01,-3.498376463356450694e-02,-4.934889873817188688e-02,6.444040414388308227e-03,-5.603984054578866822e-03,-1.390976666681399687e-03,5.600891113281250000e-01
4.905608128327347828e-01,-4.737765620790826415e-02,-3.338016635302598623e-02,1.488558780813928686e-02,2.632717644525526830e-03,-6.387345590921117595e-04,5.317242741584777832e-01
4.592037062452881679e-01,-3.333467965658976073e-02,-3.634061543326877475e-02,3.143274731671434619e-02,3.925140942331842991e-02,-1.149673988958339367e-02,5.020619630813598633e-01
5.092427845580262957e-01,-4.319223536782570982e-02,-3.640274028869094902e-02,9.613601326953349208e-03,-2.752174735680297524e-03,8.572729969739510279e-05,5.493448972702026367e-01
4.981108606021530383e-01,-2.457615872725599226e-02,-3.344115081844090120e-02,1.229936484173799020e-02,7.571591302261964501e-04,-1.694308959197153401e-03,5.276154875755310059e-01
5.298672442019367601e-01,-3.541064530748272432e-02,-4.732375457396711949e-02,4.477160515066486851e-02,1.492412837380985291e-02,5.571858322993263274e-04,5.771462917327880859e-01
5.310368511865928287e-01,-3.867404054100667676e-02,-3.693303891666568917e-02,1.995327657934148433e-03,3.996322259298132513e-03,-1.429825320352508429e-03,5.689004063606262207e-01
5.108843664793352168e-01,-3.164040438898188534e-02,-3.862877040138582019e-02,4.522552369447577214e-02,2.095615494501713513e-02,-4.445880314348790198e-03,5.528889298439025879e-01
5.055416458194875728e-01,-3.160718439777307487e-02,-5.599030676166286136e-02,6.437553717447342576e-04,8.546942692327423553e-04,-3.940823966675468387e-03,5.497915744781494141e-01
4.936982393063001351e-01,-5.259864371201553035e-02,-2.113134875798375334e-02,1.784011402429457743e-02,7.004106590316410731e-03,-5.067293628002666854e-03,5.323711037635803223e-01
6.104613542600387799e-01,-4.451122136224591741e-02,-1.990532819328155734e-02,-9.895207745228927487e-02,-1.325764820790940046e-01,7.577015350960220053e-02,7.161046266555786133e-01
4.488418053569979138e-01,-3.375112835639151876e-02,-1.787670838826665998e-02,4.431913937902143275e-02,1.211670209742633829e-03,3.923108955661985982e-03,4.810719192028045654e-01
4.681595983419679086e-01,-4.667688131586636424e-02,-2.666071448752141415e-02,1.450998639897119885e-02,-6.934558926985729885e-03,7.090924968052466498e-03,5.060424208641052246e-01
4.615954517917772448e-01,-4.607735037502475040e-02,-2.330172740322231095e-02,1.496210614275026232e-02,6.709648615290150775e-03,3.908925923362433115e-03,4.975342452526092529e-01
5.294905363916827534e-01,-3.856053686880156484e-02,-4.874464601453712409e-02,1.156181223761528799e-02,8.806907557310056714e-03,5.013402757701380941e-03,5.738291740417480469e-01
5.366704674281403964e-01,-4.002019248653321259e-02,-4.133749029610117587e-02,1.273308748301777912e-02,7.367608765841245771e-03,-4.813520092074881525e-03,5.779725313186645508e-01
5.257114422739577186e-01,-4.483941604700641959e-02,-4.260505150497576055e-02,1.531122911215625389e-02,-1.014622645995492435e-02,5.190145278433134363e-03,5.703958272933959961e-01
5.306088890219640142e-01,-3.798473745654126765e-02,-4.135293462414793564e-02,1.376517727412432650e-03,5.442754716862568606e-03,3.865953542360461978e-04,5.703684687614440918e-01
5.392845718303185265e-01,-4.142058868928408244e-02,-4.142761721945700804e-02,5.978000582143324672e-03,1.255894129444996322e-02,-4.410383271333429174e-03,5.812583565711975098e-01
5.413235553429052160e-01,-3.824554177910635677e-02,-8.744279321205167266e-03,-7.818920800004122013e-03,-1.193696445405477945e-02,7.822988501739425518e-03,5.660981535911560059e-01
5.741697727873890100e-01,-6.267371763694570830e-02,-8.404339847820824216e-03,3.799525595167920801e-03,5.166718380485156234e-03,5.596728641236051269e-04,6.116191744804382324e-01
5.399096322410655846e-01,-4.343625663977226936e-02,-4.552564390146554563e-02,-2.406505405947053939e-03,-4.065915626808598430e-04,-1.378857022762833761e-03,5.844135284423828125e-01
5.539335856228724264e-01,-6.019931289808555519e-02,-7.138846460324060894e-03,9.170167758404497091e-03,2.007596679355326194e-02,-1.087693054984389084e-02,5.909355282783508301e-01
5.759555492212278249e-01,-5.376904573761592809e-02,-3.848542212799896389e-02,-1.289879156579062068e-02,8.697504819061094988e-03,-1.007113651701687859e-02,6.230509877204895020e-01
5.307375118807876602e-01,-4.860822713358986524e-02,3.861966059782373506e-02,-3.898978291197830273e-04,4.401879354556292173e-02,2.044083806015200688e-03,5.463891029357910156e-01
5.615920516905756887e-01,-6.875786971957534299e-02,2.239923923131548200e-02,7.686310680306297424e-03,-6.294195463538503846e-04,-1.559980855492058317e-02,5.908453464508056641e-01
6.079154688376424698e-01,-7.315170468665102566e-02,4.989098363435126582e-02,1.489673817543751833e-02,7.964267876208033781e-02,1.051358969406215177e-02,6.443740129470825195e-01
5.211449037936424222e-01,-4.266748878701487335e-02,-4.553540846027817612e-02,-5.216661806775265559e-02,-3.821787732550424588e-02,8.919023708369000492e-03,5.764495730400085449e-01
5.190884019639612212e-01,-3.016317814230667915e-02,-4.488882697043949932e-02,-1.788738397189878343e-02,-3.888308642043904889e-02,6.477416909118767843e-03,5.617861151695251465e-01
5.100957587854372255e-01,-3.672783184043670879e-02,-4.845972473003989922e-02,-2.951293840810404173e-03,-6.765792824321614947e-03,-3.366859991007645995e-03,5.529614686965942383e-01
5.469588698699134888e-01,-4.890727397998598236e-02,-4.446388075686313890e-03,3.634463122702932553e-03,-7.957717001284553629e-03,-6.179004021874032193e-03,5.752257108688354492e-01
5.214095283850033180e-01,-3.838781368518470738e-02,-4.479878066226994360e-02,1.761860138045679997e-04,1.077311067051558817e-03,-5.622001648996179449e-04,5.630342364311218262e-01
5.119631041624905787e-01,-3.557941476573525663e-02,-4.834255158266867469e-02,-7.179447586582881919e-04,-5.923882213315285680e-03,-2.302712011832753255e-03,5.541450977325439453e-01
4.951422239309241080e-01,-3.179443011148999632e-02,-5.175480478077196245e-02,-4.072997889078201761e-03,-5.755653987395933577e-03,-4.031687724916288400e-03,5.373792052268981934e-01
4.853531134050973472e-01,-2.217954476862477042e-02,-5.922770973622459856e-02,-2.260474209845503984e-03,-4.798763832655063115e-03,-2.042614040764785099e-03,5.271261930465698242e-01
5.162394893525800166e-01,-3.272237551395962285e-02,-5.417419993907118814e-02,-2.429049367762444595e-03,-1.500456078935010797e-02,-5.805529829379115977e-03,5.607047080993652344e-01
5.000993273917424542e-01,-3.050110503755276703e-02,-5.203346533051242395e-02,-4.498584860584305123e-03,-3.339676199580716986e-02,-5.866762704826364132e-03,5.449179410934448242e-01
4.890239066654001321e-01,-4.185302221189174388e-02,-4.237607805900719948e-02,-1.920529727975081244e-02,-2.186265728133876887e-02,-8.934689062398618389e-03,5.337492227554321289e-01
5.122215205041378283e-01,-3.245193466319995501e-02,-5.165497720793738035e-02,-1.687252300055502342e-03,-5.978749500921559656e-03,-3.268357610426684406e-03,5.546576976776123047e-01
5.296590288456359819e-01,-3.546102981710119728e-02,-3.791596514098555248e-02,2.163025071493228715e-03,2.069509824850705726e-03,-1.212565280527768633e-03,5.663791298866271973e-01
5.134747914699333560e-01,-4.097077211972011135e-02,-4.360581757727691188e-02,-6.188224834749851688e-03,-1.411360751629005955e-02,-9.701827848500751972e-03,5.566620826721191406e-01
5.258794248059524001e-01,-3.575862595967196911e-02,-3.716569154847970680e-02,-9.058852819268872411e-03,2.303997832774015014e-03,3.001160062622855798e-03,5.625998973846435547e-01
5.082240628343550615e-01,-4.787010477222491955e-02,-3.902758778216330882e-02,-7.513668646579613891e-03,-6.950314228286114809e-03,-4.546419052928105803e-03,5.520669817924499512e-01
4.701876333269338626e-01,-2.440962544498062603e-02,-3.671703125312306137e-02,-4.998384682112499283e-02,-7.710259106931292850e-02,8.684127362650756465e-03,5.257574915885925293e-01
3.545976975719024038e-01,-3.289660323230622629e-03,-4.295716195629448175e-02,1.033183240067502562e-01,7.210936102790585500e-02,3.938862283306530238e-02,4.428668618202209473e-01
5.244682116572839670e-01,-4.015732991208714742e-02,-5.065356614181434902e-02,-2.135473827904299082e-03,-5.085563922402375377e-03,-5.848625626986357455e-03,5.701162219047546387e-01
6.952668341952384923e-01,-1.599346239044008300e-03,-5.994258167263072368e-02,7.536553502729230469e-02,2.402461927174313894e-02,4.792696751842690644e-02,7.452155947685241699e-01
5.150664398353810292e-01,-4.292048020690897303e-02,-4.368911185055457391e-02,5.033301457726339911e-02,-4.647094388571269136e-02,-1.463204902660310931e-03,5.708451271057128906e-01
4.559586729589575893e-01,-3.534893464922181372e-02,-3.658932350211788198e-02,-9.075581371686328516e-03,-7.278958782561491259e-02,-2.389586961243454755e-04,5.080712437629699707e-01
4.943076496554261734e-01,-3.328543021049698569e-02,-4.631569458350817681e-02,-3.454021994917757382e-03,-2.694455377028677143e-02,-4.795619491903818123e-03,5.363597273826599121e-01
4.929576774316540844e-01,-2.702067876069069730e-02,-5.942160938619886479e-02,4.939522164887318219e-03,-8.637738532631463947e-03,-1.428774779806286661e-03,5.371947884559631348e-01
5.478972636369616733e-01,-2.378214860263516695e-03,-5.835198871049446234e-02,1.022466488255606432e-02,-3.409038412522625953e-03,7.684302983340464237e-03,5.807433128356933594e-01
4.605291128950221857e-01,-3.504618985384827523e-02,-3.810415397290209394e-02,-1.018193693723709776e-02,-1.181890720299478420e-02,-1.269734946498076410e-02,4.983306527137756348e-01
4.424579090949896099e-01,-2.517360890444367283e-02,-3.991038604875535301e-02,-2.527719323698878612e-02,-2.861034441815404200e-02,-1.434186652556233323e-02,4.803928732872009277e-01
5.081259041221752870e-01,-4.683746072919994785e-02,-3.262343156669059163e-02,7.979550859496918266e-03,5.804610224655435725e-03,-3.841880527772828686e-03,5.483014583587646484e-01
5.114562589770081935e-01,-5.437254984046505091e-02,-3.076143581217113954e-02,-1.060573336207500973e-02,3.670723347776920845e-03,-5.893236352763459550e-03,5.548350811004638672e-01
4.085996257849424662e-01,-3.489238339392956856e-02,-2.022839658876955660e-02,-2.803665348109998096e-02,-3.480258047831448487e-02,-1.137533331287461300e-02,4.435953795909881592e-01
4.964168135068037779e-01,-4.247124075724953429e-02,-3.382579753320932858e-02,-1.125552058431707712e-02,-1.247411940738910388e-02,-1.105192393269474431e-02,5.357512831687927246e-01
5.435674748357457453e-01,-1.976963623657992941e-02,-2.286633314631814073e-02,1.479348934260336923e-02,1.563973080005401362e-02,2.117409820384930780e-02,5.673078298568725586e-01
5.472341187873116519e-01,-2.836900095123295884e-02,-4.831596892082298811e-02,1.061406537127422556e-02,9.080729140076754941e-03,3.278049206503010331e-03,5.863581895828247070e-01
6.044923666991633970e-01,-4.451370030686047086e-02,-6.085513654331106692e-02,2.485039577188734999e-02,2.002071024760472898e-02,5.097845505333830490e-03,6.597080230712890625e-01
5.345381758174707620e-01,-4.198322764820405784e-02,-2.321917511641416465e-02,-1.010818955329347360e-02,-8.342547062343514536e-03,5.443098700722072761e-03,5.679043531417846680e-01
5.369309533087773811e-01,-2.067904803256939705e-02,-3.023427188032065671e-02,2.635261468804084815e-03,9.454707905435831908e-04,9.298140635678110721e-03,5.626999139785766602e-01
5.114921710426737489e-01,-3.709799287166173909e-02,-4.751398148163266111e-02,-7.071544132503032121e-04,-4.558381060026799741e-03,4.567949695411848083e-04,5.539298057556152344e-01
4.540286462673960299e-01,-2.526731529193751435e-02,-5.150208099496522696e-02,-1.054675385436069706e-03,-3.357167985002643823e-02,-9.428461829039554414e-04,4.963610470294952393e-01
5.254262492529262474e-01,-3.832080363814577284e-02,-4.264557115651215757e-02,-1.642604978932667766e-03,-1.447480731647901413e-02,6.996065536935712134e-04,5.664853453636169434e-01
5.210434361448196272e-01,-3.849955163356583165e-02,-3.058678742814643914e-02,2.537672262842844643e-03,-2.680210957538096267e-03,1.695405203899434752e-03,5.556734204292297363e-01
5.404226171912939192e-01,-4.984719018357020026e-02,-3.201946913431197306e-02,7.227050710356624705e-03,1.667955205156768572e-03,-6.848407994044659452e-04,5.817040205001831055e-01
4.918302371858795929e-01,-3.918452939774305643e-02,-9.539468015346441732e-03,4.240461982639776028e-03,-1.654878973620500446e-02,2.099305570927854567e-03,5.176894068717956543e-01
5.262265823420834154e-01,-2.151176683773212139e-02,-2.215476724679746323e-02,1.463116052622759431e-03,7.875850942825056737e-04,-1.116926530964791305e-03,5.480710864067077637e-01
5.016061229111614672e-01,-3.726555579080786940e-02,-4.050105272644491383e-02,-3.434858909032387827e-03,-1.580188296063296180e-02,6.104728593780792568e-04,5.412229299545288086e-01
5.501365144643131089e-01,-3.459016627187036508e-02,-1.244853844168949952e-02,1.065581122881275461e-02,3.942686416112760502e-03,1.544527372366666200e-02,5.749362707138061523e-01
5.262693403060942909e-01,-2.895064676876665799e-02,-2.650487819070265760e-02,9.683386845244334584e-04,-1.780685785543620770e-03,1.137002761227889121e-03,5.540157556533813477e-01
5.068848556404572658e-01,-3.313032292025674952e-02,-5.626413625786066963e-02,1.009574198300286193e-03,-1.070991820764910767e-03,-1.295540447663351673e-03,5.519562363624572754e-01
4.495820771964514906e-01,-3.206742882479660106e-02,-3.393080004180515363e-02,-2.365932482498500980e-02,-4.728088638432607210e-02,-6.638854260152474021e-04,4.911967813968658447e-01
5.342739619410623586e-01,-1.342924426047370501e-02,-5.494617522934203135e-03,-3.966069382364332922e-03,-4.443164059257316383e-03,2.298715406967073369e-02,5.453325510025024414e-01
6.246627379127962509e-01,-4.700605777225436155e-02,-2.138078338153076574e-03,6.446247178418926986e-04,-1.474159046018539559e-02,3.324537972726955559e-02,6.534405946731567383e-01
6.045744932952953343e-01,-2.098462812345314177e-02,-3.474195253795742122e-02,-3.781691735022549988e-02,-1.326175184462813524e-02,4.108980004705332922e-02,6.403144598007202148e-01
5.343559374904250925e-01,-6.187413858364881891e-03,-3.778751724854265137e-02,-2.227659971441497445e-03,-3.272998660391267332e-03,1.039310085887463868e-02,5.573490858078002930e-01
5.339818483439086050e-01,-4.365788256651448318e-02,-3.916409503252885060e-02,-1.688436311004276949e-02,-2.096517961638584560e-02,-9.306079723649341925e-04,5.772941112518310547e-01
5.261955357735883521e-01,-1.605543794433222926e-02,-3.098125943100130120e-02,9.904464254923473800e-04,3.222676398550060415e-03,4.892788143392012151e-03,5.499621629714965820e-01
5.333242766881803876e-01,-2.511100582365441425e-02,-3.123026851561108708e-02,1.545511331839175342e-03,1.646872922170675721e-03,5.633950582978475806e-03,5.616183280944824219e-01
5.234122740492420656e-01,-2.177341734682441965e-02,-1.844541843506991574e-02,2.841261294483300899e-03,1.790779484148246172e-03,9.009879616609515335e-03,5.437844395637512207e-01
4.764384971208568409e-01,-4.213665253492177021e-02,-3.511918119270746041e-02,4.698217074545692901e-02,8.668684209305914379e-02,-7.517798537100308688e-03,5.428311824798583984e-01
5.314016368196643469e-01,-4.693071632860387754e-02,-4.237501876827670655e-02,-4.178538197287460761e-04,3.653872687240555112e-03,1.404911654280922633e-03,5.761083960533142090e-01
5.320022063952712932e-01,-3.469285593054632910e-02,-1.751364966742827156e-02,3.121214101145609009e-03,-8.962423611569391227e-03,1.260921119689305779e-02,5.589724779129028320e-01
5.052013128955257226e-01,-3.418172917255438148e-02,-3.896977958419259314e-02,2.161569224662202807e-03,2.342884934540167760e-02,1.671304308894991809e-03,5.433311462402343750e-01
5.288198525784328918e-01,-4.091150570279691867e-02,-5.170387214871113857e-02,-2.816756401716875597e-03,1.486656609659406381e-02,5.398902787378243896e-03,5.758761763572692871e-01
5.159024814139974158e-01,-3.954785465881574535e-02,-4.918275491723958504e-02,-7.867090037485303250e-03,8.169244700783954288e-03,6.331501171359462873e-03,5.607813596725463867e-01
5.353247884743658203e-01,-3.255262715568738030e-02,-4.122029082769032571e-02,2.046708994773417233e-03,9.607796658917760297e-05,5.033973681650562131e-04,5.722721219062805176e-01
5.201415311372629136e-01,-4.479273483426099434e-02,-4.416332644821915898e-02,-1.624835755246059610e-02,3.093105098411427084e-02,5.165766967131247937e-03,5.679241418838500977e-01
5.068650114249035887e-01,-3.587050814959177880e-02,-3.603997572976580521e-02,-4.844016124208609577e-04,7.932172911965910261e-03,1.502291431398844815e-03,5.430009961128234863e-01
5.229854763497521208e-01,-2.703058799952429148e-02,-3.843879830881180570e-02,-9.542779579995046280e-03,1.533266547421557359e-02,-3.201791571276122166e-03,5.567151308059692383e-01
5.313330304284090699e-01,-2.816573560074270288e-02,-3.875338045124418485e-02,4.040784667901935537e-03,-1.883094713750668302e-04,-7.611147648818367053e-04,5.649120211601257324e-01
5.325471968451733762e-01,-3.949806301356090232e-02,-4.342743341421284597e-02,2.678835527874108210e-03,-2.444828177085325155e-03,4.509163170733515602e-04,5.740549564361572266e-01
5.228558063997527094e-01,-3.791637054001573137e-02,-5.136033676211976262e-02,-3.524861557747848134e-03,2.070096820459509449e-02,4.745691364602879804e-03,5.688370466232299805e-01
5.285541434774095881e-01,-3.720726416505881762e-02,-4.341735350428679863e-02,-6.696138111580767112e-03,1.563338297742318268e-03,2.135185723607357141e-03,5.690285563468933105e-01
5.273828738737622590e-01,-3.753501735679376505e-02,-4.466384539421783262e-02,6.173478551859968785e-03,2.738228949533389953e-03,7.202201402891064350e-04,5.686375498771667480e-01
5.165826648019883338e-01,-3.682435321964339092e-02,-5.355505092135784406e-02,-2.878509713046953095e-03,1.405248752399894385e-02,7.314396657593069326e-03,5.626507997512817383e-01
5.004461055697414507e-01,-3.936673553150918381e-02,-4.267270751517465710e-02,-6.146746094130094151e-02,7.097768115497466368e-04,-2.169209148657464498e-04,5.518422126770019531e-01
5.397217261396941579e-01,-9.494496408013475275e-05,-5.830787212914564921e-02,-2.303404037875596277e-02,2.251419786775062104e-02,-1.859094806326892996e-03,5.738795995712280273e-01
5.348992363658406912e-01,-1.582787166776553067e-02,-5.861895826752308580e-02,-4.665061131131333083e-02,1.665144281442011362e-02,-7.678326019695294949e-03,5.798578858375549316e-01
5.056156337727902850e-01,-3.281577767348461960e-02,-5.192978050989860428e-02,6.372939344439552609e-03,-3.978203763058557607e-02,-8.532838075138502246e-03,5.528593063354492188e-01
5.004479833582241577e-01,-3.209131806250301033e-02,-5.584383883903396018e-02,-5.561238737070452881e-03,-1.272088044561407900e-02,-7.277326706594497950e-03,5.454801321029663086e-01
5.429061344766870079e-01,-3.834221715000546427e-02,-2.853250164227405516e-02,-1.379356906423578021e-02,-1.584408980640992365e-02,3.974976333314207688e-03,5.775943994522094727e-01
4.385009573897263313e-01,-2.422171102384571006e-02,-3.150344733314835999e-02,-3.212999073693850738e-02,-8.862513029119296892e-02,-6.642826856687709600e-03,4.942947924137115479e-01
5.361751224707455021e-01,-4.215213525279459805e-02,-5.611964778758554706e-03,-1.067171415655424928e-02,-3.698041437445061946e-02,7.991765750660540304e-03,5.650675296783447266e-01
5.054941617443551305e-01,-3.236672674229976177e-02,-4.903084932653961614e-02,6.196106999652927980e-03,-4.202203402275232931e-03,2.003851469661203444e-04,5.465375185012817383e-01
4.776823030218299015e-01,-3.243559259036260523e-02,-4.457796831785154623e-02,-2.455950075341398198e-02,-3.456403776634814351e-02,-6.407257203762307778e-03,5.216113924980163574e-01
5.147970148984009064e-01,-3.332586517546021199e-02,-5.374804011675687887e-02,-3.988344285889030769e-03,-1.160856028025359678e-02,-6.509863953731881078e-03,5.591321587562561035e-01
5.302906868793787476e-01,-3.943216277706765305e-02,-4.051766263078837582e-02,1.516179119809878692e-03,1.193755969103756131e-03,-3.151889513017138052e-03,5.703023076057434082e-01
5.481322640375296817e-01,-4.711826126016649408e-02,-1.737883717222396540e-02,-4.307085233038478178e-02,-6.496970674547919433e-02,2.656003382287303385e-02,5.982056260108947754e-01
5.383874179365737422e-01,-4.154107826425079697e-02,-3.903223039105485626e-02,-2.709229433071949026e-03,-2.760827092346436473e-02,-1.929653128567151857e-03,5.806791186332702637e-01
5.288851984370743775e-01,-4.153942604613503065e-02,-1.257594206636541978e-02,-4.783177048978730361e-03,-8.243281594955711306e-03,1.472234480654314830e-02,5.573368668556213379e-01
4.755193762890210785e-01,-3.917203953970097019e-02,-3.456204999828221824e-02,-2.809925845336224554e-02,1.173969125235854553e-02,-5.673422599636161051e-03,5.152033567428588867e-01
4.374751757614100400e-01,-4.914084252494334282e-02,-2.180246739079756690e-02,-4.433269571291632155e-02,1.015427233691126516e-03,-4.447254038750104131e-03,4.797893762588500977e-01
4.873942564983798631e-01,-5.473078258697067211e-02,-4.738584151698527203e-02,-6.299738604087044835e-02,-1.038651340084350248e-02,-1.028955838073374561e-02,5.500171780586242676e-01
4.474720287118997275e-01,-4.448519610425177850e-02,-2.673515117003488761e-02,-2.646724007568989484e-02,-3.231036838169649983e-02,-9.923326146486112845e-03,4.890128374099731445e-01
5.535801933551318665e-01,-4.392939014493327243e-02,-3.946464664328602767e-02,7.841934718481772398e-03,-1.091723406938149496e-02,-3.255545831044824416e-03,5.957715511322021484e-01
5.586267142227266946e-01,-5.261176203038867016e-02,-4.318938328224872225e-02,-1.187908661372380579e-03,8.263508634830107891e-03,-2.196129252899390021e-03,6.067664027214050293e-01
5.357520154579968885e-01,-3.113919222305036594e-02,-2.941432312689507000e-02,-2.305742205050520782e-03,-3.504995028475610549e-04,2.893757187325142650e-03,5.660673379898071289e-01
5.371327188016647991e-01,-2.784230536138163070e-02,-1.421805270689269207e-02,-6.818208791212710014e-03,-4.011559469984560429e-03,1.284842513223306490e-02,5.588989257812500000e-01
5.877404964512057406e-01,-5.241079144116311817e-02,-3.484184084296562678e-02,-1.467924067835811933e-02,3.492842301932670007e-02,-1.500723005470353845e-02,6.354821920394897461e-01
5.271038584687031125e-01,-3.868242977324240495e-02,-5.697060922655558524e-02,1.527728920660311775e-03,3.269420293040489322e-03,1.915697136280551140e-03,5.751920342445373535e-01
5.247290825355968025e-01,-4.043531750437656669e-02,-5.377471968898131505e-02,-4.347521499550333090e-04,-4.106490592760849269e-04,3.054304776346112704e-03,5.719761848449707031e-01
6.283230450103152176e-01,3.128356033582913032e-03,-5.171210974087483980e-02,-1.740726889357952986e-02,1.008138856460429273e-03,4.180893688631283356e-02,6.590279936790466309e-01
4.731405806103366474e-01,-2.630083451045367449e-02,-3.746577858495378499e-02,1.910380921647259964e-02,1.399221308824305510e-02,-1.925985254402695374e-03,5.067898631095886230e-01
5.930183455338816634e-01,-3.192276644163538624e-02,-3.483027594271784211e-02,2.269843055466868459e-02,1.946234259197151401e-02,1.528779310185831436e-02,6.290946006774902344e-01
5.274135509014188372e-01,-2.466816605128449580e-02,-2.679836898879101037e-02,9.442768709517181808e-03,-1.579003733601814109e-03,-1.347929540177829864e-02,5.538906455039978027e-01
5.954517512632621079e-01,-4.386636698730317363e-02,-4.109450270023617957e-02,2.593485454291465792e-02,3.667724425841814313e-03,-2.241522343313247928e-02,6.407251954078674316e-01
5.303143282741600295e-01,-4.177496070875105771e-02,-3.742178816715160949e-02,5.506522987509120289e-03,3.538282017679238514e-03,-1.245730535902983788e-04,5.700379610061645508e-01
5.197342552394452753e-01,-5.109234009802815502e-02,-2.727647059717100420e-02,4.171340646163455845e-02,-9.089335834812233700e-03,-2.479719415793925352e-03,5.641824007034301758e-01
4.153411502685100953e-01,-1.318229549164648406e-02,-3.863451319343477741e-02,-1.083129694608450100e-01,-2.732535049388578816e-02,-3.335367906635170257e-04,4.823095202445983887e-01
4.059448656227191976e-01,-4.236018944127524499e-02,-1.084618823521620035e-02,-4.240860114123789354e-02,2.648251425621959889e-03,-2.178678058447399129e-03,4.396287202835083008e-01
4.124063919705590053e-01,-4.826873020996903796e-02,-1.461449421626200007e-02,-3.604713925877026104e-02,3.164153283829238168e-03,-7.088467925776659531e-03,4.493656158447265625e-01
4.139387956006537195e-01,-4.606634251724597839e-02,-1.934614915817201020e-02,-7.311695022725236970e-02,-1.432555618700339685e-02,-1.083872675019697564e-02,4.658686816692352295e-01
3.742093029617912237e-01,-1.953810152710648562e-02,-2.103952148834638269e-02,-1.881296892536100940e-02,-6.438880244487198146e-02,-5.148405295609158674e-03,4.113508462905883789e-01
4.585354505868315389e-01,-3.338594459594465547e-02,-3.279965336876058957e-02,-1.724681587550211045e-02,-3.188507384006982609e-02,-6.767610300328894858e-03,4.957603514194488525e-01
4.700851834127811046e-01,-3.654477725334831506e-02,-3.643831878709685723e-02,-2.293947787970210522e-03,-2.045800340211633133e-03,-1.191270212441633211e-02,5.070247054100036621e-01
4.612997294142128224e-01,-2.654793258945495338e-02,-4.466681162734442712e-02,-8.587375372880443058e-03,-2.782379230516351595e-02,-1.200957992572769528e-02,5.001392960548400879e-01
5.183518907440126666e-01,-5.773804120080561209e-02,-3.277308833668329813e-02,-4.024607666079675627e-02,-5.716325672761435718e-04,-1.139203259546538692e-02,5.686566233634948730e-01
5.373605654368001083e-01,-3.153645169720575847e-02,-2.653734159295398354e-02,-4.058818339507277821e-03,-4.671584547112642843e-03,3.238036823252140196e-03,5.665431618690490723e-01
4.521707703919014554e-01,-1.663418889038048576e-02,-4.674081001185953488e-02,6.076171675509292602e-03,-4.951808959705049406e-04,-3.762245930727610866e-03,4.847190976142883301e-01
4.793365271338999589e-01,-3.527699447421733803e-02,-3.037361838095561928e-02,1.430776570656054278e-02,-2.529764290338639907e-02,-2.681409011704770015e-03,5.146682262420654297e-01
5.040769217392291335e-01,-4.526596339165850358e-02,-2.534080304029245889e-02,-3.313270139480381342e-03,-2.199978597384626491e-02,2.418329364612881865e-03,5.410465002059936523e-01
4.885464149117440535e-01,-2.822635061840231274e-02,-5.613739944110637814e-02,6.525641166108794898e-05,-2.964243087276949642e-02,-4.923077809593830005e-03,5.338216423988342285e-01
5.307313544501390812e-01,-2.302847010714736964e-02,-2.028281420274974378e-02,-2.895548417159487034e-03,3.966192871574109220e-03,-3.738790563034524901e-03,5.524955391883850098e-01
4.207252204065758949e-01,-2.758553431676391554e-02,-2.660835948965278863e-02,-2.884034722024040112e-02,-6.588127962590112352e-02,6.212277977566797466e-04,4.648256599903106689e-01
5.377087610291194641e-01,2.493216747168650049e-02,-4.574532246193438456e-02,-2.712778698274166244e-03,-1.943980386051645179e-03,7.739614204133175336e-03,5.517155528068542480e-01
5.381073168287712205e-01,-2.316678292273571804e-02,-3.364732733037018031e-02,5.250594728446080287e-03,3.289834007737599812e-05,-1.379277237597965888e-02,5.671634078025817871e-01
4.454399311333502864e-01,-3.559407588441718118e-02,-3.004478054263698406e-02,-1.326551728687477838e-02,-4.598337892866734278e-02,-1.292788694117263590e-02,4.859298765659332275e-01
4.495342063695854096e-01,-2.828509627505143564e-02,-3.635893887879576569e-02,-1.597963463884320701e-02,-1.363476090236483314e-02,-1.458530358314510424e-02,4.839383065700531006e-01
4.993824920185224725e-01,-4.874594783127486619e-02,-2.979619221278775876e-02,1.712527753142552289e-02,-2.160185202337175999e-04,7.950438013636779849e-03,5.398949384689331055e-01
5.100451309727931370e-01,-4.547311182845972799e-02,-3.886547017991975883e-02,8.549210187707099659e-03,9.616238129298790033e-04,1.045624809288829560e-02,5.527418255805969238e-01
5.110493327718481638e-01,-4.549226740235853828e-02,-3.948933952747510356e-02,1.140597587922704235e-02,-3.395941705792117002e-04,4.105537411385198725e-03,5.539628863334655762e-01
5.321160186478071097e-01,-3.047807366317051292e-02,-3.036734843785940385e-02,2.388964834687394654e-03,2.331938405032210442e-03,-6.239379484173464968e-03,5.626722574234008789e-01
5.232436301204039797e-01,-4.202639612023853499e-02,-4.073644611622539990e-02,7.763577204913982939e-04,7.654927064052757411e-04,3.508590030914031550e-03,5.646620392799377441e-01
5.830619953718804149e-01,-4.665406994388088258e-02,-3.617400926197600342e-02,1.743863154605593269e-02,-1.936965599363448323e-02,-2.621178059934309301e-02,6.278150677680969238e-01
5.159638799766933515e-01,-4.379033341259633283e-02,-4.662551519076016393e-02,4.359853571844995307e-03,-9.044448447841475780e-03,8.342877483868599980e-03,5.616325139999389648e-01
5.270203491466063372e-01,-4.335502705407898172e-02,-4.651526738115860371e-02,7.761568851530359185e-03,-5.628464965334040691e-03,6.780834768330586994e-03,5.723235607147216797e-01
4.138886117194984227e-01,-2.263145544746031357e-02,-2.862374864276109876e-02,4.020175197802172695e-02,-2.585992926144734319e-02,1.474086392101105723e-02,4.480045437812805176e-01
5.429613340496198814e-01,-2.427878019596302339e-02,-1.238075473925576153e-02,1.312976824638574166e-02,-4.519728946093390029e-03,-2.244334292014922225e-02,5.632436871528625488e-01
5.609701877046324725e-01,-4.018236315052900465e-02,-4.576453755163528703e-02,4.431614114778111013e-02,-3.641564459095496253e-02,-1.735066206769397476e-02,6.128168702125549316e-01
4.663159499034160715e-01,-1.189902263624012524e-02,-4.267302323222835203e-02,-4.662862696293437054e-02,3.510209034922734655e-03,-4.754849736944956676e-03,5.009797215461730957e-01
5.330754240097971275e-01,-4.372750954746815188e-02,-3.948676626150515734e-02,-2.221165468902206591e-02,2.010187377351118840e-02,2.682961595858204557e-03,5.770506262779235840e-01
5.159712162524496826e-01,-2.336342042814071318e-02,-4.754936995363073793e-02,-2.904913392729489841e-02,3.919855650006011556e-03,-2.961274687578401617e-03,5.541796684265136719e-01
5.026903733539263008e-01,-3.883002531736659546e-02,-3.738483880077872468e-02,-6.677689191347171982e-02,8.034906122403515788e-03,-2.456956169834700714e-03,5.532206296920776367e-01
5.268209096128229074e-01,-3.900544288157045680e-02,-4.308916777549104404e-02,3.067225787127297182e-03,1.035240942556899706e-03,1.495206519277951377e-03,5.679128170013427734e-01
2.822858556028465804e-01,-2.791188827860707766e-02,3.042249027205919110e-02,1.046463611156636837e-02,-9.785821957850675268e-02,9.177592339646094277e-03,3.329268097877502441e-01
2.753304468461602039e-01,-3.814805658869960259e-02,-8.214830365740333207e-03,-1.897798348909360625e-02,-6.545539246112526410e-02,3.673063895332765588e-02,3.282719552516937256e-01
2.328495487039200507e-01,-9.315767302738420241e-03,3.706487501914101923e-03,-2.297366533862377908e-02,-7.877581784176491964e-02,1.492945804893681082e-02,2.766387462615966797e-01
4.120872269040806168e-01,-4.180054877378477918e-03,-3.759113791097036528e-02,-4.232086931744136193e-03,-3.273161508367269240e-02,-2.692417969976397714e-03,4.377125203609466553e-01
3.415996426783214357e-01,6.169161270778988904e-05,-1.477566733412219446e-02,-9.565552734946478194e-04,-3.698750503868767671e-03,3.942968804660846455e-03,3.493225872516632080e-01
2.359727579274040754e-01,-2.150681078454313999e-02,1.508917496476437636e-02,-4.753973552103844813e-02,-1.240451894628303020e-01,6.722016344129226237e-05,3.333976566791534424e-01
3.370406246521175375e-01,-5.055890332714141344e-05,-2.698147413223964119e-02,-9.963311560186738011e-03,-6.948290939983668701e-02,-6.860745452123851069e-03,3.719631135463714600e-01
4.967422453486755596e-01,-5.456023394324674425e-02,-2.762340814505806486e-02,-8.427716974927333335e-03,-1.042846462041084696e-03,-5.606591953420364538e-03,5.386281609535217285e-01
4.570367637138043060e-01,-4.515281800851222993e-02,-2.480761254037111563e-02,-2.099132785689358446e-02,-1.594981931301689068e-03,-1.009556734392287776e-02,4.939903318881988525e-01
5.221751892597318312e-01,-3.960954288460682982e-02,-4.958125802380616842e-02,-2.275081918568860710e-03,8.114672933621527168e-03,6.218736941850473363e-03,5.671265721321105957e-01
5.137808359095408228e-01,-4.932690910474224477e-02,-3.767642457041459059e-02,-1.146284143966896409e-02,-2.704015028198075536e-03,-1.118552424567404585e-02,5.580833554267883301e-01
5.073520924528045484e-01,-4.751643312228784333e-02,-3.647137628115396102e-02,-3.172682294898563488e-03,-2.112553353687402369e-03,-4.586094120098708517e-03,5.495263338088989258e-01
5.105018511694059402e-01,-5.505206868573586654e-02,-3.806176132300420623e-02,-5.258085373671659603e-03,-4.510613468820012448e-03,-8.378652456504154244e-03,5.575711131095886230e-01
4.899612801098379711e-01,-4.088662575244811359e-02,-2.242363286310272708e-02,-3.637894653421938629e-02,-1.931035936828603625e-02,8.227001002236170729e-03,5.269073247909545898e-01
4.998207924626102416e-01,-3.968028125317352162e-02,-4.186559090352268142e-02,1.934115054895664890e-02,4.099006031989999022e-02,1.174508495634331642e-03,5.462710857391357422e-01
5.690599497337739399e-01,2.998494929955519694e-03,-4.976073057315208437e-02,1.228244501259947649e-02,3.642207004129597442e-03,1.901854060468279733e-02,5.955262780189514160e-01
6.513799714072113778e-01,-5.831319876312748840e-02,1.371519756964090231e-03,2.596626539932180705e-02,6.350088577627926653e-03,4.551011684678169661e-02,6.879142522811889648e-01
6.965807225941809122e-01,-5.628026009461645218e-02,8.824283334442850624e-03,3.370003857100165034e-03,-1.031191392842173982e-01,6.206366472897489883e-02,7.520066499710083008e-01
5.416390995667111907e-01,-3.840960661466299997e-02,-1.106867849318785013e-02,5.322473597393250627e-03,-5.124360670869137699e-03,-2.290336775943323938e-03,5.670312643051147461e-01
8.876374494925509673e-01,-9.878831579944080676e-02,-8.806694289211935978e-03,1.055232517246578426e-02,5.741235525213238267e-03,5.011054688976627342e-02,9.488616585731506348e-01
5.810242449109854768e-01,-3.981380451672733578e-02,1.467751760603058786e-02,2.925633809939283750e-02,-8.863191220042827140e-03,5.919870324324234129e-02,6.065441966056823730e-01
6.133207992498346250e-01,-6.891810198807946097e-02,1.957188196190959295e-02,3.829985981458734062e-02,1.282957696331862157e-02,4.806019620335011400e-02,6.517153382301330566e-01
8.559109299183232933e-01,-6.063228894922195744e-02,-2.649214351869300099e-02,-3.416363645464638721e-02,3.865147118510778648e-03,5.757816238170864603e-02,9.074239134788513184e-01
4.835212724235060655e-01,-5.671978382656922557e-02,-2.286801702457585961e-02,-1.398586707386480221e-02,5.081134881607950876e-03,-1.561352312261193962e-04,5.247690677642822266e-01
5.041036577173434452e-01,-3.683117066682692342e-02,-4.532473555073376903e-02,-4.512434388021686893e-03,-2.307776175600950025e-02,-5.341505380564813034e-03,5.468286275863647461e-01
5.700781926573046388e-01,-1.905452039340801984e-02,-5.775653683858386622e-02,-4.092253217315477976e-02,6.786614062828695212e-03,1.239194062548688163e-02,6.140021681785583496e-01
5.300561690585007257e-01,-3.135767149546031529e-02,-2.308514225679900167e-02,-3.108578226664233685e-03,-3.331557600996113626e-04,1.560833236436076632e-02,5.580052137374877930e-01
5.270878254038291466e-01,-4.371919748904659619e-02,-3.739764320317359725e-02,-1.721943139689043403e-02,1.680113569889700974e-04,-1.943895636195188932e-03,5.684656500816345215e-01
5.342788941139751113e-01,-2.416960226784900523e-02,-4.222561762026386112e-02,-9.848700220984689044e-03,-7.236732394387738673e-03,5.461274829708804603e-03,5.681651830673217773e-01
6.126683453959067549e-01,-5.179277850398669725e-02,-2.166725495104412924e-02,-1.197646199463816945e-02,-2.656564615073939151e-02,3.051766030063685770e-02,6.540186405181884766e-01
5.323966073123821419e-01,-2.827839658299358128e-02,-3.503737289502761865e-02,-2.316503159392419974e-03,2.839150520844520645e-03,-4.950603622395294626e-03,5.641857385635375977e-01
5.320638257106088398e-01,-3.385452384772957846e-02,-3.220760257957086536e-02,2.872164391358901416e-03,6.024141472023023317e-03,-6.652772195510823182e-03,5.653323531150817871e-01
5.217676982512791106e-01,-3.868262376931827506e-02,-4.645479124519119596e-02,2.513755701824734509e-03,1.818115430452466562e-03,4.482124165320003004e-03,5.644555091857910156e-01
5.691157383764328115e-01,-4.379480070882862952e-02,-3.117186754283943206e-02,-2.396434708490270335e-02,3.822566567307778690e-02,-1.057898772138603574e-02,6.119837760925292969e-01
4.619993805128090880e-01,-2.570353965684879505e-02,-2.395134296018497366e-02,-3.859691974013983867e-02,2.959045630690848236e-02,-3.894777513675978797e-03,4.941094219684600830e-01
5.401347635295404848e-01,-4.110273405362990795e-02,-4.943518599497337407e-02,1.309192635587999804e-03,-1.983345569832994232e-04,-1.649083734319806756e-03,5.854596495628356934e-01
5.360753596848071290e-01,-2.108757221494764189e-02,-4.273169759801612178e-02,-6.882629585141948267e-03,3.792954430750998963e-03,-1.193120700946331565e-03,5.684609413146972656e-01
5.306729418596645154e-01,-2.902017424387678957e-02,-4.246167583660606648e-02,-1.799044778135815148e-02,2.773539782928189507e-03,-2.785683722095681162e-03,5.674306154251098633e-01
5.275106407524128294e-01,-3.781042224404360108e-02,-4.522662292913418036e-02,4.376480241863735937e-03,2.143489271454864301e-02,1.965336382284415314e-03,5.703357458114624023e-01
5.160962866024962903e-01,-4.221390058933702227e-02,-2.801298794995729646e-02,3.301028838158445548e-03,3.450126107127246544e-02,-8.713144001071166517e-03,5.548106431961059570e-01
3.365068198986291281e-01,-2.045833862434683070e-02,-5.239506264117510526e-04,-6.272925290242431506e-02,5.913252485720109017e-03,-4.043381515581255504e-04,3.641646504402160645e-01
4.943842083839818380e-01,-3.124669209170855000e-02,-4.917497864852130030e-02,-3.921814518258284407e-03,1.331071473165498786e-02,1.202551020829294290e-03,5.353643298149108887e-01
4.151527126462229988e-01,-3.202176192077303696e-02,-2.989178904573237816e-02,3.556062388499913688e-03,6.768448630526051335e-02,3.804735393636195749e-03,4.613480269908905029e-01
5.347496479593186747e-01,-4.328032936583969814e-02,-4.443627815133921466e-02,7.426415287072854650e-04,2.494943865269423980e-02,-1.208504322048207331e-03,5.802254676818847656e-01
5.359901435104148515e-01,-2.824527588504738285e-02,-1.675622567871939972e-02,-3.571961118756272410e-03,-2.499908030568465198e-03,1.118353051189271627e-02,5.589662790298461914e-01
5.444384411936789014e-01,2.136534782605836735e-03,-4.286162231110454690e-02,-4.909430503408222443e-03,-6.733565108977290249e-03,1.519998984757192639e-02,5.669393539428710938e-01
5.442805929140469567e-01,9.591218378456362048e-03,-5.157585771242903516e-02,-3.244214679119528880e-03,-2.928187140346689196e-03,1.941058244187067808e-02,5.687944293022155762e-01
5.481278291308109285e-01,1.073356809111689070e-02,-4.179400397192148398e-02,-4.772987686353802154e-03,-3.270390954771485153e-03,2.412133844502603597e-02,5.671205520629882812e-01
5.983583577690327893e-01,1.771800063392431346e-02,-4.503625183306467217e-02,-2.729702405013682484e-02,1.669831284396896967e-03,4.031398653183729253e-02,6.201922297477722168e-01
6.345459147317860094e-01,-4.090663975302721855e-02,-2.271022820650714369e-02,-1.081177466702650317e-02,-1.018797640296497005e-02,3.706059854802093434e-02,6.701186299324035645e-01
6.117234835468614573e-01,-3.639491658642671212e-02,-1.097093338483773328e-02,-1.055165514713242783e-03,5.921626392522963932e-03,4.258164985928747370e-02,6.401360630989074707e-01
5.562251882042419382e-01,-2.064276142248605561e-03,-2.596198183049600039e-02,9.941396256529115572e-03,-5.000299681851308638e-03,1.570978890975566894e-02,5.715872049331665039e-01
4.784884676628862743e-01,-5.407450988000475633e-02,-1.650838725933304052e-02,-1.233484743190614921e-02,-7.825182556817151169e-04,-7.009114839134191269e-03,5.153968334197998047e-01
3.934847220809533641e-01,-3.574678516115174787e-02,-8.623259784240458470e-03,-2.688443034017329314e-02,2.936876128204749057e-03,4.385569206404324807e-04,4.189604520797729492e-01
4.495117816213182738e-01,-5.460357058214949932e-02,-2.083756878720015304e-02,-1.683203626120836904e-02,1.202613097344935227e-03,-2.542168386160471253e-03,4.890032112598419189e-01
4.480019646095023678e-01,-5.145753654882218031e-02,-1.468636680639026637e-02,-1.227577233927373487e-02,-3.428351639183227235e-03,-7.086927776498614349e-03,4.827879667282104492e-01
5.092938559036630508e-01,7.452974511206189590e-04,-2.707899175607308973e-02,-5.901789660185260272e-02,-3.278767498183961238e-02,4.339928204364228159e-02,5.411753654479980469e-01
4.780579913504772183e-01,-5.302727603994114580e-02,-1.615016705414859532e-02,-1.765735571174393767e-02,2.480795473751146868e-03,4.802579780101603503e-03,5.146353840827941895e-01
3.862781824345150605e-01,-3.562454551270956282e-02,-8.160875496231678738e-03,-2.343124623804144352e-02,3.518324440588407528e-03,2.331852244108232957e-04,4.109179079532623291e-01
4.243482210445302938e-01,-3.925159497065622283e-02,-3.928924314671353168e-02,-1.166302661978410177e-01,-1.806525267293972560e-03,-2.395579598880859511e-03,5.057440996170043945e-01
5.132205358618359137e-01,-4.456462519985088244e-02,-4.478931555964765776e-02,3.780111218971931686e-04,3.142532332991226571e-03,9.316747578001714422e-03,5.581578016281127930e-01
5.096858495955630675e-01,-4.839887522037908396e-02,-4.409276049808555364e-02,-3.956163675580479967e-03,1.559627943388261235e-03,8.111806074533774169e-03,5.561704635620117188e-01
5.095556423698305304e-01,-4.691309564632475948e-02,-4.045422375091073386e-02,-5.310960790985181854e-03,3.990281325680763644e-03,3.530765605774370281e-03,5.534210205078125000e-01
4.814302849171185894e-01,-3.317523432024979679e-02,-2.899566109022791438e-02,-1.870657897523647986e-02,4.734407323495994774e-02,-5.181014053145611455e-03,5.201348066329956055e-01
5.029911903692059205e-01,-3.128072740150966702e-02,-5.407749310878429139e-02,-1.846142668606093719e-03,7.077081185983715231e-03,5.934160416078837139e-03,5.462709665298461914e-01
4.853244693027152223e-01,-3.602884939597436609e-02,-4.013778385569941043e-02,-3.373119407753559507e-02,4.533081909432846307e-02,-3.053497776238898748e-05,5.324907302856445312e-01
4.959739533336113282e-01,-3.425746693243772456e-02,-3.815786697351017387e-02,4.932964950837216873e-03,-1.144313259016057141e-02,-2.800745581358381024e-03,5.326519012451171875e-01
5.494403526691206130e-01,-2.844963934658273352e-02,-2.074976430346622824e-02,5.154977566121027484e-03,1.164257197321845200e-03,-1.561093276179508285e-02,5.747880935668945312e-01
5.285487870009332179e-01,-3.733773517483293669e-02,-4.224199481341253670e-02,-5.258456923495474430e-03,4.717401032509519788e-03,1.102883806296520684e-03,5.684894323348999023e-01
5.379202986854222379e-01,-3.929936433674841023e-02,-3.687680006838009450e-02,1.255470774915144055e-02,-6.055139785509883882e-03,-1.038758114353134253e-03,5.765207409858703613e-01
3.652548352856014313e-01,-1.396685598647734450e-02,-3.451962968935365361e-02,4.112866821905358100e-02,-7.178046339694307831e-02,5.594010398191350507e-03,4.155134856700897217e-01
5.014576274402771094e-01,-3.668183942189018332e-02,-5.482185616547738394e-02,2.743221815805817893e-02,-5.768100665789870074e-02,-2.538804220750381924e-03,5.585187673568725586e-01
5.072774131574866452e-01,-4.162394575450548140e-02,-4.789742941244715113e-02,3.739804781751304014e-02,-5.045994475962305159e-02,8.575304770039520602e-03,5.628771185874938965e-01
4.628548959206570945e-01,-4.625070757681015721e-02,-2.266768915791619876e-02,1.490149651346409261e-02,-7.420575910478186335e-03,7.810926954033978707e-03,4.987512528896331787e-01
5.442383746812311518e-01,-5.445695941959755038e-02,-1.201906207384109693e-02,3.605236521584386303e-03,1.550384038106082663e-02,9.383361272712015949e-03,5.795290470123291016e-01
5.156935940594342682e-01,-5.178889284220852818e-02,-3.651512783244484361e-02,1.145005025234401355e-02,6.176835818072972523e-03,-9.058444178168782376e-03,5.606746077537536621e-01
5.425038598946727575e-01,-4.279602879689570205e-02,-4.122688663488513483e-02,-3.202579658992979212e-03,-5.893214437817059434e-03,-3.354990598836300394e-03,5.846611857414245605e-01
3.071181781083094364e-01,1.041727928309316153e-02,-3.828914500418309497e-02,1.027388916588967971e-01,1.967565749061323671e-02,1.595778675917371853e-02,3.720835447311401367e-01
5.821477662849070533e-01,-7.955797892252453041e-03,-5.547276547727331142e-02,1.158698170361984747e-01,8.119641177710791580e-02,1.910560125078150998e-02,6.630769968032836914e-01
5.298857540855566040e-01,-3.964339013493681230e-02,-4.243321012327155861e-02,-1.543901775423213137e-03,-1.986995616511480836e-03,-2.227372329455567894e-03,5.709588527679443359e-01
5.012550493967369292e-01,-3.452823551554656811e-02,-3.795185306246057211e-02,1.473931702463764266e-02,1.536649629786506757e-03,-4.254587121629745984e-03,5.381662249565124512e-01
4.903497978507977972e-01,3.235602141324245284e-02,-2.274478900119422664e-02,5.241446495405963080e-02,4.302700302692595569e-02,4.814290353429080682e-02,5.087034702301025391e-01
4.832111356034023975e-01,-5.450310456581125562e-02,-4.066595110823525983e-02,8.651614109145844278e-02,6.554021898138495672e-02,1.576637207220750361e-04,5.632312297821044922e-01
5.281795916793000645e-01,-3.958376417546186077e-02,-4.063871904925181466e-02,-2.881928733690957128e-03,1.082068873937814093e-03,-1.764707057471144938e-03,5.683248043060302734e-01
5.352420335479655122e-01,-3.064996064743602533e-02,-3.043260446229220650e-02,-2.048595523782296458e-03,-7.972133540245303525e-05,2.920933541857366391e-03,5.658171176910400391e-01
5.444174714398983816e-01,-4.333037315155238711e-02,-4.011585066102041353e-02,9.682166044085767018e-03,1.107668354199850026e-02,-2.912838951759456028e-03,5.867224931716918945e-01
5.332649716875373924e-01,-4.613897514475714945e-02,-4.564552206705094206e-02,-5.174134432776628274e-04,-2.607875923724537349e-03,-7.724504269788323718e-03,5.793302059173583984e-01
5.290827414380190330e-01,-4.061571146238945884e-02,-3.922015751217752810e-02,-6.304796761450823933e-04,-2.757246297001584873e-03,-2.140795113711786973e-03,5.690351128578186035e-01
5.385900329135314690e-01,-4.221240577830434604e-02,-4.044659205518666423e-02,-1.288913270162424371e-04,-5.838878913927415988e-03,-2.647559048327721449e-03,5.800278782844543457e-01
4.298139749761945017e-01,-3.476564992483904826e-02,-3.757708682443541837e-02,-3.776864861092234932e-02,-7.302054714851406725e-02,-4.147600517102521811e-03,4.873143732547760010e-01
4.931312634527247329e-01,-5.227032715790053130e-02,-2.951877302016250870e-02,-5.034218409800505188e-03,2.924890601596441368e-03,-6.018885463288966078e-03,5.345859527587890625e-01
5.311974506162602250e-01,-4.334571954224980539e-02,-3.800519894035087054e-02,-1.341954550061796002e-02,-2.716907100768721842e-02,1.713352426448298133e-02,5.750612020492553711e-01
5.224056754017571969e-01,-3.870329726688312433e-02,-4.683663215746095010e-02,-1.128997566958592994e-03,-8.893181507086921067e-03,-5.599804356373499180e-03,5.655159354209899902e-01
4.977867006776749426e-01,-5.266247705914162136e-02,-3.272360029768234257e-02,-1.126782996666195885e-02,-9.427839947133666992e-03,-6.089681429473277688e-03,5.414566397666931152e-01
4.953094162431909697e-01,-4.029306431718154835e-02,-3.450361199107324084e-02,-1.069208967137521421e-02,4.290430606965310069e-03,-3.591499608363376336e-03,5.331412553787231445e-01
5.002232191835347397e-01,-4.925870322772077370e-02,-3.579223590241012443e-02,-2.887782636695578400e-02,-9.957307232010572523e-03,-8.939777106058153025e-03,5.456658005714416504e-01
4.617322887952962640e-01,-4.259117939876652659e-02,-3.083111241196978547e-02,-2.535002612053231102e-02,-5.403865934429325640e-02,-5.569393211410415823e-03,5.092455744743347168e-01
5.074401698261743476e-01,-4.800926591928619813e-02,-3.106795638115333880e-02,-2.334398022576078709e-03,-7.765374143575601946e-04,-2.258092272317953949e-03,5.472061038017272949e-01
4.176591777376966741e-01,-4.476097530255009060e-02,-1.151098453318959158e-02,-3.173648457324650118e-02,-5.249284887901472726e-03,-1.550179300351451879e-03,4.501932859420776367e-01
4.785362094313677650e-01,-5.579302712034817091e-02,-2.184558944845857442e-02,-1.607374314526384754e-02,-2.662696446839538014e-03,-7.078734065122076072e-04,5.189594626426696777e-01
4.846034898890656528e-01,-5.352117872664541309e-02,-2.303302745505148019e-02,-2.821562052533052936e-02,6.767562798097620947e-04,-4.675971740501918585e-03,5.258864760398864746e-01
4.473712566579951533e-01,-4.575147106956883869e-02,-2.527083389686426984e-02,-2.997938022821294499e-02,1.056380029378871030e-02,4.314198525056284900e-03,4.863917231559753418e-01
5.060111099496564790e-01,-3.803859907414269825e-02,-4.868983568991477884e-02,-6.379672481873484291e-02,5.844689999313053448e-03,1.246532222309900155e-03,5.605493187904357910e-01
4.406227609049006011e-01,-4.165024280278314950e-02,-2.336590563830151512e-02,-5.846024009841725710e-02,-3.117601085494828630e-02,-8.413066274199011013e-03,4.873238205909729004e-01
5.029988042253883407e-01,-4.044843622190444354e-02,-3.552171793054481608e-02,-3.652222378799076935e-02,-3.685567417462532695e-03,-2.876374842857249824e-03,5.447466969490051270e-01
5.074665534641740194e-01,-1.518221002867839453e-02,-4.508653743056839636e-02,-2.518488509794351848e-02,8.324528290323599672e-03,4.029049543470733519e-03,5.402266979217529297e-01
5.316478548646235147e-01,-3.925563876366036653e-02,-4.495061514051679197e-02,1.756479227441592279e-03,2.499215468868544411e-04,2.206206890344722046e-04,5.737805366516113281e-01
5.022233617774034542e-01,-2.921091266953321219e-02,-6.120803900213719895e-02,8.491376009581928821e-06,-1.463929626076586939e-03,7.506197131633865851e-05,5.481395721435546875e-01
5.253681292471832354e-01,-3.988923645005448826e-02,-4.706337074459956971e-02,2.805410761995538651e-03,-4.971068550531167023e-03,3.702913348052424506e-03,5.690004229545593262e-01
5.288047141400945561e-01,-5.088950620638621469e-02,-4.128498947523007168e-02,2.049143156211932076e-03,-2.937367909921010257e-03,1.029697574005157415e-03,5.749883651733398438e-01
5.340615972305073900e-01,-4.809929540656296409e-02,-3.877564758806090195e-02,3.825851251353245414e-03,9.570650974599076563e-04,-6.994630746420106224e-03,5.777229666709899902e-01
5.090153478849629431e-01,-4.360814416058511611e-02,-3.706475157527924780e-02,-2.381061867355510945e-04,-9.382709238653432230e-04,-6.470656261965674824e-03,5.494979023933410645e-01
4.770833980186477419e-01,-4.764466965485350536e-02,-3.259525431787502203e-02,-1.056580949604656733e-02,1.713897395932043695e-03,9.255593119733470861e-03,5.179477930068969727e-01
5.030197072562891947e-01,-6.051647805209836584e-02,-2.856858798692549217e-02,-2.856033121032732890e-03,2.189504230620549670e-03,4.368916195157851229e-05,5.482962131500244141e-01
4.645757628778934833e-01,-3.420378782665384199e-02,-2.012849068036942635e-02,-2.617213980818267755e-02,-2.636275580314998215e-02,1.379257601927101444e-02,4.966581463813781738e-01
5.238768183557078739e-01,-2.868973037645219937e-02,-4.148793478348164476e-02,1.384374681405168249e-03,3.145815228265190326e-03,2.504785957341354669e-04,5.591073632240295410e-01
5.074216228452936850e-01,-2.980534791338398937e-02,-5.976179132112510728e-02,-9.418398049891031328e-04,-1.620156139944522317e-03,-1.826564666119202254e-03,5.528328418731689453e-01
4.951724195883148161e-01,-2.891854143602001770e-02,-5.676480927237037566e-02,-4.238457253937768544e-03,-5.667421853367696563e-03,-5.308659960547623506e-03,5.387722253799438477e-01
5.145437970799928706e-01,-3.645093553894437899e-02,-5.621166245435069153e-02,-1.251918105197581416e-03,-1.324473053086029986e-03,-2.048476147419744844e-03,5.611562132835388184e-01
5.080642012287900355e-01,-3.376212410570239575e-02,-5.735174930275890870e-02,-4.049371635917921471e-04,-9.591115912734409204e-04,-1.026363830509101132e-03,5.540037155151367188e-01
5.047475888843571123e-01,-6.071154478551490929e-02,-3.038216747523853067e-02,-7.208540326755638432e-03,-2.344132786475809031e-03,-3.000428014803737959e-03,5.511018633842468262e-01
5.078362071060372740e-01,-5.989587893554451647e-02,-2.989828657929655131e-02,-2.459182788084277385e-03,-1.743725106531508664e-03,-2.333563992386415101e-03,5.533828735351562500e-01
5.031665589966966001e-01,-6.245376166711555377e-02,-2.615684285190442160e-02,-2.121438000645239300e-03,4.553724880824556944e-04,-1.125262509129567635e-03,5.483898520469665527e-01
4.912560197348314617e-01,-6.015519066693519878e-02,-2.488316163026335626e-02,-7.916465846145104637e-03,-9.009408152900813538e-05,-2.708433765536797256e-03,5.348449349403381348e-01
5.141522388260955090e-01,-3.425249364921309492e-02,-5.759988528886839099e-02,1.742827192113156074e-03,-1.484004665023962687e-03,2.435413541884679043e-03,5.604732036590576172e-01
5.120020576617331232e-01,-3.216452175689543669e-02,-5.743862881919578611e-02,1.099509667579702272e-03,2.179767342079589850e-04,6.894741373666626741e-04,5.572383403778076172e-01
5.128534209152508794e-01,-3.049091355140182147e-02,-5.818139688465326365e-02,1.250447081945355249e-03,-6.608631917465448459e-03,3.580553038160297179e-03,5.578615069389343262e-01
5.118009474478972809e-01,-3.070917998354966150e-02,-6.150917166476160824e-02,1.963198120732624619e-03,-1.570207151502247492e-03,1.552780565806620655e-03,5.585708618164062500e-01
5.433270027372457678e-01,-4.186903973367683829e-02,1.176922305655916934e-02,1.805667011000036118e-03,4.187754556658899226e-04,-1.162135012463294884e-02,5.606763958930969238e-01
5.508304221126026912e-01,-5.145996839706615256e-02,9.224398658799648487e-03,3.963420631906158960e-03,-3.520961551057310863e-04,-7.454220566722934323e-03,5.745440721511840820e-01
5.642339957062042499e-01,-6.031816875135553868e-02,3.803035654275910282e-02,1.859741593332747776e-03,-1.247231275771319876e-02,-6.646908250753114436e-03,5.821714997291564941e-01
5.423580993252405946e-01,-4.324139594185330560e-02,2.612741860023060081e-02,2.019331211685407290e-04,-1.672053963437800106e-02,-1.867920690871889555e-02,5.558795332908630371e-01
6.098260788285454481e-01,-6.115296097516478846e-02,-6.419222933127771702e-03,3.423228401691560605e-03,-1.770846330521098086e-03,-2.582698889141628318e-02,6.469382643699645996e-01
4.965495025607293833e-01,-5.557241970877108139e-02,-2.786207589449979372e-02,-7.049371678820164598e-03,-9.402867316057538730e-04,-6.114882074536939424e-03,5.390462875366210938e-01
4.988839584652131620e-01,-6.051276192535087750e-02,-2.648082001841733923e-02,1.388961381750726000e-04,4.860417445609060841e-04,-2.162283768267148770e-03,5.431945323944091797e-01
4.985728089592438295e-01,-2.756154635131038977e-02,-6.056260735489546465e-02,1.437486126392317591e-03,-1.865583522181645665e-03,-2.408267588469893705e-04,5.434024333953857422e-01
4.993244706598372051e-01,-6.288542372844754813e-02,-2.730568099033017782e-02,5.012089160373709058e-04,3.619143137741386343e-04,-6.012348731242046340e-04,5.452933311462402344e-01
5.183923504684726513e-01,-1.635140387228334324e-02,-5.863857251602655474e-03,-6.927630407729656881e-02,-6.044644434683631162e-02,4.700678484372696614e-02,5.589638352394104004e-01
5.930325094963273536e-01,-1.522199788328376657e-02,-2.827849278068983452e-02,-2.342531790129413066e-02,-1.275045088808390327e-02,4.319118469678846772e-02,6.211409568786621094e-01
5.464010297109058722e-01,-3.818215660652291010e-02,5.852246447508036020e-04,3.374353527064146742e-03,1.235344915570796460e-03,1.824056204090953107e-02,5.671107172966003418e-01
5.812951833167225857e-01,9.049427928370379348e-06,2.339910968482294962e-03,-8.489392712822618758e-03,-3.557944564312434405e-03,5.459798425916329717e-02,5.879975557327270508e-01
5.474120920174433413e-01,-5.170972053991229611e-02,2.041675464588416089e-02,-8.971052022277360705e-03,-8.629200824344618673e-03,2.763851407787353345e-02,5.689403414726257324e-01
5.590565245796791372e-01,-4.781393200829553436e-02,4.968269926741070153e-03,-4.610825735119380986e-03,-1.705649514955111376e-03,2.464526530962288589e-02,5.839010477066040039e-01
5.115229682076140039e-01,-3.622476750307973559e-02,-3.701366266871553012e-02,1.057813676643830358e-02,-2.502858258153993140e-02,2.222767617413984580e-03,5.501728057861328125e-01
3.830884274794695843e-01,-9.625266761465328669e-03,9.680793182406610686e-03,7.376024968119826442e-02,-9.919151156759328791e-02,-2.736644958285021703e-02,4.417016804218292236e-01
2.446401662137279998e-01,-2.883101111959576746e-02,-1.649558918793467277e-03,5.307793280763634103e-02,-7.764412302363056517e-02,1.541642501592631158e-02,3.087759613990783691e-01
2.410300451739391114e-01,2.956009014829091841e-03,1.669786876366391448e-02,3.881773409671374075e-02,-5.907549879133310033e-02,-1.498793190108249108e-02,2.631741166114807129e-01
4.994527658849280405e-01,-2.815243891117247266e-02,-3.996308676013216044e-02,-2.926364836622198304e-02,-9.139762185927394200e-03,3.755212109773121108e-03,5.362836122512817383e-01
2.659872293755166650e-01,-2.393729988811160725e-02,3.260775002490959307e-03,1.005507202509603876e-01,-4.194057751895256814e-02,-3.861184683711505611e-02,3.420403301715850830e-01
3.660665899381557176e-01,-4.371496108747777165e-02,-3.238021604130097986e-02,3.816301341554998589e-02,-3.524742187491177597e-02,-1.758441285154625300e-03,4.141380190849304199e-01
5.062811693909960997e-01,-3.156139488387108005e-02,-6.132747585806819224e-02,-2.945080590639142723e-03,-6.101801837414402158e-03,-3.096569462773271064e-03,5.534768104553222656e-01
4.906590959927407125e-01,-2.533684753777140641e-02,-6.023849792726931884e-02,-8.117381624003091830e-05,-5.779466631567932097e-03,-2.852278915484530823e-03,5.344190001487731934e-01
5.284687278548183542e-01,-4.640215276866621608e-02,-5.287899096676643151e-02,-2.397188368040045455e-04,-1.252106211684738649e-04,3.553334976706311755e-03,5.781694650650024414e-01
5.261625356239049145e-01,-2.543968265132653950e-02,-3.489563352587768397e-02,-1.516010017911968927e-03,5.731178130027304130e-05,2.179538322494043150e-03,5.564094781875610352e-01
5.086752178290788740e-01,-3.033658321606599872e-02,-6.149095734488649323e-02,-8.860692981174648130e-04,-6.169032185672846530e-03,-3.180379453034136352e-03,5.553771257400512695e-01
5.397467602782272111e-01,2.470156207681650784e-03,-5.318198838137011553e-02,-7.038376805485025735e-03,2.279013849528633672e-04,-8.439926740076133995e-04,5.672872662544250488e-01
5.503021586837508750e-01,2.343210768572792646e-02,-6.448872602906804974e-02,-5.234859166136867194e-04,4.870421772346438319e-03,-9.616670985865287315e-04,5.759511590003967285e-01
5.578482690673144395e-01,-2.529271119484524655e-02,-6.028457830213909685e-02,3.075847696089746564e-02,-2.810516870530202927e-03,2.002371720968015942e-03,6.037855744361877441e-01
5.391072241358838557e-01,-3.288046924443269181e-02,-4.978410483888925930e-02,4.075499581896714629e-03,4.363852098149899328e-03,6.966602473858394488e-04,5.807174444198608398e-01
5.390981857150667356e-01,2.095199771081127094e-02,-5.225498241439363589e-02,2.102129432718700952e-02,4.945717366199378628e-03,5.516241389801392406e-03,5.596936941146850586e-01
5.720923689280029700e-01,-1.533772017617035521e-02,-5.210665642884351745e-02,2.583450805461135879e-03,-4.543507074183057715e-03,8.136064497404123241e-03,6.068820357322692871e-01
5.405820292925145321e-01,2.043984271223844851e-02,-5.950386417007225148e-02,8.975798176250396332e-03,9.776751960828701515e-03,3.508401236998642575e-04,5.648449659347534180e-01
5.248352206887497706e-01,-4.567633492797038008e-02,-3.749294154837426452e-02,-9.028952246253425448e-03,-2.165560900655357987e-03,-2.021193434559958018e-03,5.667032599449157715e-01
5.127401143620718971e-01,-3.407741945985950927e-02,-4.890702114794676092e-02,2.360172716897563673e-03,-2.813169208560127848e-03,8.380605145609554317e-04,5.544195175170898438e-01
5.474377288164444799e-01,-7.519377481100736338e-03,-5.266177061689758521e-02,-1.119760029724898437e-02,2.140330429038546627e-03,3.305769431950048606e-04,5.791869759559631348e-01
5.496566879175888154e-01,-2.658482041837462173e-02,-4.262293707485514949e-03,1.463927945967691616e-02,-7.312408138943979861e-03,-2.414053462654350279e-02,5.676627755165100098e-01
5.826463664172318868e-01,-4.304422551149902909e-02,-1.824534294369589693e-02,8.377303105645722212e-03,2.474233316209965925e-03,-3.193107737102435228e-02,6.163399815559387207e-01
5.158847847651927276e-01,-3.804303740507206100e-02,-5.437275877808003810e-02,2.751237160904152542e-03,-3.568527209663397478e-03,1.151276554764180246e-03,5.623282790184020996e-01
5.402824232382714698e-01,-4.205614679911626186e-02,7.264436489223868865e-03,4.308973520383650030e-04,-4.472148112611442315e-03,-2.319585801502686145e-02,5.608066916465759277e-01
5.303858318908848402e-01,-5.022696708141133337e-02,-4.258484113843438723e-02,-1.010404687442540729e-03,7.045910102917357426e-04,1.004862085112927152e-03,5.768362879753112793e-01
5.463229354686309769e-01,-4.990482238376864332e-02,1.546453585407692177e-02,3.034937478722150167e-03,6.075138829730646062e-03,-2.718975015156816291e-02,5.684556961059570312e-01
5.386717195298712513e-01,-1.064568775587645955e-02,-3.934505767160539902e-02,8.485596333929739526e-03,8.914966462890469958e-04,-7.361420735420674474e-03,5.645523071289062500e-01
5.674818136574744099e-01,-6.362116710942536391e-02,4.286387497568722171e-02,1.309779182820912380e-02,-9.366603284554525510e-02,-3.083669385454565134e-02,6.100117564201354980e-01
7.963133426907806900e-01,-8.731749747325942557e-02,-2.732208760866575159e-02,5.070959037682706838e-02,-1.169397147668151289e-02,-5.259092760371475439e-02,8.647607564926147461e-01
3.825564755922673532e-01,-3.131767957886014142e-02,-1.209907750040281615e-02,1.337059071614828468e-03,-4.674641387703450286e-03,2.581161963456775951e-03,4.047196507453918457e-01
5.830841776557876832e-01,-4.606625392311075595e-02,-4.101581020149860923e-02,1.225176570858276838e-02,1.876280421990510552e-02,-3.991751450273516022e-02,6.316367387771606445e-01
6.482702986787260979e-01,-1.943210034945086484e-02,-2.554384044119184516e-02,-1.756552122760569878e-02,1.152239571205627110e-02,-4.506614696998557240e-02,6.762850880622863770e-01
5.351699059699074335e-01,-2.923416995727293188e-02,-2.964221831592653289e-02,1.174417049179695338e-03,5.321355231459589177e-03,-2.722591820044403810e-03,5.647068023681640625e-01
3.626941422920595404e-01,-1.970527845651028065e-02,-2.740290015118898581e-02,-5.165051201963517108e-02,-2.156405992426771445e-02,-1.238389135695184152e-03,3.982902169227600098e-01
5.148961198208703571e-01,-4.402862607808616380e-02,-4.839285902115803006e-02,-1.472905219330254744e-03,1.096767186646458283e-03,-6.832673084676248697e-03,5.612533688545227051e-01
5.337038308891263183e-01,-9.703675424961033524e-03,-4.592082699156954662e-02,-1.700333910730150028e-02,-1.091963546168940417e-02,6.450111498845304166e-03,5.635902285575866699e-01
4.733955403943095885e-01,-2.060052782838844854e-02,-7.756097996575783693e-03,-1.062427880456764673e-01,-1.039104804867405363e-01,4.534472936946872673e-02,5.570235252380371094e-01
3.872756466828728983e-01,-4.634096327777866009e-02,1.144401949670705021e-02,-4.929603585076510613e-02,-1.290025447319223806e-01,6.763518943397937855e-02,4.870777726173400879e-01
5.341856933567897814e-01,-3.448772696885890610e-02,-2.734464892375101930e-02,-4.004118371254348531e-03,-1.214579200600507289e-04,-6.215219610459299989e-04,5.651793479919433594e-01
5.053062168718418512e-01,-6.293143476139287373e-02,-2.642228430300722075e-02,-3.694925444465055851e-03,7.366444373138103302e-04,-3.169073847078179634e-04,5.509300827980041504e-01
5.437512983638796982e-01,-4.222134613114172930e-02,-4.387181450532814941e-02,4.659192671316675035e-04,-7.739415518409105280e-05,-8.991677456932320759e-04,5.868022441864013672e-01
5.372399346364347128e-01,-3.836423702649047196e-02,-4.754124842302853704e-02,9.687547891522610422e-03,7.414959516949896565e-03,-2.738148930361412024e-05,5.806317329406738281e-01
4.175139749694939950e-01,-2.459197746193410306e-02,-3.603475993224115881e-02,-1.350482320724049473e-02,-1.830296063482481084e-02,-1.365996136837522267e-02,4.502881765365600586e-01
5.515451602753971283e-01,1.685515849150856504e-02,-5.560781127439523575e-02,1.373052634934867689e-04,1.420153142210259147e-03,-2.364188726549329433e-02,5.758232474327087402e-01
6.100318385471117377e-01,9.114632659571214601e-03,-6.614202514293099355e-02,3.734182483528632884e-03,4.631344403461958199e-03,-3.635639615707908501e-02,6.450268626213073730e-01
4.463799142636489803e-01,-3.594375161320223500e-02,-2.204901842898721043e-02,-1.368255852109880565e-02,-1.657365780989958348e-02,-1.274730089609105686e-02,4.774940907955169678e-01
5.709115065934415867e-01,3.089764353538715369e-02,-6.269501566365523471e-02,1.905455667330102285e-02,-3.419038837151522695e-03,-2.569304841635492581e-02,5.949962735176086426e-01
5.307395198142953463e-01,-2.959230338574264652e-02,-2.354617298440339623e-02,1.409258224210853915e-03,3.575603888691881917e-03,-1.276507271023856211e-03,5.573775172233581543e-01
5.437278029798005008e-01,1.010037881293010531e-02,-3.673158849523017189e-02,-4.642052543209339299e-03,-5.935136308684836950e-03,1.021337455311692628e-02,5.589504241943359375e-01
8.013481628164358384e-01,8.805777449552215641e-03,-8.464428399165385697e-02,-6.094444764802726955e-02,-3.114544404855432939e-03,-3.444795217190871339e-02,8.518516421318054199e-01
6.059796233956354916e-01,-1.176409102682457464e-02,-3.702811875387093665e-02,1.420500222401524515e-02,9.261745662285613551e-03,-2.790326977515792534e-02,6.332856416702270508e-01
5.374669802098661631e-01,-3.716932136902093009e-02,-1.973018182655633668e-02,1.056385246544590956e-02,5.063024530207285365e-03,-8.993824164876467603e-03,5.666958689689636230e-01
5.822623786468961171e-01,-1.053793923925169795e-02,-3.416346435769090917e-02,3.696738621173312200e-03,8.585001566005267051e-03,-2.793704816975676325e-02,6.071071624755859375e-01
5.270669161010134163e-01,-2.269067511886938004e-02,-1.774986290525390475e-02,3.800821115387327098e-03,-3.625010681068744061e-04,3.622738714650504486e-03,5.473798513412475586e-01
8.800823232116012917e-01,-3.666252889896931544e-02,-4.733563939825535805e-02,4.697415658579810055e-02,-1.176885160129539747e-03,5.337054845934720293e-02,9.303164482116699219e-01
5.977491316368752639e-01,-7.826512610830116401e-04,-2.900608490742698220e-02,-2.528940279434378421e-02,-5.113473694093746127e-05,3.906936578275642391e-02,6.184071302413940430e-01
5.414883245754100738e-01,-6.327428508698643150e-02,2.980524055365330049e-02,-1.380722041314534718e-03,3.128368982273845890e-03,7.771766686900345895e-03,5.642046332359313965e-01
5.521902008368694270e-01,-6.009304973850335130e-02,4.593446958478011877e-02,-3.893286958369458588e-03,-9.084413644251734810e-03,1.391269480184958648e-02,5.675275325775146484e-01
5.319256283324934609e-01,-4.124044439786320182e-02,-4.860347518177451920e-02,-9.749351819739049277e-04,2.937218049056812986e-03,-4.106646375095170456e-03,5.769515633583068848e-01
5.556958512343395107e-01,-6.708935323584183652e-02,4.421556140207524854e-02,7.624120745994125703e-03,3.777639292868018202e-03,-7.501294181902493433e-03,5.756015777587890625e-01
5.614285196822700330e-01,-6.770126462409406520e-02,3.509313799767177500e-02,7.536880125836169751e-03,1.653864664543419280e-02,-6.553739779159931285e-03,5.855081677436828613e-01
5.074915050245365489e-01,-2.988928863777429168e-02,-6.264715807892357047e-02,-3.176066825073878535e-04,-9.578742146737414002e-04,2.881959074842540495e-03,5.545111298561096191e-01
5.851543785256171359e-01,-7.667494246184111684e-02,2.939416386179161123e-02,-3.769695758144006332e-03,1.195997887110551022e-02,-1.236248787795072093e-02,6.164408326148986816e-01
5.395073275884181285e-01,-3.933014555430547343e-02,-4.052779556963564955e-02,6.127509307235978579e-03,2.512291448957431825e-03,-5.258196540626169620e-04,5.795514583587646484e-01
5.200402771744684349e-01,-3.497339794852008521e-02,-5.519391145089483364e-02,4.340421442959172503e-03,2.436710633504930723e-03,5.991831144987086986e-03,5.655561685562133789e-01
5.394861471538749953e-01,1.639079839898330282e-02,-4.674116417166709891e-02,5.852699420544487524e-03,1.399046479708915313e-03,-4.622554612575408006e-03,5.575044155120849609e-01
5.100674525933234227e-01,-3.479847549357120706e-02,-5.261698730920533196e-02,-5.692610819569158057e-03,1.329193577639000909e-02,5.750291873228183595e-03,5.546454191207885742e-01
5.192190752435801304e-01,-3.982885837489255620e-02,-5.219618669186315563e-02,-4.289093361313255255e-03,1.181091488714844547e-02,7.437411090716342967e-03,5.658984780311584473e-01
5.454342790514891126e-01,-2.509654244806933110e-02,-4.206667063237612414e-02,-1.268657909304647929e-03,-4.165262550565401733e-03,7.626044084178644315e-03,5.794020295143127441e-01
5.253743261874090908e-01,-1.851662073061363656e-02,-1.921753948428012171e-02,-2.183152332949945824e-04,2.327322918958769969e-04,6.632827940831352489e-04,5.442432165145874023e-01
5.324839361602669019e-01,-4.160811102128605943e-02,-5.482539667745561784e-02,7.270630198776819805e-04,6.227292643816380140e-03,1.411732065212832924e-03,5.809201598167419434e-01
5.199715131396820400e-01,-4.128054501170994040e-02,-5.139603759442831765e-02,6.892350723497971707e-05,2.371101206241977514e-03,5.620516388660379802e-03,5.664761066436767578e-01
4.873582498309574351e-01,-5.353861245547847370e-02,-2.586344133245563337e-02,1.388729897625283352e-03,9.435592456388770333e-04,3.598072883597275978e-03,5.276487469673156738e-01
5.335821859756578744e-01,-4.034988497031877230e-02,-4.949921544468194323e-02,-2.334178960120131523e-03,-1.161458692491082034e-03,-1.712275635599457262e-03,5.785862207412719727e-01
5.183380782985228530e-01,-4.232352982942727548e-02,-4.889490369142182602e-02,-3.289778066337602658e-03,4.153418681047571503e-03,5.177201710975686509e-03,5.641219615936279297e-01
5.110592003218811241e-01,-3.448888714938505573e-02,-5.554987127100308175e-02,2.906883935026882172e-03,1.468559622496375333e-03,6.519207755907784237e-03,5.565207600593566895e-01
5.064265931834639467e-01,-3.652783319300256792e-02,-5.121359677414027978e-02,4.378918647466717700e-04,-2.293938375871470373e-04,7.034242386477229138e-03,5.505797266960144043e-01
5.905430065662070627e-01,-4.806559653783734620e-02,-4.352879456710861961e-02,-3.061619055370130155e-02,1.184623568751554945e-01,-5.885091236985794116e-02,6.784147620201110840e-01
5.095011589091335003e-01,-4.899916216940453095e-02,-4.157686776006674911e-02,1.603516461552728688e-03,2.137190667560950712e-03,-8.324064883758437033e-03,5.550330281257629395e-01
4.795474639811544426e-01,-3.764874092771366976e-02,4.532578627246541814e-03,-5.755228750503183638e-02,5.154450222815857435e-02,-3.724916214426514383e-02,5.191579461097717285e-01
5.304798379141530962e-01,-4.552687731207027966e-02,-5.047055699256081107e-02,6.941617067088775043e-04,-6.795530098778454530e-04,9.258381743536673626e-04,5.784990787506103516e-01
5.057839738075674552e-01,-3.188724527456088254e-02,-5.114954527868117995e-02,1.767585021441022254e-03,1.283158784149726660e-03,9.641444508485200876e-03,5.478242039680480957e-01
5.187825821062506115e-01,-4.456704479712886302e-02,-4.833576299291156286e-02,2.451329825980303172e-03,-1.234671673836168189e-03,6.649346101538121216e-03,5.653806924819946289e-01
5.375262918568158854e-01,-3.803414792316703319e-02,-7.532978679400503808e-03,-3.584548396689705985e-02,3.051590149033814314e-02,-3.867428859523208695e-02,5.707716941833496094e-01
4.648274306422254254e-01,-3.226864766740297763e-02,-5.011249929725955510e-02,-5.199333537388898564e-03,1.136288632909280942e-02,6.769499770302799847e-03,5.068519711494445801e-01
4.734148247978459123e-01,-3.670418961572399774e-02,-4.602107176537459376e-02,-3.480280365726766412e-02,6.941667605943166452e-02,-3.028718010889109614e-03,5.321449041366577148e-01
5.495765295701442454e-01,-5.716703490167357460e-02,-2.019953597663076694e-02,2.215112416644250768e-03,-1.185284100586155714e-02,-1.215871175057763043e-02,5.898764729499816895e-01
5.951397950980208407e-01,-4.913380791218124877e-02,-4.646295958140056470e-02,-9.417617234455817263e-03,3.941866085184220214e-02,-1.094098845143951296e-02,6.470406055450439453e-01
5.269455147607147172e-01,-4.011387908223010279e-02,-4.111471542538078228e-02,-1.806079891665577026e-03,7.359864155608070082e-04,-2.189345731693114665e-04,5.675706267356872559e-01
5.269337977505575976e-01,-4.563898394827439753e-02,-4.627713279103992661e-02,2.056747594570990524e-04,1.190537686610435800e-03,-2.967191546311540484e-04,5.728961825370788574e-01
5.182676417360984056e-01,-3.833952512948476943e-02,-2.782887619568763515e-02,3.849493555004392976e-04,1.872735221904672526e-03,4.920478685038185730e-04,5.514375567436218262e-01
4.900671947796928496e-01,-4.231488771346428313e-02,-4.028194787499927987e-02,1.326154264426929099e-03,1.472692338971318734e-03,-1.112676797497173450e-02,5.317289829254150391e-01
5.270756371008604724e-01,-4.133472351465392047e-02,-4.141806332969893978e-02,1.746893570462453547e-03,9.738077202860691067e-04,1.972498851139371486e-04,5.684626698493957520e-01
5.273447802972257570e-01,-4.439343011212823487e-02,-4.546630928884598521e-02,9.442656915971593288e-05,-1.207541812844952498e-03,-2.325152719859454632e-03,5.722934007644653320e-01
4.479260300533849382e-01,-1.876607120388132377e-02,-4.350945387606897086e-02,1.124458296624741491e-02,-1.294550838009224381e-02,7.334481771707560167e-03,4.806295335292816162e-01
5.325019047344360379e-01,-3.532057808664845755e-02,-2.347495605955612907e-02,-1.807804773247101426e-03,6.583764065803684312e-03,-8.138566851859756202e-03,5.622944235801696777e-01
5.176082981815791628e-01,-3.956126068669971185e-02,-4.839662786151163743e-02,1.877390073589865370e-03,-1.203092377621032974e-03,-6.815213548059511489e-03,5.617766976356506348e-01
5.371807766107984383e-01,-4.372441499978710344e-02,-3.634869292280018538e-03,7.180079344215713026e-03,-2.034845408677124490e-02,-1.381522852489075470e-02,5.636836290359497070e-01
5.406820879510083611e-01,-3.153493912214705430e-02,-1.218337098071270441e-02,8.840759091537187886e-04,-3.597524865927537413e-04,-9.985963139518633236e-03,5.630589723587036133e-01
5.520426458599980712e-01,2.530420814767345150e-02,-4.806427853038397480e-02,-1.530879872321600638e-02,-6.168582016219822071e-03,2.322081248136678364e-02,5.691372156143188477e-01
3.721034846136697105e-01,-7.336510524014516754e-02,-3.279891826065163551e-02,9.830465599400255161e-02,-7.706772848925774744e-02,-6.380959713321704418e-02,4.909599125385284424e-01
5.305140983334014626e-01,-2.853543961925514294e-02,-1.034259944384938179e-02,3.401965599564463465e-03,-9.870525076312764053e-04,-7.933031431170987913e-03,5.503845214843750000e-01
5.427646444451352803e-01,-3.303386988204320973e-02,-1.189240546538541943e-02,3.561771896768211373e-03,1.895079673330347242e-03,-1.743382477018881604e-02,5.663729310035705566e-01
5.417290511543042530e-01,-2.529285836345512850e-02,-1.779284701200972707e-02,-4.726956837075363925e-03,2.731050162660014421e-03,-1.356812405258824364e-02,5.638786554336547852e-01
5.773958238519643071e-01,-3.484456497195217994e-02,-1.011811420680913676e-02,1.670901221839691392e-03,2.339215830323281356e-02,-5.046663616847463230e-02,6.079488396644592285e-01
3.655424087074070072e-01,-1.308722875516533934e-02,-9.487703020344148697e-02,1.295203774306617484e-01,2.031612835065904621e-02,-3.801858044788034019e-02,4.867433309555053711e-01
5.167654368289437139e-01,-5.657221069629131405e-02,-3.011045701196282676e-02,-7.191397649147845484e-04,-7.286239972824127588e-04,-2.979909865585648934e-03,5.606019496917724609e-01
5.076751650978849062e-01,-6.244287990991512216e-02,-2.787376103896638257e-02,-4.626559654939237098e-03,1.561144895153909534e-03,-1.764282842429706552e-03,5.537165403366088867e-01
5.074054310064862738e-01,-2.676053577681583584e-02,-6.262220986134098277e-02,1.477903249918481121e-03,1.820824270952802110e-07,7.717473344080133611e-04,5.529772043228149414e-01
5.250113883913533064e-01,-4.026499978543085501e-02,-5.364359167751162061e-02,1.161490410827374745e-04,-2.350536337562614600e-04,3.095725593528008118e-03,5.721083283424377441e-01
5.307746418943206645e-01,-4.360811368526387732e-02,-4.749191067604849326e-02,-6.590845294667632866e-04,1.512190779138287804e-03,2.526653723238794173e-03,5.763581395149230957e-01
5.296066475628247172e-01,-4.221599419896712724e-02,-5.074298289629985970e-02,3.046578611299166216e-04,-1.039857153133714194e-03,1.077783083399896924e-03,5.761395692825317383e-01
5.440331912250845336e-01,-4.648205215135861601e-02,-4.645119512056178346e-02,-9.883942260595184048e-04,-1.323054867647800985e-03,-1.545874391559478884e-03,5.905128121376037598e-01
3.833865868414065292e-01,-4.846631163762368799e-03,-2.155689503386441774e-02,-1.513229664951216101e-03,-1.927087020137086297e-03,1.209253515706835286e-03,3.968805074691772461e-01
5.332675026090459847e-01,-3.798889343595479584e-02,-5.339808470523274564e-02,1.783420268405143134e-03,1.482465037783934486e-03,-1.280507579523782868e-03,5.791329145431518555e-01
5.298887112758471352e-01,-3.248303997576681978e-02,-6.480828891045037343e-03,-4.457549901936410860e-03,2.596915553353205258e-03,4.192241720833478173e-03,5.499525070190429688e-01
5.297806901563381077e-01,-4.470773750695178350e-02,-5.058835302150715973e-02,-1.885878980401747645e-04,-3.547821457554957729e-04,2.055570763656155726e-03,5.774626135826110840e-01
6.091590487401241649e-01,3.118448337675294724e-02,-1.281475195473266715e-01,8.709379688086942017e-02,1.194024363398236629e-02,-2.228035234431896203e-02,6.900753974914550781e-01
4.806532324137339773e-01,-4.590960120529669064e-02,-3.735680428786775087e-02,-7.050513438042458648e-03,-1.346076768038500897e-02,-1.066258999114589115e-02,5.233275890350341797e-01
5.262966231558316998e-01,-4.442238790093189227e-02,-4.079485368170748805e-02,-7.356321548561939013e-04,7.947222437283164853e-04,3.122407286381984211e-04,5.689172744750976562e-01
5.246352922398719310e-01,-4.247555189763735362e-02,-5.239604233592112803e-02,2.068519871907726140e-03,-2.030458481166987073e-03,2.481317477597185135e-03,5.721737742424011230e-01
5.151946994343777897e-01,-3.396722984941552559e-02,-5.262595458431665318e-02,4.379407061287626975e-03,-2.552436456043434727e-03,6.245547647328673901e-03,5.588986873626708984e-01
5.301631077106203627e-01,-2.519226916577546604e-02,-3.064124136506368723e-02,-7.168710566723128941e-04,1.964505743044751233e-03,-4.706325650788491591e-03,5.581710934638977051e-01
5.025270048842525039e-01,-3.368603044683704528e-02,-5.728645506221166639e-02,1.950251574948824078e-03,-7.406158957733715610e-03,3.693257985704260973e-03,5.485919713973999023e-01
5.482436867352238341e-01,-4.421981725822687892e-02,-5.782091483105034069e-02,-2.589868205113438071e-02,2.570155818610651149e-02,-3.585457644916701866e-03,6.027343273162841797e-01
5.305376449040779541e-01,-4.738620185507880223e-02,-4.902223877354824899e-02,7.483615626492995604e-04,-7.221243223202191124e-04,7.274704772661153267e-04,5.787477493286132812e-01
4.986327405509474175e-01,-6.300079826811688655e-02,-2.613404624361062578e-02,-1.539487307587155332e-05,3.383269746641895935e-04,-6.290939545648280631e-04,5.441390872001647949e-01
5.158923592891767607e-01,-3.907593754636395911e-02,-4.822193740693431208e-02,2.836470129591864373e-03,-5.996637289329627722e-04,3.686099639499628572e-03,5.596563220024108887e-01
5.107203222117294716e-01,-3.757703044592011765e-02,-5.189035122995977467e-02,2.363899016769350646e-04,-4.490779935511467202e-03,5.144248445413927666e-03,5.557183623313903809e-01
5.330948078162591752e-01,-1.334574476656166797e-02,-4.509274316360628587e-02,-9.761300536362665101e-04,5.923374057112821764e-03,-4.465187380901179323e-03,5.631349086761474609e-01
5.873057222530527755e-01,-3.538803551544733583e-02,-6.346776369788878491e-02,8.362561880574961165e-03,-5.486456597657007016e-03,-2.515821947244575515e-02,6.389209628105163574e-01
5.205642324813808397e-01,-4.137052327986939781e-02,-5.386500561001450471e-02,-3.208211990950437902e-03,6.185219353231251153e-03,5.102336429302222094e-03,5.684818625450134277e-01
5.381974109000864370e-01,-1.562543037657312950e-02,-4.536734802792416477e-02,3.373481525541415643e-02,1.384851166107262154e-03,-5.134377084509246687e-03,5.723416805267333984e-01
5.802889579408250231e-01,-2.726632106572454695e-02,-4.692518972971765345e-02,1.371605667927404577e-02,2.863478063815175505e-04,-1.423373822609521992e-02,6.185678243637084961e-01
5.290513047171704342e-01,-3.509857484578926545e-02,-5.238494834674423117e-02,2.272956709811935379e-03,6.730813314386130397e-03,9.645005709832731120e-04,5.731232166290283203e-01
5.341100616189236039e-01,-4.017200832205797267e-02,-3.493424743853332237e-02,4.386763741144030166e-04,3.903869268437296612e-03,-1.458133930587596043e-03,5.717272758483886719e-01
3.581929123798547332e-01,-1.479801863657091709e-02,5.076551238930526733e-03,-2.441434268842142697e-03,1.238231783200922963e-03,3.969523821462723340e-03,3.635573685169219971e-01
5.316625980868729950e-01,-1.848208494659941969e-02,-3.948013211509751597e-02,-4.762977902955224316e-03,3.601687839675998554e-03,-2.657573067447368317e-03,5.610527992248535156e-01
5.317260256821385589e-01,-4.768859435149647163e-02,-4.453043331245259973e-02,1.125065683517030454e-04,1.260758385888417418e-03,1.211279728384390185e-04,5.778462290763854980e-01
5.315917741288668230e-01,-4.302642227339353864e-02,-3.801852108854567036e-02,2.366668313974518132e-05,2.083367631633800850e-03,-6.301983907214156163e-04,5.721430778503417969e-01
5.324788370396225101e-01,-4.789767133668518251e-02,-4.286098738597290958e-02,1.818316015295055313e-03,8.248704147087548670e-04,1.889589012977297951e-03,5.778942704200744629e-01
5.317030910397078092e-01,-1.955948472181684439e-02,-3.236267782355642386e-02,2.270793990146344806e-03,-1.081254588589785444e-03,-1.691185457767885661e-03,5.577991008758544922e-01
5.323879493649971151e-01,-2.721892808297851629e-02,-3.528441999087844616e-02,4.155134581794826289e-03,-1.032630561422325606e-03,4.520524205304308324e-04,5.637322068214416504e-01
5.242489975038386874e-01,-4.695072708218597790e-02,-4.608923552964591663e-02,1.052729333088959704e-03,-6.488834470073494851e-04,3.042516314460773277e-03,5.707978010177612305e-01
5.303685975069107883e-01,-2.681506521355311867e-02,-2.821354443594914496e-02,1.274634682729593963e-03,2.176451275343069345e-03,-2.319654607803149377e-03,5.579158067703247070e-01
5.484553020412314961e-01,3.352877670436701929e-02,-6.249140743268391529e-02,-1.402533547774332048e-03,3.734779965872814158e-03,-3.048855254016585598e-04,5.690875053405761719e-01
5.316725311846671742e-01,-3.156919554675521877e-02,-3.554894546281367473e-02,1.456815690396432925e-03,-1.556528492890838769e-03,1.510405970243359212e-07,5.652541518211364746e-01
5.139993975592795916e-01,-4.861142708125587575e-02,-3.691493909272899887e-02,-1.944830211582253927e-03,-3.504449138937785514e-03,-1.378339816188841249e-03,5.569031238555908203e-01
5.205393139072246322e-01,-2.932743902201515040e-02,-3.853812843378182085e-02,1.834148750497822380e-03,2.646320660996777027e-03,7.088259007495632119e-04,5.545588731765747070e-01
5.230524487066208206e-01,-5.051022085057957356e-02,1.099428924341569469e-02,5.104805150861064546e-03,3.146581510816014171e-02,2.588750860204007756e-02,5.500356554985046387e-01
5.220362832287028798e-01,-3.081007857874124012e-02,-3.771320185633794675e-02,3.440969519007986647e-03,-3.674428845621735811e-03,2.850447298840373331e-03,5.564202666282653809e-01
5.268590506221612069e-01,-3.282180143958882135e-02,-3.906068045727276172e-02,1.553394843967197602e-03,-2.692453061638108646e-05,-1.520314122060246716e-03,5.628387928009033203e-01
5.160488366680512362e-01,-4.599583455459918535e-02,-3.608074011357792488e-02,-4.087717122071692099e-04,3.991702582092554246e-04,-1.433258189199951033e-03,5.571597218513488770e-01
5.307724033566398880e-01,-4.338885139500564536e-02,-5.229836832378309541e-02,8.107354160172816409e-04,1.626641614909205870e-03,1.324912039545035353e-03,5.786805748939514160e-01
1.406905653117903054e-01,1.570607766338290301e-02,7.895039334836734257e-03,8.899387900292585196e-02,-3.664991049349924061e-05,1.832534141073945133e-02,2.035327553749084473e-01
2.222311919176187534e-01,6.724260395834485982e-03,1.908801103171517410e-02,-1.687373808103934114e-02,1.672945936038271880e-02,4.702265390529920645e-03,2.137562930583953857e-01
2.461323840849865552e-01,9.667604177792762932e-03,8.972177404005798884e-03,1.684842605236248209e-02,3.138815840172233529e-02,-5.113393807828605156e-03,2.448800057172775269e-01
2.810393701792669452e-01,1.259444978196636034e-02,2.400350403740994509e-03,1.110959804639787343e-02,2.306270256248856704e-02,-1.754678298409720512e-03,2.772693932056427002e-01
5.266976672110079694e-01,-4.627891688058519137e-02,-4.857743553053270325e-02,-9.415262323414060812e-05,-3.426439317870882484e-04,-1.678455348500773082e-03,5.741369724273681641e-01
5.270467157372394906e-01,-4.504222182805059371e-02,-4.695704266283978745e-02,-1.359999271993466569e-03,2.470760035450382091e-05,-1.903058640370040204e-03,5.730630755424499512e-01
5.269851165460387454e-01,-4.811239003056014263e-02,-4.699515265114090345e-02,-7.887696937076334744e-04,-6.686207405690802134e-04,-1.256227770624080992e-03,5.745466351509094238e-01
5.667027739718271118e-01,-9.900085996915458653e-02,-9.455889851526594336e-03,9.288447969971592999e-02,-1.330566171635830519e-01,-6.502101032761953281e-02,6.951598525047302246e-01
5.255963006663574300e-01,-4.861020459487047640e-02,-4.690251046612017860e-02,3.066149070246601072e-04,-5.943033455645248221e-04,-1.340229083754386746e-03,5.733604431152343750e-01
5.204914679722849602e-01,-3.488744073057972739e-02,-5.702475575949025877e-02,1.336664315451074544e-03,-4.807799324885320006e-04,-2.720919321192392156e-03,5.667968392372131348e-01
5.299259501679749462e-01,-3.862616456693124256e-02,-5.496708941141448257e-02,1.525305981587384528e-03,1.361222385589757212e-03,-1.528835341176831885e-03,5.769131183624267578e-01
5.193657810031401256e-01,-3.522410752901863895e-02,-5.225812630391138414e-02,-1.499787381119227795e-03,6.940745816801170871e-03,-4.407534106548211504e-03,5.634860396385192871e-01
5.297624434784056202e-01,-3.900657616901503921e-02,-5.201284087604476913e-02,8.867443602621650090e-04,-1.880112126885069698e-04,-2.628531913762172621e-03,5.754025578498840332e-01
5.257398457397781666e-01,-4.570730697292244016e-02,-4.449294480057736090e-02,1.191086747149372373e-03,1.750149208600331342e-03,1.646168786097816769e-03,5.708598494529724121e-01
5.060509381365522197e-01,-5.670409830041833743e-02,-2.912552810258930980e-02,9.960841873056805462e-03,1.407657688090394326e-04,-1.237269603663720399e-03,5.497600436210632324e-01
4.762682775003491686e-01,-4.758470435130379705e-02,-2.653720018790209356e-02,-1.074713122917531939e-02,8.332551911545905054e-04,9.942610377943873409e-03,5.142803788185119629e-01
5.304893975138094131e-01,-3.646086854933680566e-02,-4.208973635508586608e-02,-3.114027822030081055e-04,-4.507759796819918278e-04,-8.659419621463984237e-04,5.697883367538452148e-01
5.222807068998884805e-01,-3.835791337959271186e-02,-5.665038411336939528e-02,1.215903925349010690e-03,1.086493176338747656e-06,1.541440073182513259e-03,5.700151920318603516e-01
5.329802911118595166e-01,-4.340113852255012006e-02,-4.851720242144214046e-02,1.206532555389796179e-03,1.299011970414831263e-03,2.340415755316465826e-03,5.789787769317626953e-01
5.320615626050110292e-01,-3.986642949620261556e-02,-4.314965658408648208e-02,2.084876343475258048e-03,-2.260520384046924274e-04,1.122812120618656444e-04,5.735881924629211426e-01
5.355542009504011824e-01,-8.023893215585164995e-03,-2.923876872981370778e-02,2.438511741385428287e-03,2.969714094685657352e-03,-1.263286222039425484e-02,5.549614429473876953e-01
4.569639002796085370e-01,-2.722144302292828222e-02,-4.909888952008756302e-02,-1.094909111674325156e-02,2.988481264241274818e-02,7.241841889418470894e-03,4.987014234066009521e-01
5.276567183883427159e-01,-1.832362699029471687e-02,-2.231795825779214759e-02,8.847470049171281921e-04,1.401101238550959017e-03,-4.751766758747712378e-03,5.480577349662780762e-01
5.318906064377455500e-01,-1.014646846938760394e-02,-2.641337139189725569e-02,-1.740505231804256609e-03,2.268015739716928731e-03,-7.613235841228169036e-03,5.505310893058776855e-01
5.347664885098216692e-01,-3.221503439724404672e-02,-2.633529771846396250e-02,2.482174005186654677e-03,3.301898197662346719e-03,-9.075011871135138866e-03,5.643289685249328613e-01
5.694519662991244235e-01,1.083434149591794293e-02,-5.828389635616104680e-02,5.781295622829658171e-03,-4.764120297694348499e-03,-3.887887579165711510e-02,6.001206040382385254e-01
5.213193957620482211e-01,-5.297171856368904086e-02,-3.450377267381643520e-02,-3.070276562126830690e-04,1.661032973427229451e-03,-1.516229468014801624e-03,5.652971267700195312e-01
5.471962482632934943e-01,2.440905180657251816e-02,-5.683696516418296207e-02,1.176699234117906459e-02,-1.278489245618576013e-02,-3.062032075488918884e-02,5.710519552230834961e-01
5.473934287602922888e-01,1.118574495371438271e-02,-4.582275113621805951e-02,3.941360176107135474e-03,2.914223419737483993e-03,-8.981697353857193838e-03,5.671429634094238281e-01
5.590509171859527893e-01,2.243643518811241910e-02,-6.576211489482391981e-02,5.574932798410817819e-03,2.473557172897783256e-03,-6.570922583251148641e-03,5.859213471412658691e-01
5.583705579358901883e-01,1.009214909947286909e-02,-5.936434724419653586e-02,-2.030742569903746381e-02,6.688816867826875671e-03,-2.629556218807742665e-02,5.890336632728576660e-01
5.592387752756955432e-01,3.489277862529696628e-02,-6.467523278400005848e-02,-2.119047531633257500e-02,6.042248445526992966e-03,-1.042095073960958018e-02,5.821022391319274902e-01
4.963269550283316289e-01,-2.767903227153234447e-02,-5.556267340890580497e-02,-3.386012833812349337e-04,-5.625302586043702004e-05,1.507746472397615296e-03,5.384961962699890137e-01
4.072878299989772244e-01,-3.662743510376803568e-02,-1.227637474607601309e-02,-2.469788666670466246e-02,-8.328684378312812761e-03,-3.326269953634630652e-03,4.346437454223632812e-01
5.434571946826269873e-01,-4.475740510484207957e-02,-4.512964292073784467e-02,-8.123824679397077635e-04,-6.852667642934096156e-04,-2.818334472809292507e-04,5.884038805961608887e-01
5.422865732785746573e-01,-4.523288897208252446e-02,-4.340547021158480678e-02,-3.688777834295343385e-04,6.470189010949385926e-05,-1.349314650102269439e-03,5.866128802299499512e-01
2.509685994689087041e-01,1.256214566413177414e-02,8.593395950629828528e-03,-3.213996161797674864e-03,-4.645560001266160755e-02,-4.032518958561105184e-03,2.536803185939788818e-01
4.954746649882918463e-01,-2.056779091973470752e-02,-5.634363541925235808e-02,-2.316725244023260747e-03,1.845776253721407960e-04,4.598078819629979573e-03,5.349029898643493652e-01
2.673977874636912500e-01,9.987360061288266810e-03,-8.202976056206470745e-03,-1.724299747890422826e-02,-4.128253970536560624e-02,-7.668566471975311188e-03,2.783065438270568848e-01
5.148818952658421599e-01,-3.111973468319206848e-02,-5.706265960311129870e-02,-6.041192658126509369e-04,3.496355167448955128e-04,-7.517422114993883289e-04,5.594272613525390625e-01
3.208986644231366370e-01,6.798554274409979170e-03,-1.051285987749994710e-02,-1.085397186596084515e-02,-3.138954549270129429e-02,-6.142517883180638981e-03,3.283574283123016357e-01
3.159525299230717676e-01,-1.242770638379171733e-02,-1.419788908921776338e-03,-3.361983452851751569e-02,-1.429668517409967907e-02,-1.377995457435769906e-02,3.300207555294036865e-01
3.647984238563958814e-01,-1.825402404726704508e-02,-1.684851500547000780e-02,-1.815744459160720595e-02,-1.816156892656688518e-02,-1.208704122592692623e-02,3.854992389678955078e-01
6.226027792389514648e-01,3.126214079817890568e-03,-2.955200907237554020e-02,-2.653782304997838459e-02,1.268968946320086479e-05,6.355256302265170631e-02,6.475276350975036621e-01
4.987481431909252527e-01,-3.314705474443604971e-02,-5.102862978394565041e-02,2.504742522828461420e-03,4.222490981695796453e-03,5.671883984173634041e-03,5.412136316299438477e-01
5.199433598388529809e-01,-3.177691583302891254e-02,-5.950109564679592622e-02,1.367628363478975290e-03,3.375555981325237351e-03,1.420821582941184536e-03,5.661322474479675293e-01
5.160336102218741061e-01,-3.218349597973388376e-02,-6.174689050570181248e-02,3.768554015367100735e-04,-1.325118519473894585e-03,1.666423767754258382e-03,5.635930895805358887e-01
5.227306816690132640e-01,-3.538050745704926503e-02,-5.717969486868182405e-02,3.817875013427870096e-05,1.562852417565078859e-03,2.354280358194382403e-03,5.693449378013610840e-01
5.286301076740481664e-01,-4.713928713574508378e-02,-4.503548328847592486e-02,3.046160552610175515e-03,1.232655703081170142e-03,8.264826518073172326e-04,5.747503638267517090e-01
5.188459045988603746e-01,-3.490377321680668277e-02,-5.586035213541543087e-02,1.332304622337809408e-03,-5.168317037242888424e-04,9.656312494690552205e-04,5.645276904106140137e-01
5.006681676330257957e-01,-3.300467885098559706e-02,-5.124092088948140056e-02,3.682605820883335518e-03,-5.695081182112455599e-03,6.304475375638490288e-03,5.432574748992919922e-01
5.253125651929284601e-01,-4.236195137110948528e-02,-4.713793003875157983e-02,6.239379130255474568e-03,-2.948094577365222967e-03,2.482669719564465586e-03,5.702190399169921875e-01
5.219017595675716770e-01,-4.001294794606080618e-02,-4.422701995438127476e-02,3.371261283884196061e-03,3.588041520635197861e-03,-8.450680020659223917e-05,5.640980005264282227e-01
5.239997128673319349e-01,-3.900836323937217909e-02,-4.232340542055773591e-02,1.340667392081263320e-03,1.193515194250294696e-03,1.619693609496593344e-03,5.646884441375732422e-01
5.263910434196051868e-01,-3.616452249418594667e-02,-5.380293633920008034e-02,-1.501843718966520535e-03,-3.141117680168622399e-04,-1.174539665512554622e-03,5.715886950492858887e-01
5.137231601999229236e-01,-3.439009219097050041e-02,-4.810991593304547731e-02,-1.285176060617373604e-03,-7.605634332352602910e-04,-5.780727275372584371e-03,5.551966428756713867e-01
5.112096682268146841e-01,-5.502300842689433757e-02,-3.741870871922139963e-02,7.924582082445393721e-03,7.674485116177927834e-05,5.232920296638751169e-03,5.578815340995788574e-01
5.391532157525460445e-01,-3.953868771371468749e-02,-4.321859495424806852e-02,-1.996613352590110701e-03,1.033232189731315758e-03,-1.039919802937419287e-03,5.805564522743225098e-01
5.055752622183184997e-01,-3.036331487533822093e-02,-4.859751496894365586e-02,3.582337354843732197e-03,-5.998768078378775501e-03,-5.361959174150146687e-04,5.454194545745849609e-01
4.433068636807282470e-01,-2.341367321119303124e-02,-4.389312244676876751e-02,7.847677804820672731e-03,-3.162848792605244680e-02,4.761063188691226980e-03,4.806864857673645020e-01
5.425539659425600014e-01,-4.401077764097088840e-02,-4.438915366128765028e-02,-4.402926011552267321e-04,-1.313878951563149768e-03,-5.347906906139877035e-04,5.867596864700317383e-01
5.063824389028358519e-01,-3.500175320160497927e-02,-4.823581799638118617e-02,1.718416903450732799e-03,-6.375129434759347659e-03,8.411237694664801604e-04,5.482422709465026855e-01
5.030250672277922774e-01,-4.398604131394631689e-02,-4.021407464909410034e-02,4.448581317929905382e-02,-4.973075421294401166e-02,-1.324011344633851560e-03,5.572555661201477051e-01
3.502024017361818342e-01,-2.813414927043871028e-02,1.115678031484526600e-02,3.594537177826212515e-02,-1.118528571859336851e-01,-2.944478520713685737e-02,4.169262647628784180e-01
4.402098519665708642e-01,-3.345355764620393246e-02,-3.861237104495317263e-02,6.099378418325805684e-02,-5.965959968877607850e-02,3.984269009413156371e-03,4.987116754055023193e-01
4.737229282460961310e-01,-2.829031418944533138e-02,-4.461621908227164646e-02,2.335046206484096137e-02,-3.908456134362268963e-02,4.105566018405804388e-03,5.164772868156433105e-01
5.309529898567157957e-01,-3.502103105174175779e-02,-5.882188407404839725e-02,1.804560600728820341e-04,6.508882705839360606e-03,-2.874048647702311197e-03,5.783733129501342773e-01
6.679105957466473509e-01,1.092774272037361216e-02,-4.584582562832900665e-02,2.220451824957763581e-02,5.214680576837932985e-02,5.363510485202065831e-02,7.002971768379211426e-01
5.591147105368896586e-01,-4.704701614325235148e-02,-3.936934017721227530e-02,3.345349442075272461e-02,-3.963243201660016091e-02,-1.435332741585766854e-02,6.095283031463623047e-01
4.738998012090002709e-01,-2.279539579448308650e-02,-4.892448484177513990e-02,2.610695256674547618e-02,-3.942700439371630422e-02,9.770801618229142324e-03,5.170702338218688965e-01
5.306354872234744224e-01,-2.686397496146797348e-02,-2.362063503504588380e-02,-1.495559497233364329e-03,1.946314020373614241e-03,-7.249014978624482254e-04,5.559025406837463379e-01
5.281814915958632506e-01,-1.850918288280847812e-02,-2.083524753342352875e-02,4.948843091333870884e-04,1.182865034710482060e-03,-4.566623570829995808e-03,5.479190349578857422e-01
5.285432687209516978e-01,-2.101490490575608217e-02,-2.228000364522123022e-02,-7.849908429060106459e-05,2.790180461673511013e-04,-6.628094129345640274e-04,5.501932501792907715e-01
5.435116983960102122e-01,-4.404221316975726053e-02,-4.197461699788243572e-02,-4.849969130078111350e-04,6.853829462806586541e-04,-6.147951610649979391e-04,5.865256190299987793e-01
5.313863671926823962e-01,-2.795474542563308740e-02,-1.471185629550875174e-02,1.162308926444611049e-03,8.814680712189524453e-04,-1.435439644785108928e-03,5.528500080108642578e-01
5.138450989202811847e-01,-6.160858870313723479e-02,-3.153725517939479084e-02,-1.209480224003301341e-03,-7.944422345690383682e-04,2.568707545509492981e-03,5.610460042953491211e-01
5.222363612564745461e-01,-5.610650529873675851e-02,-3.621812168790347619e-02,1.789032531772067648e-03,-3.631731330360564555e-04,2.758790573979417494e-03,5.686884522438049316e-01
5.213317811111805034e-01,-5.664895194661331845e-02,-3.485490020596568317e-02,6.418564123372370563e-04,7.473491098160190338e-04,1.402599776092799868e-03,5.674054622650146484e-01
5.375575382886421671e-01,-4.096631172154618916e-02,-4.953129953918100625e-02,1.227436884316477402e-03,-2.161988133153018229e-03,-4.225797987515822474e-03,5.829154253005981445e-01
4.756814520274604829e-01,-2.925624595148698659e-02,-3.886018322828596605e-02,-2.061666362075555495e-03,-9.113282545416471862e-04,-8.964670842135190679e-03,5.100588798522949219e-01
5.293043881996931654e-01,-3.904855331260251305e-02,-4.908092303585637195e-02,-1.232173047725238293e-03,-9.380348502398710465e-04,-4.269304819600333589e-03,5.734888911247253418e-01
4.874874972735929735e-01,-5.347200338283836230e-02,-2.331591513707040320e-02,2.261087153033255331e-02,7.091578090761641549e-03,2.549646437859984412e-03,5.281453132629394531e-01
5.376421361198832072e-01,-4.181832419027400882e-02,-4.399077861391115229e-02,-3.024690176296460954e-03,-1.878527300352793262e-03,-9.689015956540222938e-04,5.805849432945251465e-01
5.373733704941764389e-01,-4.087853850432374148e-02,-4.537445013875626709e-02,-1.611203368553422227e-03,-2.862965168367632637e-03,1.784854800554488258e-05,5.805408358573913574e-01
5.248648320179027937e-01,-5.567300374255623741e-03,-1.901625780369492480e-02,-2.149902134297562630e-03,-3.447650813383548469e-03,8.235731959385527226e-03,5.375182628631591797e-01
5.301796232051995128e-01,-3.343077061496740887e-02,-5.492959218196757920e-02,2.304709731970912539e-03,4.381552006262648749e-03,-5.510828720304065259e-03,5.748047232627868652e-01
5.366160222543865377e-01,-3.308770362256588382e-02,-3.605312962558357426e-02,-3.874236421482623195e-03,-3.763794068953028177e-03,2.843445585987875194e-04,5.712690353393554688e-01
5.196692641626163844e-01,-3.480549524337697709e-02,-5.284799543662840882e-02,-5.105600044714970294e-04,3.499419230061450933e-03,-4.362071951023172890e-03,5.637965202331542969e-01
5.264796229577880515e-01,-3.450566661777196287e-02,-5.603844707409716408e-02,2.782080558630622372e-03,2.736058985199853535e-03,-2.133147917046317090e-03,5.721075534820556641e-01
5.401357915366280515e-01,-2.837853891575664589e-02,-4.408280967174033060e-02,8.541499515823086641e-03,5.807954965325940432e-03,2.954160947468864162e-03,5.768271088600158691e-01
5.376654862153263936e-01,-2.143515284934666143e-02,-3.940400356177253816e-02,3.448632649077300674e-03,-6.033588459640538623e-03,1.266401954696007998e-02,5.688486695289611816e-01
5.092301468577551393e-01,-4.057861182847827264e-02,-3.943718781862370903e-02,-5.483396862784412030e-04,-1.222669146153428782e-03,-8.535712487603522650e-03,5.494427680969238281e-01
5.533141679206972086e-01,4.424378238199910829e-03,-2.164387494856770400e-02,-1.350205243322247402e-02,-7.138712125464274569e-03,2.318076956362970578e-02,5.644289255142211914e-01
5.298523478758608851e-01,-6.514604466512669001e-03,-2.244564780096705570e-02,-4.182905239949188773e-03,4.877320750631530658e-04,9.622861435464195867e-03,5.448111295700073242e-01
5.352019759248966002e-01,-6.118211886367713737e-03,-3.701175823132121789e-02,-3.909456590858266349e-03,-3.470906743041009095e-03,7.217133228260857840e-03,5.576230883598327637e-01
5.030309643310439949e-01,-5.048301460372497940e-02,-3.685268960898346879e-02,1.192016073044555816e-03,1.686138297223553281e-03,8.197489652443086180e-03,5.470222234725952148e-01
5.317171619384936099e-01,6.868171656072175058e-03,-3.736455393987300755e-02,1.603947527376115532e-03,-4.966701586304766471e-03,1.309009084705205737e-02,5.488481521606445312e-01
5.376232791837529668e-01,-2.594535579315779272e-02,-3.062350529214091788e-02,-1.313092110669338355e-03,2.453894521600052296e-04,1.466063930384708079e-02,5.664963722229003906e-01
5.330074197718683848e-01,-8.531637604025921195e-04,-3.267769093261799207e-02,-2.193058950232076518e-03,-3.174009537950992551e-03,3.802984213363391763e-03,5.505431890487670898e-01
5.135882988289492967e-01,-1.597216020817923687e-02,-4.149108041547672210e-02,3.916092262502133235e-03,6.226050209397233394e-03,-1.154000061746103534e-02,5.432873368263244629e-01
5.250885133363831780e-01,-2.521397136322850452e-02,-4.847426926879230824e-02,-2.661779037105832871e-02,3.152541811590105214e-02,-1.600527663588318869e-02,5.674942135810852051e-01
5.405559484147921534e-01,-4.265320907719816201e-02,-4.126755282493865806e-02,-8.770351762597607690e-04,-3.282326574314554913e-04,1.437077229083380883e-04,5.825198888778686523e-01
5.609196949939116994e-01,-3.373410614691138565e-02,-3.421512654216590787e-02,-2.283752353844140624e-03,1.612795116381941091e-02,-3.170254829483503539e-02,5.980890989303588867e-01
5.732487080590009665e-01,-4.685209098309364717e-02,-3.621813577347007818e-02,-1.009618108179473339e-02,5.896443929551092172e-02,-2.701878781912526659e-02,6.252760887145996094e-01
5.434665529646052207e-01,-4.255747769044260220e-02,-4.313681801819546635e-02,6.344518964916184226e-04,-3.788559941711638402e-04,-7.022772690447818536e-04,5.863165855407714844e-01
6.218231762962780351e-01,3.750289872449133477e-02,-8.228856229730849292e-02,-6.646809274641463094e-02,5.588927327933773496e-03,3.839957398681835554e-02,6.659940481185913086e-01
5.388898549386698100e-01,-2.201610479007434784e-02,-4.544276452497603147e-02,-1.125690022416131301e-02,9.516976182534914175e-03,2.513177682255137270e-04,5.735473036766052246e-01
5.319163217860187753e-01,-2.583599689583174208e-02,-3.532817177441968659e-02,6.458928310053832283e-04,2.223962310427950607e-03,-4.520680502314184182e-03,5.626272559165954590e-01
5.338543665695255624e-01,-2.577273228322723986e-02,-4.218313109456992005e-02,-2.380306420450389784e-03,8.349530891142783670e-03,-3.458978167251663179e-03,5.682407617568969727e-01
5.136930157074204306e-01,-5.087039672992846318e-02,-3.741779944067852304e-02,9.948482684804158503e-04,-3.663878102942446529e-04,4.222168810877596941e-03,5.580096840858459473e-01
5.425802560144503683e-01,-4.365299433245004024e-02,-4.424643141674758362e-02,2.466979607047997702e-04,3.944063605603800328e-04,-1.570960725242404260e-03,5.865370631217956543e-01
5.085287882122238035e-01,-3.213583819521154128e-02,-5.758837849496531436e-02,4.167047442102110892e-04,8.679222469960737318e-03,2.158675664219109058e-03,5.540468096733093262e-01
5.187507759823393183e-01,-3.281041917899435445e-02,-5.635873167726043742e-02,7.173060791476447299e-04,-6.916555071420626153e-04,7.634678395460536490e-04,5.637085437774658203e-01
5.152750178156197958e-01,-3.256279463497407933e-02,-5.855510453769399715e-02,9.930569366368862966e-04,4.812303432823101965e-05,2.018221165482047934e-03,5.612990260124206543e-01
5.200343621681139394e-01,-3.298831596908369246e-02,-5.895667739895565918e-02,3.368060993953014923e-04,2.502950578683946561e-03,1.235377858451852098e-03,5.664743781089782715e-01
5.910784036856212564e-01,1.226387590787827997e-02,-7.512284483427542070e-02,-1.526093507922465231e-01,-9.517434572982787222e-02,5.345071020788387528e-02,7.062985301017761230e-01
5.201268151981763843e-01,-3.100203971993256702e-02,-5.884565152351273198e-02,5.721886593872649003e-04,3.175070024648448536e-03,-6.791719594675251848e-04,5.655937790870666504e-01
5.118142711227162689e-01,-3.446316673138599684e-02,-5.204715267217865926e-02,-1.261240834163707787e-03,6.590911765564931406e-03,5.940216530352438948e-03,5.554952025413513184e-01
5.201901329318669998e-01,-4.175901199987738788e-02,-5.221242599480174773e-02,-1.522634250048139886e-03,5.962336568665469252e-03,6.068290216451340847e-03,5.674455761909484863e-01
3.014200702947062438e-01,-8.006129663994757117e-02,1.700010727778783481e-03,2.245787745099808025e-02,1.204706222623323358e-01,-5.068719265317067624e-02,4.168725013732910156e-01
5.109781144985131585e-01,-3.684051425480139308e-02,-5.341526306400565249e-02,-6.573759114888097499e-04,4.281512101565641652e-03,4.756516344789863023e-03,5.564028024673461914e-01
5.260307091281324343e-01,-2.236801777223479393e-02,-1.978348744763316902e-02,2.840024672487324311e-04,-4.472890549646447804e-04,-4.652371010287409468e-04,5.471124053001403809e-01
5.217012962233973372e-01,-4.008185599071920069e-02,-5.160042131441924806e-02,1.236796364851159994e-03,4.953572531107867591e-04,1.829897125730902937e-03,5.676436424255371094e-01
5.217078328627996475e-01,-3.814547844136315091e-02,-5.391569017959824128e-02,1.814331506124769672e-03,-4.797861269783989364e-04,1.113077318730358372e-03,5.679152607917785645e-01
4.391502050992039941e-01,-3.246401782254074164e-02,-2.428425934709010914e-02,2.554510938645349408e-02,5.762686081381468428e-02,-1.665910906144389984e-04,4.801557064056396484e-01
5.975161038795268054e-01,-6.821796250181130783e-02,-5.164118643330856129e-03,2.619806671389108502e-03,-1.073790153491531105e-02,9.471667662519011460e-03,6.370527148246765137e-01
5.302551746758112916e-01,-5.013624953116385674e-02,-3.911017433812108424e-02,5.706332140520500341e-03,2.072135085701257845e-03,2.069635245169568032e-03,5.750650167465209961e-01
5.558195656209464763e-01,-3.839049807107339229e-02,-1.242583973213723381e-02,-1.097419326944945074e-02,-1.354595048731791797e-02,2.998044625310644293e-02,5.847559571266174316e-01
5.753595877528827618e-01,-4.142224547543560398e-02,5.709658452654448046e-03,3.094838793574451741e-03,-1.579416142005309054e-02,2.133429186905947891e-02,5.964173674583435059e-01
5.263124271473222926e-01,-1.398214738763969844e-02,-3.618764740055860352e-02,-3.499553689370496316e-03,2.702066471986426001e-04,4.324737078512956925e-03,5.518168807029724121e-01
5.419202032004520886e-01,-5.481055498278636362e-02,2.192412576997912477e-02,4.316731041395430353e-03,-1.466761648779812098e-02,5.477894105330447162e-05,5.629273653030395508e-01
4.958044112323500840e-01,-2.746706052536065923e-02,-5.122279716196939670e-02,-6.159555945929571803e-04,8.247175813189728697e-04,-3.384472633195401408e-03,5.355796813964843750e-01
5.497737940515755595e-01,-4.969053790325198006e-02,-2.514063383240233707e-02,4.662509539198077257e-02,5.175385233033819726e-02,1.888061749082118115e-02,6.007244586944580078e-01
5.156258780570063260e-01,-4.801110998036173250e-02,-4.123237795836445785e-02,1.078310389523722598e-03,1.393416849009954323e-03,8.063813752737767487e-03,5.604607462882995605e-01
5.315005111856487829e-01,4.081158788611871646e-03,-3.339415825354841161e-02,1.968187977828751711e-03,-2.627172256050477796e-03,1.981332469919300926e-02,5.482251644134521484e-01
5.741005387667406090e-01,-4.271356436770554210e-02,3.791004472906284173e-03,-1.554158123725163029e-02,-6.081044779326528517e-03,2.353369595525196117e-02,5.970215201377868652e-01
5.602206019645971091e-01,1.829420615282942308e-02,-5.753611371809183583e-02,-5.664115562832971150e-03,6.431254812532771065e-03,2.115847546688299011e-02,5.848865509033203125e-01
4.412817783754434120e-01,-4.369996934780237541e-02,-1.744992254522950703e-02,-6.869605259503199944e-04,-7.354775194878246841e-06,-7.921061711494373908e-03,4.726047217845916748e-01
4.641911935815142831e-01,-2.480966451923866112e-02,-3.591975593866580940e-02,-5.081869373333588010e-05,-2.825041239611546457e-04,1.341044198971768318e-02,4.951947927474975586e-01
5.409288563742995493e-01,3.163905229722185908e-02,-5.965731085673348089e-02,5.936330271918985671e-03,1.620577821659967277e-03,2.943950610054436087e-03,5.606666207313537598e-01
5.324345260013472192e-01,-4.120531442774069686e-02,-4.705700851830618703e-02,-7.592157932244215186e-04,6.678435488236851699e-04,-4.374425760656353371e-03,5.766403675079345703e-01
5.454413701963047867e-01,1.846130397971387782e-02,-5.717532705812908289e-02,-1.688605798942373120e-03,-1.610877072585305747e-03,1.010535557056780470e-02,5.688678026199340820e-01
3.305655688013558469e-01,-4.191098506232532328e-03,-3.668100903027451953e-03,-2.253234412054216495e-03,6.756361577543376629e-04,2.977953398164460801e-03,3.345600664615631104e-01
5.365876820729282848e-01,-4.245963216561859932e-02,-2.110090824383697994e-02,-1.830987961024185861e-03,6.170846981842690281e-03,1.998821504851056377e-03,5.687886476516723633e-01
5.141907351187717801e-01,-4.906860396033199678e-02,-3.344297034705723259e-02,4.982597971851547222e-03,2.087123618146927932e-03,-2.613032772198701625e-03,5.557085275650024414e-01
5.291132099722382076e-01,-3.995254086429966822e-02,-5.243763193656869603e-02,-6.378112479746334039e-04,6.979593424824646029e-03,2.703029347595069937e-03,5.755569934844970703e-01
5.366187948035808786e-01,-4.009998316136692553e-02,-4.524976838653985145e-02,-1.959515970860478164e-03,2.971124876239929040e-03,-2.129169262321887503e-03,5.793553590774536133e-01
5.169241334506533558e-01,-5.497595629421064833e-02,-3.569833952994133641e-02,1.075281081763932193e-03,1.202837163931649942e-03,1.719027451858009268e-03,5.625239014625549316e-01
5.285107666176678265e-01,-4.229928798855139838e-02,-4.283899630365739508e-02,-4.376605464209235713e-04,-5.165463138180576919e-04,-3.153680916547317928e-03,5.711074471473693848e-01
5.463542332704931503e-01,2.128861592784170309e-02,-5.177544498490013747e-02,9.160754344371573369e-05,2.803586307925126642e-03,1.620171188032977147e-02,5.658681392669677734e-01
5.475616665739635458e-01,-5.674503037698064301e-03,-4.808077154347878412e-02,-1.125849065820812116e-02,-5.304744431779314685e-03,6.024809539227155876e-03,5.761100649833679199e-01
5.363137387767160646e-01,-3.595080626787156008e-02,-3.314624928540294002e-02,-3.737051947522758953e-03,-3.151364877565304094e-03,1.111668106038121544e-03,5.709334611892700195e-01
5.495210504155443321e-01,-1.905638581920165997e-03,-5.892926160782213652e-02,-1.035772285080919196e-02,-1.698620318393280352e-03,1.688570752749963405e-03,5.823284983634948730e-01
5.362313313768776180e-01,-3.403420211750296520e-02,-3.417886315893747806e-02,-1.659084362860216173e-03,-1.707375665724737398e-03,3.923355335683044519e-04,5.703532099723815918e-01
5.593176739506579009e-01,-5.976074632485470217e-02,-2.864616526318972123e-02,9.733127576753938803e-02,1.017441362284757511e-01,3.483393843208595214e-02,6.542780399322509766e-01
3.722023678707809813e-01,-3.008656363126127609e-02,-1.301075274298958695e-02,4.852817148847209106e-02,9.381616231336665926e-04,7.296867661320980032e-03,4.030953645706176758e-01
5.111779834551071211e-01,-5.444063726043396612e-02,-2.924007018665761293e-02,-8.751633935802702793e-06,-2.785940911696455947e-03,-6.250473763099632409e-03,5.535756945610046387e-01
2.288220931799007651e-01,2.747650725166241731e-02,-2.574504595702978293e-03,7.876940756309251668e-02,-1.124005576208390866e-01,-1.162925855082555700e-02,3.231330811977386475e-01
2.496343326450626288e-01,-5.892362000104928166e-03,-6.181146780055209178e-02,8.994485681393170340e-02,4.806909046064420515e-02,-3.712612725052615720e-02,3.435794711112976074e-01
5.435784674365036206e-01,-4.523945210066945832e-02,-4.446937699927430709e-02,-6.254830199129279974e-04,-7.320518240150222875e-04,1.054295841224690377e-07,5.884356498718261719e-01
2.855001225704738577e-01,1.596859722352329813e-02,-1.898932577488589291e-02,4.930767867560279655e-02,-5.575837488578124076e-04,6.379906343888581315e-04,3.009774982929229736e-01
4.472556181793215790e-01,-3.556057364553380506e-02,-2.509518824560955097e-02,2.211825161751758417e-03,-6.494039976921822362e-04,-9.297428124091546009e-03,4.779575467109680176e-01
4.613866089118983105e-01,-1.883541210603992266e-02,-1.001632472464314971e-01,1.472602167218450553e-01,-3.257833795334614396e-02,-3.935485360975823910e-02,5.909060835838317871e-01
4.474952956595803499e-01,-2.974361866659316900e-02,-2.868852241504243894e-02,7.523050961330053632e-02,8.683439642783183712e-03,-1.524222181566808020e-03,4.944356679916381836e-01
3.027952189189694332e-01,-4.376713896676320825e-03,-4.252591384086040760e-03,6.132848866707051039e-02,-4.899745700321420788e-02,1.576828375116881564e-02,3.369691371917724609e-01
3.145790503287856921e-01,-4.017068988189445577e-03,-7.939132136518811667e-03,5.119835598012954098e-02,-3.186440478317453806e-02,1.593585781937071483e-02,3.382899761199951172e-01
5.096526443685686081e-01,-4.927061510139435496e-02,-3.872099763409264650e-02,-2.737977953299490508e-03,-2.488850874217540397e-04,8.298852134005472309e-03,5.539308190345764160e-01
4.538667817071657673e-01,-1.684426146999368212e-02,-4.538572007718247314e-02,-2.063826990538252925e-03,1.964594340320113472e-02,3.984695369469345972e-04,4.868156015872955322e-01
4.579342337277665376e-01,-4.468467984288765349e-02,-3.308088566128694619e-02,-1.864338863816099312e-02,-2.203275888685446091e-02,-9.809068042279480912e-03,4.997157752513885498e-01
3.843073395813515480e-01,-1.672799868237871690e-02,-2.351676082820251812e-02,-4.419287607915207798e-03,2.850081045352878539e-02,8.951116700935941514e-03,4.078404307365417480e-01
4.723617048656866269e-01,-2.314211959320688905e-02,-4.950578288026921681e-02,7.168644873675521743e-03,9.917086161428726593e-03,4.395395447408878033e-03,5.096955299377441406e-01
4.413672369906890824e-01,-2.259618390885383132e-02,-4.552666011548610336e-02,-1.499596457781779673e-03,4.479501340513192265e-02,6.357146063837320130e-03,4.822598099708557129e-01
5.052657627354326664e-01,-4.972622507457996610e-02,-3.509896899984699115e-02,-1.076643228870057499e-02,6.283396154293872070e-03,3.767784581111415215e-03,5.482890009880065918e-01
5.035909932855184845e-01,-3.491913810462946022e-02,-5.037508541167637355e-02,1.302362543851440062e-02,2.073077147971991857e-02,8.248769279802040675e-04,5.480468869209289551e-01
5.290375447101078876e-01,-4.319219181234279503e-02,-3.877652850590257438e-02,-1.032781973151796753e-03,3.567008625022954817e-03,5.674217263943025918e-04,5.700718760490417480e-01
4.684522216619262380e-01,-2.223577945390328714e-02,-4.918525970293952110e-02,-5.747496611588290803e-03,9.751980629594555680e-03,5.656142417414922359e-03,5.051783323287963867e-01
3.825154714169782255e-01,-1.663214492955754353e-02,-2.345919166563613378e-02,-5.273556265427071371e-03,3.262897124736705012e-02,8.933854284089114833e-03,4.069487154483795166e-01
5.315960979590155233e-01,-2.798880554648031094e-02,-2.943436865024351423e-02,-2.378157366720823080e-03,2.699371029475237677e-03,-3.802446098445889152e-03,5.603824257850646973e-01
5.299245918274408940e-01,-2.565943395656486437e-02,-3.499063326649731742e-02,3.461001905927559973e-04,1.674413336852097461e-03,-4.612247014221279411e-03,5.603726506233215332e-01
5.338040066233558090e-01,-3.220836079169878130e-02,-3.824965244962333366e-02,-1.498669827213516652e-03,1.866557864592551874e-03,-9.689178226340550528e-05,5.690721869468688965e-01
5.317353611441235639e-01,-2.092546474638809495e-02,-3.494366369389190208e-02,4.344460609634366935e-03,2.767531371769563642e-03,-3.604096660443391158e-03,5.599074959754943848e-01
4.632569212057573438e-01,-4.082746763405864510e-02,-1.724126220602131832e-02,-1.259009617159104807e-03,-1.188170491452072725e-03,1.356865477739249877e-02,4.932841658592224121e-01
5.507740568801096082e-01,-4.462638385774742034e-02,-4.200462538557378500e-02,1.256535657143710571e-02,-6.836842187550154319e-03,2.209426294479541024e-03,5.946226716041564941e-01
5.283332276728909260e-01,-1.121424142580235150e-02,-4.015101286792008284e-02,-1.095030299773061141e-05,-8.833370370229930591e-04,-3.507868090578400606e-03,5.546177029609680176e-01
5.492216338173637746e-01,-1.761385700547657418e-02,-5.972868468554184962e-02,1.003608134295031970e-02,1.639101558126163788e-02,-2.770887327794931826e-02,5.919120311737060547e-01
5.304048430445968965e-01,-2.735321217128380833e-02,-4.233285116503715528e-02,1.988541067446569516e-03,3.094627862476194598e-03,-1.264513071792093849e-03,5.654368400573730469e-01
5.392790857439029306e-01,-5.030245823693085816e-02,6.195348583779569651e-03,4.251162142397889657e-03,7.365226079482274819e-03,-2.777588636195092373e-03,5.636740326881408691e-01
4.858382077940190946e-01,-3.763532745805892032e-02,-3.970400390964315407e-02,-8.031202636103513051e-03,3.813768006983619951e-02,8.362796567749852805e-03,5.290354490280151367e-01
5.257777154121744401e-01,-4.300047655586369810e-02,-4.685196884466963363e-02,4.503391115177020516e-03,-5.145779401638624767e-03,2.527831143957698107e-03,5.708533525466918945e-01
5.327964428065981028e-01,-2.810239505479872335e-03,-4.411378964818868376e-02,3.801798693036706478e-03,4.690792651728697971e-03,2.390613875674619387e-03,5.575208067893981934e-01
5.365545410130039272e-01,-4.064286731494937133e-02,-2.845158035269096386e-02,1.150852471728053489e-03,4.488590931616673330e-03,1.087840402734602875e-04,5.712557435035705566e-01
5.335205499400840212e-01,-4.375364189323474595e-02,-3.734015276595953337e-02,1.841402134572060485e-04,3.787810553303971829e-04,3.406887560149346982e-04,5.740950703620910645e-01
5.174363925067486658e-01,-6.121344356285748911e-02,-3.540185976720147676e-02,9.161535743165177131e-03,-4.474237187874382550e-03,1.707857635113884786e-03,5.664685368537902832e-01
5.027756579251987379e-01,-6.103584237049783368e-02,-3.080382554983610022e-02,1.166152369914345149e-02,-9.794703133346501899e-04,2.958689544349872493e-03,5.497174859046936035e-01
5.001234116649185824e-01,-6.022072292973876251e-02,-2.673496919153375839e-02,1.232434243374930238e-02,-4.503256289381950446e-04,9.816451134695423127e-04,5.447958111763000488e-01
4.230569729604915508e-01,-9.537592532371297338e-03,-3.566144788365599450e-02,-3.346946513809768119e-03,1.371295660697087341e-03,5.981250523101240731e-03,4.463945925235748291e-01
3.819400228870918901e-01,-1.992690733377282253e-02,-4.945273292231142093e-03,-2.206125683497314055e-03,7.218960133631575600e-04,1.149707063676757950e-02,3.951120972633361816e-01
5.143879788765083338e-01,-6.093299521446993161e-02,-3.036713171151056434e-02,-6.949661354844537207e-04,9.886659396106027651e-04,-5.888741971495169538e-04,5.606681108474731445e-01
4.370145443935291030e-01,-2.322325221270160611e-02,-4.444610255309761060e-02,2.790482199985184694e-02,4.657473984771951653e-02,-4.332147986199283429e-03,4.805587828159332275e-01
5.296261688473639095e-01,-5.199215987594682509e-02,-4.171369577085379254e-02,4.500932972681804048e-03,4.921044397248137883e-04,5.024465542806332528e-03,5.766668319702148438e-01
5.317727896715450653e-01,-4.793752653335281444e-02,-4.461547600842258321e-02,-1.037325526779463766e-03,1.105783618267276887e-04,-3.990439946309591861e-05,5.780592560768127441e-01
5.332570247616913450e-01,-4.983212682114965264e-02,-4.472929887418619632e-02,-3.989401887921480106e-04,-1.023518467599333556e-03,8.274818355772785121e-04,5.805594325065612793e-01
4.449009989318516434e-01,-1.824137051590168923e-02,-3.794648096109470847e-02,-1.920470451754601902e-03,-1.357031966059835506e-03,-6.279528910138515267e-03,4.734451472759246826e-01
5.212663968284793059e-01,-3.488875925320747418e-02,-4.155266575909999371e-02,1.290870418243268529e-03,-1.113806438816895318e-02,-1.844894115466103393e-03,5.598629117012023926e-01
2.728259709455864712e-01,5.265181494413115337e-03,1.622514324132681707e-02,-5.121649516646569963e-03,1.921834847763375861e-03,9.808819717298511692e-04,2.624292373657226562e-01
5.304268703964201137e-01,-5.026986129786414903e-02,-4.512164989736386356e-02,1.211963781891761423e-05,1.879812195167125481e-04,1.170812566356219109e-03,5.781434774398803711e-01
5.032407356809396326e-01,-5.593503854510156748e-02,-3.290960245968210796e-02,-3.098657500118887922e-05,5.816452246403699912e-04,6.479552195803314936e-03,5.481417775154113770e-01
5.322929795640783945e-01,-4.945410603826558282e-02,-4.637651863354330661e-02,1.710378100181572810e-04,2.291155065378627927e-05,9.027211767856564226e-10,5.802145004272460938e-01
5.223276253644650868e-01,-3.939782875735634016e-02,-3.862581457575661736e-02,2.029579326535783761e-03,-1.544772048313840370e-03,9.787972352903286707e-04,5.613597631454467773e-01
5.310189739399204800e-01,-4.798990315782322713e-02,-4.769488630037643784e-02,6.985600126279970434e-04,-6.753478634841834308e-04,1.304350230396691436e-03,5.788682699203491211e-01
5.888287070519470090e-01,-7.772357221667050564e-02,-7.158943999762745758e-03,2.793287894652342861e-03,-2.457251426209937015e-02,-4.765808877210456034e-03,6.357194781303405762e-01
5.514948869792053454e-01,-6.301577169501726416e-02,2.030753321808898004e-02,1.850006397048013567e-03,-1.620334723656694648e-02,-9.752768568603584556e-03,5.783133506774902344e-01
8.249420560204219210e-01,-1.346824278287469534e-01,1.891183432307466661e-02,5.770542829188769762e-02,-6.919266035370695567e-02,-1.594433234307487263e-02,9.067484736442565918e-01
4.751018669627514734e-01,-6.662214540139668739e-02,3.783672840225062173e-02,4.548455162419674097e-02,-1.460174462214959279e-01,-4.981930706044419843e-03,5.639441013336181641e-01
6.647489126716243923e-01,-7.425931131001994867e-02,2.189348849421776655e-02,8.296384683544534566e-02,-1.198876361882981467e-01,-6.370778387780515715e-03,7.404125332832336426e-01
5.849041890289664591e-01,-7.197354373409153849e-02,2.187103668572695780e-02,1.737051297700165434e-02,-3.170049884504624188e-02,1.679565759897871241e-02,6.192067265510559082e-01
5.582902423028623939e-01,-6.351746162438662302e-02,3.480233657414211201e-02,-4.136540969454425773e-03,-1.419437033307490055e-02,7.806156466770240374e-03,5.796672701835632324e-01
5.706922338738046330e-01,1.717476711474044682e-02,-5.339976578005822816e-02,-1.353829672838034459e-01,-5.910269716823629560e-02,2.623839614253799246e-02,6.464959383010864258e-01
5.553590305844999797e-01,-8.257116792625543433e-02,1.053299160863666040e-02,2.256755769797837846e-02,-2.646252759935144652e-02,4.172495865927485122e-03,5.999252200126647949e-01
5.359256643437768641e-01,-3.366505674415515292e-02,-2.720362020495417643e-02,-8.397947049345742127e-03,-6.093481725927512964e-03,6.583420571998929542e-03,5.667874217033386230e-01
5.752588100450859443e-01,-7.412950230752171632e-02,9.115181804866590021e-03,-2.423622752716363474e-02,-1.165708247170288703e-01,5.800487580740631977e-02,6.536045074462890625e-01
5.401248473683789575e-01,-1.550706802795645545e-02,-4.538733781468370920e-02,-2.360976362714228491e-02,6.849853357797332926e-03,6.038021023622463547e-03,5.728389620780944824e-01
5.494908360683974369e-01,-4.965088913466281229e-02,-9.164059021897374979e-03,-4.260488612315802698e-02,-7.056799411376005193e-02,2.919361962911890332e-02,5.994117856025695801e-01
6.058131544950348113e-01,-2.383953705179128746e-02,-5.075170623544908444e-02,-1.587236988810622820e-02,-7.267801843199157147e-03,2.980296533241406573e-02,6.463056802749633789e-01
5.563007054399541351e-01,-3.228937758770755728e-03,-3.657050347715981586e-02,-9.389719194505780769e-03,-7.252204977019147819e-03,2.573050995457856413e-02,5.790070295333862305e-01
5.739462310988884264e-01,-3.281355386756357184e-02,1.110549192450280276e-02,-1.069699222048786647e-02,-1.981139236794562594e-02,2.912730565432444449e-02,5.894946455955505371e-01
5.270667933572203978e-01,-7.943762854674824014e-03,-1.592282050696985918e-02,-5.142958362454948251e-02,-7.110699301225116564e-02,5.381243641190922716e-02,5.677673816680908203e-01
5.215417057755262764e-01,-3.492783459709927762e-02,-5.186549967944029116e-02,1.261671319277531513e-03,-1.441223280638751110e-03,-2.118341354498817167e-03,5.651504397392272949e-01
5.149750369249582738e-01,-3.108993721415573286e-02,-6.089521868865471754e-02,7.979483362674094638e-04,-9.564333476812663954e-04,-6.879610323650745506e-04,5.615665912628173828e-01
5.228109775272895554e-01,-3.547275075636763253e-02,-6.057402340816919750e-02,-5.596261565683232188e-04,6.584652747908138065e-03,-1.285941701760519350e-03,5.713671445846557617e-01
5.340477383270766376e-01,-2.948676228805580113e-02,-3.398493700156446362e-02,-1.392718623197919359e-04,-4.024362782706689470e-03,-1.774605661155595178e-03,5.658483505249023438e-01
5.238316197694944387e-01,-2.456392150190622736e-02,-2.156813357022485667e-02,2.160673468713669981e-03,1.540965370914487318e-03,6.250986268650584893e-04,5.469241738319396973e-01
5.043107101679338289e-01,-5.658100142266622723e-02,-2.957027195183828394e-02,5.313664305196425268e-04,-1.620003900617080655e-04,3.474033193507732910e-03,5.479198098182678223e-01
5.325889815140263384e-01,-4.410903872924543112e-02,-4.655815684035449764e-02,-7.051950530078501030e-04,1.693198880311852636e-03,1.467894429246248270e-04,5.779352784156799316e-01
5.061599255947546450e-01,-2.904612468970488304e-02,-5.882604297021584716e-02,-7.342723046424642561e-04,1.215297334295596665e-02,-3.059796214050702554e-03,5.511293411254882812e-01
5.264986386847051447e-01,-5.305833007196872342e-02,-4.037454045071381392e-02,1.325860210072276734e-03,-7.144174995082400691e-04,2.368300103131568222e-03,5.733408927917480469e-01
5.263471681361051591e-01,-4.984111892865841775e-02,-4.546888568511156525e-02,4.675880167088718176e-03,-2.165499400771207002e-03,3.715702290768325630e-03,5.741201043128967285e-01
5.453997065323517024e-01,7.289040680790948024e-03,-5.429978864275769590e-02,-5.102593262631250834e-03,1.349175385345254604e-03,-1.910591245758457750e-03,5.714826583862304688e-01
5.312432422945279065e-01,-5.029721556098534774e-02,-4.335701783405829235e-02,4.182214682045713380e-03,1.770433751716097431e-03,3.592567813468519611e-03,5.781885981559753418e-01
5.220572439804231912e-01,-4.946181534887089670e-02,-4.422146461204326529e-02,4.720687771617701478e-03,-1.051068149367557114e-04,4.103821392589857009e-03,5.690201520919799805e-01
4.802112900692111497e-01,-5.808388490847365970e-02,-2.307831735702028930e-02,-3.733398456897211982e-04,7.167967509986247375e-04,-9.406457345608015526e-04,5.216783881187438965e-01
5.239414466365017731e-01,-6.024964762380438654e-02,-3.501593610332368045e-02,6.831891762225880162e-03,2.211365765354952016e-03,-2.279716629714642617e-03,5.721406936645507812e-01
4.649260889202603830e-01,-4.516852838680737725e-02,-2.577975619626066139e-02,4.798634046766170010e-04,2.296022873563990669e-03,7.217495088082202977e-03,5.008543729782104492e-01
4.864417640194955705e-01,-5.627704311961445605e-02,-2.737823422711843646e-02,-1.438348869181906367e-02,1.210426772419647898e-03,5.114340226200596708e-05,5.294525027275085449e-01
5.036530276125383843e-01,-5.870213095144927173e-02,-2.963939138361271208e-02,1.097149947402787339e-02,1.654508844576033522e-03,-2.093100789446915907e-03,5.487502813339233398e-01
5.056308200497193761e-01,-5.767444171239177741e-02,-2.939353884255793692e-02,1.264617183946269499e-02,-4.858879498524800410e-04,-3.482560639089321390e-03,5.501806139945983887e-01
5.222195722349374236e-01,-5.696489142266189520e-02,-3.527736935558431486e-02,-4.837508021994080514e-04,1.244905350111320070e-03,-2.650862951284384955e-03,5.686742067337036133e-01
5.117787489606764328e-01,-4.044017812684549962e-02,-5.283253607962606901e-02,5.145030561679601790e-04,-8.129545840797268138e-04,-8.732994784218052475e-03,5.587254762649536133e-01
5.332393586518061612e-01,-2.337660224731277769e-02,-2.642474666919814030e-02,4.321353744844587375e-04,1.058560805068758676e-03,-6.384015873073807523e-03,5.582593083381652832e-01
5.331380167976444984e-01,-2.350296827081457818e-02,-2.438276635106229051e-02,3.741526988178347102e-03,-1.022517046387548447e-03,-7.967703059504682023e-03,5.572928190231323242e-01
6.154857390142868256e-01,-4.590248673701857740e-02,-7.376551429353059297e-02,1.674372334381944161e-01,-5.339621072549021602e-02,-7.516547806645615393e-02,7.524943351745605469e-01
5.152788820515767920e-01,-5.633239678817389406e-02,-3.788809739915691144e-02,5.063879564232618017e-07,7.174859680852192128e-04,-2.775103158876259489e-03,5.626378059387207031e-01
5.302856473419043093e-01,-2.708113503522377452e-02,-2.590921466272869123e-02,-3.349874511515456158e-04,1.727112741248768577e-03,-4.796552715575645547e-03,5.568520426750183105e-01
4.449911636544590654e-01,-2.166080249240481814e-02,-4.452019188281663986e-02,4.076742496324029137e-03,-3.758396399298463697e-02,6.291113328483496567e-03,4.830737411975860596e-01
5.387029584313216546e-01,-4.084982058173702857e-03,-4.920625828637190113e-02,-1.643196526922752372e-04,6.844631210827053190e-03,-1.396637485589200195e-03,5.668266415596008301e-01
5.078867633200442322e-01,-5.730813298559717106e-02,-3.382067052077383784e-02,-1.235042192598393394e-03,-1.156041045163602038e-03,-1.346062146646875715e-03,5.538374781608581543e-01
5.280011069647818633e-01,-2.307342972321801966e-02,-1.773622702376231874e-02,2.034916196293052020e-03,5.373934875529040242e-04,-5.012769637785474859e-03,5.485062599182128906e-01
5.297444062369335294e-01,-2.194029413490619640e-02,-2.091953782837305265e-02,2.914788529335212569e-03,1.951654342396673446e-03,-1.008732502843307476e-02,5.514853596687316895e-01
5.422039626243488897e-01,-4.044861182398501454e-02,9.065277506232205518e-04,4.722211239794225739e-03,-5.019761922553078390e-03,-4.192337517016457397e-03,5.632883906364440918e-01
3.335921333507474440e-01,1.075677560483760675e-02,-4.231023913487827470e-03,-4.335981435760440789e-03,-3.443470726356112968e-03,3.958158388962448870e-03,3.307943046092987061e-01
5.403049496890180992e-01,-4.182971034159829737e-02,8.059884794256899632e-03,1.383542246902891987e-03,4.415062153747682100e-03,-1.125115120581136191e-02,5.592595338821411133e-01
3.257949800977546495e-01,-3.450870033174935347e-02,-1.032923992767864618e-02,8.771364757347269170e-02,2.941766975361179495e-02,-3.023310062898123315e-03,3.839220106601715088e-01
5.762950657629826168e-01,-1.017854659911490711e-02,-7.017834472569423054e-02,-1.413645804298445663e-01,-5.393229954709073681e-02,5.830821996206967534e-02,6.794240474700927734e-01
5.328554318258549305e-01,-2.722086203189524878e-02,-8.848100572648509576e-03,3.495126790585640557e-04,3.056852283779009933e-03,-8.052897033829151119e-03,5.513218641281127930e-01
5.317201778304438964e-01,-2.697657981015133544e-02,-6.825517377575168743e-03,-1.006816232263956119e-03,2.115787826785296526e-03,-6.953547353851744807e-03,5.490458607673645020e-01
5.443004565895690483e-01,-3.526134930948598978e-02,-3.552749320633438734e-02,1.690322441157759981e-02,9.088724416461729100e-03,-2.702288158328371159e-02,5.825305581092834473e-01
5.331043823508978541e-01,-2.834205181150764585e-02,-1.431538019904460279e-02,2.027919366188001785e-03,-2.448768717841384138e-04,-2.120429999482560147e-03,5.545896291732788086e-01
3.952211664834851534e-01,-2.178978447272134078e-02,-6.998759509533436507e-03,4.489260751315597014e-02,-1.471472806599655484e-03,-4.219721569362225831e-03,4.171988070011138916e-01
5.598253007230382661e-01,-6.053125886618759832e-02,1.614432509520655201e-02,1.218710719987313711e-03,1.949665363071739722e-03,-6.384043488981208658e-03,5.859124064445495605e-01
6.477227441750299519e-01,7.342969752479194812e-03,-3.274123681226018268e-02,-7.647492390558874829e-03,-1.936192097317078128e-02,6.096870462259657703e-02,6.706815958023071289e-01
5.334150196634335206e-01,-4.475152274138047281e-02,-3.844816023264591154e-02,2.330498771547871457e-03,-1.086044765344432563e-03,-7.261676150534178116e-04,5.750594139099121094e-01
5.353375190361908675e-01,-3.083019955338950346e-02,-3.365278997189999344e-02,-2.640094739216876027e-03,-2.345439504982435586e-03,2.480172537932538463e-03,5.676335096359252930e-01
5.529560463291849359e-01,2.714772459253500525e-03,-2.465940754990919581e-02,-8.106642072422906575e-02,-2.074861044989897291e-02,5.679720534356098166e-02,5.909837484359741211e-01
5.606255884782540555e-01,-3.999514863687267385e-02,-1.309238049473693266e-02,-5.622633160791579848e-03,-3.159428058714819181e-03,1.618880418875174448e-02,5.884060859680175781e-01
5.415944904367866464e-01,-1.789365854403546230e-02,-6.256242142741189061e-02,-4.576602131874041995e-03,-5.340670188862310826e-03,-1.556931134148174236e-03,5.832406282424926758e-01
5.075562082011451093e-01,-5.361994310037390687e-02,-3.702734906461713216e-02,-6.752794798807510920e-03,1.163594853885631120e-04,5.137135053994532942e-03,5.532618165016174316e-01
5.262624446013655088e-01,-5.334070974970520074e-02,-3.639687960189610938e-02,-1.099405419015989462e-04,-1.324952594659160572e-03,-8.825764364359699795e-04,5.713263750076293945e-01
6.471296646947196640e-01,-4.335520793491617897e-02,1.714075208394055805e-02,-4.332585861859068396e-03,5.888440406942212560e-03,3.300126865645769403e-02,6.648948788642883301e-01
4.923072337762098849e-01,-5.399583212074460237e-02,-2.748955608675798801e-02,5.349414907149425708e-04,-4.987506091739794421e-04,8.054898445860816806e-04,5.335472822189331055e-01
5.938465785737869762e-01,-4.632607972870786406e-02,-3.398038519033877436e-02,-2.198957956848271098e-02,2.945834960829541924e-02,-8.969849450489784590e-03,6.374679803848266602e-01
6.484945577803660210e-01,-7.374814076526753359e-02,1.581637461312246362e-02,5.579001852859423807e-03,7.228887208127279113e-03,2.981217203902821952e-02,6.840215325355529785e-01
5.369775023224326871e-01,-4.476512028379645014e-02,1.380283634706266915e-02,-9.368361035532523501e-03,-9.480803049327208437e-03,2.354246111246037845e-02,5.567575097084045410e-01
5.718626737022765028e-01,-4.111875359015912390e-02,1.704774066876124650e-02,-1.506877655298655833e-02,-1.776492843098957317e-02,3.063231564302121290e-02,5.898454189300537109e-01
4.345358896520246095e-01,-2.344184394073825506e-02,-3.338981991295797425e-02,-1.303907389190776377e-03,2.172431659519266645e-02,-9.305886817051960136e-03,4.648432731628417969e-01
4.583866617810676836e-01,-3.707287329867373082e-02,-1.799706126842304243e-02,1.555891729065144932e-02,-1.280431745699439974e-03,-4.505093936288946492e-03,4.870162010192871094e-01
4.371216064389273348e-01,-2.838233334938597419e-02,-2.948322602422634442e-02,2.732430307145797266e-02,7.897505660366238231e-03,-1.295169205676144179e-02,4.691884517669677734e-01
5.062228851506600513e-01,-5.684707274275535571e-02,-3.441577690091063291e-02,1.687723578343256620e-02,7.972677422072275630e-03,-9.138981175866764742e-03,5.533681511878967285e-01
5.403932719097443993e-01,-4.697939279163126924e-02,-3.676232699533343862e-02,6.318774941958084975e-04,-8.205653340626855100e-03,-7.059845126721478936e-04,5.825070738792419434e-01
5.456627932651934021e-01,5.180219792788598454e-05,-4.044897036697581161e-02,-7.576751176911622997e-03,-2.756994119188497421e-04,1.729446324197145973e-02,5.678900480270385742e-01
3.938461515398588020e-01,-2.062163823543788910e-02,-2.407258921386287720e-02,2.395775883562358856e-03,3.764426520537079296e-02,-6.368485043131999826e-03,4.214450418949127197e-01
6.505443605805673046e-01,-6.104126423488751008e-02,3.399885244771286286e-02,-3.707118473612330128e-02,-6.595509773880009474e-02,4.607168906292787719e-02,6.865117549896240234e-01
4.304702888880156397e-01,-4.308949207893686406e-02,-5.964885633245708974e-03,-1.922796660195235340e-03,2.018465490439035406e-03,2.099236691682720198e-03,4.561720192432403564e-01
5.392058061888154175e-01,-2.139660109651600473e-02,-4.985959859915656267e-02,-7.207874527943636256e-03,3.966239016833954245e-03,-1.296610897528869709e-04,5.755386352539062500e-01
5.158221373014783007e-01,-5.025894681998968605e-02,-4.372439152138787866e-02,7.236812069282698087e-03,1.385048326478864611e-02,-1.118966367767809146e-02,5.638259053230285645e-01
5.208904390535351592e-01,-3.146014448801387475e-02,-5.648500026012903685e-02,2.246514929664562583e-03,8.937822842478007818e-05,-8.469966436293806201e-04,5.652939081192016602e-01
5.221134587979497921e-01,-3.434626805766646807e-02,-5.929852426014031730e-02,5.757265026473158426e-04,1.329848685291635212e-02,4.249823900424728497e-03,5.698602199554443359e-01
5.194708988263357918e-01,-3.247183801077543897e-02,-5.906938340661002651e-02,1.169722736377605370e-03,1.353875165497015788e-02,3.849181671970445563e-03,5.662393569946289062e-01
5.213575829621371893e-01,-3.354439518192392500e-02,-5.730751231465133766e-02,1.344968501225427254e-03,5.402755611429207582e-04,4.250121906821589216e-04,5.671630501747131348e-01
5.320522236964870810e-01,-4.265882881030300111e-02,-4.740727196209057470e-02,5.234887929915355139e-04,1.989861513401339557e-03,2.692639646204278599e-03,5.771297812461853027e-01
4.989600140503205328e-01,-6.301813857559046550e-02,-2.539459445002392735e-02,-1.345515317489230037e-04,3.351594395009384851e-04,-1.844040276101871099e-03,5.441524982452392578e-01
5.207880854889508360e-01,-4.332716350817680806e-02,-3.366680428936635883e-02,-1.532698674253472546e-02,2.807504195806401204e-03,1.455937095814930889e-03,5.600040555000305176e-01
9.807194613771424985e-02,2.332548380669646412e-02,8.467972070527393647e-03,-3.156274261784758339e-02,1.386330505361170473e-02,-4.407053599069626557e-03,1.026732027530670166e-01
5.165015196606046466e-01,-3.364217528403370960e-02,-3.005525483416415788e-02,-5.267543864095667813e-03,-1.794551919190754026e-03,3.868808429005507823e-03,5.484846830368041992e-01
5.070225053051384823e-01,-5.847377597848521513e-02,-2.652485510263952184e-02,-5.702374943036626724e-03,3.793939679692132517e-03,3.865990185154709411e-03,5.503865480422973633e-01
4.315462109850599637e-01,-4.361695286973735208e-02,-1.402899656016970420e-02,-2.051528603194728052e-03,5.923480928743404621e-05,-2.203966859114912368e-03,4.611112475395202637e-01
5.017269279772135215e-01,-6.220317926773408224e-02,-2.755425400050096063e-02,6.540974504046499598e-04,1.977928050675714818e-03,1.793369919520112566e-03,5.474493503570556641e-01
5.141574104484306629e-01,-5.660411638959395031e-02,-3.420328288793658689e-02,-1.973070949530942100e-03,2.563556865088979873e-03,2.530884261485451953e-03,5.599424839019775391e-01
5.073493292691411138e-01,-5.844310003759553562e-02,-3.163211697305787218e-02,-2.152708640062639314e-03,1.895427434332302204e-03,8.410329523721062203e-04,5.528989434242248535e-01
5.297265315025638799e-01,-2.367426145533224613e-02,-2.227942602792293281e-02,-4.190224421124716034e-03,-2.585594050741741191e-03,1.278823293738738740e-03,5.527749061584472656e-01
5.271144198715814744e-01,-2.055896162994197418e-02,-2.131298439989734450e-02,-1.359957960408275223e-03,-2.536743481972312479e-03,3.761033157067273681e-03,5.481121540069580078e-01
5.470835268411906593e-01,1.369801585943630773e-02,-6.291265358673106545e-02,-9.342685191351946319e-03,5.228827217890410703e-03,2.457126510755219817e-03,5.758422613143920898e-01
5.265701862122231791e-01,-2.143679694378275435e-02,-1.710332314516765928e-02,-2.463670842470699375e-03,-6.109456610991015140e-05,4.373562208496741682e-03,5.459223985671997070e-01
5.125321397660227429e-01,-4.912070127926621010e-02,-3.948208981809728235e-02,5.571582125921128260e-05,3.394190470503403653e-03,7.441944779054140459e-03,5.570762753486633301e-01
2.682198522112220207e-01,1.471442235513070740e-03,2.738841483979681524e-03,3.300463837854599597e-02,8.703995352403845649e-04,1.275139118142481695e-03,2.722008824348449707e-01
4.237281076343348829e-01,-4.044534019646062184e-02,8.489857409506515462e-03,-8.724093462601230364e-02,-1.663006886934870199e-01,7.365268361986772316e-02,5.632158517837524414e-01
5.297270955989548114e-01,-2.576937229821896214e-02,-2.258928373101201648e-02,-2.515759116412644072e-03,-2.531094450538497794e-03,1.196652009536870297e-03,5.539516210556030273e-01
1.540488542540761896e-01,-2.310569671103379630e-03,1.741918990589187005e-02,-4.009733486353130733e-02,-4.905206558672480649e-02,1.485596922435946689e-02,1.856243610382080078e-01
5.633685607741731882e-01,-4.149115349602544578e-02,-6.977367730330019668e-02,1.684459792375989917e-01,-3.860178828423350972e-02,-7.714468335840610203e-02,7.008626461029052734e-01
5.559794598921534714e-01,-5.774294214776612422e-02,1.918519418221015238e-02,1.380314091066964623e-03,-4.380133525682484118e-03,8.221066635015083016e-03,5.793329477310180664e-01
5.529392481293168293e-01,-6.153918755711101918e-02,-7.502197101701274518e-03,2.514604592389824839e-03,-6.318818758962690789e-03,-2.172347665713268618e-03,5.894506573677062988e-01
5.427712935848549858e-01,-6.028938024756491654e-02,1.670561880998952531e-02,2.557461860639398312e-03,7.792386378172513374e-03,6.688605525455528942e-04,5.686658620834350586e-01
5.713217462780064704e-01,-6.131183795307260098e-02,1.836499765696048003e-02,3.989086740089297332e-03,1.459372137169830629e-02,3.823301312498716877e-03,5.974093675613403320e-01
5.400421090276774638e-01,-5.220717558797186020e-02,2.465409434164983482e-02,2.416753476940845542e-03,1.037874554859718156e-02,1.794006903790678828e-02,5.589740872383117676e-01
5.561804073283567185e-01,-6.084749690652968557e-02,2.994568474670034064e-02,3.008771013638272839e-04,-9.636420186100164501e-03,1.604578433394302384e-03,5.772620439529418945e-01
1.576101090465809318e-01,-1.977393862760412624e-04,4.351250432445710747e-02,-1.920573949451689563e-02,1.099383746959546743e-01,5.119827947491072118e-03,2.395008206367492676e-01
5.242888060892116897e-01,-3.603316401855916062e-02,-4.480873868942999994e-02,-1.607797368525089136e-03,-1.329821068115600441e-02,1.017244805937881150e-03,5.652400255203247070e-01
5.372695990875026029e-01,-4.678797871399481556e-02,-3.875405221902997188e-02,-6.762201089670290960e-03,-2.798859571713799982e-02,-3.526468030750592227e-03,5.822543501853942871e-01
3.485044724070871514e-01,-1.012650819748936448e-02,-1.342160195391850497e-03,2.063264280399997042e-02,1.769796511292802063e-02,5.405432686817149973e-03,3.575575947761535645e-01
3.585029714725332384e-01,-1.126411151554625178e-02,-3.941914981438934817e-03,6.223511020024925788e-02,-7.352623217859531601e-02,-1.900241359675777439e-02,4.037264287471771240e-01
5.121414857220084604e-01,-3.524808801824941273e-02,-4.949529198259294827e-02,-1.471049654718196856e-03,-4.324772412966931649e-03,8.890678780870980456e-04,5.547090172767639160e-01
5.107113607479371042e-01,-3.173372739384991426e-02,-4.906115615201350755e-02,-1.085191014326168614e-03,-1.868937532004988225e-03,-1.369757851369139993e-03,5.513308644294738770e-01
5.280100385048083211e-01,-5.516840642223427849e-02,-3.511064369902586191e-02,6.223238290754893112e-03,3.439574766954382745e-03,1.909414051543128392e-03,5.735545158386230469e-01
5.053241554512618583e-01,-2.936734028205442715e-02,-5.615306925952165407e-02,3.211735879732263883e-03,-3.765092929767971386e-02,-5.816475181748218676e-03,5.525575280189514160e-01
5.243895140991555737e-01,-3.960041732129079839e-02,-2.915472491088766382e-02,-1.361893988078676095e-04,3.369297409362677267e-03,2.505974853977009555e-03,5.588876605033874512e-01
5.411492845433663046e-01,-4.239295036502113700e-02,-4.180465910062960977e-02,-1.513032699277353128e-03,-1.169794349728891288e-03,2.500435045696662996e-04,5.832578539848327637e-01
5.404048600434113725e-01,-4.060675585959405698e-02,-4.220597393035585565e-02,-5.877697967642369747e-04,-9.432548694234339955e-04,-1.836005223852258327e-04,5.818161368370056152e-01
5.409906425441304290e-01,-4.237883130933159381e-02,-4.133559591073954209e-02,-9.530005986162713152e-04,-1.655501538212101383e-03,1.388291988827723836e-06,5.828579664230346680e-01
4.452852073582239667e-01,-3.524867304358553222e-02,-9.790904933379390718e-03,8.115173303641146346e-04,-4.811273119382048109e-03,1.529870583519079208e-03,4.684079885482788086e-01
5.362577022211705291e-01,-3.493423167624953862e-02,-3.347618894054657512e-02,-1.707218598230124656e-03,-1.745878369027573009e-03,4.065146441380574184e-04,5.704804062843322754e-01
5.051679912475348644e-01,-6.344560942101534762e-02,-2.657857719420875231e-02,-2.654666792467950173e-03,-7.229415162741777623e-04,1.401597225749442934e-04,5.511263608932495117e-01
4.905630221145153014e-01,-5.539206543215982603e-02,-2.901882165225683208e-02,4.972662391696467885e-03,3.832528148987513275e-03,5.543516808162142311e-03,5.334550738334655762e-01
5.129287176965701134e-01,-5.781780439791989190e-02,-2.695856543663294191e-02,-1.304544695405673166e-02,1.903142020693510301e-03,-1.929791105002001596e-03,5.564383864402770996e-01
3.754633791826011424e-01,-4.811604122672942518e-02,-1.598882916554529576e-02,-5.090732516467356972e-02,4.088182319009354276e-02,-2.769195158736369872e-02,4.265353679656982422e-01
5.143843220761192825e-01,-5.610662869943017217e-02,-3.070432255650901165e-02,1.519638997395614689e-03,2.731366862275478712e-03,-1.148501361932929930e-03,5.582532286643981934e-01
4.984242193160154932e-01,-5.240344269981619951e-02,-3.176882751190265863e-02,6.777555173211228883e-05,4.305940056901031918e-04,-6.580330262691522734e-03,5.409262776374816895e-01
2.286545107972136059e-01,5.745358116678034310e-05,1.663262700166270869e-02,-2.466275731397922846e-02,9.888934717279685566e-03,4.897896518286287476e-04,2.255242019891738892e-01
5.090409716608759183e-01,-3.227754236229071760e-02,-5.945366177097036187e-02,-1.746890655112359617e-03,-1.509793906452251309e-03,-2.238935752825908440e-03,5.554333925247192383e-01
5.344606394167366048e-01,-3.099980407819558081e-02,-4.438099291870742369e-02,4.332730272764662334e-03,1.977359191472924903e-03,1.415671489214278753e-03,5.723330974578857422e-01
6.006048341586603945e-01,-6.754469976309163126e-02,-3.499783502894676657e-03,-1.943728804331801123e-04,-1.274690031018368454e-02,-2.332983766579770427e-02,6.401987075805664062e-01
4.407015491362450410e-01,-4.420126088477754900e-02,-1.238274972363240245e-02,-7.597903180078653630e-04,7.143646841659074057e-04,-5.637510259401104853e-03,4.699073135852813721e-01
5.265562998308059850e-01,-4.013126799166547021e-02,-3.748987850803794930e-02,-3.933922369924089911e-03,3.997849030859298557e-04,-8.761635316420221878e-04,5.654150247573852539e-01
5.636968917651232758e-01,-5.505608999978692242e-02,-2.117146125594399075e-02,-1.629792214053995061e-02,1.771292815601182083e-02,-6.549109586177153698e-03,6.040728092193603516e-01
5.105161035671101910e-01,-4.313591814825290527e-02,-3.533908179229056090e-02,9.405949430338605283e-03,1.072658255235307313e-02,-1.024517721963628383e-03,5.503529310226440430e-01
4.988122495697804859e-01,-6.057189822533126655e-02,-2.678241532352765297e-02,-5.347054707131198605e-04,5.665014308163364518e-04,-1.328278666204219189e-03,5.432845950126647949e-01
5.047498962430381209e-01,-5.390474135965361846e-02,-1.483497822417981227e-02,1.629561088051782953e-03,-2.439885436516933855e-03,-1.493460915769488986e-02,5.408233404159545898e-01
5.459685034460676212e-01,-3.768411958226317027e-02,-2.975942539414624943e-02,-1.243086585809316698e-02,2.352179606979903220e-02,-5.577885112947028774e-03,5.816396474838256836e-01
5.279500132432179971e-01,-5.525294910870906517e-02,-2.385574087956468525e-02,9.807264474479542027e-03,6.482607123084827005e-02,-1.219087831394372393e-02,5.797777175903320312e-01
5.468116216066212232e-01,-5.538514156998355920e-02,4.013642190702909618e-03,-4.817663878526560334e-03,3.041558795158852413e-02,-1.897452717456169294e-02,5.782079696655273438e-01
3.174892827122334782e-01,-7.331310163615475939e-03,2.078492174902996092e-04,-2.896430395733252949e-02,-9.560744617958279526e-03,-5.241551637502634559e-03,3.255607783794403076e-01
5.355923983800737753e-01,-1.886830400419453602e-02,-5.281889307653989118e-02,-1.451303218715676614e-02,5.028687225799448150e-03,4.993116472705481229e-03,5.728753209114074707e-01
5.067698416766001079e-01,-5.609487949609223700e-02,-3.265761210330453412e-02,-9.078751689059851634e-04,7.519843038733542429e-04,-1.492606499028879038e-03,5.515295267105102539e-01
4.041318596637445415e-01,-2.551920956503603288e-02,-2.303150163276265761e-02,-1.938670714241432641e-02,-1.888745975361672685e-02,-1.511664995972994766e-02,4.317646026611328125e-01
5.254151823587749348e-01,-2.892782032454765950e-02,-4.599346692535502545e-02,2.385540856632489565e-03,-7.618452919862041955e-03,1.731541192763422048e-03,5.632475614547729492e-01
4.066261803588699375e-01,-2.471349524513917484e-02,-2.291538694187468528e-02,-1.740961919945235165e-02,-2.000359337494170622e-02,-1.606233642703394290e-02,4.337801933288574219e-01
5.783895269367492764e-01,-5.675910648441978568e-02,-3.571566999051867253e-03,-7.116920179230899757e-02,-1.318721856229849998e-01,6.537048510679945024e-02,6.727901697158813477e-01
3.641694901120258732e-01,-1.794040839320229508e-02,-2.257440377867694914e-03,-1.730223497294806163e-03,-6.179159092477660986e-03,-3.964442084520144668e-03,3.747425675392150879e-01
2.851521953697842005e-01,-5.396648418160329697e-03,2.285862947229364006e-03,-3.175412553557915157e-02,-1.051669001332862161e-02,-5.288885842301933177e-03,2.927220463752746582e-01
4.223729644322339327e-01,-3.780649129773738792e-02,-2.424997709757131803e-02,-2.390002361623388277e-02,-1.286266668838231299e-02,-1.283299481515134781e-02,4.565244019031524658e-01
3.784691259251622975e-01,-1.730461105669137134e-02,-1.812113956665020731e-02,-2.670240260354172189e-03,-9.865154557098789953e-04,-1.013457027539910356e-02,3.966019749641418457e-01
4.224741046973045644e-01,-3.890503045165134843e-02,-2.429657570323474902e-02,-2.487184652572707252e-02,-1.293033644683948442e-02,-1.476053347933551328e-02,4.575533866882324219e-01
4.164643872201211350e-01,-3.864722626433426955e-02,-2.359999241621298094e-02,-2.679562609446763111e-02,-1.742333241777195216e-02,-1.483268621392104525e-02,4.519176781177520752e-01
5.300984002851744092e-01,-4.280652697569123366e-02,-4.152621243625870262e-02,3.039799258237215179e-03,-1.669986537542113725e-03,3.188717698341043722e-04,5.722976326942443848e-01
3.178370973738197103e-01,4.692026721450914817e-03,3.806509379912823010e-03,1.272808683731052517e-03,1.302234178164562951e-03,4.218228899934292966e-04,3.136054873466491699e-01
5.232651489041957316e-01,-1.939612176810651123e-02,-1.885651791559891932e-02,1.980331040264746070e-03,-4.600381508000468364e-04,1.512746591965752601e-03,5.424094200134277344e-01
5.315591251114912819e-01,-3.861007833317442461e-02,-4.482999286102382075e-02,2.418744698737502552e-04,2.022955900364612457e-04,2.928593677926024513e-03,5.733271837234497070e-01
5.339761834682735797e-01,-3.409562392232057260e-02,-3.750526926332684030e-02,-3.285245623905832819e-04,-3.303055367395836355e-04,3.093127177817656635e-03,5.698100328445434570e-01
5.319327025007573040e-01,-3.116964150170592474e-02,-3.094915263371078584e-02,2.119152828624108580e-03,-1.843975299374723880e-03,3.361748720722549690e-04,5.630134344100952148e-01
5.436340622182357363e-01,-5.892676927711976154e-03,-4.814070968002670536e-02,-4.748101797994861567e-02,8.574862018243025949e-03,3.251099092667342899e-03,5.779243707656860352e-01
5.305082545391950344e-01,-3.756021473224380181e-02,-6.406090336244674166e-02,-7.170778771219561698e-02,-6.797137084617071350e-04,2.103357859752486795e-03,5.948940515518188477e-01
5.313553823022967304e-01,-3.502802671841032112e-02,-3.897371028441845575e-02,-2.289202489528812615e-03,1.524843207209631462e-04,-4.334911313453453400e-04,5.683808922767639160e-01
5.120263234635418215e-01,-4.758443941400541943e-02,-4.969235478623063029e-02,5.336870483534653792e-02,-4.559929835919823010e-02,-3.496774639390170386e-03,5.737311840057373047e-01
3.795100035444358144e-01,-1.222959318356132974e-02,-5.280901130249662789e-03,3.323847878622302300e-04,-1.885800203852734582e-03,4.137381090727694326e-03,3.883921504020690918e-01
5.157794571742637668e-01,-3.513480907806004749e-02,-5.726429066694146974e-02,3.099015933203033615e-03,-2.478939784947687460e-03,2.889516129393923920e-03,5.623699426651000977e-01
5.220619786320455091e-01,-4.166471323919437864e-02,-5.242208982952281660e-02,6.985404103961441414e-04,5.459565344064513850e-04,2.902494642709333491e-03,5.692058801651000977e-01
5.154089177826306489e-01,-3.775649026905142369e-02,-5.291791032575476894e-02,2.561965038919360171e-03,-9.284664399230087989e-04,1.285350951017470711e-03,5.609241127967834473e-01
5.301975537164009822e-01,-3.852504620139712843e-02,-2.759659348046894500e-02,3.098951701541589540e-03,4.362856813282056309e-03,-4.794630217797089637e-03,5.634753108024597168e-01
5.420375699079257314e-01,-3.694745431692542104e-02,-4.706953772507693756e-02,3.729073347071469938e-03,2.525200215148407784e-03,-7.601984419623020574e-04,5.841653943061828613e-01
7.932185667051675493e-01,-5.246307665564706180e-02,-1.648609089172450859e-02,1.093518425219584395e-01,3.107337188344556217e-02,6.879308662584458778e-02,8.596594333648681641e-01
4.639088485318800248e-01,-2.813693378864309813e-02,-5.374156969193996658e-02,-1.106700367984912552e-02,-2.141525366340324074e-02,-9.763284458891834799e-03,5.073387026786804199e-01
5.296509464983967241e-01,-4.225343463663600030e-02,-2.123155362396819679e-02,1.848268674929919161e-03,4.549112549350115865e-03,3.067536194912592190e-03,5.617780685424804688e-01
5.225997038167338182e-01,-3.923573430580870602e-02,-1.943448549494369848e-02,-1.008832582856201624e-04,-2.592855344592610335e-03,-6.465562560788258931e-03,5.523329973220825195e-01
5.193834790358318187e-01,-4.361390779971707765e-02,-3.835997372585772669e-02,3.221032789793383988e-04,-3.528969253372996810e-04,-1.889899969746516818e-04,5.603895783424377441e-01
5.099610076632896671e-01,-5.337464686128531866e-02,-3.825640398006446841e-02,-1.257346863896299663e-03,-1.319959217576102857e-03,-3.238303336085675884e-03,5.559679865837097168e-01
5.187660836220480132e-01,-5.183590417029820818e-02,-4.255637908477066800e-02,-2.417549566668314009e-03,-2.313136855735121143e-03,-4.521240307459243983e-03,5.661031007766723633e-01
4.395214008065792544e-01,-2.041477900071594909e-02,-4.313640028171769614e-02,-4.874244249567252730e-04,-2.284317711207308442e-03,5.360461627288383088e-03,4.718163013458251953e-01
5.026944203342746942e-01,-3.753443220475166653e-02,-4.612420220694282702e-02,-4.690030248803293595e-04,5.946885475252797898e-04,9.244004339286354330e-03,5.448114275932312012e-01
4.425846651514672714e-01,-4.389688303208297282e-02,-2.125693394623215382e-02,-1.680932522816072291e-02,-7.284776010349396438e-03,-1.119479718914357172e-02,4.770175814628601074e-01
5.194500193079911732e-01,-4.842067472516697890e-02,-4.185124718835811497e-02,2.887835113088271224e-04,6.868009556152385219e-04,-2.967973311606985059e-03,5.646395087242126465e-01
5.100397031404528825e-01,-4.739916642834560156e-02,-4.202079629562313623e-02,-4.934351781095564111e-03,1.160797220158286437e-03,-8.754661426378634176e-03,5.550459027290344238e-01
5.319164650822723051e-01,-3.896006510308577808e-02,-4.464202752451892908e-02,3.663726661451269153e-03,1.314321315800884987e-02,-4.059808466192245217e-03,5.742681622505187988e-01
5.290353294649585703e-01,-4.907208700211851404e-02,-4.535790681772822186e-02,4.798023304550540929e-04,1.029325349901708073e-03,2.186206387956886993e-04,5.762627720832824707e-01
5.284595188118706988e-01,-4.844873819338654797e-02,-4.531744132737611230e-02,-1.044045328426686627e-03,4.651575342351208821e-04,8.802465956638767320e-04,5.753543972969055176e-01
5.279504310906875109e-01,-2.861678614160431677e-02,-2.561790436668359705e-02,3.905389522955844857e-03,-9.475655104339891690e-04,2.176987086171077238e-03,5.551303029060363770e-01
5.318740299561456331e-01,-5.179174223957550005e-02,-3.951564912399530005e-02,7.774073164767414390e-03,-1.178731147750098100e-03,-5.167261539715945796e-03,5.778554081916809082e-01
5.316477950921227880e-01,-4.923317127618009881e-02,-4.399341957572255879e-02,3.030428556871872883e-04,-1.257199546437731078e-03,3.850185292970943730e-04,5.782836079597473145e-01
5.284731214898932272e-01,-4.270772384461940518e-02,-5.204192064036200494e-02,4.322664765992035793e-03,9.474296511016997487e-04,4.621344746276933799e-03,5.760113000869750977e-01
4.989250015253742232e-01,-5.672607583895331040e-02,-3.108296029322771270e-02,-1.072105341654879581e-03,6.256212183399084692e-04,-8.359247145850115177e-03,5.434807538986206055e-01
5.282991841733016836e-01,-4.268683340229631473e-02,-5.025977026335848308e-02,4.385529415601831585e-03,-1.079960209263900080e-03,1.681403780326501916e-03,5.748705267906188965e-01
4.683076425343204452e-01,-4.064919588131488126e-02,-2.907767694242760492e-02,-5.646821868765749229e-04,2.776986937371183663e-04,-1.075730575382531466e-02,5.036168098449707031e-01
5.307050466395768495e-01,-4.487515849156223369e-02,-4.856139363377023899e-02,2.749819192866937399e-03,4.104632120733779730e-04,1.263640594442312984e-03,5.774563550949096680e-01
5.275680258865280692e-01,-4.526562267626826896e-02,-4.763534322134338472e-02,-1.820806565313060369e-04,-4.103882520599383258e-04,4.698032507043168726e-04,5.740233063697814941e-01
5.238207237005660932e-01,-4.175450639998920521e-02,-5.156737952327533625e-02,1.924113071540952064e-03,-9.391464371492408208e-04,1.822900816068490039e-03,5.705657601356506348e-01
5.251210767543654789e-01,-4.879139869375195837e-02,-4.265439204024140674e-02,-3.894406667599550941e-04,-1.455962298737672718e-03,-3.019700695217516530e-03,5.708986520767211914e-01
5.237599174358482657e-01,-4.847402674589712523e-02,-4.479811635142214032e-02,-1.343821941987200137e-04,4.277626300354747343e-04,-5.450592494914828934e-04,5.704061985015869141e-01
5.281818044409628543e-01,-4.120482112540380104e-02,-4.199462464528991301e-02,6.303083204562022609e-04,1.443944550333836835e-03,5.430389295127024820e-06,5.697884559631347656e-01
5.280370462723315006e-01,-3.737624164765601664e-02,-3.828718513605006146e-02,5.474868249583249823e-04,-2.323189717679498539e-03,4.938779225095170063e-04,5.658850669860839844e-01
5.259851143673933693e-01,-4.860934171580263974e-02,-4.643676109152222731e-02,-7.593700107081841652e-05,-1.625848280650673758e-04,-1.174361597285484594e-03,5.735149383544921875e-01
5.267212646782521990e-01,-4.831388638828443272e-02,-4.628006305370602202e-02,-9.402574309761086487e-04,-1.315894469328730354e-03,-2.040209792324765986e-03,5.740386247634887695e-01
3.813412999312957297e-01,-1.731827045565376144e-03,-2.147880733438749246e-02,-1.518422094384901111e-03,-3.681283932813829689e-03,-5.149680560915604124e-03,3.934801518917083740e-01
5.242204034919796252e-01,-4.511134854075074530e-02,-4.377805518654642736e-02,-2.417445844226747591e-04,1.738632636620550485e-03,-1.711677820800021040e-03,5.686821341514587402e-01
5.275829396972752106e-01,-4.599312962494139789e-02,-4.624737355250094217e-02,4.465101317729453851e-05,1.150348476746294825e-03,-1.148184864153881763e-04,5.737067461013793945e-01
5.261659540824465964e-01,-4.642892867071038432e-02,-4.859460417739344673e-02,-3.195071247626858754e-04,-1.129851752984738060e-04,-1.096697579498302419e-03,5.736842155456542969e-01
5.333876179111497473e-01,-1.278782285789939466e-02,-4.314363394746778546e-02,-5.857221223088524345e-03,4.639031054291563490e-03,5.200881829153310328e-03,5.621897578239440918e-01
5.283646558770918045e-01,-4.877258158734049109e-02,-4.735367214312982687e-02,5.167446087381066594e-04,3.975529832032278360e-04,-6.961219707771355023e-04,5.764314532279968262e-01
5.348805882744449569e-01,7.777386692737198182e-04,-3.802553139495340462e-02,3.353431704003772846e-03,-2.530907717981602332e-03,7.637966564522306011e-03,5.547291636466979980e-01
5.413637703687401714e-01,1.209753633206570034e-02,-5.925538132526833590e-02,-1.206935228064854974e-02,4.602282948616947221e-03,3.852906506887434929e-03,5.687915086746215820e-01
5.288971171523386694e-01,-4.734060117845528826e-02,-4.831548867192761443e-02,3.088809930441345055e-08,-2.860796634425637544e-04,-4.060502508474380669e-04,5.767264366149902344e-01
5.214169729544851917e-01,-4.409666773121342920e-02,-3.900940920551490554e-02,2.093346005112773321e-03,2.273741804732297260e-04,-2.392892123058328860e-04,5.629991888999938965e-01
5.167650486843572422e-01,-3.906832490923514700e-02,-4.588165550060632758e-02,7.867973863251161853e-03,1.447442822403788363e-04,2.233988273443364859e-03,5.594506263732910156e-01
3.756554050936862232e-01,-1.238330675627391519e-02,-4.063315715573480313e-02,-1.908888476404710377e-02,-6.029091424617616379e-02,-4.234522979435092170e-03,4.175955653190612793e-01
3.830710262708849623e-01,1.208229734402807565e-03,-2.489960740271740525e-02,1.160164303681114313e-03,-3.379547828128448735e-03,2.590408534346287910e-03,3.956372737884521484e-01
5.062387253908080531e-01,-2.772568559765739571e-02,-5.871248666450668008e-02,4.799044432560409940e-03,-1.650789983858390320e-02,1.992152449469609173e-03,5.509288311004638672e-01
4.428879850388715012e-01,-1.425499366727067674e-02,-4.682904709328697401e-02,9.078751964362056712e-03,-1.993297005383565940e-02,-3.211383506994503183e-03,4.758171439170837402e-01
5.018511310764002253e-01,-2.965133568690903054e-02,-6.246625080506293393e-02,2.544361035109337071e-03,-8.243699558801791897e-05,2.063142344175913911e-03,5.486757755279541016e-01
5.444671143747519260e-01,-6.054209370000201984e-02,1.307794528431902026e-02,-4.006888105211570475e-03,7.705836965082621219e-03,4.126202030779443052e-03,5.720075368881225586e-01
4.881868874887957954e-01,-2.436719191120559347e-02,-5.874365856014504561e-02,3.814446978097433324e-03,-6.755207484375607384e-03,2.495425820150424905e-03,5.307658910751342773e-01
5.310861237317778816e-01,-3.274583728382277070e-02,-1.059858815731185011e-02,3.654260119473231542e-03,-3.709371643520064862e-03,3.406014704800298595e-03,5.531960129737854004e-01
4.667195934806525059e-01,-2.891621055372234350e-02,-4.079845689905675643e-02,7.412288473362039674e-05,-4.985357768751097441e-04,-1.106176496886032180e-02,5.020489692687988281e-01
4.860665402015095782e-01,-3.871775060725640705e-02,-3.903999381787304213e-02,2.665462374527655586e-04,3.742206909444589606e-04,-9.496256155022345449e-03,5.252037048339843750e-01
4.942156349276476401e-01,-3.259252307904056400e-02,-5.096073568419084987e-02,5.101171855081107313e-03,-1.281101553617068275e-02,6.933631850835531366e-03,5.368942022323608398e-01
4.839845872686354689e-01,-3.187377573035915512e-02,-4.609931789396298774e-02,4.100880058301471613e-03,-4.087314428861394192e-03,8.901401499390344807e-03,5.234394669532775879e-01
5.145788062277403263e-01,-3.319646267876674717e-02,-5.974992147112520580e-02,1.652244854329218676e-03,-4.139038547263575868e-03,-1.930357630350628632e-03,5.615860819816589355e-01
4.565925291863144886e-01,-2.154538714184167647e-02,-5.154768824465835730e-02,-4.573027762407248895e-04,-2.235064964611280236e-02,5.266917248231678568e-03,4.954227805137634277e-01
5.250332880829733373e-01,-4.756291228934650395e-02,-4.852831013743144628e-02,-2.133420510597437182e-03,-2.373214874153461648e-03,-3.251300031909153641e-03,5.731338262557983398e-01
5.065930551552362271e-01,-5.989520789780261589e-02,-2.787992061663602250e-02,-1.169487082033035400e-03,1.076975907054407043e-03,1.004277808751166548e-03,5.511880517005920410e-01
4.994635973538045226e-01,-6.145008575933358363e-02,-2.316891696785799981e-02,-8.002650345899970166e-03,-1.518471520738724030e-03,-5.339359390140385395e-04,5.429705977439880371e-01
4.922693638441172359e-01,-6.074758726241513695e-02,-2.533802190505207719e-02,-6.340326349471706209e-03,-6.362272100934488828e-05,-2.232785682881903086e-03,5.363162159919738770e-01
5.063698278844110945e-01,-3.264338510057346321e-02,-6.092870565707816932e-02,6.213666167036455482e-04,9.725788775466501310e-04,-1.032845548667849118e-03,5.537045001983642578e-01
5.020623731604730855e-01,-6.091477201206318970e-02,-2.826668373390353595e-02,-3.053111779399863938e-03,8.272086877194516569e-04,1.609315941418127966e-04,5.474113225936889648e-01
6.413198258005674557e-01,-4.923039362832620780e-02,-5.455267851758482944e-03,2.882959263305469918e-03,-1.100933873280177111e-02,4.464037321180257256e-02,6.744729876518249512e-01
4.732373188357120730e-01,-2.280315677386188233e-02,-5.344436307244498918e-02,7.354736164670900786e-03,-8.894968886421180439e-04,3.858232576235470866e-03,5.122534632682800293e-01
5.215413887289560568e-01,-5.852436348500458796e-02,-3.426852013191003521e-02,2.506627578439742272e-03,1.324455208757806170e-03,1.575922585598181708e-03,5.683539509773254395e-01
5.393559166245243119e-01,-3.434522414540910895e-02,-1.867884994557891809e-02,3.506740601619656814e-03,1.652077510755214224e-02,-2.798544835167982026e-02,5.688548684120178223e-01
5.126113938188674446e-01,-3.583060954598488168e-02,-5.647229817803067764e-02,-6.584067205928014095e-04,-5.611047117617824336e-05,-3.106347065766693928e-03,5.590757727622985840e-01
5.589364020949985079e-01,-4.197060999430760053e-02,-2.145150494090691806e-02,-1.795147018884968000e-03,3.559331760218394742e-04,-6.609511866941096374e-03,5.910341143608093262e-01
6.190370813651805415e-01,-4.726036425019425335e-02,-3.561429865187742960e-02,1.891838423484640958e-02,3.035882324377346675e-02,-1.020688461616826165e-02,6.636862158775329590e-01
5.819752813987275619e-01,-3.906529490123802906e-02,6.437748763866990576e-03,4.375622853813287451e-03,-2.186705219600569225e-02,-1.816687883627306557e-02,6.016516685485839844e-01
5.207958300026001019e-01,-5.057467463399836771e-02,-3.989647182067601605e-02,5.879591259270815738e-04,2.045597209140199047e-04,1.779556897680892574e-03,5.661163330078125000e-01
7.028737402130211809e-01,-5.146582196346002891e-02,-1.012807629699369327e-02,-6.655505542516425288e-02,6.303627737952129106e-02,-6.738883988860641661e-02,7.605178952217102051e-01
5.204998006407945965e-01,-5.719759336975036024e-02,-3.821732828197957343e-02,-6.968779780215842269e-04,9.620644850027183217e-04,1.413895263840384301e-03,5.684539675712585449e-01
3.084403990460754530e-01,7.859630495859609711e-03,4.304824967226172916e-03,1.726134149846389262e-05,-1.403504507524562712e-04,-2.897225398991226143e-03,3.024155795574188232e-01
6.061077090876191287e-01,8.586699803576097745e-03,-7.971842959972419429e-02,3.313089707968209629e-03,2.069343509290582153e-02,-1.996601214386018244e-02,6.481564640998840332e-01
5.756661454408530387e-01,-4.815822270881983669e-02,-1.771578419046820896e-03,1.702957879073829783e-02,-9.022948536863723001e-03,-2.685008481945269990e-02,6.046887636184692383e-01
7.239550174015501049e-01,-8.166629679808434794e-02,1.953844529823337006e-02,1.350026110825295386e-03,4.713086345677497402e-02,3.042613196127852068e-02,7.662780880928039551e-01
4.874727191458709252e-01,-3.942931196883020517e-02,-6.543510335700886138e-03,-5.406089237516661927e-02,3.983066270768035461e-02,-3.327846842568520092e-02,5.274743437767028809e-01
5.280673694856576894e-01,-4.558782421972185084e-02,-4.731524107437071192e-02,3.652456068486259737e-05,-2.260810151446341395e-03,2.528792312348237745e-03,5.745508670806884766e-01
5.298902268509175784e-01,-5.033110185058875530e-02,-4.526536659828017672e-02,-3.213888892605645245e-04,-8.482054286231040111e-04,2.050210380866629260e-03,5.777181982994079590e-01
5.079274373288449329e-01,-4.287608694258543407e-02,-4.649016055077598297e-02,2.876828702900503538e-03,-5.384858087849225036e-04,7.142406911288989163e-03,5.527811050415039062e-01
5.325781212556089939e-01,-4.841155185054507593e-02,-4.463467562304115899e-02,1.083225821824225846e-02,-1.743106486966505874e-03,6.520094667782008226e-03,5.795322060585021973e-01
4.543064337946011721e-01,-4.694958713432240138e-02,-2.086776867029649374e-02,2.326069037284307986e-02,-1.010680524638371720e-02,5.729679155233554852e-03,4.908078014850616455e-01
5.147148364296738610e-01,-5.189201359657388823e-02,-3.900898505068967070e-02,-9.572211036406446391e-04,9.886222236017943969e-04,-1.088385928252608116e-03,5.602846741676330566e-01
4.708195666222706466e-01,-3.216002629181324846e-02,-3.366919579070473678e-02,2.068329334961606716e-02,-8.407827237152889002e-03,1.394534951556414271e-02,5.057951211929321289e-01
5.108097997942668833e-01,-4.665418042546817801e-02,-3.868797737026302697e-02,9.432047199330027137e-03,-4.900759385404867283e-04,6.223162346227249092e-03,5.538704395294189453e-01
5.243943624681018933e-01,-4.580756253901405173e-02,-4.679803247705088820e-02,5.078064360511125048e-04,-2.394045034658091636e-04,-1.695093791635290253e-03,5.707061886787414551e-01
5.194594812486852398e-01,-5.437566449577421746e-02,-3.924058358490178922e-02,4.528621483718179262e-03,-2.092331752864845344e-03,5.690123372989967093e-03,5.665709376335144043e-01
4.855227076302349731e-01,-4.292180811882437275e-02,-3.720147537831891560e-02,8.302109204518402438e-03,-2.083759947540759529e-03,9.833731897779685732e-03,5.260925292968750000e-01
4.107608252323182163e-01,-9.911832042829415990e-03,-4.200853686635186435e-02,8.017782524612429226e-03,-2.405217171967767922e-02,-5.476690789841567571e-04,4.398035407066345215e-01
4.972918558587019477e-01,-2.942769997091643219e-02,-5.692925984038230136e-02,-1.812043208276674876e-04,-7.064228236934610473e-03,4.144932823359466154e-03,5.411809086799621582e-01
5.133748319351476574e-01,-3.443255588352484020e-02,-5.819332761570694679e-02,2.243603818297306048e-03,-6.733444305803366892e-03,3.631607913128555212e-03,5.602361559867858887e-01
4.978057213429271100e-01,-2.531016351519507768e-02,-6.023723252594395672e-02,-2.624233760163348472e-05,-2.075249073431723035e-04,-1.750252640387682653e-03,5.414336323738098145e-01
5.238476727743803796e-01,-3.727440586603888995e-02,-3.531648490817221320e-02,4.320658942013301464e-04,-4.165220511687269672e-03,2.289223509590799632e-03,5.602066516876220703e-01
4.671484202782606454e-01,-2.701864803843750940e-02,-4.593487775888324687e-02,5.357391142638141509e-04,-1.724751081308058438e-03,-1.266707753468581180e-02,5.043786764144897461e-01
5.090604067187747273e-01,-3.116931548996157431e-02,-6.030470592160200316e-02,-6.133296302338994872e-04,-6.827717858520582174e-04,9.046917226826264175e-04,5.553753972053527832e-01
4.973032935145937916e-01,-2.437266470102142368e-02,-6.054061020088749578e-02,4.533669538293310687e-03,-4.723044468255036335e-03,-2.031046921419271071e-03,5.407983064651489258e-01
5.085512831535354827e-01,-3.619057927878302494e-02,-4.520936086220372907e-02,3.626138606613386797e-03,-1.367687801253744326e-02,2.545067928416716477e-04,5.498533844947814941e-01
5.183034648853310777e-01,-4.015419603038827834e-02,-5.705130417651990693e-02,4.743546059297667756e-04,-7.070788084924960236e-04,-3.618991280801212365e-03,5.671315789222717285e-01
5.346267340415997715e-01,-2.538085004813278589e-02,-3.936276812790373558e-02,-1.039183298373758113e-02,5.316855285906369214e-04,1.178711275258980361e-03,5.674178004264831543e-01
5.298388350925334889e-01,-2.962685859557029344e-02,-3.037421524940103756e-02,1.116196403767428201e-03,-1.016864307526156802e-03,-2.330612912660863251e-03,5.598604083061218262e-01
5.016713829075055697e-01,-2.850483753090943262e-02,-5.897607845663863091e-02,2.460956545306278794e-04,-2.468751736315338927e-03,-1.374828418324111276e-03,5.460719466209411621e-01
4.989543113093863891e-01,-2.785392143341336446e-02,-4.943243241409761568e-02,5.574884721577244573e-04,-5.269967112104961132e-02,2.744195053290666205e-03,5.456331968307495117e-01
5.254942283500388944e-01,-1.373979205927106095e-03,-2.153379631480004108e-02,-9.715606875227931474e-04,-2.264889783641213083e-03,9.088045764682591010e-03,5.374794006347656250e-01
4.984091163033833038e-01,-3.056854382179405305e-02,-5.086049875855838676e-02,1.353335174576446309e-02,-1.086103077624844815e-02,4.134279772135724534e-03,5.402941107749938965e-01
5.094134036423983991e-01,-2.846549901789105497e-02,-6.235873882245115962e-02,1.756948974241406012e-03,-1.491132091065150477e-03,5.264461726071381848e-04,5.556164979934692383e-01
5.821388362006234551e-01,-5.873000247391557682e-02,4.800390289369516061e-05,6.532769196860221950e-02,8.788886594722028489e-02,6.900635356681768251e-02,6.532693505287170410e-01
5.189700892833177814e-01,-3.288806848181582976e-02,-5.844532801814791845e-02,5.677579124002819604e-04,5.527823351495373891e-03,1.868841424090087258e-03,5.651616454124450684e-01
5.258134126217908211e-01,-3.845806150443284444e-02,-5.296588722645717562e-02,-9.124281602769900978e-04,1.763837261988199234e-02,5.530747107780657583e-03,5.725615620613098145e-01
4.699822830574547083e-01,-2.640061799323320524e-02,-5.042465767943293820e-02,1.409907393828309981e-03,1.055795264524349991e-02,6.107673648117403591e-03,5.092647075653076172e-01
5.094951282175851359e-01,-2.923422211976156593e-02,-5.728394269660419535e-02,-4.810843326104626352e-03,-8.277822971992928962e-05,4.848921737685758793e-03,5.534142255783081055e-01
5.235783621417671174e-01,-3.585811048263914946e-02,-5.764857671399678529e-02,-3.838539218994870873e-05,2.246631038550893182e-03,2.075952779662603841e-03,5.706683993339538574e-01
5.198224793397421273e-01,-3.555655706057098131e-02,-5.646882256221957830e-02,-2.051440150862986244e-04,4.159740466601848834e-04,2.301686202461179168e-03,5.661395192146301270e-01
5.821322884366924022e-01,-7.684379257935378127e-02,4.408007769232022421e-02,-1.667911488344541457e-03,9.230773566394477603e-03,3.808188929129745041e-03,6.078598499298095703e-01
6.455896791803826806e-01,-9.378093488408634215e-02,3.463952630236094565e-02,7.492861081275312835e-03,-2.146040833340948431e-03,2.163513497049958639e-03,6.844024062156677246e-01
4.381063560474740548e-01,-1.604798961573139504e-02,-3.634825723303825029e-02,6.553132585689141424e-04,-5.212703139087683383e-04,1.091572621239928972e-02,4.650239646434783936e-01
6.664191504504892727e-01,-7.181614990800899712e-02,2.968986132926967891e-02,-1.170010689955471375e-02,-4.080606887685962747e-02,5.748856688605860805e-03,6.970399618148803711e-01
6.260314398812821812e-01,-1.020311157954321424e-01,2.932897605048578882e-02,-5.541988116536018111e-03,-3.503143163239339636e-02,2.206716367610535301e-02,6.759636402130126953e-01
4.592204766014178485e-01,-9.460755255070812941e-03,-4.439681567274575413e-02,3.657640002512604037e-03,-7.521251303117110470e-04,4.152719117379520194e-03,4.871858656406402588e-01
5.153972218054101440e-01,-4.721800320729252487e-02,-3.606100527011030232e-02,7.288975209626568546e-04,-4.335123487852521914e-04,-1.012403012092712157e-04,5.571224689483642578e-01
8.199776864569798818e-01,-1.126955985713052333e-01,2.255158625454392607e-02,-3.115388881599068238e-02,4.506435916314905504e-02,1.839977787570134724e-04,8.780854344367980957e-01
5.399092453237438471e-01,-4.036084945596993268e-02,-4.061553147442478751e-02,-4.920399125055974470e-04,-2.197648474783474055e-04,-1.318200462761405208e-03,5.804027318954467773e-01
5.389482841207402508e-01,-4.529556422279787387e-02,-4.353729989303622983e-02,1.922903712898454791e-03,-2.350733403131130723e-03,-4.442334343485704329e-03,5.834411382675170898e-01
5.418898774220347603e-01,-4.382922229023714089e-02,-4.629808398884852072e-02,-1.578232280003903686e-03,1.948290418906291040e-03,-3.331162484268789924e-03,5.870018601417541504e-01
5.426326557843472731e-01,-4.516257983721885805e-02,-4.311535685199222034e-02,-1.410344354270073354e-03,-3.708829917257553950e-04,-6.857006843549399294e-04,5.867809653282165527e-01
5.420982086724289717e-01,-4.367480399603684837e-02,-4.629398013612609497e-02,-5.334598070659905112e-05,-1.145620119281093871e-03,-1.879386487761240069e-03,5.870993733406066895e-01
5.104516221649887386e-01,-3.390977216974513930e-02,-5.644935529710812250e-02,-3.359389414762706228e-04,8.908181127794596345e-04,-8.232527401585131585e-04,5.559782385826110840e-01
5.160689946712744280e-01,-4.540760509302818604e-02,-4.703565944650214825e-02,-8.859940622014704026e-04,1.336557120536900059e-03,5.139042032921512654e-03,5.623697042465209961e-01
5.068288205518711731e-01,-5.234139840215276673e-02,-3.758136261101790998e-02,-3.118148696408245147e-03,-3.499255022720667088e-03,-6.165332355871744330e-03,5.521011948585510254e-01
4.171763834715898067e-01,-1.021736074033113839e-02,-2.587817672970904592e-02,-1.097661285535643516e-04,-1.199617988145863573e-03,1.161083985037352113e-02,4.359045624732971191e-01
5.132346037570083563e-01,-5.171707458126634238e-02,-3.972498753141867622e-02,-2.157051883115680625e-04,3.646640004647261888e-04,-5.333332782156861504e-03,5.591288805007934570e-01
5.147315131834769852e-01,-5.569037371183277463e-02,-3.649501417227504763e-02,-1.610569043387835488e-03,-1.665954643899855833e-03,-2.561969906462144807e-03,5.611024498939514160e-01
4.094088647493844269e-01,-4.739230013893488969e-02,2.162504783168481270e-02,4.776542987489026948e-02,1.621593399989990636e-01,1.125184090088098346e-02,5.177015066146850586e-01
5.277938336846086376e-01,-4.997499271553323963e-02,-3.876423365462317028e-02,5.765697758667930745e-03,8.942466061028111861e-04,2.065818365073344466e-03,5.723462104797363281e-01
5.417680045306408898e-01,-5.966012538781914620e-02,2.143660982861525510e-02,3.017058687980233526e-03,1.146839390687753521e-02,3.429670320734855456e-03,5.656639933586120605e-01
5.197892927746643466e-01,-5.237152239895676020e-02,-3.796841694341471229e-02,-9.211662896902898323e-04,9.522718329184800407e-04,3.869818483603367117e-03,5.651413798332214355e-01
6.078098735367719607e-01,-7.238407525336026938e-02,3.057385616335164813e-02,4.605508777643263496e-03,-2.092084538945256436e-02,2.861213899497516006e-02,6.380167603492736816e-01
5.308862181775028111e-01,-5.147263527603451738e-02,-4.378101402333992032e-02,1.998809562681347525e-03,8.699235820039397105e-04,1.475477080670173444e-03,5.785693526268005371e-01
7.806825542542787932e-01,-1.044583707849740528e-01,1.221595319903817645e-02,4.804245099978556033e-02,-6.673046840874422014e-02,2.304749583293106557e-02,8.459851145744323730e-01
5.455510504611700284e-01,-6.564916093580189238e-02,3.530935722057890191e-02,1.792007533864062958e-03,1.706209878530877367e-03,-3.108713562321910968e-04,5.675131082534790039e-01
5.625973153160341855e-01,-6.633065009120667210e-02,3.159086632692942320e-02,4.027745206768035095e-03,-3.892953299552094713e-03,-7.518858676651838302e-04,5.862160325050354004e-01
5.536324795982421332e-01,-6.097518244962549239e-02,1.921901611446910629e-02,2.345158486661332725e-03,2.824461326883835870e-03,-6.002991294665308052e-04,5.787289738655090332e-01
5.509783592217326609e-01,-6.106719444131036845e-02,3.587504679271000252e-02,5.203234429842867187e-03,-8.988315065059180459e-04,3.503283337228253400e-03,5.698990821838378906e-01
5.242911491425543691e-01,-4.479740437817680832e-02,-4.879219261536171803e-02,3.449670736388911604e-04,-7.831430650049474220e-04,-7.981847164515539677e-04,5.710999965667724609e-01
5.780376667304290006e-01,-6.986021740645614875e-02,1.364482296342561796e-02,-4.396609657879790926e-05,1.145866736661674268e-02,-1.863126595382259224e-03,6.107751727104187012e-01
5.162259361238085154e-01,-4.513647328757874888e-02,-4.537807556790768304e-02,5.735562391756470835e-04,3.480822052046388094e-04,-3.995616490401712739e-03,5.615270733833312988e-01
5.509826900247376535e-01,-5.461529288200039911e-03,-8.015421831636290739e-02,1.066629958617307423e-02,1.489590146474500387e-01,-6.390333248657997789e-02,6.602500081062316895e-01
5.353931267659421955e-01,-1.757629206739810823e-02,-5.446120789182914979e-02,-1.924634654672698064e-02,2.255841379790440512e-02,6.436619887750760468e-04,5.746051073074340820e-01
5.379864405332173138e-01,3.857466311399382342e-03,-4.309881276208285539e-02,-2.202901465107930806e-02,9.238565006848029754e-03,-1.280012830446075958e-02,5.610550642013549805e-01
5.272767159713765972e-01,-4.873674217267767728e-02,-4.901824812640845352e-02,3.046504984193058874e-04,4.796924889703309009e-04,-1.344334973529772619e-03,5.761598348617553711e-01
5.232765353804119668e-01,-4.651754448011180543e-02,-3.422152274768361369e-02,-1.110028496147992365e-02,-4.536458767420232987e-04,-6.198885042385423845e-05,5.640749335289001465e-01
6.030373281765994964e-01,-2.237486340985750388e-03,-5.723229741775054391e-02,1.055840089570057698e-02,7.739840595342351373e-03,-2.373900358848399922e-02,6.362969279289245605e-01
5.390580552610466647e-01,-1.820909320316144164e-03,-5.808655900353243418e-02,-3.246386517521848009e-02,5.669344210886610898e-03,-4.037062155566074027e-03,5.739824175834655762e-01
5.433612499606745860e-01,-3.633776317829179314e-02,-4.115816845292116777e-02,2.962455881332733045e-04,-2.413092090198450958e-04,-1.032854545468870526e-03,5.821273326873779297e-01
5.308487027702594174e-01,-4.952386058104493727e-02,-4.546862490652994748e-02,8.018112095861097905e-04,-6.541554676774912576e-04,2.046490969557201219e-03,5.783692598342895508e-01
5.788542671038247045e-01,-2.216185130390485591e-03,-6.543496530596082383e-02,-2.397278515410966593e-02,2.664571210253823333e-02,5.056354362159807235e-03,6.183080077171325684e-01
5.371870609158251320e-01,4.607487367449064619e-03,-4.237830986471896599e-02,-1.968054463138377286e-02,1.037786183700977784e-02,-1.200711463084954550e-02,5.592762231826782227e-01
5.332499571780173753e-01,-4.863863850877661599e-02,-4.386060694649512870e-02,1.326960351259232496e-03,9.885251262729596172e-04,1.110649618649121309e-03,5.795246362686157227e-01
5.289440878242879229e-01,-4.467076962542670948e-02,-4.305240412611965883e-02,1.712801424684622662e-03,1.072275460807316054e-03,2.447778475333775659e-03,5.728337764739990234e-01
5.110096372748047511e-01,-3.963055618865571339e-02,-4.811370595697206376e-02,7.460890045768305782e-04,6.589310513049234956e-04,-6.040648680136237285e-03,5.550317168235778809e-01
5.305379168591697336e-01,-4.778020694277435032e-02,-4.701974874201458876e-02,9.632451599950641241e-04,-6.814522214359447017e-04,1.974203724741489807e-03,5.779520273208618164e-01
5.313952942363082688e-01,-4.957496529318822232e-02,-4.798415090648303072e-02,-7.100661149032404338e-04,8.530337497519019504e-04,4.349701961444547545e-04,5.801801681518554688e-01
5.321386726154537783e-01,-4.800502624929536832e-02,-4.602330171638036038e-02,1.204090072030601860e-03,-1.635501860975352799e-07,-5.105190124918675349e-04,5.791597962379455566e-01
5.266045063176338914e-01,-4.796129482819116996e-02,-4.715181573667448500e-02,2.669884624344770301e-03,-3.398352712015475108e-03,3.167650838558623734e-03,5.742365121841430664e-01
5.244098218093889985e-01,-2.329101439440656174e-02,-4.526470067228025029e-02,7.798756498228704391e-03,3.466243039157520384e-02,2.014290788064287616e-02,5.634697675704956055e-01
5.304751891236295647e-01,-3.341779648945633618e-02,-6.762031994816980474e-03,-5.380056495896347671e-03,2.620155409475119490e-03,4.002207008559821935e-03,5.511898994445800781e-01
5.296690691947527618e-01,-3.168574935535797832e-02,-2.965060542906139407e-02,-5.327882198903647823e-03,-6.264137012584148484e-03,7.070818808410766695e-03,5.606548190116882324e-01
5.156168103981426665e-01,-5.868395761982195258e-02,-3.436620725398767395e-02,-5.734388804128375851e-03,1.686170187476654500e-03,4.247585490853836646e-03,5.626795887947082520e-01
4.838243013930702552e-01,-2.488156977425740046e-02,-5.542668722434287987e-02,1.074978960517157219e-03,-5.051503713605023536e-04,-4.993694750764703788e-03,5.247210860252380371e-01
5.179320037160177748e-01,-5.171951061000468197e-02,-4.121375101094246207e-02,-3.141342555275337088e-03,4.355630930874732423e-03,4.600130785203699821e-03,5.646048188209533691e-01
5.236436715249266349e-01,-5.127469191429159800e-02,-4.232434479078747702e-02,-1.531952725439141320e-03,2.324964261500752152e-03,2.448160019528480402e-03,5.705319643020629883e-01
5.129748443955105541e-01,-5.185467498213730542e-02,-3.776149917873988793e-02,-1.739201306472374069e-03,3.141238321176260798e-04,5.496389993716214312e-03,5.580060482025146484e-01
4.795881339346661498e-01,-2.905426278123224293e-02,-3.619794847570559360e-02,3.324206495936526951e-02,8.578940091266796381e-03,2.925732235996313536e-03,5.157162547111511230e-01
2.596374752479500558e-01,1.130363547157947623e-02,-5.081240378213461306e-03,6.287746795634624464e-03,-8.392568889027955670e-02,1.061777818383002284e-03,2.953974008560180664e-01
5.118789372431133966e-01,-3.408921109337412214e-02,-5.589673853442200802e-02,1.804349567690878044e-03,-7.725841730626740967e-04,2.304153658914355127e-03,5.572167038917541504e-01
1.838291593872929952e-01,3.875372008602523399e-03,1.982475547067532456e-02,-8.808324510850718686e-04,-4.846525805879402238e-02,-2.320778719362145276e-03,1.919185370206832886e-01
4.619726364841109656e-01,-2.114756854913446560e-02,-5.393571966507546001e-02,1.020849886772849050e-03,-2.298716916069423136e-03,-5.901060149246579361e-04,5.003407001495361328e-01
5.325221256056612562e-01,-3.336381833827298249e-02,2.667665691166720698e-03,3.140535964257765611e-04,-2.575129754877035775e-04,5.288750958780129123e-03,5.488349795341491699e-01
1.769804716451673088e-01,-2.026689261635100658e-04,-2.988126415893489068e-02,1.054096950462695553e-02,-7.731507945208355992e-02,1.867670602845651964e-02,2.384237647056579590e-01
5.168511629178684785e-01,-5.743255448871784075e-02,-3.253863483461938433e-02,1.299387666845957081e-03,1.010903872414184142e-03,5.719047418678159089e-04,5.622583627700805664e-01
4.379130004217547389e-01,-3.007713268144385221e-02,-3.008994013969207293e-02,2.815872617813546322e-02,-3.128350451594591464e-02,1.351783590372805828e-02,4.742190241813659668e-01
5.105360026000006490e-01,-3.609418310958842357e-02,-5.407787410487521762e-02,-7.157903795135339914e-04,1.662880616098188677e-05,-1.683437296120750834e-03,5.558493137359619141e-01
1.745820875514869086e-01,1.096484989626724665e-02,1.940250118014474195e-02,2.909985214047424926e-02,-5.281219010763608251e-02,-3.848120949880330112e-04,1.907078325748443604e-01
5.156991251410130150e-01,-3.790270249584204443e-02,-5.180490738169341025e-02,-3.406293714597882294e-04,9.112760504531634918e-04,4.056929629069777957e-03,5.607287883758544922e-01
4.944354334643111804e-01,-3.574373710239259205e-02,-4.895337133623869907e-02,8.916436963558788120e-03,-4.363757670062206467e-02,-3.312578509903847928e-03,5.424500703811645508e-01
5.421580210585000836e-01,-4.639418850332588384e-03,-3.883638213751225421e-02,1.926166070545792504e-03,3.628819420908925911e-03,-5.927655617967353061e-03,5.648112297058105469e-01
3.658669209481724138e-01,-1.202868125377000441e-02,-2.289725388278733564e-02,2.419530772960950399e-02,-7.180498997303220998e-02,3.019870062497838088e-03,4.053169786930084229e-01
5.032566435119356640e-01,-4.617112312697230214e-02,-3.522707359632165636e-02,9.022511760976383022e-03,-3.338574694987514122e-03,6.118973078621114600e-03,5.443965792655944824e-01
4.984944595062872352e-01,-2.533128351395758093e-02,-6.347750026541354451e-02,9.697529705162016324e-04,-1.499711095223607625e-04,-2.140841124182159500e-04,5.439057946205139160e-01
4.979046020230136760e-01,-4.983208853733378518e-02,-3.513430217771584818e-02,-7.397361371268563503e-03,-2.012552808336980602e-03,-3.994126240029063218e-03,5.407450199127197266e-01
5.307530892292913194e-01,-4.930717209660329114e-02,-4.368392712550503432e-02,-3.359185065310708223e-04,1.288764555924705327e-03,1.358917433568071270e-03,5.772786140441894531e-01
5.312378919556748347e-01,-4.593434451698219512e-02,-4.447028649026360525e-02,1.836611538133153853e-03,-2.301599013241371634e-03,-3.238103296639614445e-04,5.764644145965576172e-01
5.174277966042752919e-01,-5.734479088710003891e-02,-3.498501626274921894e-02,5.337225737834967731e-03,1.796197245824548896e-03,5.114997209859578967e-03,5.640791654586791992e-01
5.407924798318334281e-01,-4.659301434516949225e-02,1.823498684092580979e-02,1.522132524061994797e-03,2.865489898111552285e-03,5.691361290797482264e-03,5.579194426536560059e-01
5.266888765363157976e-01,-5.613667051735971025e-02,-3.862545478786336139e-02,3.737024622476098259e-03,1.483884749587711981e-03,1.954730211424051019e-03,5.743224024772644043e-01
5.240207006198771555e-01,-5.266361283215806322e-02,-4.028516927076974952e-02,1.190872346645406815e-04,-7.692450219661865177e-05,2.881016645324111988e-03,5.706176757812500000e-01
4.552449720216028561e-01,-5.131420134848477255e-02,-1.428907840403001450e-02,-2.002586465404836841e-02,-3.302310459868954473e-05,5.148102908493950094e-03,4.904082417488098145e-01
5.312328370678942591e-01,-5.042493823320845503e-02,-4.598414498880323831e-02,-7.234540356170914184e-04,8.837267187531006995e-04,9.896271310653377042e-04,5.794560313224792480e-01
4.660383636862323042e-01,-5.073256255279837146e-02,-2.183911757553161359e-02,-1.491446171137431921e-02,8.700685819942486840e-03,7.594799930231888214e-03,5.040071606636047363e-01
5.269821431897863118e-01,-5.013508577422545742e-02,-4.454764476169500997e-02,-5.827415823238679552e-04,7.782630701080418345e-04,2.355828579338257404e-03,5.743608474731445312e-01
4.934925460023227295e-01,-6.028865229906138490e-02,-2.651131473102674718e-02,-6.182053552588383759e-03,2.173954069539709138e-03,1.227549409468253446e-03,5.378128290176391602e-01
5.038195483689189569e-01,-5.830338633972600992e-02,-3.011129495174072468e-02,-5.835140471651914518e-03,3.169753229898748456e-03,5.430104407040591170e-03,5.487716197967529297e-01
4.854799572061747059e-01,-5.845614575647140043e-02,-2.367072234564854272e-02,5.082907320286886429e-04,1.998496614583982010e-03,2.918811210793736087e-03,5.274407863616943359e-01
5.189574499454558953e-01,-5.942743371209927017e-02,-3.265974117949496658e-02,2.700366340537666693e-03,-4.737178396256436609e-04,1.266290217257724608e-03,5.655005574226379395e-01
4.702354988383606882e-01,-4.763060097109034219e-02,-2.691941045690662837e-02,-8.232770168616234188e-03,3.464082753428539881e-03,8.686263963883169084e-03,5.082856416702270508e-01
5.273471467624550879e-01,-3.063328136950022040e-02,-3.414203871568360915e-02,5.239994972980710312e-04,-1.427546163935865123e-03,2.148051223873161109e-03,5.597616434097290039e-01
4.983172527145701691e-01,-3.589033588859910640e-02,-2.568927113750990587e-02,-1.736161331118929452e-02,-1.903164200219887442e-02,3.743534056514601343e-03,5.310981273651123047e-01
5.246305587078347044e-01,-2.185354084337520764e-02,-2.725910787601551477e-02,3.399718184487286591e-04,-1.008934995462314860e-04,2.936566465221553384e-03,5.492307543754577637e-01
5.260546576019058396e-01,-2.925463927155194654e-02,-1.921623515984530184e-02,4.780429898056364076e-04,-2.753103447851738567e-03,9.630202052278758612e-03,5.506327152252197266e-01
5.308609281349936371e-01,-2.670241714795812404e-02,-3.173521911801271966e-02,2.777416697475306243e-03,4.257236897369881708e-03,6.335082288597387867e-03,5.602733492851257324e-01
5.252902712064972945e-01,-2.662433250550186314e-02,-2.808628268101717729e-02,-1.519702252496826778e-03,1.283471712920290298e-03,2.789920296425696042e-03,5.526788830757141113e-01
5.327572965408144956e-01,-2.798979289220338007e-02,-3.812307458587599340e-02,2.583755989195650384e-03,4.801107385293937151e-03,8.353552373356875130e-03,5.661454796791076660e-01
2.179578981064753673e-01,-3.371138626824253526e-02,-1.999772897373966463e-02,6.269778685273282026e-02,3.651095268321662146e-02,-3.180770719722871703e-02,2.808942198753356934e-01
5.240794485123547730e-01,-2.683764815927253133e-02,-4.017317875024664642e-02,-9.208708709653385879e-03,4.054673515191364354e-03,2.978552566293444191e-03,5.580005049705505371e-01
4.538522926570500715e-01,-3.716369136502065129e-02,-2.383108446769199862e-03,-8.521015820298240284e-02,-9.136263079389879416e-02,3.675242514706208996e-02,5.254564881324768066e-01
5.005548348845961781e-01,-6.046070363954833549e-02,-2.419384833388163458e-02,-6.287362334582585928e-03,-1.193866981959427857e-03,-2.254496095104667128e-03,5.439168810844421387e-01
4.099735130239828274e-01,-7.693222635093158179e-03,-4.481956972402874328e-02,-1.008734537278457022e-01,-9.192701459665990338e-02,7.050082172825235249e-02,5.119760632514953613e-01
3.930410193843629219e-01,-3.213912843019733900e-02,-2.998231959952113446e-02,-6.466530839060560809e-02,-4.171006997392256999e-02,-8.015730512832190333e-03,4.447724521160125732e-01
5.568398634040316875e-01,3.726590857686440383e-02,-7.360808580164868165e-02,-2.620100493321738527e-02,-6.707494942864318348e-03,1.311737362202278906e-02,5.852931141853332520e-01
5.670445845407028340e-01,1.803434821474039773e-02,-6.763744340961538870e-02,3.473303490375885798e-03,3.965942382311064829e-03,-4.483370600344342358e-03,5.965989232063293457e-01
5.496040828120138944e-01,3.300627948216958152e-02,-6.513220825981258510e-02,-4.491328029779608627e-03,-7.727250199570282786e-03,1.651127208342897739e-04,5.722257494926452637e-01
4.980751732095223816e-01,-2.355779034680635653e-02,-6.219192806453169298e-02,5.296396992174747615e-04,-4.604808742482149279e-04,1.280580805847576515e-03,5.419896245002746582e-01
5.617182089206175233e-01,2.657272212120767585e-02,-6.964740467720317851e-02,7.656286975620815900e-03,5.469362673379334246e-03,-4.997944637468589024e-03,5.894669890403747559e-01
5.213746560831058474e-01,-3.721748109877498489e-02,-5.355350417973619992e-02,-8.880829410456480893e-04,-3.144991842774940739e-03,-2.065408992339473528e-03,5.669762492179870605e-01
6.003903669273562560e-01,8.639575211717237524e-03,-8.531541691967883811e-02,-5.981231986117442959e-03,1.467743439859292391e-02,-6.680814153653640355e-03,6.445789337158203125e-01
5.380308249540003418e-01,3.792171051731554887e-02,-6.103992512149680749e-02,-6.317153631204809605e-03,-7.661086451297933813e-04,-9.724098301676831549e-03,5.565961599349975586e-01
5.020696950938607905e-01,-2.772649455779549466e-02,-6.085291703278555842e-02,9.459605894965599946e-04,-3.869824656798972746e-04,-1.026222959192385703e-03,5.471178293228149414e-01
5.512425086618411019e-01,7.686079457931177528e-03,-6.047687155994144192e-02,-8.306630727129165649e-04,5.165584333739084953e-03,9.517593953525829123e-05,5.807170867919921875e-01
5.073187508285956770e-01,-3.009374828358132858e-02,-5.764624346140717615e-02,-4.979671881153832809e-04,6.050746771927772646e-04,3.704005982715966559e-03,5.517439246177673340e-01
5.030531518350078724e-01,-5.624302089087074297e-02,-3.007349468319209240e-02,6.742406827593377776e-03,-1.666306611901498215e-03,4.642197886638664214e-03,5.468728542327880859e-01
5.562613453450326872e-01,2.063641980130676012e-02,-6.219711148284901014e-02,3.533956146097166039e-03,2.896736813679922935e-03,8.513085097656849717e-03,5.817243456840515137e-01
5.364774397894298552e-01,-1.734988977436258129e-02,-3.452848102613997883e-02,-4.502105263237211386e-04,-5.153845431133298330e-04,-1.184115130725617521e-03,5.626183152198791504e-01
5.273724906005408108e-01,-3.944551622140859970e-02,-3.820294045502395375e-02,2.297484176395548153e-03,1.640299694518651801e-03,-6.929060675589993794e-04,5.662201046943664551e-01
5.301631832231253894e-01,-2.995589442682319858e-02,-3.197213230988033006e-02,1.691629585673721159e-04,5.401000099571371532e-03,-6.090497143799773576e-03,5.613070726394653320e-01
5.327808149361856760e-01,-2.751934850298501378e-02,-3.254223539885975347e-02,2.321867440757949697e-03,-1.069172590552762252e-03,-2.268261412030171849e-03,5.628595352172851562e-01
5.300972718473426770e-01,-4.331003959035267803e-02,-3.894622797673782943e-02,2.731131427964923622e-04,1.187343236956812237e-03,-8.896422176214160465e-07,5.712417960166931152e-01
5.290174924246013877e-01,-3.614986576217624203e-02,-4.035185051834991321e-02,-4.166881331730963763e-03,2.688856812927564559e-03,3.188508164242191082e-03,5.673719048500061035e-01
5.327670962805056698e-01,-2.888411090729972597e-02,-3.641703635090159930e-02,4.572807303439037699e-03,1.605348610197851814e-03,-4.710226673648380651e-03,5.655764341354370117e-01
4.656549410269639755e-01,-5.379284423382096891e-02,-2.579494056285561165e-02,-1.575536990373979304e-02,-8.245791831380206577e-03,-6.176343072136388813e-03,5.070794224739074707e-01
5.304492096093240683e-01,-4.787920013673432895e-02,-4.427815009226793164e-02,3.101578388256035195e-04,1.089108114927275469e-04,4.426125986774745078e-04,5.765371322631835938e-01
5.168111803942072591e-01,-6.005943082773718134e-02,-3.395771076324194393e-02,-1.017568012975813294e-03,1.070754104705257418e-03,1.350124413424822877e-03,5.642833709716796875e-01
5.199281464435653310e-01,-5.400049724822866826e-02,-4.123691423391651067e-02,-5.731429398088719014e-04,-1.970033230418156284e-03,-3.265606617361374586e-03,5.676937699317932129e-01
5.253942750240446768e-01,-4.805266285699483220e-02,-4.246526654932453182e-02,4.085216390064813695e-04,1.909812302457790031e-03,-1.125388332479833331e-03,5.706871151924133301e-01
5.235713993661784693e-01,-4.863964169330620146e-02,-3.835055294131911596e-02,-5.724519589302725503e-03,-1.908247023408589154e-03,-5.237684450485987318e-03,5.673053264617919922e-01
5.165414765850213641e-01,-3.744209999060796323e-02,-5.829005256545533031e-02,-4.645005309530615342e-04,2.366165919382746084e-03,1.137382590636916262e-03,5.647151470184326172e-01
5.378396790220276724e-01,-4.239027073979870219e-02,-2.099318622111601140e-02,2.011011139322337136e-03,-4.174370110453822467e-03,-1.506173151482653868e-03,5.698952674865722656e-01
4.887614074958809285e-01,-5.630859426449788541e-02,-2.740471691101048490e-02,9.729720053779924386e-04,-7.332478562719921896e-05,-7.202860905081431842e-03,5.313573479652404785e-01
4.994142269507149123e-01,-5.601625604389437463e-02,-3.177726659743282389e-02,-7.305447415108706592e-03,2.506189315903835889e-04,-5.167180956828646213e-03,5.439373850822448730e-01
4.764726512723972407e-01,-4.761556216232845640e-02,-3.193207456798591304e-02,-1.687978190492398986e-02,1.432895612465405651e-03,-1.072981857700206799e-02,5.175917744636535645e-01
5.262887351149370119e-01,-4.524542322908631231e-02,-5.254942214614463647e-02,-5.153675248919422757e-04,1.715133923404108364e-03,8.671574821116502085e-04,5.752312541007995605e-01
5.250718171515094124e-01,-3.949599664281092104e-02,-5.154341190748465418e-02,6.949534176036701759e-04,-2.173332039052519506e-03,-1.651347939853923044e-03,5.707077383995056152e-01
3.947395429110757137e-01,-8.781674031695663185e-03,-7.311965290148131347e-03,2.748950446509517212e-02,1.231718467435926473e-02,-4.390026182996388873e-03,4.062246382236480713e-01
3.303909314926390950e-01,-9.091138300739293188e-04,-8.748001224584550650e-04,-1.769657626700011114e-03,-1.300667322820636468e-03,2.655904468829898245e-03,3.313366770744323730e-01
2.346587217814624371e-01,1.366585062187641864e-02,6.424135720811616213e-03,1.736495130957021321e-02,3.541410193178839289e-02,-1.749885502454122648e-03,2.348764538764953613e-01
5.304703857889536689e-01,-4.948687615632815784e-02,-4.483934508824358178e-02,-8.969922102950754006e-04,4.804293676739901484e-04,7.716842964108030405e-04,5.776517391204833984e-01
2.501179391936287910e-01,1.904975666715232052e-02,1.592057124284815273e-02,-3.718379799327677353e-03,1.364163208499906757e-02,7.507568872050984429e-03,2.342951148748397827e-01
2.888157566760496953e-01,9.469075080242528308e-03,6.745272558509596283e-03,4.519728197939052610e-04,1.317233196351319871e-02,-3.037587539278075008e-04,2.816456854343414307e-01
2.919858581089475602e-01,1.403196709173891443e-02,1.233854819999984087e-02,-1.352167490982487605e-02,-2.197857395847265232e-03,5.300626980444413279e-03,2.799628674983978271e-01
5.390845391114221785e-01,-3.516226466318025934e-02,-3.776209391087648193e-02,6.782714036628900451e-04,-7.826161349699840310e-05,-1.431039819711525272e-03,5.755576491355895996e-01
3.422078803415207204e-01,-4.642915096686836551e-03,-3.184832584990693327e-03,-3.432339803237412310e-03,4.238868310946779239e-02,-5.504092045854663308e-03,3.540035188198089600e-01
5.339675158620497131e-01,-7.597468456699507655e-03,-3.738581327675030708e-02,-2.133977913456053862e-03,-6.456719574184333413e-03,1.469775856628292854e-02,5.577625632286071777e-01
6.352199013603628819e-01,-3.070935470801638978e-02,-9.292401133999927954e-03,8.286045428063005744e-03,1.675423474877868468e-02,6.312071670867804019e-02,6.653262972831726074e-01
5.347105678852777100e-01,-4.895632163758359412e-02,-4.524304827617942060e-02,3.935889700140637319e-06,-1.752599676907411284e-03,-7.804107192438772614e-03,5.819840431213378906e-01
5.217042569306969968e-01,-1.534417023526185586e-02,-1.844158299974951731e-02,-5.168709419183600031e-05,-8.681237775034919774e-04,1.740942864527019298e-03,5.386143326759338379e-01
5.525756984450101994e-01,1.769767362527485677e-04,-2.497836511804349402e-02,-1.004144600709287911e-02,-7.818613616635812155e-03,1.951202919859467907e-02,5.668341517448425293e-01
5.033028070069222037e-01,-3.299761563620479121e-02,-5.218941253530059998e-02,2.116561441540257792e-03,-7.685637961082680608e-04,-8.968640280766245268e-03,5.463840961456298828e-01
5.454189362797208229e-01,1.238367826027955698e-02,-3.461051275623008849e-02,-9.269678088841489666e-03,-3.302328131412131385e-03,2.583103563990241450e-02,5.600686073303222656e-01
5.352985665647357338e-01,-3.550932164943540470e-02,6.598811251160852098e-04,2.091287257777698760e-03,1.419667507463219991e-03,2.015874329998953995e-02,5.547273755073547363e-01
5.427706399441911689e-01,2.472318333673109714e-02,-5.262881190093612882e-02,5.381592775028024543e-03,6.943825030664910539e-03,9.816509198979764261e-03,5.612033009529113770e-01
5.080302885808877233e-01,-2.894914308132170988e-02,-6.047833272861422027e-02,-1.676211861841964102e-04,-1.767980591818295050e-03,-1.630034059751732682e-03,5.534337759017944336e-01
5.304798301699307217e-01,-2.887968896123310758e-02,-2.171305609464743713e-02,-1.814937444526635094e-03,-2.053649125156932400e-03,2.839208171727991819e-03,5.558528900146484375e-01
5.396750355792827580e-01,-4.054691182437825114e-02,-3.947757837393012226e-02,4.931597776458926255e-04,-2.130615081015258504e-03,-1.789940693686091055e-03,5.797086954116821289e-01
5.946452896868478222e-01,-5.366393021715659684e-02,2.453688457513258925e-04,1.723808889536744895e-03,-6.039508761586110872e-03,2.907890436822445357e-02,6.252329349517822266e-01
3.245772135226160371e-01,-1.733205082517114137e-02,1.203550861948940454e-03,-2.887484255327800453e-02,5.905122998987704687e-03,7.630371360427409648e-03,3.371773660182952881e-01
5.253030426595082236e-01,-2.920848394369066070e-02,-2.465810939536258739e-02,-7.188932775301719834e-04,2.797028643285388080e-03,2.464262704440743201e-03,5.522895455360412598e-01
5.211859033555755749e-01,-3.461443497296629035e-02,-5.481058273182343177e-02,1.628072779860729319e-03,-4.498925068418751540e-03,-1.576830666725802157e-03,5.662358403205871582e-01
5.401797402744734633e-01,-2.657371835871397137e-02,-3.964563432232171003e-02,2.891761142049456036e-03,-4.569799144221474430e-03,1.498333657289567956e-03,5.734835267066955566e-01
5.301168534689142398e-01,-1.504713318240316622e-02,-2.965328419256388348e-02,4.346391763284011096e-04,-3.500633889880511249e-03,2.550372485416967008e-03,5.526632666587829590e-01
2.608896121700777782e-01,2.105843326284773803e-02,-6.641374554921877782e-02,-1.126733190995029416e-01,1.193380117405419549e-01,-4.576623571921312195e-02,4.162248075008392334e-01
5.288229992142746694e-01,-4.387256650465121144e-02,-4.755836995951878698e-02,3.902128841457673655e-04,-7.650637122742149406e-04,5.661074711349561818e-04,5.745500922203063965e-01
4.973830674873274127e-01,-5.249042052771193956e-02,-2.791086473423748382e-02,-8.440647952665410441e-04,-1.105045385956353494e-03,7.968901190460559239e-03,5.381873846054077148e-01
5.167602418953549659e-01,-6.015116187628763433e-02,-2.983762675073312054e-02,-5.910849469589585887e-04,5.184657065329167436e-05,-1.066386352698775897e-03,5.623716711997985840e-01
4.976061683325482821e-01,-4.812857431151670862e-02,-3.393861161593028641e-02,1.533474787269743702e-03,9.879656026871583632e-04,8.492230651042882716e-03,5.389899015426635742e-01
5.358701884521691605e-01,-3.327474162871257857e-02,-3.236692434520904715e-02,-1.164604816111348062e-03,-1.207052319228220589e-03,1.727995664190915557e-03,5.687068700790405273e-01
5.293459042347661292e-01,-4.194510697436276692e-02,-4.917308924632610156e-02,-1.099514293689837644e-03,-9.626424227042912644e-04,-6.965893056602036337e-03,5.750712156295776367e-01
4.274350125021508240e-01,-4.318782868482089199e-02,-2.447792903249880470e-02,-4.869932116589560656e-02,4.042608827026770296e-02,5.853769028146178083e-03,4.745008945465087891e-01
3.058746374648846356e-01,-1.974990657075713363e-02,-3.582162684186143697e-02,7.656376045770765804e-02,1.610486097925530047e-02,-1.672669065668735272e-02,3.615611493587493896e-01
4.358716839110097219e-01,-3.502372908381462535e-02,-3.077053105598798188e-02,-4.364452916352810907e-02,-4.616998728456556123e-02,-5.534155205548069688e-03,4.816214144229888916e-01
2.577224614310487105e-01,3.360467541679534875e-02,-3.064755217296923073e-02,-1.171679402013556665e-01,1.416707169113702938e-02,5.188643234822314966e-03,3.326034545898437500e-01
5.008992939948818668e-01,-5.172703791732791156e-02,-3.464922704086562111e-02,-7.280332925847917899e-03,4.211033847506471563e-03,5.405802192495305636e-03,5.445638298988342285e-01
3.882016857445709790e-01,9.527182688493118778e-03,-7.756114610618373983e-02,-1.421813132717172357e-01,-2.712002447687587164e-02,4.991749685529218300e-02,5.042670369148254395e-01
4.323084611925326892e-01,-4.675568313094839723e-02,-1.516510238803929489e-02,-5.168017682795619794e-02,-1.061877803613092350e-02,-6.369703870100117604e-04,4.729889333248138428e-01
5.272098235441351477e-01,-2.047920908919495520e-02,-2.418993005042979760e-02,-3.283131261219318262e-05,-2.669642464462966200e-03,7.712167586728342151e-04,5.495748519897460938e-01
5.431509044366408245e-01,-4.354590019739768003e-02,-4.452758279911517292e-02,-3.488087298821974718e-04,4.392709694828137584e-04,-1.206886460733916193e-03,5.871927738189697266e-01
4.000078012667517280e-01,-1.905683275068531524e-02,-1.655876438849379628e-02,2.914659180598339061e-02,2.010236899137447450e-02,-2.896696470986480539e-03,4.223276078701019287e-01
5.395850811293768645e-01,-3.868844506884475121e-02,-4.014286540273537263e-02,-3.447691380375045821e-03,-1.045543994816866161e-03,-3.718684162267627436e-05,5.790357589721679688e-01
5.396469695828984836e-01,-3.626222441998022683e-02,-4.137588785583226625e-02,-1.094298515785562757e-03,-5.906419200454019912e-05,-1.365275162799623170e-03,5.784909129142761230e-01
5.399962596662221115e-01,-4.227183577053084118e-02,-3.790878447592216371e-02,-3.105914746254501754e-03,-8.525690652979506289e-05,-1.956909172945069456e-03,5.801337361335754395e-01
5.330624824106328097e-01,-4.985132389932561692e-03,-3.615539902570533148e-02,2.085720970631273815e-03,-4.254323115240897513e-03,4.840905712699830089e-03,5.544146299362182617e-01
4.894379367692383020e-01,-5.379953891021932444e-02,-2.384681179359166014e-02,-3.879869743502019699e-04,-6.163645831186436450e-04,-1.155876794250476711e-03,5.289028882980346680e-01
5.440082022017321828e-01,-4.393499442123394161e-02,-4.399364621105056328e-02,3.939132490998692253e-04,4.080627687978646911e-09,3.888105294906864842e-05,5.879729390144348145e-01
5.389691793352596738e-01,-3.810824483061173162e-02,-3.885691666931936905e-02,-2.615070636455725083e-03,-4.171181240128114809e-03,-1.136000154437938857e-03,5.775184035301208496e-01
5.369404066908793904e-01,-3.327195449313027908e-02,-3.371021202321336507e-02,-2.332192325023818916e-03,-2.500993303653702409e-03,1.078791177661298845e-05,5.704623460769653320e-01
5.405664625719572847e-01,-3.947476489774934261e-02,-3.975364432924410885e-02,5.287238397408784360e-04,-2.183372626695031637e-03,-1.519527182728989826e-03,5.801997184753417969e-01
5.043571148472967280e-01,-2.537121793683613791e-02,-5.189607879045685102e-02,-1.701571979575847854e-02,-2.414686670108430466e-02,6.126909460883362551e-03,5.459826588630676270e-01
5.036303923838872931e-01,-5.276557130182193966e-02,-3.722336992466429573e-02,6.377582194000249371e-04,-2.918042334214580955e-03,-7.644274481459810769e-03,5.489740371704101562e-01
4.824457779470321395e-01,-5.256974489034449416e-02,-2.752570968104409155e-02,-1.611340747153531747e-02,-3.704445456768173418e-03,-6.200011248456701457e-03,5.238370895385742188e-01
3.814267664568886662e-01,-2.885834620929093874e-02,-5.097067692272777562e-03,2.080352368039126675e-03,-2.572803018915376452e-03,7.401860782694367341e-03,3.991826474666595459e-01
5.279354952770589637e-01,-2.211292828186323112e-02,-2.054111559318980151e-02,4.016372405192450814e-04,3.574261098038047642e-04,-7.802171438126754600e-04,5.492666363716125488e-01
5.239591995345850295e-01,-1.772049713824225270e-02,-1.859859821998119389e-02,-9.260315187200951004e-04,2.207033778864893325e-03,2.009180989736799195e-03,5.421463251113891602e-01
5.291747050142738829e-01,-2.302249234795203381e-02,-2.282454122083910075e-02,2.245720405396174624e-03,5.893511581292051535e-04,-6.891046754304524721e-03,5.522419214248657227e-01
5.252994445824962222e-01,-2.029146176466467555e-02,-1.843124768823123372e-02,2.210696942402473012e-04,-2.925138793793343210e-04,-3.988330713088252943e-04,5.446639657020568848e-01
4.753821007209714788e-01,-2.599130618205003351e-02,-3.984165214278784228e-02,-2.622496754549687691e-03,-7.371046693944512552e-04,-7.839040366358022288e-03,5.086432099342346191e-01
5.296612373927878092e-01,-2.756301356625176502e-02,-2.289568804939345892e-02,-1.036989472473499223e-03,2.256697233090862367e-03,-9.287480127746884986e-04,5.549243092536926270e-01
5.360414917006407487e-01,-3.654966565430944891e-02,-3.049034354026403104e-02,-2.943647067607334852e-03,1.588305905232436895e-04,3.576314781063522595e-03,5.696422457695007324e-01
5.744894895113097366e-01,3.065553981345531254e-03,-7.331231202200599872e-02,-5.876582796016870808e-02,-9.099734924983009232e-02,6.816815855429625426e-02,6.520318388938903809e-01
5.275811173769482387e-01,-2.364407789006586769e-02,-1.665208748995183896e-02,1.159935687722869443e-04,8.393691236228853318e-05,-5.181489021362123935e-03,5.478362441062927246e-01
5.363666661609386432e-01,-4.523720582642729027e-02,-4.289445349282122733e-02,2.619176303949608074e-03,5.975696139464575264e-04,-4.711768231963077945e-03,5.805120468139648438e-01
5.220732727031615061e-01,-1.531758285572759615e-02,-1.857305566254152662e-02,-1.016951561210636002e-03,-2.246854832570038864e-05,1.764949559014034096e-03,5.390375256538391113e-01
5.379777316823712852e-01,-3.912919598418432288e-02,-3.879881014650113369e-02,-3.038102981685261283e-03,-4.408252137367864136e-03,6.621566058086578036e-05,5.770163536071777344e-01
5.320856773609337065e-01,-4.044841304247975833e-02,-3.947100533374148235e-02,1.718125855073267868e-03,-1.793308528370228180e-03,-1.432499661467165602e-03,5.720675587654113770e-01
5.383545846596532458e-01,-4.244110513283874675e-02,-3.997391150016454953e-02,1.538197603807987812e-03,-2.972736903121537318e-03,-1.306412662549417307e-03,5.795994400978088379e-01
5.405684783880835287e-01,-4.274756645310925918e-02,-4.143002331851267095e-02,-5.419656098469391621e-04,-4.427145135083908963e-04,4.113152815353901494e-04,5.826600790023803711e-01
5.304470670771103125e-01,-2.835012972042055823e-02,-1.500034959437235305e-02,-3.968266824466733407e-03,1.341286603854163414e-03,1.650560168913619988e-03,5.522983670234680176e-01
5.288620831999524263e-01,-4.097171174496630486e-02,-4.668746777058738195e-02,-1.453819712916372279e-03,-1.904627389078197928e-03,-5.294447228689666898e-03,5.728015303611755371e-01
5.169511290156210137e-01,-3.674875277928410511e-02,-4.968555135277383239e-02,2.142279941903486862e-02,3.743656259020130411e-02,1.476340509679907251e-03,5.652449727058410645e-01
5.028147507311806486e-01,-7.394015884308666187e-02,-3.500591932234742298e-02,3.803108641084188696e-02,-6.093426153567682579e-02,-7.724268690379891555e-03,5.721569657325744629e-01
5.249024686625217706e-01,-4.258908255072488269e-02,-3.945451084534970509e-02,1.217421779802424671e-02,-1.904909926114261090e-02,1.250182148765290957e-03,5.672879219055175781e-01
5.129815732484221957e-01,-4.670976761649045517e-02,-2.418017810111780519e-02,1.991649083391249311e-02,-2.848026151721166910e-02,5.210027539768432095e-03,5.521387457847595215e-01
5.217384500458204233e-01,-3.626290792565772803e-02,-4.260021891518028792e-02,2.468755775441284529e-03,-2.506654441606758973e-02,-6.947948304392953349e-04,5.628913044929504395e-01
5.299584902698452060e-01,-4.930700748223318386e-02,-1.096851307974189282e-02,4.580617276569575770e-03,-8.871149536235013039e-03,-1.416532636932100889e-03,5.613512396812438965e-01
4.976645592727263478e-01,-3.097431862314664608e-02,-5.950912108686173818e-02,1.126254742234553650e-02,-1.678108191192486526e-02,-1.101471441717260125e-03,5.445979237556457520e-01
5.145235486199082331e-01,-4.206385489802116906e-02,-3.724526960950341747e-02,2.304404627962787153e-02,-7.554470396337882587e-02,1.805797996743005018e-03,5.708368420600891113e-01
4.940824376658706774e-01,-3.428305445957766096e-02,-4.092961527494720642e-02,2.966268305612241880e-03,-2.293540247225420853e-02,-6.312874901025832073e-04,5.332276821136474609e-01
6.291723222725789100e-01,-9.177491416249761169e-02,4.929357904681061497e-02,1.551431648279246941e-02,7.833817955856439696e-02,1.134771009253737056e-02,6.763736605644226074e-01
6.460662982084919292e-01,-9.385249170363474391e-02,1.004035377583481492e-02,1.763688483779560223e-02,9.034530651849160404e-03,-1.162359396588821987e-02,6.949709653854370117e-01
6.481745238808851450e-01,-8.190483909681917085e-02,1.090958646235518081e-02,1.348184455909088360e-03,7.191171016668566375e-03,-2.921729659877174683e-03,6.885163187980651855e-01
5.368588895003540973e-01,7.664935962155450255e-03,-4.540180101079796526e-02,-8.148039898289105576e-03,2.814651020360841964e-03,4.307087593910154805e-03,5.578740835189819336e-01
5.812540431255663886e-01,-7.407251825359309483e-02,-9.067484777236511917e-05,-8.499114841458455319e-03,-3.233237931495863866e-03,1.421187772139023003e-02,6.223326921463012695e-01
5.705506523168808464e-01,-8.560180719051296849e-02,2.035492758131837721e-02,3.322090889205043564e-03,1.392745046944720844e-01,7.635756767755240079e-03,6.562311053276062012e-01
5.264105991812383367e-01,-2.277569353375946681e-02,-2.910291812833024072e-02,1.877051564020044885e-03,4.210285763760970726e-04,1.285221236989668361e-03,5.523915886878967285e-01
7.873046002227168660e-01,-1.152794973847857118e-01,3.094141958846885476e-03,4.259849479310231363e-02,5.820972696104755734e-02,1.180081958514060843e-02,8.589848875999450684e-01
5.231114795100121340e-01,-1.820688628881747539e-02,-1.832748995246005763e-02,2.411806926973059789e-03,-1.132273510777354920e-03,1.800324151663225446e-03,5.414073467254638672e-01
5.268948481118722604e-01,-2.542202515752625680e-02,-2.931930174554578383e-02,-1.503852266047202247e-03,3.797439346535959760e-03,2.209655075945263138e-03,5.543341636657714844e-01
5.516638874263513070e-01,-7.334215641262070706e-02,2.711737151818502389e-02,6.499709903874569157e-03,5.664072260700378850e-03,2.278502209055109293e-02,5.828527212142944336e-01
6.285787980068909819e-01,-7.964996064039572832e-02,2.132460436916672197e-02,-7.104298184040560779e-03,-4.822792574893535779e-03,2.122243297326701153e-02,6.647127866744995117e-01
6.427321321998324954e-01,3.801603860222391162e-02,-8.300671314756308261e-02,-6.005089723669916613e-02,-6.998580831681481401e-03,3.435454765154323520e-02,6.841187477111816406e-01
5.159500061763149237e-01,-5.383609870789585194e-02,-3.577784130361416626e-02,-7.599350688044143737e-03,4.451605249981338552e-03,5.773020280082682108e-03,5.612714290618896484e-01
5.605944864555268969e-01,4.007520996186553219e-02,-5.042257555377635536e-02,-8.183125509251360993e-03,-8.109764990226852113e-03,3.003097648551191629e-02,5.738813281059265137e-01
6.327696775737023938e-01,4.090796705967900126e-02,-8.340277227655595871e-02,2.362759923857587346e-02,-8.956000400782704318e-03,4.206902033241068789e-02,6.682462692260742188e-01
6.494503661274262374e-01,5.348969373770773306e-02,-8.815375857474377908e-02,1.052619719118403213e-01,4.163986262569997765e-02,2.119525025152132341e-02,7.067075371742248535e-01
2.267393173121740602e-01,2.819377851790962064e-03,-4.313098438826773462e-02,-8.688005310376109569e-02,-3.317735916880012320e-02,2.454016171585109499e-02,3.004897236824035645e-01
5.130003557887811150e-01,-5.561613148344318747e-02,-3.149252887868939088e-02,-1.102213926099180827e-02,-1.454021542486615094e-03,-2.174532541532428129e-03,5.572921633720397949e-01
4.710007374089568155e-01,-4.676929703472967881e-02,-2.583661553531857447e-02,-1.858109442166827607e-02,3.460756711781158047e-03,4.940804195027108207e-03,5.087539553642272949e-01
5.056149640041147642e-01,-6.231845044592021488e-02,-2.927023263772679518e-02,-4.315610129028397447e-03,-4.588288862273090323e-04,-1.563239540172972229e-03,5.522093772888183594e-01
3.910498404722075882e-01,-3.544015789562912633e-02,-1.076338912682189841e-02,-2.576492832162913943e-02,-6.784729610568488757e-03,-3.620246363464590163e-03,4.173094630241394043e-01
5.282304857372379647e-01,-3.863183569435799103e-02,-3.371101323160147212e-02,-6.225777537159843996e-04,2.086437219836712650e-03,1.272404118495173509e-03,5.644348859786987305e-01
3.853540254928926045e-01,-3.145798901883695153e-02,-4.033147965122621526e-03,-2.256022937547220997e-02,4.485272969057844603e-03,4.570279996318598811e-03,4.058365225791931152e-01
5.098649302721468546e-01,-5.680795076058661741e-02,-3.336080371594404848e-02,6.584069941377642191e-03,-1.080021941385909864e-04,5.200109719892381452e-03,5.555108189582824707e-01
3.933472567274587384e-01,-3.458724584745559438e-02,-1.631157117556525371e-02,-2.740779528827311934e-02,8.538526157863466498e-03,1.131750721233212159e-02,4.224898517131805420e-01
4.709631387022177873e-01,-4.759600270578706604e-02,-3.468881029068457411e-02,-4.004851240130904988e-02,3.016214342153025404e-02,-3.996694143950274732e-03,5.195823907852172852e-01
3.836718568138358654e-01,-3.509522026046543730e-02,-3.066507436887008775e-03,-2.714761220386171028e-02,-4.373849277944789112e-04,-5.221760519639967544e-04,4.064375758171081543e-01
5.367062324095958070e-01,-5.371886824870633625e-02,1.699048229771912832e-02,-5.890180546489715094e-04,-4.233482967854806066e-03,-3.582084039537989772e-03,5.585215687751770020e-01
5.245132442493370961e-01,-4.006014348937100844e-02,-4.696851028346643586e-02,-7.255748743519035851e-05,-1.632208133552408725e-03,-2.944717682000231587e-04,5.680663585662841797e-01
5.556368671083324884e-01,-6.237358870805020938e-02,2.543762730006371431e-02,9.113753287175223317e-03,-3.790369466023272519e-03,-1.174194343025887835e-02,5.797287225723266602e-01
5.293672776224236376e-01,-4.125691753850052601e-02,-3.954085386378136668e-02,-1.330645098026791420e-03,-7.792036810559033102e-04,1.640802917652615153e-03,5.697814226150512695e-01
5.983286962273183240e-01,-5.588027830256703243e-02,-1.839665566443862699e-02,-8.271335039180996440e-02,-1.395464700767435895e-01,6.646415521579608632e-02,7.050310969352722168e-01
5.691264275335954359e-01,-6.864906496152303750e-02,4.838537048202448676e-02,1.611622969464305416e-02,-9.030994628320168638e-02,-2.679864466940337989e-02,6.109126806259155273e-01
5.212255934550391601e-01,-3.842316146252772180e-02,-5.128718930473813442e-02,-8.272287204348882346e-04,-3.090785350468016127e-03,-1.460517953520240131e-03,5.662231445312500000e-01
6.283387994650955211e-01,-6.376314083631162699e-02,4.532728158854276712e-03,-6.144816687136864762e-03,-6.056259558782400160e-03,-1.040791127385622301e-02,6.610219478607177734e-01
5.248818524829084176e-01,-4.761577590097651469e-02,-4.376697596156300940e-02,1.803958314177518023e-03,3.285457680541878150e-04,-6.446429402381322104e-04,5.705928802490234375e-01
5.289627312994915620e-01,-4.463714072115093634e-02,-4.570212302204909594e-02,-8.217593668670459964e-04,-6.784931254325952564e-04,5.050208647962209753e-04,5.741367340087890625e-01
5.275472741323744552e-01,-4.114589925826050987e-02,-4.084691441207838336e-02,2.044479712147972191e-03,-1.258869849859073928e-04,-4.673788970661768853e-04,5.685554146766662598e-01
6.311661314284736646e-01,-9.079972359380658609e-02,2.164099941545849504e-02,1.603108117974854849e-02,-3.525536697245430784e-02,-8.746985902102214416e-04,6.761666536331176758e-01
5.728137793327252592e-01,-8.902722974175211745e-02,3.887345417653209623e-02,2.193996200546791814e-02,-1.834035801306152643e-03,1.306934944387427248e-03,6.092630624771118164e-01
5.445686295664654564e-01,-6.067217092513163545e-02,2.577027651017443910e-03,-2.767165650295937574e-03,6.632143865080635664e-03,3.926849044237936716e-03,5.764001011848449707e-01
5.330620427051215859e-01,-3.360541630873858931e-02,-3.438656389370364774e-02,-1.942868200112209945e-03,3.865204811958177031e-03,-1.040914487032680667e-03,5.671107769012451172e-01
5.314706139714007183e-01,-4.150044436814825932e-02,-3.775420052571282215e-02,4.258662180410792940e-03,-5.253098442146128186e-03,1.188068767907417148e-03,5.712309479713439941e-01
5.223495431979086057e-01,-4.986397737142739262e-02,-4.562785465764410131e-02,1.195016212526213125e-03,1.002846525317369628e-03,-5.233084235183546942e-03,5.701857209205627441e-01
5.290986283805839685e-01,-4.349576096740948028e-02,-3.914837334426093940e-02,1.573454785130222076e-04,3.911086542346225471e-03,3.477871424500829887e-04,5.704737305641174316e-01
5.318367364286770149e-01,-3.583513262357357343e-02,-3.075845551311745529e-02,-1.067777853096306493e-03,3.110871967280207616e-03,-5.739067467255442494e-04,5.651802420616149902e-01
5.310338468250576094e-01,-3.799054251684277905e-02,-3.392705641149815210e-02,1.087835005192582796e-03,-1.984282159964142166e-03,-5.579531726955684872e-04,5.670179128646850586e-01
5.144629316689331988e-01,-2.880469134600566194e-02,-6.012175184716964105e-02,4.132538522811709560e-03,-5.661662796880449246e-03,-5.506531575032627256e-04,5.597162842750549316e-01
6.335703782900978798e-01,-9.263559049204445062e-02,5.034408610181967392e-02,1.361689444537446392e-02,-1.051898325305773534e-02,-7.711767677555704699e-03,6.671223640441894531e-01
5.288646933541885087e-01,-4.804536071319392976e-02,-4.738079035172454434e-02,-2.496305202887568820e-04,2.695165632396330657e-08,-4.060341348529677096e-04,5.765786767005920410e-01
5.186707635752303425e-01,-7.040320156750726199e-02,5.333082151717868924e-02,-2.178174452747250883e-02,-1.418187651761507739e-01,1.981750272235341739e-02,5.936067700386047363e-01
5.184601960829917644e-01,-5.704594009156999102e-02,-3.566003733384978669e-02,-2.726981267413046702e-05,-8.363970237796690790e-05,2.622134901960731720e-03,5.651350021362304688e-01
5.940003038833747695e-01,-7.310155678402169288e-02,6.396833719828881604e-03,1.710892538816172117e-03,-2.912710489679572710e-03,1.417565913071875544e-02,6.316236853599548340e-01
5.462703600955831629e-01,-5.524639911137449455e-02,-5.978479031334443805e-03,-4.662766819513449769e-03,8.289754341230515938e-03,1.227768896109321731e-02,5.790836215019226074e-01
7.946014308312583374e-01,-1.269646619374784069e-02,-7.721373940547671122e-02,-5.699987292841997288e-02,-2.010762657387461100e-02,5.129810659463859140e-02,8.525440692901611328e-01
5.662145724958812520e-01,-6.184412934312219501e-02,2.663108798726446236e-02,8.998534759971900387e-03,-1.705241028452416860e-02,2.846306287186436967e-02,5.918307900428771973e-01
5.227161480468994759e-01,-4.998825582826527114e-02,-3.972738255386656925e-02,-4.768441715851880376e-03,3.363356048309376102e-03,1.712945019998668309e-03,5.677412748336791992e-01
5.290692380113182214e-01,-3.659957734313878941e-02,-4.005899127390993852e-02,-2.741470391797675875e-04,-2.992213690947246869e-04,-5.461920828145280533e-04,5.674076676368713379e-01
5.850790015381914788e-01,-6.905448864738653048e-02,3.021024503550243101e-02,2.561452223549687962e-03,2.768544997994270510e-03,3.299415903125361982e-02,6.132864356040954590e-01
5.407996475002678771e-01,-4.575719024837665572e-02,-4.366104163502163016e-02,-2.623818373135367640e-03,-2.825709789782866743e-03,-2.277125683412022355e-03,5.855629444122314453e-01
4.363869847937278945e-01,-2.509230046585061991e-02,-3.547138114359274508e-02,-8.142567586901155519e-05,-1.587745908871214875e-02,-1.338548798782264460e-02,4.681392908096313477e-01
5.159529735038685949e-01,-4.644461950328448996e-02,-4.173474788669784274e-02,-1.733140991400336159e-02,-7.529941738081548201e-03,-9.200592260027508698e-03,5.612393617630004883e-01
4.589090542443488574e-01,-2.523291831011759134e-02,-4.841021928370700667e-02,-9.459449403153701377e-03,-9.788479235327950806e-03,-1.027619337108832097e-02,4.970155358314514160e-01
4.747341606380869328e-01,-4.105773382523686399e-02,-3.665801021110409730e-02,3.021745196063176393e-05,-4.820176393598773167e-03,-1.205747460574505339e-02,5.140984058380126953e-01
6.399239736151260960e-01,-3.597872657707862354e-02,6.496877926613298104e-03,-7.124150636535452052e-02,7.967181992012718761e-02,-5.215156687260426999e-02,6.872899532318115234e-01
5.266368867787682984e-01,-1.479116565715121734e-02,-2.542094569119088265e-02,4.342695086744098707e-04,-2.901170036329050669e-03,2.548041741975265537e-03,5.468618273735046387e-01
4.913295776139443571e-01,-5.510860080301754893e-02,-1.907598923155326420e-02,5.186221759423013597e-04,-3.910912975554695623e-04,4.374057472059814621e-03,5.293978452682495117e-01
5.359236998372698402e-01,-4.494023878006789263e-02,-4.116745731964649435e-02,2.331667379420740861e-03,-1.332620844328418451e-03,-7.265743461955602965e-04,5.790067911148071289e-01
5.158483220182530360e-01,-5.740234825454543222e-02,-3.313318298866757550e-02,2.246500600178619276e-03,1.609621034683803888e-03,5.034308481313588953e-04,5.615306496620178223e-01
5.508942710123669873e-01,-3.090121475878782054e-02,-2.120592199089810226e-02,3.964555789885568227e-03,3.462018270002181937e-03,-1.366332664102268453e-02,5.775659680366516113e-01
5.944976066779603663e-01,-2.643790388136865732e-02,-3.222510314765808515e-02,-4.330308601014721225e-03,-5.288144593859109288e-03,-1.161553333216112406e-02,6.242858171463012695e-01
5.313064272703420521e-01,-2.475073952312695225e-02,-1.664224579720427477e-02,1.882342790774911871e-03,9.833203688290447636e-04,-2.810602021923454090e-03,5.520812869071960449e-01
4.985560213236182037e-01,-5.260221745715512598e-02,-3.641868659927902097e-02,8.935569916252737030e-06,1.480114356111133188e-04,5.101861355480463711e-03,5.433192253112792969e-01
5.325457557099302353e-01,-1.862452510314296927e-02,-2.610933979439278296e-02,-2.837426415693332176e-04,1.101476916822778608e-03,-3.361153813331196200e-03,5.549845695495605469e-01
5.259185548098577190e-01,-8.832852094267318321e-03,-2.529096124349761165e-02,2.700923199508172934e-04,-6.448672540095634143e-04,3.837765365954098982e-03,5.432094931602478027e-01
5.666541602503811781e-01,-5.942298443982224621e-03,-5.056860153626058230e-02,6.076087442233890981e-03,4.563312837144790045e-03,-1.970272812518496924e-02,5.972846150398254395e-01
5.454486819990660429e-01,-1.652218803986080231e-02,-2.118697522629195418e-02,-5.995424945616463670e-03,7.770519176573922188e-03,-2.295412924791817577e-02,5.659718513488769531e-01
5.319931203374804740e-01,-2.808609499124462006e-02,-1.093627783984368884e-02,5.386960391432558774e-03,-3.504193459883979921e-03,-7.840641918917923281e-03,5.519835948944091797e-01
5.225814156314195769e-01,-8.620899746498184024e-03,-2.345101762455190086e-02,3.139056596217933951e-04,-1.397565764854333432e-03,3.815069573682376702e-03,5.388166904449462891e-01
5.175819023848584610e-01,-5.272844385633840281e-02,-3.871808778185995004e-02,2.073746934119282369e-03,2.040989141753409356e-03,8.445835952339291906e-04,5.634602904319763184e-01
4.921372134834965939e-01,-4.161859529204695041e-02,-3.969363068451770005e-02,1.245811392950667632e-02,-1.069705571618390051e-04,9.691992488616260268e-03,5.334969162940979004e-01
5.358147016557638365e-01,-2.865546405122074147e-02,-3.594016186531526214e-02,7.248970259834061364e-04,-5.491852354975078170e-03,-5.313352538553196532e-04,5.682293176651000977e-01
5.337789714719053391e-01,-3.009838485428076305e-02,-2.270161772249221221e-02,3.625569464391448834e-03,-1.732718573240800159e-03,-1.255728983441031961e-03,5.602630376815795898e-01
5.279403957317082563e-01,-3.780654626762897097e-02,-3.063814163981359862e-02,1.484485341597470458e-05,1.059314041068255352e-03,1.183174676730953988e-03,5.622037649154663086e-01
5.383815476173842152e-01,-2.781277389670461231e-02,-4.111431354987463149e-02,6.941306030074393014e-03,-1.740430123846934719e-03,6.386591739239540948e-04,5.730960369110107422e-01
5.253459566449609763e-01,-1.793393926123851290e-02,-2.914138770866772643e-02,-1.406905198634131240e-03,-7.072249964109448596e-04,1.171000627767918110e-03,5.489799380302429199e-01
5.604631421313208683e-01,-4.258590014568089388e-02,-3.219701550820119884e-02,1.174889012940921913e-02,8.831380619550457597e-03,-1.893782824074154159e-02,5.993622541427612305e-01
5.278294385242833231e-01,-4.259216297262308215e-02,-3.517813749855697170e-02,-1.940882180264859574e-03,2.042563578854465507e-03,1.031315717389770297e-03,5.667747855186462402e-01
5.342303858802268657e-01,1.377242958217503310e-02,-4.513772741287150336e-02,3.019552870189433531e-03,-2.631841221540428578e-03,4.576786398460581592e-03,5.523749589920043945e-01
4.949357042189047595e-01,-3.928518207369180448e-02,-4.608570003208570243e-02,2.144321397812010144e-04,-3.414100949903340221e-03,-8.845906927328945138e-03,5.379043221473693848e-01
5.289299456977554215e-01,-1.807812356573471058e-02,-2.393854060126143768e-02,4.130740632715159386e-04,4.378833999182544373e-03,3.327318150118148497e-03,5.500446557998657227e-01
4.841366588280062722e-01,-1.706341849246492681e-02,-5.623363821900759230e-02,-4.223346517856723867e-03,-1.948477069687832783e-02,-6.303593904218795022e-03,5.231440067291259766e-01
5.102457026344157098e-01,-3.668101425437286789e-02,-5.016050585911360771e-02,-1.984745864510590718e-03,-5.617539264604084689e-03,-4.061025813046457641e-03,5.539302825927734375e-01
5.196944719106632027e-01,-3.739944246499796177e-02,-5.398941358383729794e-02,-2.057311982506048343e-03,-3.698247895748276327e-03,-4.604853095604980427e-03,5.656751394271850586e-01
4.972473605445731359e-01,-3.106164780331571729e-02,-5.737479568470482683e-02,7.168858804961407960e-06,-8.608547139955550001e-03,-5.141309077372811440e-03,5.422230958938598633e-01
4.779491564490235267e-01,-3.134564127254044208e-02,-4.784255335464665526e-02,8.500771904275699524e-04,-1.512101234346651703e-02,-1.041239521275375522e-02,5.187181234359741211e-01
5.281957643651113976e-01,-4.721916211328056057e-02,-4.734924051697755876e-02,6.614800111679978577e-05,1.109559684616923678e-03,2.007754620182362112e-03,5.754936933517456055e-01
6.972305640266684978e-01,-1.033460382924076826e-01,1.442174469856485897e-02,-2.382788106016285601e-02,-1.422528438103208004e-01,4.532040706023362370e-02,7.931473851203918457e-01
3.426856528385306966e-01,-1.980656436784662688e-02,-7.246380000784646835e-03,-1.861540086711353011e-03,-2.804800932269738839e-02,-7.662498657258394637e-03,3.599333465099334717e-01
5.248164334172230605e-01,-5.039652643644221275e-02,-3.940027613957858277e-02,-2.296233630965426997e-03,7.055137750361084852e-04,-1.629035301862507461e-03,5.698165893554687500e-01
5.763127555087369513e-01,-3.121488246595915950e-02,-6.123706850722385187e-02,2.867588490629424582e-03,-1.534505044764453673e-03,-8.227762402777897416e-03,6.232698559761047363e-01
5.732713124291187734e-01,2.388022148420007595e-02,-7.603282800127977858e-02,1.423880459089139072e-01,2.448742661979151636e-02,-1.451321564241909133e-02,6.557121276855468750e-01
5.443443626357219456e-01,-3.717036358840963839e-04,-4.438819620718495451e-02,-3.673360457755989010e-03,-6.947800653755747957e-03,1.885808342624129691e-02,5.691060423851013184e-01
6.324004616776650600e-01,3.721882850986937830e-02,-8.056283418179172040e-02,-2.367871868041398348e-02,-6.481591024613914294e-03,1.891040811670243946e-02,6.641506552696228027e-01
5.934633969015317145e-01,3.412135435474805689e-02,-7.188005569317620913e-02,-5.197623400936793488e-04,-6.870655558866990264e-04,1.499787360711427996e-03,6.191928982734680176e-01
5.532892451421960178e-01,2.004001580633565927e-02,-5.763885506528204639e-02,2.805980085807620317e-02,3.829234830479247807e-03,8.823119356227149268e-03,5.783169865608215332e-01
5.416107507617834438e-01,-4.029527712084160496e-02,-1.017155332850375182e-02,2.727178905266275377e-03,1.125467407937783340e-02,-1.801995895029477948e-02,5.686557292938232422e-01
5.292436145463095265e-01,-2.471625729344095745e-02,-2.623703297655544109e-02,1.290509929871318630e-03,-1.304532283836288631e-03,-2.147634737399997608e-04,5.547310709953308105e-01
6.896942307509721370e-01,1.194664429246250492e-02,-1.125225465027937244e-01,9.497802761657411774e-02,1.108320541329468542e-02,9.542172717397205683e-03,7.660921812057495117e-01
5.283543615000834137e-01,-4.730826389459155679e-02,-4.874502303164246486e-02,3.890382630645731338e-04,2.760065386348732760e-04,-7.313675171496289125e-04,5.763843059539794922e-01
2.591307540439887758e-01,-4.766425815353844686e-03,6.735243927583373091e-03,3.610260109986428937e-03,2.084005616324384469e-02,3.270273274766232526e-03,2.609844207763671875e-01
1.601512006340335414e-01,1.722440346408890544e-02,2.387359374340580764e-02,-1.193204540785033560e-02,4.100086846493618438e-03,2.658759509404524761e-03,1.414944976568222046e-01
5.654587966605481020e-01,-4.277674821803478800e-02,1.700076662101659974e-02,3.894394005031550504e-03,3.056749181746042359e-03,2.865648430492230558e-02,5.828397274017333984e-01
2.399112162887969135e-01,1.136778610903861619e-02,9.057515792881901118e-03,-1.641885358522769678e-02,3.844830387100078156e-02,5.899699278611605577e-03,2.410672158002853394e-01
2.564789492431164275e-01,1.117315006877100947e-02,1.488079317260082579e-03,-9.749664816996910996e-03,1.206798603994065078e-02,5.647991247984116524e-03,2.519172728061676025e-01
5.669141181068955149e-01,-5.369941651707277330e-02,-4.295151550046313882e-02,-1.148069118971060693e-03,4.812666873237902987e-02,-1.938789497096661540e-02,6.218412518501281738e-01
5.742274591764386926e-01,-5.158120160359264128e-02,-1.206669324279815991e-02,-4.642508194072436124e-03,1.591176848191295373e-02,-2.230048629960375631e-02,6.089215874671936035e-01
5.903411315843360985e-01,-5.598495137444023384e-02,2.664190651618902894e-02,-1.416574982684225444e-02,7.995154738937307326e-02,-3.817567341874616993e-02,6.287381052970886230e-01
5.956193160607476944e-01,-7.319728629503116646e-02,-8.637756470603469294e-03,4.403359122028834005e-03,4.034947617599737163e-02,-7.865459738712235471e-03,6.429876089096069336e-01
5.504836443375588084e-01,-5.748723500646799045e-02,-1.546228813522190770e-02,1.861361960043009679e-03,6.246951322467827333e-02,-5.792352849750981129e-03,5.980494022369384766e-01
5.354549590794472902e-01,-4.278039649827797275e-02,-3.999127619234729702e-02,8.642844013962301588e-04,-3.410237669433495607e-03,-8.461675934764063562e-04,5.768799185752868652e-01
5.383990994783759421e-01,-4.296207470630727943e-02,-3.975865058695804422e-02,8.639247934719587827e-04,-1.622582187192809448e-03,-8.458531428370378051e-04,5.797767043113708496e-01
5.355892183229460368e-01,-2.625799755952407111e-02,-3.663482549976906921e-02,3.017019501721734161e-03,-5.304436411588409235e-03,1.419945502308099343e-03,5.672106742858886719e-01
5.109070103698056808e-01,-5.668971642925066390e-02,-3.472319807444199102e-02,7.043883597518090477e-03,-8.880153736748453265e-04,5.029006473047622702e-03,5.571423172950744629e-01
3.947206565330699246e-01,1.545498684268042933e-02,-4.219325183851227457e-02,-1.181533265712643027e-01,-4.817149872853201259e-02,1.223406330803034070e-02,4.672482013702392578e-01
8.358238336488751363e-01,-3.944153082919890640e-02,-4.818303089122880078e-02,-4.105139714972615844e-02,-2.693886119073652177e-02,6.027662925757645146e-02,8.899154663085937500e-01
4.265008017759669423e-01,-3.484523161019981163e-02,3.850117654574797266e-03,1.128345075097277328e-01,-9.457645277570195241e-02,-3.674651889956538631e-02,5.153304338455200195e-01
5.291650368989919695e-01,-4.714077743007888399e-03,-3.253506564607056006e-02,2.328014249548226045e-03,-4.247955867131143239e-03,4.610373265250464030e-03,5.484415292739868164e-01
5.252457483916113112e-01,4.151885693473689187e-03,-3.282804274440445647e-02,-8.201501105784068501e-04,-4.412458863402241374e-03,6.728636311597849598e-03,5.407149195671081543e-01
7.378857069049770123e-01,2.600538474509250797e-05,-1.150743969001696010e-01,9.173876187167046004e-02,5.610882220235412221e-02,2.461028119345205073e-02,8.240889310836791992e-01
4.130508851852620622e-01,-3.313470999146654605e-02,-4.314492082358965808e-02,-8.103724930576934604e-02,-9.783181244342516875e-03,-1.162146684860606259e-02,4.733303487300872803e-01
3.938238125476747342e-01,6.583276037680718673e-03,-2.915877589041895868e-02,-1.171739247288944713e-01,-4.116269036300940903e-02,3.859322270017139650e-02,4.645579457283020020e-01
5.163451232306401906e-01,-5.689546899049971462e-02,-3.378834642448483305e-02,-2.371063409983521439e-04,1.101556022732639835e-03,2.965891675036090840e-03,5.620702505111694336e-01
4.109950706641573026e-01,-5.904691980066906210e-03,-5.837966416701295680e-02,-1.040551922135162788e-01,-5.412316173970733307e-02,5.883715314128359908e-02,5.000916719436645508e-01
6.472862839167476956e-01,2.673743062056463393e-02,-7.759141267032165779e-02,-3.583270563606165589e-03,1.244421481739119671e-02,-2.124646091626827826e-02,6.801204681396484375e-01
5.296863666653135461e-01,-1.415070599700282705e-02,-3.358585186116397336e-02,-4.188182450312358945e-03,-1.138234504181006147e-04,2.859159238278438219e-03,5.538801550865173340e-01
5.363753905357017127e-01,-1.843163298623273771e-02,-4.329699579359258532e-02,-1.046594292324990252e-02,4.777690516263185215e-03,-8.792964019749665563e-04,5.680000185966491699e-01
5.322092323243102774e-01,1.384997270148527471e-02,-4.811936666841939991e-02,2.361914193636012287e-03,-6.836450115571436094e-03,6.521742631333518093e-03,5.522168278694152832e-01
5.571821631554614296e-01,4.019640572114485666e-02,-6.342871120936899310e-02,6.279873924270437148e-03,4.702590835143417511e-03,-1.076154354008076325e-02,5.762961506843566895e-01
5.482708980617290173e-01,2.862857147866473828e-02,-5.407136750732258190e-02,-7.891637741522463181e-03,4.187273629932329426e-03,-2.873744692236393766e-03,5.657791495323181152e-01
5.527198861902437033e-01,4.576224558782593377e-03,-5.254758828156155803e-02,-1.917284168360975716e-04,2.191289932884954526e-03,-1.275043512259397584e-02,5.792571902275085449e-01
5.393125606835911245e-01,-2.416887136857737151e-02,-4.199025600967287719e-02,6.710002245901537481e-03,3.147907506799243332e-03,2.293824102419808175e-03,5.727578401565551758e-01
5.307172817911445240e-01,-2.742799607048782007e-02,-3.541725473693027593e-02,5.625610767354110447e-04,2.622500542365888143e-03,-2.200449812826771323e-03,5.622146129608154297e-01
5.283604099852341474e-01,-1.407354909518176989e-02,-3.349896936028873284e-02,-4.321252175191411110e-03,3.006598494495447711e-03,3.419612628052713394e-03,5.525099039077758789e-01
5.499006097506655699e-01,1.312947514529480553e-02,-5.869432524145615226e-02,-5.016670981637542069e-03,5.179661894555022406e-03,8.606099280878957980e-03,5.763792395591735840e-01
3.758257081923225273e-01,-2.152250104482826554e-02,-1.127204193750995509e-02,3.862950652718376982e-02,1.073911262380684850e-02,-1.578189874771390765e-03,3.984317183494567871e-01
5.306143179411647592e-01,-3.144699576844453559e-02,-3.064272614871535461e-02,-9.986536094524934171e-04,9.357593618472748913e-04,-2.183848463911592253e-03,5.616773366928100586e-01
5.487510875905924346e-01,3.504202270342418601e-02,-5.837325965264658634e-02,-1.001801801550736004e-01,-1.010015824367288019e-02,3.775678304221136844e-02,5.960726737976074219e-01
5.882862585337000905e-01,5.552380105736642868e-02,-8.080317841114953437e-02,9.035876195611608486e-02,1.238240740931936812e-02,1.003112643230429438e-02,6.326979994773864746e-01
5.281252737286072918e-01,-4.095095211407703828e-02,-3.889615837304621904e-02,-5.530337259654445267e-03,2.686949905670096969e-04,-4.719618486862124152e-04,5.681331753730773926e-01
6.359123505921021602e-01,4.071475398054635875e-02,-9.199762421076440599e-02,-2.700518247351315834e-02,2.526648875260080387e-03,9.696237057680924185e-03,6.733140945434570312e-01
5.481589699445879038e-01,-2.473242025966301827e-02,-5.387819206409874551e-02,6.621841137418696703e-04,1.072470635397346781e-03,7.007236269176662100e-04,5.880115628242492676e-01
5.345288361726481252e-01,-2.199737519634642480e-02,-4.246609312237592526e-02,-9.196456916863502210e-03,4.215417853748470306e-03,3.965521558706412307e-05,5.673083662986755371e-01
5.802142156808782758e-01,4.593917125526883471e-02,-8.937073075615639683e-02,-2.317699763376556733e-03,8.608535201068244144e-03,5.803365281346882856e-03,6.135069727897644043e-01
5.159219185020063048e-01,-5.694657367076985666e-02,-3.644332345348808011e-02,-5.252666287665483033e-03,-2.459939116881513978e-03,-2.243562930769123394e-03,5.630000233650207520e-01
4.385804964580880538e-01,4.425188628158882587e-03,-7.202719983167557571e-02,-1.418308119914924725e-01,-7.134059420148028408e-02,5.434217064314295076e-02,5.585728287696838379e-01
5.348447211201265983e-01,-2.285229231344607093e-02,-4.397947480307115575e-02,-7.881768856214313793e-03,2.435959653773327269e-03,5.654225234384295312e-04,5.687354207038879395e-01
5.617192465795629586e-01,5.226544016413139926e-02,-6.564972867029988945e-02,1.201088318649843473e-02,3.081255780633175047e-03,-9.590317809411687960e-03,5.781493782997131348e-01
5.566056867293336374e-01,3.193891534408196953e-02,-5.970305839282546989e-02,-3.697678257009897988e-03,4.483887829895397722e-04,2.265014105712347819e-03,5.760312080383300781e-01
5.387324039841234757e-01,2.939126650776058280e-02,-6.124092697085264936e-02,-3.472087628745211280e-03,5.267918647330388851e-03,9.508171034935163426e-03,5.605318546295166016e-01
5.573607461829190868e-01,2.170089307865713524e-02,-5.896399962976964226e-02,-9.197771572326481765e-03,-2.807659583355405757e-03,5.669311706494494646e-03,5.805351734161376953e-01
5.071773387139965061e-01,-6.306543826857874402e-02,-2.861531011514473199e-02,-3.951894584342283828e-03,4.601098171682463682e-04,2.152985580943671960e-06,5.538647770881652832e-01
5.623853653198060965e-01,1.949846543106675822e-02,-6.168850641822679060e-02,-1.074368247134911301e-03,-1.090056741950481576e-03,1.125485514227490304e-02,5.880305171012878418e-01
4.626172781239463183e-01,-3.676571581766729935e-02,-3.544407982548006264e-02,-1.267436074603045526e-02,-8.058429761536008498e-03,-1.304704095914024919e-02,4.999125301837921143e-01
5.092882885319922615e-01,-5.395572345868315800e-02,-3.430520290515531867e-02,-1.710046210032727760e-03,-1.021645620876162827e-03,-3.652068700599515536e-03,5.537272095680236816e-01
4.597555207139107925e-01,-2.697377952093235609e-02,-3.806403361503921112e-02,-7.750193162540145245e-03,-1.197252177677232514e-02,-1.308863033803475857e-02,4.935083687305450439e-01
4.083407073221581585e-01,-2.053724132481483944e-02,-3.616605337154348010e-02,-2.436522472033424841e-02,-2.869782402025542259e-02,-1.241076221438759328e-02,4.422636926174163818e-01
4.507068230724495250e-01,-3.644190085443027582e-02,-3.511406636356129152e-02,-1.682482991066628145e-02,-1.337725421909250444e-02,-1.351092581657929552e-02,4.884695410728454590e-01
5.494023885480623370e-01,-4.929571691021567004e-02,2.515682591982568161e-02,4.527089271690066044e-03,-1.160836604390715066e-02,-1.952157255517684292e-02,5.665836334228515625e-01
5.503623113771836106e-01,-6.221530870869929064e-02,2.919303076131724017e-03,7.623360919185841189e-03,5.363632373359708723e-03,-3.631138846269269405e-03,5.830043554306030273e-01
4.900495665603413764e-01,-5.191383421887502125e-02,-3.017356521941763625e-02,1.139916528129313652e-03,1.154904719306185145e-03,-9.395708816366818775e-03,5.316834449768066406e-01
4.899042835656325923e-01,-5.308215621546391594e-02,-2.803655265905580229e-02,-2.951906570590872854e-04,-1.129123680749702157e-03,-2.857909592045797427e-03,5.309337973594665527e-01
5.111933627232285726e-01,-4.899660350085260907e-02,-3.482543684598415901e-02,-1.121377487043148874e-03,-1.641740642238193439e-03,-6.319602509594210264e-03,5.533595085144042969e-01
6.396504093973270910e-01,-1.335061280480076551e-01,3.990276365552045124e-02,5.984913881455813933e-02,-1.418579387040870832e-01,-8.954326272526021147e-03,7.517491579055786133e-01
5.908955290819302153e-01,-6.764690711217857810e-02,7.826092582205013137e-03,2.757102682363253999e-03,5.605665244979862911e-03,-3.068042639985832029e-02,6.265884637832641602e-01
5.388608207684074669e-01,-2.649296628011665877e-02,-4.365231761343266181e-02,9.486986103462087191e-03,6.543873131948155057e-03,1.789196846398530098e-03,5.744810700416564941e-01
5.350927810873393753e-01,-5.309306427569748799e-02,-4.205783894673326140e-02,5.119747121767706174e-03,-1.213297318816379663e-03,-9.230279668142120331e-05,5.828178524971008301e-01
5.150344796254915369e-01,-6.004893196787988718e-02,-3.072722831471183524e-02,-8.879666694617480973e-04,2.383203959142356221e-03,-4.798727196451847005e-04,5.610154867172241211e-01
6.041690473563166019e-01,-6.643262633238652959e-02,4.664900647173342296e-03,1.101328325645208918e-02,1.854714843897230887e-03,-1.769223253529157366e-02,6.390591263771057129e-01
5.450327532409278142e-01,1.830827171802393294e-02,-5.725534008267518793e-02,4.200894120901124337e-03,1.154665471558316922e-04,1.277045214987190900e-03,5.683376193046569824e-01
5.085059038794966790e-01,-6.094982663238629472e-02,2.406312536145879810e-02,5.300550306097883552e-02,-4.125638873435351350e-02,-4.158212382284733749e-02,5.493797659873962402e-01
5.369728076331862221e-01,-4.965797031468729972e-02,2.717511549895579304e-03,6.800202537670991046e-03,-2.840588190242833086e-02,-2.036287497929086757e-03,5.645579099655151367e-01
5.323701037545144343e-01,-3.524029494971664400e-02,-2.670900462087197336e-02,3.873424760024268658e-03,-2.695548964818796772e-03,1.789900914219160095e-03,5.634610056877136230e-01
5.411272537038985808e-01,-2.673021594283034319e-02,-5.260870054924296491e-02,9.707144514514928074e-03,2.425183383308628354e-03,1.825573799632426936e-04,5.814873576164245605e-01
3.361153408173765955e-01,-7.073069931286896095e-03,-1.347716281559827034e-02,-1.640034761531127330e-02,5.071651420584745440e-02,1.677977122481306982e-03,3.585372567176818848e-01
4.653528186886219942e-01,-3.456566824940851546e-02,-3.333810609523513158e-02,2.385701325156834455e-04,-9.503641497586147804e-03,1.110590540519245349e-02,4.999474585056304932e-01
2.353650205513719285e-01,5.633411587534817300e-03,-7.648330184006416066e-03,7.102410443852220923e-02,5.406612896499788518e-02,1.180921683617516468e-03,2.826856076717376709e-01
5.325572502113453677e-01,7.941061028578166869e-03,-4.333625925584183580e-02,-8.074933975628013558e-03,1.662573411757963969e-03,4.275693108396125958e-03,5.522781610488891602e-01
4.542771175831743502e-01,-4.311429275153302876e-02,-1.841216462089670380e-02,-2.194366555561319716e-03,-2.306287603322177988e-03,8.675978995281819622e-03,4.857756793498992920e-01
4.014165931704852808e-01,-2.492314745987497804e-02,-7.042491284852986366e-03,3.002207823982181237e-02,1.416765071033991574e-02,-2.256982009319850272e-03,4.216437935829162598e-01
4.006911654414934687e-01,-3.363344118163268115e-02,-8.630048117179670020e-03,5.666998942657632682e-02,-3.466892298573026610e-02,5.010402050614295479e-03,4.378573000431060791e-01
5.278407833691072248e-01,-3.512395951142416317e-02,-3.837736072796862907e-02,-4.922744145493900512e-04,-1.676883103293994991e-03,-2.193396211291766870e-03,5.646193623542785645e-01
5.411962437203616805e-01,1.858309117396111931e-02,-5.292122236215796027e-02,5.795045598756999247e-03,5.704091865661585926e-04,-6.051935761866414397e-04,5.618801116943359375e-01
5.482662338973702809e-01,3.524755843071131212e-02,-5.700279182915446441e-02,4.269310133069324016e-04,4.211797153744001668e-03,4.244994215460922739e-03,5.649179220199584961e-01
5.390786957364454013e-01,1.345078554643433510e-02,-4.849245579487593272e-02,1.581194881282175883e-03,-1.952196699478843779e-03,5.521011422891454641e-03,5.592773556709289551e-01
4.584695846311283018e-01,-4.253480638087450694e-02,-2.586760739617929850e-02,-2.119399283625899785e-03,1.513556189368472568e-02,-8.017578390412959805e-03,4.937878549098968506e-01
5.481018482809272285e-01,-4.891450306531069936e-03,-4.556683365434813227e-02,6.812404737599377612e-03,8.194871515476643414e-03,-2.027009746394161510e-03,5.747193098068237305e-01
4.035706934488094144e-01,-2.621268570724606672e-02,-2.246083748959996906e-02,2.956028509566195964e-02,1.401388301516624628e-02,-9.112554391004239543e-03,4.319433569908142090e-01
5.475251518355245262e-01,3.207694705650931954e-02,-6.249756156653976658e-02,-8.131833141716419619e-03,2.461580399869673502e-03,1.558389367065562709e-03,5.688614249229431152e-01
5.365589029067401317e-01,-2.220996358196350440e-02,-5.082746905562560147e-02,-9.024470542789370456e-03,3.476725896589100118e-04,-1.658359259661974739e-03,5.738337039947509766e-01
4.532793260033628480e-01,-3.700854168855124970e-02,-2.531306845421066321e-02,6.139669519628497552e-02,4.712987841759943425e-02,4.668438181075865688e-03,5.028146505355834961e-01
5.043420986677690232e-01,-5.868578524903048099e-02,-3.042490777701747917e-02,8.568183898273450409e-05,-2.518317952229457129e-03,-1.158312165280626525e-03,5.494638085365295410e-01
5.302665678923763615e-01,-2.252420654289580271e-02,-3.939595901007511558e-02,-8.856663600949103710e-03,2.614333254302733753e-03,1.563414524141971094e-03,5.616511702537536621e-01
5.254055106186878987e-01,-3.782771645278923400e-02,-4.774028243635000668e-02,-1.026435323816350925e-03,-1.040128393009679677e-03,-1.692346671323909611e-03,5.682675242424011230e-01
5.399075730545720431e-01,1.504336508735934497e-02,-5.312561628992051865e-02,-1.155822041441408043e-02,4.846448175449708309e-03,-1.393080876435240020e-03,5.624819993972778320e-01
4.890279009725628234e-01,-5.145694305320028250e-02,-2.717046558000307810e-02,-5.550277749651846837e-03,-9.239872402736834869e-03,-9.897535782002106139e-03,5.293672084808349609e-01
5.080880257445770098e-01,-5.693421533506637378e-02,-2.808333950706101700e-02,-9.011881983774146579e-03,1.744935625547091532e-03,-6.463385961217822662e-03,5.515063405036926270e-01
4.809092879010696264e-01,-5.667694947496551561e-02,-2.297272732694921604e-02,-1.429184565522295496e-02,6.131102403255904183e-04,-2.669618329332633117e-03,5.221602320671081543e-01
5.357328327970554138e-01,-2.266012702714109706e-02,-4.390451208823320517e-02,-1.678463906998629157e-02,6.246451832170618092e-03,-2.464019670446929004e-04,5.701571106910705566e-01
4.338599095653006832e-01,-3.577128692166064994e-02,-2.538859317566866114e-02,-5.026786452036164504e-02,-9.958726684235889512e-03,-2.359540142981225198e-03,4.729482233524322510e-01
5.149843585359107356e-01,-5.864494686472465634e-02,-3.165636260455773066e-02,-1.822619604830833656e-02,-4.199824561260035631e-04,-4.250713002100001310e-03,5.615593194961547852e-01
5.251771499831503487e-01,-4.452222055850479920e-02,-3.487752857738568579e-02,-1.158665430515079704e-02,3.889539669715824915e-03,-4.631059743684279610e-04,5.653358101844787598e-01
4.898868075711576564e-01,-6.135366509046133454e-02,-2.516962415696222255e-02,-7.141001072980255639e-03,-1.172665032739166014e-03,-5.609906139672901290e-04,5.342165231704711914e-01
5.050733422758467706e-01,-6.181675608379871845e-02,-2.753640138829746564e-02,-1.457475700994188004e-03,1.229930527015850837e-03,1.155865925620863438e-03,5.505644679069519043e-01
4.872033531168310505e-01,-5.997073616593220913e-02,-2.355235759791921013e-02,-6.981066594421500050e-03,-2.541438200048215003e-04,8.451280998371417039e-04,5.300444364547729492e-01
3.882673481906599444e-01,-1.283752603965045147e-02,-2.090223311616758173e-02,1.926542636993554616e-02,2.036473100961928850e-02,-8.044662552063003985e-03,4.083341062068939209e-01
5.155759058043882792e-01,-4.931927799803242918e-02,-3.625186143988654019e-02,-4.185864416172526206e-03,3.170088620342422555e-03,5.653431305034635837e-05,5.585501790046691895e-01
2.923895931286532579e-01,1.020345156534152586e-02,1.324037375929985882e-02,2.089568113842472583e-02,-1.120227353260723306e-02,7.495225582568714948e-03,2.839650809764862061e-01
3.893290293155030057e-01,-1.113070220816546330e-02,-2.037114553798972938e-02,-1.339065984655569107e-02,3.117924325803315272e-02,7.914335770605452486e-03,4.096291959285736084e-01
3.238423669751334666e-01,-7.954307029963289533e-03,-9.613739561136480649e-04,1.831964061271413799e-02,2.309500653842573581e-02,-3.750266985738935285e-03,3.323655426502227783e-01
5.279742469429510310e-01,-4.950752258201140954e-02,-3.587746833687216474e-02,2.264649928210934332e-02,2.934644766450247269e-04,-1.473218420909709744e-03,5.721409320831298828e-01
4.717396912436895851e-01,1.907570144321932282e-02,-1.153484778655003429e-01,-1.435291370188909177e-01,5.443372795222254507e-02,-2.262100320487931207e-02,5.966989398002624512e-01
2.734493664674503277e-01,-6.300777830959558568e-04,2.305084480277344583e-03,9.219006674392757339e-02,2.490711617731077021e-02,-4.047356068789543723e-03,3.189528882503509521e-01
3.943763552308795495e-01,-1.291049998156980350e-02,-4.266189352925083000e-02,-7.842235861701466609e-03,-2.602808813759001361e-02,-3.685938300783785614e-03,4.256086647510528564e-01
5.279606548555972889e-01,-5.566764088097878038e-02,-3.393253403556559245e-02,8.164397290840175181e-03,3.615776193095407084e-03,1.427931879747681944e-03,5.732839703559875488e-01
5.300626102355225910e-01,-4.886744476930912628e-02,-3.904799785002713297e-02,1.618954430585720864e-03,1.105133346417802327e-03,3.160368498863807348e-04,5.740936398506164551e-01
3.072587399849994738e-01,-4.981723425073192324e-03,-2.123496589233897502e-02,4.594414737725271980e-02,-2.486155749613716461e-03,-2.733116012656530616e-03,3.304644227027893066e-01
2.891323930632918038e-01,-1.686533584456302581e-02,4.627160191960077995e-04,3.683078469975702152e-02,9.972240953983094180e-03,-2.818594005358934871e-03,3.049987256526947021e-01
3.950269070984517294e-01,-1.318679902439810758e-02,-2.012916930134332760e-02,1.230523527764394894e-02,-2.896429254892433913e-02,1.077238265267982040e-02,4.157400429248809814e-01
2.590213669645939909e-01,-2.810301161468603537e-03,1.223114155162426109e-02,2.133931075413961556e-02,-1.451286051695590412e-02,3.830696485828487654e-04,2.585384845733642578e-01
5.361044727346940819e-01,-4.266074840972350346e-02,-4.921281554454348672e-02,9.899230816463806034e-04,2.578730876364270647e-03,-3.425085635784471099e-03,5.821188092231750488e-01
5.375827791515241927e-01,3.584656102019323498e-02,-5.866869749694778036e-02,3.106273832434205007e-03,-2.566548907338408059e-03,4.753273467685413534e-03,5.551671385765075684e-01
5.327305193686542317e-01,-4.333843355595914937e-02,-4.534809504714298889e-02,-1.097635768310464149e-04,7.635659521950407744e-03,-6.795001323782312759e-03,5.773479342460632324e-01
5.253377472128871739e-01,-3.624512371192067928e-02,-4.675124495013951997e-02,3.512201677317549654e-03,-1.400109728309177799e-02,2.393402117803337709e-04,5.674601793289184570e-01
5.377751283157077289e-01,-4.097424341873784348e-02,-3.266751928639649583e-02,-2.446897608403679827e-03,-3.994994940634993483e-03,-1.332700767736975369e-03,5.747029781341552734e-01
5.629957843762070091e-01,-5.904278060730386302e-02,-2.153293585736643090e-02,1.360829582216070525e-03,-9.525778750537713946e-02,1.352817550988458933e-02,6.267241239547729492e-01
4.955490225587110276e-01,-4.739503011828716250e-02,-3.034766725696200207e-02,1.459805984344578200e-02,-4.167788656726617927e-03,-5.080011645513615812e-05,5.352705121040344238e-01
5.370647160264622189e-01,-4.134389769849108887e-02,-3.112067555331834989e-02,-1.905533769569515371e-03,-6.099019795008112088e-03,1.089174688580193126e-03,5.734752416610717773e-01
5.280593530639206001e-01,-5.541280398251999251e-02,-3.494839287628884184e-02,6.273754951713888563e-03,1.640069674198480539e-03,1.080532693078015269e-03,5.736268758773803711e-01
5.386114492754068284e-01,-4.109231773680871447e-02,-4.602572106003133268e-02,-6.209574051091697319e-04,3.785572112674424547e-03,-2.833585008094313858e-03,5.822447538375854492e-01
5.373308101629292732e-01,-3.049613509807289069e-02,-3.731604184665587853e-02,-4.786867655221276746e-03,-5.169273075709393019e-03,1.942578130430134067e-03,5.714076757431030273e-01
5.362493112967429143e-01,-3.792777351493548110e-02,-2.987541073580979312e-02,-5.587470237210656263e-03,-4.675321049737983341e-03,1.564815940556835974e-03,5.703396201133728027e-01
5.061507223960776125e-01,-3.132831847327366415e-02,-5.471400238823062590e-02,4.072249612085305191e-03,-8.886956889617184064e-04,-5.482683309544067810e-03,5.496746301651000977e-01
4.178541466406400784e-01,-1.483731499377713425e-02,-2.684656213967442917e-02,-1.149082437195825252e-04,-1.202464237227500758e-03,8.807414488506453559e-03,4.390894174575805664e-01
5.424789702394292590e-01,1.840348871612543236e-02,-6.255735901260561782e-02,5.588531524463816874e-03,1.198223702541737021e-03,1.032444798592267602e-03,5.689820647239685059e-01
5.319041751499032911e-01,-4.573685865603951961e-02,-4.019742117961985772e-02,1.275295767791209157e-02,1.305017608779728867e-02,-4.786790781779654003e-03,5.758190751075744629e-01
5.367870015430512565e-01,1.334302027751566033e-02,-5.022471293513997015e-02,-1.297867047191253280e-02,2.937659517048898071e-03,1.633750199857607896e-03,5.584333539009094238e-01
6.174055928079853484e-01,-1.677091185313187016e-02,-7.391991163811287291e-02,1.799983598211907579e-02,2.135315092920811713e-03,-2.616973704056386324e-02,6.668797731399536133e-01
2.330598123904280283e-01,2.903927617342838552e-02,-1.694845844477017860e-02,-1.018411858528257552e-01,-3.710650503293025371e-02,6.502166795465110644e-03,2.974795699119567871e-01
4.588860933291172284e-01,-2.826503640459770983e-02,-4.824598768150883954e-02,2.670390834855704016e-03,2.264010673792371531e-02,-5.355545883516437712e-03,4.990935325622558594e-01
5.379132064844533989e-01,-1.863701860319208481e-02,-4.207451109698556735e-02,-5.185556953029192041e-03,2.731922515272852507e-03,-2.972131793141326739e-03,5.687452554702758789e-01
5.263657994898589543e-01,-4.466434201061236786e-02,-4.223063979299393478e-02,-1.157197861037008967e-02,1.204035192443651890e-04,-2.123170118997309147e-03,5.701814889907836914e-01
5.399499439404833456e-01,-3.565984559586610203e-02,-5.523802847050510167e-02,4.099472330310716117e-03,2.560089897809544532e-02,4.108133235944875540e-03,5.874066948890686035e-01
5.047402686539604888e-01,-3.041916695006774418e-02,-6.018896614767091369e-02,1.178702258949762462e-03,1.041982527748333727e-02,-1.319047662719187745e-03,5.509524345397949219e-01
4.590836256269243965e-01,-2.248982434807228481e-02,-4.844716207948351894e-02,1.683366312803663556e-03,1.559995369173088238e-02,4.414385291757311723e-03,4.958671033382415771e-01
5.039550718390919393e-01,-5.747187825051819354e-02,-3.090013906348609840e-02,-7.214068011340077011e-03,-4.643961308665392126e-03,4.592028307763459092e-04,5.488256812095642090e-01
5.384365938075427183e-01,-1.408436978477034529e-03,-4.946510012547788993e-02,5.256420735130365798e-03,1.003715712547060927e-03,-2.677069129273131932e-03,5.655021071434020996e-01
5.645272489792824144e-01,1.262879486849802224e-02,-4.068429546242208206e-02,-1.415511371552813646e-01,-1.002270733856597124e-01,4.723550452887650269e-02,6.586332321166992188e-01
3.917163017644716971e-01,1.999092383184435107e-02,-3.099485148199560003e-02,-1.165399399623150423e-01,-1.116343155653108238e-01,4.946524297761301092e-02,4.951805472373962402e-01
4.154453116434922988e-01,2.403779789054527605e-02,-5.357548513994964123e-02,-8.192094710107811206e-02,-3.703120493839592159e-02,1.771830169259043519e-02,4.634554386138916016e-01
5.435501378719964638e-01,3.369078180447532267e-02,-7.289772144645914609e-02,-1.360151471428241721e-01,-2.686912674827441130e-02,8.894283816689153160e-03,6.193273663520812988e-01
5.462458846172533189e-01,-2.793069842902995426e-02,-5.240546930166412043e-02,-6.891177762072640822e-02,-3.228667578987822612e-02,1.811392096070443131e-02,6.022364497184753418e-01
5.298106145802741196e-01,-3.396671206904902651e-02,-2.375936564640857007e-02,3.702717846273550269e-03,3.693262031352959182e-04,5.344643443884777509e-03,5.588574409484863281e-01
5.340765850172056739e-01,-1.959942663237199123e-02,-5.146035068393978174e-03,-1.121706515614459727e-02,-1.628337134127266425e-02,3.201433942196549309e-02,5.504645109176635742e-01
5.311686497843134402e-01,-3.949376556396999582e-02,-4.424792840855581999e-02,1.382756954864504265e-03,-3.452355053832884598e-03,-1.108555126359640200e-03,5.730937123298645020e-01
5.302047548312278646e-01,-3.792428502135347657e-02,-1.540526490844884577e-02,-6.033258762247105606e-04,-4.618663766606195906e-04,-6.479740904338312677e-04,5.572136044502258301e-01
5.276559774660189994e-01,-3.329166253177473500e-02,-1.381081328360048155e-02,3.519054666730747193e-03,3.905219126439276288e-03,2.787412945168020201e-03,5.515616536140441895e-01
5.077544560468078005e-01,-6.034392638748162230e-02,-3.057415745962152598e-02,-2.163634560284907662e-03,-1.994075784264344106e-03,-2.338298146675254780e-03,5.538522005081176758e-01
5.248229706522119509e-01,-3.838367000927692119e-02,-3.903963621116646188e-02,-1.110737215700433956e-03,-6.118988873337432438e-03,-4.461560826317287863e-03,5.636908411979675293e-01
5.572119358409546308e-01,-5.859149806383548431e-02,-1.638585094538846931e-04,6.172436935539638708e-03,2.818244812473805899e-02,-1.649050005160139151e-02,5.915746688842773438e-01
5.559436044502444885e-01,-5.449064595107527831e-02,4.124034810930016226e-03,8.045554765483678081e-03,-3.376198783584858417e-03,-2.812634241792851420e-03,5.835558176040649414e-01
5.377975398676084762e-01,-4.195148304692478125e-02,-1.014082339186417325e-02,9.323684021088478671e-03,1.157407325756386503e-02,-2.169479330911421033e-02,5.663508772850036621e-01
5.732863088472893720e-01,-7.079560110435084708e-02,3.640965473890436788e-02,9.160302530450485994e-03,2.017746075388401146e-04,1.250396554067728194e-04,5.979443192481994629e-01
5.557489424870052375e-01,-6.507663888274040076e-02,2.093897527744054132e-02,5.029045380993593661e-03,-8.437770377529003538e-03,-1.412856422821200109e-02,5.833615660667419434e-01
5.706314601037827394e-01,-7.245484899794257805e-02,3.234303477804581495e-02,1.390246215041644924e-02,1.398565034727591947e-03,-1.511534674527504653e-02,5.986815690994262695e-01
5.336888694714606585e-01,-5.613157905377444412e-02,-4.364476770789674220e-02,8.143891884548889321e-03,9.357514715912480059e-04,1.508744020347018572e-03,5.838557481765747070e-01
4.000030415898256919e-01,-1.147368439185025846e-02,-3.747800782872143244e-02,9.295866791941870440e-04,-3.572763018444053557e-02,-1.341607056416730396e-05,4.295596182346343994e-01
4.087719665110287059e-01,-1.661195033328972948e-02,-4.742734382009956839e-02,1.852004796357517233e-02,-7.088185345498429490e-02,-4.104839784185175880e-03,4.595233201980590820e-01
5.190694754314866266e-01,-5.836712358573573067e-02,-3.453558010082075080e-02,2.479554322175040251e-03,-2.358331062416007932e-04,1.571926518237967696e-03,5.659202933311462402e-01
3.870229076260586210e-01,-4.456029563444929842e-03,-1.886351140510544866e-02,1.515692477420994139e-02,-2.827302239717950291e-02,8.840245539670534003e-03,4.030202329158782959e-01
7.774080457840184533e-01,-1.395762451037288465e-01,1.637907091579013374e-02,2.510117796874326151e-02,-7.970031607165446730e-02,1.597588689932175413e-02,8.624882698059082031e-01
3.398628048205860064e-01,-5.404722425946084652e-03,-2.799850681273720332e-02,4.405607764929931475e-02,-6.544843102865709195e-02,1.049176212387946394e-02,3.827852904796600342e-01
5.407557126815284443e-01,-3.798930603770947489e-02,-4.599085835872970818e-02,8.936739362575919776e-03,4.425203309535971456e-03,2.361767456928234692e-03,5.830572247505187988e-01
5.291126692522817310e-01,-2.236320848404285688e-02,-2.227320855709843950e-02,2.003882259262965929e-03,-1.383991514626304459e-03,-4.511312369648723050e-03,5.515023469924926758e-01
9.013456907193502232e-01,-4.036330551679206957e-02,-7.460267702695960734e-02,3.123136389597704413e-02,6.414462677024203308e-02,5.654904316427156186e-02,9.721599221229553223e-01
3.261205723745363438e-01,-9.160790852621295000e-03,-2.293692491155034652e-02,-1.292016179194557975e-02,-7.648312760086303785e-02,-4.813063179047010094e-03,3.678879737854003906e-01
2.766763801775297682e-01,9.729884465927943205e-03,8.178405559256266000e-03,-3.532690377198875655e-03,-1.971019783665388381e-02,-7.075706940857947290e-03,2.702408432960510254e-01
5.081878073699989118e-01,-3.111470080132083815e-02,-6.288347430793039816e-02,-3.626694995053793670e-04,1.337177053237911199e-03,6.603660523295704857e-04,5.558745265007019043e-01
5.391403105150393005e-01,-8.064853739929461751e-03,-4.544191836203967383e-02,9.980729161222150897e-03,6.950862540876893113e-03,-2.666101743643157183e-03,5.672288537025451660e-01
3.912817770543333129e-01,-9.595183358424026754e-02,2.985708590769424464e-02,1.008455033013159058e-01,-1.434519498495367973e-01,-3.516569881731723690e-02,5.365452766418457031e-01
2.682171383546851362e-01,6.043955261749126007e-03,8.174746368409924191e-03,-1.402386599538312656e-02,-1.441120579749473329e-02,-5.231491864507818203e-03,2.635827064514160156e-01
5.035727461588146436e-01,-3.710291029176152056e-02,-5.295022097916296522e-02,-5.290477180292943796e-04,1.394715516672870650e-03,6.135774348886184788e-03,5.488799214363098145e-01
3.228740526672216338e-01,2.328424407958606945e-03,8.191003632224677644e-03,-4.887170551612610332e-04,2.084813024533293049e-02,4.689191987431931032e-03,3.198050260543823242e-01
1.578532784743172934e-01,4.769778839683581906e-03,1.707480545096078800e-02,8.745606773549931962e-03,-9.651278242599181656e-02,-1.984714640305218838e-04,2.233293503522872925e-01
5.352348696531710193e-01,-2.056656480138957521e-02,-3.870895771793025908e-02,5.342466581338554260e-03,3.008088022538535616e-03,-2.313042583804179441e-03,5.652050971984863281e-01
5.260048483325704405e-01,-4.206545399325375967e-02,-4.321568291212415924e-02,1.153559432304718897e-03,-1.176105972184904661e-02,-1.358128419044300891e-03,5.690194368362426758e-01
4.294529418646232388e-01,-2.873532045189053363e-02,-3.208092242657589743e-02,2.065297377651470825e-02,-1.584451550741564421e-02,1.367108509771981263e-02,4.626813828945159912e-01
9.153480720972577700e-01,-9.880966096421073264e-02,3.340327792033581655e-03,1.609619105920490068e-02,-6.931187789455388326e-02,3.982439804407957723e-02,9.773954749107360840e-01
3.155366472576167647e-01,2.593358545540123961e-02,-2.652544524502718770e-02,1.052682247769837487e-01,-1.236312499796292071e-03,-3.738189851032155606e-03,3.675661683082580566e-01
3.188386673089524392e-01,-6.199108813591869271e-03,4.570124764590233202e-03,-2.612961345421328102e-02,-6.142314249366722864e-03,-2.134209570055222837e-03,3.231721520423889160e-01
3.209849164125367360e-01,-1.395986166147972218e-03,7.001998139850473812e-03,-3.117083776547366000e-02,-1.245791451959795326e-03,2.317717871393810795e-03,3.228440284729003906e-01
1.213224818071649835e-01,-5.112615666534412601e-02,-3.107273358151128179e-02,9.531072565368562538e-03,-3.801192073856325682e-03,1.250255125257717509e-02,1.657326221466064453e-01
5.257205873109915828e-01,-4.791374222473540612e-02,-3.408023043481378522e-02,-1.582248015745246761e-02,5.190891443174645847e-03,-3.874010642842865525e-04,5.675778985023498535e-01
1.470109271809337259e-01,-1.179392153235985646e-02,-3.404372737119055331e-02,-1.118622398975965306e-02,2.999396657543130368e-02,-4.520280909199537317e-02,1.960908025503158569e-01
2.752178792516566386e-01,-8.785739726215727186e-03,1.921618453683493488e-03,3.854119979592730144e-02,2.690445950540529957e-02,6.447647123917642567e-03,2.906618416309356689e-01
5.421428005753524682e-01,1.482540384362829311e-02,-6.130287308363607801e-02,-1.166682784074154523e-02,1.244550092968163633e-03,-8.527957350013923733e-04,5.695770978927612305e-01
5.329765649460460608e-01,-2.945016361360577872e-02,-3.434888458631027430e-02,1.934422259850216525e-04,-1.032480023447172922e-03,-3.201096558785715678e-03,5.649221539497375488e-01
5.377830048795014806e-01,9.871619737529924166e-03,-5.394858376835956482e-02,-7.526393425119431123e-03,4.996455318057636558e-04,-3.880172778378857337e-03,5.627350211143493652e-01
5.149667139957258000e-01,-3.235272582100962024e-02,-5.464517675254854101e-02,1.497491139061491588e-03,-3.361833812826355971e-03,4.460671514913614171e-04,5.588361620903015137e-01
2.120973921796341921e-01,7.364979642067226440e-03,1.776622156731690744e-02,-2.401318243491606247e-02,2.366845958681940837e-02,5.975294815847981972e-03,2.083546817302703857e-01
2.757429425751863894e-01,1.053857568347520146e-02,-5.213839106760015385e-03,4.497307137504684416e-02,2.269266836059519177e-02,-2.674509779022204645e-03,2.870421111583709717e-01
5.292640128848790093e-01,-3.935442512127343417e-02,-4.862001494926926348e-02,-1.312285016732721169e-03,-3.052914831262920799e-04,-1.681771872130629958e-03,5.733195543289184570e-01
2.438595378670004865e-01,1.320981212028045360e-02,-4.451959273732777889e-03,2.298775949121990066e-03,-4.138936777961688129e-02,-3.323876066765235940e-04,2.504802346229553223e-01
2.347530268830726463e-01,1.697667343484073055e-02,1.563530686281743021e-02,3.782872154897720662e-02,-9.128302469333316599e-03,7.789206487259209451e-03,2.290097922086715698e-01
4.642426227781037418e-01,-5.910843778451155273e-02,-2.226405786405158405e-02,4.147621531750204926e-02,-2.091355925529612622e-02,-1.666844639572867765e-03,5.123012661933898926e-01
5.915618644904148127e-01,-4.761643064794901514e-02,4.341435464548792922e-03,-6.887363119794721530e-03,-1.367082494738594556e-02,1.236964463512301229e-02,6.157923340797424316e-01
5.296123195380298965e-01,-4.824935182575443293e-02,-4.380067117548641642e-02,-1.531457475517792807e-02,1.494870128762118945e-03,-2.317671560994185882e-03,5.762808322906494141e-01
5.321507161446104028e-01,-4.907979483646718322e-02,9.058773297718203388e-05,7.706609345085768670e-03,3.579055229111284021e-03,5.828384178358255070e-03,5.585569143295288086e-01
5.516454014527338856e-01,-4.434932911222258523e-02,-1.234825750757118090e-03,-5.702435342288314502e-03,1.103274959984788112e-02,-1.115183859709195169e-03,5.760546922683715820e-01
5.510224470853036793e-01,-4.929842105999851509e-02,1.904553912783968350e-02,2.089858743290408383e-03,4.756942679277507621e-03,7.210925005699557987e-03,5.694424510002136230e-01
5.316675023608459227e-01,-4.190516464130381036e-02,2.247416101466781502e-02,-4.169999549895164748e-03,-1.315400858894582789e-02,1.805910418759603883e-02,5.456681251525878906e-01
5.124085294200818597e-01,-5.978695294637620394e-02,-2.896654062726403134e-02,-7.669843575030869248e-03,2.005061309464158115e-03,-3.441566604639015900e-04,5.575940608978271484e-01
5.236137603478586700e-01,-4.784392728487613100e-02,-3.873918030401460322e-02,-9.437048522318318769e-03,9.239587999231657980e-03,2.689085012939761155e-03,5.674405694007873535e-01
5.037924726370555106e-01,-4.553922903604709638e-02,-3.606615146904712521e-02,4.251957992702805160e-03,-2.777718242666096619e-03,1.015483230622222545e-02,5.450118780136108398e-01
4.814353320343258136e-01,-4.177804135370724592e-02,-3.741926322859748244e-02,2.189430271798060643e-02,-6.372249522422913058e-03,8.818385223763715655e-03,5.227655768394470215e-01
5.271084834281642983e-01,-4.227908149824566308e-02,-3.887635652673868125e-02,-4.022298197074905654e-04,2.439713995930784494e-03,1.654271394990961127e-04,5.677101016044616699e-01
4.900864358531838438e-01,-3.896230329663566416e-02,-4.377569423341465260e-02,1.274377409679277630e-03,1.418832497315056186e-03,-1.105795619354478856e-02,5.318270325660705566e-01
5.200412258460287429e-01,-3.980228984069456022e-02,-3.695405162701842494e-02,-1.136794614107583361e-04,3.622739606625454117e-03,2.598542768489174332e-03,5.584782958030700684e-01
5.285214469856910346e-01,-5.523272896460224013e-02,-3.843584964993465580e-02,6.222162973325492952e-03,1.709963149231111734e-03,2.461516565418788577e-03,5.756639242172241211e-01
5.359331852139450625e-01,-2.749805167016716734e-02,-4.197834279515463840e-02,5.220285598174570496e-03,6.545029643427007805e-03,1.829465536138262863e-03,5.710020661354064941e-01
6.219110193716693713e-01,3.143227635851436608e-02,-6.685998670479278982e-02,-1.353629014850983581e-01,-2.301444864284177272e-02,4.368968769149975118e-02,6.918458938598632812e-01
5.919144848345370136e-01,2.187479676715373134e-02,-5.607827318844366138e-02,5.362645472395315659e-03,1.325208323754648206e-02,2.053099002184665192e-02,6.142767667770385742e-01
5.191545046797552132e-01,-4.974403950535077890e-02,-4.405792648208373130e-02,1.868624249255628270e-02,-9.865133932379925759e-04,4.642728900890589171e-03,5.670610070228576660e-01
5.433727892590608510e-01,-8.397857499427646699e-03,-5.230844883338808815e-02,9.266395016235049950e-03,5.218330988621316079e-03,-1.303660511178636634e-03,5.752842426300048828e-01
6.423912653237340287e-01,2.738034028862981750e-02,-7.279481617905447788e-02,-7.496852408509519644e-03,6.705984206188347549e-03,1.470546595124450941e-02,6.714421510696411133e-01
5.653797992827241936e-01,3.718276971940726039e-02,-6.815007898790861884e-02,-1.959267180515012266e-02,-2.809235796395788930e-03,1.676386270566422587e-02,5.896965265274047852e-01
6.025610570158029811e-01,5.884031900135111570e-02,-9.652970348603243100e-02,-7.649843153594754197e-02,-1.738259283080341965e-03,7.914192406476878647e-03,6.496175527572631836e-01
5.360793769062118796e-01,-3.896627401320645889e-02,-3.900270940375541451e-02,6.057266070426951983e-03,4.458912985874767011e-03,4.910862221072085547e-04,5.752120614051818848e-01
5.577988763489911683e-01,3.066326395079074785e-02,-6.593488465296173939e-02,5.494309116364613430e-03,2.001409797887336497e-03,3.770426831625743429e-03,5.816087126731872559e-01
4.861680091585641184e-01,-2.867664698582289562e-02,-5.427271517125065170e-02,8.122960340029136608e-04,-1.239276378201666854e-04,2.892071791637196732e-03,5.281338095664978027e-01
5.482384386269520959e-01,1.795477308785992099e-02,-5.432504979961927383e-02,-7.626514011991047948e-04,4.532344833480549985e-03,-3.154036294259984254e-03,5.699536204338073730e-01
5.886783128011501276e-01,3.609362850021496927e-02,-7.008191051353723777e-02,-1.288717803762270096e-02,-2.247790126990190790e-02,1.632965598077104619e-02,6.149048805236816406e-01
5.221327949239594757e-01,-5.635257937105289661e-02,-3.728277778239760809e-02,2.609138377409718056e-03,1.606123756147048395e-04,5.381697022093247761e-03,5.692844390869140625e-01
3.539165853697323616e-01,-1.430466170243605006e-02,-1.284949929642718869e-02,3.552479589790957099e-02,-4.279092885807582458e-02,1.112379029941643928e-02,3.803992867469787598e-01
5.587244030317786159e-01,3.292055466703303068e-03,-5.439288582329773747e-02,4.401486131964383566e-04,9.334841726930441161e-03,1.174889093953676925e-02,5.869828462600708008e-01
5.474167028716120376e-01,3.630570229444149422e-02,-6.507601024270193157e-02,-4.402688450254556816e-03,-3.019538581755077267e-03,5.127858436087109895e-03,5.687656998634338379e-01
5.297523134700902192e-01,-4.453262614948727549e-02,-4.136907769601366747e-02,2.182173217658922495e-03,-8.884663557144142779e-04,1.808972070892287754e-03,5.727328062057495117e-01
5.557410707469682132e-01,3.084767596416321256e-02,-6.040921258611778311e-02,4.696007315411741302e-03,1.253177008829454596e-03,2.976223510981302906e-03,5.760542154312133789e-01
5.299221970736097687e-01,-2.303654338961694248e-02,-2.738798765904970622e-02,2.388437326090637330e-03,-1.073886177038945377e-03,-1.031650528379434231e-03,5.551686286926269531e-01
5.413904030888945229e-01,9.690317558099015294e-03,-5.061260449277707463e-02,-7.936055536657712212e-03,4.450862459896239021e-03,-4.217382974242581128e-03,5.645407438278198242e-01
5.676559202381927793e-01,-4.079223810292523233e-02,-5.876032781092777046e-03,1.403499944570946734e-01,-1.097469323835312399e-01,-3.770192290888899067e-02,6.705784201622009277e-01
5.542811796283529935e-01,2.501060240607702601e-02,-5.263502493413296790e-02,9.718175155216139324e-03,-7.016323654515455380e-04,5.821551612722059184e-03,5.723968744277954102e-01
5.570369656713205497e-01,2.484810186111402475e-02,-5.990901737514928160e-02,3.003645906264120272e-03,4.844775445728243652e-04,6.257183973893108014e-03,5.793623924255371094e-01
5.467065674251612162e-01,-3.336457455312502596e-02,-1.840985595189326141e-02,-3.725469379589074499e-04,4.883319200900934458e-03,-1.531930248043055463e-02,5.734172463417053223e-01
4.353128438483873097e-01,-3.482740586753421685e-02,-2.178566899148937086e-02,2.776860364155057589e-02,-3.019096291828774013e-03,9.664935413318859539e-03,4.665740728378295898e-01
5.255149370497065320e-01,-3.829534498342829218e-02,-4.598771322602912548e-02,3.516997983746862622e-03,-1.401168425178893860e-02,-2.081527685860756381e-04,5.682468414306640625e-01
5.523460422201074138e-01,-5.726317680303666391e-02,7.896619206315458328e-03,3.986075272299915637e-03,-1.278870440485831985e-04,-1.006399743858510734e-02,5.800850987434387207e-01
5.530418943596473458e-01,-4.705234199434929487e-02,1.258777308061553857e-02,8.445447297369386517e-04,2.771057686305642906e-03,-1.784946844589535217e-02,5.734643340110778809e-01
5.674616784906229006e-01,-4.664035025602161766e-02,-8.212466356359027220e-04,-1.209357662942956227e-02,-7.378071358342144954e-03,-2.284111320653420263e-02,5.943486690521240234e-01
5.408658847006957426e-01,1.842121291890039259e-02,-5.161212708678122874e-02,9.471832249471273191e-04,2.097701566771727633e-03,-3.679816694595669860e-03,5.608013868331909180e-01
5.030028237716821504e-01,-2.619309489961993420e-02,-6.315618007172493775e-02,-1.790797291415048890e-04,-1.719944293448898587e-03,-9.193161147319945129e-05,5.486203432083129883e-01
5.030943867912365253e-01,-3.208578929709096639e-02,-5.288398584362577481e-02,-1.876018381644489362e-03,9.361776029304954769e-03,1.029522485130908264e-02,5.464180111885070801e-01
4.783893664253416889e-01,-1.945280490065573464e-02,-5.588833616879684829e-02,7.729145748747484786e-04,-1.506422153501600636e-02,-5.829046181183904739e-03,5.177818536758422852e-01
4.921966522666336719e-01,-2.329023599703503034e-02,-6.032974704041335623e-02,-1.234031663520819035e-03,-1.075316856679412597e-02,-1.705777666881817464e-03,5.353057384490966797e-01
5.276828243161703069e-01,-1.283120685913960446e-02,-2.974935771299880294e-02,9.126080324751066706e-04,-3.264697719324449342e-05,-3.661466342931578907e-03,5.492075085639953613e-01
5.664124834690551502e-01,-4.929416876025058403e-02,-1.325694950840536346e-02,2.449450731543345236e-02,-8.160894806452460501e-03,-1.987395505066673340e-02,6.011569499969482422e-01
4.808234462580824875e-01,-5.294346203220928748e-02,-2.481307403460225602e-02,-1.718497802796448842e-02,4.496130951661647147e-03,4.525757919829327333e-03,5.212402939796447754e-01
4.534998055384606985e-01,-1.819365611165868479e-02,-5.232764606602408053e-02,-7.502700652213387849e-04,-1.677777023069376705e-02,-5.622012208176986083e-03,4.906135201454162598e-01
5.076458800273735417e-01,-5.580303040263018266e-02,-3.232040186722215380e-02,1.112914446377083087e-03,9.274621668274540777e-04,-3.967988712812146532e-03,5.521307587623596191e-01
4.586221854878842485e-01,-2.650132400222368623e-02,-5.278240716837062640e-02,-3.842828740390520116e-03,-1.619860423352702597e-02,-7.579956566470798761e-03,4.997888803482055664e-01
5.335891120492471940e-01,-2.859959934984090957e-02,-4.556321235210067377e-02,4.593909754632145154e-03,-7.115328772792775709e-03,-5.868913456687086926e-04,5.710489153861999512e-01
3.597121407537473559e-01,-1.536235371394668869e-02,-3.352281130950385268e-02,6.922061022645349671e-02,-6.177227289397854704e-02,-3.212082408796142902e-02,4.204038083553314209e-01
5.053235850893693648e-01,-6.244215250278908891e-02,-2.905907728420195624e-02,-3.016613323684394087e-04,-2.351129048748090830e-04,3.120665665183892240e-03,5.518589019775390625e-01
6.927524011054605468e-01,2.601771710884373534e-02,-9.368318367635664057e-02,1.068550804609755683e-01,-2.637999365472698792e-03,-6.036829902324247939e-03,7.570049166679382324e-01
5.318918831154385574e-01,-4.445630224247629214e-02,-4.333832557778427574e-02,-1.110693379897867601e-02,1.791746057657593203e-03,-4.928575084996801624e-05,5.761196613311767578e-01
5.109080465904287660e-01,-2.156192009588925318e-02,-5.415353442210235624e-02,2.281435070836255324e-02,-2.332360784489051746e-03,-2.387452699298635902e-03,5.509405136108398438e-01
5.649788086643030560e-01,-9.147709291563776990e-03,-5.590597179529777083e-02,-4.762348633104515443e-03,9.555216353560764056e-03,4.867199443569059092e-03,5.992209911346435547e-01
5.157085461061980958e-01,-5.060929876256681226e-02,-3.389732317345628410e-02,1.424748412789034711e-02,-3.764227921255031660e-03,2.001693851321776664e-03,5.587435960769653320e-01
4.923714728776331651e-01,1.116987411432079913e-02,-5.140590759428700918e-02,1.181907302353055050e-01,7.311724705047270567e-02,1.410426164291809191e-02,5.693194270133972168e-01
2.938438799438072846e-01,-8.942253724561546879e-03,-6.419153613421851867e-03,2.262254499074182329e-02,-7.873569348843087456e-02,-4.100621327309082872e-04,3.332500755786895752e-01
4.243333166527886724e-01,-2.962757658571504860e-02,-2.034392846287463863e-02,1.653839989475460598e-02,-1.075519240280832338e-02,1.170224122960115617e-02,4.511437416076660156e-01
2.864352398069040517e-01,-1.912089433588481935e-02,-5.446793486786720428e-02,-6.293576659647978633e-02,8.724800410995309230e-02,-6.146425035485898053e-02,3.891881406307220459e-01
2.875471255969904161e-01,-3.884467869029818721e-02,5.173686182859002503e-03,1.068931990986118213e-01,-6.499830503437173390e-02,2.095377953585643091e-02,3.773221075534820557e-01
2.888433408522143031e-01,-6.656473937542331520e-03,-6.560490602819435413e-03,-2.727274212983602994e-03,-8.059107235181375839e-02,-3.366022855915926874e-03,3.268529474735260010e-01
5.036095309525807640e-01,-3.985873409918783139e-02,-4.758721068672291943e-02,1.044375358335832959e-03,1.479799379344605382e-03,-7.915310775023642539e-03,5.475540757179260254e-01
3.530367522960340398e-01,-2.578896966690473469e-02,-1.001451547395461328e-02,8.380582004262913942e-02,1.365811100860799161e-02,-4.795613695027542249e-03,3.993505537509918213e-01
3.185594460184212884e-01,2.657050625993362392e-03,-7.965506681090528396e-03,1.727194700339175840e-02,2.272108666600634180e-02,-5.802379767355748258e-03,3.252807259559631348e-01
5.280562387380839384e-01,-2.126860316333678558e-02,-2.248131926542687453e-02,8.939434907838292831e-04,1.385038727064953710e-03,-1.621100730475228150e-03,5.499467849731445312e-01
5.148817872035207355e-01,-5.628760998580445429e-02,-3.505177577003595890e-02,1.582395057273213704e-06,-2.103892128329511082e-03,-2.791105722012808370e-03,5.608857274055480957e-01
5.119793239364889281e-01,-5.715083420759989319e-02,-3.674924265736559392e-02,-9.792504420750422836e-03,-6.942574037965552544e-03,-6.261882985748868681e-03,5.597000122070312500e-01
5.217660247268616214e-01,-5.581592090388259875e-02,-3.859097601644684294e-02,2.340377293685259093e-03,-1.276388093365036884e-03,1.876464453712307304e-03,5.691930055618286133e-01
6.564146075801946534e-01,-5.666979299365465517e-02,-1.523213744337220676e-02,1.039425724986425131e-02,-2.948593296942664949e-02,-4.721700312680740530e-02,7.001990079879760742e-01
1.712610789418703705e-01,1.673279778060325629e-02,1.374811820307216687e-02,-6.685679130138319319e-03,-3.473715956096727620e-02,-9.041612603960738495e-04,1.676474660634994507e-01
3.652962037878100809e-01,-2.847831325337664421e-02,-1.067776839636942754e-02,4.255639373694452415e-02,4.474545580081994503e-03,3.615175510508201236e-03,3.922986686229705811e-01
5.663899516926134137e-01,-4.820727173996708359e-02,-2.789810221793254108e-02,9.378610544388532588e-02,-1.006654235290834337e-01,-1.743102398046775595e-02,6.506611108779907227e-01
5.276337242819728601e-01,-4.582407678911670779e-02,-4.361174967014996851e-02,2.213622106784805983e-03,-3.746648734368048135e-03,5.227308238642693235e-03,5.724760890007019043e-01
5.396163890264582541e-01,-2.431962164758505462e-02,-5.361837044251541173e-02,6.900933493994984395e-03,-3.674683796435148503e-03,3.684536091799512844e-03,5.793349146842956543e-01
5.287502925572196144e-01,-5.015734975621058411e-02,-4.067267458166540228e-02,3.367275401145490826e-03,-2.633728816861090165e-03,3.657130492340985011e-03,5.743067264556884766e-01
5.279146113067342272e-01,-5.278233619401964671e-02,-3.683054966633692029e-02,5.253384620463483375e-03,1.678305193547833087e-03,3.579529798729714878e-03,5.730007886886596680e-01
3.636541013619629670e-01,-2.573437239726353298e-02,-2.684352429849878874e-03,4.794037737501867513e-02,-2.582635392675403704e-03,-1.445684629449028522e-03,3.874279260635375977e-01
5.745478825437889681e-01,-8.057005033721287290e-02,1.863506156823996340e-02,1.909129950736523917e-02,5.862179091530316660e-02,-2.954207368110322099e-02,6.229376196861267090e-01
4.596892576905055594e-01,-4.692610127633151107e-02,-1.827844970796871360e-02,2.012039695199947797e-02,1.858370796084324143e-03,1.966000554514985444e-03,4.941689074039459229e-01
6.487166690161595417e-01,2.255195597827960863e-02,-8.785228101873651663e-02,-1.986376953183597357e-03,8.391834680455291864e-03,-1.055457077369716459e-02,6.884474158287048340e-01
5.079321899308321120e-01,-5.838610535060528850e-02,-3.382779624968398902e-02,-2.317900818187502033e-03,-2.225047536782198514e-03,-1.887190574853186715e-03,5.544847846031188965e-01
5.423974225243253233e-01,1.423654253423459193e-02,-4.265531934778668544e-02,-5.675895750870902159e-03,3.415461688314246156e-03,-2.577592971210490580e-02,5.606812834739685059e-01
5.320225720047382367e-01,-2.909418864758009371e-02,-3.370453913981730221e-02,2.149051630267171699e-03,1.135478960977865303e-03,-1.677600817331808148e-03,5.634592771530151367e-01
5.324264537179184131e-01,-4.301263826959669800e-02,-1.735654432449856843e-02,1.294292200117819506e-03,-1.170192934734129615e-02,8.070476302170050738e-04,5.634204745292663574e-01
5.527391626034341421e-01,3.022569386720927453e-02,-5.752950608047399661e-02,-3.888936261822801242e-03,5.739234755138949810e-03,-1.592956123085542339e-02,5.722587108612060547e-01
5.539122309015971357e-01,2.346033970714928030e-02,-5.516083351524450618e-02,-6.335546854382812822e-03,4.353574538074907359e-03,-9.316588471897650076e-03,5.741976499557495117e-01
3.454890929395277865e-01,-4.717050367653333187e-02,-1.319139185842303774e-02,8.050275081073000882e-02,1.154226508753031094e-01,3.675880425363890758e-02,4.532734155654907227e-01
5.257012137410539410e-01,-4.604275872931706814e-02,-4.758162505377311335e-02,-4.299134349403024445e-04,1.232514115927879801e-03,2.881478712523147939e-03,5.725411772727966309e-01
6.281348273376834435e-01,4.988370203372671785e-03,-6.398139466948790655e-02,-3.302661643264311053e-02,1.751887668340763177e-02,-4.137635902805088250e-02,6.673646569252014160e-01
5.325947829956784174e-01,-4.081817281488633875e-02,-3.913443230579893850e-02,2.848650506577256152e-03,9.190754144105611973e-04,3.223226784337030371e-04,5.725966691970825195e-01
6.142964906694741156e-01,-3.499172540840272960e-02,-1.891468588152969699e-02,-2.098912712763105481e-02,2.613335458032769315e-02,-5.028091077090717648e-02,6.498846411705017090e-01
5.521821499123810151e-01,1.290232996290191503e-02,-6.670598649201503472e-02,5.445600660823055224e-03,2.055376291403967007e-02,-3.733008537310233271e-02,5.879015922546386719e-01
5.446144128940584306e-01,1.030366713531455369e-02,-4.765573607325682137e-02,-4.343582019742154329e-05,3.688535312517214528e-03,-1.270273740573588279e-02,5.659862756729125977e-01
5.413496212513886352e-01,-4.842443690124506595e-02,1.456361645411122230e-02,-3.692314364294230558e-03,-3.635530698129913613e-02,1.735055962677289204e-02,5.652976036071777344e-01
4.786071019379710134e-01,-4.477330243397936727e-02,-3.417163152424962380e-02,1.562908862847191618e-02,-1.023249798480024841e-02,1.032293612592569652e-02,5.194779634475708008e-01
5.335547152814010818e-01,-1.837491013846703769e-02,-4.250369241826251754e-02,-4.339704639488430743e-03,6.264030076319425356e-05,-2.849176214891468908e-03,5.644526481628417969e-01
6.405981750237654815e-01,-8.998387076094255255e-02,4.572940437067407604e-02,1.211465117246971271e-02,-3.368194012469138271e-02,1.672855871912938986e-03,6.759220957756042480e-01
5.485801984048322977e-01,-5.212848811438969276e-02,2.989847781240437263e-02,-2.777110301839021828e-03,-1.576757121889666921e-02,2.305774879955042878e-02,5.662764310836791992e-01
5.335949509100633703e-01,-4.125314269759206010e-03,-3.768270504144827227e-02,3.840575925627933828e-03,-4.108759431272939258e-04,-6.074171949104817045e-03,5.553999543190002441e-01
5.496561566162776469e-01,-5.096193141917151892e-02,2.280592512845242004e-02,1.539099475888976816e-04,5.184648505353705097e-03,7.965286825216555053e-03,5.675812959671020508e-01
5.396530262435547121e-01,-9.149105196128248796e-02,3.403154911986080999e-02,6.582068068589719267e-02,-6.994357776625728662e-02,2.159767377333080343e-02,6.032816171646118164e-01
3.003902577707981414e-01,2.562232898658645119e-03,-1.222217018749952033e-02,-1.087971223174550618e-02,-4.516429162331491581e-02,-2.342236807814510741e-03,3.159340620040893555e-01
8.753684800119697629e-01,-1.453885523827696813e-01,5.145212680237931657e-03,5.527057997431689129e-02,-1.886307159939045255e-02,1.752222822799855140e-02,9.602603912353515625e-01
5.250194522424229682e-01,-1.731962714804033410e-02,-1.534455881213961370e-02,-2.961336139704090920e-03,-1.870971680856416304e-03,7.566556756513691424e-03,5.415468215942382812e-01
5.829516460287811341e-01,-6.994438477920236763e-02,1.424824924084561184e-02,1.888076990324776688e-02,-3.158693365656871930e-04,5.942604590890188110e-03,6.160911321640014648e-01
5.526273424814271973e-01,-5.090436214669338821e-02,-5.509267174935744693e-03,1.085280369458223662e-04,7.703046805064217399e-03,-4.514198460421382959e-03,5.823684930801391602e-01
5.505681918520969331e-01,-5.163677641249722616e-02,1.530591909535014561e-02,3.620624425363718445e-03,-7.619229048491228326e-03,-9.605283287309076753e-03,5.721094012260437012e-01
5.362505449519793244e-01,-4.659079059478515861e-02,7.608395228249104081e-03,-2.696984695885475906e-03,-1.756270959683478398e-03,-1.409916989798269162e-02,5.582826137542724609e-01
5.263485979197586317e-01,-5.227028647638889969e-02,-4.241967270174543114e-02,-2.224970202517938776e-03,7.821211566525686177e-04,4.663163750922170482e-03,5.738283991813659668e-01
5.502949511658942194e-01,-6.743306560934539395e-02,3.217250582269362558e-02,4.764013601262611849e-03,-3.815699323592529595e-03,-2.699685696748184600e-03,5.745551586151123047e-01
5.018691860196382581e-01,-3.694025767730793608e-02,-4.658329551284301484e-02,-1.603682113981174900e-05,5.725464777402302459e-04,6.864914584347322872e-03,5.438259840011596680e-01
3.281566152229595801e-01,4.357523561559148439e-03,-1.058731737731599676e-02,9.371787544421498030e-04,-2.650329039468580020e-02,2.404393698203903008e-03,3.347171545028686523e-01
4.389741281391096317e-01,2.113322565237049644e-02,-5.781656711412050398e-02,1.199324744808029503e-01,3.693568874743121538e-02,5.228948414973508436e-03,5.110173225402832031e-01
4.173195320536517983e-01,-2.595507008318959086e-02,-1.642251532364846778e-02,6.091498222837306992e-02,5.955350460272638979e-02,-5.122463979229930492e-03,4.628263115882873535e-01
5.137820468232827675e-01,-4.074735466090653735e-02,-4.013874741194248252e-02,-2.444607330191937277e-03,1.024321426401847770e-02,-3.755372006071585386e-03,5.545635819435119629e-01
4.826216739039455583e-01,-5.821737174959254468e-02,-2.212000109565689931e-02,1.803638809433491736e-04,-1.808476931178016472e-03,-1.721210371149828680e-03,5.237421393394470215e-01
2.991643839065389332e-01,1.146233922875272704e-03,-2.236287293921042363e-02,4.642984632110242621e-02,1.054534628016265234e-02,6.860652111613777318e-03,3.214275240898132324e-01
5.330332146813552274e-01,-4.243213512450413893e-02,-4.986028705902703639e-02,8.048733957743558912e-04,1.092867310021776017e-03,1.294985277774514778e-03,5.792242884635925293e-01
5.308655507513966310e-01,-4.038224847600099809e-02,-4.016185597641935834e-02,-4.850133693661132402e-03,2.910439806162075371e-03,7.148905545797285292e-04,5.712230205535888672e-01
3.683548044550062905e-01,4.716789891413414315e-04,-3.477991976154105880e-02,6.532413232380598900e-02,-1.851826876765312255e-02,-6.965122389325737254e-03,4.043824672698974609e-01
5.001489338812393770e-01,-3.948143636797735168e-02,-3.410970560979820210e-02,2.412588929979302133e-02,-2.892298394495902703e-02,-7.017183454441934358e-03,5.410494804382324219e-01
5.193244280939075530e-01,-3.085064288489508533e-02,-5.978280366392413336e-02,-4.406309258539535881e-03,-1.383705008654401852e-02,-2.574853656728715891e-03,5.657737851142883301e-01
5.234903672892137205e-01,-5.385623060827410269e-02,-3.862212593129954463e-02,-6.561960655925058771e-04,3.628269132462522660e-03,1.764086255121065545e-03,5.699262619018554688e-01
3.014195430581509405e-01,-1.326445445529336742e-02,-2.834720093001272256e-03,8.199838681419367725e-02,-3.481345937804904839e-02,4.737549918419664725e-03,3.460161685943603516e-01
4.833837608548473552e-01,-3.554510925157294832e-02,-4.406099916873379430e-02,1.221128511631358257e-02,6.991187495771516991e-02,3.401413892182029910e-03,5.375164151191711426e-01
4.546549233445806304e-01,-1.610032632002281194e-02,-5.026204442809806272e-02,4.266379054368133958e-03,2.043463945185815950e-02,6.272043648643229393e-05,4.900680482387542725e-01
3.833343881761868688e-01,-1.341980300481093735e-02,-2.199898226618055008e-02,-5.368578163458081857e-03,3.857789605910067615e-02,5.573209122178631771e-03,4.068608283996582031e-01
5.341019177298752529e-01,-1.565295701726643340e-02,-3.015776180000889761e-02,-1.411283451355544024e-03,2.501724045775176927e-03,-3.117740315899610211e-03,5.571972727775573730e-01
4.923352525911435240e-01,-2.987647116764891031e-02,-5.254877685233508289e-02,-9.453444539903261071e-03,3.445603769977911152e-02,8.123308400959898187e-03,5.376677513122558594e-01
3.713781140845448525e-01,-9.879596270577398198e-03,-2.228395050357975804e-02,2.642985891727145722e-02,5.801299777643498939e-02,3.232383703092788114e-03,4.030683040618896484e-01
5.417253888209395685e-01,-6.126544479644802088e-02,2.687297969082252935e-02,1.346382439234267798e-03,-8.202782300521892569e-03,-1.792033974766879144e-04,5.642933845520019531e-01
5.313488121490057559e-01,-3.584793503295882755e-02,-3.412784366106488831e-02,2.326650826538594063e-03,-5.218263637906968679e-04,1.122641658230334781e-03,5.663570761680603027e-01
4.929082011818969322e-01,-1.840099816308837788e-02,-5.244737778010033491e-02,-3.737409483308789821e-03,1.507056942322666793e-02,1.832935063364552050e-03,5.298469662666320801e-01
3.961958001432004384e-01,-1.974209612008412384e-02,-2.617802198793836577e-02,-7.673003052028670723e-03,2.700982235061691675e-02,1.483272764617833001e-02,4.227859377861022949e-01
3.686664421336803277e-01,-6.406520664771250817e-03,-2.074313185477912047e-02,-1.750404344848831674e-03,3.750932347354896113e-02,3.917249335936541857e-03,3.879930675029754639e-01
3.974251651102626570e-01,-1.157603358229657153e-02,-3.591985944236743278e-02,-4.981514283805618800e-04,-2.535230502112906931e-02,-6.202778640754102492e-03,4.241174757480621338e-01
5.312572703383963146e-01,5.009412276444080714e-04,-3.814238698968969166e-02,-3.209325811169582311e-03,4.368043195465480229e-04,-6.267945184751828880e-03,5.512305498123168945e-01
2.081412184647452313e-01,1.009901203532843905e-02,1.534435777949022528e-02,1.284416284330511596e-02,-2.775203855776459810e-02,3.840317394797251090e-03,2.026304900646209717e-01
2.924418531911777697e-01,3.205704262439643126e-03,1.216458525292661574e-02,1.752014117777983201e-02,-1.242515226889921720e-02,4.114392516464800316e-03,2.873697578907012939e-01
5.336284943857395602e-01,-2.433534357098149359e-02,-3.718227052863876114e-02,-1.570499707946661520e-03,-8.196798344475866816e-04,-3.583871033835115999e-04,5.645056366920471191e-01
3.175797823909773943e-01,8.786535670298620260e-03,1.061293646562266879e-03,2.186521400800630829e-02,-2.261323892556793645e-03,5.923388290229615431e-03,3.152036070823669434e-01
5.619548893796809663e-01,-7.108494022285694047e-02,3.633990411960671962e-02,6.170224259422853186e-03,1.124852992841215288e-02,-1.481647713838987702e-03,5.871760249137878418e-01
5.313390338445188599e-01,-4.145219788150258933e-02,-1.061088544890273488e-02,3.923997921002132447e-03,-1.379143047912045547e-02,-6.711394817714772443e-05,5.585625767707824707e-01
2.912715298806387021e-01,-3.411729070069063896e-03,-6.544643189552140639e-03,4.106816712930710933e-02,-4.218762989036774214e-02,3.854689131884379404e-03,3.133927285671234131e-01
3.386146665841137104e-01,-1.404922051578955111e-02,-1.726497750724924340e-02,3.392015511126578176e-02,-5.756236902216074758e-02,7.901375843462113066e-03,3.729551434516906738e-01
4.467348539394652707e-01,-3.032828697798206630e-02,-2.225326772059529890e-02,5.305917859763247674e-02,-9.353525449486753060e-03,1.106780145268428800e-02,4.825742840766906738e-01
3.230281309038769422e-01,-3.848724939398348588e-03,1.387393698587160995e-03,-1.396120037397276291e-03,2.057144188319271535e-03,1.139336700072713510e-02,3.249189257621765137e-01
3.661311860334671153e-01,-1.102449070969030442e-02,-1.424404063762281514e-02,1.507871610684786805e-02,-2.364660304356740878e-02,8.069089143445583312e-03,3.821334242820739746e-01
5.322316665282351700e-01,-2.684188492247899238e-02,-2.061926223515192502e-02,1.636401138880372048e-03,6.396117806334306174e-04,6.335777851944186974e-03,5.561049580574035645e-01
5.261809375360848584e-01,-1.970661831138403874e-02,-2.235296592401009308e-02,2.017565427386762509e-04,9.634148301263075398e-04,-4.724566853165324226e-04,5.472187995910644531e-01
5.272363580330140520e-01,-2.408913999044842713e-02,-1.300687648292259135e-02,-1.815427156883551605e-03,-1.592844783274341598e-03,1.837929824365247804e-03,5.458940267562866211e-01
5.328321757678621262e-01,-3.110802020154901371e-02,-3.879446924686455467e-02,1.526380230760658986e-03,8.676586112343452487e-04,8.073495897901010465e-04,5.678322911262512207e-01
5.294547055399037028e-01,-3.257118280482648731e-02,-1.697461942902037113e-02,2.377704643619301100e-03,3.605053392460960422e-03,1.931090378535322118e-03,5.544527173042297363e-01
5.236798219508667085e-01,-4.891406230178724224e-02,-4.497411028473241590e-02,6.457408448766791507e-04,-1.228962753438112357e-03,1.334984933270321698e-03,5.706438422203063965e-01
5.252832049550252291e-01,-1.919385994877664814e-02,-2.322246402394562148e-03,-3.704449013410154347e-03,-3.487535372865476716e-03,9.284663573902911596e-03,5.365538001060485840e-01
5.387226251600170102e-01,-3.862176059877944767e-02,-4.411169016921373531e-02,4.874193160467427295e-03,2.088037133039623208e-03,1.724213881132568215e-03,5.801892280578613281e-01
5.267108125294102106e-01,-1.659798306374868360e-02,-1.759162312590623056e-02,-3.425431472124829731e-03,-2.729663918206240436e-03,7.022195982477123267e-03,5.439952015876770020e-01
5.319299938993635735e-01,-3.491155208829935241e-02,-4.227584247121796146e-02,-1.378173628235740671e-03,-3.537320982058504010e-04,1.324145076154817141e-03,5.705692768096923828e-01
5.269838292024581206e-01,-2.005364036371323766e-02,-1.506463474215685716e-02,-2.155762778955969475e-03,-1.421661810618209121e-03,2.937697679118824508e-03,5.446022748947143555e-01
5.271742436354247552e-01,-1.993760079601467061e-02,-1.666999108416902797e-02,-2.177052907841350339e-03,-2.168479783864846796e-03,5.690618729249265727e-03,5.456003546714782715e-01
4.900931979872190647e-01,-4.260524534059342838e-02,-3.850645033490468494e-02,-2.258327605104413268e-04,1.250086645555396328e-03,1.155522943596512010e-02,5.310427546501159668e-01
5.236765360678541370e-01,-1.693486548190556440e-02,-1.664602333654283117e-02,9.118210023685468022e-06,1.036107150078472523e-03,7.040863672300471873e-03,5.406075716018676758e-01
8.701056286763175773e-01,2.096125783670457765e-02,-9.803342750493793112e-02,2.051182599198858418e-03,-5.276836960880388304e-03,2.944373528324187306e-02,9.159402251243591309e-01
6.106203764150981428e-01,3.761891066301373265e-02,-1.235331273837934063e-01,4.146203291366186601e-04,-6.662557229098346745e-02,3.125365344950291335e-02,6.803593039512634277e-01
5.940346082119128956e-01,1.967314242858198003e-02,-7.538897650765255531e-02,1.492948626674029701e-02,1.387164009493776357e-02,-2.140992342066455958e-02,6.294037103652954102e-01
5.605904801237927559e-01,4.302553800707648035e-02,-6.816761079221267394e-02,-7.162108988686123785e-03,2.753661416388844107e-03,-6.264445368600415377e-03,5.814477205276489258e-01
6.208345600374072237e-01,3.954132824981787531e-02,-8.586784307060288390e-02,-3.063901559704046516e-03,1.072057752671601305e-02,-6.546437511465467637e-03,6.534755825996398926e-01
5.667383683971751740e-01,2.663459977007279211e-02,-5.960852413800835081e-02,-3.860907917667873168e-02,-1.637218217599350557e-04,9.380214997546154621e-03,5.920018553733825684e-01
5.645469264504413553e-01,2.595388769438966570e-02,-6.808367188031450024e-02,-4.032569710981933481e-02,5.456496771421920182e-03,1.174826088993089282e-02,5.957813262939453125e-01
6.162110016497495124e-01,8.305673764493426425e-03,-8.790654344489959304e-02,3.013955041359420856e-02,9.250700771273970627e-03,-9.685847749757288405e-03,6.637446284294128418e-01
5.477486987359121429e-01,3.674112815857330516e-02,-6.793825941864545248e-02,-4.982575861486495360e-03,6.640008295686761729e-03,1.100725422502403820e-03,5.707791447639465332e-01
5.324946770743235192e-01,-4.796092185543157638e-02,-3.914268120508515580e-02,7.751185967868778242e-04,1.839810007049969866e-03,-8.258835008966052471e-04,5.761092305183410645e-01
5.620877343295040962e-01,1.564444652222601873e-02,-6.199286522582669878e-02,-6.594681237059546279e-03,1.309309986090543458e-03,-2.476788823386473319e-03,5.892421007156372070e-01
5.567695784499565592e-01,3.453454740996422800e-02,-5.825689527510435894e-02,-2.747517753294455994e-02,2.795188277636557073e-03,-5.789835844483930821e-03,5.763568878173828125e-01
5.248717859897695792e-01,-3.729095784964978066e-02,-3.892817267628298494e-02,-1.252355194609182029e-02,4.147882330146539860e-04,-2.380858791996651441e-03,5.634164214134216309e-01
5.585387150703240433e-01,1.522288129981375082e-02,-5.390774062177458581e-02,4.960885696477277708e-03,1.640068778598496825e-03,-3.766792523168020334e-03,5.810812115669250488e-01
5.378746178659224997e-01,-4.173790122784762358e-02,-4.904268169636533115e-02,-2.479253403469315956e-04,-6.538059513356297720e-04,-2.108198931085776984e-03,5.833119153976440430e-01
5.354505939284410765e-01,-4.001873527227087224e-02,-4.589071984591763798e-02,-1.831740407264357542e-03,-2.373362649524659706e-03,-7.448795657596208415e-05,5.784509778022766113e-01
5.336763738285869030e-01,-3.871213584081081849e-02,-5.179232834361627291e-02,1.999806993526350135e-04,1.170421118552835565e-03,-2.189347411233323777e-03,5.790554881095886230e-01
6.023892872402081267e-01,-1.448114475310799398e-02,-9.762598488536206043e-02,6.484630257268575448e-02,8.351111164060226466e-02,-7.332453488265557040e-02,6.988552808761596680e-01
5.366788179224140087e-01,-4.019079832558389298e-02,-5.380467110400333208e-02,-7.438087434770376566e-05,1.825333376327238199e-03,-3.502398647512867426e-03,5.838357210159301758e-01
5.385045079143166991e-01,-5.421957084066239552e-02,-1.010326378540138403e-02,-6.682853341535620415e-04,-1.427777154356863094e-02,3.759092206535578256e-04,5.724793672561645508e-01
5.258380257989375695e-01,-2.198041620662927187e-02,-1.957215021958205736e-02,9.315664454324992533e-04,3.014987707091763077e-04,-4.407082559662880376e-04,5.466214418411254883e-01
5.062082028809923306e-01,-3.916407773617824883e-02,-4.414224084902135248e-02,4.011271804720613343e-03,3.842685376373078734e-03,-7.934132487569823047e-03,5.481351017951965332e-01
8.173791899476886558e-01,3.421951923084684544e-02,-1.112520170913150752e-01,-8.921438202770051729e-02,-3.198342583660891691e-02,2.391986662983381761e-03,8.805634975433349609e-01
7.736804551116992501e-01,8.554310979615731281e-03,-1.233095057946589912e-01,2.470544996102609289e-02,3.835370812761660503e-02,-1.493616359658272302e-02,8.429780006408691406e-01
5.282693864538245965e-01,-1.989128076518983934e-02,-2.724858356820081262e-02,4.358750940451757913e-04,-8.004083197706101218e-04,-1.201472037387749017e-03,5.518822669982910156e-01
5.975765944878338454e-01,2.107416475034726289e-02,-7.369382746378780324e-02,-2.557843238842958528e-02,1.522027217531913418e-02,-2.011460667040246980e-02,6.323302388191223145e-01
5.558663656286322308e-01,7.427423058372628617e-04,-4.966175155059202040e-02,-6.718142351174725448e-03,6.613492244602548614e-03,-9.811206032386327394e-03,5.824422240257263184e-01
5.978405477303918580e-01,2.871993687447996213e-02,-6.711941163179838132e-02,1.020655171703135911e-01,-5.464508573395369245e-03,-4.326670499480168852e-02,6.516020894050598145e-01
6.598361051594032745e-01,5.171469446308918361e-03,-7.094092721905947974e-02,1.216310406186603237e-02,-9.879478226081204670e-03,-2.163982474108969850e-02,6.973868608474731445e-01
6.073978652295899394e-01,-4.110999339618642834e-03,-4.790145892955868789e-02,9.073940769952578214e-03,-1.109178573092650969e-03,-2.140788941164518261e-02,6.358180046081542969e-01
5.747581834181292315e-01,-5.213294217271072228e-02,-2.078938738604310665e-02,-3.920420775079844986e-06,1.790597279960227939e-02,3.584600152031069444e-03,6.126388311386108398e-01
5.309191888525355285e-01,-2.538205259798137492e-02,-3.559575922071492315e-02,-3.754616993634334867e-04,-1.916082982940892901e-03,-3.131124851238893631e-05,5.614879727363586426e-01
5.698769062167728938e-01,-6.940635093253594290e-02,-3.801804651923521017e-02,2.924806958613976240e-03,9.040142300895065083e-03,-8.843951425365882343e-03,6.245861053466796875e-01
5.768065838621461161e-01,-6.892040048271133590e-02,3.957566296150463736e-02,6.801360169418613037e-03,1.115606242565783494e-02,2.550256794723668868e-02,6.009485721588134766e-01
6.134945171785964879e-01,-8.904892228212502037e-02,3.508887225187351522e-02,1.325534659853304896e-02,-1.518042922210019810e-02,7.847966584421495195e-03,6.505140066146850586e-01
5.335111912570038584e-01,-3.894003186255134974e-02,-3.967776285602053754e-02,8.112959914545342117e-04,2.514562971887596143e-03,-6.092835950164954262e-05,5.728387236595153809e-01
5.994814477941156072e-01,-1.724956371136562860e-02,-3.575209708280585597e-02,1.406346798048291671e-02,-6.496294529096009740e-03,-4.862902061934912951e-02,6.323961019515991211e-01
5.542835237387373493e-01,-6.305587283148236799e-02,2.471992232195419081e-02,-2.673141878051282262e-03,8.474960366472064632e-03,1.802338126015339687e-02,5.795140266418457031e-01
5.525486772846147643e-01,-7.398487794468319723e-02,1.924786159579111589e-02,9.234342324157290838e-03,1.841447773193379293e-04,9.614681131430534780e-03,5.859662294387817383e-01
5.285610396331643646e-01,-2.514091206070881435e-02,-2.733845067116832950e-02,-4.174541078208808499e-04,1.722417199385984027e-03,2.314752090408400058e-04,5.548126101493835449e-01
5.335966548248524122e-01,-3.356332292466152056e-02,-3.962316550464961562e-02,4.095390752798946411e-03,2.250266305194654603e-03,-1.634930984558351230e-03,5.702785253524780273e-01
5.186169711194354992e-01,-4.924695131580253404e-02,-4.016166226424916497e-02,4.211634932877433846e-03,-1.354739940014341743e-03,4.323926291652809180e-03,5.634781122207641602e-01
5.308841519344587034e-01,-4.418333379182393106e-02,-4.812529995829556428e-02,3.093070059497281623e-04,-6.798234112902544306e-04,3.035376116835564447e-04,5.770502686500549316e-01
5.265090859737513451e-01,-5.117503420393562652e-02,-4.233897534422101372e-02,1.332402706846715166e-03,-7.215258094165865861e-04,1.648544686052978584e-03,5.733302831649780273e-01
5.300407741375776638e-01,-2.485382712515113446e-02,-4.181198027876414924e-02,-4.490385873732347273e-03,4.532822219704743701e-03,-3.874711338625929166e-05,5.636734366416931152e-01
5.272313977305207455e-01,-5.289930328845729446e-02,-4.354975408431666084e-02,-9.021130477140644303e-04,8.985433488381343965e-04,1.502814242581800019e-03,5.755230188369750977e-01
5.196363384995450474e-01,-5.220163379176062657e-02,-3.835604809802153903e-02,-3.281366328235816969e-03,1.675177824613457728e-03,1.368444281854323862e-03,5.650834441184997559e-01
5.314769451575186432e-01,-4.095910915213787917e-02,-3.802272450599025744e-02,5.133042456443836707e-03,-4.950095329100867060e-03,9.112214177099865363e-04,5.711092948913574219e-01
5.310838612816048965e-01,-3.480476570076396214e-02,-3.716975851576256873e-02,-1.343320054106805252e-03,2.257997428343810377e-03,1.684939043042268795e-04,5.670931339263916016e-01
5.211257416772708817e-01,-3.195063093820860178e-02,-5.800095305284891367e-02,-1.688211134605297511e-04,2.205285261012262556e-03,1.545063382768057378e-04,5.665639042854309082e-01
5.334211141292286573e-01,-3.794336961137328990e-02,-4.752167680208327361e-02,-7.901065670988939409e-04,3.640768574938932356e-03,-4.973764556074775295e-04,5.762501358985900879e-01
5.162571063721738129e-01,-3.523378308010999271e-02,-4.508578044149452735e-02,7.242140720769670503e-04,-6.471153807864315479e-04,-1.546013138567252018e-03,5.564912557601928711e-01
5.266437260326293224e-01,-3.714806364705608432e-02,-3.033020790751278506e-02,4.972523588164435735e-04,1.409139271706540521e-03,-4.469851563779707977e-04,5.604204535484313965e-01
5.151673178020119703e-01,-3.446920079579698926e-02,-5.490079645848613965e-02,3.110775668319457369e-04,-1.206455075659530925e-02,-2.145383706705184228e-03,5.605340600013732910e-01
5.141770125162291594e-01,-5.324546273021338316e-02,-3.775113837829779939e-02,8.431546966176218074e-04,-1.094834571135577025e-03,1.727000116668484572e-03,5.598492622375488281e-01
5.031417121994984365e-01,-3.234492151099446766e-02,-5.672210962794158040e-02,-1.414579625601836295e-05,-2.936106326730270402e-03,-5.203513957266364155e-03,5.481796264648437500e-01
4.949818888483265567e-01,-2.904308533652086299e-02,-5.654968878170693602e-02,-2.390647517320418358e-03,-1.710722984266991112e-02,-8.045860266673287783e-03,5.393164753913879395e-01
5.202263425064975744e-01,-3.592469417790775110e-02,-5.260417621304383506e-02,1.160403993750248082e-05,-4.475342285453261931e-03,-3.221080382968847904e-03,5.647563338279724121e-01
5.081957706901443217e-01,-2.987854834381151181e-02,-5.755549810328020044e-02,-2.507970724252502580e-03,-4.434956559228624660e-03,-5.287977320988644647e-03,5.525794029235839844e-01
5.306311371286809297e-01,-4.601427798575280503e-02,-4.950731294769447621e-02,3.677907476719539720e-04,-8.233663381997357580e-04,5.002624468450166248e-04,5.784025788307189941e-01
4.829259444102493304e-01,-4.163760382352771350e-02,-4.049240426848421670e-02,2.071033741158225319e-02,7.549107644366620518e-02,3.016067533764041960e-03,5.412746667861938477e-01
4.925405301257174129e-01,-4.850784780837830157e-02,2.736045633929456988e-03,7.734154908264689876e-02,1.048145530110668050e-01,1.812592518335260847e-02,5.652635693550109863e-01
3.782891913843470233e-01,-2.029755222655568736e-02,-1.464257857112702399e-02,4.154939094622014939e-02,-2.663760683302799845e-02,6.225197615502013962e-03,4.050597250461578369e-01
5.266615752340351175e-01,-4.664108688407106462e-02,-4.438631575163223819e-02,-1.251876973248709779e-03,-2.285116082950530627e-04,1.043572140876854008e-03,5.721856951713562012e-01
5.251322374356877098e-01,-2.181320538600661774e-02,-2.020195706569555272e-02,-1.880213284242736110e-04,-2.207155290654238232e-03,8.579323465388533076e-03,5.463572144508361816e-01
5.301142067773295663e-01,-2.470930274248009373e-02,-3.017728426720570067e-02,-1.134231628418680676e-03,-9.417185080837950871e-05,-1.795963597834675674e-03,5.575897693634033203e-01
5.405011513290884917e-01,-3.525973615406344241e-02,-4.419742081100672126e-02,1.367029801435951748e-03,3.347449532871564753e-03,1.173199181955649536e-03,5.803186893463134766e-01
5.344739083579592709e-01,-3.352626614683515416e-02,-3.138890300734081817e-02,-1.014035369633936243e-03,2.393750238834075825e-03,-1.138797362676377632e-03,5.669558048248291016e-01
5.323165737394068842e-01,-2.283062938881297299e-02,-2.525334896196010370e-02,2.655986418136616848e-03,-2.606807415245461761e-03,-2.595137152704677427e-03,5.564180016517639160e-01
5.322342917219718972e-01,-2.247834639615670094e-02,-2.496676238191647412e-02,3.756492363162590008e-03,-2.647361133967621270e-03,-6.268600660318002574e-03,5.561239719390869141e-01
5.331261681444485756e-01,-2.862954069266152035e-02,-2.522085030161766439e-02,-3.136924006923417704e-03,2.851066557166464848e-04,9.922410103850229628e-04,5.600883364677429199e-01
5.432239375310370377e-01,-4.472722819027535879e-02,-4.386897871861336617e-02,-1.347552740372915444e-03,-2.662138522542775064e-05,-7.630142827033934740e-04,5.875286459922790527e-01
5.314894496466237017e-01,-2.932502034916539824e-02,-3.004476831296448713e-02,3.425682903010837535e-04,-1.681089652968986367e-03,-2.958779701053880669e-03,5.612059831619262695e-01
5.512895397200561209e-01,-4.772843448796354471e-02,2.587753688128571761e-02,7.335489201188896864e-03,-1.138627170188244442e-02,-1.967338454350358798e-02,5.673275589942932129e-01
5.510596992133581784e-01,-2.984956700850874278e-02,-3.007152175248392623e-02,5.108460102464859078e-03,1.663258987497194400e-03,-1.918613048820336578e-02,5.820442438125610352e-01
5.489861320496299824e-01,-1.869430268864882838e-02,-3.431930550699002769e-02,8.432934009343297406e-04,1.620309149549989261e-03,-1.726045609928206909e-02,5.764364600181579590e-01
4.736664362441079801e-01,-3.656876228636055104e-02,-3.822288670548154577e-02,2.091914995876222733e-02,-1.722351178118895505e-03,-1.288540517857066948e-02,5.128416419029235840e-01
5.306640752874526301e-01,-3.589437972244702291e-03,-2.940706432042686225e-02,-2.054405988699507281e-03,2.996530655485728483e-03,-8.953876795598465083e-03,5.478746294975280762e-01
5.407958547775508773e-01,-4.450193095888738126e-02,-4.495625649945073077e-02,-1.627294367219710635e-03,-1.214332380809999461e-03,-1.938131590379991694e-03,5.855452418327331543e-01
5.273776507793116464e-01,-1.479093324545280308e-02,-1.698334371213328087e-02,2.180571878561220374e-03,6.547564493517407571e-04,-1.389027991628822255e-02,5.438148379325866699e-01
5.404428024256828778e-01,-4.440708245924440689e-02,-2.182120353392516532e-02,6.017421518742556083e-03,-1.063197146227544583e-02,-1.196072379835749289e-03,5.742840766906738281e-01
5.327023835771337312e-01,-7.147517534879660461e-03,-2.774643941708626604e-02,3.188196248677703775e-03,-2.091739457289960684e-03,-8.329044737077266267e-03,5.506671667098999023e-01
5.371517647507035864e-01,-3.935865866057763895e-02,-2.365808583952364041e-02,-4.916659501498016165e-03,2.025184454653036325e-03,1.008536725735771156e-03,5.688999295234680176e-01
5.328384244396909830e-01,-2.191706697273962390e-02,-3.000739636657095977e-02,-1.073623656850013729e-03,7.477238630661689305e-04,-1.343790691303596053e-02,5.593336224555969238e-01
5.037435010383346512e-01,-4.623043401794876828e-02,-3.094097794420319625e-02,9.530945385332167952e-03,8.546518101022619650e-04,-2.993898701817831760e-03,5.427687168121337891e-01
4.693042425084307245e-01,-4.648186389057115675e-02,-2.255170147721244356e-02,1.162474830047320606e-02,1.099984631861345829e-03,-3.425302947825792973e-03,5.046873688697814941e-01
5.394084943808957755e-01,-3.566762118534957948e-02,-3.771385936378812698e-02,-1.350000535374175402e-03,3.648644514254570283e-04,-2.998152748649265432e-04,5.761072635650634766e-01
5.173290912985191170e-01,-5.615299999099251926e-02,-3.128186119447040614e-02,1.004515607695934121e-02,3.957607410187813542e-03,-3.839334014617486711e-03,5.618104934692382812e-01
5.401140918147810943e-01,-3.500199070038517712e-02,-3.889610237045618146e-02,8.019609391973130195e-04,-1.458103067599777778e-08,-1.791473763124213150e-03,5.770829916000366211e-01
4.547146360584470859e-01,-4.892668181441195419e-02,-2.369198030263988675e-02,2.182607309215951752e-02,2.036578776661133669e-03,8.147936956812451038e-04,4.929763674736022949e-01
5.188971048225572424e-01,-5.761459530178361654e-02,-3.417259817550410972e-02,9.605114704626879080e-03,4.562867896126517574e-03,-1.923441872511158285e-03,5.654653310775756836e-01
5.204794773702432487e-01,-5.285425744711552687e-02,-3.424447393086968439e-02,7.965158261690911739e-05,4.066424692809792298e-04,-1.642505678721495723e-03,5.642666816711425781e-01
5.207848033448017055e-01,-5.768899015071388137e-02,-3.538443918930894716e-02,8.925030652757966199e-03,3.199118111689265402e-03,-8.342726619017398499e-04,5.678895711898803711e-01
5.267513076447212228e-01,-5.444405094198578876e-03,-4.133763655724428943e-02,6.255667858009091205e-03,6.930452151110723900e-03,2.078295792656033661e-03,5.512688159942626953e-01
5.301924934333372974e-01,-5.310366130899710213e-02,-3.857620947303466719e-02,2.697505179763836410e-03,1.645896696469749051e-03,-4.048967060371709906e-03,5.762384533882141113e-01
5.324592249732059690e-01,-5.492709774542894885e-02,-3.612833824965322460e-02,7.052632980820209424e-03,3.031919377436064281e-03,-1.390134371046131655e-03,5.783740282058715820e-01
5.323967956725467188e-01,-4.753204236617092349e-02,-3.718398907765310679e-02,1.584281374776940268e-02,8.763950409811170628e-03,-2.595766092809631727e-03,5.756970047950744629e-01
5.325070572717942596e-01,-3.777440660093012159e-02,-4.754722675622702344e-02,-4.214068452230023895e-03,7.223985898123621956e-03,3.378386403350207116e-04,5.754128098487854004e-01
5.627856621166673623e-01,-6.802801095685365174e-02,2.251486401104571544e-02,7.482927953621506742e-03,6.103553901951177868e-04,-3.506507033831898507e-03,5.909435153007507324e-01
5.421532211825252912e-01,-3.600611687345653400e-02,-2.217536028911720747e-02,6.623253133070288248e-03,4.468603705532749222e-03,-1.090973268039304757e-02,5.718493461608886719e-01
5.419491608423379070e-01,-4.954804268648033139e-02,3.665376040824286363e-03,-6.054202657786916580e-04,4.136929479939436410e-03,-4.095056627279154531e-03,5.668578147888183594e-01
5.324745836323088177e-01,-3.793486694177061747e-02,-4.762834472804811092e-02,-3.031567839123024133e-02,7.815258952093588271e-03,1.599841036324724545e-03,5.778738260269165039e-01
3.773668881878493031e-01,-1.740251875773436707e-02,-8.641900374893721204e-03,-2.964959179720866745e-03,-1.667183817829188735e-03,-8.000806694228930482e-03,3.907530605792999268e-01
5.352271464726308103e-01,-3.684963407320929196e-02,-2.351016414069201366e-02,-4.474342048126001524e-03,1.976631147384147816e-03,1.075594084651007153e-03,5.655915737152099609e-01
5.075093687626007766e-01,-3.264425471094750675e-02,-6.123159112642712065e-02,8.963648888157385369e-04,-3.351941491003129504e-05,-3.478021698644141214e-03,5.550346374511718750e-01
5.350039357895653991e-01,-3.460286471773491024e-02,-1.783810140640679220e-02,-8.620911725652461929e-03,-4.505569562846709411e-03,7.990919052486056273e-03,5.618354678153991699e-01
5.176146708954079134e-01,-3.997173004456924805e-02,-5.232926789022551706e-02,4.696322742746272534e-04,-8.749258239492658335e-04,-1.239452488261603936e-03,5.638734698295593262e-01
5.116235216684245080e-01,-4.645279348442291067e-02,-3.574814198351766725e-02,-2.456313593886435588e-03,3.119902609283325967e-03,-1.318498592823068663e-04,5.528445839881896973e-01
5.245035288199036971e-01,-5.258096331346276409e-02,-4.596983583106961646e-02,1.085072167185747907e-04,4.941783509017475028e-04,-3.100068564685355861e-03,5.738332867622375488e-01
4.354114351242686642e-01,-4.569466428891037768e-02,-1.897054430290841254e-02,-4.029726151973540144e-02,2.208870823917382861e-02,2.423026925289888979e-03,4.750505983829498291e-01
5.111582700329430073e-01,-4.831730936326147918e-02,-3.624499806460593221e-02,-4.115644061744465343e-03,5.019450260951391525e-03,1.334435657314612597e-03,5.536571741104125977e-01
4.907451780661816199e-01,-5.754720461748216720e-02,-2.543904397358887071e-02,-7.577398920866978103e-03,4.172288834470197494e-03,3.885572625799155883e-03,5.332171916961669922e-01
5.435898703230775952e-01,-4.282636203173362244e-02,-2.988498879789069917e-02,7.789361458044171890e-03,-1.021792858916158175e-02,-1.987141670057653367e-02,5.815000534057617188e-01
5.022459621668438068e-01,-2.611556496838221553e-02,-6.372187445037985620e-02,1.100775875528658921e-03,-6.567932873386489933e-04,-1.638890074822784955e-03,5.481449365615844727e-01
5.408367120794440597e-01,-3.132234294066998936e-02,-3.307473279531092381e-02,-1.803144459692037488e-03,4.184474454687095793e-03,-6.365004884821784045e-03,5.731976032257080078e-01
5.212274064848353428e-01,-4.285971065552693360e-02,-5.258574724098424857e-02,2.153664132582321436e-04,3.965157373222638528e-04,-2.417061725750432270e-03,5.690284371376037598e-01
5.257882299237619517e-01,-1.649676343669093104e-02,-2.446084893081265643e-02,-4.015576992251720977e-04,3.484340728838469120e-04,4.077307305199311636e-03,5.463569760322570801e-01
5.307149034771718732e-01,-3.426742938600446653e-02,-1.084745309495832588e-02,-2.322049073027570611e-03,4.264610985318348021e-03,-5.078314477533893076e-03,5.537776947021484375e-01
5.287635271429204087e-01,-2.198221276324513473e-02,-2.156792940534946190e-02,-1.837139515717726122e-03,3.126007258106665906e-03,-4.573479675820246206e-03,5.506315231323242188e-01
5.335487337095276006e-01,-2.196850321414806073e-02,-2.746424552273454833e-02,-3.859238487726509865e-03,2.976731226811237148e-03,-2.794297227620184260e-03,5.583701729774475098e-01
5.323990291477112002e-01,-3.702329794161560161e-02,-2.678551616999966245e-02,2.046404435593865163e-03,2.769039022674071111e-04,-5.796328041227556856e-03,5.644736886024475098e-01
5.310269063799311073e-01,-2.807508816335305135e-02,-1.459511259125434446e-02,3.212884276598821157e-03,-1.294334741905754128e-03,-8.229018788574840246e-03,5.527017116546630859e-01
5.243527887923062902e-01,-3.655127928325474507e-02,-3.341571633056614199e-02,-1.309454528309997139e-02,-1.768740984409283498e-02,3.021431969914579411e-03,5.606645941734313965e-01
5.155131475681669073e-01,-5.670775660957519393e-02,-3.989686686533897020e-02,1.030048687586591330e-04,1.172463630354708426e-03,-3.858637786193805201e-03,5.640466809272766113e-01
5.347211228486865586e-01,-2.281060762828177046e-02,-3.260097952278617761e-02,4.843840316124877442e-03,1.654859757310562628e-03,-4.380784769491555090e-03,5.626118779182434082e-01
5.273490424718546565e-01,-8.769369065807136598e-03,-3.224439521574784528e-02,-5.352358821192521737e-03,3.114984516517882614e-03,3.178569637490954135e-03,5.483655333518981934e-01
5.316979728636223035e-01,-3.091224170728393283e-02,-2.775627034795116743e-02,-1.622712151687638040e-03,1.865657912348363257e-03,-3.035030647725466338e-03,5.610798597335815430e-01
4.984544195426464652e-01,-3.202480273836352809e-02,-5.192641276498685676e-02,7.393766006365614599e-04,-1.932282780888059574e-04,-6.534392483689505961e-03,5.408248305320739746e-01
5.283446111999855477e-01,-1.483303354303994182e-02,-1.568370589901638135e-02,-9.106439150852784284e-04,-1.218422123352156435e-03,9.900797250945900588e-03,5.438802838325500488e-01
5.352431987678837322e-01,-4.650159206004372825e-02,3.122788212587879197e-03,1.148177515293525116e-04,-1.726983424763256329e-03,9.153475239877365693e-03,5.588212609291076660e-01
5.013926890022575300e-01,-3.118415251790998544e-02,-5.774451975223932054e-02,-3.759107113280191464e-03,-2.676898354710266080e-04,-8.163179407030004111e-04,5.463822484016418457e-01
4.831694695350168822e-01,-2.013428020960825182e-02,-5.527867612937209518e-02,2.215992126847956580e-03,-4.823959807512992839e-04,-2.585632876420133983e-03,5.217984318733215332e-01
5.337029866082660945e-01,-3.817534843005376821e-02,-3.450653809257855920e-02,9.586772365379444064e-04,3.772830216006237657e-03,-5.657306827306079079e-04,5.700935125350952148e-01
5.317317321611776393e-01,-2.566724681611740055e-02,-3.233309248016277837e-02,6.212455444145707762e-05,2.106325421257173279e-03,-4.561420886640751328e-03,5.608291625976562500e-01
4.916301448890535997e-01,-5.453105523186124737e-02,-2.502493723935816927e-02,-1.793475841595834603e-05,2.550835234102653924e-03,7.896370800841601037e-05,5.320405364036560059e-01
5.032919728702649476e-01,-5.991854946107330604e-02,-2.580297570024303599e-02,1.083144478981433456e-02,2.106476007240722266e-03,-2.372298742547940351e-04,5.472852587699890137e-01
5.065891811815432799e-01,-4.759449231672555070e-02,-3.470188878553656653e-02,8.622460545904512760e-03,-3.260627196030984731e-03,8.144015448927969776e-04,5.480855703353881836e-01
4.578173264864721093e-01,-4.569775523103916659e-02,-2.592560187311857001e-02,1.595800768720464710e-02,-7.339872569617466799e-03,7.339893686439898958e-03,4.950252771377563477e-01
4.583142980779844056e-01,-4.565766939061313701e-02,-2.220909473461796235e-02,1.604742363738488262e-02,2.039520131963241077e-03,3.381261002988266741e-03,4.934971928596496582e-01
5.286214264694222287e-01,-3.303072483367539003e-02,-2.620144376570188172e-02,9.082048558879709773e-04,-3.488295040922428404e-03,7.020978357274309948e-05,5.583037734031677246e-01
5.312415688714411388e-01,-3.301773196815330214e-02,-2.436754839318752697e-02,2.564244771305805928e-03,-1.960444944601129509e-03,4.195576734581801977e-03,5.600593686103820801e-01
5.270687252535677381e-01,-3.530582549551286586e-02,-2.857530314446929398e-02,-6.404214458887189185e-04,-1.222419158092459459e-03,9.055322464413268890e-04,5.590469837188720703e-01
5.242399881074537582e-01,-2.814850312219471795e-02,-1.765369926065663009e-02,-1.015833095261576462e-03,-1.177115076801390613e-03,2.419346782499150281e-03,5.472392439842224121e-01
5.225246406036314628e-01,-2.440839711785547372e-02,-1.887820272229132068e-02,-1.416378812777869351e-03,-2.516464845926278619e-04,2.226565099926605847e-03,5.442084074020385742e-01
5.351581683812487444e-01,-2.787291705034475320e-02,-2.952275164803663809e-02,-9.457628559589256078e-06,-6.723867842966286743e-03,2.971599991328689391e-03,5.640015602111816406e-01
4.869044673575653737e-01,-4.184969518007686240e-02,-4.210055183002642254e-02,-4.502381239021778460e-04,-3.255220235744409204e-04,-1.254373865801159706e-02,5.293265581130981445e-01
5.385918261047764055e-01,-5.377709365012595111e-02,-1.118771397931608846e-02,5.989144052786371259e-04,-1.492735465945469776e-02,2.120530339569047604e-03,5.728605389595031738e-01
5.285213408309671346e-01,-3.494131926344176686e-02,-3.306366436415936194e-02,1.832890427871421233e-03,3.912140521573770867e-03,3.836033737242702736e-04,5.625763535499572754e-01
5.283310632034519116e-01,-4.741652459669584707e-02,-4.632720043352900330e-02,-4.044773155880879129e-05,-8.196039332762711715e-04,-6.725887008649135282e-04,5.752066373825073242e-01
5.403282348733337015e-01,-4.693699847411514359e-02,3.978881513295229322e-03,3.681835495679357858e-03,-7.052241190166104109e-03,3.976762845200690691e-03,5.637455582618713379e-01
5.262766898931892090e-01,-3.783585119632273952e-02,-4.003365746238191081e-02,2.075961568189974536e-03,-1.035166813882972209e-03,4.551235771645311198e-05,5.652289390563964844e-01
5.227784248774376419e-01,-4.209381338139378537e-02,-4.670891489434253474e-02,-6.040575218452959999e-03,-8.408314401723947576e-03,-6.324615946671639094e-03,5.675829648971557617e-01
5.219342968508481340e-01,-4.092602510786977343e-02,-4.404863598540509351e-02,1.630999091140500259e-03,-2.860807327920827578e-03,-4.169239789285354887e-03,5.645031332969665527e-01
5.259438011717134653e-01,-4.149491670692614931e-02,-3.588794483698462545e-02,1.440377680351411340e-03,-8.320409916929752793e-05,-8.316583765296337374e-04,5.646634697914123535e-01
4.888834865720556033e-01,-5.437291254226478410e-02,-2.874471913163070824e-02,-2.966367806540376115e-02,-1.049545947560908202e-02,-2.882710056503108749e-03,5.337198376655578613e-01
5.292243183132463447e-01,-3.882544364529480485e-02,-3.085342295921134070e-02,-8.425110159270903464e-05,3.604563068764362992e-03,-1.222872877968952162e-03,5.641445517539978027e-01
5.150217955893556798e-01,-5.884337473438985833e-02,-3.349447601777819084e-02,-3.556838928509094798e-03,1.995301897131588308e-03,-2.018631990910298157e-03,5.616752505302429199e-01
5.296614531652853453e-01,-3.857996713871883476e-02,-5.298282265698148197e-02,-1.261020388231967691e-03,3.524131773590126644e-03,-4.221593067682286038e-03,5.756609439849853516e-01
4.871108099888630805e-01,-3.001380492603419881e-02,-4.554985442131762041e-02,-1.395801352051106699e-03,1.291185558613665296e-02,-7.244673807904338132e-03,5.256964564323425293e-01
5.271594608162983864e-01,-3.993180949331032181e-02,-4.305581491979923459e-02,-1.690615919792807153e-03,-4.427890745364035439e-04,-1.063918714408774611e-03,5.686707496643066406e-01
5.247960125708770462e-01,-2.837334892216505922e-02,-2.522670476393873429e-02,-9.166245841564331842e-04,-1.648900636589771800e-03,-1.443414056382292350e-03,5.516180992126464844e-01
5.021296153483603142e-01,-3.169395831363672200e-02,-5.164826451554557774e-02,4.448953659630579607e-03,-4.659769824203955756e-04,-5.794965188013987203e-03,5.442229509353637695e-01
5.084939204063216867e-01,-6.116769059222149085e-02,-3.305972176620775027e-02,1.485424708925720807e-03,8.816236863749993703e-04,-9.997290209240185764e-04,5.561513304710388184e-01
5.346933583659022604e-01,-3.995512830351338751e-02,-4.398954752918063371e-02,-5.056073774089196726e-03,-3.606182102965017466e-03,-3.156857503950633286e-03,5.768024921417236328e-01
4.878406771696991440e-01,-3.439427314433099458e-02,-4.432124825538116819e-02,4.474376543075943985e-03,2.306139335507613117e-02,-1.284931777199191556e-02,5.293042063713073730e-01
5.355052284508133864e-01,-4.006032730235478678e-02,-4.800290300262016752e-02,1.094888838099128072e-04,-4.238161626886751765e-04,-1.163742076880914991e-03,5.795816779136657715e-01
4.957208709975244321e-01,-3.087361539510080632e-02,-4.890607282239886611e-02,-2.409648495104240503e-03,1.097853489602274406e-05,-6.687482283181563070e-03,5.359797477722167969e-01
5.269122137913133663e-01,-3.340392234771591418e-02,-3.398498450120282510e-02,2.392068189178554998e-03,1.382503045838058379e-03,5.107783948650806635e-04,5.606279969215393066e-01
5.023071179819946774e-01,-3.125186199779733665e-02,-3.994399644258772586e-02,1.957074316166970424e-04,9.920624725205216474e-03,-2.576797697389960912e-03,5.382506847381591797e-01
4.151750798357866090e-01,-2.481911186546185977e-02,-3.710259585513840663e-02,3.995427048458686375e-02,-2.671528070962996687e-02,1.012787820932220355e-02,4.542998075485229492e-01
5.052083503367796880e-01,-3.821453089041879081e-02,-4.377143049589762858e-02,-8.101430082866954360e-03,-1.110770113217899972e-02,-3.396804984556913657e-03,5.467730164527893066e-01
5.241545974394390406e-01,-4.035183998111244175e-02,-4.149800038731080165e-02,8.602654152309545778e-04,1.547411180729486337e-03,-5.956255295471560339e-04,5.650896430015563965e-01
5.093201069490091992e-01,-3.014867439780427594e-02,-6.312341535397092418e-02,2.917141107099761183e-03,-4.171054875860760215e-03,1.789742552191211575e-03,5.567675232887268066e-01
5.275246547370359140e-01,-3.941366764514503407e-02,-2.767970660890553547e-02,6.704947603556677890e-03,1.514797867546922557e-03,5.044799267260767972e-04,5.612903237342834473e-01
5.264519993437228873e-01,-4.561708738821831921e-02,-4.749084260275970859e-02,-1.856424747109758193e-04,-3.887098825408713239e-04,-4.675459212003647792e-04,5.730093121528625488e-01
5.345271944599950809e-01,-4.322429339139349791e-02,-2.849988298162950406e-02,2.964402867983778264e-03,1.001079992329487016e-03,-6.537005310760331993e-04,5.705586671829223633e-01
5.082621708353978196e-01,-3.055267423211194266e-02,-5.871329753680870622e-02,3.341826271348490116e-03,-1.595815808991022863e-02,1.240837845540978222e-03,5.541569590568542480e-01
4.936848352488960034e-01,-2.879404992277126429e-02,-5.690092943990376906e-02,1.842613022818983788e-03,-6.076440873778823394e-03,3.417432100629331018e-03,5.372294187545776367e-01
5.294954825273532339e-01,-3.723687724181637404e-02,-5.428138291379483449e-02,8.316582843764491750e-03,-4.682241789120625795e-03,-5.136171297562828249e-04,5.756820440292358398e-01
5.310507992393658228e-01,-3.822647142707608081e-02,-2.576377985198724518e-02,5.286889011288824387e-03,3.043506174998344450e-03,4.324775509828555561e-03,5.632982850074768066e-01
3.898537780936778274e-01,-1.264000885395452634e-02,-3.813146380089615928e-03,1.574803658565960413e-02,1.209401183160602189e-02,-3.905719459359914894e-03,3.996935784816741943e-01
3.286194437535987500e-01,-3.031811244243176606e-05,-1.396675078149153815e-02,-1.349784669208734141e-02,-1.350385323818718755e-03,7.927213798585684354e-03,3.369356989860534668e-01
5.269088452057647531e-01,-3.736560326779186925e-02,-3.666148806136876326e-02,-2.166501256249407040e-03,1.848973320280455015e-05,1.240123606297032421e-03,5.639392733573913574e-01
5.272667390780259034e-01,-4.713940984594330863e-02,-4.709650382509578126e-02,4.938765866167729246e-04,-1.363212531255252719e-04,-1.124209667946002040e-03,5.743886828422546387e-01
3.079368034162410783e-01,1.057246337827877358e-02,-6.418917608226354377e-03,-1.692785238214217746e-06,-3.239890238478927015e-02,2.378868336016219751e-03,3.113405406475067139e-01
2.665950475507586903e-01,3.048662504229582293e-03,-4.924397014304748854e-03,-2.119963566843537789e-02,-3.810140953574983613e-02,-5.069190538873664768e-03,2.782122492790222168e-01
3.352727652992265606e-01,-1.262211438945057274e-02,-2.142557429685525150e-02,-3.093189721363982098e-02,-7.198473269296824795e-02,-1.202510286820540793e-02,3.781806230545043945e-01
2.464233921346523359e-01,1.189013237587212279e-02,7.906771044913357693e-03,-1.547540385299562421e-02,-3.369031565975712933e-02,-2.887872768616914568e-03,2.451622784137725830e-01
5.224464768798340319e-01,-4.333722481649260327e-02,-4.991061495550833116e-02,-6.628859316077949154e-04,-1.111760123591648466e-03,-1.100373604759597845e-03,5.691064596176147461e-01
2.771458809754931973e-01,1.084646314627006614e-02,-3.480976774433028331e-03,1.177213285731069752e-02,-2.851664569340418495e-02,-6.894979932474120949e-05,2.789111137390136719e-01
5.170333098839523522e-01,-3.652869513233825138e-02,-4.508599178330349733e-02,8.303602981669699944e-04,-3.012127975351524775e-04,-1.875440107150554842e-03,5.579014420509338379e-01
4.602986092267115081e-01,-4.911406268266135799e-02,-2.517329678244484281e-02,-8.323094033955825630e-03,-8.643461251365305159e-03,-9.590165764114387537e-03,4.985845685005187988e-01
5.086154629095444024e-01,-5.705046963517310110e-02,-2.924032078510693800e-02,-4.017840184879523970e-03,-3.102429061615935742e-03,-5.628383536797140416e-03,5.524422526359558105e-01
5.093731315114184977e-01,-5.441797823533917056e-02,-3.583182097156578649e-02,4.582162482979588590e-04,-2.433209771946067378e-03,-1.797000914823735198e-03,5.547569394111633301e-01
4.786339706341414812e-01,-5.029547738082640329e-02,-2.974044162628911026e-02,-8.650351828715364261e-03,-4.115405226290908903e-04,-9.348507014322741601e-03,5.194265246391296387e-01
4.883049815721427489e-01,-5.603238216253134119e-02,-2.788018456695073866e-02,4.645474922555597693e-04,-3.458357415812625662e-03,-6.924909914034168591e-03,5.309913754463195801e-01
4.609286303096107873e-01,-5.229759733534491972e-02,-2.606745417322681169e-02,-1.278315307732478395e-02,-4.130395002186882866e-03,-7.572615809540304138e-03,5.013388395309448242e-01
4.858584275699030508e-01,-5.528479822044690684e-02,-2.490481237245054102e-02,-1.463901766290067775e-02,1.645804011288338163e-03,-1.469518110860390915e-03,5.272347927093505859e-01
5.178642855223920538e-01,-5.096493566434875944e-02,-3.709104115805189616e-02,-1.247344039597840688e-02,-2.730958195146163028e-03,-4.497644516589534465e-03,5.625096559524536133e-01
5.095032270500434723e-01,-5.614373151191812128e-02,-3.599823747527725049e-02,-4.450659129910165129e-03,-2.598366309051582026e-03,-4.964259146537567183e-03,5.559862256050109863e-01
5.339859552752704852e-01,-5.426166515763189424e-02,-3.790158248041664013e-02,3.670285823261515944e-03,-2.516828998982529545e-03,-1.420342974840187742e-03,5.802969932556152344e-01
5.390402538620633344e-01,-4.947394009897354561e-04,-5.724227677727566910e-02,-3.559684733284029790e-02,-2.321213614761021525e-03,1.140850874468561996e-02,5.737103819847106934e-01
5.459450942088306391e-01,1.068758669417335661e-02,-4.579966931872372915e-02,-1.988449991541790720e-03,5.969861365804983444e-03,6.275549664370041678e-03,5.658299922943115234e-01
5.484342703746573067e-01,2.184927993828222892e-02,-5.328121467571100833e-02,4.296715000706440545e-03,-9.951002855319240764e-06,6.228987347148295418e-03,5.680411458015441895e-01
5.341293181893377318e-01,-7.025119954966990710e-03,-4.051994370035708060e-02,5.932806259361929173e-03,3.582758622634334730e-04,5.477440328992179072e-03,5.588307976722717285e-01
5.288396360755344139e-01,-4.187072643834408026e-02,-4.699559315520690506e-02,3.009775392957013407e-02,2.878077660237661831e-02,-4.265937309963771691e-03,5.778568983078002930e-01
5.230958934928382487e-01,-3.635809013173435522e-02,-5.225041769837235339e-02,2.377248945607706061e-03,-1.133511972182405783e-03,-7.452848019812395412e-03,5.677321553230285645e-01
5.292924239743375114e-01,-3.675980466012254699e-02,-5.226968457159011927e-02,1.109592453464739673e-03,1.579973468731582335e-03,-4.609694771330127491e-03,5.740296244621276855e-01
5.380447721982819509e-01,-4.088114352922606054e-02,-4.224768950610779950e-02,-3.610543950665851941e-03,7.959912832107373217e-04,-9.183716769120086167e-04,5.796479582786560059e-01
5.023791408762916522e-01,-4.915016679642805753e-02,-3.489210915159088322e-02,-4.727025839205233233e-03,1.869046259129438989e-02,-1.113795540797483073e-02,5.459041595458984375e-01
5.308015773502441359e-01,-2.833529464173242807e-02,-1.442973050409587787e-02,-4.233256706017742010e-03,7.879509518804323756e-04,1.664994207567550974e-03,5.523732900619506836e-01
4.525291257546232293e-01,-1.878363761728327197e-02,-4.593754843696309931e-02,-1.158251039845580991e-05,2.090090624908711239e-02,-1.121693779316570473e-03,4.868114292621612549e-01
5.786745519120362058e-01,-6.670453203482010207e-02,1.790822110937473344e-02,-5.242762859192062752e-03,-7.865308133934987775e-03,2.174609145626743220e-02,6.088948249816894531e-01
5.294694907797915517e-01,-3.857188344696660387e-02,-5.173657752852006686e-02,1.521738670008200307e-03,1.158135045967763907e-03,-1.391016874485213970e-03,5.747513771057128906e-01
5.330748349494478511e-01,-1.687687062963735829e-02,-3.039822782915055366e-02,2.521271965780567774e-03,1.543397708442586233e-03,9.890335375334926432e-03,5.571224689483642578e-01
5.375492978104898789e-01,-5.040879492455488387e-02,-4.008708465604629567e-02,3.767485051717870976e-04,4.867449479165216440e-04,-3.445029608331297288e-03,5.828973054885864258e-01
3.525179451904925654e-01,-4.303544731236397247e-03,-3.281556459376236412e-03,7.269263800661165172e-04,-2.251031133522015564e-04,4.998026090066997077e-04,3.563150763511657715e-01
5.255870617158909797e-01,-2.034689470563905145e-02,-8.338903650035728310e-03,-6.606204574507413500e-04,-8.078047600656683555e-04,5.766936740502914480e-03,5.401254892349243164e-01
5.327879257922132350e-01,-3.515640960843383067e-02,-3.314622528890062703e-02,4.348545873471944614e-03,-2.614471225535606839e-03,9.641833029856850109e-04,5.670124888420104980e-01
5.278981538999691914e-01,-4.057354177170707787e-02,-3.968485109672145739e-02,5.938108799624499745e-04,-2.346481884681355171e-03,-5.123610234616744665e-04,5.680440068244934082e-01
5.290852369149721124e-01,-5.519039060118322015e-02,-3.880813979983510631e-02,1.380001207578549242e-03,1.258997097763380922e-03,-2.824829816182090284e-03,5.762890577316284180e-01
5.287521916257112986e-01,-5.217620522987767573e-02,-3.884446906843638803e-02,-3.655953989924155215e-04,1.273477665880843593e-03,-1.569796397981733328e-03,5.743895769119262695e-01
5.300649436064864828e-01,-4.771950122422596863e-02,-3.895092978896108615e-02,-2.094251485195200522e-03,-1.868167142830939572e-03,-1.539849686302227974e-03,5.734772682189941406e-01
5.327909375487316357e-01,-3.015412529683483833e-02,-3.955496921092138685e-02,-3.287434661449517657e-03,-2.284810342693234866e-03,-6.885325776642410404e-04,5.677474737167358398e-01
4.261987208294564233e-01,-2.608374314718872600e-02,-2.426807721401560980e-02,2.297894741445113270e-02,1.052868284069791854e-02,-8.535367210334291951e-03,4.537364244461059570e-01
5.286754663859296599e-01,-2.853713312316027984e-02,-2.859639707122357821e-02,4.306461844085614915e-03,-6.865607830912265341e-04,2.262941277303858346e-03,5.573071837425231934e-01
5.326868207214676687e-01,-4.051675219150160934e-02,-4.204399340422224074e-02,-4.947225215079703586e-03,2.787582841219606380e-03,8.173020360383124192e-04,5.740547180175781250e-01
5.275308159921693330e-01,-5.383516495412624114e-02,-3.734073852304520269e-02,4.792908705664911291e-03,2.278167841252208732e-03,-4.782182562642921242e-03,5.734302401542663574e-01
4.623460937457521958e-01,-4.786461171223269084e-02,-2.990331666649417852e-02,2.448690838340054562e-02,2.457906900294993223e-03,-4.257106475569468439e-03,5.033337473869323730e-01
5.181591763323201150e-01,-5.771706857152539283e-02,-3.339022794816767781e-02,9.159501704285238216e-03,6.008647060091526146e-03,-4.303308745550429165e-03,5.644745826721191406e-01
5.405861499380841817e-01,-5.221999949730629642e-02,1.675135170468258772e-02,3.194269723058910070e-03,9.082704536787207170e-03,2.196659520736859127e-03,5.617669820785522461e-01
5.484930972728165877e-01,2.123203398390741126e-02,-5.301033449926934038e-02,-1.497006305566727855e-02,5.325710444536825745e-03,2.070074435229488433e-02,5.698282718658447266e-01
5.276180576776750009e-01,-3.793027098730469837e-02,-3.653672718458347846e-02,2.208559107133868313e-03,-2.274224751208257854e-04,-9.102232223286431693e-04,5.648681521415710449e-01
5.304737499407905510e-01,-3.746693707890089153e-02,-3.302935821978242315e-02,1.667817872967624878e-03,-3.854005738366304053e-03,-1.135201174980058155e-04,5.657817125320434570e-01
5.700999273779563392e-01,4.164592490628168941e-02,-7.069182206022817105e-02,-2.657828697753647929e-03,5.145395430799453058e-03,-2.553056252804778575e-03,5.927637815475463867e-01
6.170433336629168597e-01,5.114986206466304308e-03,-6.889943499116313319e-02,-1.078841438526999957e-02,9.024868534749891195e-04,3.044694339412970518e-02,6.544911265373229980e-01
5.259040406273962631e-01,-4.540215478678974459e-02,-3.937917401589549615e-02,-7.131254769676105901e-03,9.380154121498075520e-05,-1.267594857305957704e-03,5.684571266174316406e-01
5.468269096988436218e-01,1.256290119785746784e-02,-5.994020424005588876e-02,-8.063724735949491865e-03,3.860570794523342751e-03,1.759184917167029398e-03,5.741773247718811035e-01
5.260335343578596001e-01,-4.071624317856009645e-02,-3.913440656091735081e-02,-5.958076335207963467e-03,-1.606515151678513699e-03,-1.568422970404309081e-03,5.660679340362548828e-01
5.481326461862804367e-01,-5.836211779281036405e-03,-5.273784333708766980e-02,6.926556095520074868e-03,9.463032034341734879e-04,5.534905351998446570e-03,5.790525078773498535e-01
5.237060308264164243e-01,-3.891560046940462092e-02,-3.262439378193776607e-02,1.976670413612329640e-04,-4.032246532323010939e-03,3.053383290355937978e-04,5.595464706420898438e-01
5.284841895173311155e-01,-4.719605026861001251e-02,-4.763643838715964085e-02,2.618690577669480952e-08,-8.585222314694837889e-04,-1.147038175842926420e-04,5.759025216102600098e-01
5.242727327549470129e-01,-4.569182967222409908e-02,-4.701095736887622722e-02,3.913095605193741373e-04,2.030387338921757392e-04,-9.079862215976329878e-04,5.706279277801513672e-01
5.246082195879764321e-01,-2.272393887592003003e-02,-2.235657079040601070e-02,2.783760569840114472e-03,2.947810411213560092e-03,2.372101535784825951e-03,5.472090840339660645e-01
5.145881301991143131e-01,-3.943908312923591342e-02,-5.353006771425866672e-02,-2.515084222773818819e-03,-2.516247081469451946e-03,-2.028905757466496762e-03,5.612502098083496094e-01
5.135513485614215945e-01,-5.696890603810544906e-02,-3.142449437733138562e-02,-4.884265800956122221e-03,-1.458647983832121004e-03,-1.779058008272153390e-03,5.582649111747741699e-01
5.245056021234260069e-01,-4.041671765205154254e-02,-4.668995866141029127e-02,7.024844804562362837e-04,-1.797116385581207666e-03,-7.275464772216532839e-04,5.680961608886718750e-01
5.250691057184675437e-01,-4.011686902577840663e-02,-5.096283882541732813e-02,-1.003768133963216844e-05,-5.864457648604983094e-03,-1.593630950825161187e-03,5.707833170890808105e-01
5.251164391455189762e-01,-5.075653231535295906e-02,-4.254826784224161051e-02,-1.130764547493654610e-03,-2.122772281121175150e-03,-1.510696083280294076e-03,5.718342065811157227e-01
5.268843499100759331e-01,-4.709294289975854420e-02,-4.788052110640919623e-02,-1.236283686766195366e-04,1.870096851010796249e-04,-5.332702125501188170e-09,5.743716359138488770e-01
5.372772234314802109e-01,-3.742811534885609470e-02,-3.207421914980354560e-02,-2.032724078594782234e-03,-2.060575433712069551e-03,6.447432850839301260e-04,5.720702409744262695e-01
5.196481700906797618e-01,-5.223287094808259923e-02,-4.188215851636861720e-02,5.629776053260661687e-04,-3.240278468173235721e-04,-2.615655470073941728e-03,5.667958259582519531e-01
5.213731481958427949e-01,-4.857292187646178316e-02,-4.464170938615813489e-02,1.281086435201710247e-03,1.420303598946788363e-03,-1.481053978246341975e-03,5.680060982704162598e-01
5.172194398458396236e-01,-5.280288374929323347e-02,-3.326305441153112885e-02,5.575458682647613934e-03,-3.198383125774659414e-04,-3.286889416733530366e-03,5.606202483177185059e-01
5.391140124338672512e-01,-4.276768494819627175e-02,-4.793783836774070939e-02,-5.341127725405384833e-04,3.747743355948829000e-03,-5.853173021266066308e-04,5.845215916633605957e-01
5.187203413069298996e-01,-5.255605051106956860e-02,-3.534126357121677997e-02,6.325182394031877813e-03,-7.474568974000006310e-04,-3.784880500796039202e-03,5.630127191543579102e-01
3.523255069642530213e-01,5.961670167142704702e-03,-1.181427238948935809e-02,9.722233116091443363e-04,-2.225733572401866428e-05,-3.962039511514485923e-04,3.555898666381835938e-01
5.186909205935700262e-01,-4.184325789692155961e-02,-4.785870297284725017e-02,1.002999231125633413e-04,-2.239720086790264269e-04,-3.117627910179896714e-03,5.635920166969299316e-01
5.295125777252301935e-01,-5.356497569817827986e-02,-3.808436777529103368e-02,-1.441692328518683021e-03,3.016294253040309611e-04,-2.597913586964283473e-03,5.755167007446289062e-01
5.303787614568732378e-01,-5.389645279714819215e-02,-3.859898285885179914e-02,-1.083673690888966755e-03,1.649610948371744556e-03,-3.153953125036965729e-03,5.768146514892578125e-01
5.305837795124906942e-01,-4.915322758652382329e-02,-3.830978784801694625e-02,-3.443885062026202145e-03,-2.383830243595940108e-04,-3.271757270186021371e-04,5.744234323501586914e-01
5.115267575103076281e-01,-5.151061179141483426e-02,-1.978857912845546907e-02,-3.292976854722307056e-02,1.343595166918806205e-01,-5.163319823660181274e-02,6.046198606491088867e-01
5.371030687136795212e-01,-3.955888718087413602e-02,-2.705309571867930973e-02,6.982342227611071372e-03,-1.985262510090214053e-04,-1.026027612065937098e-03,5.706428885459899902e-01
2.785170353259203702e-01,3.613081258079350183e-02,-3.731684569083505709e-02,-1.302487549026164204e-01,2.721298480797181615e-03,7.728809849206905646e-04,3.645086586475372314e-01
4.699020707623446924e-01,-4.009068349847905166e-02,-3.701528465724093775e-02,-1.423893603231148226e-02,1.267239305979114654e-02,7.285757982992436925e-03,5.096890330314636230e-01
3.973073411632597751e-01,-1.432782002254172349e-02,-1.593977546634943454e-02,2.394604913792930476e-03,-4.612767841212230772e-04,1.079381429457716528e-02,4.128886163234710693e-01
5.322931875523233547e-01,-3.604120358541293423e-02,-3.894418079024208890e-02,-1.629388957809947301e-03,-2.417930201252833848e-05,4.976987647653820891e-05,5.697984099388122559e-01
5.072077465750436387e-01,-3.638637191323576547e-02,-4.408422324688410221e-02,-4.819916761958003247e-03,1.422196597282265711e-02,1.207333795586211511e-02,5.484998822212219238e-01
5.388879536281488969e-01,-4.233592419786283423e-02,-1.663084276641296766e-02,-6.709211990815078935e-04,5.005357246718690825e-03,1.969567380193417306e-03,5.688846111297607422e-01
5.297363968558050917e-01,-3.618286678071055973e-02,-4.326618020205094672e-02,5.434836091029781116e-03,-2.087921374250460444e-03,7.333383771843365439e-05,5.695832371711730957e-01
4.985023396207839408e-01,-2.727071708932088390e-02,-5.673551717267277805e-02,-8.914507442752510336e-04,1.441428710779309695e-02,1.984762477163115602e-03,5.416962504386901855e-01
4.376416772705661318e-01,-4.023054713026444351e-02,-1.551112512313287950e-02,-2.175489692892838660e-03,1.321826138958180586e-03,1.111536070910388229e-03,4.660293161869049072e-01
1.805351502468738323e-01,-5.320721574721252317e-02,-5.110373911358539328e-02,2.626675359180753386e-02,8.147742090924328662e-02,6.631305384032087371e-05,2.759235203266143799e-01
5.180517575765963834e-01,-3.606051082012137754e-02,-5.292903371208396157e-02,1.978444652184604708e-03,1.558373431889414039e-03,3.097506381691341598e-03,5.627786517143249512e-01
5.249520136834322503e-01,-3.891473988674348794e-02,-5.116214978657224188e-02,-1.645041778964422777e-03,5.481652855914106136e-03,6.114941490010944187e-04,5.701763033866882324e-01
5.268980816831173586e-01,-3.421108410109413578e-02,-5.141088359161960497e-02,7.706808924247224649e-03,6.309817357574588545e-03,5.883516891632009638e-03,5.702558755874633789e-01
4.996558096955029393e-01,-3.091415372152797603e-02,-5.361643626761652959e-02,-5.099212227013427690e-03,9.817580970876201713e-03,5.722897010599584805e-03,5.427066087722778320e-01
5.269034289425321704e-01,-3.650652830429682028e-02,-3.236974830807010095e-02,-1.549962515130512680e-03,4.971491765054888339e-04,-3.616076921997925567e-04,5.613604187965393066e-01
5.397407113121481803e-01,-5.295974735748248952e-02,-2.539146471446090958e-02,-1.244137260858514671e-03,1.551855829716746252e-02,-3.901008718664814587e-04,5.800359249114990234e-01
5.298973030860101296e-01,-4.037854216739072966e-02,-3.756851884349196591e-02,6.058491395164683577e-04,-2.214353123049038786e-05,-2.905145090612843654e-03,5.688992738723754883e-01
5.281331278698225828e-01,-1.529130856251287307e-02,-2.904049586264956240e-02,1.147565200803279218e-04,-1.393514865354683954e-04,-3.308949114380074687e-03,5.504577755928039551e-01
5.250514005438796650e-01,-3.671612956367359404e-02,-4.241700121886909924e-02,1.265327921635033383e-03,-7.162457279996116248e-03,-9.903991136603509764e-04,5.647826790809631348e-01
5.402906218158328722e-01,-4.787390244889197510e-02,1.717929145005919755e-02,2.265169388866217909e-03,-3.084368265034151727e-04,5.658588579126165412e-03,5.585867762565612793e-01
5.275530952464511092e-01,-3.903905913121105686e-02,-3.869751072912755441e-02,1.102917464210671167e-06,-2.053911930202421878e-03,-1.836907115748146564e-03,5.664415359497070312e-01
5.274406000457242394e-01,-4.364117212251283906e-02,-4.690665585791164993e-02,4.030063277124444447e-04,-1.375552258173671398e-03,-1.213584627084857755e-03,5.727307200431823730e-01
5.271278065235432964e-01,-3.535138114119865116e-02,-3.252478593223237513e-02,9.900548919800761499e-04,2.747102167683078758e-03,7.931661802535285629e-05,5.610940456390380859e-01
5.148784150428359352e-01,-3.944766025459578440e-02,-5.163892559406840777e-02,-1.195538369975031627e-03,-1.168053593715753270e-03,-8.583178015772826739e-04,5.605306029319763184e-01
5.254453628474278215e-01,-3.949790323926802293e-02,-3.722553233111869364e-02,-8.797831134738487826e-04,1.512065335986755715e-03,3.161264880206538517e-04,5.638189315795898438e-01
3.901521021911614762e-01,-3.465175963064716369e-02,-4.107582331859857550e-03,-2.577008850009804633e-02,-6.689387280961305200e-03,-7.446881070657233349e-03,4.131693243980407715e-01
5.206526145892790280e-01,-3.460229449257795631e-02,-5.697056627362845349e-02,1.091704003837875962e-03,-5.541020919980823960e-03,-1.711330719493197499e-03,5.668623447418212891e-01
5.105102019166203320e-01,-5.912627200451639475e-02,-2.894879440957776051e-02,-1.669473784355716972e-02,-6.465060750103369946e-03,3.744850943396760214e-04,5.560289025306701660e-01
5.191575538109195476e-01,-5.194346866900906301e-02,-3.923191946338988600e-02,-2.517208791539983677e-03,1.285581550469004413e-03,-1.901817389403282713e-03,5.648833513259887695e-01
4.721043802458708694e-01,-5.365471812965083576e-02,-1.536047581380348137e-02,-1.374908891483547606e-02,-3.551664027171417409e-03,-3.283360969885902418e-03,5.083235502243041992e-01
5.152960978121313707e-01,-5.938293696297300417e-02,-2.957590934691478601e-02,-2.509493502556509655e-03,3.074597918100214437e-03,-3.086845204584312118e-03,5.604380369186401367e-01
4.934077380473029795e-01,-2.463615897891402451e-02,-5.907809375045244837e-02,5.039250885384941904e-03,-9.312115698574093686e-03,2.390227695028555952e-03,5.364248752593994141e-01
4.541731056744795492e-01,-5.364404392514759978e-02,-1.997082471503455747e-02,-1.436240290697231997e-02,-9.939753122183497217e-04,3.352592432917174707e-04,4.924778640270233154e-01
4.548604965655713150e-01,-5.261560807695422892e-02,-1.838487529983745539e-02,-1.643717503366677254e-02,-4.984910904964023589e-04,-5.524027498734249142e-03,4.921740591526031494e-01
4.797858754672353898e-01,-3.303212785170747678e-02,-3.558998881708028139e-02,-2.963621247309256718e-02,8.195001920254868987e-05,6.842723550169107095e-04,5.166593790054321289e-01
5.165031873213586922e-01,-5.651533521848373098e-02,-3.539398785164765693e-02,-1.623845503245037805e-02,-7.818144637335309923e-04,-3.439049768037296534e-03,5.634907484054565430e-01
5.165026329335393740e-01,-5.322176741784614973e-02,-3.307264697999964809e-02,-8.000609652292864360e-03,1.214999390675626338e-02,3.505267201941526280e-03,5.605213642120361328e-01
8.463842687760316785e-01,-1.446399677144744877e-01,5.792953027796921006e-03,1.182247968751154454e-02,6.910336984873646782e-02,-1.859500619680064595e-02,9.335196018218994141e-01
4.821785243867277582e-01,-5.584412293212059897e-02,-2.309592007370678268e-02,-1.650563937648311802e-02,2.714089463184531786e-04,-1.700637611391047667e-03,5.232090950012207031e-01
4.941027475114112555e-01,-5.621910767831542199e-02,-2.827410049585041274e-02,-5.683845183995422934e-03,-4.118263672241918860e-03,-5.672371612202459570e-03,5.371225476264953613e-01
5.079164724657811991e-01,-3.544661160777762277e-02,-5.341721000185795099e-02,-2.250906760908335472e-03,9.583235056416501522e-04,-2.236016921834232604e-03,5.525974035263061523e-01
5.243382347260130416e-01,-3.620198825996370773e-02,-3.622828420387991244e-02,6.731691261156421725e-04,-1.784878863194844104e-03,1.814981683976084770e-03,5.605719089508056641e-01
5.203678018797748273e-01,-3.885660456749887026e-02,-5.064901894455292597e-02,-1.901403755925446231e-03,-5.344567798983046979e-03,-1.696650694776255693e-03,5.653058886528015137e-01
5.413913008126449711e-01,-3.844006796205737264e-02,-1.942913189045675226e-02,7.022309135276908615e-03,4.552589476556911235e-03,-3.129805118038563559e-03,5.707733631134033203e-01
5.148566950547730503e-01,-5.927500727828433069e-02,-2.950082034337345172e-02,-8.995460058026127567e-03,2.739004851839931670e-03,1.428712314296188581e-04,5.600756406784057617e-01
4.597088312974790814e-01,-5.513382775746866749e-02,-2.114944999029383377e-02,-1.674834000773488263e-02,2.339243660444367996e-03,-5.736778674270012974e-05,4.995790719985961914e-01
5.306523353988530367e-01,-3.500340079384051117e-02,-1.686763617325051645e-02,3.524594424871171482e-03,3.146999785310820863e-03,1.529079563504538632e-03,5.568758249282836914e-01
4.550694828473167419e-01,-5.190573825801905739e-02,-1.832157756830729567e-02,-1.298022458436107543e-02,-5.733991054897514183e-04,-6.773378553251615565e-03,4.917006492614746094e-01
6.198184391943843963e-01,3.024791132718135378e-02,-7.373989313752557506e-02,3.658306412274881392e-03,8.621539541564295908e-04,-5.291806829293113808e-03,6.479517221450805664e-01
5.152194121923081571e-01,-3.813966645231675612e-02,-5.295854060592991575e-02,-8.820439708127567882e-04,-1.468240623667687803e-03,-5.998549722506458029e-03,5.610194206237792969e-01
5.155988047631495652e-01,-3.659697975054088115e-02,-5.696400020882239068e-02,4.741762809549369766e-04,-2.913089123082876139e-03,-5.057728335862338859e-03,5.627472400665283203e-01
5.226925403730304787e-01,-4.295349828626576771e-02,-5.204973545657964884e-02,-1.934808886519836753e-04,-6.904534352552586449e-04,-2.092755870968777965e-03,5.702614188194274902e-01
5.250883200281732943e-01,-3.609481709247253090e-02,-5.285572922332726353e-02,-1.666765882619413277e-03,-6.010653794822188884e-04,-9.445019415369067511e-04,5.697591304779052734e-01
5.134665086152869762e-01,-3.981057387120004454e-02,-5.221022895487570370e-02,-1.003145448666563664e-04,-7.783084828967496219e-04,-4.187053877278995584e-03,5.596286058425903320e-01
5.143311609598757439e-01,-3.629614982062973061e-02,-5.119411288866060339e-02,-2.072622180382933347e-04,-2.066194338231943685e-03,-2.441393266965242916e-03,5.582529902458190918e-01
5.344665654347244832e-01,-6.263401431863471758e-02,5.118363030668843239e-03,-1.472963785263112745e-02,-2.511912081107496933e-02,3.549282435702565131e-03,5.685473680496215820e-01
4.903741094225934072e-01,-2.450267477248213588e-02,-5.400541706730513369e-02,3.773953362723735192e-03,-1.533965957714359350e-04,2.379248159502583056e-03,5.303004384040832520e-01
5.301436077778232114e-01,-3.388480046850411709e-02,7.167788241442013542e-03,-2.453852933941814366e-03,-6.991298203153548628e-04,8.658696508775445833e-03,5.448880195617675781e-01
5.015906985131911577e-01,-2.769547402016347970e-02,-6.364611055468785694e-02,6.678307205051197673e-04,9.012559511839379593e-05,-6.694705919023638454e-04,5.481488704681396484e-01
5.045882619618272669e-01,-2.876674822629346484e-02,-6.079197024457641541e-02,5.213708236869615776e-04,2.963428107354063295e-04,-2.187676727650784188e-03,5.500813126564025879e-01
5.418471340193093955e-01,-4.774066357926065596e-02,-2.378086235659188086e-03,5.683023160001269766e-03,9.012536107037290301e-03,9.038991270156285923e-03,5.687811374664306641e-01
5.366866399829167689e-01,-4.009472569330632674e-02,-5.077494135013005394e-02,-7.612872139586873872e-04,-9.388715757511106527e-03,-2.525061904076372678e-03,5.824398994445800781e-01
5.053606767763358931e-01,-3.921931303516962286e-02,-4.561821861081996610e-02,1.316882355728372922e-02,-8.692548122083110576e-03,9.941274149454492129e-03,5.487589836120605469e-01
4.799334559655228372e-01,-4.993727279788706674e-02,1.910407115026563352e-02,2.413667762482301499e-02,-8.498051323952149350e-02,-3.733548700908444207e-02,5.258719921112060547e-01
5.325569681602118077e-01,-4.308803107908043550e-02,-6.096509117546999867e-03,6.075872231615960309e-03,4.081019079739151879e-03,3.638576264793947322e-03,5.582490563392639160e-01
5.416250760021804611e-01,-5.199368872318979595e-02,1.717440506618544971e-02,1.981345695746449843e-03,7.238898675744180784e-03,4.482703682251328557e-03,5.624386668205261230e-01
4.087124928167938376e-01,-1.728072466208453728e-02,-1.976017411262871726e-02,3.070512340740938831e-02,-1.536450589071160742e-02,1.051494385935024950e-02,4.317417144775390625e-01
4.495062485389704765e-01,-8.531683074199988837e-02,2.530371926530494697e-03,6.696427856351529206e-02,-1.215009820213727720e-01,-5.245404352916820806e-02,5.592535734176635742e-01
5.298280652150046954e-01,-4.153671840581626973e-02,-4.127729595303711307e-02,2.051481393843902767e-02,-3.176751648488076313e-02,-7.819359556815980161e-03,5.751374363899230957e-01
5.716611859871462142e-01,-1.123112005417610526e-01,-4.054294752603548879e-03,5.580803500413809848e-02,-1.407567702502928453e-01,-4.794798010921732384e-02,6.936649680137634277e-01
5.111838989859698312e-01,-3.850695787239397094e-02,-3.681207418369683571e-02,1.654703345142232232e-02,-8.574387994207840341e-03,-8.739741541940627013e-04,5.497958660125732422e-01
5.022275699482816602e-01,-5.040477468283760532e-02,-3.103737105755072223e-02,6.033167930999468360e-04,7.909679649329001347e-04,1.008083888827988363e-02,5.434909462928771973e-01
5.239235423774474265e-01,-3.971685964861143558e-02,-4.206843314634331477e-02,1.060384331017370438e-02,-2.455720765021182639e-02,2.539515825471367911e-03,5.667338967323303223e-01
5.257178305466646551e-01,-3.885716504002972860e-02,-4.247900994456646484e-02,3.502753548062535402e-04,-7.076780706267316728e-03,-1.470539919960459248e-03,5.665332674980163574e-01
5.258061565584124519e-01,-3.538153283765896329e-02,-4.648931352930155136e-02,4.098169376368887909e-03,-1.145491579308616052e-02,-1.077696915682274745e-03,5.672178268432617188e-01
5.245734030062703113e-01,8.196366969029367233e-05,-2.344239056181865455e-02,-1.634460802129208230e-03,-2.636612991135693466e-03,9.165838251142869458e-03,5.369021296501159668e-01
3.770259884751779866e-01,-2.325908589245707925e-02,-2.013369996468440670e-02,-4.995121793567920687e-02,-5.647454413837152409e-02,-1.529876599089752612e-02,4.204075634479522705e-01
2.968295394225429762e-01,3.457452068161837033e-04,5.399521374959762032e-03,-1.404228396347902662e-02,-1.473503064714295867e-02,-3.061708090675962623e-03,2.961433231830596924e-01
5.324211163588709050e-01,-1.919842051489897838e-02,-3.288778066602798811e-02,-1.495867307933225476e-03,-3.198610331177347433e-03,3.043524009498628589e-04,5.586237907409667969e-01
5.349902735970550882e-01,-3.428775891692537048e-02,-2.581945918402361873e-02,-4.367115496637368789e-03,2.290039408959574762e-03,-3.252955322780520060e-04,5.651562809944152832e-01
4.614049842072884822e-01,-1.807591779025974343e-02,-5.269025359672063757e-02,2.498895888563263225e-04,-2.599974544997170345e-03,1.549329454141721522e-03,4.977194666862487793e-01
5.310273870030998156e-01,-3.793835383251295545e-02,-3.054117957298091435e-02,1.887579826611344817e-03,3.433045489494841816e-03,-4.234771764660894195e-04,5.653446316719055176e-01
4.704109800001150532e-01,-4.493874487854357391e-02,-3.314873688682265507e-02,1.154582723519045721e-02,-8.601187838301313504e-03,1.014701263906762733e-02,5.104694962501525879e-01
2.945847275637488161e-01,4.944260228412197811e-03,5.266058605256612735e-03,-9.865274565829943929e-03,4.815454323682774097e-04,-2.284596902527238991e-03,2.900117635726928711e-01
3.032087099379539019e-01,9.362829660977539659e-04,-5.951261989793329987e-03,-2.526393798823733244e-02,-3.296054859825809508e-02,-5.614082759214423374e-03,3.142714202404022217e-01
5.077883951415755881e-01,-3.374879039631442645e-02,-5.846512238891604651e-02,-2.214241251409536457e-03,-2.358498688666246530e-03,-1.810380868615001429e-03,5.543459653854370117e-01
2.951509319455498659e-01,3.547076677844845927e-03,-5.170831296092373575e-03,-2.626211215757563028e-02,-3.178540635303490208e-02,-6.563582942737097685e-03,3.047626316547393799e-01
5.644046163235301172e-01,-4.811014150535530831e-02,-4.228190757018338020e-02,3.963094933662871661e-02,-2.729724883919722178e-02,-1.318785179368460979e-02,6.157169938087463379e-01
5.217181529057092204e-01,-4.578006944950296919e-02,-4.724907980067993840e-02,3.201218121118165768e-04,-1.887646452703659918e-03,3.942446880427654017e-03,5.682848691940307617e-01
5.149315091201945860e-01,-3.206860366718555788e-02,-5.766099234035662602e-02,-1.459791166352296084e-03,-4.818557098994638230e-03,-1.853586574555031322e-03,5.603119730949401855e-01
5.153658768261168976e-01,-3.618389921998196868e-02,-5.664238157596571122e-02,-2.864428664182224003e-03,-5.491215048975376517e-03,-1.694730746407654195e-03,5.621683597564697266e-01
5.149862586250942842e-01,-2.990305455690436820e-02,-6.016643711348396151e-02,1.288573101372476274e-03,-7.842969163681198785e-03,-1.927871845345643584e-03,5.608128905296325684e-01
4.895249694834158394e-01,-3.667761674011610351e-02,-4.379531892444607499e-02,3.619801569742891990e-05,-8.415520989973286625e-03,9.927090803337189698e-03,5.302765965461730957e-01
5.320613391368651524e-01,-1.955157893023085069e-02,-2.983033322713171676e-02,-3.858331138148615811e-03,-5.554300343886970845e-03,1.602021483927194671e-03,5.569535493850708008e-01
4.806941793044023359e-01,-2.630329030692135639e-02,-5.200633051798256301e-02,1.360817462329199333e-02,-1.694321956009690183e-02,8.004156838430713863e-03,5.218691825866699219e-01
5.254726626933217126e-01,-4.240029554517882326e-02,-4.445343763187628583e-02,8.045293529378879510e-03,-5.241584220120515218e-03,8.048548498896515233e-03,5.693160891532897949e-01
5.228789417378207904e-01,-3.427768041894133089e-02,-5.932251545323161124e-02,1.581481326035430240e-03,3.012970965791864682e-03,1.756604047725681631e-03,5.701303482055664062e-01
4.306256964367743967e-01,-4.418856259408285303e-02,-3.781780568740789050e-03,-3.097089309326720406e-03,-3.135308611302986808e-03,-2.961242958033503329e-04,4.560198485851287842e-01
5.113929993645589533e-01,-3.417532570044298779e-02,-5.793463629443826313e-02,7.833756382264546502e-04,2.746719297691257717e-04,3.254546189766757951e-03,5.578579306602478027e-01
5.140568677412172827e-01,-3.725796195279981737e-02,-5.394380175938273680e-02,-1.043526088447321431e-03,9.267938470952438593e-04,1.645542867799236171e-03,5.598567724227905273e-01
5.244107199353529314e-01,-3.861092534464422021e-02,-5.462620964192349549e-02,3.973405850212330392e-03,-8.894981641301415122e-04,1.755737657510642339e-03,5.712493062019348145e-01
5.433122201233770987e-01,-5.991639404830065296e-02,-6.465305913482044531e-03,3.821014762805217957e-02,-2.302426570224357094e-02,-8.702445985790984925e-03,5.836918354034423828e-01
5.350378068280144950e-01,-4.329903827138187333e-02,-3.127026468092847233e-03,4.120375524160202127e-03,-3.101739816272144987e-03,-7.292864299541459809e-03,5.595477819442749023e-01
5.611552732572164803e-01,-6.105383814683437715e-02,3.985678324275979123e-02,1.825284950251182536e-02,-4.041471431574021611e-02,-2.838852009992607825e-02,5.855398178100585938e-01
6.026729337700296174e-01,-3.208360941060178773e-02,-2.501153691300581072e-02,-5.844705667516732379e-03,-1.468131956492692682e-03,-4.037930493590673187e-02,6.351985931396484375e-01
6.042570557441681034e-01,-4.835510168247564300e-02,-2.586586238567095686e-02,1.253928763998614013e-02,1.903428454045852716e-02,-3.732435552565260134e-02,6.461188793182373047e-01
5.334293701171946012e-01,-4.434207398458137050e-02,-4.729972033294393974e-02,-9.594250740821821987e-04,1.041883673563035601e-03,-3.903869548553172094e-04,5.792615413665771484e-01
5.415745612714821799e-01,-5.940966683122531067e-02,1.709673542118281264e-02,-2.424533562291812921e-03,7.097629528678625448e-03,3.440283244640887986e-03,5.667983889579772949e-01
5.423458356965527027e-01,-4.160310475024439625e-02,-3.598693292581833791e-03,-4.339503052006940184e-03,-1.233470019839638145e-03,1.545275386364207415e-02,5.665910840034484863e-01
5.477370802364626146e-01,-3.112371783817918791e-02,-2.538912863856820912e-02,-1.040244142934748477e-02,-5.710895968351811618e-03,1.718953032448526305e-02,5.771499872207641602e-01
5.824716077326181907e-01,-5.253858759460458550e-02,-2.030417723531946494e-02,4.335692250897199215e-03,1.378800855153328696e-03,4.611794146389707437e-03,6.196238398551940918e-01
5.124698902446219728e-01,-2.736552884380832884e-02,-5.109342802939248473e-02,1.463966501973746649e-02,1.173390280779759189e-02,-1.145416666103300091e-02,5.533932447433471680e-01
5.322025479538334825e-01,-1.312119191373065097e-02,-3.195603649166156579e-02,-1.957638157749349108e-04,1.152137990256902212e-03,-3.182442690507005911e-03,5.550119876861572266e-01
5.377650323756559825e-01,-4.338622484500073706e-02,-2.066038195030070468e-02,8.530937826605433346e-04,1.140332478289072388e-02,2.952679022260111443e-03,5.704950094223022461e-01
4.930151672801490470e-01,-4.691124356329365308e-02,-3.318327402534457238e-02,1.652240265208053047e-02,5.906310830924387141e-03,9.802094414339919057e-03,5.343301892280578613e-01
5.215895120265370277e-01,-5.719823002255461364e-02,-3.595025042385308067e-02,1.693817464065033819e-03,-1.609828995561302936e-04,2.327943507890856828e-03,5.684835910797119141e-01
4.981455640898247994e-01,-5.159911333282374279e-02,-2.974041748864317269e-02,1.357300020041811092e-02,-1.036061584763517136e-03,5.229708308316726763e-03,5.397390723228454590e-01
5.169353325208749794e-01,-5.636762235927864073e-02,-3.438301916230765420e-02,1.127877193439199774e-03,1.290902098138525106e-03,8.186905993560467370e-04,5.626425147056579590e-01
5.248604066880202534e-01,-4.295367962699331299e-02,-3.809576254203850265e-02,-5.554410049317204748e-05,4.524838559393293616e-03,1.054100523802848651e-04,5.654551386833190918e-01
5.446340719422144705e-01,-5.911917086549750566e-02,3.595093789536588091e-02,2.884041364814131977e-03,1.796060507660239731e-03,3.094435973922832553e-03,5.623351335525512695e-01
5.562011415208125698e-01,-5.454719990204734414e-02,2.211829748154481301e-03,-5.653919192571362808e-04,-7.801612452004407297e-03,-4.649695416861178952e-03,5.846520662307739258e-01
8.651929610699138351e-01,-8.892958548754015258e-02,-6.378474665275257749e-02,1.169707247719577875e-02,5.748771962797329105e-02,-7.302788193241854797e-02,9.556751847267150879e-01
5.322808699325121129e-01,-4.622908996169125539e-02,1.766137452576205247e-02,-1.155823379220573613e-03,-1.995160711572704568e-03,5.906794197982356137e-03,5.494680404663085938e-01
5.173499899174108796e-01,-4.773205293331797550e-02,-4.087319348892631821e-02,-2.030266581056500413e-03,1.892586465108629483e-03,4.388334807938097312e-03,5.617560148239135742e-01
5.221045629131615406e-01,-5.145437644470768346e-02,-4.109452540871696979e-02,-8.617426441072669569e-04,2.081568112316507443e-03,2.533759459804878211e-03,5.684801340103149414e-01
5.151858002299476436e-01,-5.645493535274120900e-02,-3.553679705411147416e-02,-1.402960861358104171e-03,4.618638639123994610e-03,2.524949875519541271e-03,5.615532398223876953e-01
5.137236680717087722e-01,-5.735815115257070218e-02,-3.341405933014732210e-02,-1.598915644090383907e-03,2.584186164843514308e-03,2.216024707780590679e-03,5.595321059226989746e-01
5.223829522048830665e-01,-5.593368726422062731e-02,-3.857798112285720782e-02,-4.166266814218937131e-03,-1.227934942707442677e-03,1.587375957457161542e-03,5.698933601379394531e-01
5.314543927456603090e-01,-6.269385792742554475e-03,-3.729935455219957063e-02,-1.053716392272530111e-02,2.113003183607790880e-03,1.188700291515926502e-02,5.545860528945922852e-01
5.367039055998756858e-01,-4.072121669830333635e-02,3.828021293274641579e-03,2.606244806192352208e-03,-1.570227528300430523e-03,-5.104145108631504869e-03,5.565846562385559082e-01
5.421016223144292656e-01,-5.382502779454262365e-02,2.490993225845794523e-02,3.909642870647728023e-03,9.675387369462089097e-04,-2.063286456072919127e-03,5.607752799987792969e-01
5.252664612312896164e-01,-4.150526644626675865e-02,-4.651043307047833530e-02,9.436274513628428772e-05,-1.177204724620035253e-02,-2.299190462575060722e-03,5.696697831153869629e-01
5.335616778119188774e-01,-2.010884877740462540e-02,-2.942142079175708025e-02,-3.390871654584081980e-03,3.913821110265898462e-03,-1.420893815052222224e-03,5.584625005722045898e-01
5.013779136443610174e-01,-2.898494188785702419e-02,-6.022068591896490020e-02,-9.852991838972429469e-04,-3.334719220225449733e-03,-9.014383872063691386e-04,5.466858744621276855e-01
5.410219086788128351e-01,7.454783830075417672e-03,-5.219073221048772804e-02,-8.678648572744859097e-03,-1.143333421953956217e-03,5.847060831086848924e-03,5.660466551780700684e-01
5.291192848696371076e-01,-7.850609734396302164e-03,-3.828300401584741608e-02,3.602641481543655388e-03,3.967306800981409975e-03,4.882298175954665094e-03,5.529572963714599609e-01
5.361036503445606449e-01,-2.590940179071984928e-02,-3.876423857760666336e-02,-5.580671703341557460e-03,3.584753207805813774e-03,5.888638114572323709e-04,5.686664581298828125e-01
5.258273826276573804e-01,-8.476988777498001282e-03,-4.081895979480407166e-02,-2.231756607223794181e-02,7.852709223282372444e-04,4.641013249936956804e-03,5.526013970375061035e-01
5.266330320382794916e-01,-4.542642507209121439e-02,-3.706402928705129773e-02,-6.865472613052996456e-03,1.902137614065587366e-03,-7.202357502608336621e-04,5.680598616600036621e-01
4.750210771575527069e-01,-4.799926656430456018e-02,-2.524461554735377145e-02,3.031218571067691506e-02,-1.411500801024438007e-02,7.102957001660028039e-03,5.154342055320739746e-01
5.026173331601894168e-01,-3.762749775961557464e-02,-3.415342528065079541e-02,6.889513726797907335e-03,1.533765939394505541e-02,-9.842192023763335091e-04,5.393058061599731445e-01
5.426540857593232792e-01,-4.293270161151474529e-02,-4.140571827274250327e-02,-3.276959573321833446e-03,-4.828959317468747327e-03,-2.732147755124666663e-03,5.849312543869018555e-01
5.032511645470080230e-01,-2.911317588733070005e-02,-6.202380282801039924e-02,-1.682153346276616789e-03,-3.614771297012549667e-03,-1.467502791488390322e-03,5.496084690093994141e-01
4.992825301712164876e-01,-3.420803585793197321e-02,-4.634801011644804070e-02,9.719327852413502458e-03,1.141492932317702234e-02,-7.030262585721503213e-03,5.404245257377624512e-01
5.995037055630701994e-01,-6.922743381777221594e-02,2.686770627157961111e-02,1.380801590177089568e-02,-1.991624557228385481e-02,2.904919144814873885e-02,6.296564936637878418e-01
4.881006302587966861e-01,-3.366848479163328522e-02,-3.966243832777346934e-02,8.136831255578531180e-03,-8.244428250647831960e-04,-8.790502433634739612e-03,5.252036452293395996e-01
4.390086587084779390e-01,-3.058920094497713515e-02,-3.308450513823196770e-02,9.285316934000994657e-03,2.679531972021215874e-02,-1.015938696904849885e-02,4.737324416637420654e-01
5.092783846453630137e-01,-2.846229006944850370e-02,-6.449864013424758125e-02,2.476582034069878171e-03,-4.386695618086574461e-03,7.992621320504794029e-04,5.567045211791992188e-01
5.287737278816964093e-01,-4.261653588453112596e-02,-3.977358630559899022e-02,-3.592212618547306700e-03,-3.542317570956422888e-03,-2.181757773468345242e-03,5.700536370277404785e-01
5.282773236994972033e-01,-4.416000049285090379e-02,-3.718233806547427411e-02,-2.198704637085526804e-03,1.558905517815314902e-03,-2.260692174166412701e-04,5.689998865127563477e-01
5.082478558370021604e-01,-4.827151658624009856e-02,-3.853460778599984704e-02,8.205255630556164415e-03,1.474237422891062910e-02,-1.094301880802628878e-02,5.528137683868408203e-01
5.153112393255950829e-01,-3.476842369060539895e-02,-6.022367620511798192e-02,-1.490624097089444846e-03,-7.834568878977085649e-03,-1.687848757099394718e-03,5.634158253669738770e-01
5.072651732114983325e-01,-2.909221661574690199e-02,-5.816131526748480329e-02,6.153374065026407736e-04,-1.776018725170129813e-04,-6.423652330616709755e-04,5.514690876007080078e-01
5.151396067860594119e-01,-4.053055294647231466e-02,-4.724157416719554359e-02,-2.130375760818740798e-03,-1.057500384934282212e-03,-4.178637552454291318e-03,5.591179132461547852e-01
5.508415797251803303e-01,-3.846393668841049940e-02,-3.782575279871741580e-02,-6.374254810776599708e-04,1.070116965516565606e-02,-9.336204556716883388e-03,5.895011425018310547e-01
5.314547394199189423e-01,-3.950369336862993852e-02,-3.613694344731452346e-02,3.858824240014997048e-02,6.073577583083097226e-02,7.079322828763890720e-03,5.828950405120849609e-01
5.327386676568431900e-01,-4.346650036070431877e-02,-4.323012315335766909e-02,4.887224379424133459e-05,2.041807938285983282e-03,1.999779251000667439e-03,5.761082768440246582e-01
5.317980542909013231e-01,-4.042937939541232928e-02,-3.995066505963973391e-02,1.618523477398563139e-03,-5.393202927018183289e-04,-1.443241566328513654e-03,5.720013380050659180e-01
5.313931046719304607e-01,-5.214982770682741187e-02,-3.910136200018071717e-02,-3.884386380927150155e-04,5.005008402101032835e-04,-2.669985429020804279e-03,5.771489143371582031e-01
4.894329014976448455e-01,-3.973426481077652062e-02,-3.648722415688243625e-02,4.022127164891570032e-04,8.102215839796349066e-04,9.153138118553510658e-03,5.277916193008422852e-01
5.381753359183222285e-01,-4.598467897313576747e-02,-4.091458028796940427e-02,-3.421159348835317408e-03,-2.047904870140028304e-03,-2.637002654915332847e-04,5.816827416419982910e-01
5.128689606229968057e-01,-3.290524845598044590e-02,-5.886777943460616558e-02,3.382601772913180777e-03,-1.594943469895909001e-03,2.261408994599711092e-03,5.592588782310485840e-01
5.201833431984215217e-01,-5.804492704820848892e-02,-3.636932570194226222e-02,-4.640200795770793585e-03,2.729552804787892684e-03,-4.968716300606318892e-04,5.677781105041503906e-01
4.161039829433187398e-01,1.997037018815732423e-02,-1.070033411220424335e-01,-1.297691569990296612e-01,2.854450517998186054e-02,-2.268051876748631776e-02,5.271151661872863770e-01
4.997332931532457723e-01,-3.300378752956423245e-02,-5.230394949625671863e-02,3.390592675866761427e-03,-4.148668546375484240e-03,5.353790629802898833e-03,5.428032279014587402e-01
5.269126993910335788e-01,-5.268672337544605400e-02,-4.001602384077382335e-02,-1.425272881590501769e-03,4.759839491846817698e-03,1.075661279520566307e-03,5.734366774559020996e-01
4.927011235822720270e-01,-6.031572138886556744e-02,-2.606892090223117409e-02,-7.076544781343866060e-03,2.563034706753192717e-05,-3.116274021949507356e-03,5.368806123733520508e-01
5.155982162844801042e-01,-5.771823956742852535e-02,-3.218621231483403955e-02,-5.690499849251584759e-03,2.688266837109618956e-03,4.691259553602487344e-04,5.610928535461425781e-01
4.872752516957208346e-01,-2.101054870610871705e-02,-5.399289196081610842e-02,6.396490470569952264e-03,-1.381183493668310634e-02,4.310697366811575525e-03,5.262675285339355469e-01
5.401448917318096843e-01,-5.340459093620439357e-02,1.209382219519281043e-02,4.328733252000410529e-03,-1.005163791427821952e-02,3.810301107976683463e-03,5.640189051628112793e-01
4.671879004962614657e-01,-2.358612620155228767e-02,-5.171944433491609816e-02,-1.942169005259338638e-04,-1.137560846008560042e-02,6.087176201803828554e-03,5.059221386909484863e-01
5.407689816623110213e-01,-4.355159798100230462e-02,-4.152532043813580986e-02,-2.767764466229176174e-03,1.594114481853632290e-02,3.713550309716759975e-03,5.840182900428771973e-01
4.815180041540472189e-01,-3.079952788188455859e-02,-5.226672064220591607e-02,1.411176778587952367e-02,-1.931174364174132602e-02,7.173052548190668280e-03,5.251654386520385742e-01
5.410096116633834606e-01,-5.359121225137539191e-02,2.699358283606442810e-02,5.458580680195638732e-03,-8.275248207193330874e-03,-2.413434757504316110e-03,5.589638352394104004e-01
8.133799089017379469e-01,-9.674461479721310764e-02,-3.021695561074400072e-03,3.286725028331565629e-02,-5.231925334886043492e-03,-3.155385625854223441e-02,8.707013726234436035e-01
5.249549657467560415e-01,-4.831351580121154288e-02,-4.332252280049897486e-02,-1.473117664891142927e-03,3.769034613554177182e-03,3.919183116982945594e-03,5.708727240562438965e-01
5.402164632713351011e-01,-3.825943407351253822e-02,-1.283007620096346391e-02,6.653058402772213040e-03,-2.274434157970794089e-03,-2.969589610064498827e-03,5.663439631462097168e-01
5.382575389667507704e-01,-4.166751183535574721e-02,-2.517646787375721340e-02,4.717671599146738837e-03,1.548561943417756624e-02,1.497100291114124900e-03,5.725507736206054688e-01
5.184858163475953852e-01,-4.782552597745012846e-02,-4.094741289058026479e-02,-1.233465439960277190e-03,1.468812653351294186e-03,4.393058677962908068e-03,5.629650354385375977e-01
5.258301903755371320e-01,-4.843051472959913895e-02,-4.722368730422749072e-02,-3.269117098606486894e-03,1.741377117105294978e-03,3.290020963096837361e-03,5.737224221229553223e-01
5.309896081427396552e-01,-4.881577950372387176e-02,-4.756431730096413735e-02,-1.506786474111522804e-03,6.677475984237474065e-04,3.301690205217700826e-03,5.792159438133239746e-01
5.428205320934583744e-01,-6.047949746105010793e-02,1.652926508274812911e-02,-4.517225458826375369e-04,9.301252280819230153e-03,8.815323588575403385e-04,5.689502358436584473e-01
5.217106000173266089e-01,-4.802710086003855738e-02,-4.593126949732342923e-02,-2.390907969757317692e-03,-1.708702160526511747e-05,4.350528116334019882e-03,5.687576532363891602e-01
5.136608051215758586e-01,-4.844462858674358774e-02,-4.373384432509777597e-02,1.010550706951879665e-03,1.986986496795425158e-03,6.949886064730900932e-03,5.599076151847839355e-01
5.109008173068125824e-01,-3.553909894015733206e-02,-4.859902517891234730e-02,-1.251295899460635238e-03,8.148985226177058935e-03,-7.907907895584671137e-03,5.534393787384033203e-01
5.497506995292276155e-01,-4.338107896558132670e-02,-2.312153939318423168e-02,-7.128764103472452068e-03,-7.203071587541209388e-03,4.573329586138452120e-03,5.835837721824645996e-01
4.747017196064333699e-01,-2.385259591852334493e-02,-5.961258844983841065e-02,2.630298021790786894e-02,6.438983932850415870e-02,-8.427197212972407925e-03,5.314040184020996094e-01
5.309149721864797611e-01,-3.732660738899074016e-02,-3.369706833737390328e-02,2.150702993803874259e-03,-1.451906016624721768e-03,-1.830046612047468366e-04,5.664534568786621094e-01
4.361068033352227258e-01,-4.399303430131154546e-02,7.321449900860116378e-03,7.346450301728811583e-02,1.025576129847993873e-01,1.919498992240069660e-02,5.072904229164123535e-01
5.238991965145270990e-01,-3.355293886056248676e-02,-4.434436181105114172e-02,6.836431618752502812e-03,-1.536641894308121530e-02,-1.472209525263163570e-04,5.636787414550781250e-01
6.554391327248229038e-01,-3.566400905970426582e-02,-5.181603491910705128e-02,1.458297580690590470e-02,-4.705638747212216588e-02,-6.499501232513360538e-02,7.134431600570678711e-01
3.905897668911058607e-01,-5.037125412995807627e-03,-4.040408935455870598e-02,-1.488125343323920807e-03,-2.451709678940781206e-02,1.021734900547939442e-03,4.166252911090850830e-01
5.357645021967814003e-01,-3.337977476537429267e-02,9.920570813016615919e-03,3.260171324421948930e-02,5.957080929882897086e-02,4.496212327973202194e-02,5.666175484657287598e-01
6.837671273156475937e-01,-8.343441778351728955e-02,2.025623784331023747e-02,1.947536312732996849e-02,1.331656280371046330e-01,6.583479377868071969e-02,7.662493586540222168e-01
5.699782054666294728e-01,-6.084440174828337211e-02,3.025080802368798616e-02,2.022984277584600338e-02,5.078206963064417316e-04,3.170850159327438800e-02,5.941509604454040527e-01
5.954862129581738328e-01,-3.725315459497074988e-02,-2.152276513165585214e-02,8.256321534528894557e-02,1.256572665065708028e-01,4.020435636037707205e-02,6.806774735450744629e-01
5.030558613381337363e-01,-2.564200751399656197e-02,-6.407897398800510569e-02,6.697740347036565487e-04,-2.563024848397500808e-03,8.956580770492602781e-05,5.489457845687866211e-01
3.828274437729691781e-01,-2.274490339261359129e-03,-2.156348543633793136e-02,-8.295548194153049568e-04,-1.315626503956219932e-03,-2.499557846918758122e-03,3.951326310634613037e-01
4.048527579706949764e-01,-6.360255745203070854e-02,-4.199154410311170538e-03,4.503050828779633918e-02,1.421197913725050221e-01,4.320378113803077791e-02,5.171347260475158691e-01
5.305026300430694119e-01,-2.811507451931180568e-02,-2.233469931888482085e-02,-2.152934528937577776e-03,-1.928333540224628226e-03,6.947778210234783081e-04,5.557739138603210449e-01
5.285397933945904514e-01,-2.521866492137767035e-02,-1.147052426206573994e-02,-2.966333238023610621e-03,-1.504823171435216251e-03,7.851992022392589865e-03,5.472133159637451172e-01
5.271662635833759269e-01,-2.962284855962846186e-02,-2.794307245215105207e-02,2.544842020557832197e-03,5.309878239669161984e-04,1.125358874220540491e-03,5.559727549552917480e-01
5.266984363790973012e-01,-3.051839723512728142e-02,-2.909644957105475549e-02,4.287875196961409116e-04,2.820612200694923039e-03,2.147159093554640644e-03,5.565415620803833008e-01
5.263926635708661150e-01,-3.048052595194494785e-02,-2.834027951757078778e-02,6.303183724304964276e-04,-1.911869115332140608e-03,-5.060300623785111886e-04,5.558177828788757324e-01
5.158542218640587151e-01,-3.308793982779192899e-02,-6.024358258455730919e-02,2.313868654593052247e-03,-5.088647782849733785e-03,-3.459150183373414789e-03,5.631265044212341309e-01
5.248463466696585700e-01,-2.449247034123783195e-02,-2.518099335070936307e-02,2.277753449251034793e-03,1.597231266026383602e-03,6.398448153016107103e-04,5.497056245803833008e-01
5.386891861711818885e-01,-3.991864664680397357e-02,3.399672696305561237e-03,6.805879209667461266e-03,-6.211267204546773966e-03,-1.172084006744502326e-02,5.588076710700988770e-01
4.557948295484443579e-01,-2.073537681809881073e-02,-5.165936965684189697e-02,4.890235520770188629e-04,-2.166798240032874467e-02,5.344558335473918731e-03,4.942352175712585449e-01
5.319686495577358176e-01,-4.789694135184827117e-02,-4.492361567119676491e-02,9.101500909238124026e-04,-3.101416604700908881e-04,4.541412256031379516e-05,5.783870816230773926e-01
5.509660524047547137e-01,3.095223962894907976e-02,-5.960769974366067481e-02,6.630358163054280406e-03,4.854348067490269099e-03,3.082752550801030889e-03,5.709106326103210449e-01
5.304047622318559529e-01,-3.905265779122177316e-02,-3.922028258127027711e-02,7.372362483931689352e-04,1.351592020752066716e-03,-1.687132296110509418e-03,5.695549845695495605e-01
5.502968889092831883e-01,2.229068646541546017e-02,-5.901654803885389433e-02,-1.753735793773309945e-02,8.886166640316940993e-03,7.877453397131008173e-03,5.741758346557617188e-01
5.409320058381932306e-01,-7.304160614723692602e-03,-4.458392611441536202e-02,-2.609123404938678767e-02,-1.835777192825636603e-02,1.006027141888839703e-02,5.707430839538574219e-01
5.890078153121585114e-01,2.318073721450314428e-02,-8.175802359684256060e-02,-2.975058156960650249e-02,1.110512191935255320e-02,2.047087475099872590e-03,6.273654699325561523e-01
5.453423068396099360e-01,1.174537722737528656e-02,-5.806324455580724742e-02,-8.295448227155043444e-03,4.750523553038309144e-03,-2.570468256728835037e-03,5.719637870788574219e-01
5.436056308301305817e-01,2.916576727867131735e-03,-6.017947208072302323e-02,5.494349185973128324e-03,6.801833241551548913e-03,1.964739455155420421e-04,5.750396251678466797e-01
4.814155061228231336e-01,-3.537242043649405088e-02,-4.559330228885333236e-02,-1.140503038511626877e-02,-5.749620286815181405e-03,-1.071625395514926374e-02,5.227715969085693359e-01
5.938406476613045104e-01,-2.050613004351012347e-02,-6.351337451981908799e-02,-3.141921643423306598e-02,1.464561317623755583e-02,-8.473714998493686850e-04,6.397656202316284180e-01
5.497497559180538618e-01,-1.258652538179944047e-03,-5.853143318450790278e-02,6.349398308558126987e-03,5.957359753732857990e-03,-2.757812451764674825e-03,5.819780230522155762e-01
2.232071267079331345e-01,3.953090323760372060e-02,-9.881148736440127645e-02,-1.192698258521945054e-01,-1.643687676410811663e-02,3.935941797297329292e-02,3.555554151535034180e-01
4.049186496827457127e-01,-4.922714819374429673e-02,-3.006781612054168495e-02,-6.559806065263992791e-02,-2.803766874411657561e-02,-1.717799569571668364e-03,4.617259502410888672e-01
3.012941707926573010e-01,-2.548816850185324501e-02,-1.367685932548852457e-02,-5.792468826830012713e-02,-1.088119622060036533e-02,-1.219305412030691378e-02,3.375403583049774170e-01
3.011830216917255054e-01,-2.979403388815443643e-02,-4.881120251105292018e-03,-5.870059582723778646e-02,-8.790394338459857349e-03,-1.714649699550419015e-02,3.367075324058532715e-01
5.403984603181761770e-01,-4.589009542383348794e-02,-3.688626791411678263e-02,5.303034094889774730e-03,9.402872517769366931e-03,1.866105474576980642e-03,5.821481943130493164e-01
5.188080794355776071e-01,-3.490131648073260817e-02,-5.129371523015729961e-02,1.549592086317692604e-03,1.564374991653701141e-02,3.721478436085602810e-03,5.627809166908264160e-01
5.038867346135099679e-01,-5.280233656647309592e-02,-3.771830254872196586e-02,-2.281938999650407612e-02,2.182775810944491413e-02,3.213377707506844677e-03,5.520467758178710938e-01
5.298628803994808179e-01,-3.879972735256673189e-02,-5.344171316779330883e-02,2.824042599171759215e-03,5.382092278422734299e-03,2.155798039176851436e-03,5.762314200401306152e-01
3.603538974623849422e-01,-2.534489158678471243e-02,-2.346793494168203376e-02,-6.684793871338645666e-02,2.218466849059694962e-02,-3.540100067864212097e-03,4.036869406700134277e-01
5.349147913455591929e-01,-3.896391779172470038e-02,-3.646649531615775430e-02,6.398437049385403627e-03,1.026882195858509414e-02,6.612852529165619969e-04,5.730185508728027344e-01
4.223316663608964738e-01,-2.713284147833558424e-02,-3.734726218633865891e-02,-5.187229892410822989e-03,6.173741690183071062e-02,3.180000908567492176e-03,4.671822786331176758e-01
4.011649308082186893e-01,-1.485671648490553831e-02,-2.100197428721718718e-02,-3.023435643171165730e-03,2.849330497888807531e-02,3.054925675375337255e-03,4.220892786979675293e-01
5.199948412391472985e-01,-3.527050242881216158e-02,-5.571275064817932110e-02,5.078778912719318032e-04,1.492082256412246839e-04,2.848597625135359190e-04,5.657644867897033691e-01
5.210075029337896124e-01,-4.160241798825101145e-02,-2.788187781912462859e-02,3.726119400211815036e-03,7.624139469723401497e-04,6.219327661282966074e-04,5.559167265892028809e-01
5.375260644518782271e-01,8.258255892679144949e-05,-4.241623962701410178e-02,-3.248419555200351624e-03,1.347245043301790925e-03,-6.247882922836229917e-03,5.600416064262390137e-01
5.223527368257518955e-01,-3.750588833049253723e-02,-5.501132908785807962e-02,-1.817947214331776815e-03,1.717827457759074682e-03,-5.914831710954220794e-04,5.688308477401733398e-01
5.034030738273568284e-01,-2.811715831881997363e-02,-5.276252077927218176e-02,5.783680795221232858e-03,9.637217683507766017e-03,6.033593898652503396e-03,5.447098612785339355e-01
5.547464888445055031e-01,-1.295749471985258028e-02,-1.937457982318244176e-02,-1.403815021255005015e-03,-6.242934404201415128e-05,-2.968402666890581146e-02,5.732550621032714844e-01
5.055350723660134715e-01,-2.650977652811589702e-02,-5.681871920144757060e-02,-3.822337677456147473e-04,8.911404074395470193e-03,-1.080679888503259653e-03,5.480495095252990723e-01
5.334036380299116420e-01,-1.844578151170125913e-02,-3.077847796586752338e-02,6.214189390489374513e-03,2.485163221824382516e-03,-1.776251003739656373e-02,5.590854883193969727e-01
5.322109311202601889e-01,-1.115917610091340939e-02,-4.214493421267756501e-02,-2.316669614481793940e-03,1.835610978168801056e-03,-3.166413366590533403e-03,5.595571398735046387e-01
5.282322053981025611e-01,-2.300104705047500975e-02,-1.679528636034205435e-02,5.849700125434084555e-04,-5.396583035010583127e-04,-4.294696232090321544e-03,5.482088923454284668e-01
5.306361114779195587e-01,-3.751003779405404082e-03,-2.598593097212087422e-02,-1.787345001573978657e-04,6.444993246593373748e-04,-8.496222148012474995e-03,5.460438728332519531e-01
3.071633228923130732e-01,-8.764246426554794800e-03,-1.673925664044272066e-02,4.303070347639697396e-02,-5.154955587174588766e-02,5.915662849283754784e-03,3.406249284744262695e-01
5.279870992187468692e-01,-2.058663399039600828e-02,-2.246770407778861389e-02,3.566129764302471161e-04,3.107512444081635822e-04,-9.435332022376519525e-04,5.495197176933288574e-01
5.345048660557558673e-01,-3.860676320252232063e-02,-1.901359025590251828e-02,3.097385773360654404e-03,4.847125023434332471e-03,-3.109347014412662188e-03,5.636843442916870117e-01
5.319248272277943279e-01,-3.761679221778418958e-03,-2.960335377732706275e-02,1.513950372091028471e-04,-2.088053377633138606e-03,-9.638089755251925961e-03,5.493292808532714844e-01
5.333882076643621239e-01,-2.364293982897847091e-02,-2.617977063983981112e-02,3.754628190281262407e-03,-1.668258239855378768e-03,-3.200656762762512948e-03,5.583767294883728027e-01
5.348679001610938677e-01,-4.483670144849299932e-02,-5.508430583915452372e-03,9.506321868451054428e-04,7.886875291774366609e-03,1.379335268347633633e-02,5.617521405220031738e-01
6.018660168005356415e-01,-6.791148983580821974e-02,2.145437088058776975e-02,-9.003630815583639566e-04,-9.988863066751531988e-03,3.234627075752447706e-02,6.325926780700683594e-01
5.239541364339898033e-01,-4.253099486588271527e-02,-5.306187371776124873e-02,-1.189672322869956834e-04,-1.760655667641046473e-03,4.503145831671448787e-03,5.718846917152404785e-01
5.334473899008079778e-01,-4.095140146362169498e-02,-2.070772157502170918e-02,4.430548715876273381e-04,-3.525032300794728093e-03,-1.677426079122499008e-03,5.645902156829833984e-01
5.285653967154091415e-01,-2.252843415714086972e-02,-2.094537735162327330e-02,-3.413002100511951893e-05,2.660461360686826142e-04,-7.623517788234291217e-04,5.503057837486267090e-01
5.757226137012725342e-01,-2.996841905238670223e-02,7.512339834511772008e-03,8.741615046804880607e-03,1.098518127803807358e-02,4.592375668554103674e-02,5.937027335166931152e-01
5.180074386802233644e-01,-4.433449445334855521e-02,-4.182548207751971003e-02,4.366755567407458634e-03,-7.410932986646853043e-03,4.207038449610950651e-03,5.613366961479187012e-01
5.254878777760504382e-01,-4.469861314529935403e-02,-3.683631833891926055e-02,-1.029241872864736403e-02,-4.027204591017081135e-03,1.209856599313956980e-04,5.666197538375854492e-01
5.280891646338383705e-01,-4.392766594979860550e-02,-4.606503606769773995e-02,1.145418986747848161e-04,-1.512933192941759084e-03,-1.486801863748927251e-03,5.731003284454345703e-01
6.009575441565819798e-01,-6.571667006762194063e-02,7.993993757386436139e-03,-7.501788646045180579e-03,-1.796852235801872297e-02,2.660364524137960943e-02,6.356158256530761719e-01
5.398569662808209157e-01,-2.084121127424995445e-02,-3.831595811768198634e-02,3.950877863558803667e-03,5.813685159144400642e-03,-2.497311055809107658e-03,5.697831511497497559e-01
5.143117746907410748e-01,-3.232998989048246896e-02,-6.065181334920599632e-02,1.651339923799118297e-03,-1.551960094919950820e-03,1.034588507047360826e-03,5.613553524017333984e-01
6.005210943482210961e-01,-5.717246256901395429e-02,2.091189568220486183e-02,-1.901343723251533793e-02,-6.091713502099521151e-03,1.637268291720103339e-02,6.239410638809204102e-01
5.595319887143318516e-01,-4.163061587346220116e-02,-3.070240964338158407e-02,1.175695417250410997e-02,1.666248275429397119e-03,-1.051388564529723291e-02,5.964066386222839355e-01
5.276107724545362476e-01,-5.285691679589571423e-02,-4.567940171297527052e-02,6.888058636893258473e-03,-2.663608108708943184e-02,2.124906945396329121e-03,5.788888335227966309e-01
5.206356267193443799e-01,-3.596957337894995943e-02,-5.503973906095493973e-02,2.490410013897051238e-03,-4.977838588660342747e-03,1.404294465816285659e-03,5.664683580398559570e-01
5.266169762085077810e-01,-4.040205987581257929e-02,-5.546318383333451174e-02,4.395827513782729623e-03,-2.636881630477553185e-03,6.562973910910957281e-04,5.747673511505126953e-01
5.149993902024823100e-01,-4.561067474236016328e-02,-3.711617694640212406e-02,-5.525253067206191719e-04,-1.546128874977359630e-04,-1.943061356573967018e-03,5.564225316047668457e-01
5.350081939655866314e-01,-4.034162708327124203e-02,-4.556974611451469759e-02,9.510191089639201747e-03,-2.083061337980317632e-02,2.386681490246915852e-03,5.793555974960327148e-01
5.265410076613703527e-01,-4.202244256484932716e-02,-5.168806082736285279e-02,-7.333491175813513412e-04,1.034705032124699081e-03,1.546051015402219756e-03,5.734677910804748535e-01
4.947251631269162786e-01,-7.520423931892691871e-02,2.628194375858580734e-02,-1.035945289487614183e-02,1.203312607928321287e-01,-2.217909696930467703e-02,5.679045319557189941e-01
4.408769010329873228e-01,2.524353102439963470e-02,-1.086251699001524323e-01,-1.568941508038315669e-01,9.264965338771331826e-02,-3.497513902591137952e-02,5.912539362907409668e-01
5.195919064889066297e-01,-3.611108804059995347e-02,-5.011925275055387208e-02,-3.311615369097883725e-03,1.285660336862896533e-02,-4.065998684498207385e-04,5.633078217506408691e-01
5.046152425952058485e-01,-4.773293577367698770e-02,-2.104924738890914804e-02,3.790616317759665926e-04,-8.451121067998938752e-03,-2.713357747496417203e-03,5.397208929061889648e-01
5.267143008021234474e-01,-3.866848912492673596e-02,-5.625275055057646356e-02,1.489585581187381292e-03,2.968808215881733794e-03,1.936298712522809343e-03,5.744154453277587891e-01
3.400515048104078009e-01,-3.297752434652549691e-02,1.523200211394853953e-02,3.989805520515787157e-02,7.163542597994669581e-02,1.205232162785733509e-02,3.796017765998840332e-01
4.978986931307837205e-01,-5.340001168363797679e-02,-2.897646541053511271e-02,-4.120368107421014912e-03,3.065728781151282317e-03,3.540870931598350761e-03,5.396099090576171875e-01
4.981402356871559300e-01,-3.712380965725542437e-02,-4.005025546777934986e-02,6.354671162054659726e-03,4.249473249818629811e-02,9.398625770472408825e-03,5.421126484870910645e-01
4.161510299505105648e-01,2.691793529425440257e-02,-4.538203562957071613e-02,-1.488038999106818250e-01,-1.068382047752453046e-02,3.655847225561867624e-03,5.016787648200988770e-01
3.672755134923491038e-01,1.134185847439385386e-02,-2.492884155812097324e-02,-7.898771602560734906e-02,-3.319948090004103125e-02,2.407879018967151383e-02,4.058046936988830566e-01
4.500204115714789843e-01,-4.558336050728470368e-02,-2.853071589542346964e-02,-4.777465905075192754e-02,-2.143792399147933028e-02,-1.265162936310099996e-02,4.961539506912231445e-01
6.274075807732325538e-01,-8.902402755730140504e-02,-4.458950308355935643e-02,-6.544604777015593233e-02,1.702871270301017370e-01,-7.691920005743672906e-02,7.752462625503540039e-01
5.311021080859643639e-01,-3.875260715936590383e-02,-5.220711102089942157e-02,2.897675432576308271e-03,4.521012647228150015e-03,1.614367903957882521e-03,5.767814517021179199e-01
5.288488138234926916e-01,-3.902475880428454835e-02,-4.115994144254550569e-02,1.258254280912274011e-03,8.697166201792345518e-04,-3.265990690587030460e-04,5.689505934715270996e-01
5.130385236182469777e-01,-5.168232179315354613e-02,-4.000683861995188439e-02,-3.832256763257344944e-03,3.755498979375583254e-04,-4.456153928804604432e-03,5.590676069259643555e-01
5.283426230369024923e-01,-3.851397078213697478e-02,-5.202786431699341074e-02,1.485865034302986075e-03,5.219027980484593904e-03,1.601142338420841324e-03,5.738165974617004395e-01
4.424018164666290165e-01,-4.863336144166492681e-02,-4.541364555742295750e-02,-8.784741636045075019e-02,5.764085944184084605e-03,-3.515071183735909554e-03,5.126725435256958008e-01
3.768892054641573841e-01,-2.683308092777826614e-02,-1.795179458187910748e-02,-8.066995348467739801e-02,-4.400545830338267045e-02,-9.131954344695681139e-03,4.301947653293609619e-01
3.920256697200535378e-01,-3.356470072221652556e-02,-8.680324370540212775e-03,-2.253703968055265766e-02,-1.674911199874853929e-02,-9.397460533665968896e-03,4.168766438961029053e-01
4.965364208241543897e-01,-4.418755736828747227e-02,-3.692439896320309778e-02,-1.427426715727964091e-02,-1.034374682013857426e-02,-2.789050977451255735e-03,5.380180478096008301e-01
3.230512565905197531e-01,-1.296095798555803313e-02,-8.926343967322211692e-03,-5.128636797423342247e-02,-2.573961922320008866e-02,-8.703607550181697433e-03,3.488130271434783936e-01
5.181053181690373766e-01,-3.160211171548096831e-02,-3.594651085725930617e-02,-2.730420360689440190e-02,5.391618531376520841e-03,-4.198136197534551965e-03,5.540414452552795410e-01
5.501796911790630684e-01,-3.017818499983720981e-02,-3.820106355617686189e-02,-9.237536828333609354e-03,-9.594081717852137939e-03,9.899908046372352804e-03,5.851170420646667480e-01
5.339859486572916536e-01,-3.781076622387780084e-02,-6.998040526040055775e-03,1.886560133310606928e-03,3.417947935121979589e-03,-4.830726642877075823e-03,5.571337342262268066e-01
4.289035949812203818e-01,-4.142531979693649113e-02,-1.549469122213796568e-02,-6.128200338309972711e-02,-3.299392231964655767e-03,-4.780676837916064854e-03,4.701631963253021240e-01
6.029943953966078185e-01,-2.565610482684685389e-02,-2.838875736595222743e-02,1.261763557572465229e-02,6.235662578075407310e-03,-4.298546651680368313e-02,6.348734498023986816e-01
5.276997254602443510e-01,-2.801872187587747809e-02,-1.319900824691599972e-02,-4.652308884188320072e-04,-2.187466453825808149e-04,-3.025516432809742702e-03,5.484845042228698730e-01
5.349244673626842861e-01,-3.984740109500797822e-02,-3.996380368062441013e-02,-2.501968817194833751e-03,-3.409729492839577974e-03,-1.079200699048709538e-03,5.748797655105590820e-01
5.289431332792643436e-01,-4.351119938292480338e-02,-3.892871196182298710e-02,-1.317245720251456007e-03,1.031891938878997826e-03,3.724722744732707658e-04,5.701846480369567871e-01
5.406093561749754084e-01,-4.613315251466487688e-02,-4.043523238831878142e-02,-1.375886978603663591e-03,-1.049943398328912619e-03,-3.145183820299934929e-03,5.839474797248840332e-01
5.416802826256140735e-01,-4.183594275814611629e-02,-4.063219949477556159e-02,-1.348299770231492587e-03,-3.919672068285689841e-04,-7.897244112713667922e-05,5.829203724861145020e-01
5.408389408993135028e-01,-4.178626397595361364e-02,-4.347916511310212506e-02,-2.008741036907287208e-03,-2.570192044006724703e-03,-6.830500833174894511e-04,5.835020542144775391e-01
5.403309074923310362e-01,-4.434209324260832141e-02,-4.030071541223922971e-02,-1.605991675638077359e-03,-1.000951327557507518e-03,-6.305390968041039599e-04,5.826730728149414062e-01
5.410957395584627960e-01,-4.347641523502304706e-02,-4.358864765495573668e-02,-1.862064579301929640e-03,-2.585792144779093180e-03,-1.761425986005713549e-03,5.846623182296752930e-01
5.370799580047072030e-01,-4.378351489516801864e-02,-9.904913251918001649e-03,4.777635275156266390e-03,-1.423561827108589875e-02,-1.714739936530871797e-03,5.652933120727539062e-01
5.316981450978393031e-01,-3.471209902025307326e-02,-3.054649525979152846e-02,-1.818417231165645777e-03,2.343233804262991830e-03,8.758910491672926670e-05,5.643623471260070801e-01
5.321290716282627287e-01,-3.107874497909232647e-02,-3.083325010872867145e-02,-1.636323692296274201e-03,2.392457860629071658e-03,-5.638467314088279345e-04,5.631083250045776367e-01
5.320822275844647731e-01,-4.227798529547635575e-02,-3.874295571737992883e-02,3.537369846192334362e-03,-5.681248440560021477e-03,1.927683777894402019e-04,5.727183222770690918e-01
5.413706672176483714e-01,-4.544257815152899505e-02,-4.510704431305803674e-02,-9.417524789063742114e-04,-1.497060365514918173e-03,-3.566518464545997882e-03,5.866860747337341309e-01
5.201024839365129271e-01,-4.227085979102898627e-02,-4.888550043059233796e-02,1.295147368075601647e-03,-4.915757994923157298e-04,2.514521145592175499e-03,5.657315254211425781e-01
5.404895020999196387e-01,-4.268370939533486230e-02,-4.166512293506452469e-02,-2.594972099960253693e-03,-1.882953879418178397e-03,-3.441833578539164429e-04,5.826913714408874512e-01
5.637227013382634100e-01,-1.080073742792178604e-02,-6.224484175503988692e-02,1.866201184759471235e-02,1.546327733513978148e-02,-1.457688685147005489e-02,6.038866639137268066e-01
4.357283045251346687e-01,-4.207186238093148234e-02,-2.673576307952636733e-02,3.969524523520375631e-02,1.074574942693429930e-02,5.386119570477290383e-03,4.757742881774902344e-01
4.503865823128280210e-01,-3.461824836895521784e-02,-3.811209178938090858e-02,-1.384846799080281625e-02,-1.683452117882195190e-02,-1.309996943958011313e-02,4.887502491474151611e-01
5.340528760600044000e-01,-4.430462383148989214e-02,-2.816097215859403313e-02,7.086236662247522543e-03,1.115053027533108082e-04,-7.764146004199611560e-04,5.705906748771667480e-01
4.917065747554471566e-01,-4.290854333864341230e-02,-3.977746514743862871e-02,1.927355986414406100e-02,-2.315711841321179201e-02,1.059151593256495161e-02,5.359187722206115723e-01
5.040218094065456178e-01,-4.378240192377669260e-02,-3.422193627159383911e-02,2.286358202360632558e-02,2.906072571730013371e-04,9.402423671709818657e-04,5.445316433906555176e-01
5.117007187844087035e-01,-3.581068399974046690e-02,-3.321464719827216250e-02,3.392409183916376969e-02,-1.631095687996195198e-02,-7.323220445640419608e-03,5.502414703369140625e-01
4.626104549471256044e-01,-2.771764025142361976e-02,-4.535907581460765781e-02,3.451824470021483404e-02,-1.843725313999412807e-02,1.093369248397280981e-02,5.043172836303710938e-01
5.254950663026810576e-01,-4.418379061539232100e-02,-4.379437800559324301e-02,-6.462147499840942408e-04,2.344991133005475928e-04,1.723528999179496516e-03,5.694932937622070312e-01
5.128770779459166373e-01,-4.282313185143216128e-02,-4.673994818408283569e-02,4.433195466583323210e-03,-3.823867827627947837e-03,5.913730145462315659e-03,5.578551888465881348e-01
5.325787094492580032e-01,-4.612979340069592316e-02,-4.808646120019269277e-02,3.766742011014814610e-04,1.134685654726089610e-03,5.061130253995558149e-04,5.796936750411987305e-01
5.657815248511993689e-01,-1.760554715211673504e-02,-6.887107846314347026e-02,5.973067287153088073e-02,3.617048846956272138e-04,-1.627599491732281342e-02,6.199795603752136230e-01
6.476459251113824145e-01,1.592139490474431263e-04,-6.421848992141612755e-02,1.183224769763341899e-01,-8.250853581459088870e-02,-4.031268546345104925e-02,7.296342849731445312e-01
4.166273504139691441e-01,-6.256985460944275435e-04,-5.214102696276858018e-02,5.242394739047130658e-02,-3.737896831261182384e-02,-2.832940288383235111e-02,4.616198539733886719e-01
5.325361628907607781e-01,-3.852311671390679093e-02,-3.933217900824331759e-02,-1.216266386765424076e-03,1.605394653330553291e-03,-1.289034657448722733e-03,5.714792609214782715e-01
5.042798517484874399e-01,-5.800709975055845513e-02,-3.359211154210170469e-02,-6.869495572956621152e-03,2.288255491404395364e-03,4.264803067912136154e-03,5.506780743598937988e-01
5.317587434034958260e-01,-4.802990728069239657e-02,-5.074670828817981483e-02,4.624643902710518536e-04,-6.043007448958699190e-04,1.607545704759340451e-03,5.811599493026733398e-01
5.308466869450012560e-01,-4.473325284794174572e-02,-4.997993914331477772e-02,-6.675763049011190211e-04,6.210080489818019462e-04,1.612725587388447960e-03,5.782300233840942383e-01
5.339732137152850555e-01,-4.029070770010376168e-02,-4.347793318984272126e-02,6.735925598296297299e-03,-1.133648332796572365e-02,2.024629216785310635e-03,5.763275623321533203e-01
5.197342950571822717e-01,-3.927191918995243114e-02,-4.221507348053032960e-02,3.314992582397380001e-03,1.471730809289851800e-03,1.613307965793400625e-04,5.605188608169555664e-01
5.122072755170981040e-01,-4.127763875454992792e-02,-4.712729357428266375e-02,5.642553104123382464e-03,-7.404671967777513332e-03,3.408164229776819518e-03,5.566976666450500488e-01
5.041129992822431793e-01,-3.327619695841446679e-02,-4.508721580417221486e-02,9.496606412949144815e-03,-1.125183488460437115e-02,2.806422358669969849e-03,5.440108180046081543e-01
5.091095213060599090e-01,-3.745351221293169441e-02,-4.763141810231491524e-02,3.609626776916184492e-03,-3.364114190606824241e-03,9.912902973884843774e-03,5.520556569099426270e-01
5.321155978426473920e-01,-3.857297811246743202e-02,-4.715737753474660843e-02,1.798754841654821423e-03,1.012359924735004068e-03,-8.751948434182740062e-05,5.750399827957153320e-01
5.319828698460730143e-01,-3.552012158889161775e-02,-4.309476481972429607e-02,-3.355196218524851386e-04,-1.838179013716013249e-03,1.754634919733513232e-03,5.713452100753784180e-01
5.159563741532121606e-01,-3.298493182932593637e-02,-5.379817980271051070e-02,-2.305683800109203496e-03,-1.141628284030835570e-02,6.124936832015584996e-03,5.601022243499755859e-01
5.220054962798386100e-01,-3.799508080590710546e-02,-4.504398479227020302e-02,7.448800899307788173e-03,-6.409539177530749338e-03,2.319883863344451066e-03,5.638293623924255371e-01
5.316268693949738333e-01,-3.541956210470106892e-02,-3.576660721735339110e-02,-3.124497422824344282e-04,2.383581132646670625e-03,1.982408449381468842e-03,5.672457218170166016e-01
5.120731597417580439e-01,-3.318207189632099707e-02,-5.507361790254264311e-02,3.378607108508499112e-03,8.525261859478749796e-04,1.609751272834134819e-03,5.565637350082397461e-01
5.159186702897252674e-01,-4.942232574132501832e-02,-4.237785757479758941e-02,-9.833306776404427611e-05,-1.261435415093047161e-03,-6.606764775468742384e-03,5.619726777076721191e-01
5.015412672978772912e-01,-4.019836120041755945e-02,-5.727046870920116106e-02,-2.892440228327442311e-02,4.757937162557326211e-02,3.574004168174435298e-03,5.588930845260620117e-01
5.097675859756070071e-01,-3.500837852884372547e-02,-3.407721756200726704e-02,-1.634724014263592854e-03,9.704489048100881088e-03,1.965379970245345175e-03,5.445884466171264648e-01
5.344090903272427084e-01,-2.873631022300798810e-02,-2.824949458676059844e-02,5.454251731232339674e-03,6.160910149454840124e-04,-1.695344132933696490e-03,5.629900693893432617e-01
5.302725549371456459e-01,-2.407142954601917961e-02,-3.200520346040791608e-02,-8.731400938742174328e-04,4.258485415480121015e-04,-1.585631091073593651e-03,5.583624243736267090e-01
4.214215443596691646e-01,2.308019356416377010e-02,-2.198430719990915327e-02,-6.551815068635463701e-02,9.911485329855214410e-02,-4.333198723675589503e-02,4.760670363903045654e-01
5.288771704733953305e-01,-1.371504043421750696e-02,-2.983257497199481856e-02,3.338938221763149681e-04,2.042591665482518335e-03,-2.690468666119283109e-03,5.508592128753662109e-01
4.054392408251638047e-01,-2.672735510864376884e-02,-3.015507186214161361e-02,-8.003438667931785100e-02,8.985945183976451478e-02,7.523100031752673854e-03,4.815303981304168701e-01
5.408100556555853755e-01,-4.472107649072462610e-02,2.975393796039532690e-03,-1.151114844056300504e-02,3.682271017213181730e-02,-4.845359090513112754e-02,5.733257532119750977e-01
5.275516761561958035e-01,-2.234104928604888074e-02,-1.730759791222236110e-02,2.397089562738559127e-03,-5.524501521084252591e-04,-4.203186911820926304e-03,5.474583506584167480e-01
3.019189042346272500e-01,-1.789631872915378730e-02,2.408773995626820041e-02,-4.241139153963538466e-02,1.350999555353438464e-01,-2.398355220795243478e-02,3.905062079429626465e-01
5.339391673637174929e-01,-2.841770745920546570e-02,-1.610669836761205453e-02,3.441136345163942154e-03,5.863520759701410390e-04,-3.230173018356553502e-03,5.563645362854003906e-01
5.282591830491942808e-01,-2.284489428227928776e-02,-2.227959737142259922e-02,2.495345204531730036e-03,9.135200153967709029e-04,-7.309242379459792230e-03,5.509863495826721191e-01
5.284771736155309263e-01,-2.745126819870766233e-02,-1.979601994203541993e-02,-8.702715166170943081e-04,5.346235757166150271e-04,-1.048620962605384616e-03,5.521464347839355469e-01
5.143723871892126320e-01,-3.888550920810615597e-02,7.208619388945319839e-03,-8.108709401978556747e-03,-1.201174161437646749e-02,2.062550746186613340e-02,5.335010290145874023e-01
5.145764427381589456e-01,-3.810019740061595939e-02,-3.908361421477718478e-02,-2.053198035217768374e-03,-1.441070175783128746e-03,-2.761998650157974650e-03,5.532067418098449707e-01
5.182418050158760225e-01,-4.094215965039618710e-02,-5.036771323936028999e-02,-1.299534178016476535e-03,1.792187754312020483e-05,-2.699872347718933370e-03,5.639796853065490723e-01
5.326511100914513852e-01,-3.169153283892914286e-02,-1.353269421450317700e-02,8.284526433114883107e-05,-1.310147891103936521e-03,-2.248974833928623143e-03,5.555042028427124023e-01
5.331890508803028839e-01,-3.730994984977994977e-02,-2.248376918702288396e-02,-1.039162631736251143e-03,-1.509545818888552177e-03,-2.375780355696606146e-04,5.632413625717163086e-01
5.147589875349254385e-01,-4.849113333472482301e-02,-4.404090942604405035e-02,1.307094714052241995e-03,-1.273974872241560212e-03,-7.171350602410190254e-03,5.611846446990966797e-01
5.813345332504160634e-01,-6.492797217442977664e-02,-2.555525837600131078e-03,1.508718365671082862e-02,-1.552695347385843298e-02,-1.953175649352456925e-02,6.195055842399597168e-01
5.312988410380530269e-01,-4.170691159994277530e-02,-3.376709959487234070e-02,-2.789489166765613177e-04,-1.394828818645481782e-03,8.954449211455178413e-04,5.690848231315612793e-01
4.852734054128400309e-01,-3.737013176306955287e-02,-5.030285390947922264e-02,-6.250613292410152864e-03,-9.640315324226848490e-03,-1.122025804846279312e-02,5.299589037895202637e-01
5.297481168367086379e-01,-3.165466702379896025e-02,-2.220977201404325529e-02,4.446411067189468447e-04,-8.061940206288176506e-04,-1.581536385017827872e-03,5.567494630813598633e-01
5.341282082794199804e-01,-3.939698979880407181e-02,-3.754595822055512011e-02,5.580893512343218163e-03,1.487923421075043259e-03,5.706497968798645762e-05,5.726892948150634766e-01
5.319930840329352151e-01,-4.657823813630368459e-02,-4.379021496582302664e-02,1.686174333810572853e-03,2.078642724040960770e-03,3.636469535727503838e-03,5.772353410720825195e-01
5.032657911040108178e-01,-3.704462675115094417e-02,-5.226029625675285284e-02,-2.126559048559276913e-03,4.103255861693488578e-04,-7.615355070483915446e-03,5.482482314109802246e-01
4.159196625068650177e-01,-3.485859016058727444e-02,-1.637057238011764559e-02,4.580022455710146267e-02,9.793240193207404867e-03,-4.752904663600046077e-03,4.492853283882141113e-01
5.318037522097596170e-01,-4.336324605667690735e-02,-3.423642163092899260e-02,-1.950377877264489451e-03,-5.412269996027731797e-04,9.068100595493722420e-04,5.706712603569030762e-01
5.364370585418614112e-01,-5.377605240685559562e-02,-5.221699467384743887e-02,5.235716726905401824e-02,8.635245184260894463e-03,3.443386566361622200e-03,5.965876579284667969e-01
5.316806359460732878e-01,-4.181226225518311357e-02,-4.088683150535007971e-02,9.466559327064969116e-04,2.698620633122830736e-03,-2.510073115178982598e-04,5.730522871017456055e-01
4.771570665199384997e-01,-3.605466960843092816e-02,-4.294370126829921697e-02,-9.249329390677824003e-03,3.170594145890001897e-04,-1.282803473265606113e-02,5.174165964126586914e-01
5.330682633343512000e-01,-4.355967014763587053e-02,-4.495546578797979254e-02,2.026101357427781587e-03,6.490599335879199778e-04,2.349678753340706232e-03,5.773531794548034668e-01
3.517140551893502831e-01,-1.412468624095478131e-02,-4.123991420544509401e-03,-1.120987920457780680e-03,-1.773859748783066393e-03,-4.916454014266827960e-03,3.610610365867614746e-01
5.954667522081544817e-01,4.889186840244447163e-03,-7.384754821685346471e-02,3.526313867295586147e-03,9.596303772500040102e-03,2.301014351983611886e-02,6.351247429847717285e-01
5.297611637900888626e-01,-4.754628598229676539e-02,-4.786002800136238133e-02,1.142404476108627859e-03,3.206191357716352145e-04,1.964686214029076790e-03,5.774780511856079102e-01
5.330955091037712368e-01,-3.781017067416259092e-02,-4.342965706836210416e-02,-2.810369162196494578e-03,2.941984506021724875e-03,-3.344938347507284441e-04,5.737796425819396973e-01
5.271889910233363841e-01,-4.029072205580747079e-02,-3.743440891637747625e-02,2.314562641274097669e-03,3.571972534927058893e-03,3.893973373940372274e-04,5.661053657531738281e-01
5.332032016339736114e-01,-4.780199344484045709e-02,-4.637777556500136122e-02,1.275960189301221862e-03,6.519922091545700751e-04,1.011253688027013119e-03,5.803023576736450195e-01
5.174322580838099928e-01,-4.359010394571144476e-02,-3.510819743310647501e-02,7.259212848847132471e-02,3.436548584923547305e-03,7.703891519983660334e-03,5.710357427597045898e-01
5.344832257101637119e-01,-3.628818138834949414e-02,-4.184851556784294213e-02,-4.684892842469389786e-03,-8.098899603357931441e-04,-4.545457597776114233e-04,5.736314654350280762e-01
5.797199987678496313e-01,1.973032478344666218e-02,-6.579883500084343639e-02,-7.135777082454700451e-03,3.623702972696292348e-03,-6.482042748151585314e-03,6.075502634048461914e-01
5.972575494255984996e-01,-2.332169167183473224e-02,-2.921453600187934319e-02,2.250149551804838527e-02,-3.211995019623721092e-03,-4.424397156077682081e-02,6.294702291488647461e-01
5.284978728060898412e-01,-2.215902253647275555e-02,-2.154610819522492782e-02,1.973858337090016266e-03,8.329800367687582689e-04,-1.934586323431825884e-03,5.503733754158020020e-01
5.297696847585775526e-01,-2.425792369498772083e-02,-2.517693845544430320e-02,2.163557467902209146e-03,-1.189363996346920905e-03,-6.622825761030677431e-04,5.545053482055664062e-01
5.266236931191361492e-01,-2.402638739249485234e-02,-2.146314407305435767e-02,-1.803061819338206068e-04,5.761581382706417983e-04,-2.161696508900847521e-03,5.493866801261901855e-01
5.282307967164978635e-01,-2.278365073856425393e-02,-1.884278232077232773e-02,5.785498866636692777e-04,1.466775967579981004e-03,-4.709799528960446381e-03,5.491220355033874512e-01
5.273132763120528255e-01,-1.638861518469011957e-02,-2.333700519715151134e-02,4.777172806489299924e-04,-8.932361626868749824e-04,-5.685578287396244983e-03,5.473005771636962891e-01
5.386543438109634430e-01,-4.108778949356592380e-02,-3.820815599515348104e-02,1.739972750022270530e-04,5.140906420965687430e-03,4.444496353696010885e-04,5.783768296241760254e-01
4.329291205240908269e-01,-3.997835644761402185e-02,-8.691278338729263586e-03,2.110346230544074206e-03,2.105647566861137444e-03,5.672135327434250744e-03,4.582004547119140625e-01
5.079785503019857984e-01,-5.414687308324375725e-02,-3.514895492808239874e-02,1.012113328105414614e-02,-5.824293627208428125e-04,5.590593761552125653e-03,5.532348155975341797e-01
5.330937580213095384e-01,-3.995505004628488455e-02,-3.891554998261442799e-02,1.415010506400929836e-03,2.627003815459285317e-03,4.731415781576419352e-04,5.725536942481994629e-01
5.205762623882377316e-01,-4.648451397075709091e-02,-4.370002413754872639e-02,6.481900473728695669e-03,-4.082660319893902600e-04,8.136567821150584093e-03,5.659610033035278320e-01
5.281903760538683157e-01,-4.751206276861763556e-02,-4.456488147490145213e-02,-9.651796474597079548e-04,1.201448596560963748e-03,3.378293539838726333e-03,5.742705464363098145e-01
5.312502913248456915e-01,-4.181388666420274292e-02,-3.815400489385023519e-02,1.597518273374553491e-03,-1.290966964923722033e-03,-1.060154898332696426e-03,5.712570548057556152e-01
5.272876910838840692e-01,-5.451147660595331845e-02,-3.869231060483330209e-02,1.023482419154879029e-03,-9.779624463390869729e-04,2.072940887780919204e-03,5.740695595741271973e-01
5.315660198919359702e-01,-4.370286891488611714e-02,-3.863398804909992656e-02,-1.506977750644632012e-03,1.813704883691226065e-03,8.005159554737737381e-05,5.727658271789550781e-01
5.270369084278688776e-01,-4.865938660354801604e-02,-4.441654864346442078e-02,1.894625675571088479e-03,-4.101542004021737275e-04,2.657959098950694963e-03,5.736149549484252930e-01
5.316345714738347494e-01,-4.226165380633364888e-02,-4.014361451180159523e-02,9.035252912049186519e-04,3.173045723831828448e-03,-1.443086592748970458e-04,5.728687047958374023e-01
4.450447197284891354e-01,-3.209701428178876603e-02,-3.064492283843350817e-02,3.333743664059720530e-02,-1.214578088749190300e-02,1.083113169296572725e-02,4.807308316230773926e-01
5.160706859309293071e-01,-4.148809172078030127e-02,-5.161618011216045909e-02,2.105634053055669992e-03,-5.404806914493178946e-03,4.821183533355713480e-03,5.628428459167480469e-01
5.141620803650488458e-01,-4.372001812781395325e-02,-4.611292940483963099e-02,5.295900221185879594e-03,-1.667539233082011808e-03,4.831169342908565000e-03,5.592277050018310547e-01
5.272013269436720551e-01,-4.737488928342387107e-02,-4.687556107436932629e-02,6.322423958119549169e-04,-1.674099679406241842e-03,2.091188664553514983e-03,5.743464827537536621e-01
5.316745397375201021e-01,-4.766365155672386278e-02,-4.239614638158414883e-02,-1.162305649637371220e-03,-6.337635584500718881e-06,1.310458855780035400e-03,5.767304897308349609e-01
5.894048283421946532e-01,-6.489245756891703909e-02,2.680340220655566541e-02,1.013104338534785535e-02,1.299084173028424438e-01,-2.810056224729727201e-02,6.556082367897033691e-01
5.281062565287411026e-01,-4.452528800336882919e-02,-4.718639866547899575e-02,3.592743535121505072e-03,-2.769045129233436812e-04,4.819880937617158738e-03,5.740613937377929688e-01
5.315253599969947951e-01,-4.577557078009886204e-02,-4.319318800749494258e-02,9.813613090949204875e-04,-2.149880120201624542e-03,7.837714880949092720e-04,5.760301947593688965e-01
5.216121809345897198e-01,-3.572677225228448883e-02,-2.475773993888935598e-02,1.348266695630360133e-02,-2.823916010334949142e-03,-7.025985030577753220e-03,5.525856614112854004e-01
5.302102814434939138e-01,-3.975915882056080264e-02,-3.807826937011435375e-02,3.815466187004308736e-03,-4.017636577940294357e-03,1.222742667792044722e-03,5.692157149314880371e-01
5.266903742799869947e-01,-4.192211302821058361e-02,-4.768199543267881424e-02,3.114733028740580834e-03,-2.610350273401609942e-03,3.005919512960704854e-03,5.715812444686889648e-01
5.320394323501865808e-01,-4.888783572304886138e-02,-3.871544563848766662e-02,1.360918217494632137e-03,-9.046500723138401173e-05,1.860822931782830187e-03,5.759223103523254395e-01
5.324830021288943227e-01,-4.573848761017465514e-02,-3.893863877066983115e-02,6.329455052189870805e-04,-1.474752094451724834e-03,1.728632332014480924e-03,5.748662352561950684e-01
5.392147406934778564e-01,-3.922269744682010950e-02,-4.021952731268521597e-02,1.156713114138730798e-04,-3.174388845062058734e-03,-1.012044945153826219e-03,5.789653062820434570e-01
5.311878108261971487e-01,-4.680333608567907588e-02,-4.207283075435175324e-02,2.750508029064598851e-03,-4.069352676106240477e-03,-7.637039914625195006e-03,5.758552551269531250e-01
5.422702013681570676e-01,-4.133834112794806948e-02,-4.197035663407189254e-02,-1.197205264808136370e-03,1.425030298896616749e-03,-2.533318109716916657e-03,5.839501619338989258e-01
5.385714871423636918e-01,-4.092281983504558740e-02,-3.827228616526351379e-02,-1.391214318850492009e-03,1.669989299814288392e-03,-8.860155411477302302e-04,5.781878829002380371e-01
5.332412755445068431e-01,-3.129638238887397228e-02,-4.105269755684398669e-02,-2.587074468075131577e-03,-3.842250378307152710e-03,8.064493151434431236e-04,5.695367455482482910e-01
5.301470087832305111e-01,-4.954543979417064259e-02,-3.891919497793833171e-02,6.179614843136928704e-04,-1.805588327387981857e-03,-4.088718502084674918e-03,5.745062232017517090e-01
5.349901264874062923e-01,-1.900814423203867065e-02,-3.950038612676942673e-02,-1.122546580686303603e-03,1.745292210503923388e-03,-6.204821359316978202e-03,5.646371245384216309e-01
5.372713516465692507e-01,-3.050081169262411351e-02,-4.116659281740273069e-02,-2.176874821880208071e-03,-8.354081103048847413e-04,3.850828864427102748e-04,5.731940865516662598e-01
5.381795628117094221e-01,-4.804730907725709987e-02,-4.201881930329953718e-02,-3.280777208915702033e-04,-9.021404459402309554e-05,-2.267998300425656377e-03,5.832495093345642090e-01
5.389426590610483236e-01,-4.095266453609053281e-02,-3.008285356864021098e-02,1.688647816426717399e-03,3.524869295856208375e-03,5.287537182506714742e-04,5.745781660079956055e-01
5.316632774356478963e-01,-3.560530661867719604e-02,-3.557431679978328987e-02,2.261158095608620938e-03,-4.465892662719283374e-04,2.243886537198337087e-03,5.672804713249206543e-01
5.355422028253185029e-01,-3.021902498421244476e-02,-3.902054027135520853e-02,-4.692514108386771840e-03,-3.862056679731862806e-03,1.264070688982762503e-03,5.703142881393432617e-01
5.190823649929849903e-01,-5.161810034329417096e-02,-3.707979626812069052e-02,6.306033575821604759e-03,-2.754278845365594561e-03,-8.037664685092284905e-03,5.638698935508728027e-01
5.222537881976487828e-01,-5.512160256220638432e-02,-3.483773134290341078e-02,-6.719797431804815221e-04,1.158371963563183506e-03,-4.333526664436257973e-05,5.675101280212402344e-01
4.937129646933892113e-01,-4.805182892109785553e-02,-3.243763008521469149e-02,8.859936372803533383e-03,-1.764907370628694206e-03,-7.586506116430285357e-03,5.345195531845092773e-01
5.107784020685142146e-01,-4.317379726981346311e-02,-3.975343600428538071e-02,3.739412145636271823e-03,-2.227407002254394846e-03,-7.139198131037553449e-03,5.524398088455200195e-01
5.355640890195551007e-01,-4.787108845658322176e-02,-4.118389823455992360e-02,-1.054318397598680160e-03,-1.801160785077743267e-03,-3.273024982724407304e-03,5.801594257354736328e-01
5.314636287001298642e-01,-2.952908448948360354e-02,-3.097202354017314363e-02,1.718848974497989499e-03,2.347436476381031464e-03,-1.354568350272913327e-03,5.617430806159973145e-01
5.291292868950353556e-01,-2.681474371767245124e-02,-2.638790697907231197e-02,1.358939268194894225e-03,-1.225368910890101744e-03,8.238199968244544090e-04,5.557416081428527832e-01
5.304070722441044383e-01,-3.921091792772607443e-02,-4.561762347706183052e-02,-2.287157140431324287e-03,4.713750522992277148e-03,-5.082731802322993687e-03,5.729877352714538574e-01
5.419350336890417230e-01,-4.024869499297156761e-02,-4.196854939526076245e-02,3.572535976801142089e-03,1.163705938624873270e-06,-1.543818732094761953e-03,5.830845236778259277e-01
5.362413291028836904e-01,-5.248529153221503929e-02,-4.138649492281448738e-02,-1.805318286999925761e-03,-1.784368342595488589e-03,-9.574976979839269200e-04,5.832753777503967285e-01
5.288554958302418285e-01,-2.307689748231747662e-02,-2.147117436976225813e-02,7.738262589053715619e-04,-3.613649254603632150e-04,-6.094364629614751512e-03,5.512343645095825195e-01
5.372498344521752234e-01,-4.800313882377274521e-02,-4.004354044593050332e-02,-8.529480020422676879e-04,4.365024923706732748e-04,-1.062867081688587644e-03,5.813193321228027344e-01
3.303892220842727379e-01,-1.455174377415309472e-02,-2.556679014058996224e-03,-6.522253687537686584e-02,2.867193652927406411e-02,7.289059587462452458e-03,3.610791265964508057e-01
2.769416782143380162e-01,-2.446665688751528678e-03,5.969626507373260171e-03,-3.218713598854326674e-02,3.265755415254315702e-02,2.163036827014760185e-03,2.865290343761444092e-01
1.652771093477972408e-01,4.465506937232542606e-03,7.151410449078222931e-03,-1.040857896026045441e-02,8.711245261927194616e-02,-7.486250118934742112e-03,2.206684052944183350e-01
5.403506264801007930e-01,3.440570372000573141e-04,-3.856684490722542269e-02,3.601752083561783526e-03,7.890614356222124285e-04,-4.736286953093182643e-03,5.605723857879638672e-01
5.185124158922953530e-01,-4.962776656476994286e-02,-4.083412690238683029e-02,2.244178526208328802e-05,1.651470846854364780e-03,2.302905591787125002e-03,5.638161897659301758e-01
5.146799072473962067e-01,-5.730319972524103300e-02,-3.806704601632279750e-02,9.968233934207681654e-04,-3.670872905234860641e-04,7.871268022519089733e-04,5.626164078712463379e-01
2.948105513313826198e-01,-5.512454759517906866e-03,-7.913189011097082615e-03,-1.861453515467787964e-02,1.208019106080485128e-01,-1.319058643550213850e-02,3.691360950469970703e-01
3.107334446819413065e-01,1.770805018025428668e-03,-1.136678860167504579e-02,3.336973538768850302e-04,9.699127767253706844e-02,5.186525401209264585e-03,3.577603697776794434e-01
2.553807246189921387e-01,6.403764273396742035e-03,-5.633645369745726716e-04,2.596439091593326972e-03,2.639314625851877857e-02,1.653842218154394925e-03,2.566923201084136963e-01
3.613567746975078765e-01,-1.245038779729637501e-02,-1.308273833868790759e-02,3.797921209424415939e-02,-2.511897641979813408e-03,-6.739048914605461765e-03,3.800671100616455078e-01
1.461547853137372399e-01,3.596868062873355421e-03,1.484142032280263285e-02,1.600670799904195529e-02,5.697467005666311674e-02,1.078140187372786385e-02,1.723423898220062256e-01
5.369582354228629173e-01,-4.051177885453166594e-02,-3.642227032855099855e-02,8.566668605319158127e-05,-5.671093340753525537e-04,-2.701849481885855637e-04,5.754371881484985352e-01
5.349900097701294488e-01,-4.356520950209979981e-02,6.526389473221316795e-03,5.868548217632249368e-03,6.822473746462377059e-03,-1.824279461180109124e-03,5.554345250129699707e-01
5.052180214643108291e-01,-6.206036411573065403e-02,-3.064902859248230804e-02,1.096055274549553524e-03,-5.593610508380422855e-05,2.810844548306238146e-04,5.522466301918029785e-01
5.375723894683808179e-01,-4.345318233746842118e-02,-3.143898730644681394e-02,6.979952432712027439e-04,1.117832233910061313e-02,-1.227698679375285786e-03,5.754436254501342773e-01
4.824008387776501094e-01,-3.537736443758607296e-02,-4.056339033418263074e-02,1.172074925271145499e-02,-1.687909060319298452e-02,9.705916076040561197e-03,5.218772292137145996e-01
5.275234779276183339e-01,-4.515654142988678732e-02,-5.027439613454026679e-02,1.396294670415123987e-03,-9.072959942061078684e-04,2.770057434247544855e-03,5.752832889556884766e-01
5.357864766054557526e-01,-4.228704360047991218e-02,-3.792302300279942751e-02,3.444203506251661100e-03,5.444503060782503873e-03,3.122180826454198433e-05,5.760120153427124023e-01
5.311364794351615126e-01,-3.807698693379796273e-02,-4.100944312599347219e-02,4.818421899194861696e-05,2.239560623550137554e-03,4.157360006629290134e-04,5.706989765167236328e-01
1.199368009808824409e-01,1.124437585990172017e-03,1.680100879339077244e-02,5.811919265786260475e-02,5.099392856387529802e-03,1.200392178112249901e-02,1.521294713020324707e-01
5.345013339493109861e-01,-4.393090308055708215e-02,-4.093175909729801498e-02,-1.498410879429812705e-04,1.168018277195098089e-03,9.992617156878765700e-04,5.769447088241577148e-01
5.293137775543527157e-01,-1.969490307409973995e-02,-2.569496034842252974e-02,-7.406931646037115792e-04,1.687264782023388922e-03,-4.148492129904064220e-03,5.520891547203063965e-01
5.269296695032990030e-01,-2.451814869270557695e-02,-2.141221872239629231e-02,-6.310399088376761377e-04,4.395791251204765886e-04,-1.933690862383266856e-03,5.499132275581359863e-01
5.322099278670950895e-01,-3.798830506282513397e-02,-3.070915747270488994e-02,1.663551870760154611e-03,1.824835523422068621e-03,-1.842970274765129684e-04,5.666099786758422852e-01
3.516471844522358614e-01,3.583531621922550481e-02,-2.400625214668812568e-02,-1.386237373384930083e-01,-3.276074056621899183e-02,2.979984568566709791e-02,4.309876263141632080e-01
5.316378365690268559e-01,-2.737724999649573943e-02,-2.695475400622240891e-02,4.253415506254104800e-04,-2.958911079181269447e-03,-1.670033726450739862e-03,5.588354468345642090e-01
5.324175408337947779e-01,-3.035194274255723079e-02,-3.275068856450083499e-02,2.400853090903219515e-03,2.378969194184579316e-03,-6.162003743548076506e-03,5.641040205955505371e-01
5.238505124168573168e-01,-3.832835732078831992e-02,-5.518044018535486761e-02,2.997366201597990044e-03,6.753033410835223020e-05,1.526098375299010657e-03,5.708212852478027344e-01
5.327653832567644798e-01,-3.558528138044825262e-02,-2.094962262238173056e-02,8.726110284095032902e-04,-3.422377798683420066e-03,-1.800418948812056510e-03,5.612180233001708984e-01
4.649577317142952193e-01,-3.524800430929453388e-02,-3.594379959654908641e-02,1.297295026427005508e-03,-3.727966198233684117e-04,1.155385944301363585e-02,5.009593367576599121e-01
5.297689121660948963e-01,-3.006259467904889848e-02,-2.396742593629361262e-02,6.975692688907300914e-05,-9.962063739333861228e-04,-2.936901256655055723e-03,5.568348765373229980e-01
4.810566080773781561e-01,-5.813824829094918489e-02,-2.291845540525899727e-02,4.279833627726414608e-04,-3.112337204996410214e-04,-2.528747663774735723e-03,5.224952101707458496e-01
5.523859002637704352e-01,-4.550279393068176748e-02,-2.787338568581343434e-02,-5.414421427702850731e-02,-5.622198038991960134e-02,1.340070180710541820e-02,6.050269007682800293e-01
5.811874678216579770e-01,-6.453986964670335724e-02,-2.421256109932867773e-02,-2.528237387181505105e-02,-8.393041469347771455e-02,1.630070892842883437e-02,6.452885270118713379e-01
5.003374195393821555e-01,-6.246965584928285131e-02,-2.582394897136244816e-02,-7.601988813988448321e-03,-1.412359604155474740e-05,-4.412669066288115761e-04,5.455678105354309082e-01
6.024713128685281749e-01,-7.246285814838709927e-02,4.157232975655539287e-03,-1.568313043870157939e-03,-1.055778377397976163e-02,1.690419624815787600e-02,6.410087943077087402e-01
3.592846159744241819e-01,-1.763914524130170969e-02,-1.748621976150138702e-03,-3.073722965834468912e-03,-2.337383231070641523e-04,-9.972495853313488937e-04,3.692776858806610107e-01
5.281252028302776402e-01,-4.430734803697378155e-02,5.956507460828736056e-03,-5.704429626939120854e-03,-2.663920566168478943e-02,1.269804535697673271e-02,5.514916777610778809e-01
5.903684749825841571e-01,-6.181822218260440982e-02,-5.716968817198880837e-03,4.277581250884829323e-03,-2.481664706843537613e-02,2.404676926383194843e-02,6.289225816726684570e-01
4.255922768298023851e-01,-1.853879516552386919e-02,-1.687334306160273578e-02,-2.995430529865971726e-03,-2.883203343164596980e-03,-6.205934239184403810e-03,4.434894621372222900e-01
5.032143328236208246e-01,-6.188215544616995634e-02,-2.708082183256668718e-02,-2.266249812239328875e-03,2.439368211354696683e-04,-1.020989770238977558e-03,5.485414862632751465e-01
5.122569465491997320e-01,-4.315374428013621366e-02,-4.790037742223784978e-02,-3.381894227592298829e-04,-3.800492069315280987e-04,7.444562435439897735e-03,5.579488873481750488e-01
5.449692525175739988e-01,-5.370822804447561438e-03,-4.950244922342283971e-02,4.575606861763279083e-03,-9.311496814219736825e-04,-3.880253031808588490e-03,5.737767815589904785e-01
5.299703546839802382e-01,-3.201519231142935240e-02,-4.235471218943090421e-02,-2.652671697515530686e-03,1.874079661952263035e-03,-1.283125572077129352e-03,5.672582387924194336e-01
5.558941556143297547e-01,-3.469430760881742071e-03,-5.090370890670109505e-02,-2.162950805886021746e-02,7.842866291378149460e-03,-1.345977419586654247e-02,5.863464474678039551e-01
5.303205531548564888e-01,-3.600108762129672346e-02,-3.622642830614827836e-02,-1.757476786172422955e-03,6.870666465649353377e-03,-8.472092485843314008e-03,5.667575001716613770e-01
5.151953346853470617e-01,-5.084147884116743676e-02,-3.899124788495811345e-02,-3.761082461161119328e-02,-3.546852473087565294e-02,3.593437610096585338e-03,5.673508048057556152e-01
5.329056840748334078e-01,-3.122652415069115950e-02,-3.723274220282626890e-02,2.984163959056413025e-03,-1.225300879473675765e-04,-1.015249278704841726e-03,5.671854615211486816e-01
6.105050441754926727e-01,-3.103780036410277998e-02,-5.278915078077722756e-02,-2.484629462345756823e-02,2.157590610770261305e-02,-1.632682773163025500e-02,6.557843089103698730e-01
5.262612852850068190e-01,-3.443238105851639808e-02,-4.494752196484688711e-02,3.886426421264219913e-04,1.222395029440590496e-02,-2.412360625743581899e-04,5.664209127426147461e-01
5.315211663796035602e-01,-3.882675146124672794e-02,-3.955706518049351139e-02,-9.452900788341023295e-04,1.881371874802546763e-03,-1.677676408310017431e-03,5.707324743270874023e-01
5.327871064718121552e-01,-4.458336249269731488e-02,-4.749614628549780893e-02,-1.025220020251606896e-03,1.484705845249174264e-03,-6.969286023284736436e-04,5.788420438766479492e-01
5.289561433324211359e-01,-4.593760679550298875e-02,-4.725901484902800265e-02,-1.298572051513051373e-04,6.103716647289695284e-04,4.789080026545014046e-04,5.755572319030761719e-01
5.294719170293806787e-01,-3.978575222215283147e-02,-4.006994977916611411e-02,-5.452351296230856931e-03,5.973375168536152217e-04,3.639775185291402272e-04,5.694794058799743652e-01
5.598362331023138960e-01,-1.324838819894932906e-02,-2.988002445891485559e-02,-1.006041330279365889e-02,1.210248139093550793e-02,-2.254445076031005510e-02,5.835252404212951660e-01
5.349442016619839757e-01,1.323864744600611321e-03,-4.548840454864508387e-02,-1.863807367289654904e-02,4.051159921295446539e-03,-1.095581534261707256e-02,5.597977042198181152e-01
4.838400601310524629e-01,-4.781266469346298620e-02,-2.964639429180757069e-02,-6.031096890556661948e-03,1.457498347198724065e-02,-1.240603822877439297e-02,5.239605307579040527e-01
5.215888945499468354e-01,-3.240122176666987430e-02,-5.790851207087524544e-02,4.166134916074338071e-03,4.207687045911245177e-03,-4.491814992198941286e-03,5.673201680183410645e-01
5.222397161961908063e-01,-4.888741444955627125e-02,-4.463029835584436666e-02,-1.039632259581439429e-03,2.381847781486139126e-03,1.339084680568468702e-03,5.690330266952514648e-01
5.191256675939870391e-01,-4.958830325053334431e-02,-4.576977564213774441e-02,1.188470770274500932e-03,-5.756433123666344345e-04,5.462629525490788132e-03,5.668979287147521973e-01
5.167076707502973321e-01,-5.589062429326982495e-02,-3.060788116319204666e-02,-1.287741570581527398e-02,6.139751620370512489e-03,2.906306434668283565e-03,5.609519481658935547e-01
5.222238787101882718e-01,-3.920237860939926322e-02,-4.190546321722748990e-02,9.174597420561082101e-03,6.121883525516805258e-03,-3.078216867384371731e-03,5.631320476531982422e-01
3.356331334587681070e-01,-6.188243184571950994e-04,-1.154613352029819351e-02,-2.328656914413489067e-03,-2.140828269389125592e-03,-5.741460085309089967e-03,3.420351147651672363e-01
5.293512234595046939e-01,-3.478971370893577109e-02,-5.378273768016564316e-02,2.750052129494834352e-03,5.412750214977900959e-03,1.509047098564564836e-03,5.739755034446716309e-01
5.080422296116617886e-01,-6.220465624886742373e-02,-2.906571120278556020e-02,-2.822376969400289346e-03,-1.281749269529155934e-03,-1.212756100251588011e-03,5.544506907463073730e-01
5.304741541835642504e-01,-4.186624335381258777e-02,-3.803443052982757866e-02,5.311144780847604739e-03,-3.575249205365200501e-03,1.050220754801332911e-03,5.705448389053344727e-01
5.206577781419018391e-01,-2.649962278499906621e-02,-5.902567509214851071e-02,5.172766421458809341e-03,1.097060520181581886e-02,2.263081231057688728e-03,5.645287632942199707e-01
5.416582644582925710e-01,-4.200721533554729881e-02,-4.122932732193615446e-02,-6.573685947372408939e-03,3.584532498183304328e-02,-2.366724851558764647e-03,5.866967439651489258e-01
5.297397727075376928e-01,-5.343401828090468819e-02,-4.521463401978903507e-02,3.436830099090708063e-04,8.392698875186114637e-04,3.243135040508878224e-03,5.791372060775756836e-01
5.153761924207306278e-01,-4.196897521260820052e-02,-4.085758569933270468e-02,6.809537772161824119e-03,2.159991906386312787e-03,-5.724658538045689256e-03,5.570160150527954102e-01
5.327535673060189714e-01,-4.719083688385058983e-02,-4.204187291281397121e-02,-6.082780162229839676e-04,1.719204794486169346e-03,-6.069262132470377297e-03,5.774914622306823730e-01
5.417611938382189685e-01,-4.206682880427309312e-02,-4.155577918849939767e-02,-1.590872953908586138e-03,-1.588197356774758134e-03,2.054433106147367900e-04,5.835857391357421875e-01
5.290559239383516577e-01,-5.216388196070972927e-02,-4.285093215169913372e-02,2.557151024228169079e-03,3.042764885842183346e-03,-6.954169944418319219e-03,5.767866373062133789e-01
5.428351900730238322e-01,-4.461557727540382823e-02,-4.349668477159904234e-02,3.104865782371938666e-04,-3.132517566969728355e-04,-1.675496716916019015e-03,5.868998169898986816e-01
5.416167411231664897e-01,-4.828531741207608974e-02,-4.358766834997035433e-02,-1.494995792718183027e-03,-1.421332850467137881e-03,-1.014828001449684077e-03,5.875808000564575195e-01
5.304972032546154681e-01,-4.882377884846786364e-02,-4.210606971163380341e-02,1.362510352918345309e-03,2.837272494362726594e-03,1.863026476793420115e-03,5.760263204574584961e-01
4.420447016761251957e-01,9.783392726607345602e-03,-7.213051184533705862e-02,1.200891115696876149e-01,3.689637401252788412e-02,1.767465397485842860e-02,5.265485048294067383e-01
5.324020940329393659e-01,-4.111695220939495798e-02,-3.268570662933331650e-02,2.268427273227579394e-03,2.017488973444058007e-03,1.175663534639732194e-03,5.693781375885009766e-01
5.397267316844532870e-01,-4.752659164307537765e-02,-4.211869884202731895e-02,8.575999371892810549e-04,-2.701541719255356458e-04,-2.443173371490743855e-03,5.845855474472045898e-01
5.333911435762783704e-01,-2.916928737150747963e-02,-3.030042030337812275e-02,-3.340124520875504925e-03,-5.594902804691799861e-03,1.429222395956602099e-03,5.632453560829162598e-01
5.417661527640739161e-01,-5.043885237458245463e-02,6.047199015208254425e-03,3.637593380229786188e-03,6.909226162639864333e-03,-2.575693994010347983e-03,5.662587285041809082e-01
5.327384298193394985e-01,-3.498797437922038234e-02,-3.131373789791519480e-02,5.650599606570301872e-03,3.550513521033343573e-03,-6.661637489264966849e-03,5.661338567733764648e-01
5.408780333174135757e-01,-4.199108667405526685e-02,-2.371110985856930697e-02,2.243567713402048070e-03,-3.940035469062255769e-03,-1.136620922623286008e-03,5.740045905113220215e-01
5.285323476504788509e-01,-5.579813121117596642e-02,-3.891191915981576099e-02,4.618356246896526338e-03,3.759045951155375737e-03,7.010114006152166465e-04,5.761666297912597656e-01
5.427615764462937475e-01,-2.043119858122621757e-02,-3.835833695480142524e-02,6.774019568833644298e-03,1.851587500841607795e-03,-2.693551360241582850e-03,5.725151896476745605e-01
5.296449065101205278e-01,-2.382020426278885772e-02,-2.150071952281878973e-02,-4.183897828438525035e-03,-2.744139647808199051e-03,3.709991247704518078e-03,5.524143576622009277e-01
5.357133869060664022e-01,-3.188794281310614043e-02,-3.259550906736491394e-02,-1.133443638058533130e-03,-1.168639329757428357e-03,2.182135953972414496e-03,5.679750442504882812e-01
5.352229732167379517e-01,-1.998606356242618731e-02,-3.863663232822603377e-02,6.412444639442750269e-03,6.197906076268020967e-03,-2.663210212630676144e-03,5.649953484535217285e-01
5.370980541873083824e-01,-3.902830498712975271e-02,-3.363650947700838612e-02,-2.974397333040392725e-03,-2.078671608981941948e-03,-7.644458638442370177e-04,5.734854340553283691e-01
5.288857634706369826e-01,-1.638419581558267502e-02,-2.839208105315485509e-02,1.838916169363723685e-03,3.864071558610101056e-03,-4.192940105129432105e-03,5.514696240425109863e-01
5.335496210340929801e-01,-2.877452731935872809e-02,-3.096733999395021031e-02,6.792725458895480534e-04,-3.201958484419601195e-03,1.309235685341511674e-05,5.634523034095764160e-01
5.322285503670037832e-01,-1.989429716328064424e-02,-3.076343986579643808e-02,-3.904452398169114529e-03,-5.466774489681579773e-03,2.145212848722663403e-03,5.577706098556518555e-01
5.351736561036564144e-01,-1.845822174854902520e-02,-2.895519078519076528e-02,-6.573273701600925931e-03,-8.291730265792893531e-03,1.090764611033839121e-02,5.595737099647521973e-01
5.321818952150769721e-01,-1.484873590079574535e-02,-3.538569458875465146e-02,-2.250233202947270455e-03,-3.063249224509781519e-03,7.292496033531587971e-03,5.577647686004638672e-01
5.282994629140906895e-01,-3.756707344783263847e-02,-5.269010471901333648e-02,2.523271710606858620e-03,4.200105201748394884e-03,1.479020752248300921e-03,5.736461281776428223e-01
5.328334215418356612e-01,-2.069835744851980519e-02,-3.437142783938026969e-02,-4.507374674495591947e-03,-6.399686614212863212e-04,-1.281891600136550111e-03,5.605532526969909668e-01
5.322982249534120580e-01,-4.212195952103939267e-02,-4.969905993028234104e-02,7.843159341592675741e-04,2.165722590752646587e-03,1.198383438781610785e-03,5.782634615898132324e-01
4.979725504365590805e-01,-4.321939284806725068e-02,-3.268005480990737732e-02,1.147333272584688188e-02,1.949444686146220226e-02,8.281108777166309304e-03,5.376213788986206055e-01
4.981838032124423776e-01,-6.157479385980027531e-02,-2.428671944197391408e-02,-3.791784673967983827e-04,-1.440839436285792289e-04,9.703993941201251435e-04,5.420803427696228027e-01
5.234273441339226673e-01,-3.673685982479243939e-02,-4.988917600857398216e-02,-4.906996255301835719e-04,1.416941987636985249e-02,3.000180183803910538e-04,5.673866868019104004e-01
5.358410276149033757e-01,-2.843877673049488575e-02,-4.482831351636970552e-02,-5.169719905455516518e-02,9.792702808133636749e-03,-7.903619431062111969e-03,5.800185203552246094e-01
5.005896334701552819e-01,-3.114507260649249099e-02,-5.769807605074905865e-02,-6.041714902265778913e-04,1.442380261116574421e-02,3.731128928196716758e-03,5.461071133613586426e-01
5.255183552927802371e-01,-3.736008069480814542e-02,-5.252061161598828298e-02,3.504350105386531359e-03,1.366750639582979716e-02,4.048292003258001717e-03,5.711759328842163086e-01
5.238267187777786438e-01,-3.830537536096687012e-02,-4.113005379974996045e-02,5.064664707538573708e-03,1.066540040760674069e-03,1.048489936728727270e-04,5.636210441589355469e-01
5.175833195547434595e-01,-3.839505437590362558e-02,-5.038691979196260884e-02,-2.310525456481731226e-03,2.777903279425791849e-02,3.089745136198560754e-03,5.641654729843139648e-01
5.174836311509226627e-01,-3.083321661307267259e-02,-5.849109946562394691e-02,-1.016549011435019870e-03,5.588031011217136843e-03,1.455264169274036795e-03,5.627474784851074219e-01
5.189342072215368251e-01,-3.418080316778929206e-02,-5.302408006466174939e-02,2.688064512448221869e-03,1.519341379148922075e-02,5.803675476226439686e-03,5.634971261024475098e-01
5.019054713591150074e-01,-3.197215135371583861e-02,-5.257632794792788111e-02,-2.827371483417247169e-03,1.246528076707245983e-02,1.018956704133326500e-02,5.452077984809875488e-01
4.827204375011453497e-01,-5.566384529493503819e-02,-2.430929017454280805e-02,-5.954337195548589775e-04,1.098937408502578036e-03,-4.940453432772807206e-03,5.234862565994262695e-01
5.236241481428733913e-01,-3.495360503113939532e-02,-5.886049279540403467e-02,1.789767649389865933e-03,3.819831411059876770e-03,1.771865240698655957e-03,5.709617137908935547e-01
5.312886261862928006e-01,-4.446490409269990285e-02,-4.518314600546549653e-02,-3.725889577688010950e-04,1.211537201094380458e-03,8.381278196218446041e-04,5.761190056800842285e-01
5.119994099366788065e-01,-4.853269446926347652e-02,-5.141783716874678833e-02,5.012404074488806954e-02,-4.626996813683192933e-02,-8.506280989692442326e-03,5.744552612304687500e-01
5.106270376867892979e-01,-5.039197470699441350e-02,-3.341012940061724446e-02,-2.055233040026565022e-03,-4.506915559093947689e-04,-6.132853814856513170e-05,5.527358055114746094e-01
4.794126771594098280e-01,-5.805557816730794185e-02,-1.712008518388311029e-02,-3.800498827982938099e-04,2.003974708173699316e-03,2.006014630429140723e-03,5.182382464408874512e-01
5.028318323828729897e-01,-2.738175460287756158e-02,-5.283585335551144180e-02,4.713686026363860665e-03,-3.135833837546830871e-02,-6.732651282944469157e-03,5.462812185287475586e-01
1.241871001219580217e-01,2.804894158158653672e-02,8.574002403105733527e-03,4.541154548083662507e-02,-7.234116886367271404e-02,-1.247175261200398656e-02,1.839758008718490601e-01
5.217298460967889628e-01,-4.072472695490941819e-02,-4.312734642269314134e-02,-1.391346825080887889e-02,6.706605779332238532e-03,7.583378913553745883e-04,5.642957687377929688e-01
3.769930537467920950e-01,-4.409013544107252824e-02,-2.082286774466848844e-02,5.637047819350678862e-02,-5.487965755893899761e-02,5.484587464613871650e-03,4.321034848690032959e-01
7.049962827374858243e-01,-1.512954605272157083e-02,-5.117463483254719447e-02,4.601079771848586714e-02,7.608496369485477639e-02,6.490593482174349116e-02,7.630161046981811523e-01
4.174907381684115348e-01,-1.192675513299149004e-02,-4.224429109916072456e-02,-3.060738903243640603e-04,-9.921126866376493714e-04,2.330049168265922732e-03,4.453728199005126953e-01
5.295719900223812004e-01,-5.491228359163466410e-02,-3.678938575383364218e-02,5.440213581420187336e-03,-1.695195938201744844e-03,7.827058010303999643e-04,5.757230520248413086e-01
2.757840142282695362e-01,-7.016039498415282960e-03,-4.798725142390006249e-03,7.556139674220864466e-02,-9.174271817129571460e-02,-1.676593199361487568e-02,3.501082360744476318e-01
3.369358923208196632e-01,-6.196148166846487948e-02,3.525171140981710194e-02,8.405291920089104363e-02,-1.591434327172449870e-01,-2.381740101288077824e-02,4.781922399997711182e-01
5.420450688327450584e-01,-8.993303994430185133e-03,-5.175102185805718902e-02,-9.847186726267779383e-03,2.784918723692241926e-03,-6.293274301069054846e-03,5.739910006523132324e-01
5.355182914069162026e-01,-4.188063090265492505e-02,-4.492350875197764770e-02,5.098894053205892465e-03,-1.044988508686755906e-02,3.514519654025328056e-03,5.793085098266601562e-01
5.223214214955498313e-01,-5.799577743553938070e-02,-3.492879820729979934e-02,1.912868094452201129e-03,-1.800253603781625856e-04,1.804327070967485461e-03,5.691527128219604492e-01
5.222434274015033129e-01,-5.418159759861243541e-02,-3.821600531719646088e-02,4.520517110577881425e-04,1.575845677641294403e-03,2.058511744431433445e-03,5.686286091804504395e-01
2.823126016232214708e-01,2.728395135271330374e-03,-1.125451500408870820e-02,3.066845303814168255e-02,-4.730419258263490051e-02,7.898161053363286777e-03,3.033053278923034668e-01
2.222583424877691005e-01,-9.832510255695314783e-03,3.240806732656433681e-02,-5.622555125587807949e-03,-1.137925629225400442e-01,-1.482072742490262753e-02,2.923128902912139893e-01
4.689999896122478695e-01,-3.686196924909507233e-02,-3.761822960071453670e-02,-1.372659881854626507e-02,-1.358630123339592613e-02,-1.269336881739698865e-02,5.078206658363342285e-01
3.309610288791123844e-01,-4.241909812818425718e-03,-2.764317069705757302e-03,-5.953420951537203047e-04,-1.038504740654647629e-03,1.047473266945782473e-02,3.349647223949432373e-01
4.739119208981158460e-01,-3.536161795496101101e-02,-4.833771709277970285e-02,-3.882268363488873553e-02,-1.671241755536912593e-02,-6.577405856190218260e-03,5.211771130561828613e-01
5.110848602904334292e-01,-4.762836751405127855e-02,-3.813358576412834156e-02,-5.774304101629640102e-04,8.762211386507754839e-04,7.075245751353957321e-03,5.541653633117675781e-01
5.300093935855669791e-01,-5.314693257466579501e-02,-4.147030733276110825e-02,1.221061428873843405e-02,6.150093760708098649e-03,-1.420506582018454681e-04,5.778920054435729980e-01
4.924484921599455722e-01,-5.304324772366897367e-02,-2.117692833444009826e-02,-1.185108492332438961e-04,2.820042517073545040e-03,-5.084458395174567581e-03,5.303728580474853516e-01
5.089541010554340383e-01,-3.582333142347104982e-02,-5.683612821234562684e-02,-2.370701531280101308e-03,-4.632613402487577824e-03,-5.354222219076280181e-03,5.557324290275573730e-01
5.057551299213023377e-01,-3.515402370961898115e-02,-5.619347031737154108e-02,-7.346571831140660076e-04,-4.306596098449618458e-03,-4.691205513865809654e-03,5.518415570259094238e-01
5.051363408846356595e-01,-3.746062160507931948e-02,-5.149655268904454464e-02,-3.131603477406337717e-03,-1.891892842842768938e-03,-5.477370709125816729e-03,5.498676896095275879e-01
5.257430726792978737e-01,-3.303520207711646561e-02,-3.140894571831234772e-02,-8.485373300756574640e-04,-3.346011508943561204e-03,3.879943125263332539e-03,5.580394268035888672e-01
5.362358605796333499e-01,-3.931949445382071362e-02,-3.942231431637954753e-02,6.400343641449158724e-03,3.966215077078361420e-03,7.218423803080258397e-04,5.757558345794677734e-01
5.135348811057920404e-01,-3.842498864416155069e-02,-4.289230543053179634e-02,-3.351519384444597537e-03,1.316403912344772220e-04,-1.276192377891717479e-03,5.542418956756591797e-01
5.289864077093606731e-01,-2.169361402777761350e-02,-2.389767213654950262e-02,1.101515265262621290e-03,2.961919449388401306e-04,-1.330059865191579810e-03,5.517936944961547852e-01
5.171853565789401586e-01,-3.859791957467978429e-02,-4.368657171120843286e-02,-3.402632694718483097e-04,-8.694597596185059526e-04,-6.963767806004375486e-04,5.583486557006835938e-01
5.357649112565571192e-01,-2.095121396286267479e-02,-4.073442449315275993e-02,-3.194297358634984579e-03,5.859543106348820418e-04,-2.341557341257159003e-03,5.669091343879699707e-01
5.118056299818581900e-01,-3.947197138778896219e-02,-4.976826609164727855e-02,-7.343006958099377625e-03,-7.801419835057522671e-03,-4.831858309991880762e-03,5.568693876266479492e-01
5.532017090519416591e-01,-8.734631912633294970e-04,-4.550667490199145071e-02,9.201935910044105674e-03,4.942767336947525257e-03,-2.154049863228245723e-02,5.791725516319274902e-01
5.143854468389192913e-01,-4.016064662972954058e-02,-3.780907437584693498e-02,-1.342334761146352952e-02,-3.807430023931367407e-03,-4.211329173250151839e-03,5.539495348930358887e-01
5.074366926668992805e-01,-6.115817347607480081e-02,-3.238457398119148900e-02,-8.514822561095173323e-05,6.985417630293367687e-04,-3.825676707021163480e-03,5.548089146614074707e-01
5.269916659718998364e-01,-4.626093512760276472e-02,-4.623003703435524248e-02,8.237046242745923877e-04,5.992050828446188670e-04,-2.820315659916025210e-05,5.732398629188537598e-01
5.337722534375193284e-01,-2.083654804067905375e-02,-4.122291959278617801e-02,-3.816204164357901545e-03,1.989596322156776675e-03,-2.171918851428388409e-03,5.651395320892333984e-01
5.422867282891667973e-01,-5.516121634898293880e-02,5.357035123851272562e-03,5.113433620985280252e-03,3.613695913967623907e-03,-3.050193550862229726e-04,5.697085857391357422e-01
5.161627494276355144e-01,-4.268607773728591570e-02,-5.155575503828926931e-02,-1.041460905721461935e-03,-2.301727870379553960e-03,-3.504917681330124019e-03,5.633857250213623047e-01
4.879093783075258983e-01,-5.862374192853553323e-02,-2.846646549928452674e-02,1.369373534899936853e-04,-2.335112165766564511e-04,4.031138902998662905e-03,5.321418642997741699e-01
5.175592249712896997e-01,-5.913508448446511134e-02,-3.266406171522540092e-02,7.858714700200311945e-03,1.014802518768261400e-03,2.925578072909921449e-03,5.641146898269653320e-01
5.263411290564501410e-01,-3.959845776384471328e-02,-4.099840732586640391e-02,-5.896726643840974162e-03,2.918717519164084045e-03,5.067536629166278193e-04,5.667561292648315430e-01
5.163807959380602997e-01,-3.475568463615252845e-02,-5.624135167286506420e-02,1.680743331648961066e-03,3.762703700239253463e-05,2.731756629415329866e-03,5.622147917747497559e-01
5.171410250300254585e-01,-5.738299799969712178e-02,-3.432774994425916160e-02,4.726222788840182712e-04,-3.656851548516911279e-04,1.164679415094386442e-04,5.633513331413269043e-01
4.907142399767792096e-01,-5.486869223654705641e-02,-2.602194870857152398e-02,2.007005173778056081e-02,3.433806439063405175e-03,8.147788344501189720e-04,5.329168438911437988e-01
5.165991419787268057e-01,-3.477578394684299745e-02,-5.777743292175863132e-02,5.259001568277848516e-04,3.367593664306439173e-04,5.634293421199225958e-03,5.633137226104736328e-01
5.116161627338517981e-01,-5.706718731734702899e-02,-2.791412464798767590e-02,8.416279639017197264e-03,2.762932016079215711e-03,-9.892221598614789769e-04,5.548965334892272949e-01
4.539014629404229950e-01,-4.463230558418077032e-02,-2.116532386193173410e-02,2.247038018334002185e-02,2.502254996057426840e-03,4.423255328243429034e-03,4.888555705547332764e-01
5.141586835585949533e-01,-5.539752499427577637e-02,-3.850387528009316385e-02,-1.999680131304422404e-03,3.379177738489765569e-03,1.469890979638863908e-03,5.613470673561096191e-01
4.488555645189613585e-01,-4.515212731003212521e-02,-1.636409111134920491e-02,2.010326114514785281e-02,1.262927772871699859e-03,2.758820223776155094e-03,4.815504848957061768e-01
5.062797172273495461e-01,-5.790634720742596220e-02,-3.005503962760630587e-02,7.757007489596356303e-03,1.747647296771628932e-03,1.200591032407423951e-03,5.509648919105529785e-01
6.239138359333573636e-01,-8.529510923151017998e-03,-7.138262431775532768e-02,-2.281407663197085323e-02,8.123521114942955368e-02,-5.796791023166056323e-02,6.892937421798706055e-01
5.166814814112526966e-01,-3.448656051223833452e-02,-5.866029113503756776e-02,1.702499263168931855e-03,-1.283052066516047628e-04,1.689711178184834500e-03,5.636591911315917969e-01
4.910377469075600798e-01,-4.168598778162274643e-02,-3.269351872381145996e-02,4.849866946682535040e-02,-3.450630639890744922e-02,4.209037531736691679e-03,5.382996201515197754e-01
5.188153903579068027e-01,-4.315459828938741915e-02,-4.793711608636722077e-02,1.949228337631564445e-02,2.862195614237503846e-03,-1.265436102809476375e-02,5.658317804336547852e-01
5.168061594673218906e-01,-5.317189402297892165e-02,-4.092936293076787635e-02,-8.342695381567037313e-03,5.632880122848523720e-03,6.155941052685355921e-03,5.643266439437866211e-01
5.018577946144395785e-01,-6.182490690014616486e-02,-2.717530551219676793e-02,1.335401327575406907e-04,9.270313493940047578e-04,1.576553608817064323e-03,5.471905469894409180e-01
5.254524605340407106e-01,-2.174098677920208167e-02,-2.180078569755691809e-02,1.184002945012393396e-03,3.499570983809389014e-03,3.879293107750109854e-03,5.473020076751708984e-01
5.251253446639885247e-01,-2.766097581966991958e-02,-1.527659915000725843e-02,2.650534834180593379e-04,1.766145292093650101e-04,4.148771431941501546e-03,5.467468500137329102e-01
5.387697586817569162e-01,-1.136625932189730404e-02,-1.048691594885470257e-02,-1.830791011846589350e-02,-1.625639017540862416e-02,3.347187573243529113e-02,5.543699860572814941e-01
2.832059669046309569e-01,-8.582266277634156837e-02,3.222291523130134394e-02,-8.529384385663342505e-03,-1.089041404617831083e-01,-1.658999142976218255e-02,3.783899545669555664e-01
4.975488035683793275e-01,-3.402478375541354016e-02,-3.542443702756448154e-02,1.093726916822399496e-02,-2.619048291260774389e-02,-4.296859725625205850e-03,5.345919132232666016e-01
3.839141056113460349e-01,-1.229496554434918176e-02,-3.435851825351762812e-02,1.793437270197756686e-02,-6.522329799963505481e-02,2.044017761259916618e-03,4.242050349712371826e-01
5.191843039912857893e-01,-6.141601610580199599e-02,-3.254869244183811183e-02,4.585971182779169722e-03,1.702726774404868682e-03,8.640610318318693410e-04,5.667836666107177734e-01
5.218795843712948912e-01,-3.478283142948679352e-02,-5.367175812009536418e-02,3.467248585824477284e-05,-9.434407377792926623e-04,-3.298511966074136009e-04,5.663458108901977539e-01
4.703163224807358489e-01,-2.448880840810571669e-02,-4.738392722700490722e-02,1.880799116780497438e-02,8.573067390150670986e-02,9.942323380644278556e-04,5.289596915245056152e-01
5.214323745880012906e-01,-5.433830335735406747e-02,-3.709589923071113238e-02,1.810070666088855386e-05,9.195794387737388177e-04,1.907410357578646605e-03,5.673578977584838867e-01
4.200482999441523813e-01,-2.297426169676856922e-02,-3.393660383934647695e-02,-1.197385151052511240e-02,6.010750430841092090e-02,5.074537660496789698e-03,4.610768258571624756e-01
5.391808326710267885e-01,-4.129790196588337126e-02,-3.777316831747024040e-02,-4.882766158609141635e-03,9.775851595825658295e-05,-1.696111644968226325e-03,5.787937045097351074e-01
5.108776584002164833e-01,-6.068680535788711916e-02,-2.744008843030978917e-02,-2.085448420915165949e-04,2.772283704858013420e-05,-1.017593925045141194e-05,5.556876659393310547e-01
5.314386657545284720e-01,-3.597198735106912904e-02,-5.301621381225415930e-02,9.439879505635606714e-04,6.107430631145342216e-03,-1.637508779180882118e-03,5.762283205986022949e-01
5.396027817744565303e-01,-3.976344808555329347e-02,-4.233140059500378749e-02,-2.061537213285201571e-03,7.955840752158057022e-04,-9.179144080059433016e-04,5.806692838668823242e-01
5.408974971106536023e-01,-5.267704541037945831e-02,-2.096001572813577241e-02,-2.996618402484388204e-03,1.189525417808760289e-02,8.071450392918784510e-04,5.787604451179504395e-01
5.116012779407259625e-01,-4.854767780657678888e-02,-1.792676030114742636e-02,2.837326464732546540e-03,3.566666436529380285e-02,2.566386305368850360e-03,5.490104556083679199e-01
5.119626748168584207e-01,-5.173645023673270615e-02,-4.035275846227057150e-02,4.942276495378851442e-04,3.071836431917810751e-04,1.015687306344869797e-02,5.583724975585937500e-01
4.485480813963974578e-01,-1.393222664637078223e-02,-5.174501722231808487e-02,8.739154521517762631e-04,-1.655836133083633116e-02,8.073945008729810726e-05,4.833532571792602539e-01
5.916416409791545039e-01,4.153245096548949244e-02,-1.174448990080399491e-01,-1.914462267015127617e-01,6.065506444577607736e-02,-1.154360784208232141e-02,7.326259016990661621e-01
5.774037603685886477e-01,-1.909215092217789178e-02,-7.263444885963268871e-02,-4.547883919452271051e-02,9.648786116768684473e-03,-2.012013152152287293e-03,6.301653385162353516e-01
5.341828091417051283e-01,-4.431353635524210022e-02,-4.148358230897844501e-02,7.620193765069444361e-03,-1.009699842393227409e-02,1.511398269793533548e-04,5.775024294853210449e-01
3.243837222574738055e-01,-2.607265739407574334e-03,-3.095954085328013472e-02,-1.037210333993581445e-02,-5.359625416417411470e-02,-3.231091751543554557e-03,3.549219965934753418e-01
5.179313115930607170e-01,-3.592398790148743082e-02,-6.101222770411265928e-02,1.790980646114768851e-03,-1.750809837861916698e-02,4.579808288748390748e-04,5.676356554031372070e-01
4.383385454691468563e-01,-1.414148660824315895e-02,-4.524590753719201497e-02,1.362849956733573186e-03,3.801628509301162155e-04,-3.516145029675972217e-03,4.688527286052703857e-01
3.968222433477199274e-01,-8.094353250946192957e-03,-1.806195161043520903e-02,3.596417758869523509e-04,-1.144229516709971113e-03,8.709992528131186088e-03,4.102739989757537842e-01
4.961334224050815145e-01,-3.010234250115439991e-02,-4.948848468322664118e-02,-1.537593494730522467e-03,-1.084815075200252013e-02,-6.532233171518332659e-03,5.366467237472534180e-01
4.492840470330498603e-01,-2.020897547864164423e-02,-4.864549898932360450e-02,3.112931077245406023e-03,-3.762859337931256931e-02,-4.586002085535757777e-03,4.887974858283996582e-01
3.610878240547050200e-01,-3.977310138624454150e-02,3.237845867517863407e-02,5.962243772684657633e-02,-8.839319737946541022e-02,-1.672162069139359816e-02,4.146275520324707031e-01
5.284057665282237970e-01,-1.701724218045713721e-02,-2.289436759245822017e-02,-3.462434675302128798e-04,6.881821397459196620e-04,-4.351386470312457871e-03,5.484386086463928223e-01
5.450851002873082773e-01,-6.825271636341109782e-02,7.087986353934705441e-05,2.767072643081084152e-02,-2.397200612543006967e-02,-9.977933407033335450e-03,5.858887434005737305e-01
3.079752779243465355e-01,-1.716916717474706311e-02,2.434410068108266989e-04,-8.326534690476505851e-02,-2.063022019272179458e-02,-6.344001753609808392e-03,3.500820100307464600e-01
3.602880224097089190e-01,-3.695785801241710522e-02,-2.308814379027059049e-02,-7.713987785184174550e-02,1.567931554509570044e-02,-9.723922127347739419e-03,4.139563143253326416e-01
3.939021759760151786e-01,-3.549320657378154942e-02,-4.695438714730937324e-03,-3.083743824275323592e-02,-1.674481930820435720e-03,-9.030503436171196871e-03,4.185813963413238525e-01
3.860980626603602861e-01,-3.874776051847170222e-02,-9.296992644457061084e-03,-3.131382571166366896e-02,-3.351911522069126164e-03,-2.652432539103296433e-03,4.145428240299224854e-01
5.362164782971595711e-01,-2.114369450047115517e-02,-4.376270661724906974e-02,-7.716113788756026777e-03,1.988067184079663017e-03,-1.462619078645925347e-03,5.691799521446228027e-01
5.494261416461300174e-01,1.649111040221165614e-02,-5.339984534276739914e-02,1.564788964972240251e-03,-6.462213479289016099e-04,-5.538792184722358784e-03,5.711851119995117188e-01
5.400766022633634034e-01,-4.251440324324118336e-02,-4.952879286952316384e-02,-2.983973244470949915e-02,8.776559937346495310e-03,1.516684947293871948e-03,5.886061787605285645e-01
3.416240663829376301e-01,-1.990426961497444858e-02,2.519610538221431217e-03,-1.878721401623193550e-03,1.356929525345525536e-02,-1.489155117055479278e-03,3.516650795936584473e-01
3.106506116115458349e-01,-7.512273506395217293e-03,6.813122752883593591e-03,-3.761736335312489132e-02,8.763039385485916436e-04,4.334634920027516380e-03,3.180862963199615479e-01
2.468052778359549615e-01,1.280169986958248907e-03,1.463957908539900710e-02,-3.834876047505752367e-02,-1.315632700172537396e-02,-2.178212673813142552e-03,2.492516040802001953e-01
5.312447297191859041e-01,-4.348077675063577452e-02,-3.944544793661444726e-02,-9.465413466963140676e-03,8.659166752780616746e-03,2.286587770239493795e-03,5.731630921363830566e-01
5.940545148525322450e-01,-2.020828258320089832e-02,-7.282485912384403792e-02,-3.016625950186083496e-02,2.467439920114432306e-02,-9.075519319887532035e-03,6.459189653396606445e-01
3.094936281771087372e-01,-2.606537011283813210e-03,8.517648384439663323e-03,-3.709913199526868044e-02,-2.048666149039412437e-02,-3.180939582554299754e-03,3.153995871543884277e-01
5.084456198330609134e-01,-4.313128742476837751e-02,-3.320132730907765506e-02,2.462445592621176696e-03,8.653760619601284787e-02,7.259950780625692816e-03,5.670107007026672363e-01
5.207717052227339716e-01,-6.044824822109137741e-02,-3.665965559779382765e-02,-8.065431884577421370e-03,5.104793872937585762e-03,1.843081682935908665e-03,5.699470639228820801e-01
5.199598943056820133e-01,-3.643071615452417311e-02,-5.132548729345073890e-02,-1.410946891683916319e-03,3.574716900102122528e-03,7.163168567690286249e-05,5.640248060226440430e-01
5.219635252873440212e-01,-3.950341708257357198e-02,-4.710538128295399529e-02,3.265954181340599387e-03,3.621946612398350800e-03,-5.161630218747811916e-03,5.654400587081909180e-01
5.092242594436321435e-01,-3.216532803818747399e-02,-5.295544758670117647e-02,4.701101194970632585e-03,6.543076073595802296e-03,-5.415553838797711010e-03,5.523343086242675781e-01
4.704331562494915575e-01,-2.454193320649547538e-02,-4.587522768686277952e-02,1.343430820107861107e-02,1.812337502588785496e-02,-4.452934055189173082e-03,5.075442790985107422e-01
5.100226699899943483e-01,-3.329968033633420865e-02,-5.754270696627392101e-02,1.315928109707280649e-03,9.935151230599247735e-03,-2.642747834906330247e-03,5.561303496360778809e-01
5.373332180228992394e-01,-8.634439967564577767e-03,-4.255595711595208663e-02,7.108071330745444581e-03,-3.026012881317206513e-03,-4.384290123333538583e-03,5.639043450355529785e-01
4.930366632079412614e-01,-5.898269482304102640e-02,-2.428651188357042190e-02,-5.924943526981959162e-03,2.422075438208659559e-03,3.378145532416540042e-03,5.356616377830505371e-01
5.231697712134847356e-01,-6.056254027672611229e-02,-3.232185369244583439e-02,-7.959475848863551209e-03,1.101506943885701513e-03,1.709164111982115850e-03,5.703142881393432617e-01
6.437951984593961452e-01,2.772178139805595021e-02,-1.000164432469601294e-01,-2.227535204501861210e-02,2.226788242653302777e-03,-4.003382075719083555e-03,6.900081038475036621e-01
5.874500035037796275e-01,3.161984502879108816e-02,-7.384037508185761767e-02,-8.961400232268362798e-02,2.426940015249300087e-02,-3.770563610878397559e-02,6.393834352493286133e-01
5.274595430800945728e-01,-3.924428748193239946e-02,-5.041442691451036850e-02,-3.640480811660452474e-04,7.291594285911297442e-03,1.800821337233913079e-03,5.725188255310058594e-01
5.035839827568920901e-01,-6.335423199914605452e-02,-2.827513445491577904e-02,-2.888537790458011595e-03,1.211001737196683433e-03,3.575613859646978115e-04,5.502650141716003418e-01
4.631827125536420176e-01,-3.385081246303911495e-02,-3.419197012962313376e-02,-9.525227381444442698e-03,1.462049731843870042e-02,1.111874513165688610e-02,4.984940886497497559e-01
5.241144385173859277e-01,-4.362427923538822472e-02,-4.294466669096222433e-02,-1.583150113551040628e-02,6.565930524698282422e-03,-5.105627011453582392e-04,5.681759119033813477e-01
5.508292527455567189e-01,1.380625889504230597e-02,-4.715480767896787495e-02,-2.721511773938293903e-03,7.529868953630884654e-03,-2.210282385638480396e-02,5.714064836502075195e-01
5.977933613482943054e-01,-1.062829404739248917e-02,-3.294222392963463975e-02,1.854923238155085571e-02,-5.117046131072458537e-02,-5.991818206561289745e-02,6.355384588241577148e-01
5.206888737124593103e-01,-6.149106546061156031e-02,-3.007287713202855262e-02,4.884210767158674200e-03,-6.583831207299968699e-04,4.666274212104095450e-04,5.671887397766113281e-01
6.735025529410091361e-01,1.345311893343240084e-02,-1.205273596165648553e-01,-1.934697256585864861e-02,9.776379735619557254e-02,-3.708632273399394691e-02,7.589282989501953125e-01
6.285651247114727447e-01,2.814292537618343082e-02,-9.221189313965741374e-02,-4.303492230126517576e-03,1.941899236338084575e-02,-8.777729266714042952e-03,6.698311567306518555e-01
5.205815343278678009e-01,-6.002305093189524987e-02,-3.079735372480391087e-02,3.330299350178725967e-03,1.360421333288379647e-03,-1.884445662563695803e-04,5.665917396545410156e-01
5.404493316568153016e-01,-4.195138057474731563e-02,-3.900553128534375857e-02,-3.209023194060572817e-03,1.003334200817571163e-04,-7.768888807610298567e-04,5.809615850448608398e-01
5.852359220449069310e-01,3.857237536204041750e-02,-1.032184180254957506e-01,-7.832334756202387338e-02,5.119347458753056163e-02,-2.293753781397460736e-02,6.513845920562744141e-01
5.939392720740270804e-01,1.684811827143437024e-02,-5.759407362117363594e-02,5.658384573744508483e-02,-1.510894848988575227e-02,-4.611807072008557856e-02,6.310359835624694824e-01
5.169699048959083276e-01,-4.704841171988105586e-02,-4.339731468172247641e-02,-2.432728650456705312e-03,3.497358217257530433e-03,5.824392243232255802e-03,5.623405575752258301e-01
4.723419906832783122e-01,-4.521617787853990378e-02,-2.887525858891293318e-02,-5.015938418746407508e-03,1.122017013412789609e-02,1.109805174710879958e-02,5.103908181190490723e-01
4.902829870911680210e-01,-5.240643513671891518e-02,-3.272031703097266764e-02,-9.915901847550062653e-03,3.582604252960247017e-03,6.907162926167946700e-03,5.335658192634582520e-01
5.428490576865688810e-01,8.733031394474982667e-03,-5.183928486697655935e-02,1.260468953272263215e-02,8.226468499595621618e-04,-2.173429390361526683e-03,5.672692656517028809e-01
5.161905327346165695e-01,-5.257542395442837968e-02,-3.442710707501578371e-02,-1.999420413801415025e-03,3.792222186253079406e-03,6.450772384210563988e-03,5.600731372833251953e-01
5.325046250182993157e-01,-2.530652519343823403e-02,-2.712192519445258410e-02,5.695694909105600539e-04,-1.037961657962834205e-04,-9.585005721635900949e-04,5.587244033813476562e-01
4.987025281937025878e-01,-5.288693707053346293e-02,-3.327144781153137942e-02,4.008459038829006982e-04,4.009464236070105214e-03,7.356994772464632570e-03,5.422426462173461914e-01
5.022800668225320120e-01,-4.735777022091955391e-02,-4.357330097982969885e-02,-6.162432772239652239e-03,5.345948482413264390e-03,7.706118655641804385e-03,5.481001734733581543e-01
5.302977384766318636e-01,-4.040025530924798436e-02,-4.782230303122222970e-02,1.244788034772542764e-05,1.053015635562895222e-02,4.317107141722572629e-03,5.747830867767333984e-01
5.298947823616975139e-01,-4.027844940850575095e-02,-4.417854214145544578e-02,1.383154633875589487e-04,-6.025938364155210541e-04,1.963554347372940476e-03,5.721443295478820801e-01
5.389475470427529391e-01,-4.529156813633883338e-02,-6.260383518846418527e-03,2.290589178621342537e-03,-1.291941768158162522e-02,-9.779573753327931024e-03,5.664438605308532715e-01
5.133041631341618283e-01,-3.771808085310390801e-02,-5.181665388739506439e-02,-2.992903298204221290e-04,7.247211242758512008e-03,6.462450940818788118e-03,5.584586262702941895e-01
5.315165754258130981e-01,-3.742028821094539603e-02,-4.930223622823967644e-02,-1.701007431225422760e-04,9.130246433904818174e-03,5.642368646654667350e-03,5.752704739570617676e-01
5.234513917069212319e-01,-3.724990097051386617e-02,-5.051093368581313636e-02,1.998052856036027815e-03,1.800879274766578955e-02,3.773635972347435651e-03,5.683528184890747070e-01
5.286132471394983101e-01,-3.844448638022321396e-02,-4.247878491233350595e-02,3.055073980085354184e-03,-8.312135018498715807e-04,1.641860827454151507e-04,5.691121220588684082e-01
5.212353755759727703e-01,-3.712531778289759887e-02,-5.435988079176248822e-02,1.633305012794294747e-03,8.728558295560505178e-06,1.070137921241573128e-03,5.671845078468322754e-01
5.182475283421409396e-01,-5.582464788544727607e-02,-3.486307967782126260e-02,2.004115184579284906e-02,4.414942816789339114e-03,-2.704443041780693873e-03,5.650222897529602051e-01
4.718276586805587591e-01,-2.834529748185576903e-02,-3.837697203135131963e-02,1.706670269479820812e-02,1.679683129425720706e-02,6.499267508222887797e-04,5.069642066955566406e-01
5.445806902273967465e-01,1.394690170131235307e-02,-5.446496234434988759e-02,-9.653312037158594608e-03,1.619550329785892587e-03,5.777142544650213252e-04,5.681923031806945801e-01
4.945402373127018025e-01,-1.043130989982132828e-02,-4.011392463308230405e-02,2.033481772139441104e-02,1.549027018446551968e-02,-6.262383854438983814e-03,5.224406123161315918e-01
5.022956418178052829e-01,-1.380535289201348381e-02,-4.784684518270787557e-02,2.788019255748668337e-02,4.590104979996682127e-03,-1.744484613384377717e-03,5.361829400062561035e-01
4.999775483749293592e-01,-4.622390216274924191e-02,-3.472405567163880380e-02,1.940039536211949961e-04,-1.473855913412378438e-04,-6.925031150166666323e-03,5.406765341758728027e-01
4.752623052111637492e-01,-5.217505301844624355e-02,-2.381211570203312089e-02,-1.721500334161407686e-02,-3.311397678250478996e-03,5.680606728888240066e-03,5.148336887359619141e-01
5.269686608601873434e-01,-2.912566175577091521e-02,-3.952073577314454966e-02,-1.666757999018077295e-03,-3.052620980802029250e-03,-3.931837023664261615e-04,5.613967776298522949e-01
5.105154519513985800e-01,-2.705978831452021671e-02,-3.649623996608442056e-02,1.580661613673193557e-03,1.866889650595306626e-03,-1.530651376059919376e-03,5.423780679702758789e-01
5.417237507199916813e-01,2.516125474506436532e-02,-6.198675095855898931e-02,-1.032420463865530713e-01,-6.164821685143189595e-03,3.730997096179671652e-02,5.964192152023315430e-01
5.356916526534067913e-01,-4.420964204279323462e-02,-4.023422012143823556e-02,2.534347467200951699e-03,-1.740703590154739442e-03,-1.649951618053084167e-03,5.779554247856140137e-01
5.358355737107720618e-01,-4.730516610955703971e-02,-4.027712998561516766e-02,-8.202520396656775821e-04,-6.741569208955176936e-04,-1.149414163798832215e-03,5.796650052070617676e-01
4.862099135066095812e-01,-5.180484276062072291e-02,-2.355675647978658360e-02,-5.917216646772937433e-02,1.545681039840519910e-02,4.457185718976745988e-03,5.351077914237976074e-01
4.994289888098401575e-01,-6.025590073835004890e-02,-2.577696439121962557e-02,-1.552763106813982111e-03,3.146559944836822549e-04,-5.872514639118452508e-04,5.432745218276977539e-01
5.182732332780249918e-01,-3.905523504660199374e-02,-5.231411470115895912e-02,-8.403615558191686579e-04,9.179190423695748674e-04,-9.675115814578873728e-04,5.640813708305358887e-01
5.245516701763702772e-01,-4.495050962769076008e-02,-4.871615260271508485e-02,4.646053326534775596e-04,1.955249999880093702e-03,4.682935989734633708e-03,5.714624524116516113e-01
5.187806182183072323e-01,-5.385662929742213167e-02,-4.025447136730686548e-02,-4.232279086578289926e-03,3.644573691053414055e-03,5.697216741768127563e-03,5.661274790763854980e-01
7.549024463531699425e-01,2.111954098312737726e-02,-1.146179088253051759e-01,-2.243091840895423961e-02,7.474459750106809963e-02,-1.787980609629309312e-02,8.220052123069763184e-01
4.895996423092560113e-01,-5.982665711774068362e-02,-2.350295520464212862e-02,-7.940633674240854881e-03,-4.460521660269854043e-04,-2.172459218157195716e-03,5.323864817619323730e-01
5.251644861102913175e-01,-4.997762012302608969e-02,-4.346090119523357553e-02,-8.422641982813976061e-04,3.867424910028704251e-03,1.955848409348364715e-03,5.719627141952514648e-01
5.050474788061324327e-01,-6.075132429385876609e-02,-2.837126890795027556e-02,-3.916824506793712855e-04,5.221332881765746543e-04,-1.928868406305367204e-04,5.503249168395996094e-01
5.276501457944842155e-01,-4.883353184127003921e-02,-4.351583129055885957e-02,-2.870203724270503805e-03,2.836442261173550018e-03,2.512922119274354181e-03,5.739023685455322266e-01
5.126262795072680234e-01,-5.880611226590501395e-02,-3.320004193371031698e-02,-8.238243204206453091e-03,6.233440066274616685e-03,-9.982077042537350602e-04,5.593582987785339355e-01
5.296159212630042745e-01,-4.529061846858181695e-02,-4.729607635230068108e-02,8.339619262674368089e-04,-3.646840562004389764e-05,1.933434541624383786e-04,5.759137868881225586e-01
5.248650856977971069e-01,-4.228295551793945228e-02,-4.053326060213313653e-02,2.301174260743031781e-03,4.263983185896485541e-03,1.205005997286744601e-03,5.663412809371948242e-01
4.578891264801220329e-01,-3.566152333286973231e-02,-3.513538514418415581e-02,-1.441187339842949118e-02,-2.874795535198994625e-02,-1.715712131556581047e-02,4.973111450672149658e-01
5.141374583856672675e-01,-5.890032223879732021e-02,-3.367968059662324043e-02,-7.536300419150970126e-03,3.616427085077054851e-04,4.600888062287574647e-04,5.610057115554809570e-01
5.595864546751615487e-01,2.051023234715748655e-02,-8.885320997662551901e-02,-1.735472528117721625e-01,-2.779011337589543801e-02,4.753419347501943587e-02,6.789478063583374023e-01
4.868070048797147331e-01,-3.667074573477732691e-02,-4.213701792629692688e-02,-7.934047066199647388e-04,7.176095554118505811e-03,9.710012126616819964e-03,5.266493558883666992e-01
5.085581167413926185e-01,-5.703168096818503341e-02,-3.338402037731605376e-02,-1.665957795307767804e-03,-7.322802185983299508e-04,-1.359349347318719071e-03,5.541585087776184082e-01
5.186999559589346998e-01,-4.394490273629336752e-02,-4.289014789163625441e-02,-3.608326178687524654e-03,4.131370901609414392e-03,4.324939078676614569e-03,5.622484087944030762e-01
5.259249197021227396e-01,-4.125344833074673367e-02,-4.883957963200882824e-02,-1.783554319866376353e-03,7.355975682247993183e-03,4.131445220188077055e-03,5.712045431137084961e-01
5.177182094986054750e-01,-6.116255921705768261e-02,-3.236744542356331800e-02,-1.459853397717944838e-03,-3.702133454305306295e-04,3.377440157673376958e-04,5.650401115417480469e-01
5.254683349257522895e-01,-3.859974443404312616e-02,-4.898391493180184741e-02,8.505506340793500542e-04,6.648192846947321120e-03,4.165881503362058383e-03,5.694952607154846191e-01
5.296907377669638484e-01,-3.492816411507518315e-02,-4.297320849133570708e-02,4.433917043828299607e-04,-6.235075161711228038e-04,-1.122235724579269921e-03,5.686889886856079102e-01
5.266645401677421123e-01,-3.472653781287354802e-02,-3.834165130275055122e-02,8.597518050453746173e-04,1.366470348834641349e-03,-9.972108796744976345e-04,5.632169246673583984e-01
5.311074335545664660e-01,-3.798683078207965025e-02,-4.204785993440549041e-02,-3.618508864403993143e-03,6.786939109047417443e-03,2.140620955636716657e-03,5.713030099868774414e-01
4.424699034349012239e-01,-4.190001116686620231e-02,-1.901775619478524026e-02,-1.803411222991499821e-02,5.224190853508131442e-03,1.050452022907814344e-02,4.748083055019378662e-01
3.177005196902298323e-01,-4.228550121571000853e-03,-2.063045820466075098e-02,-9.845432811837635800e-02,4.596457694582804787e-02,-2.605964275649890957e-02,3.829398155212402344e-01
3.243440515879008612e-01,9.339976283926493261e-04,-3.888881495533282051e-02,-1.078798666289406405e-01,4.726613012091616245e-02,-1.525717274979688891e-02,4.017136096954345703e-01
1.779104962938432288e-01,5.918586722330664018e-03,-7.008724869217615450e-03,-1.088352243604706060e-01,1.582951956731764101e-02,-1.932582313313056799e-02,2.633993625640869141e-01
5.310756249759744918e-01,2.530572802783595532e-02,-4.606142069736804401e-02,-2.807740292443178156e-03,1.864259354691886810e-03,7.754385194499487620e-03,5.451663136482238770e-01
4.270579786180176973e-01,-4.520822339582478144e-02,-8.078003654329313221e-03,-3.708236512195193374e-02,2.153562473190316628e-02,7.601913483638803558e-03,4.610517323017120361e-01
5.152414581355804213e-01,-5.614525028065761592e-02,-3.042680513352519212e-02,4.198813592078814712e-04,1.565415086728695311e-03,-2.471426366481317824e-04,5.589786171913146973e-01
5.351876005591961194e-01,-3.133624741186272211e-02,-3.463168165816304933e-02,-4.438103126137135993e-03,-4.767090929576727094e-03,1.657453905258021677e-03,5.682979822158813477e-01
5.330082590991185310e-01,-4.060295200331709431e-02,-4.897464328477299511e-02,-2.388050987991671616e-03,-1.519747323463867998e-03,-1.643983235156782404e-03,5.778703689575195312e-01
2.802651785179709476e-01,3.074732868414081777e-02,-9.853832193844939968e-02,-1.106640292781947699e-01,4.216448417558888578e-02,-2.579650486963244727e-02,3.940843939781188965e-01
5.378657064799368115e-01,-1.712530654052274448e-02,-4.338078449270676984e-02,1.312087413228284205e-02,-1.545348091915627010e-03,-1.105887560302573711e-03,5.690371394157409668e-01
9.177091474191840792e-01,-3.085972999515662618e-02,-7.700309290169760068e-02,3.777735448150496000e-02,6.569191471466448440e-02,5.915067316184759172e-02,9.866135716438293457e-01
3.101900792606541724e-01,-1.368638029882059126e-02,1.728409302282576943e-02,2.119084078839030341e-02,8.813353056756016712e-02,1.890882684481597032e-03,3.471094369888305664e-01
3.636578010682005035e-01,-3.242338107385006607e-02,-5.104080882926534390e-03,-7.944869580500411865e-02,1.515664240529363861e-02,6.113526704346442485e-03,4.080975055694580078e-01
5.327131902348914982e-01,-3.854122580409710674e-02,-5.472608116544658285e-02,2.746181223185472590e-03,1.922966083923386815e-03,1.270731514972066279e-03,5.795496702194213867e-01
5.275189424863176990e-01,-3.665122382235386223e-02,-5.226135044644297789e-02,3.857194243266644663e-03,3.594245530911251412e-03,-4.682172276658253668e-03,5.722653269767761230e-01
5.120158863024225626e-01,-4.198614857448784710e-02,-4.424585048479753868e-02,-2.803216714914223608e-03,4.585070461744064109e-03,-8.257669234966224028e-03,5.553975701332092285e-01
5.333264680973289762e-01,-5.172711970362833811e-02,-3.526095726847569556e-02,8.725157112706631232e-03,4.019345149908946056e-03,1.338726511008430899e-05,5.772365927696228027e-01
5.168340229116543671e-01,-4.179623778978888704e-02,-4.211857829552059784e-02,2.450532230970007067e-03,8.447678381900103686e-03,-5.532777802303836222e-03,5.590812563896179199e-01
5.385703526770808658e-01,-4.254365382054040023e-02,-4.814389586532086263e-02,9.270732019057676234e-05,-4.716075579704081307e-04,-2.410757329126271293e-03,5.839498043060302734e-01
5.471672645389755729e-01,3.207550762195532368e-02,-5.906968826558539609e-02,-2.825336515524435113e-03,-1.199077922017592699e-03,5.144196133502924179e-03,5.662885904312133789e-01
5.440504401130155099e-01,-3.700001873954705811e-02,1.144550406338723514e-02,3.172571645525663637e-03,8.568665527208052871e-04,1.129828109430397985e-02,5.587778091430664062e-01
5.355014396327490989e-01,3.715817612026828254e-03,-4.573732022844004264e-02,3.621979079309194625e-03,-3.360050822316560173e-03,4.217956092681869260e-03,5.582711100578308105e-01
5.354320643467559426e-01,-5.045473878881887031e-02,-3.754355917257248820e-02,2.276889080245355756e-03,1.588924215468656177e-03,-5.799466350065238598e-03,5.796461105346679688e-01
5.339586627658636786e-01,2.934012023771109812e-03,-4.601506223402168638e-02,-9.112252064230179707e-03,5.690383411377846097e-03,5.516720591889312866e-03,5.575068593025207520e-01
6.046536355261595830e-01,-5.434908846168962082e-02,-3.081795527237507493e-02,1.214510223332964560e-03,2.035042350534748551e-02,5.862070922652119244e-03,6.485993862152099609e-01
5.281696555449243435e-01,-4.085194973549843844e-02,-3.787317547681617880e-02,-1.651040166268899143e-03,-1.148729291404841472e-03,1.306483504234452146e-03,5.675532817840576172e-01
5.456135048198428317e-01,-4.264566792562055064e-02,-2.310951596474775105e-02,-5.990614000737873313e-03,-5.932898079957856126e-03,4.536494569416599232e-03,5.789759755134582520e-01
5.241394029652726161e-01,-3.902823925061660315e-02,-4.867825016352739231e-02,6.335881398303023181e-03,3.408175617247766187e-03,-8.144010616951509116e-03,5.683658719062805176e-01
5.358555103776543316e-01,-1.876389946366183170e-02,-4.210940044324812392e-02,-1.399804733502854615e-02,-1.538072685184003422e-03,2.285567669923723334e-03,5.671914815902709961e-01
4.825040514405852798e-01,-5.822433703053525589e-02,-2.011316640610563700e-02,-1.280566899649671075e-03,2.217141081784692897e-03,-4.133716609181022419e-03,5.227836966514587402e-01
5.242709827797853439e-01,-3.888363871791908344e-02,-4.000546600295948330e-02,5.994366287137110200e-03,-2.236638854248289288e-03,-1.219286864848591377e-03,5.638292431831359863e-01
5.266360425595623118e-01,8.499220277231878118e-04,-4.284089232783777623e-02,-2.100594325874438444e-03,-4.585709812490609827e-03,4.894302425816447755e-03,5.490720868110656738e-01
5.271372080473920585e-01,-2.976736474855079528e-02,-4.044913403009484099e-02,-1.890476725100397786e-03,-2.618814929952456311e-03,5.020798174027358857e-04,5.623500347137451172e-01
5.082158175334591244e-01,-6.135248782529428846e-02,-2.993128585605023262e-02,-7.563245779929402869e-03,-4.856163580563387767e-04,-3.458925486251447808e-03,5.547134876251220703e-01
5.277265849476961979e-01,-3.393417490475261755e-02,-3.822292193668999638e-02,-2.055824173410232721e-03,-1.608259307635264389e-03,-1.342278125824299031e-03,5.638402700424194336e-01
5.275992600365421170e-01,-3.457253052019140793e-02,-1.278908146224527753e-02,5.294368899219044529e-03,2.897964850167508710e-03,2.291582148562104366e-03,5.517160892486572266e-01
4.707083231664103140e-01,-4.346060920164385166e-02,-3.091906312610073759e-02,-1.925236639371967137e-02,-1.664011605933507845e-02,-8.547225915840402088e-03,5.101375579833984375e-01
5.205558752986968463e-01,-5.653770662110577105e-02,-3.534596569317918768e-02,1.341664485554235932e-03,3.264048012019013685e-03,-1.287514514644544665e-03,5.668322443962097168e-01
5.217345104168186198e-01,-3.755167496517089476e-02,-5.355719870132663596e-02,9.603433049345580768e-04,-1.022435201559780292e-03,3.427307630236531462e-03,5.674945116043090820e-01
4.954201336468117556e-01,-1.693198066708614946e-02,-3.781880049654973153e-02,-5.548966407250965904e-02,-1.344534962733202194e-02,5.009820048023098417e-03,5.324446558952331543e-01
5.350428155708439881e-01,-3.083084003886224500e-02,-3.939790689351341246e-02,-4.569760968858084006e-03,-4.250429283296517334e-03,1.629153570268645395e-03,5.703148841857910156e-01
5.450167729973229847e-01,-4.538875868967925942e-02,-4.410488608353907436e-02,1.211722447836169510e-02,4.575302109443100257e-03,4.715408496603340624e-04,5.901917219161987305e-01
5.137800301438733008e-01,-5.635644289154964626e-02,-3.373111692246363869e-02,-4.145343542835093834e-03,3.180013337984662373e-05,-1.713983692636035635e-03,5.592212080955505371e-01
5.197934913340058749e-01,-4.809123293679742894e-02,-3.723590840451318495e-02,7.595383884459798625e-03,-1.602924757373225696e-03,-5.622038608417592558e-03,5.627805590629577637e-01
2.653330686259949278e-01,1.073513375876096465e-02,1.417069151006045136e-02,2.847392330697884680e-03,9.142319209645090230e-04,2.516088035546644279e-03,2.529882490634918213e-01
5.209948003091686708e-01,-3.959539221760444150e-02,-4.217547414551248153e-02,9.483003721266994746e-04,2.802360785772385360e-03,2.419419138078296970e-03,5.619236826896667480e-01
5.294330091670923499e-01,-3.863227031607824324e-02,-4.316052031750100548e-02,3.792743765924953131e-03,-1.067240270024354554e-03,-1.839660495542561590e-05,5.703837275505065918e-01
5.320431437819650444e-01,-3.490462487697421068e-02,-2.717346434360770613e-02,-1.519971381534243604e-03,-2.266427808085610257e-03,5.237931387449467832e-03,5.632148981094360352e-01
5.004233210581390257e-01,-4.719243113613491580e-02,-3.845429828639629344e-02,-3.167900718850754499e-03,-1.853976853077387394e-03,-1.024966609268362049e-02,5.436265468597412109e-01
3.430258670571509905e-01,-2.058891666317272384e-03,-7.368562610419501779e-03,-5.329181871188512932e-04,7.334202057156512548e-05,9.940675677658642254e-03,3.481971919536590576e-01
5.307213459131981947e-01,-3.495821650792013680e-02,-3.833812650706566738e-02,9.008219213670207648e-04,3.090373159500266718e-03,-7.910611371377094126e-04,5.674061179161071777e-01
5.343407993359812203e-01,-3.351183721728662190e-02,-3.983290166857583747e-02,3.222191622296871703e-03,9.560551280448747590e-04,-1.221479774932764583e-03,5.710729956626892090e-01
5.279357062705489767e-01,-3.682842417546169922e-02,-3.607581495275119510e-02,-3.100490178534637178e-03,-6.440661740543879776e-04,-6.580259110704490258e-04,5.644159913063049316e-01
5.295822927783288003e-01,-3.382555603167822222e-02,-2.917771881150521551e-02,3.344910812761563764e-03,5.084350212421442916e-03,-6.769006941920739477e-03,5.613198280334472656e-01
5.317341666798240940e-01,-3.493501203312388004e-02,-3.791711052083618361e-02,-2.244795495706111363e-04,3.507059731948595788e-03,-1.320135448253884590e-03,5.682033300399780273e-01
5.237699531163564348e-01,-3.706937708969476608e-02,-4.046681246903477414e-02,-5.677474863956797659e-03,4.536308363026307112e-03,1.813785735428650103e-03,5.626953244209289551e-01
2.491541749996933341e-01,1.134486156446185001e-02,1.852695133259374405e-02,-8.349558781649979097e-03,1.332830056812048074e-02,3.088922237295659706e-03,2.359397858381271362e-01
4.593335851649992252e-01,-3.541599876765305632e-02,-3.656676487138804665e-02,1.899056357201836520e-02,1.175219865647294040e-02,-1.364214794386531260e-02,4.973956346511840820e-01
5.413860056948642807e-01,-3.362568694827763882e-02,-1.236480474398574114e-02,5.575957677868811956e-04,1.015594965470148492e-02,-1.726949756640060174e-02,5.657475590705871582e-01
5.231427282169186510e-01,-2.233706637455593058e-02,-8.122671650706209112e-03,-3.274971883850802228e-03,-2.417954513250060011e-03,4.791402118131134376e-03,5.386233925819396973e-01
5.311617225055460523e-01,1.105533450352552682e-02,-3.292786091886187871e-02,-2.251027869580652773e-03,-2.889545836117230447e-03,2.751635577552185088e-02,5.455573201179504395e-01
5.409860693654885422e-01,-3.891842659489827549e-02,-4.132093804627234856e-02,1.319098504089622305e-04,6.355929417158763224e-04,1.209890235994722169e-03,5.811143517494201660e-01
5.430734825822107759e-01,-4.198512184932218227e-02,-4.263833233258770838e-02,1.213019299910017470e-03,8.119000923092436117e-05,-3.860899101884066823e-03,5.854274630546569824e-01
5.387511515618753632e-01,-2.557817214355195823e-02,-4.130885364758929423e-02,6.439095474281588544e-03,-5.284622731989888078e-03,2.209794557931937960e-04,5.725387930870056152e-01
5.417226487557598169e-01,-4.165443511375047092e-02,-4.140096794065614705e-02,-1.820532264109492662e-03,-1.369393143308465788e-03,-7.078484783942795566e-05,5.832637548446655273e-01
5.302679453173724244e-01,-6.339958823827318568e-03,-3.613863054691460186e-02,1.156998231533122113e-03,-2.698198817868976279e-03,4.105553526349948502e-03,5.521798729896545410e-01
4.386366318173981482e-01,2.388610982014734152e-02,-5.925595563821273171e-02,1.194892045692717980e-01,3.635312718300191814e-02,3.296520007725586496e-03,5.101412534713745117e-01
5.398981701965319679e-01,1.629219283191543632e-02,-5.291196419746516111e-02,5.811508678169039106e-03,4.814394387936199275e-03,-3.886601542385668007e-03,5.616086721420288086e-01
5.387005282119119443e-01,-4.244319099700191722e-02,-4.991437960698535958e-02,-2.992908175970611200e-03,-5.296255282793480403e-04,-3.584895663329560819e-03,5.849717259407043457e-01
5.408145116086853221e-01,-4.143013447470847432e-02,3.158613302771395848e-04,3.681779155654887458e-03,-3.235847841243192757e-03,-9.371305618111145513e-03,5.628327727317810059e-01
5.403986892127279340e-01,-4.144297481151051898e-02,-4.309014911600755893e-02,-2.885514809117392492e-03,-2.438717957070632349e-03,1.732839510248984952e-04,5.827038288116455078e-01
5.365363697824206968e-01,-3.217975674451181711e-02,-3.192275038413447397e-02,-2.112462028224616935e-03,-2.033158755171681018e-03,1.480819827448796736e-03,5.686161518096923828e-01
5.255961632884115220e-01,-2.469871597367784277e-02,-2.810452247555292327e-02,2.954022525776485875e-03,-8.308414962561341908e-04,9.337561261374559447e-04,5.520336031913757324e-01
5.356011491338454888e-01,-2.850014056243116434e-02,-3.096695989302533647e-02,-4.828958123756978138e-03,-2.877061996683430434e-03,3.416217305441070478e-03,5.654535293579101562e-01
5.301972983037032128e-01,-3.915214738815495088e-02,-7.149550799881582153e-03,5.324556776833260299e-03,-1.239771465380736827e-02,1.158982324287408106e-02,5.548976659774780273e-01
4.206932914170788962e-01,-2.415051365723785981e-02,-2.469244490973815376e-02,2.702506472144374080e-04,2.794283513249106598e-05,-1.423528715305283007e-02,4.457976222038269043e-01
5.727895200122108399e-01,2.138641211321876123e-02,-1.210983606635807341e-01,-5.678968674108116066e-02,8.563037751296829342e-03,-2.897544628853304313e-02,6.444592475891113281e-01
5.092085925170850569e-01,-3.811594374611784741e-02,-3.756985818428679180e-02,1.164352865307033240e-02,1.308196435930846467e-02,-1.608350856174916698e-03,5.478991270065307617e-01
5.279182669700671626e-01,-3.307189613704819564e-02,-3.436243035434841109e-02,2.925781561275731749e-03,1.272822646141851454e-03,7.721972737296541435e-04,5.616652965545654297e-01
4.456069976407625588e-01,-4.763235735809753790e-02,-3.328909623457679268e-02,4.687369520220734803e-02,3.718060314426217816e-02,-7.664753138733767374e-03,4.973238408565521240e-01
5.171682513415103433e-01,-4.867528915685959134e-02,-4.856883581601137423e-02,1.276260683232811454e-03,9.791877920563472285e-04,-7.265661974684758766e-03,5.659371018409729004e-01
5.246094636091855890e-01,-2.555703798336148025e-02,-3.807905928254756711e-02,3.452426841161319176e-03,-1.145448367581888491e-02,1.058431403681569898e-02,5.572204589843750000e-01
5.119285952832861586e-01,-5.645081581389130299e-02,-3.625646162074797063e-02,4.779169012170771981e-04,-1.095995025318952012e-03,-3.171079008993812030e-03,5.585869550704956055e-01
5.241638865067757003e-01,-4.611096404599787646e-02,-4.673863123782814877e-02,-3.425515881338395022e-04,-5.900690996843732010e-04,-1.711972119802281566e-03,5.705978870391845703e-01
5.708852616926721746e-01,-2.274283182028333239e-02,-3.484541849834416061e-02,1.068596789845050049e-01,7.093504243361167805e-02,3.832888399914909094e-02,6.430279016494750977e-01
5.249726376877456024e-01,-4.363429579858466023e-02,-4.832778328422368541e-02,-3.369797785349856116e-04,1.006635964390510240e-03,-6.388410306025964300e-04,5.709722042083740234e-01
5.194382901342832204e-01,-5.673990567806447283e-02,-3.638035961830535236e-02,-2.751429650753075672e-03,-1.546914536727806442e-03,-1.148051219328571773e-03,5.663028955459594727e-01
5.213707171058143963e-01,-5.124478541639423956e-02,-4.193685432233540400e-02,-1.027005969781794471e-03,-1.187878124814427307e-03,-1.790518578789126059e-03,5.680336952209472656e-01
4.995491160133941344e-01,-4.928590989547848578e-02,-4.050648920015575971e-02,4.031776285061274001e-02,3.059551187597725833e-02,-9.520624516733609127e-03,5.517565011978149414e-01
5.030162069846200179e-01,-5.632849202680451084e-02,-3.208149165374310496e-02,-3.244656419472324339e-03,-1.377383141480448595e-04,-5.513832185171075283e-03,5.477361083030700684e-01
5.166246939490972689e-01,-5.710088900068327478e-02,-3.193139643624928747e-02,2.378791183861819650e-04,-5.262645300411463107e-04,-6.035187493800360427e-04,5.615658760070800781e-01
4.732143610172678816e-01,-2.926183554060540759e-02,-3.596397221945021871e-02,2.369409775424232562e-02,1.351885198378805809e-02,-7.860289609515336978e-03,5.082448124885559082e-01
4.132611797712032464e-01,-1.391119630590842426e-02,-2.085425154991152330e-02,1.272051253189566411e-01,1.029893894892080913e-01,3.110638802918648527e-02,5.184178352355957031e-01
5.244424131436535852e-01,9.592692103946420801e-03,-3.299876826533310048e-02,5.755905146390154214e-02,3.209970846422024321e-02,4.342815192417811415e-02,5.545275211334228516e-01
5.297505876678907377e-01,-2.943042256478103913e-02,-2.167083504241315572e-02,1.331562029108804236e-03,3.012137546525382910e-03,-5.151438346419390940e-03,5.554428696632385254e-01
5.380403198918248808e-01,-2.482681431179073472e-02,-3.686663965558725775e-02,1.738739187481112228e-03,-6.010240982429116384e-03,1.585763189919463636e-03,5.690923929214477539e-01
5.056146633789302403e-01,-4.155117787555065445e-02,-4.024562609480311637e-02,-3.649902154149648782e-03,-3.319908826141916916e-03,-1.048987966081713942e-02,5.468829274177551270e-01
5.308002441623425049e-01,-2.473078254290372868e-02,-2.199353573691195662e-02,-1.701999660780905517e-03,2.058088372666912538e-03,-2.868963137811823133e-03,5.542090535163879395e-01
5.420654345265349949e-01,-4.356208712782005943e-02,-4.245041800276747046e-02,-1.071681370229483682e-03,-1.319741685849571506e-03,-1.019814693156469686e-03,5.850825309753417969e-01
5.360062593083887439e-01,-2.472721272030051209e-02,-3.897134718000783149e-02,2.003093063599784788e-03,-3.620255420495458072e-03,1.351155879098935074e-03,5.680395364761352539e-01
5.294878193627015062e-01,-2.571140107964911548e-02,-2.342341040821166454e-02,-1.306734747012779042e-03,1.980484508643216759e-03,-2.744227978801326464e-04,5.540742278099060059e-01
5.503424885334678995e-01,-2.857986761066291792e-02,-1.187830351919372252e-02,1.473725006405772475e-02,-8.488963613179004511e-03,-2.118464178592158881e-02,5.726912021636962891e-01
5.289212839073522687e-01,-2.755657978312892054e-02,-2.550042905408100857e-02,1.940130208374255981e-03,-1.750702654676370383e-04,9.799868448464065570e-04,5.554654598236083984e-01
5.418907812425123316e-01,-4.352588805308782449e-02,-4.057931623992153125e-02,-1.136204840807784975e-03,-3.353832504788108399e-04,-1.097515505297761611e-03,5.839556455612182617e-01
5.421875597557997972e-01,-4.137746787715854135e-02,-4.188375450292650126e-02,-2.969356258302091340e-03,1.490439902172778627e-03,-3.380500804338548715e-03,5.838760733604431152e-01
5.310800727619405803e-01,-4.458587711674660836e-02,-3.392982766568167219e-02,5.333858861575244657e-03,-2.034953183184468745e-02,-3.222150569796509035e-03,5.716024041175842285e-01
5.307437704172449644e-01,-3.570274952651397715e-02,-2.570801982585738110e-02,-1.930147853233562475e-03,-8.768197563294462108e-05,6.313231977909848300e-05,5.615258812904357910e-01
5.284957347537861949e-01,-3.429464723988054353e-02,-3.966596342511508055e-02,1.099933540739325699e-03,-2.505149712100769544e-04,-2.701887204346051837e-03,5.655179023742675781e-01
5.352568705117380921e-01,-6.604036018984682510e-03,-3.370377528754550656e-02,-9.176707693458124133e-05,-6.898874861932530710e-03,4.697152205166783313e-03,5.560943484306335449e-01
8.532280539157284238e-01,2.120907336069127735e-02,-1.056578488863448850e-01,3.156987920897239702e-02,5.928966423882145453e-03,9.170203785568046412e-03,9.040211439132690430e-01
5.352665388907030808e-01,-3.524400721488332722e-02,-2.543763216681188544e-02,-5.923711331258590777e-03,6.118474425103886819e-04,-6.078680711808812998e-04,5.657661557197570801e-01
5.508835672031943131e-01,3.477921887921128774e-02,-6.126333208335571490e-02,6.876894198965051615e-03,5.660241444271445037e-03,2.430784675934283441e-03,5.704485774040222168e-01
5.523639053188184045e-01,-6.064756048645505992e-02,4.757781158874138661e-02,-3.984657785974003719e-03,-1.116174217820660973e-02,1.700869545785967801e-02,5.678394436836242676e-01
5.552381877789338560e-01,-6.743553261184934144e-02,2.708241496998606279e-02,-3.030838804564184048e-03,-4.445877999788357994e-03,4.154200601127265406e-03,5.813269019126892090e-01
5.490886399887743297e-01,-5.726533649045831287e-02,2.592636130915682013e-02,-2.373772664571536378e-04,4.943846718311478011e-03,1.738624600852743457e-03,5.694075226783752441e-01
5.518773044191279675e-01,-5.471483349638575633e-02,2.744113778359852374e-02,-1.420065663289188851e-03,1.024612464757693707e-02,1.494773711662908747e-02,5.708412528038024902e-01
5.490343684175804650e-01,-5.639221131810598364e-02,2.793522399245843002e-02,-6.440738177208318871e-03,-1.171338816289635432e-02,1.086147035823280434e-02,5.687603950500488281e-01
5.254217913040506449e-01,-2.028845774592480389e-02,-1.519293276159003336e-02,-1.510658271013175452e-03,-1.977140966670465523e-03,4.301198123683520023e-03,5.432485938072204590e-01
5.238682616981238382e-01,-1.356362001643829363e-02,-1.741038830474139765e-02,-2.676166285692375469e-04,2.057035241751554132e-03,9.885462013004924636e-03,5.396491885185241699e-01
5.356558847167671722e-01,-4.615858748809242851e-02,2.708799593244726189e-02,-6.377192705932574826e-03,-1.568315473036213312e-02,5.466076337449093242e-03,5.497333407402038574e-01
5.408358193461559882e-01,-4.101180295798806386e-02,1.327889892005096328e-02,1.648065975638262660e-03,4.499142576644545727e-03,1.294079996383143069e-02,5.572041869163513184e-01
5.639380818988711797e-01,-5.381532470233377219e-02,2.239566578691018495e-02,6.391626288661181841e-03,-2.159383775784969386e-02,1.417195951139457906e-02,5.852108597755432129e-01
5.312394095444930020e-01,-2.789512887778564099e-02,-2.987848919263569325e-03,1.581450808871742893e-03,4.410460970406020892e-03,5.104990525174024282e-03,5.472379326820373535e-01
5.239770076611574012e-01,-1.207004693731417166e-02,-2.265647216373695150e-02,-1.410090532266207583e-03,-6.705727272386588630e-04,2.296099657947757271e-03,5.414392352104187012e-01
5.271738763250154447e-01,-2.799619296560360016e-02,-1.317795103056901285e-02,-4.335447744255619215e-05,-4.051772419884408852e-03,3.494719706043348650e-03,5.479896068572998047e-01
5.263956688542676954e-01,2.998344282746728817e-03,-3.306231728774031153e-02,-2.225283300087459865e-03,8.194887936192465439e-04,5.816590661017770857e-03,5.424366593360900879e-01
5.248021774066226053e-01,-2.460223944393180595e-02,-2.383405593321866189e-02,1.576230493924571461e-03,2.393175676039588015e-03,6.883677665698965942e-05,5.490431785583496094e-01
5.233703878142056398e-01,-1.593100632535565664e-02,-1.192772620403420580e-02,-1.040515000198078853e-03,-1.334986789971620265e-03,5.634878837482794334e-03,5.374075770378112793e-01
5.264349712288056704e-01,-4.014129903877872163e-02,-3.929271189102592765e-02,-3.939355628715971065e-03,1.560167624565306482e-03,-8.616120265947160026e-04,5.662019848823547363e-01
5.347087535602403907e-01,-3.810521345634310109e-02,-4.543656924033021016e-02,2.103393096605858138e-03,-1.364994646594578677e-02,-4.470355574820302109e-03,5.770626068115234375e-01
5.276228946458879632e-01,-2.481378234463793575e-02,-3.423981696091105142e-02,-1.680986979791338756e-03,3.285108380549410685e-03,-1.218388225297331725e-03,5.572501420974731445e-01
5.277275708755995165e-01,-2.464093219129931400e-02,-3.512809791085069744e-02,-5.590158452331760175e-03,2.406023993395950758e-03,4.419924232423319077e-04,5.577861666679382324e-01
5.080803917215299670e-01,-5.872670376742314402e-02,-2.991015711118746867e-02,-9.807711834983424623e-04,-4.530326200949505618e-04,-1.784881214790389999e-03,5.529740452766418457e-01
5.240461104426928918e-01,-4.809972730750911030e-02,-4.616390871289635656e-02,-9.843862453519124697e-04,-8.617160857799314446e-04,-2.016658031021648523e-03,5.711955428123474121e-01
5.245292675488109069e-01,-4.477161235056212329e-02,-4.307827444792422522e-02,-1.260548017878533730e-03,4.394093383321934589e-04,-1.372829532124320191e-03,5.684657692909240723e-01
5.263137931394198388e-01,-2.856412998894852784e-02,-3.389172960919484279e-02,-8.763092073642661951e-04,2.706715247641623516e-03,-4.650197911983989531e-04,5.575831532478332520e-01
5.253326017819744953e-01,-2.518705600047752013e-02,-3.604435596626098803e-03,2.606193697734446747e-03,-1.436341626042725306e-03,9.383817109888597380e-03,5.403209924697875977e-01
5.241801835850086189e-01,-2.167881028374443741e-02,-2.229031479510101832e-02,1.358187357602474933e-04,1.722042773921799710e-03,2.269582574383789686e-03,5.461873412132263184e-01
5.235668191827494988e-01,-4.668980671447736652e-02,-4.825229176806930531e-02,3.674327804168321795e-04,-4.125813082450559169e-04,-3.595383988438796696e-03,5.710742473602294922e-01
5.246048868179014057e-01,-5.229560729291024557e-02,-3.927945792382353529e-02,-1.496180469385289700e-03,-1.752389674408932809e-03,-1.956151269349031517e-03,5.705277919769287109e-01
5.249735707250751116e-01,-4.770296910848459415e-02,-4.384951500932826596e-02,1.033708502324393388e-03,2.328229752794615617e-04,-4.121553969698843597e-04,5.707629919052124023e-01
5.294787804568436007e-01,-1.765539074872171654e-02,5.329771889679701946e-04,1.157890758001441089e-03,-7.277314407130161186e-04,2.523267872982050061e-02,5.400470495223999023e-01
5.218788142563131061e-01,-2.029893155225742651e-02,-1.795181726771907793e-02,-7.665582691813840801e-04,-9.714490400907205541e-04,-3.722229686833567960e-04,5.410126447677612305e-01
4.854390317915975861e-01,-3.855607905965241500e-02,-4.107475473633848129e-02,-1.552549909712105415e-03,-1.313021016827493372e-02,-8.915168874262288656e-03,5.259846448898315430e-01
5.228911771060632541e-01,-1.934514498190306742e-02,-1.659305312651204733e-02,1.287525757807562229e-03,9.376642637728691606e-04,9.788772121424986223e-04,5.408751964569091797e-01
4.824050710260845420e-01,-5.653434593991149559e-02,-2.823514739976906718e-02,-1.792271591436866984e-02,3.330360302382743502e-03,1.005320798782408792e-03,5.263125896453857422e-01
5.192810863840853219e-01,-4.205629906287025599e-02,-5.056860508968535894e-02,7.849709337223128344e-05,-3.447903696130035444e-04,-2.446983582582694557e-03,5.656577944755554199e-01
5.781436549267194858e-01,-2.743266375647651634e-02,-5.075945221970418197e-02,-2.482990052182204241e-02,1.325853876526928397e-02,-1.887632908732799712e-03,6.195002794265747070e-01
5.057876932443743367e-01,-1.658475345697138503e-02,-5.755169266546938944e-02,-3.439841282330736993e-02,2.716824633181126949e-02,-1.000261964852777741e-02,5.495593547821044922e-01
4.269320286835236455e-01,2.298299024419367398e-02,-3.549068485140882689e-02,1.436482692861597299e-01,5.513484108085674185e-02,1.386879308677964155e-02,5.116790533065795898e-01
5.429909998277383520e-01,-4.557754922140241916e-02,-4.364542998038500876e-02,9.208219020268803255e-04,-1.284669914229566185e-03,-8.891443499270522020e-04,5.876132845878601074e-01
5.409217708624199927e-01,-4.013643991013204904e-02,-4.166051316699617701e-02,4.896366561619939876e-04,-2.104142851435940667e-03,-4.445022909809750403e-04,5.818342566490173340e-01
5.400113437368143643e-01,3.434406481433172065e-04,-4.790393126229314236e-02,-2.580993445392209401e-03,-1.758191424530248289e-03,4.947468017876483284e-03,5.654286146163940430e-01
4.425948964286062770e-01,-1.971247853569146891e-02,-4.336254987642773617e-02,-1.436649368366649943e-02,-1.933259967789691808e-03,2.574183147236684503e-03,4.752592146396636963e-01
4.568179418187389151e-01,-2.166552178561062525e-02,-5.253862782409704502e-02,1.241942323208087195e-04,-8.030436693731513031e-02,7.005603015166932601e-04,5.138285160064697266e-01
5.424384071786488848e-01,-4.380453807502196484e-02,-4.147218782944314674e-02,1.423843207507605982e-04,-6.467033509126109180e-04,-4.332366172077345033e-04,5.850818753242492676e-01
4.879671941235703692e-01,-2.289429423783220785e-02,-5.941369140393598647e-02,1.740716717981576856e-05,-1.138656530437663281e-02,2.182418653403258571e-04,5.304324626922607422e-01
5.073862624864310389e-01,-3.440193747371422806e-02,-4.936472771138866733e-02,-2.677190183893187435e-03,-2.256451859753094355e-02,-9.708012006558209075e-03,5.510868430137634277e-01
5.396685407739272300e-01,-3.874338553065825863e-02,-3.394598481848976057e-02,1.006474850414907913e-04,-3.073766872911996070e-03,4.570922336853970765e-04,5.760533809661865234e-01
5.357290887121796130e-01,-1.294732627404923675e-02,-3.654945541470361325e-02,-7.940195270654721443e-03,-7.645501239169805348e-03,2.577874781403518244e-03,5.611926913261413574e-01
3.650259195197290696e-01,-1.462999114586996385e-02,-2.574166480113421196e-02,6.049391363184405609e-03,-8.427323739070277653e-02,-1.024168201952239260e-02,4.125664532184600830e-01
5.394553203096152938e-01,-3.999229810914900485e-02,-3.729592537280471132e-02,7.112711600019662938e-04,-3.912316108558929958e-03,6.011865052556422022e-04,5.781461000442504883e-01
5.349688360594697656e-01,-2.795010625045499242e-02,-3.686932636222400861e-02,3.034119561534029397e-04,-2.227419918591255592e-03,1.163953991722151788e-03,5.674480795860290527e-01
5.327881724857183032e-01,-2.000689878818975864e-02,-3.509457977434818354e-02,-3.785168387484284021e-03,1.391937597559735843e-03,-3.433779326892151453e-03,5.605663061141967773e-01
5.308682878690041962e-01,-8.213117219350585252e-03,-2.852368748013531241e-02,1.920524320988961382e-03,1.672371188417938123e-03,-9.495053195135043367e-03,5.497819781303405762e-01
5.332860987218925874e-01,-2.713260762701430462e-02,-2.503955950788772089e-02,-7.164587535121524171e-05,-4.065601427441799254e-03,1.115955411552666801e-03,5.594227910041809082e-01
5.257554490662952329e-01,-1.641747202164686725e-02,-1.879270788686013272e-02,-1.091280322781011067e-04,-3.004844930501882148e-03,1.874142261661517405e-03,5.433990955352783203e-01
5.277160960324168704e-01,-2.492194219539634048e-02,-1.943883592727638221e-02,-2.741361840748808565e-03,7.880375365239789215e-05,1.270770562140993969e-03,5.499418973922729492e-01
3.927959353843395451e-01,-5.109086120732714287e-03,-3.863163455562643178e-02,-6.708324480627907149e-03,-2.702019486968965795e-02,-9.530387611523631619e-03,4.187943637371063232e-01
5.228111560831882887e-01,-1.201618449029118185e-02,-2.354372621115718989e-02,-7.384500672455009216e-04,1.797376489236622837e-03,2.971182471230759004e-03,5.407182574272155762e-01
5.250739918512760118e-01,-1.845581835952267435e-02,-1.601882946026708665e-02,-1.534230611458755516e-03,-3.149448715309221582e-03,1.279662436273458102e-03,5.423538684844970703e-01
3.070834578365979062e-01,-3.650979193341619133e-03,1.865087444929691696e-04,-8.727844929049932698e-02,9.965290713861037208e-02,-3.598787490936640465e-02,3.897540867328643799e-01
5.967483707093255152e-01,-8.367722069825955789e-02,8.782890155265510312e-03,2.017133482994572583e-02,-1.139649060522041416e-02,4.127150171937469907e-03,6.405286788940429688e-01
7.267890755559319738e-01,-9.860798111091054197e-02,1.195130073596278875e-02,-2.495015858821022711e-02,1.035338908468741159e-01,5.582835782061509704e-03,7.977262735366821289e-01
5.319183439650906342e-01,-4.702744634462380224e-03,-2.523622382765461358e-02,-2.300219287556237442e-04,-1.258154326636568314e-03,1.176744404648249510e-02,5.475608110427856445e-01
5.553347317136918537e-01,-6.712201369001816187e-02,2.936531155483484978e-02,2.184299156409915191e-03,1.739253205461132115e-02,7.999332605139245628e-03,5.812200903892517090e-01
5.503648442254414075e-01,-6.101005111769175482e-02,9.788106645503419356e-03,2.424198657972097617e-03,3.571532231402881064e-02,-5.189837645167685865e-03,5.826084613800048828e-01
5.229183044560147264e-01,-1.742281798233241696e-02,-1.797206364856482330e-02,1.865460487720678505e-03,5.400841973922528537e-04,6.792820461396027916e-04,5.406277179718017578e-01
5.240968856695633615e-01,-2.051732974664205456e-02,-2.508584347629230771e-02,-6.297140902587683095e-04,2.055895660409373746e-03,3.376844075303285357e-04,5.469257831573486328e-01
5.271426145450693879e-01,-1.226435958292321216e-02,-2.379112957840562315e-02,-4.702837249526316678e-04,-1.746624119779122391e-03,2.575855913475003263e-03,5.452889800071716309e-01
5.353071009321890283e-01,-3.025647877409004538e-02,-4.207411011945513812e-02,4.548456816150528437e-03,-6.256252378428842165e-06,-9.895416269407027263e-04,5.716208815574645996e-01
5.227322190739018826e-01,-1.589435054739360420e-02,-1.904476249376119146e-02,-7.522887613658237310e-04,1.821799748388060539e-03,5.998654696906783983e-03,5.403193831443786621e-01
5.496727057389259041e-01,-5.068010880416928821e-02,2.150305750189254739e-02,1.764672790222676646e-02,1.410950885707251135e-01,7.439774575696380884e-03,6.189687252044677734e-01
6.018268983404285732e-01,-5.959863918273602956e-02,1.267048154006281124e-02,-1.024393007110346344e-02,2.631809481888874435e-03,-1.732410719346915220e-02,6.293980479240417480e-01
5.249132727523941888e-01,-2.456998134966006941e-02,-2.726116208610596114e-02,-1.170474530194643521e-03,5.989221077868022661e-04,6.242239692249977080e-04,5.508395433425903320e-01
4.984527251290367111e-01,-3.837521647509073430e-02,-5.135246203048327018e-02,-3.604429406671422805e-03,-8.809649635016911576e-03,-1.143299926156425041e-02,5.440433025360107422e-01
5.383930040623190472e-01,3.265606209119759074e-02,-5.879144341460457168e-02,-6.454525041606091855e-03,-1.467331515944465966e-04,2.207226831802920879e-03,5.572437047958374023e-01
5.779678098122997820e-01,4.112565562949657694e-02,-6.936275980891040693e-02,7.256210569065250568e-03,1.493916667501564953e-02,1.788090129370902351e-02,6.012559533119201660e-01
5.276783862411225101e-01,-3.826126402129950699e-02,-4.142514574600922317e-02,-1.071929455641868747e-03,2.387846716290823422e-03,-6.948160515974451850e-04,5.675475597381591797e-01
5.241190303962712793e-01,-3.523293488967421672e-02,-3.939724481001441458e-02,1.687495891951069872e-03,-3.119477917731787106e-03,7.099977978827720854e-04,5.614806413650512695e-01
5.636730992066243395e-01,2.007675549705487117e-02,-7.100197332991611820e-02,2.637244049225397589e-03,8.452756490715564175e-03,-1.765854008554022586e-03,5.945981144905090332e-01
5.510523095440538199e-01,4.229859019022175204e-03,-7.187507828522748943e-02,-2.906984075294370348e-02,1.468338673113818091e-02,-7.549565107675132968e-03,5.914183259010314941e-01
5.273030921935049076e-01,-3.340078393787335176e-02,-3.266356263871253440e-02,1.346753799441716614e-03,2.382565032695878240e-03,2.065424994393249278e-04,5.603557825088500977e-01
5.233568263181236357e-01,-3.733989202050339018e-02,-3.293750717259669170e-02,5.510939086506902842e-04,-1.619283935874565568e-03,-9.961278901191009030e-04,5.585190653800964355e-01
5.263954631302455445e-01,-3.652400419216647598e-02,-3.998354034503942556e-02,-1.473874386587839666e-03,2.478618300333113988e-03,-1.425289070117424393e-03,5.646846890449523926e-01
5.264709295155941549e-01,-3.647117220776541213e-02,-3.431455526151042101e-02,-1.672514875462408242e-03,-9.899844577532998513e-04,-1.731727223696775313e-04,5.618770718574523926e-01
5.266744740387865331e-01,-4.891344437724975958e-02,-4.397214332546559024e-02,-1.083040381146790953e-04,-1.971977048024090538e-03,-1.232976429290308590e-03,5.731474161148071289e-01
5.267314221639505245e-01,-4.524097959194375851e-02,-4.009444248458995941e-02,-9.746375097308211232e-04,-1.906938828599965934e-03,-8.326932918203451420e-04,5.694304704666137695e-01
5.281846950339179614e-01,-4.152490725437851804e-02,-3.872975232728695372e-02,-4.850369078611433543e-03,-1.256046829711815992e-03,1.233948923511576522e-04,5.683834552764892578e-01
5.237077818661693973e-01,-4.348231173646022185e-02,-4.314887992583343879e-02,2.582789127329048503e-04,1.909788846235446888e-03,-1.864530094258162133e-03,5.670424699783325195e-01
5.286919173005618644e-01,-4.573711692873405621e-02,-4.433298240494104592e-02,-9.528388275052242966e-04,-1.056283836812853261e-03,5.378288197539370010e-04,5.737342834472656250e-01
5.161038829197722722e-01,-4.566842884575361694e-02,-4.330131389540634035e-02,-1.266652969077456574e-03,-2.592824618587574910e-03,-5.466789024326753829e-03,5.606947541236877441e-01
5.259866435966946696e-01,-5.818561549324388626e-02,-3.510368626291954230e-02,1.664454000245544577e-03,1.577715423212518566e-03,-2.296483050344176407e-04,5.729939937591552734e-01
5.269109173278447855e-01,-3.503682618012066152e-02,-3.014808321038506267e-02,5.235009954043326214e-04,2.847520907593732459e-03,3.136630535655761127e-03,5.595682263374328613e-01
5.270539566246049690e-01,-3.234968576349420144e-02,-3.502664186998097340e-02,2.606805340456177372e-03,1.800286754146266602e-03,7.447303454907933974e-04,5.607752203941345215e-01
4.905268666753872520e-01,-3.228707272603750789e-02,-5.000896041579799833e-02,1.641893362554053140e-03,2.468427857056705588e-02,3.440919553650818950e-03,5.336527824401855469e-01
3.838496690968306591e-01,-1.195494651426402821e-02,-2.465396761452560981e-02,-2.258157760394568017e-02,1.656597551205003099e-02,1.059058720396187717e-02,4.056333899497985840e-01
5.412148648885684032e-01,-2.804315664946482878e-02,-4.567885671713772799e-02,6.661221099151215172e-03,-2.918723188235855526e-03,1.178906490096589578e-03,5.784183740615844727e-01
5.317171517393058933e-01,-2.596056478023284209e-02,-2.811507632814028157e-02,5.084206885410343969e-04,-3.339791030634884977e-04,-1.632148736295855164e-03,5.587662458419799805e-01
5.274158880138372085e-01,-3.534489536573318103e-02,-5.790207575342334878e-02,-1.402657556955769777e-03,-3.003188653121652849e-04,-3.142272170233618208e-03,5.744028091430664062e-01
3.699735843824268344e-01,-4.451075381116374741e-02,-3.514505113738131126e-03,-2.581905930792255735e-02,5.840375412914455139e-02,2.200324690658598484e-03,4.107712805271148682e-01
2.621543193310111319e-01,-4.593597643067409697e-03,1.229899696252007013e-03,-4.529344051221953493e-02,9.755943824658851182e-03,6.773836267189858006e-03,2.760663628578186035e-01
5.390479990220219397e-01,-4.178202123478724772e-02,-4.788150334671462116e-02,-6.846211693334448931e-04,7.092495533571112299e-04,-2.514468326944895808e-03,5.839223861694335938e-01
9.312967297845073933e-01,-1.025080085801448604e-01,-5.128605429020349771e-02,-1.142316106209315639e-03,1.909000049250554956e-02,5.360818346468706336e-02,1.013972997665405273e+00
5.320627231961170267e-01,-5.282908546017558993e-02,-3.546810963850280385e-02,5.104527516546357967e-03,1.094988405155624626e-03,-7.155088740461946410e-05,5.764783620834350586e-01
4.306379678307843961e-01,-4.396901697994969049e-02,-2.911722499821932375e-02,-7.660715029393852515e-02,2.438367983517308185e-02,2.696056852789622833e-04,4.876612424850463867e-01
5.596539832235701839e-01,2.677359807081586274e-02,-5.917035302446335687e-02,7.411894627128950801e-03,3.690099821772058024e-03,-5.326010014670390716e-03,5.808928012847900391e-01
6.276774147211835464e-01,-6.775001174434847062e-02,3.601344206789758307e-02,8.297930642686492803e-03,-2.215586662547249300e-02,8.845287608799623849e-03,6.512604355812072754e-01
5.353511203638270377e-01,-3.664210376623616705e-02,-2.616495810877195183e-02,-4.741797008696518184e-03,2.433635716126479262e-03,4.926680598359620654e-04,5.669031143188476562e-01
4.688597766390697474e-01,-3.601903251534391281e-02,-3.280439853718758458e-02,-5.764784240755219807e-03,2.213884224794589878e-02,1.531697349846735182e-02,5.055332183837890625e-01
5.418923727961003634e-01,1.375612288179176024e-02,-4.014936214806347214e-02,-3.657419669762925971e-03,6.882401462028908852e-03,-1.362502242987675277e-02,5.577116608619689941e-01
5.304985464389141425e-01,-4.684225084860141330e-02,1.882528152429757684e-02,-4.266004967866653466e-03,3.810157483892185541e-04,5.521708531043863569e-03,5.476025938987731934e-01
5.370814467935165482e-01,-3.201216684999746986e-02,-3.930148843869049613e-02,-3.309772756062812939e-03,-4.368482058636011765e-03,1.578843868361106783e-04,5.728517770767211914e-01
5.363928356844420708e-01,-4.128641800053592381e-02,-4.617989374069514374e-02,-3.074837588521816753e-03,9.197289851267116245e-04,-3.547161735763647121e-03,5.802006125450134277e-01
5.149218899814134165e-01,-2.875150293378356259e-02,-5.970041314376595132e-02,-2.108718759151410719e-04,-8.491542629896693434e-05,-8.813463025306876499e-04,5.597921013832092285e-01
5.467787088250986027e-01,3.878401546454496307e-03,-4.250585250854416186e-02,4.741543277551274471e-03,4.186562079815683152e-03,-3.004942730431340095e-02,5.700027942657470703e-01
4.955781253298289224e-01,-2.149384238771606670e-02,-5.548260492930920385e-02,-2.208688568119167913e-03,1.965028991054730643e-03,-2.547609902273534257e-03,5.349196195602416992e-01
5.495488766819333071e-01,1.437019643518427925e-02,-5.435248625379415777e-02,1.581276919392627300e-03,-9.260133596098217915e-04,-3.886656245519426889e-03,5.726895332336425781e-01
5.207741189288546124e-01,-3.457551482018758615e-02,-5.651617507575071309e-02,1.362988928506324434e-03,-6.215657126737225290e-05,3.447889905509110499e-04,5.666438937187194824e-01
5.498908839473506394e-01,1.842404975776917864e-02,-5.823269042206671853e-02,-1.624298834378204914e-03,2.426197222792357208e-03,-4.509550073443339274e-03,5.737249851226806641e-01
6.069101387806856707e-01,-1.789320501711433309e-02,-5.819734655631375597e-02,1.465751598992432250e-02,6.184997968016299301e-03,-3.382498255973779427e-02,6.491359472274780273e-01
5.395969247357569332e-01,-2.478896376242600841e-04,-4.867471882734150657e-02,-3.629179940550436578e-02,1.057288815686843866e-04,7.737844962306052350e-04,5.690990090370178223e-01
8.741415592091855702e-01,-1.077020912730924096e-01,-1.846029008422370166e-02,3.050971418584707412e-02,6.868821533727819534e-03,5.000863423868100177e-02,9.459366798400878906e-01
5.848170202288820452e-01,9.977708235898802291e-03,-6.028935517315320292e-02,-4.355884789085373403e-03,2.877413608217482127e-03,-5.174798913440556251e-03,6.131330132484436035e-01
5.816634186228036851e-01,8.556670000921695607e-03,-6.084581953686121758e-02,3.605743296339302285e-03,1.701057095951775261e-02,-6.751928345178419624e-03,6.116264462471008301e-01
5.227745082749838401e-01,-1.540103649631308080e-02,-1.822187092720811696e-02,-3.397611515921842825e-04,-1.447661214506773444e-04,1.671560036680573829e-03,5.395996570587158203e-01
6.824992598830210699e-01,3.074721803965643763e-02,-8.902459018727323925e-02,-1.485799919641095090e-01,3.732722723662853376e-02,-9.494107168668203863e-04,7.665495872497558594e-01
5.165399824222201008e-01,-4.833572554029624824e-02,-3.694905467016615375e-02,-4.558599869011889343e-03,5.860105800621058601e-04,-5.435268438032596350e-03,5.594052076339721680e-01
6.356984558491153292e-01,-9.713625837192718659e-02,-1.295994873299038952e-03,-5.712573360430752561e-02,-1.468983144420723252e-01,4.262673350927140975e-02,7.456376552581787109e-01
5.188366291618256021e-01,-5.198610942051021255e-02,-3.500030815734439527e-02,-1.546949381819305927e-02,-9.177622381434126769e-04,-2.597882056701703371e-03,5.631802082061767578e-01
5.127288903325977198e-01,-2.877634490482433582e-02,-5.836354492768430768e-02,4.686308972960515247e-04,-2.039977712010948520e-04,2.281778861945586018e-03,5.569033622741699219e-01
5.216588086241128464e-01,-3.418691991275371600e-02,-5.752253229186185535e-02,2.661087087275781568e-03,-9.234932365650553622e-04,-2.290631824081490985e-03,5.679080486297607422e-01
5.345622621160621701e-01,-4.240110915943484660e-02,-5.252954894202588321e-02,1.585757628659462300e-03,7.038121524879196143e-03,1.954480056203800054e-03,5.822376608848571777e-01
5.203270620431600380e-01,-3.536228282060951966e-02,-5.868290885414970126e-02,3.583293490066167966e-04,5.331680747244653407e-03,1.276258409297994969e-03,5.677887797355651855e-01
5.042709834134494473e-01,-5.517347232082570052e-02,-3.016690044793712833e-02,-8.593135903468692230e-03,-2.459366516234315868e-03,-3.062332255402505643e-03,5.476143360137939453e-01
5.296794828739437300e-01,-3.951983011101953269e-02,-5.246878510105196236e-02,1.310645780519769299e-03,6.770883310586864497e-03,1.037609860204424502e-03,5.759097337722778320e-01
4.712682241057142285e-01,-2.965398131904964374e-02,-4.525888908734701510e-02,4.873860144785899565e-04,1.815000439945644792e-02,1.095344413080186381e-02,5.102277398109436035e-01
8.336249633951131610e-01,-6.837969264849974582e-03,-7.507738219651910461e-02,1.468346095398421168e-02,-3.376460965005417814e-02,-4.131991099195304190e-02,8.818027973175048828e-01
5.132547378991859643e-01,-3.132895468108359838e-02,-5.961410096203975661e-02,2.586045866310750490e-04,-3.036667908467082866e-04,4.351949711406043696e-04,5.592638850212097168e-01
5.265568562192481927e-01,-3.918372813958520551e-02,-5.257167141622587359e-02,2.005609462381840492e-03,4.139867114609224220e-03,2.591636966953850783e-03,5.726249814033508301e-01
5.088172730487252604e-01,-4.693255800350795703e-02,-3.284419704040908439e-02,1.255196712152307917e-04,-1.468058239106991318e-03,-4.864413620615201314e-03,5.489118695259094238e-01
5.087459343197724415e-01,-6.117509696431816524e-02,-3.072673597915645538e-02,-4.955412190085092816e-03,-9.966969009022809845e-04,-3.135684625738305916e-03,5.554188489913940430e-01
5.010513175453658041e-01,-4.580800565649079115e-02,-4.138141808680553813e-02,-6.946247922964788810e-03,-2.677393256051421953e-03,-8.070361961189707542e-03,5.449914336204528809e-01
3.746209794005224136e-01,-2.158591462911343961e-02,-2.277847380882935813e-02,-2.729750718303067605e-02,-5.814311435561984875e-02,-6.799583605916143317e-03,4.122740030288696289e-01
5.223409947157514610e-01,-3.874997124393250725e-02,-5.360636943187185866e-02,1.662898527946307875e-03,-3.848523058225264632e-04,3.003220865507095268e-03,5.686962008476257324e-01
5.282254397121450840e-01,-3.604665611698887329e-02,-5.916527801857196511e-02,2.117636316105885388e-03,1.489261166105773420e-03,7.642524605402646566e-04,5.761983394622802734e-01
5.294461978776767719e-01,-3.514877560642268306e-02,-3.542842688982378307e-02,-5.960399252222795723e-04,-1.212595726389469747e-03,-8.487193772667237781e-04,5.647416114807128906e-01
5.268200035589025720e-01,-4.415170928157127750e-02,-4.227782077930622440e-02,-1.765525075024720805e-03,1.968537461449845587e-03,-4.315193500589011809e-06,5.700554847717285156e-01
6.004221994088937420e-01,-4.427905731872897044e-02,-4.627260347397452178e-02,2.687741542318830903e-02,-9.496041454875812568e-03,-2.713325078420427902e-02,6.492882966995239258e-01
5.061058377598377511e-01,-3.793832834437313450e-02,-4.747386295718752924e-02,7.556609685941792671e-04,-1.049483854125566207e-03,8.166997558741820665e-03,5.490608811378479004e-01
4.651620316813437350e-01,-4.092713356964794436e-02,-3.181576416847339828e-02,-4.533571357794635628e-04,9.047608011792566225e-04,1.079255961578826084e-02,5.019468069076538086e-01
5.220081517505404944e-01,-3.782951518329427665e-02,-5.353336949722911631e-02,4.191604683591219579e-04,1.592474555949082316e-03,1.681836370632491416e-03,5.678671002388000488e-01
5.277796388308306774e-01,-4.416428641029440660e-02,-4.842221047905206910e-02,1.354035918840841048e-03,2.509271100442142001e-03,3.828742282691336481e-03,5.741442441940307617e-01
5.304164306098766435e-01,-4.399001266985599901e-02,-4.917742033974267790e-02,1.036962812792047530e-04,4.894161312393232330e-04,6.998814120286479248e-04,5.770195722579956055e-01
5.309592420044835226e-01,-4.442193138113467721e-02,-4.287949009103200759e-02,-5.597239741192069906e-04,-2.856696878665350588e-04,9.789940599524995200e-04,5.746150612831115723e-01
4.969874580213188286e-01,-4.670018850329557547e-02,-4.074610032034747809e-02,-4.622019956475508819e-03,7.621798121972676475e-04,-9.723460750274458622e-03,5.410582423210144043e-01
5.313888098910722890e-01,-3.888496594135390505e-02,-4.642953236498059688e-02,1.785784322325179464e-03,1.655362421837695049e-03,5.207089357469977262e-04,5.740994215011596680e-01
5.306309025571754878e-01,-4.449247338588407930e-02,-5.019643507161594687e-02,-2.487790279766142142e-04,6.448332584085573940e-04,1.927707757121037814e-03,5.780073404312133789e-01
4.653277207386027348e-01,-3.470354960672353273e-02,-3.597047869367134276e-02,1.831705326818262218e-03,1.459701149290380069e-04,1.212373501477789946e-02,5.011162161827087402e-01
4.764178691958819156e-01,-4.766603147292616804e-02,-2.930831207805398297e-02,-1.652090351050540876e-02,4.079333537806605005e-04,-1.131949555503105123e-02,5.163174271583557129e-01
5.184845810370264374e-01,-3.720323705446876295e-02,-5.451299046953989036e-02,-2.970792736906287604e-03,-1.049640868082032811e-03,-1.190046071258047365e-03,5.645719170570373535e-01
5.061187887608392666e-01,-3.717954874823556355e-02,-4.843416700086744520e-02,-7.118242591643971981e-03,-4.498659194530534380e-03,-1.154872279289772576e-02,5.495700240135192871e-01
5.204047333953635279e-01,-4.518888273599319660e-02,-5.341229181514250968e-02,-3.774048968684933815e-03,-4.026405400205752480e-03,-5.320381098035883126e-03,5.699045062065124512e-01
4.843484029619899989e-01,-3.576997284469152216e-02,-4.567108769003583313e-02,-1.146266559793385383e-02,-2.738459609060234917e-02,-9.516820861052840627e-03,5.279077291488647461e-01
5.274816391910510660e-01,-4.239702536025155566e-02,-4.358304628967285543e-02,-1.455166734346442520e-03,-4.403271674337593845e-03,-3.839501166742772306e-03,5.705679059028625488e-01
6.988859299355110188e-01,-1.146234199199711867e-01,-3.288934609028210110e-03,7.049980525143839660e-02,1.334966727494180938e-01,1.171927326996720191e-02,8.077177405357360840e-01
5.379269274175567661e-01,-3.208509913752194409e-02,-3.710226989351811389e-02,-3.259889457855711867e-03,-3.747424120782832588e-03,4.627649500045980489e-04,5.726022720336914062e-01
5.350854669840553468e-01,-3.576260837103095724e-02,-2.507575617724430717e-02,-5.633302296444506717e-03,1.025098307479123654e-03,-6.744137679491663982e-04,5.656685233116149902e-01
2.378587624446208137e-01,-9.737757391931764483e-03,7.200981309004317321e-03,-5.176281527694472778e-02,1.080635788910021960e-01,-1.111365397301883329e-02,3.175514042377471924e-01
5.382873651370359003e-01,-3.802706849058198890e-02,-3.723062020116663096e-02,-5.968903948300442741e-03,-3.371350425084656231e-03,1.128412653805214039e-03,5.760422945022583008e-01
5.401199353512874390e-01,-4.175938953608215876e-02,-4.033578753979386033e-02,1.210209716453610916e-03,-3.404072350382981917e-03,-1.685111855063500677e-03,5.812098383903503418e-01
5.139541311793950351e-01,-3.176428259737829052e-02,-5.239940432034767559e-02,-2.023339367159401707e-03,4.217346834099932533e-04,-6.589048535454361533e-03,5.564516186714172363e-01
5.355363427079913308e-01,-2.560903151708590619e-02,-3.459511710788418237e-02,2.324896219723391732e-03,-4.399550081679200197e-03,1.627053131272375398e-03,5.657646059989929199e-01
5.277397712626077375e-01,-2.853656481134908551e-02,-3.465933635514434341e-02,2.996884647588616418e-03,3.105289350362691343e-03,3.367881659460980918e-04,5.594130754470825195e-01
5.271411290708087893e-01,-3.647823618389803291e-02,-2.927878893762739243e-02,4.606454555705729106e-03,-3.440307188809558353e-03,-3.711382009491271533e-03,5.601797699928283691e-01
5.394064166577684505e-01,-4.173530757882090714e-02,-3.633468024746275282e-02,-2.648263582448841515e-05,-1.347823585830837780e-03,-1.899598872356815212e-03,5.784744024276733398e-01
5.281907741905550457e-01,-3.781425027073273548e-02,-4.989551636613206997e-02,2.515597859239612679e-04,-1.533477797944610447e-03,-4.293655997111809090e-04,5.721481442451477051e-01
5.318218079498284734e-01,-2.803219060105535676e-02,-2.357764570944301252e-02,-4.819678934458701590e-04,-2.120428556646893233e-03,5.163194011784106099e-03,5.577244758605957031e-01
4.225582637146499954e-01,-5.793330379017663789e-03,-3.534144889542553680e-02,-7.784893874056463469e-04,9.949075988975233237e-04,-6.712828968782372197e-05,4.438693225383758545e-01
5.386145192549827154e-01,-3.142626228386954934e-02,-3.590458257784598373e-02,-4.163489020850871629e-03,-5.177906715316447049e-03,3.630750254668209127e-03,5.724433064460754395e-01
5.333218849855269061e-01,-3.714231473250370619e-02,-4.893199135300094205e-02,3.480361179271988705e-03,5.133180854673277671e-03,-2.303907053121900979e-03,5.765633583068847656e-01
5.181051628518825725e-01,-5.652957601339830829e-02,-3.983861636512794901e-02,1.628666978188061986e-03,1.001278855519407030e-03,-1.335843640891583696e-03,5.664880871772766113e-01
5.266038221335880287e-01,-2.407794419331724112e-02,-1.472339513335063632e-02,-3.546264419618448422e-03,4.802069660669602098e-04,2.647314756880709153e-03,5.461190342903137207e-01
5.360440328525715170e-01,-2.836207071246127365e-02,-3.442105642404139076e-02,-4.829335411634818817e-03,-3.037717300033637366e-03,2.978950557882513038e-04,5.675461292266845703e-01
5.391873638276846181e-01,-4.565488184848412456e-02,-4.429572253454314157e-02,1.604434388056700774e-03,-7.244840028128240409e-04,-3.083317088868341854e-03,5.841962099075317383e-01
5.366696676049664827e-01,-4.018363119963222485e-02,-2.797477043543541986e-02,4.348374108987798289e-03,1.367639236911595557e-02,2.279812908240085121e-03,5.714013576507568359e-01
5.368817005443488055e-01,-3.545591921346777364e-02,-3.354308733951513743e-02,-4.186344361735035852e-03,-3.369442267799672031e-03,1.030974308201795288e-03,5.714622139930725098e-01
5.283209959751917761e-01,-3.459737618125344194e-02,-5.205283921571399186e-02,2.818666110150561468e-03,8.250745018224961772e-03,2.893288174143349416e-04,5.720455646514892578e-01
5.348061220572801755e-01,-3.321302886642413243e-02,-2.398980286471974477e-02,-4.530872495661473695e-03,2.000015452530490030e-03,1.056531670562233871e-03,5.635324120521545410e-01
5.301032437080162030e-01,-2.653758608670114816e-02,-1.283469554374952470e-02,-3.307591772484037157e-03,-2.082730793800582209e-03,6.688546937672542984e-03,5.500811338424682617e-01
5.207284243914045430e-01,-3.458870681004885816e-02,-5.957504165195517953e-02,9.847364627285282363e-05,3.454125386342231374e-03,9.092374753482460308e-04,5.682561993598937988e-01
5.413248996978263783e-01,-4.677496905298855756e-02,-2.698560891362375425e-02,4.492997939923209019e-03,1.184842853629805050e-02,-1.515844507653687665e-03,5.788813233375549316e-01
5.389196060951686462e-01,-1.510665801052440971e-03,-4.004654538285523646e-02,1.291154968460958433e-03,-1.433510437866078501e-03,-4.816111430691803925e-03,5.607643127441406250e-01
5.332716774489628664e-01,-1.530720788848086156e-02,-2.861504890020596936e-02,3.463467022696504528e-04,-2.295445212392656972e-03,-4.175228934037348780e-03,5.554140210151672363e-01
5.308507399003424831e-01,-2.375256832786998284e-02,-2.226856438045765607e-02,-4.902174254421365514e-03,-2.970904100690795885e-03,1.303248371011589196e-03,5.539563894271850586e-01
5.333495583219721725e-01,-4.595159025653433593e-02,-3.983919260736565326e-02,1.230493027996484509e-03,1.418199896605867438e-03,1.543426872647914302e-03,5.762846469879150391e-01
5.320454935124694362e-01,-3.886110333409509288e-02,-4.965064491370851929e-02,2.618280943495647235e-03,2.144266138587043891e-03,9.172985199931517125e-04,5.764091014862060547e-01
2.651182737285979751e-01,1.198257263975587017e-02,1.003130096855574249e-02,6.501153419900302863e-03,-1.666580051846631647e-02,1.190193434691551181e-03,2.560072541236877441e-01
2.792608381637117776e-01,1.344131998327212363e-02,9.671221597246440482e-03,-2.518859754591512568e-03,-2.009291043851613168e-02,2.588517171380987775e-03,2.700494527816772461e-01
5.384079791485192334e-01,-5.284764309105155489e-03,-4.552327097442487869e-02,5.512304064774783616e-03,1.298476900242793303e-03,-6.250996930792019832e-03,5.650767683982849121e-01
3.284972637433275500e-01,-6.519824103718291353e-03,-1.652401782385677642e-02,1.340393165474838832e-02,-3.595445854768240107e-02,1.149887303162739315e-02,3.471339046955108643e-01
5.324527037484005909e-01,-3.918703363801978590e-02,-5.223122289019721531e-02,2.831268016598388094e-03,1.985370417140946541e-03,2.690981963744996409e-03,5.783219933509826660e-01
5.311062729450923836e-01,-3.240172723379927677e-02,-2.831167235776516078e-02,1.568554305307001467e-03,6.315025653893488770e-04,-3.547605098534255524e-03,5.615153908729553223e-01
5.258165527949665297e-01,-5.771155164154900818e-02,-3.434506951826626908e-02,-2.716412254713542600e-07,3.231958157082034065e-03,-8.273999652940510017e-04,5.722319483757019043e-01
3.032674803466761659e-01,1.008507700858082834e-02,-1.126419182764755444e-02,1.014276558523139436e-02,-3.937945069680658799e-02,1.322568275844673152e-03,3.124692738056182861e-01
5.303985002681765870e-01,-3.153242451616752873e-02,-3.940630570823780432e-02,2.824451601930175366e-03,1.866552769649302678e-03,-9.851184026601709359e-04,5.659419298171997070e-01
5.197822641918280473e-01,-5.776104530591108510e-02,-3.214444464107790722e-02,1.641978872589376290e-03,-1.221180764059239313e-04,-2.203264861009878491e-04,5.651779174804687500e-01
5.280869677451416333e-01,-3.185199072881622628e-02,-3.789207770939803654e-02,-2.428110737181415121e-03,2.469062230111898886e-04,-5.691961242905994086e-04,5.630000233650207520e-01
5.356801372418231733e-01,-3.960402821938840967e-02,-3.627769138004649507e-02,4.953764539297133250e-03,7.321383370802038264e-03,4.517311876905556181e-04,5.738330483436584473e-01
2.895165677099356127e-01,-5.516024304683203594e-03,1.086448929514766126e-02,2.059822918978505141e-02,-9.870149071577212843e-03,3.636097724764420598e-04,2.899056375026702881e-01
4.028748639235174012e-01,-3.017713501233773576e-02,-1.776666650201341735e-02,7.478921192948816132e-02,4.670057360196040036e-02,-1.314216555794345221e-03,4.534776210784912109e-01
4.011249004612391089e-01,-1.789005460158307748e-02,-2.401391972092925542e-02,8.768358999770292997e-03,2.824267104394400513e-02,-4.748993791520597293e-03,4.252861142158508301e-01
8.637166108248999219e-01,-1.353218290295545301e-01,8.377540009601086579e-03,2.978186720702159437e-02,-3.692477507392814828e-02,2.157863276993899834e-02,9.398480057716369629e-01
5.389772815767955860e-01,-4.270704376385248136e-02,-4.645906531958698960e-02,-2.114336605998841899e-03,-1.767875212649384670e-05,-1.364960855413904122e-03,5.835856795310974121e-01
3.418277500194649710e-01,-1.406511181779838970e-02,-7.636930953698342628e-03,2.672112803396059152e-02,1.123335346618144770e-01,3.966841532903052879e-03,4.055354893207550049e-01
5.490975657225621864e-01,1.416144450291936807e-02,-2.159275234305804703e-02,-7.731036937289304488e-03,-5.434165426732685128e-03,3.932160974819231408e-02,5.580928921699523926e-01
6.966571602888737003e-01,-6.109542897075140311e-02,1.613069531041877447e-02,-4.143869446333928175e-02,-1.380493927777806107e-01,4.076840699273318047e-02,7.674276232719421387e-01
3.726622868705029568e-01,-1.123080713131474617e-02,-2.281750120678863181e-02,1.334434477732914437e-03,3.027965447061209403e-02,-4.257310718934519058e-04,3.933353126049041748e-01
3.783985862286799451e-01,-1.722121250644664814e-03,-7.282718353167336178e-03,-6.939761282231634350e-04,3.823965686811246073e-02,1.156419880901747273e-03,3.886240422725677490e-01
5.405175334039333812e-01,-4.247111994336350005e-02,-2.539998995624376255e-02,3.810682204626909299e-03,1.149467631981884036e-02,9.939822227411265667e-04,5.750285387039184570e-01
2.857862461128041209e-01,9.941362528965436152e-03,-5.531204553873528273e-03,3.963479396928160916e-04,4.134041549136809740e-02,2.448145025282622120e-04,2.927892804145812988e-01
7.791520044072564044e-01,-4.080936941511187355e-02,-3.928689080406039258e-02,-8.933625201272321625e-02,-8.398324101604597025e-02,6.527298271746820313e-02,8.538001775741577148e-01
4.182814593080435572e-01,-3.363414012882665061e-02,-2.293719395929832983e-02,-1.359898833260904036e-02,-2.752926867050549571e-03,-1.193427161750603913e-02,4.477865993976593018e-01
8.956691221956304405e-01,-5.915210010675631125e-02,-4.640291745750507735e-02,4.074539451862695116e-02,5.909463320072453479e-02,5.659335938968637625e-02,9.616332054138183594e-01
5.282387877210923399e-01,-8.666803895299002303e-03,-2.469967010243862005e-02,-8.421161927016489537e-03,-7.069435426638489076e-03,1.486141118748323005e-02,5.460385084152221680e-01
5.266864442365262189e-01,-2.448021686299731159e-02,-9.963116380336117794e-03,3.512213693604255768e-03,-2.309005211920554280e-03,3.336142271455285607e-03,5.441327691078186035e-01
2.487240093662752560e-01,2.624779582753337948e-02,-2.448704567803687560e-02,-1.193843924332364387e-01,-6.202044421292786554e-03,-8.193238897990357678e-03,3.262386620044708252e-01
3.351905239636865930e-01,3.371561747405603382e-02,-5.267326873479191707e-02,-1.223718468945556304e-01,-4.214162692229381918e-03,3.750495016294477985e-04,4.115489721298217773e-01
4.455739880129435115e-01,-2.926763076582807044e-02,-4.538994099558256445e-02,1.552872103726877411e-03,7.292595858624106864e-02,-1.190263471559039124e-02,4.997768104076385498e-01
5.434596854170981040e-01,-4.637268902973062934e-02,6.417634629058505125e-03,-1.121836242405180317e-03,5.127949350496309629e-03,5.265693793695279748e-03,5.654356479644775391e-01
3.661227368044214225e-01,-2.198358953263884752e-02,-2.853764401029446063e-02,-7.251203578965814689e-02,-5.056856875277652985e-02,-1.720207652628390899e-02,4.213625490665435791e-01
5.414139514879802162e-01,-4.898357073293466146e-02,1.676308766021741836e-02,4.776424672138825100e-03,-5.359047548604896349e-03,-4.565066056129784416e-03,5.606178045272827148e-01
3.492799766303430475e-01,-2.494367165647647100e-02,-4.578065639129255682e-03,-6.631098784212537123e-02,-5.047920902612839517e-03,1.543025236445748783e-03,3.822457790374755859e-01
2.204757695516697535e-01,-1.075225471605287253e-02,-1.104687162870672534e-02,-4.867083430833436114e-02,-9.401429080758735846e-02,-5.945673352301760308e-04,2.952257990837097168e-01
1.821772138422041720e-01,-6.739436134364559794e-02,-5.069752554529161764e-02,-1.139047069092519356e-02,3.011063792108213677e-02,-1.245182083846919918e-02,2.489418089389801025e-01
5.410562961392403336e-01,-3.340999575143285827e-02,-4.498871251110342362e-03,2.904267766311112095e-03,3.589744826760146203e-03,-6.398822916151937490e-03,5.607367753982543945e-01
2.486452016237497564e-01,1.457828469552668871e-03,3.430689551295926232e-03,5.051201779036516674e-03,-4.159847674265630679e-02,-5.033683790084370708e-04,2.566835284233093262e-01
3.820016757441819233e-01,-1.590981586137536763e-02,-8.566294499724499967e-03,-2.617033019664567056e-02,-1.393944539089339400e-02,-1.291388387989862718e-02,3.982503116130828857e-01
5.885153109159659834e-01,-7.120571052820634517e-02,-2.891758209438974325e-02,2.097599227899485386e-02,-5.318821682461802314e-02,-1.497052893556348463e-02,6.477661728858947754e-01
5.537694071907184323e-01,-6.725927244265320071e-02,2.391194787686862222e-02,1.453927728839046057e-02,-6.316416945517241976e-02,-2.774989679187211608e-02,5.935337543487548828e-01
1.643614624906046817e-01,2.251274779792222097e-02,2.079264388376844686e-02,-1.975782790200396322e-02,4.610389853980625258e-03,6.036802686230462178e-03,1.473506838083267212e-01
3.570889281998547715e-01,-1.624881826411189722e-02,-1.163400019648853922e-02,-2.379990851834010504e-02,-2.563139755892412594e-02,-9.120399700451161870e-03,3.762967586517333984e-01
2.714161179534717028e-01,1.024205483180166965e-02,1.902302146379583614e-03,-1.491281255564669804e-02,-3.205730220598413532e-02,-3.904278099893046701e-03,2.724986076354980469e-01
2.495726665812301459e-01,-3.460512976464727442e-03,1.096447497321091646e-02,-4.497828280987347521e-02,-8.464054882299868951e-03,2.207596852223826702e-03,2.586165964603424072e-01
2.876909457614384991e-01,5.011501075328911314e-04,5.412828219348853054e-04,4.422169143666222768e-02,-1.192033402923057227e-03,1.648285997324893878e-03,2.972297668457031250e-01
5.388485926267900794e-01,-6.069050190275721013e-02,-4.484974452317741500e-03,-2.330375447905176905e-03,-3.858502880264610968e-02,4.538318400112290908e-03,5.774541497230529785e-01
5.360227512408477502e-01,-2.254547948167273663e-02,-4.626177918741086748e-02,-1.351805448459143626e-02,-5.471764433099498594e-03,-1.801994580089252471e-04,5.713547468185424805e-01
2.906333190907036679e-01,1.027381497794255250e-02,1.256374959881312314e-02,-2.745449464918674589e-04,-1.871809030640729640e-03,9.185149428673855618e-04,2.792453467845916748e-01
5.189862530622451064e-01,-3.692672700396953944e-02,-3.279212703811171248e-02,8.099454829970932981e-03,-3.495104216790594076e-02,-2.650200004859456279e-03,5.573512911796569824e-01
3.116537170873171503e-01,-7.281822204923169006e-03,9.828625800262225098e-03,-3.677971800487782328e-02,-1.452992290534215998e-03,3.220884152495224161e-03,3.172557651996612549e-01
5.287697364634134090e-01,-1.511392230620553501e-02,-3.406266759822901280e-02,-1.077801945013784433e-03,3.445792017059988010e-03,-2.728555465633575663e-03,5.536568164825439453e-01
5.279394563549786312e-01,-2.062948006211540175e-02,-2.223901321695603839e-02,1.162095790567241587e-04,-1.538086012340916407e-03,-1.565174060424975476e-03,5.493886470794677734e-01
3.835713086382898096e-01,-3.422686559599676104e-02,-3.871971096334581031e-03,-3.479229141759183908e-02,-1.615291345501522393e-03,-8.401909971573322602e-03,4.082225263118743896e-01
5.273225928352652803e-01,-4.180519894503201273e-02,-5.084270243112010146e-02,6.595042021075744844e-04,-7.501941011975916821e-04,1.131552765573612396e-03,5.737059116363525391e-01
5.179488656721695783e-01,-4.332606407351805022e-02,-4.713693521648798512e-02,-3.325549655466564832e-03,6.708572189921011529e-03,4.290321981205391828e-03,5.633883476257324219e-01
5.221456305682865562e-01,-1.928435393158187128e-02,-1.517803158721284240e-02,-6.822527360459950405e-04,-3.451383578338688605e-04,1.910430983587391510e-03,5.394003391265869141e-01
3.198085544111379797e-01,-8.623177419661037790e-03,-1.312038848334182162e-03,-3.884745017319898158e-02,2.069406199302519997e-02,8.488105514806710411e-03,3.339878618717193604e-01
3.091832299672818696e-01,-2.637773822014410907e-03,1.265047343568720395e-02,-3.687379593785244242e-02,-8.081880526614867652e-04,-1.990021403507642034e-03,3.111137151718139648e-01
5.220890404918385741e-01,-4.827106098334008055e-02,-4.136596823953461732e-02,-1.658533289413376089e-03,7.377407467616497495e-03,8.774627322714261685e-03,5.672939419746398926e-01
5.359889234921225709e-01,-2.810544469979581184e-02,-4.220969043135588961e-02,1.177546544196665310e-02,-7.166792037427057447e-05,-4.937723620125832394e-03,5.717050433158874512e-01
5.343500329096624313e-01,-1.788779552770708436e-02,-4.707977644906244374e-02,-3.294065054882762064e-03,8.767969216166689173e-03,-1.136648093301202787e-03,5.676326155662536621e-01
5.304830285886563690e-01,-3.291204515672943587e-02,-3.683721799416278531e-02,5.149890659275944450e-03,4.023038784218711285e-03,-6.949106411972694056e-04,5.654824376106262207e-01
5.380726658144996399e-01,-2.546433547877990922e-02,-6.009863546901536568e-02,-1.051271096229437936e-03,2.570583954751615510e-02,-1.205782440799320170e-02,5.837063193321228027e-01
5.283071605580560437e-01,-2.173638603253597035e-02,-5.001227960075982359e-02,1.843223823592401653e-02,-2.008066304380789428e-03,-9.106278954674165010e-03,5.658449530601501465e-01
5.602578884671048920e-01,-2.054259550887088670e-03,-4.243809427506925469e-02,4.902293859198184056e-02,-5.117221036068026613e-02,-5.232801288223301595e-02,6.031702160835266113e-01
5.371866646082519292e-01,-2.116361026424576353e-02,-2.857606113423771799e-02,4.917249574707803321e-03,-1.580603243427023633e-03,-8.269907509951556629e-03,5.623468160629272461e-01
5.290141889239559081e-01,-4.114880629757722286e-02,-4.074008333883838429e-02,6.683881303146258987e-03,2.271749330175623811e-03,1.936658047595945587e-03,5.700997710227966309e-01
5.217249850269911615e-01,-3.780806024184368841e-02,-4.207831724966615283e-02,-2.319589852390730855e-03,4.285629379061061187e-03,-9.381310931760304022e-04,5.617461204528808594e-01
5.248285295292819397e-01,-4.586863298077634155e-02,-3.943702197405424270e-02,2.806897160493896856e-02,5.971681579513268487e-03,1.783435848998252441e-03,5.696895718574523926e-01
5.104222902497540515e-01,-4.942553456049364469e-02,-3.606262428229531358e-02,9.756577315922400004e-03,2.774682959969536691e-03,5.558660272821096433e-03,5.536500215530395508e-01
6.262567989880669650e-01,-4.589933356642147966e-02,-1.503723791327549186e-02,-3.699961060382045593e-03,-6.354000484916818778e-03,3.505517251236634629e-02,6.601901054382324219e-01
5.265105641902496636e-01,-3.329648041957355975e-02,-2.770618001929747720e-02,-1.658211278324436128e-03,-3.159937467281577505e-04,2.853189571526727752e-03,5.570625066757202148e-01
5.339111856862099881e-01,-5.190098966134359948e-02,-4.087500181536909971e-02,1.194381014870506130e-02,5.785762533113217049e-04,3.503050456774685524e-03,5.807788968086242676e-01
5.456160487164800621e-01,-5.203485091146145547e-02,1.311242003075596685e-02,1.652414450739169999e-03,7.073848391898206363e-03,1.991014713384288426e-03,5.680366754531860352e-01
5.597660181720414130e-01,-6.376665393851754793e-02,2.924109044793130052e-02,5.103699568857025456e-03,-1.976353250855533098e-03,1.462042601691563963e-03,5.827060341835021973e-01
5.352123341811988455e-01,-3.633021502346600595e-02,-6.838036820814658023e-03,-3.813964481821981167e-03,2.566558676245406928e-03,4.216663659927113658e-03,5.574866533279418945e-01
5.268904973265490232e-01,-3.488653653712012193e-02,-3.751881442905702357e-02,1.978638350831234734e-03,-1.822256783819301094e-03,4.387288209536220228e-04,5.631175637245178223e-01
5.260191611996289929e-01,-2.396623093977071073e-02,-9.439498073985946869e-03,-4.185108661233374687e-04,-1.400781142090755426e-04,3.142841974612818785e-03,5.428956747055053711e-01
5.236876486330149794e-01,-1.365328856999584173e-02,-1.879036612821707863e-02,-8.234586975294292928e-04,-1.902586670535409696e-03,3.102027293678966385e-03,5.399664640426635742e-01
5.351251060616910582e-01,-2.591694702582719723e-02,-1.327837553128449755e-02,-9.860841954514988714e-04,-7.622224738436067211e-04,1.511775785779348111e-02,5.554524660110473633e-01
5.276504112781883471e-01,-3.349055539482417854e-02,-3.935411530926410939e-02,2.392040887236092980e-03,-7.610780929905847352e-04,1.450106600192100931e-03,5.641179680824279785e-01
5.384622509790213396e-01,-3.845960096251899163e-02,-2.524358522513278635e-02,4.936262340029455402e-03,5.411976816131030578e-03,-1.925327839307344443e-03,5.705795288085937500e-01
5.284080868130329733e-01,-4.460553491326080255e-02,-2.083500286583564454e-02,-1.247527801404225327e-03,3.681251789070191099e-02,-3.667617776774561959e-03,5.651542544364929199e-01
5.201575966171666510e-01,-4.354557037806394693e-02,-3.172514654535635303e-03,-3.008712925608285522e-03,-3.951527453126865708e-02,3.353353867700624782e-03,5.489791035652160645e-01
5.238077205625500943e-01,-1.540679922518392586e-02,-1.799373424554456813e-02,-5.312638501796851419e-04,-1.326918998226740047e-03,1.593430448448259276e-03,5.405253171920776367e-01
5.302393606055919584e-01,-2.843360399633501623e-02,-2.145326809916378585e-02,-4.098869189734694746e-03,-2.636959597423795681e-03,1.541419485143957161e-03,5.552862882614135742e-01
5.411349062207662097e-01,-4.976371783932670434e-02,-2.146744568854203061e-02,7.400762407192120265e-03,-1.127364311645847120e-02,-5.299034644148382630e-04,5.777439475059509277e-01
6.596380685956090284e-01,-6.541190050762243913e-02,6.121089857995865025e-03,-3.696175608841378857e-02,-3.393684694107879790e-02,6.019945864224474780e-02,7.052481770515441895e-01
8.029056326368242402e-01,-9.177942391743870720e-02,-4.204259570556978520e-02,8.226245278726906918e-02,-8.225892374735380153e-02,-7.327095564233464253e-02,9.028527736663818359e-01
5.329723674393315180e-01,-1.165978217835345054e-03,-4.025354406115116968e-02,1.091979363946329537e-03,1.976102498422803878e-03,-4.802702658714473431e-03,5.547921061515808105e-01
5.458478862636659823e-01,-3.842079920146762584e-02,6.714036092050568172e-03,1.788721370670536860e-03,2.432705046880153689e-03,8.814179936683185987e-03,5.632908940315246582e-01
5.423100805878655617e-01,-5.104776103289004885e-02,2.853540056523987123e-02,5.424310440333470103e-03,-4.241940066167196322e-03,2.292553610350041987e-02,5.593788623809814453e-01
5.354396705348047902e-01,-4.786513289091762213e-02,1.261242597485506822e-02,1.866805284173354146e-03,-8.567232181118360906e-03,4.530792184498376278e-03,5.558034181594848633e-01
5.463662261228988681e-01,-4.710649522236273756e-02,1.082016437327082414e-02,3.573127398179835618e-03,2.048914174658353522e-03,3.925174071220362097e-03,5.668197274208068848e-01
5.463311484714349353e-01,-6.158461819836283380e-02,1.741192632608729030e-02,3.034906039281053645e-03,9.212838168515981654e-03,-4.885315132261930458e-04,5.727667808532714844e-01
5.232539272633061067e-01,-5.696691968724465482e-02,-3.487834401025374786e-02,1.789110169577499238e-04,1.979374052266487903e-03,-1.300244386710196296e-03,5.695127844810485840e-01
5.287932106790897979e-01,-4.395178655726852956e-02,-4.349469081748585930e-02,-4.502554344073680871e-04,5.185540413599138213e-04,-1.968338477021857810e-03,5.725279450416564941e-01
5.475816179818614460e-01,-5.764355936116929979e-02,6.657451263312547107e-03,-1.583160233131077413e-02,-2.418928446512714700e-02,4.295668849228158163e-03,5.779949426651000977e-01
5.501450674305448096e-01,-5.412787811031397056e-02,2.951990030558016009e-03,4.301583197648338117e-03,4.545032747644442948e-03,3.839209409301904113e-03,5.779911875724792480e-01
5.334472198135919996e-01,-1.621866795599893885e-02,-3.066838786831524444e-02,8.466000563087515852e-04,1.535841577304583941e-03,-3.530205467415831536e-03,5.570731759071350098e-01
5.325171175432921178e-01,-1.593120272700118689e-02,-2.858914778763022024e-02,-4.487280399781445645e-04,7.534806776340826923e-04,-1.282193505540914300e-03,5.548921227455139160e-01
5.291146320663997482e-01,-4.263928483179207918e-02,-4.352106760330609614e-02,2.299042934950342246e-03,1.820952765582068474e-03,1.698615100427105975e-03,5.722254514694213867e-01
5.292845640969978671e-01,-2.430892009751550731e-02,-2.677895074920846885e-02,1.544084614655710265e-03,-1.067172440076455658e-03,-2.602192645395091778e-04,5.548423528671264648e-01
6.305731215036521897e-01,-4.015686828494904881e-02,-3.176641171889546533e-02,9.783629616334974660e-03,-3.687414405341490811e-03,-3.382880783763259069e-02,6.693896651268005371e-01
5.369964443009497268e-01,2.358010148533845607e-03,-2.239735727602662485e-02,2.371492336946332002e-04,1.333953678267525613e-03,-3.030524555198688824e-02,5.499517917633056641e-01
5.338235944991831516e-01,7.016384026757027659e-04,-3.974222276806566034e-02,5.108039841255830604e-03,5.081172120141787263e-03,-5.062335465641264534e-03,5.546610355377197266e-01
5.408588664567826054e-01,-3.912074551166760950e-02,1.568632095986538522e-03,6.301140629180501315e-03,-1.943585659064356970e-04,-5.434963089660443253e-03,5.609285235404968262e-01
5.286485273819065966e-01,-2.669882587117772266e-02,-1.999149113626441654e-02,-8.488142551724629477e-04,-8.957105163680790746e-05,-1.153627117487521182e-03,5.520298480987548828e-01
5.304139625799567659e-01,-2.483880248905695476e-02,-3.054683667578475537e-02,2.851714438479558203e-03,1.013143963223534991e-03,-1.473151681852218151e-03,5.581591129302978516e-01
5.352255102124447994e-01,-3.024237495076814719e-02,-2.695295426198612843e-02,5.701784526700196150e-03,2.431458227953221893e-03,-2.220982180494684120e-03,5.639457106590270996e-01
5.280454414345209235e-01,-1.784527302649777103e-02,-2.579379862334402196e-02,-1.708740681443567415e-03,2.180586787300758424e-03,-3.562813660258578024e-03,5.499635934829711914e-01
5.284114622186733001e-01,-1.464480930439285289e-02,-3.107393943732500441e-02,4.751285077175962726e-03,4.382528031258862804e-03,3.568923268927287010e-03,5.516026616096496582e-01
5.329983178148476330e-01,-1.771323218918707809e-04,-3.240179665714615354e-02,2.997370743693339619e-03,3.908934787118821703e-03,3.886091328030540169e-03,5.501036047935485840e-01
5.296469343264001983e-01,-2.590953175123864027e-02,-2.514309694621263969e-02,-1.703962223415090140e-04,-2.150986571711243690e-04,-7.496697559407799246e-04,5.551753640174865723e-01
6.269703569279807542e-01,-1.627174487093108191e-02,-4.583195005696769075e-02,-1.426732506997292205e-01,-1.307944531674584132e-01,6.975551069205365717e-02,7.487553954124450684e-01
5.518070906816268106e-01,1.591039717106626505e-02,-3.734637472229868083e-02,-3.274708043215155719e-03,-1.494569596031093683e-03,2.900098444249981158e-02,5.666778087615966797e-01
5.306488515822831431e-01,-1.118805054298455115e-03,-5.213986528127984021e-02,7.881927138498695529e-03,-5.105177711683631537e-04,8.104350047418296468e-03,5.593706369400024414e-01
5.391429531367468719e-01,-1.868526109918927647e-02,-5.100292863617184036e-02,-1.011516219222017773e-02,1.695899099873660401e-03,-2.422017052873498815e-03,5.749588012695312500e-01
5.430908694282479132e-01,-3.253022496151347642e-02,1.744913750267182428e-02,2.389360701671636687e-03,1.432789757904093936e-03,2.901545593859815655e-02,5.546326637268066406e-01
5.230353900751316676e-01,-2.427443142978985557e-02,-9.275678293565403632e-03,-2.251909327220807597e-03,-9.334641392247612288e-04,3.027509134763696139e-03,5.400086641311645508e-01
5.249771016110567068e-01,-1.719600592594516808e-02,-1.837037618646836235e-02,-1.562376607914433505e-03,-1.782882136493612593e-03,8.983385379037107672e-04,5.427790284156799316e-01
5.478072024555264985e-01,-3.902829565205867546e-02,-3.460587869789560900e-02,-2.443038170517242494e-02,-3.883288233568426423e-02,2.226811736921594648e-02,5.912718176841735840e-01
5.310062763033305266e-01,-2.506728744497271899e-02,-2.490503078452244168e-02,-6.775336411833867865e-04,-3.346662975511561101e-03,5.843326981063941272e-03,5.561159849166870117e-01
5.431527364766153276e-01,1.647828014640312366e-02,-4.621443589134494045e-02,4.384427529375012345e-03,4.560641574666620540e-03,4.567608608262888753e-03,5.608187317848205566e-01
5.438504457705345407e-01,-5.994585064113605588e-02,3.699797198375981422e-02,1.495824601837819146e-03,-1.927739344480989452e-03,1.893121780036829396e-03,5.616603493690490723e-01
5.735590396452044937e-01,-6.484531488375050445e-03,-6.842169371139170120e-02,-1.564271398403760741e-02,1.367945573554879991e-03,1.354687541338756539e-02,6.144129633903503418e-01
5.338117380057318950e-01,-1.326853971642907859e-02,-1.692984756694276838e-02,3.093388175437508138e-03,1.617926623164016482e-03,2.817718753635687148e-02,5.511185526847839355e-01
5.254059396586671093e-01,-3.199536350442722110e-02,3.553710172310903248e-03,-1.894829179429873738e-03,-2.088528419098545016e-03,7.168430601827426377e-03,5.406689047813415527e-01
5.269246651034519280e-01,-3.476046542592811650e-02,-2.562598548921268815e-02,-3.372988241849464008e-04,-1.040383603684530509e-03,1.895832766917217305e-03,5.571869611740112305e-01
5.432237393726755403e-01,6.668239109194146197e-03,-3.852423253758038846e-02,5.892573351602343502e-03,4.203076701730975445e-03,1.024954490331910634e-02,5.609409809112548828e-01
5.337234368123664474e-01,4.969656062735638979e-03,-3.753080333638583732e-02,-9.473945879725780993e-05,-7.584448442306147961e-05,6.352923997594860789e-03,5.513440370559692383e-01
6.033511248797689408e-01,7.031099108727317804e-03,-5.280906143279454068e-02,-8.948702235253978843e-03,-5.527761013122580239e-03,3.552069198293656554e-02,6.316481232643127441e-01
8.291372285091761496e-01,2.311190657345890687e-02,-1.363835123025867735e-01,-1.190506920330250684e-01,1.088291721299398593e-02,1.552174148195644907e-02,9.204728603363037109e-01
5.360324853139285528e-01,-1.671937739824203017e-02,-4.892226234477500824e-02,-1.502842329568491661e-02,2.086530084780191183e-03,-1.781047064957870909e-03,5.701508522033691406e-01
5.298693009348041105e-01,-3.604163711542376913e-02,-3.873600794321413465e-02,-3.278506958045390718e-02,-1.504704410273043341e-03,7.764987410798235160e-04,5.701056122779846191e-01
5.353544655064572666e-01,-4.722340163711313821e-02,1.262669459768619995e-02,2.880472434820388269e-04,-7.847238324683989200e-03,4.389712702669837721e-03,5.552967190742492676e-01
5.369553961282077514e-01,-2.987547596094386471e-02,-4.843508827005965633e-02,4.056922062701080679e-04,7.862356016562651456e-03,-8.990688946901653159e-04,5.764982700347900391e-01
5.330543838842967119e-01,-3.196374444557203987e-02,-4.335766285401282394e-02,2.951861500426291619e-03,4.264805677811896005e-03,-1.333548259122789570e-03,5.708757638931274414e-01
5.821589349527204194e-01,1.247100026379485693e-02,-8.327481170314041115e-02,-7.395525749716847647e-03,1.592353522861821372e-02,-3.444065242993641328e-03,6.238727569580078125e-01
5.393215794951989883e-01,-2.101653289079463693e-03,-6.198286192782939685e-02,-3.181723413105806697e-02,2.951539776699467748e-03,-3.093821148249506926e-03,5.764007568359375000e-01
5.396886407010299536e-01,-5.651518328864030272e-02,3.727675677703234935e-02,1.237127583900454221e-03,-5.502975130998075896e-04,7.866220702592063895e-04,5.552874803543090820e-01
5.175150824522785076e-01,-5.172730727621210889e-02,-4.186934305183884208e-02,-3.167039656844142410e-03,2.661948306745494375e-03,4.714044989997142991e-03,5.644825100898742676e-01
8.073190607102489480e-01,-7.254535669021933142e-02,-2.086846114447221678e-02,-9.591085963101694811e-03,-6.765031808424462612e-02,6.161190330210557231e-02,8.699178099632263184e-01
6.202832012491036329e-01,-7.924560962174914680e-02,-1.927638603416856333e-02,6.682041761797626045e-02,-1.430498227747363342e-02,-7.202541667347675536e-02,6.932232379913330078e-01
5.305322432421905043e-01,-4.722940302264325152e-02,-4.757943224622299128e-02,-8.554104614992877028e-04,1.658688321547284201e-03,1.272388620858169945e-03,5.779500007629394531e-01
5.259761028563407770e-01,-4.764063150139741243e-02,-4.387045494829427961e-02,-1.327102049557741734e-03,1.405680464304660988e-03,5.790017440698551170e-03,5.718387365341186523e-01
5.259267585893554475e-01,-4.800052091188097836e-02,-4.435053664352811564e-02,2.715541660573225378e-04,8.191648502232243365e-04,4.459940761463124128e-04,5.721135139465332031e-01
5.266753113340545411e-01,-5.368919358165052946e-03,-2.180912871607654235e-02,-2.800279343032973257e-03,-2.355658410835334993e-03,1.043927098528154955e-02,5.407914519309997559e-01
5.455664680526861599e-01,-2.208629331964878650e-02,-1.600903051528268506e-03,1.051506724886522022e-04,-1.795747109521774994e-03,1.788394135140516233e-02,5.585606098175048828e-01
5.452201947963106754e-01,-6.722988076664843105e-02,4.810467012244495910e-03,4.948276271776539358e-03,1.209598787792561664e-02,-1.111665469400835091e-02,5.805574059486389160e-01
5.310618384243617207e-01,1.363085124402010906e-02,-3.514877034591698535e-02,-1.918610710005451197e-03,-2.110477393825755353e-03,1.410995907811361284e-02,5.440368056297302246e-01
5.291767534016391661e-01,-3.350154947917813320e-02,-3.670299801853663113e-02,-1.583717059318893116e-04,-2.133521949785405908e-03,1.465002910041539709e-04,5.642980337142944336e-01
8.079101921900290195e-01,-2.239540390150865368e-02,-4.372849196164538266e-02,3.459626573772583980e-02,-5.951562007128716192e-02,5.608046136567951256e-02,8.551184535026550293e-01
5.284107505076426348e-01,-2.252682799557023663e-02,-2.147077840877045785e-02,1.379289595056957174e-03,8.636261747862879158e-04,-1.457045828575953854e-03,5.504233241081237793e-01
5.974616903346258168e-01,-5.836751468859274761e-02,-4.605691152879870520e-03,1.014831531418930108e-02,-8.647826007232578202e-03,-1.296932685290880932e-02,6.314916014671325684e-01
5.300748368296086532e-01,-4.553547342604050141e-02,-2.778147120256097002e-02,2.957136663540981675e-03,3.262510701720244588e-05,-4.911639810259523951e-04,5.669656395912170410e-01
5.455923556554083120e-01,3.072664283364995308e-02,-4.427444205269406852e-02,-4.653353152550279530e-03,2.916145013113317485e-03,3.036017344646134777e-02,5.587334036827087402e-01
5.367900677817544208e-01,-3.991457662517677862e-02,-3.333402887012920646e-03,1.321552916438334434e-03,-3.668265786832844086e-03,-4.310407139582564731e-03,5.594025850296020508e-01
5.334261057310104581e-01,-3.572069361113830444e-02,3.392187999751550276e-03,-2.096403055260885433e-03,4.086737571045047628e-04,2.101413556275338532e-02,5.518472790718078613e-01
4.238137236668341745e-01,-1.597736631072695090e-02,-3.534269633288890378e-02,-1.254236387467062928e-03,1.272753910258079581e-03,2.916518986668858483e-03,4.498255252838134766e-01
5.413338765333746139e-01,-3.142434988264217188e-02,-4.421137159062274447e-02,3.062922282426143710e-03,1.831670178221247742e-03,-1.416511119302082825e-03,5.792957544326782227e-01
6.264358855794005532e-01,2.583486485177283187e-03,-5.526168009538562353e-02,-2.612595713206011284e-03,-9.979270490744809527e-03,4.443398384235176107e-02,6.594445109367370605e-01
5.311566844960257106e-01,-2.793517469337225556e-02,-1.423030704792085932e-02,4.375372997854965092e-03,4.270514677005866617e-04,-2.937977671565473840e-03,5.524428486824035645e-01
5.281466799239659116e-01,-1.843648246668977420e-02,-2.093661676659425153e-02,4.767302643389828565e-04,-2.474505988340602175e-04,-3.257016605364614938e-03,5.478673577308654785e-01
6.254112517186785070e-01,-8.787585458983515618e-02,4.234716730190746237e-02,2.073155245117036527e-02,-2.510528196000957543e-02,-2.848561531103660938e-03,6.603443622589111328e-01
5.346465097535758604e-01,-1.672233462586597552e-02,-2.888133872977050043e-02,1.837820180467898429e-03,9.630172020638993980e-04,-4.190922067784028093e-03,5.576066374778747559e-01
5.318945864353729069e-01,-2.127128348952297965e-02,-2.879382131065602590e-02,-4.026751694889586265e-03,4.934491897877456464e-03,-2.346473879081385338e-03,5.570893287658691406e-01
5.688685178633616779e-01,-6.383844165210392219e-02,1.616890026263118063e-02,1.048039218583632186e-02,4.455952983051269731e-03,-3.439287742904269859e-03,5.970951914787292480e-01
4.832070536727127164e-01,-1.394703180568679368e-02,-4.571691527157584201e-02,-3.752642569566502773e-02,-1.290303877542081645e-02,1.184181343143138852e-02,5.187590122222900391e-01
5.463746062696265282e-01,-6.154970848303492614e-02,2.457232275905232854e-02,2.699336117215561139e-03,1.709195200894804152e-04,-7.615816095619365152e-04,5.697867870330810547e-01
5.401699864148715724e-01,-4.928067545158118512e-02,1.966068136785378839e-02,-8.351181440513853315e-04,9.804017100590907072e-03,2.304917902430197920e-03,5.584566593170166016e-01
5.221208252271378747e-01,-1.203797560840214054e-02,-1.638557183029706876e-02,-3.257441506395469420e-04,-1.146356511479040857e-04,5.580473086883829849e-03,5.364332199096679688e-01
8.583724627531628126e-01,-1.387089163830318439e-02,-1.458651322610962642e-01,4.918734022897745459e-03,4.365402873183105159e-02,-3.326390897412970227e-02,9.499847888946533203e-01
6.114738043531464662e-01,-6.501072939771945780e-02,-8.811582090978709036e-03,2.603112117596893815e-02,-7.191392780685044832e-03,-1.324664326369891752e-02,6.522930860519409180e-01
5.264648089794887742e-01,-4.258696385607887991e-02,-4.382994227135081355e-02,-1.856008039269178757e-03,-3.611215662666591606e-04,4.421745624461564201e-04,5.696842074394226074e-01
5.772098953697459844e-01,-8.711890832950314190e-02,2.584933978466535942e-02,1.479548856111570498e-02,-4.560595988194073198e-03,-4.916006750221695205e-03,6.163101196289062500e-01
5.233726045848299258e-01,-1.663213399994073471e-02,-1.866378471956067764e-02,-1.057660559724735291e-03,-6.550047725939397167e-05,1.723862177378344919e-03,5.410347580909729004e-01
5.245458499800313978e-01,-2.340773459344105967e-02,-2.454680015120713765e-02,3.086342717412547502e-03,1.409804020015563821e-03,1.431478593703926867e-03,5.485610961914062500e-01
5.546768947891571599e-01,-5.746470614211499073e-02,-1.623158643138583601e-03,2.040770657089210644e-03,1.881368321145793785e-03,-7.268858216184290308e-04,5.862400531768798828e-01
5.455589620151378716e-01,-4.870532151558107370e-02,-2.643751353375328739e-03,7.164642034455161526e-03,6.336524605864173564e-03,2.282502667143733975e-03,5.728778839111328125e-01
5.343104844906088058e-01,-3.271591807612825309e-02,-1.051126546662151107e-02,4.893928749239875517e-03,-3.366947210787537534e-05,4.094147477184741611e-03,5.563663244247436523e-01
4.711598896062401121e-01,-4.110370254031908699e-02,-3.647192655694739272e-02,5.200983304968468833e-04,-1.333241392403465564e-02,-1.238601355347625221e-02,5.109374523162841797e-01
5.856575539807254982e-01,-5.632018725292692318e-02,-5.949986174698856933e-03,2.088598419534389104e-03,-2.421243453656336461e-02,-1.012387904210623746e-02,6.200123429298400879e-01
6.153503616884997696e-01,-6.852658356117571903e-02,1.352491845897471623e-02,1.186146041036783031e-03,-2.017024529752974374e-02,-1.207669629504222811e-02,6.480503678321838379e-01
5.590552678656863783e-01,-5.558726364582178281e-02,-2.706021446358256033e-02,5.290628558140369336e-02,-4.068148741978762362e-02,-1.274390291314817479e-02,6.123027801513671875e-01
5.174386879428711783e-01,-2.362744964265456327e-02,6.694560718839365210e-03,-3.900915784992034507e-02,-7.103820895132745283e-02,4.863297649181981541e-02,5.514215230941772461e-01
5.225997322908404463e-01,-1.760622161235245176e-02,-1.513839296523411537e-02,5.696567611432526825e-04,9.984560182080797885e-04,3.175223870836492348e-03,5.390080213546752930e-01
5.262994085949421752e-01,-4.334237968475423974e-02,-4.188075722278652990e-02,-1.805791939691249025e-03,-4.417984297894627277e-04,4.674499889561862468e-04,5.689221024513244629e-01
5.650813538244812140e-01,-3.610479604805405529e-02,-3.813352368862829578e-02,2.209664663063433745e-02,1.079996609043844431e-02,-2.265943203311161780e-02,6.049823164939880371e-01
5.355142638189930304e-01,-4.357219874100515256e-02,-2.524073346154104280e-02,2.140362678721725344e-03,-6.973428236211520227e-03,2.979879276127056606e-04,5.702819824218750000e-01
5.259165909514774695e-01,-4.078871151286089791e-02,-3.648270883160792399e-02,-5.654403832470487196e-03,4.801025522215399718e-04,-3.278367276053731111e-04,5.646504759788513184e-01
5.279960969090220502e-01,-4.660890926430236170e-02,-2.371734547837348051e-02,1.737616021205748082e-02,-1.046770838166544322e-02,-3.766897782967615609e-03,5.646400451660156250e-01
5.622593240312738772e-01,-4.742745996141223275e-02,-3.266449063649265461e-02,1.929814016758083645e-02,-2.605258441273807998e-02,-7.924566002669967621e-03,6.052082180976867676e-01
3.409498577521461460e-01,8.852928926157133116e-03,-1.774321604002833397e-02,-8.375542749623347046e-04,-3.655231699670983148e-03,9.306881837862325882e-04,3.462268114089965820e-01
4.916707972195710763e-01,-3.618341906112668149e-02,-2.943607198690653681e-02,2.829745397345999336e-02,-3.877249284487237907e-02,-3.861718053171516330e-03,5.311034321784973145e-01
5.350874740834949961e-01,-3.565823737849857511e-02,-3.143225204517396953e-02,7.398665577713683765e-03,2.966190643709515871e-03,-6.649230206754729554e-03,5.689286589622497559e-01
6.322549784374070780e-01,3.586891937698799548e-02,-7.602357347111007857e-02,-1.287976177570268957e-02,5.977343607588450451e-04,2.906771585523015844e-02,6.617861390113830566e-01
5.614209739601052629e-01,-3.887038018748142920e-02,-6.430271261850528663e-03,-8.248998175066661262e-03,-2.436196210846149762e-02,-3.303385943034659045e-02,5.892257094383239746e-01
4.217249578774305840e-01,-2.613664474781907110e-02,-2.400676356171818626e-02,-7.462063329038793940e-04,-7.384930906649324897e-04,-1.177617869537809191e-02,4.472694993019104004e-01
5.354359440583600360e-01,-3.984585192688164246e-02,-3.705737880768675274e-02,1.462385278365588639e-02,-5.088983027146410168e-03,-1.729592874171926751e-03,5.745267868041992188e-01
5.347182130754732921e-01,-4.235564351333520605e-02,-2.026076822054648230e-02,3.841159585648711190e-03,-1.418323586116854509e-02,5.594121011371446829e-04,5.669221878051757812e-01
4.767236190461613399e-01,-2.589872293716752316e-02,-4.670841365384531541e-02,1.117771385455280236e-02,-1.976662086644526486e-02,5.526625829514885020e-03,5.149371623992919922e-01
5.332929488299682497e-01,-3.272769064666214422e-02,-2.818370651351148615e-02,2.351491423815995577e-03,-3.367562153377208663e-03,-3.713838783964647661e-03,5.638439655303955078e-01
5.361211591076123772e-01,-4.157821157317459493e-02,-1.937678679636331558e-02,1.964066554745459627e-03,1.552417902925975687e-03,-5.621016893929636424e-03,5.670249462127685547e-01
5.056086073312342499e-01,-3.684883997517307552e-02,-4.737152885600565133e-02,-2.605045644257007829e-04,3.370848145962515368e-04,5.924683127442204392e-03,5.478911995887756348e-01
5.042046890901946687e-01,-3.432482117576068914e-02,-4.754871539729840779e-02,9.437619417334175420e-03,-2.304106525062288129e-03,-9.748415628786956388e-04,5.455239415168762207e-01
5.414981780141012724e-01,-4.863834093195026909e-02,7.642968493227708660e-03,1.071560025779546947e-02,8.618811051533562667e-03,3.725788570874000259e-03,5.646450519561767578e-01
6.671477583447764648e-01,-1.221595985933380812e-01,2.487428697207783035e-02,4.976933284798189944e-02,9.762337083662064874e-02,-1.758706249254928314e-02,7.520106434822082520e-01
5.514865720282644546e-01,-5.620835771306043060e-02,1.811282521167353887e-02,1.872021477444959191e-03,-1.801510710734326951e-03,-7.144616824591498716e-03,5.743044018745422363e-01
5.342695381778586050e-01,-3.272276470932156123e-02,-1.581978974560413476e-02,4.989115303894181433e-04,-9.991096026468900514e-04,-2.547612987874086667e-03,5.587533712387084961e-01
5.523515929217751586e-01,-3.411926491278000073e-02,-4.561666519262111419e-02,6.577460383069655414e-02,-1.635480485912878604e-02,-1.349390527022557157e-02,6.042770147323608398e-01
5.570344455561526686e-01,-6.207564715239921593e-02,1.999406717011817380e-02,5.515067026484583856e-03,2.570593418088517289e-03,-1.413212990731266402e-03,5.825286507606506348e-01
6.767510160334615499e-01,-8.686140697341113159e-02,3.407791952050484574e-02,-3.158071202704856167e-02,-1.218028181099606727e-01,2.883279902908302689e-02,7.452337145805358887e-01
5.316847002065325789e-01,-3.373584838000270869e-02,-2.595094216119070429e-02,1.097657882518090220e-03,-1.969909132701509660e-03,-1.749586782268159127e-03,5.615903139114379883e-01
5.597066142968772917e-01,-6.437455118659168862e-02,2.514607407948526996e-02,6.818402034994893585e-03,-5.725695122437557752e-03,-8.490178049958895879e-04,5.846905708312988281e-01
7.200643206380222816e-01,-1.042955408059667854e-01,2.805352608146172155e-02,6.913495199944543097e-03,-3.867944397841045073e-02,-1.836488964974901383e-02,7.704710960388183594e-01
5.193618045177863518e-01,-5.003883468831166192e-02,-3.840619477521536873e-02,-3.677095754421834482e-03,-1.772782514441131494e-03,-1.474453616986901375e-03,5.637244582176208496e-01
5.239579141635020143e-01,-4.567873182702025803e-02,-4.804031924031765266e-02,-5.049430645983458716e-04,-1.307730682798831151e-03,-1.982067901136854490e-03,5.708366036415100098e-01
5.278829511651089712e-01,-4.670769814029540612e-02,-4.758205757441077988e-02,-4.418488047879445130e-04,7.311975389200236781e-04,-1.153626941624254524e-03,5.750337243080139160e-01
5.270075103350695400e-01,-4.597077603443355809e-02,-4.818069907646252426e-02,-2.322749956799943240e-04,-2.808740074490507295e-04,-4.095232362320216446e-04,5.740872025489807129e-01
5.253555260908120417e-01,-5.060392590575055194e-02,-4.300192615674386376e-02,-8.628920489857404633e-06,-1.673248237239112913e-03,-1.803211702688566282e-03,5.722122192382812500e-01
5.374805635553752126e-01,-4.858415042781299986e-02,-2.049659736548409272e-02,1.664294312991094170e-03,-1.377507404100628691e-02,-7.160424181119173347e-04,5.730434060096740723e-01
5.317483239502323045e-01,5.679894389672229815e-03,-6.099986044426330967e-02,8.612241327761845089e-03,8.392450846942381762e-03,1.645176227515482426e-02,5.634874105453491211e-01
5.292552857886790862e-01,-3.743621187541970596e-02,-2.654363398758136094e-02,8.204584630164692789e-04,-3.453040664037071526e-03,1.298720309831710154e-03,5.613626241683959961e-01
5.276297653649824060e-01,-4.620741741640868594e-02,-4.562873047162685491e-02,8.864811693580159453e-04,2.197500411060069464e-04,-2.881925712432499630e-04,5.735504627227783203e-01
5.290220621475411056e-01,-4.607354824267123616e-02,-4.468977624631370604e-02,-8.932774389517422970e-04,-6.063770546178985947e-04,7.216176221666132859e-04,5.744093656539916992e-01
5.274946297752629576e-01,-4.118302380010033237e-02,-4.454810889009011565e-02,1.210458978521836886e-03,-5.648996587007158255e-04,5.010119177753579811e-04,5.703729987144470215e-01
4.429372464590337621e-01,-2.707406410342672043e-02,-4.050022051435234194e-02,-2.634941611743232132e-02,-2.705134425918276700e-02,-1.280355974021269751e-02,4.818415939807891846e-01
5.411643505512586660e-01,-4.580073991853245152e-02,-4.318403340167234483e-02,-4.261047622345483861e-04,-2.113459022736449699e-02,-1.838170888035972747e-03,5.868131518363952637e-01
5.418494310683186210e-01,-5.563001949692544801e-02,-2.069132545442031734e-02,2.101407355882542200e-03,-1.593070978690646136e-02,-2.515196340104434557e-03,5.814815759658813477e-01
5.280437604293878318e-01,-3.878735677456091047e-02,-4.201698641442222493e-02,1.178175478029222165e-03,-4.277143507407337245e-03,-1.005085767007143308e-03,5.685074329376220703e-01
4.374382886699967332e-01,-3.556123509781139447e-02,-2.486070296358988685e-02,-1.493220145694419340e-02,-3.765058093172118404e-04,-1.266762572275585176e-02,4.689695537090301514e-01
5.259361166063861726e-01,-4.696272702739445748e-02,-3.670359070751097463e-02,-1.341723848048613152e-02,-2.256029502300594021e-03,-1.457032671319574615e-03,5.683331489562988281e-01
5.207589226797488813e-01,-4.604280418523523655e-02,-3.782205778642899752e-02,-8.611935281842806071e-04,-2.644736097783882516e-03,-1.513252093261581270e-03,5.627630949020385742e-01
5.011991453137876196e-01,-4.274152203322004184e-02,-4.555978465143320499e-02,-3.846171041082405064e-03,-5.979278868284819241e-03,-7.748933854660001140e-03,5.456593632698059082e-01
5.191467245420967602e-01,-4.329176056556946484e-02,-4.371749772433852765e-02,-5.177527229042306299e-03,-1.458844702937230065e-03,-2.664600283041065019e-03,5.627475380897521973e-01
5.250420834528329861e-01,-4.216278046645377531e-02,-4.825276913768419829e-02,-2.158762000830246729e-03,-6.021832747033810862e-04,-2.989283683066948621e-03,5.703109502792358398e-01
5.423351195938540537e-01,-5.414477518790303257e-02,-2.204660066421246234e-02,1.222615539703194708e-03,-1.053190237649967789e-02,-3.375473409059905668e-03,5.814155936241149902e-01
3.384864928505509907e-01,-2.308715815760688239e-02,3.176046458161913000e-03,-5.603729459203298652e-02,-1.407292870859836176e-01,2.480408623279215657e-02,4.388731420040130615e-01
4.487231865700789246e-01,-3.447156357088038137e-02,-2.591422910490079334e-02,-2.292553374523755363e-02,-4.835399514601102650e-02,1.023803321697522783e-03,4.878624379634857178e-01
3.787504969712076619e-01,-2.829859610968851746e-02,-2.255619948136897146e-02,-4.629519482058856022e-02,-5.458501222551925131e-02,-8.142042912149665204e-03,4.230268299579620361e-01
4.268787549611339216e-01,-3.593208759517799167e-02,-3.374917342857963742e-02,-4.704106079650791084e-02,-4.143006607517889933e-02,-1.393562394956046439e-02,4.749304354190826416e-01
4.940880272899788039e-01,-2.646736889051409802e-02,-5.970460716493303233e-02,-4.400546448534406636e-04,-5.301118501918631286e-03,-4.049512725408058178e-03,5.380692481994628906e-01
4.443979985495886131e-01,-3.262057980217489273e-02,-3.392556295800408517e-02,-7.587774420964403521e-02,-1.666343856558594183e-02,-1.023449335095701768e-02,4.965787529945373535e-01
2.698212436568066530e-01,-7.786951796932149727e-02,-1.339532358399631029e-02,-4.742904560817389620e-02,-8.863716590610522250e-02,1.352339113136062816e-02,3.653704226016998291e-01
5.494963693345145117e-01,-4.413260859638362676e-03,-4.626404043809734246e-02,7.192551693650191041e-04,3.562119194496651299e-03,-7.506646135865457405e-03,5.761576294898986816e-01
5.348476250868963167e-01,-3.921810099587988430e-02,-3.813922171494366076e-02,6.438916992752893170e-03,3.964044328328519655e-03,7.588812409948261870e-04,5.736780762672424316e-01
5.609568841140554207e-01,3.953932921864475314e-02,-6.514874703602457906e-02,-4.321972768431979819e-03,1.448687236689671053e-03,-9.859643123696424163e-03,5.811850428581237793e-01
5.305634942090158290e-01,-1.987504236833309568e-02,-2.332889413846081506e-02,-4.150812603105566607e-03,-1.902050994294198806e-03,4.395072639726461776e-03,5.522826313972473145e-01
5.944450208395969382e-01,-1.273871432313711249e-02,-2.430085023666639366e-02,1.373120802109559918e-02,5.214801000830906336e-03,-2.307472012699923053e-02,6.148744821548461914e-01
5.303065197832285138e-01,-3.248974194904766244e-02,-1.084487726054358947e-02,7.670313107801940552e-04,3.818311574924988273e-03,-6.826629020224992545e-03,5.524597764015197754e-01
5.338913573234050913e-01,-7.015063139889837762e-03,-3.270235785731290257e-02,1.796110239853601891e-03,1.003503097031549886e-03,-7.003492183062558218e-03,5.543408989906311035e-01
5.335990269872823433e-01,-3.728885295958447865e-02,-2.320937491007823983e-02,-7.892699860026834669e-04,-1.802011312746222213e-03,-1.745675324332964049e-03,5.639983415603637695e-01
5.496846636320411594e-01,-1.395934998210693334e-02,-3.171290342451160704e-02,1.336421538580582656e-03,-1.393150384517271440e-03,-6.644091211132819967e-03,5.728525519371032715e-01
5.508836110390818996e-01,-1.246708192174780794e-02,-4.145573008440076035e-02,1.823728270744623924e-03,5.470372650079280104e-05,-3.465332913233361550e-03,5.784298777580261230e-01
5.381670798687228086e-01,-3.206289189899147463e-02,-3.893594420317106342e-02,-3.047670568644244692e-03,-4.187941840594556347e-03,8.487555091279240385e-04,5.737693905830383301e-01
4.558682009788032063e-01,-2.684885091776637034e-02,-3.662137257403966228e-02,6.732316529906387514e-02,-6.571590830785116466e-03,-6.639620400040929793e-03,5.016848444938659668e-01
5.320101249606218330e-01,-3.551226942434734801e-02,-2.666750219195665461e-02,-2.255191071475912568e-03,-9.741992452264680667e-04,-3.686274115445184137e-04,5.631685256958007812e-01
5.279328460494042696e-01,-5.295605199767541849e-02,-3.749167934365532640e-02,3.700147375628427653e-03,2.807771114589960922e-03,2.780630456917573302e-03,5.733898282051086426e-01
5.324308901863580301e-01,-4.579273942279385445e-02,-4.463695346258772512e-02,6.339866711041901347e-04,2.010689997293952248e-03,1.731627054817435870e-03,5.776659250259399414e-01
5.243435098699902319e-01,-1.406572289927066066e-02,-1.407207586267364419e-02,-1.890998476981813710e-03,-2.795845522228012931e-03,5.542218200064378056e-03,5.385296940803527832e-01
5.342893185723562866e-01,-4.528575476868273997e-02,-4.082903464838535945e-02,7.990973339237199269e-03,-8.822482029047135771e-03,-4.034895194483893548e-03,5.777698755264282227e-01
5.320601477526183398e-01,-4.189272066989394028e-02,-4.158215897304204378e-02,5.174027312402572007e-03,-1.649242947088986862e-03,9.328369544455660499e-05,5.738747715950012207e-01
5.143214794596864259e-01,-4.152636505720833093e-02,-5.186163554626016525e-02,1.867536533864470145e-03,-5.621186690975004882e-03,4.028289082715487239e-03,5.612240433692932129e-01
5.064914766049176675e-01,-3.700847410982760488e-02,-5.360125203532692395e-02,-2.399709974841283575e-04,-1.373762020029450047e-03,9.043413958910916095e-03,5.522109270095825195e-01
5.376257942750122254e-01,-4.133838683893886756e-02,-2.965452526905135167e-02,2.970685190694096834e-04,-1.501156295721652696e-03,-3.673246275338031149e-04,5.732180476188659668e-01
4.938580776399672523e-01,-2.679398076262790029e-02,-5.656225977595563670e-02,8.063847288787756584e-03,-1.887922676181606058e-02,6.102058518217719219e-03,5.374380946159362793e-01
6.128703046943746457e-01,-7.985296191313609460e-02,4.193706698818625012e-02,5.250200177244770949e-02,3.881705037846731182e-02,4.467277080475803852e-02,6.550635099411010742e-01
5.283420980769757413e-01,-4.022223071789882143e-02,-3.766290716111189707e-02,-4.185555573889603248e-04,-1.838644013883157600e-03,5.350683867071393809e-04,5.672991275787353516e-01
5.416868953762358219e-01,-4.413034416433311846e-02,-1.573363246497641588e-02,9.044929776543015221e-05,9.159820056252793163e-03,-4.104731476749242866e-03,5.724117159843444824e-01
5.040549680320749459e-01,-3.841129375436622140e-02,-5.226221976090333898e-02,7.533500444091309565e-04,5.694423627262964549e-04,-6.345621268879685084e-03,5.496349930763244629e-01
5.351755125758548282e-01,-2.591451151189827495e-02,-2.758531458839641459e-04,-5.975357423110927955e-03,-7.765763437042996591e-03,7.738095650541229782e-03,5.491461157798767090e-01
5.280247352396958416e-01,-6.024953061582699609e-02,3.103222264565888566e-02,1.770215808048678993e-02,3.337009356691179873e-02,1.205013056396001155e-02,5.526451468467712402e-01
5.904525863872696068e-01,-7.663324736706139673e-02,1.689707238728960226e-02,8.632404818450184134e-03,7.090589859971084367e-03,8.724765929223258012e-03,6.260682344436645508e-01
4.871216087192707378e-01,-2.599581381103710509e-02,-5.813114704645516717e-02,-5.738879933939037333e-04,6.388332896219213897e-04,-3.837300763825413595e-03,5.299601554870605469e-01
5.687831885822229872e-01,-6.974116700124133317e-02,1.388377880287466892e-02,-2.149787638583032599e-03,-5.023406391057638753e-03,-6.332605009461074116e-03,6.012651324272155762e-01
5.449554480927343292e-01,-5.376734873690178218e-02,2.660345197218497160e-02,3.849285598377634259e-04,-2.853076274720461186e-03,1.120687795747788394e-02,5.632142424583435059e-01
5.264234940326794066e-01,-2.317011646139549574e-02,-1.214573356315787334e-02,1.354753988334116632e-04,6.069023651419959420e-04,2.360744529886473798e-03,5.441815853118896484e-01
4.854746747620891645e-01,-3.560528259804610074e-02,-3.858047317924914732e-02,-5.417600671888834346e-04,3.482873175403267368e-04,1.079268574217303808e-02,5.229093432426452637e-01
5.559227275093696630e-01,-6.001018641820779487e-02,2.106312687842054610e-02,4.649053530731010243e-04,-4.276871221665509530e-03,6.035955813987853649e-03,5.798062682151794434e-01
5.250618996784829351e-01,-3.636413590991086076e-02,-4.076729224484634817e-02,3.080815743666543045e-03,-8.977425279708316219e-03,-1.139999619414570464e-03,5.638836622238159180e-01
5.179672997490040176e-01,-3.953198924917686319e-02,-5.684543752998758026e-02,1.337396558187878542e-03,1.238818766629422091e-03,-1.519222145052011828e-03,5.663694143295288086e-01
6.325156599971788474e-01,-9.137534616850151448e-02,4.881634741011861567e-02,6.354454778295882435e-03,8.654973162894848138e-02,1.247562877618368926e-02,6.820916533470153809e-01
5.961028447699631139e-01,-8.049448002604400743e-02,2.407711783458654775e-02,1.893504279098514459e-02,5.556698674852454840e-04,1.962201460754798080e-02,6.326119899749755859e-01
1.541488663765724909e-01,4.694410849210697845e-03,1.199543999252662696e-02,6.934136642665841843e-02,-8.489999045216467533e-02,-2.264961464485178155e-02,2.426653802394866943e-01
3.957147679578100763e-01,-5.625332372551403171e-03,-3.264112332839894104e-02,1.388979409327510336e-02,-3.055350668608482548e-02,6.622523383059718445e-03,4.197107851505279541e-01
5.454495940718806501e-01,-6.324841110723936066e-02,2.162580608716710429e-02,1.286399180339223725e-03,-1.417110737466811127e-02,-1.624482479283987941e-03,5.715500712394714355e-01
5.897535981884225453e-01,3.360462686867821125e-02,-6.771113157617314471e-02,-8.008651359025918681e-02,2.884543290253294145e-02,-2.628091396822296311e-02,6.322364807128906250e-01
5.191085912010537928e-01,-3.607874826659562828e-02,-5.469013329880784147e-02,-4.354285323668716885e-04,-5.169630762943206587e-03,-2.018079369850562816e-03,5.648053884506225586e-01
5.677598397862608781e-01,1.465407983522171165e-02,-6.721444490502570535e-02,2.514752938700570012e-02,-1.509999517006881684e-03,2.727560813060215042e-03,5.998639464378356934e-01
2.895537610052136834e-01,7.567669576095059636e-03,-1.849232920187049434e-02,1.252707299212294234e-01,-1.092642682372281654e-01,-3.397279051513749787e-02,4.170139133930206299e-01
5.207495343365778906e-01,-4.159296228537345819e-02,-2.941039229749656259e-02,5.391995134258590477e-03,-3.085782885526784408e-04,9.237457643037610272e-04,5.564321875572204590e-01
5.339805307989677896e-01,-4.007226772264624315e-02,-2.326510659743535880e-02,-4.249514668841315257e-04,-1.847919235878997925e-03,-1.582558534147926162e-03,5.658526420593261719e-01
4.540752670833458904e-01,-2.777976159062572892e-02,-4.684745087826477916e-02,-2.726777380672379750e-02,-3.669413535640108498e-02,-1.228971733401154100e-02,4.984564185142517090e-01
5.419957137709687789e-01,1.369618666847502442e-02,-5.897241040657813516e-02,-1.022513708003987450e-02,6.960359992793567138e-03,-2.864195429541978744e-03,5.685556530952453613e-01
5.230092759434985528e-01,-2.238692907254175024e-02,-1.194295420402743946e-02,-1.289436224551731300e-03,-3.610265416797692585e-04,2.523330107340540380e-03,5.402725934982299805e-01
5.369592487427455874e-01,-3.824951457957592726e-02,-3.929983918703391921e-02,9.651477432667575698e-03,2.577553717716981989e-03,8.244067521063525061e-05,5.759946107864379883e-01
5.224749691727261780e-01,-1.825031403342683434e-02,-1.185795228742136942e-02,3.105523864158165172e-04,-4.805272885149290858e-04,2.368876051196071048e-03,5.375741720199584961e-01
5.314253857259123581e-01,-4.181216915834060077e-02,-3.883175278223449656e-02,-1.145872362520270350e-03,8.018964836474616739e-04,-3.958522440283229705e-04,5.717586874961853027e-01
5.352293835716612769e-01,-4.136596952427348817e-02,-3.883669352357232984e-02,2.271771937758821237e-03,4.162503992205264687e-03,1.177493657395469167e-03,5.753971338272094727e-01
5.407708523061036665e-01,1.806737286307147361e-03,-5.894085277828389757e-02,5.642364403142142472e-03,6.395463001728204054e-03,-4.434030179424641206e-03,5.720057487487792969e-01
5.789118388331730980e-01,-1.885908365689625832e-02,-5.188426772657611652e-02,-4.264307561482287567e-02,-2.281990393830023514e-03,-4.771409780252491850e-03,6.194363832473754883e-01
5.954328566149212909e-01,2.012782801810775180e-03,-6.933628074418499154e-02,-2.116562770455016063e-02,1.504198984428580660e-02,4.831992295286947903e-03,6.337750554084777832e-01
5.236759378305281265e-01,-4.602755258985327669e-02,-4.476112000301929461e-02,-4.338910412218792596e-04,7.267477589763863231e-04,4.151370133289289041e-03,5.691186189651489258e-01
5.397602378888138874e-01,8.008459252857147437e-03,-6.002918074867649723e-02,-2.720495064814176800e-02,1.027350679803605994e-03,-1.253606881718419839e-03,5.707858204841613770e-01
6.034814443935223593e-01,-1.036934316106880027e-03,-7.039336923404793112e-02,-1.955865846877334266e-02,-4.711649487247055032e-04,1.094645434208152412e-02,6.431856751441955566e-01
6.057633728634774783e-01,-6.613243207438423976e-02,8.547925912037679375e-03,8.893121033540641110e-03,1.617587245150614843e-03,-1.528968503984098198e-02,6.385844945907592773e-01
5.280125746068131676e-01,-4.468165785061178896e-02,-4.658872827007962125e-02,1.250936275510379069e-03,1.707725758834816596e-03,5.709550538092500764e-04,5.736626982688903809e-01
5.322172349508338396e-01,-4.221865085046555555e-02,-3.335853138941297091e-02,-2.494228020261257542e-04,-1.258840801520310195e-03,9.337277414581353135e-04,5.700640678405761719e-01
5.708540851001580041e-01,-6.778775226247629737e-02,2.895584499034578596e-02,8.327885770326734841e-03,-5.468872859902818712e-03,1.171344784437589265e-03,5.964395403861999512e-01
5.320020750109788477e-01,-4.271439866017590070e-02,-4.277764119250251906e-02,-1.052418325774678127e-03,2.729192173104267108e-03,1.062362669705923791e-04,5.747704505920410156e-01
5.408885657985571527e-01,-1.858141876410537852e-02,-1.802008709017455246e-02,-1.376055766501664817e-03,2.402467275914370055e-03,-1.559441000805947622e-02,5.598620176315307617e-01
5.369840099824654267e-01,-4.967035859830790101e-02,1.076910115726831263e-02,3.487490274383587673e-03,-2.111512267980190406e-03,-8.472627762003659760e-03,5.591282844543457031e-01
5.323968236272872412e-01,-2.868342583256641709e-02,-1.082031392194235386e-02,-6.691015097686468533e-04,3.327732101202091758e-03,-1.510992741206390252e-02,5.530162453651428223e-01
5.312192832833415590e-01,-4.594115125062062099e-02,-4.509628436447588040e-02,2.203875029614106411e-03,-7.543915606550436392e-04,-3.266333178273032141e-04,5.767528414726257324e-01
6.008311408376832974e-01,-4.656200691478140641e-02,-8.990338868174102549e-03,8.721082556505912325e-03,-7.083394737611735381e-03,-2.167769378913807568e-02,6.308678984642028809e-01
4.950875620235882790e-01,-2.986192249275881894e-02,-5.620815585909766376e-02,-6.595762232187362024e-03,-1.688870031101527211e-02,-9.640170640497092852e-03,5.397791266441345215e-01
5.223730088642082325e-01,-1.427580993784088870e-02,-1.642999107959550176e-02,1.285676898637812737e-03,-4.354975315489664311e-04,3.994714954013264992e-03,5.377787947654724121e-01
6.354488041781365393e-01,-5.071143437992234326e-02,-3.861154956408621719e-02,-3.308524856965509853e-02,1.693229115917729496e-02,-6.200342122067310086e-02,6.916192173957824707e-01
6.237146748812700814e-01,-4.807899556338593450e-02,-3.462934862461908292e-03,-2.807851892902344174e-02,4.048338309093972576e-02,-5.265410025818331036e-02,6.625132560729980469e-01
4.154921383870560647e-01,-3.089106159093191195e-02,-2.096283909475424312e-02,1.420426718634026063e-04,-2.626692936118927776e-02,1.039242347597930938e-02,4.442056417465209961e-01
5.261936714539612314e-01,-3.738078147258519501e-02,-4.303034707469413633e-02,1.407449445057672426e-03,1.666102751600843446e-03,-3.288749474987562077e-04,5.664332509040832520e-01
5.127254462529131640e-01,-4.356027671349857466e-02,-4.820126877288408163e-02,-2.705986852972369454e-03,1.018749535160342886e-05,-6.338200831916958496e-03,5.587481856346130371e-01
4.808807936545362871e-01,-4.059735933078462145e-02,-3.705014908446424560e-02,-2.165125296295273422e-02,-8.770345241957534441e-03,-1.104904579242524040e-02,5.216373801231384277e-01
5.172577128513203837e-01,-3.928722200968057243e-02,-5.202258913547783137e-02,1.342351484952153179e-03,1.053927680902049229e-03,-3.974775005217455644e-03,5.630704760551452637e-01
5.905980214762489577e-01,-2.757504194610488346e-02,1.313160978104827015e-02,-5.729886839044005115e-02,-1.024575298332805751e-01,5.757887265712392788e-02,6.402494311332702637e-01
5.083556112995053500e-01,-4.841299296445841782e-02,-3.880933589055463040e-02,-7.335772626110080401e-03,-9.180841639963924217e-03,-1.106071406612424424e-02,5.527366399765014648e-01
5.197561385526465738e-01,-5.385894852522513099e-02,-3.742539641233399994e-02,-3.231310599110064768e-03,-1.332090550619463619e-03,-2.843861787156360971e-03,5.656312704086303711e-01
4.970069762297569249e-01,-1.478188593081491975e-02,-2.783444043861471595e-02,-4.322775051447031586e-02,-2.675126544946355295e-02,1.852111871817948077e-02,5.268399119377136230e-01
5.232178421074249464e-01,-3.290320897384793608e-02,-3.815635845901441114e-02,-1.345566521971638951e-03,-6.883030577343337252e-04,-1.244019576507650879e-04,5.587723255157470703e-01
5.233954230568172994e-01,-2.998168086322344772e-02,-3.615900017643652875e-02,2.966951416186434931e-03,1.561471217829575164e-03,1.038099452646183566e-03,5.565246939659118652e-01
5.151358029499495395e-01,-4.769422717980575932e-02,-3.633849660555427130e-02,3.036231193956628340e-04,-4.880578805068567231e-05,-1.659533615181185977e-04,5.572392940521240234e-01
5.105152283777575350e-01,-3.515779357441589648e-02,-5.325952211551690518e-02,-1.583881991409903482e-04,-3.128434250685709853e-03,-5.266965356835727821e-03,5.550468564033508301e-01
5.131510101200726925e-01,-4.715502992976322583e-02,-3.601517865089490233e-02,-2.786180092868917497e-03,-4.532636379475935527e-03,1.948032170059591124e-04,5.548966526985168457e-01
5.244632351089248967e-01,-3.899834511351893407e-02,-4.203775190678626927e-02,-2.817205883130138172e-04,3.756711859942694562e-03,-3.282410982028832313e-03,5.650537014007568359e-01
5.273267775604071339e-01,-4.793043420551407197e-02,-4.562266340321249891e-02,-3.326209822556122934e-04,2.016244165569115157e-04,-3.053732513929274220e-04,5.741074681282043457e-01
4.765145082306149193e-02,2.667366855693626207e-02,9.664460186991373492e-03,4.914423175888893436e-02,5.635453973640990044e-02,4.456120196092662120e-03,1.338608860969543457e-01
5.172147354589714530e-01,-3.598568336814922386e-02,-4.570555724197694625e-02,2.881825460637435499e-03,-8.032227152084349744e-03,8.765576094687661758e-04,5.583215951919555664e-01
2.572074874860501570e-01,-7.007875045955000437e-03,-3.075149121299691757e-03,4.819200172844748803e-02,7.040977871113503726e-03,8.405644779663054914e-03,2.758880853652954102e-01
4.463472205440094376e-01,-3.054804996351270785e-02,-1.139738334437059852e-02,4.596575320661158703e-02,5.917140771992106078e-03,8.868898162107289457e-03,4.747025966644287109e-01
5.172404776780504809e-01,-5.711044333507087067e-02,-2.646730122378129768e-02,2.482497184793771086e-02,1.896199890919828338e-02,-4.555074547154233482e-03,5.623235702514648438e-01
5.271755366631348805e-01,-4.645449155309899769e-02,-4.888959272184692506e-02,-5.369563457215881849e-04,-5.522004497099568601e-04,-1.002562809934356590e-03,5.748556256294250488e-01
2.946599444718420724e-01,-1.159520215192402781e-03,8.985410414384553679e-03,1.686861307285135794e-02,-1.424170241619059085e-02,-1.412988231504475316e-04,2.933823466300964355e-01
5.010585416492582267e-01,-2.693431517013517018e-02,-6.055547189968318866e-02,4.839109240081253239e-04,8.523040805990917627e-04,-2.547952112595605612e-03,5.456014275550842285e-01
4.537007260187220781e-01,-3.165642822583644711e-02,-2.491564361044648623e-02,2.470346887557726273e-02,2.091706653709780872e-02,-7.245446096841829699e-03,4.854339957237243652e-01
6.312382734655298533e-01,-2.760704029101321288e-02,-6.277986447647224133e-02,2.882094503085082596e-02,-4.325637680301293829e-03,1.663335486688628101e-02,6.796070933341979980e-01
5.098427686328574904e-01,-5.323474687561272067e-02,-3.979788817154078506e-02,5.430030688287649718e-04,1.681370631234515786e-03,-7.132243278524455152e-03,5.566262602806091309e-01
4.167609344901692103e-01,-4.308577214253553334e-03,-4.396896160708858858e-02,-1.121287101238926855e-03,-1.172860235409892062e-03,-6.360749574082877767e-04,4.422458410263061523e-01
5.384922905461576592e-01,-4.820188431839797505e-02,-4.220563567248619696e-02,2.566357086890272768e-02,-2.816987900065535608e-02,-1.077312546324218565e-02,5.877352356910705566e-01
4.535969849920173380e-01,-1.552598352670608861e-02,-5.416419323454851886e-02,1.900974491421785200e-04,-2.177795028456792903e-02,-6.188963076855678522e-03,4.911549687385559082e-01
3.940536426156540650e-01,-4.839160449044060952e-03,-3.246983711371374814e-02,1.645192529103563575e-02,-3.056897717193425915e-02,6.019423653950048934e-03,4.178811907768249512e-01
3.227694804807771933e-01,1.292681930603375995e-03,9.967600016567851329e-04,3.430200412993741638e-03,-2.679817876602491687e-03,8.896387006398267724e-03,3.220820128917694092e-01
4.515616088024085872e-01,-4.243485322758111522e-02,-1.659574483270681577e-02,2.786049398772486724e-02,2.566301419421179644e-03,8.352412124587966710e-03,4.842451810836791992e-01
5.007774364767613173e-01,-5.263174112906221502e-02,-3.570605147547020741e-02,2.326338194264301320e-04,-7.363651419704136600e-03,-7.784867478540294199e-03,5.454594492912292480e-01
5.270625633295815682e-01,-3.982604425387528679e-02,-5.239527540934621475e-02,4.886236904722633147e-03,-9.409498723928418377e-04,1.565005438308166410e-03,5.733477473258972168e-01
5.324620079914975657e-01,-4.853873326158841817e-02,-4.414636804111091162e-02,1.429185906613012445e-02,3.719531062597327374e-03,-5.194671372699509806e-03,5.794517993927001953e-01
4.645222871110673557e-01,-1.818155536420068552e-02,-3.577194045514184295e-02,-3.831765192006744009e-02,-3.995058806691380478e-03,-3.752822806176594832e-04,4.962422847747802734e-01
5.307833820149567838e-01,-4.006784213471625833e-02,-3.716700040077783318e-02,-9.048555285036313572e-04,9.320833059755078429e-04,9.183640729953471442e-04,5.694130063056945801e-01
5.524953295317986957e-01,-4.562613005752574891e-02,-3.078284999949626455e-02,6.053062861906911840e-03,-1.286287905823340315e-02,5.024745640835026270e-03,5.914165377616882324e-01
5.291386181243206144e-01,-4.882382619817174363e-02,-4.503155782871426371e-02,1.520321180918150078e-03,1.354754265202550573e-03,2.759947854646685895e-03,5.761063098907470703e-01
5.310088090321980481e-01,-4.936887486111080081e-02,-4.624763492550806876e-02,-9.095544836601297681e-04,6.854040453961900885e-04,1.033852294559077468e-03,5.788295269012451172e-01
5.440062022224037008e-01,-4.729730465841591736e-02,-1.888406769989878220e-02,1.297576113691652384e-03,-6.147367430503487828e-03,6.206114885871428719e-03,5.778237581253051758e-01
5.278743180349694253e-01,-4.211001074499121088e-02,-2.712742828728187394e-02,-2.598041497782093041e-03,-2.318818306585479060e-03,2.885754733949789323e-03,5.626971721649169922e-01
5.429411466245073203e-01,-3.836964052403840642e-02,-2.401763313823040979e-02,1.145383813415878959e-03,-4.305104038779913010e-03,6.730201193889564018e-03,5.744394063949584961e-01
5.264300232259570000e-01,-4.454835555724737106e-02,-4.326364926251805021e-02,-1.549316956096396299e-04,3.021400052272422542e-04,1.738171780689438386e-03,5.703453421592712402e-01
5.297153845064143107e-01,-4.790254015342670924e-02,-4.779762940963139251e-02,7.211445891783478798e-04,1.038402493101653893e-04,1.318656022006148287e-03,5.775713920593261719e-01
5.307228869571647412e-01,-3.747242114318521944e-02,-6.503252361629074940e-03,2.610158034262048937e-03,5.416151948544167816e-03,3.773492713839546753e-03,5.534976124763488770e-01
3.011740576651286139e-01,2.201589758189280432e-02,-2.148901505426721592e-02,-1.315949650675925509e-01,-5.112760741857527713e-02,3.094030132248987847e-02,3.932332694530487061e-01
5.109398598448678941e-01,-5.719297255780414480e-02,-3.726300580630906301e-02,-9.399068308232623459e-03,-5.543832355583791852e-03,-6.817875396020923670e-03,5.588791966438293457e-01
4.766878268177717204e-01,-4.065435638135514451e-02,-3.929934864827058782e-02,-5.695471245447644021e-02,-5.129757216149152116e-02,-4.236417462444227143e-03,5.335011482238769531e-01
4.370184667156555847e-01,-4.601504242887598239e-02,-2.928882022650640404e-02,-6.220586124111939647e-02,-6.626663393206577712e-02,5.297764088329510318e-03,5.003883838653564453e-01
5.294518090631692431e-01,-1.769325361078302739e-02,-1.231652560099352756e-02,2.692827862384729667e-03,-7.644409812812240487e-04,-1.373982848578537974e-02,5.450180172920227051e-01
5.121545994155892734e-01,-2.085564115732363444e-02,-4.156470676755341653e-02,2.098142870133066704e-02,-5.930257760534135211e-03,-7.173727147879041879e-03,5.451123714447021484e-01
5.144975649120696604e-01,-3.881273361327636229e-02,-5.358678799835789319e-02,-2.089067192038210861e-03,-1.680390017158199046e-03,-1.665761147880666241e-03,5.608699321746826172e-01
5.254128848803871765e-01,-4.507583426994749010e-02,-5.259692692108419720e-02,1.167724383716000356e-03,1.462260374823706743e-03,-1.607329931222550249e-03,5.743020772933959961e-01
4.002436909856443292e-01,-3.648139316415288658e-02,-2.433714747073534301e-02,-8.777334708754162829e-02,-3.297283746071670834e-03,-7.725151393426829723e-03,4.570522010326385498e-01
5.214957845357673927e-01,-4.341206433434627310e-02,-4.901052719445306294e-02,-1.414368411719736261e-03,-9.043904791860167460e-04,-1.146278057608129562e-03,5.677387118339538574e-01
7.744052890861703453e-01,1.066017402757812871e-02,-1.095417966584708303e-01,7.744487028907993953e-02,3.651375634762654698e-02,-2.070302607005415282e-02,8.442970514297485352e-01
5.190949816057675026e-01,-3.034871572422179198e-02,-6.024017601902145747e-02,2.763665053308599941e-03,-8.169599472268303936e-03,-1.228598418240302867e-03,5.651842355728149414e-01
5.576975586781294236e-01,8.113411660397584768e-04,-4.597292050058288115e-02,-2.156784593941042313e-02,6.944941872300386919e-03,-1.093006093120247463e-02,5.833207964897155762e-01
5.333591479850039452e-01,-3.305615641790818349e-02,-8.372796171551954991e-03,2.680743622765938399e-03,-2.872743115466784656e-03,-6.617866434276547041e-03,5.546460747718811035e-01
5.876433957286886223e-01,-2.741283758203175158e-02,-3.235160055602881446e-02,2.421007494291420314e-02,1.213548157782320426e-02,-3.319808353148491487e-02,6.219828724861145020e-01
5.412283478794247538e-01,-1.988385377551721289e-03,-3.944510320519764579e-02,8.049046548509637689e-03,1.200236544352591356e-03,-1.898126442566437991e-02,5.640160441398620605e-01
5.423830929885206098e-01,-1.420454862595948997e-02,-3.289785641982564957e-02,-4.692525183846767145e-03,4.428901199677552115e-03,-6.255956417379451330e-03,5.663797259330749512e-01
5.084020656797004767e-01,-2.816028364878039869e-02,-6.391504205460024624e-02,1.114549036831244920e-03,-3.660208239754613162e-03,-1.094399409732598350e-03,5.553464889526367188e-01
5.156390436622662055e-01,-3.776131186825398833e-02,-5.197657673629851871e-02,-6.171678081632063408e-04,-1.480742093084728246e-03,9.838076396453821881e-04,5.606526136398315430e-01
5.421953676099453556e-01,-4.819526270050469852e-02,-2.702348986751049176e-02,2.857749328050111521e-03,-9.014559206061886418e-03,-3.350162458215170513e-03,5.803548097610473633e-01
5.519227952134763138e-01,-5.432181663457522069e-02,-1.577868081017091972e-03,1.863298475170854914e-03,7.726535076128073116e-03,-2.814872270802394778e-03,5.818521976470947266e-01
5.422956832761531842e-01,-4.238378946477114328e-02,-7.780985692644459828e-03,2.773498847252747670e-03,3.626119224786387985e-03,-2.153570525996048417e-03,5.682361721992492676e-01
5.531680268456626859e-01,-6.245069888472440378e-02,1.953622867439830380e-03,8.478792546025879645e-03,-3.341591937901285808e-02,-6.121722890546408766e-03,5.892060995101928711e-01
5.216250611058942388e-01,-3.618997192837844490e-02,-4.769461078161352230e-02,3.233882309468420063e-03,-2.107115610796244862e-03,-1.235162652799833439e-03,5.636991262435913086e-01
4.195632740910233971e-01,-3.357759264720291958e-02,-3.205018553831293082e-02,8.445640692493305846e-02,-9.771373432122285735e-03,-9.878570833917208003e-04,4.757466316223144531e-01
5.192018394050512686e-01,-3.304440940248756786e-02,-5.833763540720124374e-02,-1.384745155115112755e-03,-6.074838639112421779e-03,-2.430765768443453930e-03,5.654360651969909668e-01
5.911973718009401191e-01,-5.834117145215453326e-02,6.408285768933458248e-03,9.847372925152475531e-03,-1.076888616024655743e-02,-1.158876100528239902e-02,6.205459237098693848e-01
3.585878440229655628e-01,-1.475670425298604427e-02,-2.759685028766757642e-02,3.890451247175037708e-02,-3.263114226411448215e-02,1.145463195676292567e-02,3.904785513877868652e-01
5.215785558017604906e-01,-3.635319757415120256e-02,-2.892710919164234729e-02,-1.410894503406156381e-03,1.632136831519850765e-03,-6.668963945780458482e-04,5.542698502540588379e-01
5.515614680888264454e-01,-4.918210781375256802e-02,-1.051997990077740974e-03,5.037557309047073321e-03,-2.024546133926540328e-02,-9.368417912901494393e-03,5.795382261276245117e-01
5.203175017747448949e-01,-4.369403067652077866e-02,-3.395136254848268864e-02,-2.698796628482465990e-03,-1.406364927453957283e-04,8.253840431068490066e-04,5.592252612113952637e-01
5.077996266154377603e-01,-2.958053184714290462e-02,-6.266553277356623486e-02,-6.817048510658122156e-04,-7.439736471212529305e-08,1.926244035948025506e-03,5.546745061874389648e-01
5.368021268909486388e-01,-1.947303596824548344e-02,-4.981425632069788612e-02,1.204209848484145105e-02,3.202289371107068777e-03,-1.117756466116831679e-03,5.724598169326782227e-01
5.054515835775368338e-01,-4.905344465016064914e-02,-3.371612043374530576e-02,9.846210848423820119e-03,2.574473186649433622e-03,-2.993054044742688054e-03,5.473061800003051758e-01
4.900778164127453929e-01,-2.468930103294741940e-03,-4.369847577925861648e-02,5.748537072925637148e-02,7.717424736189676567e-03,-2.200910825060177489e-02,5.255047678947448730e-01
5.451192335957296686e-01,-6.841356878532739438e-03,-5.719126876865363029e-02,8.361021712777061280e-04,1.651171341239885890e-02,-7.504185680786186127e-03,5.796341300010681152e-01
5.305221632033186863e-01,-2.781531054911945411e-02,-2.229045199869186811e-02,-2.533250298405867202e-03,-2.936071810903917965e-03,1.364329113212769517e-03,5.556412935256958008e-01
5.578160429445391255e-01,-4.423361702079425806e-02,-5.152228646443110516e-02,5.344885320455847362e-03,2.512047684710281420e-03,5.639681681295347949e-04,6.058140397071838379e-01
6.351327095001800815e-01,-3.493782866797359721e-02,-2.117860143525940320e-03,7.608326040238391937e-03,5.587526510896338467e-04,5.736922491948558828e-02,6.619125604629516602e-01
5.023358043281591634e-01,-3.804506088689049714e-02,-4.128349495518496282e-02,1.286393984444136711e-03,1.135505132408800785e-02,-4.133982987520269138e-03,5.424159169197082520e-01
5.315471344604296711e-01,-4.973532213960280002e-02,-4.632974775173306914e-02,-4.256058832392778466e-04,9.117872991022214551e-04,8.499505112079559907e-04,5.795916914939880371e-01
5.153057333533307416e-01,-4.701326062323327171e-02,-1.881324585552940354e-02,2.020845690034326139e-02,2.311687502634671501e-02,4.326760732106823756e-03,5.513845682144165039e-01
3.629182873568145840e-01,-1.003966371887168862e-02,-1.215945301308166138e-02,9.514764880395220475e-03,-1.959021492446320727e-03,-5.012140779038519456e-03,3.745012581348419189e-01
5.295770073100527497e-01,-3.157243069271159497e-02,-3.438881442313684866e-02,3.578858759122215474e-03,-4.122638328908154255e-06,-3.905943990606935284e-03,5.626377463340759277e-01
3.026153857875228392e-01,-1.244578144911781536e-02,-1.351730474027547368e-02,1.378812487050176151e-02,5.306777187092313192e-02,-3.699628528822403780e-03,3.296395838260650635e-01
5.201188767141786684e-01,-5.229011415289933074e-02,-4.266970934624328415e-02,-1.430517226714527433e-03,-5.089452266823302554e-04,-4.824222465706321135e-03,5.677275061607360840e-01
4.266446909679897370e-01,-1.769362075562044834e-02,-2.320718350868467006e-02,-1.934925185596536937e-03,2.067446729104106123e-02,-8.397790329053755193e-03,4.488005340099334717e-01
5.335735559849776877e-01,-2.805402546133364816e-02,-7.667984135053262928e-03,-1.416533820864187155e-03,4.013651165596731447e-04,1.772004791025117570e-02,5.525760054588317871e-01
5.270816928282651137e-01,-1.662626960376975549e-02,-2.890528040660303444e-02,-2.619051286434781879e-04,-1.419131515988342456e-03,2.352529521676474927e-03,5.499710440635681152e-01
5.646153892286982501e-01,3.335707388509479010e-02,-7.027502198175719639e-02,-6.933686890852167745e-03,-9.619234143403573249e-04,1.527885021085955732e-02,5.906587243080139160e-01
5.291960280825342977e-01,-1.125640571276392832e-02,-2.292686000561022786e-02,1.535827785710431204e-04,-6.454076173849492525e-03,4.085051810409035151e-03,5.465413331985473633e-01
5.104364188059784535e-01,-5.145627074779332566e-02,-3.563013936755504707e-02,-1.394639548377239269e-03,-5.702089658312802954e-04,-1.830026162244519040e-03,5.541643500328063965e-01
5.064264691957837128e-01,-4.543500286204238403e-02,-3.698843990637526447e-02,1.103920252111581166e-02,6.727703095240094482e-04,-3.137155553130021798e-03,5.480488538742065430e-01
5.060706447847815870e-01,-3.497051200506370860e-02,-5.280008810084046988e-02,-1.399973962953338048e-03,-4.174307289568418219e-03,-5.248644419996630582e-03,5.503005981445312500e-01
5.942061163671685797e-01,-3.979557104235428855e-02,-5.729015509351459423e-02,2.672830878554815354e-02,3.948439739935341933e-03,-2.746127692412566636e-03,6.446459293365478516e-01
5.379914383543880074e-01,2.092508451134550418e-02,-6.244348168714386471e-02,1.254670649573981223e-01,1.495214644818654293e-02,-1.405758415265434200e-02,6.049004197120666504e-01
9.279576422718052164e-01,-9.529424073278236484e-02,-4.029675454513698130e-02,1.521647535200963339e-02,1.178822397006566713e-02,4.151636823297535223e-02,1.000037550926208496e+00
5.022380692184843509e-01,-2.884308610005162365e-02,-5.955635587248567231e-02,2.140673716878084565e-04,-7.624251914651299436e-03,-5.009405676152113226e-03,5.473130345344543457e-01
5.277830051649937682e-01,-3.832482708677176220e-02,-4.056157855353687003e-02,-5.719913602888673500e-05,-3.716710948397353945e-03,-2.676392990437702867e-03,5.672850012779235840e-01
5.174286267400010075e-01,-5.124723853979445964e-02,-4.029313137712808857e-02,3.438633227588651234e-04,8.713184797774734414e-04,-3.675004975854539481e-03,5.633170008659362793e-01
5.232996911361518233e-01,-2.814173750869969348e-02,-9.815762244713227558e-03,-5.332350336724666837e-04,-1.156340466432883695e-03,4.421799152189887991e-03,5.425691604614257812e-01
5.375450782222215285e-01,-6.883749293930124802e-03,-4.952396410979392760e-02,-8.236656926386302924e-03,3.131119188420642611e-04,7.714239412239970797e-03,5.672898888587951660e-01
5.010837950478256309e-01,-2.405454005662446826e-02,-6.359338989305471368e-02,8.733792929081719749e-04,1.686511576271878816e-04,2.225729805649579555e-05,5.459847450256347656e-01
5.488602097170631744e-01,-6.655419158800773838e-03,-5.091710335133306509e-02,-3.008261566838069459e-03,1.499142261851887361e-03,7.166500343761868057e-03,5.790792107582092285e-01
5.203226027891150185e-01,-6.030322591670991828e-02,-3.344537157984614484e-02,3.857823938577023201e-03,4.835927531840168649e-04,1.040432043019444116e-03,5.677164196968078613e-01
5.155976725358769608e-01,-3.431626036285886916e-02,-5.951117729388072375e-02,5.428784932970681263e-04,-7.874733200095389990e-03,-7.965716536577012495e-04,5.631021261215209961e-01
5.386641016959251571e-01,-2.631249459204149099e-02,-4.472214875728075523e-02,6.121895578671442822e-03,-2.898820848976792382e-03,4.433484873994795387e-04,5.745230317115783691e-01
4.523282836143564523e-01,-4.189950209030987582e-02,-2.758388325614430370e-02,-3.041425473412502981e-02,1.078302080940007207e-02,8.503807763893922456e-03,4.906441867351531982e-01
6.887014561787228040e-01,-2.176654959496218678e-02,-4.587110465529609105e-02,-8.959085037308654742e-03,-2.713997571963740543e-02,-5.993818532010336542e-02,7.319150567054748535e-01
4.951905879656214871e-01,-5.167889168146222456e-02,-3.219039085236480302e-02,-6.997568792790290031e-03,-8.724221245275094391e-03,-9.194464914414722176e-03,5.379751324653625488e-01
5.262759255872258013e-01,-3.278329905078694595e-02,-3.999064214868017220e-02,2.143443297913088651e-04,-1.087096136774172569e-03,-2.838944160411943207e-03,5.627222657203674316e-01
5.165060157756058423e-01,-3.761121027849920195e-02,-5.832054333160646697e-02,-5.656452681896604034e-04,-9.645560210663309026e-05,3.990742857073738617e-03,5.647999048233032227e-01
5.233170653665102368e-01,-4.406733131483389632e-02,-3.676973585554174639e-02,-1.396551457235152387e-02,-4.193671858093664211e-03,5.820568664768186384e-04,5.643373727798461914e-01
4.670629580797689417e-01,-4.113623534869417786e-02,-2.850789308272871914e-02,-3.268199262028423434e-04,1.111141022452064551e-02,1.170470674097283219e-02,5.027821660041809082e-01
5.210396816383496832e-01,-4.637473476409059714e-02,-3.877236223964222739e-02,-3.852059385451185309e-04,-3.206022012398409334e-03,-1.878653278764072032e-03,5.636888146400451660e-01
5.143308260438256285e-01,-2.804181007563164019e-02,-3.651353629937617584e-02,-4.440284820257310279e-04,-8.617034366577495767e-04,-3.108420857622195676e-04,5.466606020927429199e-01
5.062312145876950442e-01,-2.948555381017847754e-02,-6.378229380831146322e-02,-9.261838046911789442e-04,-2.524034473770603131e-03,-4.216587089004987889e-04,5.536824464797973633e-01
5.136013201787761329e-01,-4.095096003352924341e-02,-3.637544706997289379e-02,-2.004047519174932332e-02,-2.123547609574679904e-02,-4.079772418775072518e-03,5.546345114707946777e-01
5.247092838070984699e-01,-4.772913662068278828e-02,-4.264637006519136908e-02,-1.236867030469238678e-03,-2.074557908829536244e-03,-4.819564820294682146e-03,5.699905157089233398e-01
5.083639338659832196e-01,-5.004501179273132538e-02,-3.545346834383450441e-02,-2.772176533139912320e-03,-3.146057342071875880e-03,-3.609779720404828374e-04,5.513062477111816406e-01
5.241478311774800947e-01,-2.857852893324616672e-02,-4.020625663943755423e-02,-2.329696664012037219e-03,-2.465408319484736939e-03,8.580266380430298830e-04,5.586638450622558594e-01
5.326892209946441081e-01,-4.675743855630237755e-02,-4.352102822258058223e-02,4.460311211897409998e-03,-9.504845659972705656e-04,3.323765448200358564e-03,5.779179334640502930e-01
5.178469385622080923e-01,-4.786019236214975048e-02,-4.232475929647519508e-02,1.152681497839663175e-03,-4.404209005404935770e-05,-5.698678748032821005e-03,5.630499124526977539e-01
5.258097891814466074e-01,-4.229714462491332427e-02,-3.719271720083833221e-02,1.930178040895525740e-03,1.372347478977409708e-03,-4.065255915457614052e-04,5.655872821807861328e-01
5.188448654311328401e-01,-6.018839434748818329e-02,-3.107378436477595263e-02,3.755674802864541854e-03,1.092954596609299871e-03,1.228023769172516223e-03,5.650834441184997559e-01
5.197553779213085479e-01,-5.865534113355189150e-02,-3.103352779510462622e-02,2.628036770862348607e-03,1.940803467850909115e-03,-8.874183702214236743e-04,5.651367306709289551e-01
4.275991938682613958e-01,-3.249244300250761497e-02,-3.923457790529491507e-02,-7.292664837342316408e-02,-9.166365629936107720e-03,-1.138550706251379970e-03,4.806689321994781494e-01
5.134010265121317085e-01,-3.251327596727043856e-02,-4.543410072508982656e-02,2.847982569841942934e-03,-6.123251200007788671e-03,-8.659295714597203472e-04,5.526138544082641602e-01
4.914343832910050835e-01,-2.517914210109056805e-02,-5.733819634617412508e-02,-4.123872396038430672e-04,-4.934309663731954385e-04,5.863512129973862813e-03,5.335184335708618164e-01
4.179118990836147018e-01,-1.529818236215980953e-02,-4.223580611912393368e-02,-8.308179998428694927e-04,4.322355519831751485e-04,6.949938528177997121e-03,4.474525749683380127e-01
4.983870354373735045e-01,-2.610703491340723992e-02,-5.901146709108295862e-02,4.257076211899808510e-04,-2.893467726991481598e-03,1.241917339139434135e-03,5.417242646217346191e-01
5.274171281033444014e-01,-4.227606466166114463e-02,-4.307293200269632361e-02,1.015776453788580849e-03,-6.136184669097866778e-04,-1.149779838173603736e-03,5.700992345809936523e-01
5.270991484779821157e-01,-4.490155929963654535e-02,-4.309981573806168087e-02,-1.641798045904182017e-03,-4.715155253837088564e-04,-5.608590147978476581e-04,5.711104869842529297e-01
5.326644726048000988e-01,-5.044192453437079671e-02,-4.801277615683999245e-02,9.550086292094259102e-05,1.509089220330693060e-04,1.265514205342646234e-03,5.818998217582702637e-01
5.154612064303035757e-01,-4.312865255303463541e-02,-4.693445994193612414e-02,-2.731725109378419034e-03,-1.934283868182020273e-04,-4.926957685586163399e-03,5.605874657630920410e-01
5.308612480947401124e-01,-4.497591337122441857e-02,-4.357569382786830037e-02,2.218348219732704015e-03,-9.027387484263251893e-04,1.632760121976448283e-03,5.751602649688720703e-01
5.273716900879749092e-01,-5.051925950373681307e-02,-4.330911772346418553e-02,-9.889044412154067432e-04,1.650831059920675799e-03,1.562601413173158931e-03,5.743358731269836426e-01
5.311052651221347398e-01,-5.075066742752587512e-02,-4.216643159303454236e-02,8.628389974778245082e-05,-1.145693834760051592e-03,1.200944760780936959e-03,5.776188373565673828e-01
5.255793271352514617e-01,-4.441487633886451181e-02,-4.724063080855328556e-02,1.197369533886868736e-03,-1.331068879469094910e-04,-4.273031789420364199e-03,5.714640617370605469e-01
5.223454888979093269e-01,-4.661338221658592462e-02,-4.885040242245822228e-02,1.290724607342953745e-03,1.097799415792292520e-03,-5.246871711555251526e-03,5.701606869697570801e-01
5.639473823417658904e-01,1.929359205202885175e-02,-6.572295830631463831e-02,-1.322560489004983393e-03,9.868757083659463174e-04,-9.204391428318378296e-03,5.919818282127380371e-01
6.012058716327433050e-01,2.967546560929057442e-02,-5.084100539724595302e-02,-1.947017050256168516e-02,7.069894263613090736e-03,4.302021796171700413e-02,6.212784647941589355e-01
5.431546396625230866e-01,2.673901061753194974e-02,-4.931998836173170919e-02,-1.667161343511905673e-03,-4.036962503426040280e-03,1.758391288162037408e-02,5.592253208160400391e-01
6.569418608044795826e-01,2.562830264274951197e-04,-3.373057210053262422e-02,7.859941496441970321e-02,1.057843701364681544e-03,5.934704420797297375e-02,6.955665946006774902e-01
5.369956729601144119e-01,-6.122896964074836523e-03,-5.247960593151471120e-02,-1.627017192706219778e-02,3.464598811463645133e-03,7.455400023508161611e-03,5.685954689979553223e-01
5.219408930215907461e-01,-5.509171258695441664e-02,-3.677173705781391910e-02,1.104507794445445945e-02,1.534999944678702450e-03,5.909219072208118234e-03,5.685145854949951172e-01
5.230288257233831617e-01,-3.471752387566864884e-02,-4.296331153172069928e-02,3.922472623906373378e-03,-1.211522371028402566e-02,-5.937100639895201095e-05,5.623473525047302246e-01
5.221613241794227367e-01,-5.121665582656284577e-02,-3.982606631652046980e-02,4.448876225485088980e-03,-1.873102405387641666e-04,4.394078834302687746e-03,5.678717494010925293e-01
5.250605484334802675e-01,-5.309815351700764019e-02,-4.167318032418823592e-02,-2.159664852393343621e-04,2.684579915682635274e-04,2.708946794192732248e-03,5.725512504577636719e-01
4.874754977630055830e-01,-3.039329660637449249e-02,-5.634677475809335423e-02,1.232088874544929854e-03,2.284284741518881378e-04,-7.173955066576569867e-03,5.314708352088928223e-01
4.990961839111545673e-01,-4.489829493800182036e-02,-4.241693254582312722e-02,7.494771799977163404e-03,-3.924291268169708552e-03,8.006695394956461070e-03,5.431329011917114258e-01
5.287786584088158826e-01,-2.979505140761593007e-02,-2.714801987647594284e-02,9.742841343346056796e-04,3.507400923032674093e-03,6.214084765844517071e-03,5.573945045471191406e-01
5.210481816830647706e-01,-5.600286747861560332e-02,-2.919519051980204449e-02,1.026554234656184249e-02,1.026113419251008333e-04,7.069136910946577021e-03,5.645381212234497070e-01
5.165337799877623981e-01,-5.201777322971135042e-02,-3.851435828166624442e-02,3.448798812972450958e-03,4.225729941244737867e-04,6.220128990960695561e-03,5.620570182800292969e-01
5.256549504669271178e-01,-3.653804351084394275e-02,-4.624918041235784316e-02,4.179328045322018223e-03,-9.400737665927864223e-03,4.964758660300963968e-04,5.673914551734924316e-01
5.129059979420371729e-01,-5.814668615840987154e-02,-3.415572029278032828e-02,-9.205003651135046719e-03,-1.552136191571330598e-03,-1.516003952205295007e-03,5.596829056739807129e-01
5.317838615361167864e-01,-2.834341216667507490e-02,-2.548773257974815132e-02,2.709019961348461784e-03,4.463003267353981077e-03,-7.409008678205265298e-03,5.589254498481750488e-01
5.184334031250766861e-01,-4.395891757315700810e-02,-4.707384040810660975e-02,-2.045221744145046209e-03,-1.546334573354398584e-03,-5.652109321104971384e-03,5.640586614608764648e-01
5.451766594042943836e-01,-4.147161322499678948e-02,-1.112179897281070917e-02,1.696655510303786678e-03,3.463579825900911513e-03,-4.322326018735640242e-03,5.721654891967773438e-01
4.551973544538999161e-01,-4.007981852893363617e-02,-2.596421132464471482e-02,4.131259372873350116e-04,-1.515811654331752944e-04,-1.222393916976791811e-02,4.888317286968231201e-01
5.681474155192542952e-01,-6.872260980703964739e-02,3.816494238795739569e-02,4.460818790430213544e-03,-1.067917898207989408e-02,-7.527778913495907984e-03,5.912078619003295898e-01
5.315082467230414220e-01,-4.066715546044355478e-02,-1.018212042849336862e-02,-2.641117665065707484e-03,4.077235477248050341e-03,-3.735261843737182688e-03,5.576593279838562012e-01
5.254526946358537565e-01,-2.517142658247936704e-02,-2.698438927392993181e-02,4.658084641614912945e-03,4.344604813372378305e-03,4.716002868851072206e-03,5.517036318778991699e-01
4.862098108415990882e-01,-2.111133702845921500e-02,-5.624055274002209837e-02,5.249797272624846800e-04,2.275437289226174965e-04,-7.156464215047826302e-03,5.259137153625488281e-01
5.519937633916762731e-01,-5.235656087259787927e-02,2.617266199409354344e-02,7.564589797580715050e-03,-1.078341468838755861e-02,-2.187202268792870843e-02,5.708788633346557617e-01
5.355009781769395349e-01,-5.152073756283107042e-02,1.022429519260431574e-03,-6.910843748089555861e-04,5.130557090804498468e-04,-3.658859580928003601e-03,5.626310110092163086e-01
5.031351349369515003e-01,-5.965564973096379453e-02,-2.497441635838473784e-02,-6.416562791727287683e-03,2.947547411371632085e-03,3.310815927316671740e-03,5.464434623718261719e-01
2.945166432140824408e-01,-3.457658628788713717e-02,-4.518677434625886780e-02,-7.332451012734904350e-02,-6.107756851504232004e-02,4.276827215202485405e-02,3.804141283035278320e-01
5.044004699795756608e-01,-5.694161608001721553e-02,-3.030255623417793531e-02,-4.551866493996614346e-03,2.749209794587489410e-03,5.242023374545056597e-03,5.486603975296020508e-01
6.020648059978537248e-01,-4.853885937911528448e-03,-3.472070318387782129e-02,6.265946872084123334e-03,1.583588678343252759e-02,-5.000871685934695637e-02,6.290801167488098145e-01
5.919533795048366187e-01,8.809147655953003531e-03,-5.130750218290261455e-02,-1.248615501653004001e-01,9.395426291748858183e-02,-3.452855424378316329e-02,6.749503612518310547e-01
5.313618681455072323e-01,6.705404294817335353e-03,-5.578599490096078362e-02,-3.737327102279910940e-02,2.804759316330047211e-03,-2.511758953703682046e-02,5.639704465866088867e-01
5.417839117601906951e-01,-3.872377101740315242e-02,-4.980225708216057257e-02,-3.334720878927222715e-02,1.647232134894118655e-03,-3.824820486544793646e-03,5.890086293220520020e-01
5.041348753428753771e-01,-3.335004768974692002e-02,-5.250415675105771229e-02,2.486895979874773153e-03,-5.129177795370847698e-03,5.375326379763091349e-03,5.474815964698791504e-01
5.294977062219277109e-01,-5.582394147233007975e-02,-3.539170266968730272e-02,4.244522068604651178e-03,1.069427958936197990e-03,1.547960069186333663e-03,5.754338502883911133e-01
3.764641404607391162e-01,-1.745390886119434215e-02,-1.208466860215116900e-02,-2.249877068349210446e-02,-2.127288781259609879e-02,-8.778223035484030573e-03,3.952120840549468994e-01
4.325616480502791905e-01,1.989664715754785318e-02,-5.231810170731227005e-02,-1.076954705307029830e-01,1.491636441430856802e-02,-2.007988786241306917e-02,4.919145405292510986e-01
4.175701552485686641e-01,3.004754360445757722e-02,-4.274353087806831430e-02,-1.623681283309293399e-01,2.510132942058044409e-02,4.645454656646614069e-03,5.145150423049926758e-01
5.220011713195042979e-01,-4.412106687286032614e-02,-4.279508546507318489e-02,3.978400860538995956e-03,-3.207712886669264636e-03,4.977849519522984864e-03,5.655953884124755859e-01
5.126309450582476890e-01,-4.361513520527307564e-02,-4.786556794551100058e-02,4.378976879818979526e-03,6.547500114290569781e-04,6.502973116155346192e-03,5.585496425628662109e-01
5.183103038396850160e-01,-3.794119914090893220e-02,-5.181352474969447286e-02,1.107395186514901998e-03,-3.185685992292059884e-03,1.890918786434332482e-03,5.633556246757507324e-01
4.263300301067764475e-01,-1.080753722742697903e-01,2.096372692116021952e-02,1.943745048566241848e-02,-1.318564213695514464e-01,-1.274688928151780816e-02,5.357800722122192383e-01
4.870562324225229944e-01,-3.691207833994009091e-02,-4.793127683143535989e-02,-8.396868132798104845e-02,3.987744096752600387e-02,1.349495520067360522e-03,5.535035729408264160e-01
3.833512497519275253e-01,-2.048852689675738359e-02,-2.334365230102285194e-02,-7.005712715345149312e-03,2.665087406885490937e-02,5.037749160680677317e-03,4.081689715385437012e-01
5.279033037114284621e-01,-5.152387478092268491e-02,-3.870936424946649912e-02,4.051884736227124792e-03,2.106173053476695541e-03,1.658809693474913149e-03,5.731891393661499023e-01
5.665757965386171158e-01,-4.559524874579412579e-02,-3.578703837100358220e-02,2.809623374683195562e-02,-2.759007440707620176e-02,-1.721588227796648149e-02,6.118711233139038086e-01
2.991065727219143766e-01,2.881306160367612390e-02,-2.171719596046089995e-02,8.433809017168267252e-02,-6.520350023720626435e-03,1.579209291476338112e-03,3.327817022800445557e-01
4.982975021546575123e-01,-4.529423987145775321e-02,-3.232349194511105472e-02,-1.834538567655595587e-02,-5.639427891396838095e-03,-3.774655458529532076e-03,5.382910370826721191e-01
5.311364327822791775e-01,-3.105147062493021637e-02,-3.741728701040045180e-02,4.911298314610381289e-04,3.611378195087883939e-03,2.964090716588078760e-04,5.654331445693969727e-01
5.278381075315319304e-01,-4.433315449549182774e-02,-4.904135817807314668e-02,1.250266178359522775e-03,2.835970126290895217e-04,1.257427344130280025e-03,5.745482444763183594e-01
4.993828399013523489e-01,-4.280205275217766059e-02,-4.659726131207758693e-02,5.332835497364028614e-03,-6.091421240242005618e-03,6.989385253652193736e-03,5.444077253341674805e-01
5.264313832894254030e-01,-4.025730407706604175e-02,-4.074378708212372802e-02,-9.163334486642402132e-03,7.075598384113807385e-03,8.042675165023893636e-04,5.672882795333862305e-01
5.064243469934421871e-01,-3.179631487750475549e-02,-5.378947171553147277e-02,1.077436009126628898e-03,-8.309380714058230838e-03,4.452326326758387215e-03,5.497930645942687988e-01
5.314909005289716326e-01,-2.834072221909680889e-02,-4.118305561730919995e-02,4.261639534619967445e-03,5.485676397444516628e-04,-1.411973174163872521e-03,5.664162039756774902e-01
5.244179809776433610e-01,-3.930045252982641846e-02,-4.784842941444053532e-02,-6.647909410632881237e-04,6.179132891809217126e-03,2.278290357033258516e-03,5.681563615798950195e-01
3.225467096406639533e-01,-7.454926910865619649e-03,3.548493666391316914e-03,-9.478280050562308545e-02,1.026467758963102439e-01,-3.411723273446551352e-02,4.091984629631042480e-01
5.050221418408920027e-01,-5.145225338452960595e-02,-3.673385213698104890e-02,6.029467072346016490e-03,-6.279460596679328072e-03,6.336668850186796126e-03,5.495796203613281250e-01
5.363532948782961940e-01,-7.271527056847554293e-03,-3.912236564391710636e-02,2.604046584123152763e-02,-3.715935821400372097e-02,-3.244518842232302358e-02,5.684999227523803711e-01
5.245851911841501458e-01,-4.857814428445655919e-02,-4.868039459158213234e-02,1.204286327490803785e-04,-1.390106721981181981e-04,7.285955363511558737e-03,5.733534693717956543e-01
5.315638326637615041e-01,-4.786924411199303120e-02,-4.489719329456062780e-02,-1.432933042297292354e-03,-2.587373301459751059e-04,5.765250847248944589e-04,5.779591202735900879e-01
4.952398745556468862e-01,-4.233514205518837392e-02,-4.368362857417662504e-02,5.045698304151079693e-03,-1.013419095381444708e-02,7.971764389568855580e-03,5.387845039367675781e-01
4.933933136004172160e-01,-3.250482001352927863e-02,-5.227409306306507464e-02,2.940366011892555764e-03,2.313173785486024388e-04,7.308442119272270075e-03,5.362300276756286621e-01
5.306115679909357841e-01,-4.178141664150358814e-02,-4.410296517323525345e-02,3.679667562367177312e-03,-1.443488110801564471e-03,9.289700667163472815e-04,5.736004114151000977e-01
4.844326128766686668e-01,-5.601229348702535527e-02,-2.031925790601038506e-02,1.660656401431586857e-04,-1.315890246444608542e-03,-6.348434176043088115e-03,5.236322879791259766e-01
4.773194014100489713e-01,-5.787018710008401401e-02,-1.688027820124990419e-02,-1.437878393240013975e-03,-1.979727911030308186e-03,-1.962275607010739666e-04,5.159348249435424805e-01
6.233358322215450942e-01,-1.427397066385355240e-02,-5.706967979988461503e-02,-1.514874923249158734e-01,-8.770513766493490126e-02,6.825369063169289818e-02,7.359092235565185547e-01
4.390340680679285512e-01,-1.802821570651799710e-02,-4.526810584698584550e-02,-3.536932466101310010e-04,-1.158309686688613468e-03,-5.150197468820186253e-03,4.713621139526367188e-01
5.204228108834423328e-01,-4.221127079394318415e-02,-5.214300527708207178e-02,1.698103300646521202e-03,1.580424759651744278e-05,2.746153341361392154e-03,5.676926374435424805e-01
5.245996466010711679e-01,-4.511238040915757641e-02,-4.953978879896511756e-02,-1.397402291764911122e-03,5.969080048824423760e-04,1.607137438238158671e-03,5.719513893127441406e-01
5.304951625812081017e-01,-4.456332745280627838e-02,-4.992045544149162351e-02,2.255895769096914142e-03,3.961601004205346282e-04,1.576216426435476416e-03,5.777757763862609863e-01
4.380075627738617694e-01,-1.241211623111213025e-02,-4.280089276855192360e-02,5.242393879392218093e-05,-1.331706536162976639e-03,-9.179586677212971460e-03,4.666338860988616943e-01
5.068349222970849333e-01,-6.130096301391058100e-02,-2.791440402190334402e-02,-2.761638989857389918e-03,2.228201799084644774e-03,1.508159319141370684e-03,5.522404909133911133e-01
5.228819131464677028e-01,-1.773546565174957679e-02,-2.437779069868406534e-02,-3.376573284731448389e-04,-1.831150671438735045e-03,3.780750675578958050e-03,5.440179109573364258e-01
5.207245558540346542e-01,-3.867066735428525970e-02,-1.021304265231692820e-02,1.387478605109960768e-03,5.878110302744864527e-03,-1.615986633616725565e-02,5.465406179428100586e-01
5.315097128871718590e-01,-5.142024765293431998e-02,-1.075437470367957005e-02,-3.763672401424792303e-03,-2.088659536155992088e-03,-5.127053405649359061e-03,5.638174414634704590e-01
5.253041772291444644e-01,-2.835496489026612110e-02,-1.716695721830541199e-02,3.772946042132549731e-03,5.164014507363645645e-03,2.111140504751501945e-03,5.482748746871948242e-01
4.692838391230305106e-01,-2.909352737083956142e-02,-4.243107578342636410e-02,8.022231137441952894e-04,1.947200896361876113e-04,-1.252445715632723514e-02,5.056457519531250000e-01
5.254108088556861400e-01,-1.769137770654791164e-02,-2.752351073007003324e-03,3.553664551973999709e-03,3.376263656280628373e-03,9.298606764637534772e-03,5.360981225967407227e-01
5.250428681716903245e-01,-2.837581746152403883e-02,-2.184673028334882527e-02,5.101725696308442642e-04,6.810863828276521922e-04,-3.784718754966756604e-04,5.501855611801147461e-01
2.659753196951945009e-01,-6.467160840434284241e-03,-8.435655704024327961e-02,-1.082059725498750874e-01,-4.881184899947494521e-02,2.713881537774827726e-02,3.820928931236267090e-01
5.236983039050988609e-01,-1.822654173843549219e-02,-1.721579962014502252e-02,-5.328249592725674874e-05,2.382722972475666062e-04,6.154770804832561436e-04,5.414214134216308594e-01
5.308783589227527022e-01,-7.963795673227469507e-03,-2.278223763971959359e-02,3.219447939732593238e-03,1.094369277318971746e-05,1.060747599889430050e-02,5.467393398284912109e-01
5.228885935581325528e-01,-1.523075153838895912e-02,-2.155376868879818608e-02,1.201555396801083078e-03,8.089047329886279569e-04,7.607680758668473008e-03,5.414746999740600586e-01
5.206194043914853520e-01,-3.115093819733136260e-02,-6.022908906387439143e-02,1.093026404091106260e-03,3.784791282621382483e-03,1.495579160763528710e-03,5.669160485267639160e-01
4.452420164893491350e-01,-2.036405856781148271e-02,-3.667079786493748772e-02,-8.287366193103258213e-03,1.756925067325196960e-03,9.015890356674244321e-03,4.744540154933929443e-01
5.262963020862573282e-01,-2.234631414418494777e-02,-2.925340417045707575e-02,1.413851569152377611e-03,2.973737043286604721e-04,4.448923868197325582e-04,5.521347522735595703e-01
5.216806471461090666e-01,-3.358244399070620112e-02,-6.031832320968166794e-02,2.111109854061316959e-04,3.973275788333138422e-03,9.171832551311916897e-04,5.691461563110351562e-01
4.777698915402088797e-01,-5.566111974470377977e-02,-2.458216109996441689e-02,-1.219709396560670137e-02,4.892024103279878598e-03,3.652738947111322087e-03,5.191283226013183594e-01
5.234023536597103288e-01,-1.474346281449967488e-02,-1.652662350684860892e-02,6.306399814744410035e-04,9.839855327526767642e-04,4.557581514079906901e-03,5.391011834144592285e-01
1.461870886391360980e-01,-8.449427740522338914e-02,8.554757195499342048e-03,1.679140060755087913e-02,-7.283876551009173250e-02,-5.226097062716932723e-02,2.556624114513397217e-01
3.936923332995435620e-01,-6.538773605934665445e-02,1.369564127528351272e-02,-6.751447609279437323e-02,-1.001454750876179939e-01,6.009064512962752902e-02,4.850749373435974121e-01
3.738555843999633033e-01,-3.152472719422051706e-02,-7.273080199818399150e-03,-2.647114804345307784e-02,-1.711498373483314947e-02,-8.811663800314322587e-03,3.978744447231292725e-01
5.264728251790131708e-01,-4.648824847780499980e-02,-4.715779997123764611e-02,-1.822179280472997417e-03,1.902644856650946136e-03,3.505333834276060795e-03,5.733464360237121582e-01
5.263683841941507735e-01,-4.710826335349913019e-02,-4.608471717090950603e-02,-1.662535299740516620e-03,2.267659725589411032e-03,4.773085288412912304e-03,5.730459094047546387e-01
5.254567903264976136e-01,-4.323265140844670396e-02,-4.442805542497099691e-02,-8.791967166246342572e-04,1.695236523987512373e-03,2.339222740579558792e-03,5.693120956420898438e-01
5.310443665300836891e-01,-4.368345639182752427e-02,-4.932935441844199520e-02,-6.913525660203935367e-04,-2.280736906633873450e-04,1.366137812115653495e-03,5.775777101516723633e-01
5.306181684299744461e-01,-4.417284103342705714e-02,-4.892060057587635513e-02,-7.014183960077893440e-05,3.144367726688663037e-04,4.738465205874275933e-04,5.771803855895996094e-01
5.326970065535465704e-01,-4.598395798834595261e-02,-4.907244309928990300e-02,1.585888352099895015e-08,7.736250538937203313e-04,7.705027016681776655e-05,5.802329182624816895e-01
5.290355941428313002e-01,-4.782398108642274548e-02,-4.746957098452964097e-02,3.598767098449016846e-04,1.107784643056003090e-03,1.808319622266765531e-03,5.766944885253906250e-01
5.312872540782354047e-01,-4.589551035221869912e-02,-4.954920582320845868e-02,-8.332305595411986562e-05,-3.050633327453986746e-04,5.857249701773055978e-09,5.790185332298278809e-01
4.860268364144507136e-01,-3.373151920785244506e-02,-4.456063165663889936e-02,-1.010781263278749155e-03,-1.099614052034639028e-03,1.281700106051273866e-02,5.257319211959838867e-01
3.067920314278732574e-01,6.812656599477079356e-04,-2.520814285040445801e-03,4.322368620759561852e-02,8.669251840161502215e-03,1.269059355728083434e-02,3.178171217441558838e-01
5.364197088906438315e-01,-2.487357132827114348e-02,-4.156706312849800522e-02,1.392799185830083213e-02,1.296000269420850923e-03,-2.490717331775335868e-03,5.703545808792114258e-01
5.451209412465083393e-01,-5.154039009559815976e-02,1.054787547210919718e-02,2.835879742708148805e-03,2.437049820773557948e-04,-8.600457166225008304e-03,5.683838725090026855e-01
5.191007050953524438e-01,-5.793266417540704483e-02,-3.598557876428273850e-02,-1.077044953499983922e-03,2.578013587720024433e-04,3.358172995111268974e-03,5.664119720458984375e-01
5.469254917886420264e-01,-6.315174605714893308e-02,1.443007017570588357e-02,4.528316304697870345e-03,8.166089839897265959e-03,2.077721799551593591e-03,5.754622220993041992e-01
5.617265604575923943e-01,-6.795792491038896155e-02,2.682577377241843197e-02,6.536792277173330765e-03,-3.677940268138241414e-03,-2.106697188183357609e-03,5.882046818733215332e-01
4.678720234169557735e-01,-3.838993886559499691e-02,-2.526169322262686312e-02,1.703906450388944713e-02,-3.114353094410692740e-04,1.163529683459795655e-02,5.011034011840820312e-01
5.266202267679434001e-01,-4.102456914631996687e-02,-4.024294693236635245e-02,1.145795897839389874e-03,-3.933024231209269637e-04,-4.373150066014432655e-04,5.672587752342224121e-01
4.567730960280431685e-01,-3.777108275807797289e-02,-2.158951197824421353e-02,1.863320908963939787e-02,-5.359579373471957085e-03,1.319516655253477784e-02,4.883476197719573975e-01
2.748746940173555364e-01,1.337872733757489163e-04,-8.867478056801395003e-03,-3.020187355859005589e-03,-5.544224778278658561e-02,1.362681618015576350e-03,2.954506278038024902e-01
4.331661009091779535e-01,-3.291211070211241818e-02,-1.768171252769520918e-02,3.959975819629563782e-04,-8.378511865073639674e-05,6.641638704301933670e-03,4.587974846363067627e-01
4.888017578010194208e-01,-5.363645198498498412e-02,-2.657022565369132616e-02,-7.717299749478269758e-04,1.646227666042594665e-03,7.676831644331987350e-03,5.296005606651306152e-01
5.353685082262098494e-01,-6.088413234069156577e-02,-4.062209647544290370e-02,2.223410855117920887e-02,7.674396693489175802e-03,4.299533804690097889e-03,5.878449678421020508e-01
5.901520900213361731e-01,-3.701620076232148282e-03,-6.155642116430951050e-02,8.225497175131605415e-03,1.270456713670155106e-02,-1.107801385819451832e-02,6.256372928619384766e-01
3.590461817426944813e-01,-2.258835620858305748e-02,-4.832222737189542650e-03,-6.933873417193710254e-02,1.532594616349661903e-02,4.281469122581995322e-03,3.928957581520080566e-01
4.470969285026685780e-01,-5.309386583434644313e-02,-1.490456800116121694e-02,-1.564891288782881487e-02,2.135216766792461017e-04,1.864089158423477225e-03,4.830036759376525879e-01
5.951470552417410520e-01,-2.644023652471405583e-03,-6.510095602359122768e-02,1.553021688397672332e-03,-5.767970716233076188e-03,-9.595566879371993443e-03,6.316443085670471191e-01
5.236537834308969686e-01,-2.974201735000475688e-02,-3.907336148419593425e-02,2.274117537562544804e-03,3.251002621797772357e-03,1.330839911970814081e-03,5.581670403480529785e-01
5.051927536660618667e-01,-3.324940865680739432e-02,-5.310493992723289147e-02,-1.012996946221709658e-03,-1.125236990385511393e-02,-9.340030696589660120e-03,5.492266416549682617e-01
5.593360320083218262e-01,3.418134631388597411e-02,-7.156515946158295560e-02,6.311860444261906122e-02,1.111536935623428680e-02,2.529625455406648779e-03,5.956884622573852539e-01
4.349873120824206962e-01,-4.071284139880737563e-02,-1.186173067062423758e-02,-1.267393119550707997e-03,-4.796966266702083976e-04,-9.623545534396430595e-03,4.622573852539062500e-01
5.161076365769003971e-01,-6.005666382710955764e-02,-3.348950994873189924e-02,-6.833763914533230906e-03,1.345236792959375767e-03,-1.454928075017876757e-03,5.634855628013610840e-01
5.419718587503435936e-01,-4.233947682469277329e-02,-3.325938883956941483e-02,2.399111847748271100e-03,1.766750337582627742e-02,-7.904391723516543747e-03,5.808078050613403320e-01
3.762725727015449051e-01,-2.744336455034954159e-03,-2.145422145003918202e-02,-4.436046703305198281e-04,-1.657448342208297024e-03,-8.382481257468907959e-03,3.889921307563781738e-01
4.556950258954201027e-01,-4.194594166159923421e-02,-2.792881227109766940e-02,4.942319261768042277e-04,-2.371789044278312098e-04,-1.032824165776770851e-02,4.911094009876251221e-01
5.257151857601969347e-01,-3.506554254039695451e-02,-5.832429692461960080e-02,5.234465487078157316e-04,3.299466183094828392e-03,-5.442518213550671209e-04,5.727943778038024902e-01
4.361316193228912952e-01,-4.445605354681807231e-02,-1.717151367272450047e-02,-1.081551368573216909e-03,-7.518439524328656256e-04,-5.106723364603546651e-03,4.676321148872375488e-01
5.011607915795183166e-01,-6.134272140734209344e-02,-2.593095918951682233e-02,-5.116613720921556717e-03,1.885839761729746547e-04,-2.201856722901333711e-03,5.457454919815063477e-01
5.297653326623893433e-01,-2.956677689022102484e-02,-2.165461089388140414e-02,1.370397775769771533e-03,1.160423890449759771e-03,-1.860337500863931811e-03,5.554363727569580078e-01
5.069103477244866207e-01,-5.955369473170885053e-02,-3.024898594625463621e-02,-9.890363992987396841e-04,-3.701455357145658079e-04,1.029228468450210567e-03,5.524008870124816895e-01
5.529125300500925544e-01,8.233799591779333849e-03,-5.429385071442899280e-02,1.881157284958711847e-03,7.066067811542638306e-03,-8.125423747020316806e-03,5.787923336029052734e-01
5.999976631022113649e-01,-4.403930098875516452e-02,-1.886847361932109113e-02,9.192862324108324809e-03,-1.445624632821027088e-03,-2.690385226279119399e-02,6.337487697601318359e-01
5.291117534442472126e-01,-4.830562639809068970e-02,-3.946091522042519117e-02,4.745294425657091766e-03,1.007665000477407646e-03,-1.065865835230120351e-02,5.734050869941711426e-01
6.172848740590992644e-01,-2.890872451878345739e-02,-3.605113525455269641e-02,-7.413420277181450961e-03,-3.968164704644076314e-03,-3.054397152155045869e-02,6.521069407463073730e-01
5.471607032448766450e-01,-4.560275335673424912e-02,-3.879027599169082574e-03,7.193008936252791308e-03,-2.263358317440685320e-03,-7.440301410923638725e-03,5.733356475830078125e-01
5.384547362342179122e-01,-1.927373122159042884e-03,-3.998316547622757233e-02,1.772886491643948202e-03,2.686246772717037264e-03,-7.285527093576379259e-03,5.605497956275939941e-01
5.413981259968450033e-01,7.715922135968333873e-03,-3.259969672852019995e-02,-2.642437806379726965e-03,9.145865777975980063e-03,-3.107877784167368054e-02,5.577878952026367188e-01
5.097004649453020786e-01,-2.964275123731852091e-02,-4.882786476731176828e-02,5.796007154713360334e-04,-1.371114520677081412e-03,-3.841427563057120501e-05,5.491932034492492676e-01
5.800846160723835965e-01,-5.349109563970444459e-04,-5.113572588626616455e-02,1.377187484737584303e-02,7.590539226482795505e-03,2.195172656300727054e-02,6.093002557754516602e-01
2.917774617620453315e-01,7.837989594514399583e-03,1.077240324156804319e-02,-8.673591432323758850e-04,-1.322085321603576422e-03,2.779236994152834306e-03,2.825379967689514160e-01
5.630846524567165723e-01,4.282893966279510689e-03,-4.478446163616633946e-02,4.115677818221341253e-03,-4.021290685600389242e-03,1.903218709415541859e-02,5.858941078186035156e-01
3.211218548521432847e-01,6.916197989299960325e-04,-7.667629110070059428e-03,-1.202569407813087153e-02,-3.048532448180807375e-02,-3.794867203126689025e-03,3.296802937984466553e-01
5.336101640453556616e-01,-4.885041650627325316e-02,-4.065217774677667983e-02,1.454392305154877810e-03,7.311356155732315473e-04,-1.444987911984924218e-03,5.784173011779785156e-01
5.976816338943851115e-01,2.232677969497709469e-02,-6.796292311644064332e-02,-4.804834436665648967e-03,-6.099271885012028799e-03,1.518396486691838201e-02,6.261042952537536621e-01
1.775662985956621143e-01,-4.191700633818307153e-02,-8.550100690063053288e-02,-2.608400220671812375e-02,3.185842385517804673e-03,-1.202006798295786327e-02,2.492859214544296265e-01
7.716977366988916343e-01,6.997825101348248422e-03,-8.548941226629561130e-02,4.394473932128173388e-02,-4.494149928839714231e-02,4.505565456938347840e-02,8.258253335952758789e-01
4.868090778954635711e-01,-5.421297957883658425e-02,-2.108075097533476661e-02,1.579483429338138841e-03,2.211953065850960111e-03,1.579476560413787005e-03,5.252684950828552246e-01
4.934067984312189292e-01,-3.815937636632837915e-02,-5.557496627453961668e-02,-2.281619686372457489e-02,5.524946213614230495e-02,5.009407580125117658e-03,5.503798127174377441e-01
3.742460994326402002e-01,-3.838307901827542334e-03,-2.315256786993546978e-02,-6.610298274854181210e-04,3.225303776916994825e-02,9.520126790133125877e-03,3.924503326416015625e-01
5.367521319847314842e-01,-4.961123054795721354e-02,-3.613790076456283029e-02,7.579058553235402430e-03,-2.212591850452157779e-03,-1.210359256469999579e-03,5.799092054367065430e-01
3.945467170843937610e-01,-1.742975542964374236e-02,-2.348642406711996811e-02,1.321713924535239046e-02,2.633203724853911201e-02,-2.280895014518679459e-03,4.181821644306182861e-01
4.204162561221286842e-01,-2.898138538836163292e-02,-2.554537694240142931e-02,2.820588562541681554e-02,2.457513792096592889e-03,-4.497798748574347374e-03,4.504347145557403564e-01
5.434847391916681758e-01,-4.677805974854301607e-02,-2.196362718900174427e-02,-2.519806872382034969e-03,-6.272063744840291472e-03,4.979793726269877291e-03,5.784378647804260254e-01
6.541591808334643598e-01,1.565148091435777933e-02,-7.843743731138530517e-02,1.039368652081080063e-01,6.359419548447570181e-03,5.161073488035024248e-02,7.191260457038879395e-01
5.117403241087814525e-01,-5.983636927706456610e-02,-3.059530154692999271e-02,-5.724355028506640931e-05,2.653288871491844684e-04,4.506384261605582355e-04,5.575323104858398438e-01
4.880406840417096381e-01,-5.358967914234755159e-02,-2.725700618323093072e-02,-7.794836287790842238e-04,7.812872374663549320e-04,7.671084547410429375e-03,5.291261672973632812e-01
5.224848160050569179e-01,-6.228025004232784489e-02,-3.213430545560824747e-02,1.058398496524578722e-02,2.411914144323767917e-04,2.929409887143297198e-03,5.706072449684143066e-01
5.236011493751637769e-01,-5.420909935984646877e-02,-3.531697145334700139e-02,-1.673297856509560998e-03,3.196097652716019971e-04,7.468059853344629912e-05,5.686072707176208496e-01
3.995843036248366009e-01,-2.827148713334530494e-02,-2.087393808976238663e-02,8.576483897549831963e-04,1.822828056170065856e-03,1.295074143646023600e-02,4.248123764991760254e-01
5.167231347390002227e-01,-5.381552203532938283e-02,-3.491384879815015441e-02,4.657575602839377979e-03,1.761880559781691226e-03,-3.616461161500428116e-03,5.614277720451354980e-01
5.005133903319798350e-01,-4.322391143295370441e-02,-4.386093188755052497e-02,4.397909158380546718e-02,3.469552983384120021e-02,-1.017439622851445957e-02,5.529208183288574219e-01
5.114671368687017106e-01,-5.967763685917065741e-02,-2.877441033728586617e-02,-3.544668089517067592e-05,5.735762480523064633e-04,1.412764853774274749e-03,5.563435554504394531e-01
5.294553891000665091e-01,-6.299041118692547125e-02,-4.681887335191078914e-02,6.477248287530295266e-03,2.906660560808558072e-02,-1.050964653436714524e-02,5.870814323425292969e-01
5.963046211273775876e-01,-1.053855234465164159e-01,3.249921095124652659e-02,4.258407524711965014e-02,2.705301020898042558e-02,1.256491196847382003e-02,6.501833200454711914e-01
3.675286976478091550e-01,-6.973675548321218998e-02,-1.825172963030423368e-02,-2.194732543767851513e-02,1.079004027770552182e-01,-3.794741956531321597e-02,4.604690372943878174e-01
4.887616341842613288e-01,-5.019010716062916044e-02,-2.973812249668397745e-02,-9.957814637696043702e-04,1.438740243864473738e-03,7.542899292968728749e-03,5.291923284530639648e-01
5.219613040332758969e-01,-3.831401769452738582e-02,-5.744126545109543014e-02,1.217278110476311716e-03,2.990421558416195714e-04,3.626167111212625499e-03,5.701183676719665527e-01
4.879217323395389910e-02,4.212772868813024346e-02,1.184249199570399508e-02,5.215889241984051489e-02,-2.711234336744323611e-02,6.578877822047597863e-03,1.079823002219200134e-01
2.640289659216839002e-01,1.214893425423083095e-02,-8.532700115783345418e-03,6.320768359288317026e-03,-5.565267777306030783e-02,2.680143757129579366e-04,2.801647782325744629e-01
4.535215508682532981e-01,-4.608010091581166146e-02,-1.648955964877402147e-02,2.087944811788587651e-02,-1.390474107287022199e-03,1.050122403451186860e-03,4.868376553058624268e-01
5.010476492975557417e-01,-6.062347815423912989e-02,-2.595783219328312574e-02,-2.449372931709670360e-03,1.493974770717300003e-04,-7.043403258620230430e-04,5.451834797859191895e-01
5.210198244067667517e-01,-3.506599651208452961e-02,-5.920858099501666305e-02,5.010443740629048871e-05,2.539459435303104314e-03,1.549717754508621748e-03,5.685650706291198730e-01
5.530451963976391605e-01,-1.084034385882554075e-02,-2.681540758227071719e-02,-1.291931941135399282e-02,-8.190338758986344392e-03,1.657810796071701800e-02,5.733730792999267578e-01
5.081722974951102811e-01,-5.202792759233745845e-02,-2.949535980890038989e-02,1.309795013646972150e-02,1.227508719642535565e-02,-8.131547075663653548e-03,5.503401756286621094e-01
5.229274009575206605e-01,-4.856664915918931791e-02,-4.565760058735413018e-02,1.511396440980942978e-07,-7.542388450649658237e-05,-3.078049199954724889e-03,5.700700283050537109e-01
2.497246630485550067e-01,2.111398187588306441e-03,-8.759456586643468712e-03,-3.687701720480314471e-02,-5.382868097180359100e-03,-4.741767411680300991e-03,2.614505589008331299e-01
5.184514885015709673e-01,-6.738592112038324644e-02,3.496715460630669958e-02,-7.931130522045573214e-03,-7.747742453882831837e-02,1.818904108780158846e-02,5.593825578689575195e-01
5.506875360405931730e-01,-7.355182430636061919e-02,-1.042837170862337404e-02,2.890564627268164127e-02,-2.472354148770188401e-02,5.421308474686577922e-03,5.989021062850952148e-01
4.216675693922687373e-01,-2.577500976817295730e-02,-2.390556344420188828e-02,-7.681383079678347431e-04,-7.321495712687034300e-04,-1.200799842068722874e-02,4.469987154006958008e-01
5.138472171358671181e-01,-5.985646476481773504e-02,-3.235775919021097180e-02,-4.078075357168031061e-04,3.178714411107971469e-04,1.933322414518143673e-03,5.604712367057800293e-01
2.729013037077768766e-01,2.257653261019110236e-02,-3.982286524700026642e-02,-9.513537137921809772e-02,-7.688048410473231897e-02,1.815618523852068067e-02,3.578397333621978760e-01
5.806351719221707341e-01,-1.181053172480184821e-01,3.950881554765189874e-02,-1.316499225816307635e-02,-1.189766135897395161e-01,2.308229083420562308e-02,6.689796447753906250e-01
6.352004183927546510e-01,-1.067029567313812766e-01,4.706086402428180659e-02,5.579006286995800978e-02,6.135195290462546608e-02,1.749404656130067182e-02,6.939264535903930664e-01
2.993489370760988866e-01,9.792757592232845254e-03,3.562570203770806798e-03,-3.265147735464027281e-03,-4.901282960021931603e-03,-4.023880612560521049e-03,2.929815948009490967e-01
5.601299662204435315e-01,-7.288435167095450029e-02,2.831487776680102764e-02,3.690972322036295463e-03,-5.548981984415108081e-05,-7.336436083307570043e-03,5.891436338424682617e-01
5.498445554631616883e-01,-5.324862518889197927e-02,2.321542454528452426e-03,2.574084679014760680e-04,4.766411659726378473e-03,8.508960634019365529e-04,5.773785114288330078e-01
4.863121098785056495e-01,-4.761560681318616206e-02,-2.867408805032081731e-02,5.783026401118131904e-02,7.378015082437820379e-03,-1.412397443687171510e-02,5.349009037017822266e-01
5.377304364128455694e-01,-4.599322919130804932e-02,-3.894121366036010223e-02,3.880174598803709865e-03,-3.300465656345457407e-03,-9.069617298759811248e-04,5.802990198135375977e-01
5.458706585066521733e-01,-6.727894853365246064e-02,3.527333223994844058e-03,1.041375161182993281e-02,1.035325733845348165e-02,-4.369320518021140194e-03,5.815972089767456055e-01
4.544424305481139514e-01,-4.033349028342109177e-02,-2.248760429764395941e-02,-1.513134493819863220e-03,-1.309093076171329766e-03,9.317771884377438335e-03,4.863789081573486328e-01
5.226129495486967480e-01,-3.710268347423278934e-02,-4.057159209745658801e-02,3.232046482907711352e-03,-1.750832095199523087e-04,8.235737157183289740e-04,5.614879131317138672e-01
5.345830806124658441e-01,-4.105293546718580266e-02,-3.898134033221403727e-02,-1.212053820079599803e-02,3.513058304361385813e-03,3.378161031826086222e-04,5.750188827514648438e-01
2.438975636730336682e-01,-6.393451810334481455e-02,-6.668870300381775362e-02,5.485711818487586100e-02,3.702641029225577779e-02,1.068253154072350448e-02,3.303015828132629395e-01
4.526672709259371152e-01,3.160014219062201590e-03,-2.768698924618143153e-02,-7.691658616907856572e-02,1.168177597760400310e-01,-3.893636687315740752e-02,5.292541980743408203e-01
5.368608057858583749e-01,-1.716252008300350740e-02,-5.247951370449829844e-02,1.259090103355567890e-02,4.457540789335294462e-03,1.038714692179587562e-03,5.729694962501525879e-01
4.381275841360640078e-01,-3.075344694729616191e-02,-3.516562572412983145e-02,6.096242527137271661e-02,1.710906535918089305e-02,-3.653887910218366585e-03,4.837407767772674561e-01
4.877304589529899426e-01,-4.168362745088030619e-02,-3.589751185223596930e-02,-2.561470454114425643e-02,8.387176459021905214e-03,1.672606719444971626e-04,5.286104083061218262e-01
2.802456338326476670e-01,1.424587826048219485e-02,9.110624371690578815e-03,-1.364247674405364742e-03,-2.780932600486246079e-03,1.196605205554360316e-03,2.686657607555389404e-01
1.226414481028910569e-01,2.284934667433268646e-02,-3.814327813626781916e-02,2.620338701367684944e-02,-4.550061597639109418e-02,1.413901593179315783e-02,1.692207157611846924e-01
5.381162191380548521e-01,-4.470205198388454981e-02,-3.017932545370130559e-02,5.146910177475702737e-03,1.088775160241953329e-03,1.791607164065702016e-04,5.757665038108825684e-01
5.209952272133749895e-01,-5.860011724854302662e-02,-3.517308715286934784e-02,4.410504436457716310e-03,2.733415357087507890e-03,-9.510058728872692940e-04,5.683175921440124512e-01
4.500696804758174130e-01,-4.497932821736647102e-02,-1.872161009706116430e-02,1.679437400647684070e-02,-9.884580537086796494e-04,4.610858125610437647e-03,4.834014773368835449e-01
6.366507918832023938e-01,-1.059213413441137397e-01,3.440584548664210596e-02,3.771617415978665427e-02,6.173341255280245798e-02,2.532196517476402453e-02,6.960791945457458496e-01
4.800619212405999869e-01,-9.032998706842607084e-02,5.373941190177422556e-03,9.523585081377129724e-02,5.735924797047008139e-02,1.847352731083570440e-02,5.639336109161376953e-01
5.270946281386583721e-01,-5.897249566682830069e-02,-3.298587949955253396e-02,5.186182829071740198e-03,-2.046130231970295140e-03,-1.248180955272877720e-03,5.736008882522583008e-01
4.337490047152479100e-01,-8.932703738650349390e-03,-3.701428182742069750e-02,8.568695402492668094e-06,-3.103105216178405571e-04,-5.067778044128536975e-03,4.574540555477142334e-01
5.271152794379395656e-01,-5.382317622645063637e-02,-3.832966980381730115e-02,2.543705079811363953e-03,1.617800883235339217e-03,-1.285916280328544027e-03,5.733768343925476074e-01
5.971119470388266404e-01,-6.545263286781799472e-02,-3.429692951199464490e-03,-5.303310112193722337e-02,1.274040955327406244e-01,-2.634954588239543996e-02,6.789405941963195801e-01
5.398974237005399468e-01,-4.926405725462063012e-02,-4.159323161677438985e-02,2.203424888434927023e-03,-2.234188226877880865e-03,-1.383864841511319452e-03,5.853939056396484375e-01
4.126391969601497789e-01,-1.401475721425840537e-02,-3.745467917463551899e-02,3.692581402770250213e-03,5.543626769042284824e-02,5.924468379109006566e-04,4.492719173431396484e-01
4.978576685348158337e-01,-6.277310755541409826e-02,-2.365870454136548284e-02,-1.685593087640334213e-04,9.506309756046939523e-05,-1.840606816699003458e-04,5.421330928802490234e-01
5.532478412375438914e-01,-5.969075416412167323e-02,3.051567141528299665e-02,-6.174583612614768791e-04,-9.376059708286336655e-03,2.388882321838653108e-03,5.734299421310424805e-01
4.778291280658111262e-01,-5.627598529259297822e-02,-2.232094793800018517e-02,-1.005497499592642591e-03,-5.335291176742986167e-04,1.698298193607363426e-03,5.179750919342041016e-01
2.496302692476614626e-01,-4.901205183911155894e-03,7.598050399437769609e-03,6.623700211864825757e-03,4.269986305207432165e-02,2.980463424234347665e-04,2.595433890819549561e-01
5.209786251663015566e-01,-3.786868305185681072e-02,-3.863210873497982534e-02,2.884829882721543295e-02,7.117695966701827193e-02,1.377868492267939711e-03,5.748376846313476562e-01
5.137714368863205427e-01,-3.069497191207767872e-02,-6.159002255296225359e-02,8.646950879833431190e-04,-9.377951109121606971e-04,1.280747612755378821e-03,5.605615973472595215e-01
4.064193021015691798e-01,-2.404463383839766655e-02,-1.097421461213107796e-02,-2.426609077912976128e-03,-8.813062196282318286e-04,8.280238108658424800e-03,4.243458211421966553e-01
4.315857034164946038e-01,-4.171397070609361712e-02,-1.395555270250575797e-02,-2.493475312406233900e-03,-6.322552080266506712e-04,3.555463481393877478e-03,4.601117670536041260e-01
5.293593238178473381e-01,-3.405842384675905610e-02,-5.455000278045876727e-02,3.555000493086834384e-03,6.195868387248301343e-03,1.476352495906834480e-03,5.740770101547241211e-01
5.181885396954166723e-01,-4.465293081823015764e-02,-3.645975505480786305e-02,-4.544819337919420166e-02,7.219945623347998054e-02,-5.033238967774888648e-03,5.780632495880126953e-01
2.742487372369135645e-01,-2.335675800176027772e-02,-8.895643247682299970e-03,9.523993756730973759e-02,1.159030809167995169e-01,-5.336396720583675389e-03,3.899646103382110596e-01
5.573594303901157065e-01,-4.571900575089740681e-02,-2.243813831934823866e-02,5.216577746424346830e-03,4.014270729721578640e-02,-3.271345356043411489e-03,5.959475636482238770e-01
5.173328842173413600e-01,-4.280580572725836697e-02,-5.139065883971119519e-02,-1.899199938490574602e-03,-2.985365772734336395e-03,-3.318695980667703271e-03,5.645425915718078613e-01
5.372824821573171095e-01,-4.243857107388984695e-02,-3.927965315977022254e-02,1.696730368193279494e-03,-2.225801281643682242e-03,-2.845064767400913228e-04,5.781685709953308105e-01
5.270921744315621993e-01,-4.517451234993039022e-02,-4.718483264951325862e-02,-1.398751724021176290e-03,4.440728441993789131e-04,-1.096529051536763739e-03,5.732832551002502441e-01
4.358077877391164923e-01,-1.725935290696267721e-02,-3.608695890512966797e-02,1.281257416665269617e-03,1.863722835440281790e-03,8.811522838400281943e-03,4.630364477634429932e-01
4.590081940823741435e-01,-2.307670269939118834e-02,-4.284266213267309831e-02,-9.192900028197336119e-04,3.259768320018611889e-04,8.483350400110284059e-03,4.924877285957336426e-01
5.237542349481906223e-01,-4.340900270029293684e-02,-4.788437534210146507e-02,-3.676203655163720325e-04,9.484581892335484325e-04,-8.741078426355073207e-04,5.694188475608825684e-01
3.611146641808479218e-01,-2.141201812335331855e-02,3.821030217797949380e-04,-3.067424361418816334e-03,-2.102117709030092152e-03,3.687067463887049035e-03,3.722191154956817627e-01
5.246118549268290465e-01,-4.492148230795728336e-02,-5.088735312901315755e-02,-1.819319342642150344e-03,-1.604503326900060477e-04,-3.217107112259612496e-03,5.725754499435424805e-01
5.203120070539748454e-01,-4.203138169795281320e-02,-4.959026296504076559e-02,-6.034691185388909966e-03,-3.658298208046685280e-03,-5.800610673154660800e-03,5.663816928863525391e-01
5.393458319199989637e-01,3.474096232605222712e-03,-4.693966999395157713e-02,2.551584332962734177e-03,-4.773814832226065327e-03,3.950919025241503985e-03,5.628944039344787598e-01
4.084668315514364823e-01,-2.193486763313545751e-02,-3.977274607910261106e-02,-8.569324796376485281e-03,-2.549646721143271344e-02,-1.235214406374892694e-02,4.425714612007141113e-01
5.495659122108035310e-01,-4.355049377999078986e-02,2.083354071942433716e-03,3.137706140548885553e-03,-7.682877175533271361e-03,-9.410458078474178562e-03,5.720800757408142090e-01
5.505182885114323632e-01,-4.370188405374519913e-02,9.124390201314669380e-04,2.944380704738474522e-03,2.726322644811441862e-02,-1.390840741308719750e-02,5.756852626800537109e-01
2.662398262263505622e-01,-1.829009321766272844e-04,1.611737501537714723e-02,-8.001220328837658135e-04,7.307921171991986617e-04,-2.519315980703766295e-03,2.587017118930816650e-01
2.253407404746006759e-01,4.094424658137973960e-03,-2.854565373062567524e-02,1.553503939332726014e-01,3.447690623472245142e-02,-2.324294124477101556e-02,3.671848475933074951e-01
4.936622079524117801e-01,-5.467265397470608135e-02,-2.857028712005699189e-02,2.721145347684552707e-04,9.338968379203309170e-04,-6.713058023765418065e-04,5.357646942138671875e-01
5.329064347227319143e-01,-4.781420120929008588e-02,-3.988626110885593046e-02,8.461668330278365735e-04,8.767151702081017609e-04,-1.594188041287895267e-03,5.768079757690429688e-01
4.390627337764806404e-01,-4.136057284425417868e-02,-7.126428862158612487e-03,-9.260515890163145648e-04,7.795577443634690330e-04,-5.715990169150564001e-03,4.643641412258148193e-01
5.371292174340178693e-01,-4.618239355333003671e-02,-1.656999224966670958e-02,-3.952361950433127755e-03,4.530496285587119233e-03,1.190574864369032962e-03,5.691825151443481445e-01
5.343286839666362420e-01,-4.368805855889004719e-02,-1.956441962124141898e-02,1.201113888936316230e-03,3.761871803981568785e-03,2.311877608879842755e-03,5.663958191871643066e-01
5.504144812218553229e-01,-5.268202596040819086e-02,-8.077958759048098347e-03,1.733645350720293063e-02,1.191612331624563800e-02,-4.720172927885519116e-05,5.832169651985168457e-01
5.708000155191416125e-01,-1.965455984136060819e-02,-6.172385163498755878e-02,-2.477802020000095459e-02,2.663075244669414754e-02,-1.017899363660655643e-02,6.160573959350585938e-01
5.517389984799082603e-01,-5.665917246241483629e-02,1.872479946233102099e-02,3.881602495142023358e-03,-3.228364884541315254e-03,-9.387750393500333274e-03,5.747246742248535156e-01
2.561032144935394550e-01,1.090334280209463713e-02,4.000234895052995343e-03,2.976775244220570930e-03,1.791786378096261317e-02,-3.224467563524423264e-03,2.507672011852264404e-01
6.169272000685250834e-01,-8.226874382052296042e-02,-8.026050810277657321e-03,9.612891187310273339e-03,9.515891844694955321e-04,-3.032460884028806078e-02,6.674694418907165527e-01
5.299941957542018134e-01,-4.990773359125150188e-02,-3.848379574119500934e-02,-2.984004951574464794e-03,-1.354563782868775049e-03,3.246459852792336867e-06,5.743032097816467285e-01
5.478577866941745089e-01,-5.819047441004410182e-02,3.291577256512265293e-02,-3.370226939329577700e-03,-1.299808971432252951e-03,5.967274488184881251e-03,5.661501884460449219e-01
5.190347155627110798e-01,2.371645727810176019e-02,-5.552423811349568861e-02,-4.493217977323496481e-02,2.552390889695534820e-02,-2.173885716724936745e-02,5.479940176010131836e-01
4.242512968305087173e-01,-1.345821214033364466e-02,-5.000298553184494288e-02,1.166168134174292853e-01,7.391219256542697069e-02,3.848903446862452643e-02,5.201469063758850098e-01
5.105600078007086484e-01,-5.759605795280617335e-02,-3.399540979366277860e-02,6.524521891600046971e-04,1.756370071585955850e-03,3.261633491765605561e-03,5.567691922187805176e-01
5.209336591286790608e-01,-4.558723606374828763e-02,-3.914528090940852523e-02,-3.339192585170213008e-03,1.073379922539621951e-02,1.196914759915429505e-03,5.636677145957946777e-01
5.417908337529827589e-01,-6.052840315344329425e-02,1.601855004472124699e-02,6.812478959150096436e-03,1.238135397411107425e-02,-1.702038140891259932e-03,5.684628486633300781e-01
5.708125076005436949e-01,-5.405018571757577717e-02,-1.301378347108145261e-02,-4.280813702138618580e-03,8.415113930844568850e-04,-5.108161816490453325e-03,6.055003404617309570e-01
5.576278664413665265e-01,-6.741253169525263100e-02,3.062033572572378515e-02,2.310168047972569090e-03,-5.405731779314091115e-03,-3.432811764924547336e-03,5.823662877082824707e-01
4.926995822123625413e-01,-5.722742585103382518e-02,-2.495856153356443285e-02,-1.860489405038472923e-03,-1.459402172279981131e-03,6.242987500688080595e-03,5.346486568450927734e-01
5.490811323407271960e-01,-5.502366623684665226e-02,-1.970573258149849183e-02,3.135131064309637505e-02,-1.524242383378007597e-02,-9.287205888923594221e-03,5.905579328536987305e-01
5.103597649761542066e-01,-5.366251325524337701e-02,-3.789408691006804220e-02,-1.043623747524856068e-03,2.152379547335910265e-04,8.700931468659004256e-03,5.565128326416015625e-01
4.714618763496186693e-01,-3.065334920093906734e-02,6.483590969283803407e-03,9.337495512330321046e-02,-4.996730016864479873e-02,-4.563449006597165153e-02,5.241623520851135254e-01
4.624566399511144121e-01,-2.606205804656666625e-02,-3.673494947991398640e-02,-1.998707649742587382e-04,2.990629018883680500e-03,1.017479687947086056e-02,4.942831993103027344e-01
5.684208503310255178e-01,-6.776961343463899778e-02,-1.276456240014181565e-02,2.577693825006941927e-03,-1.044147126654880464e-02,-6.761743744079387695e-04,6.108343005180358887e-01
3.417440065396484261e-01,5.087272412588869641e-03,-2.827143515601038271e-03,1.164978924960894443e-03,-1.016647360312302861e-03,3.885305867885064952e-03,3.407598733901977539e-01
4.348663379000661244e-01,-7.425209353403239287e-03,-3.836792922934767480e-02,3.477229782102140079e-03,2.372890807646515533e-03,5.028603381444464969e-03,4.586872458457946777e-01
5.464838951445041282e-01,-5.168939184066817516e-02,-6.086526524122504167e-03,5.209492347578782191e-03,-3.986593996571944493e-02,-6.157173063281920662e-03,5.810124874114990234e-01
4.883447445615313742e-01,-2.439372185491481271e-02,-4.970741938076095323e-02,5.615261960326096286e-03,2.285704952283906452e-02,1.723611625975351308e-03,5.274387598037719727e-01
5.447575775502514484e-01,-5.422949483605823962e-02,-1.290537769808813851e-02,4.917733546443788309e-03,1.321562847927276393e-02,9.309945847079984199e-05,5.799458026885986328e-01
2.603102882399391804e-01,4.188437614417311883e-04,-9.238774988751383144e-02,-7.814543476771018682e-02,3.921272439707428059e-02,-1.712544784740602927e-02,3.522628843784332275e-01
6.423907189427892073e-01,1.274801892972698969e-02,-8.179661088710035721e-02,6.191468878920250440e-02,-3.970922109522784932e-03,-3.982310849515852819e-02,6.937025189399719238e-01
4.067939244606547100e-01,-2.258637320059403431e-02,-1.554564343592743092e-02,-2.094105068184553241e-03,1.763820495410130219e-04,9.851583911112687594e-03,4.262607991695404053e-01
5.940373760845277795e-01,4.256233361069361454e-02,-6.704896000328727790e-02,-1.907125095550724625e-01,3.372791452882595298e-02,-5.952395736215468011e-03,6.994426846504211426e-01
8.625865250636084447e-01,-7.033200296690467201e-03,-9.502731272145753527e-02,-5.520811617839509883e-02,-1.269729581002857627e-02,-4.063456365671313381e-02,9.247074127197265625e-01
5.937258487624632597e-01,-4.602254827740392962e-02,-2.655885415721798148e-02,-7.400439071505607400e-04,1.801156749471544442e-03,-3.218867575849897189e-02,6.327121853828430176e-01
3.834120912877743148e-01,-1.504525869170500463e-02,-1.335678935587392147e-02,-4.940560911116079375e-04,-8.464512076177533565e-05,-6.963736920169967884e-03,3.977996408939361572e-01
5.125594456353346207e-01,-3.478207680651593248e-02,-5.514579605499753123e-02,-1.413025648300351165e-03,-1.538571889283471376e-03,-4.255595573053045158e-03,5.578626394271850586e-01
5.653635065319745356e-01,-5.465216471979641999e-02,-9.583328583549127755e-03,2.869130473389501154e-02,7.683500682262667594e-03,-1.886983474888528911e-02,6.018489599227905273e-01
5.193690280475322663e-01,-5.409436173023182692e-02,-3.448294934398610234e-02,-4.076016125577957769e-03,3.282745380462311936e-03,2.328947488896431633e-03,5.640007853507995605e-01
6.020646047135918000e-01,1.013108358649672525e-02,-7.697429924932902567e-02,9.775631495166343596e-03,1.725641655386165804e-02,-3.614409444452543890e-02,6.439195871353149414e-01
7.732517662754611054e-01,-5.869607295390383284e-02,-9.070866888736378586e-02,-4.129900808517149996e-02,9.956269904097311829e-02,-7.923124688352346789e-02,8.794785737991333008e-01
4.961188234113349527e-01,-4.707109062646908093e-02,-3.693781638619469954e-02,-5.090738623944145516e-03,7.751404285168273910e-04,9.230534647836276252e-03,5.385060906410217285e-01
5.871495132852696530e-01,-1.119821544053573037e-03,-3.830080698061380517e-02,4.473241629700430710e-02,-2.241340263727067267e-02,-5.426079666944989138e-02,6.210139989852905273e-01
4.932208307754680221e-01,-4.979702874757974129e-02,-3.865111027738260541e-02,2.373065648289463328e-02,-1.556273378202346729e-02,7.877294756332494860e-03,5.399466156959533691e-01
4.349351349847949688e-01,2.347115248344006089e-02,-2.500467804361808377e-02,-1.026159237621523390e-01,8.777619403129444109e-02,-4.576831253240429276e-02,5.025801658630371094e-01
5.433716595453339515e-01,-4.530881986928436689e-02,-4.396948151881008293e-02,-8.353801072565176199e-04,-7.322208438867930250e-04,-5.735801985436403709e-04,5.880159139633178711e-01
5.403380573008569332e-01,-4.265168132364985376e-02,-4.101158554622108543e-02,9.567844932631226415e-04,-2.896647834636884803e-03,-6.637099195671516570e-04,5.821965336799621582e-01
4.528278506490079902e-01,-2.909491635648647767e-02,-2.343381574056502270e-03,-8.119227655223590356e-02,1.302751627640804655e-01,-3.794879782286850883e-02,5.432170629501342773e-01
6.844612928646270911e-01,-5.425944795634171647e-02,-4.740274247253561946e-02,-5.134736936207109220e-03,1.607175014883142905e-01,-7.131294978826964448e-02,7.959372997283935547e-01
5.337971591106840386e-01,-5.157583364968523765e-02,-3.925686504844622116e-02,1.307647699564265130e-03,5.469063329583857954e-04,-2.606379232122407047e-03,5.793345570564270020e-01
5.404308687681546042e-01,-3.262800176261909657e-02,-4.672098830599261121e-02,1.461445386461487916e-02,-3.104278168213599979e-03,8.414112287157410330e-03,5.809932947158813477e-01
5.136938255851640767e-01,-5.013038670689526355e-02,-3.374400749796543919e-02,-2.145210619796505177e-03,-1.224859834440191224e-03,-8.117692610523278771e-03,5.560064911842346191e-01
5.162686013720199085e-01,-4.395528326253819729e-02,-3.686572826932540958e-02,3.488789503122298116e-03,-1.899208757778763452e-03,-4.833315488809921713e-03,5.568184256553649902e-01
5.543397059449641784e-01,-4.545471622566352177e-02,-2.505640303012177106e-02,-5.631482279501642471e-03,-2.379293179892962278e-03,-2.377941421099527899e-02,5.913908481597900391e-01
5.363082906406889672e-01,-4.561648205128360223e-02,-4.183734772997288465e-02,7.674793953652618529e-04,3.455866800164242411e-04,-3.207163722041304638e-03,5.800728797912597656e-01
5.256126559832015044e-01,-5.094898728842925384e-02,-4.056242687076208608e-02,-1.049170482054946184e-03,-1.747715767453623167e-03,-5.541850943540736936e-03,5.715306997299194336e-01
6.269792066617702053e-01,-3.993208473596390751e-02,-2.695814798085721664e-02,-1.743848282100349603e-02,1.962635010445852243e-02,-4.499602200524888823e-02,6.666545867919921875e-01
5.544833860560132166e-01,-6.054865102027118251e-02,2.819797513826480251e-02,-3.984941779354213634e-03,9.880634490680875823e-04,4.530224029215308354e-03,5.759084224700927734e-01
5.217516386017408969e-01,-4.014580112759252861e-02,-5.042976505082769068e-02,1.390042267178985070e-03,2.134707730371536265e-03,4.220127885483101506e-03,5.671736001968383789e-01
5.500346505325236501e-01,-4.934486676181271125e-02,2.667438929471180331e-02,-3.934761626401845486e-04,5.259100135156785996e-03,2.183730110674432512e-02,5.665548443794250488e-01
5.105177449612687823e-01,-3.272705781235471512e-02,-5.439971608643590084e-02,-1.039584742788942035e-04,4.399516033101766137e-03,6.303385530008850067e-03,5.545588135719299316e-01
5.027041194932476698e-01,-5.179380031916810956e-02,-3.353784974892651261e-02,-4.345758411736059222e-03,4.473144517897110692e-03,6.472896118891601977e-03,5.458211302757263184e-01
5.178426035890131285e-01,-4.967429132247797030e-02,-4.103570519874430444e-02,1.138244201935540399e-03,4.149304436258163635e-03,1.859176256611772340e-03,5.633057951927185059e-01
4.625743732216766047e-01,-2.596496200727954617e-02,-3.773767515477968737e-02,-1.726514975973188291e-04,3.254494951063339331e-03,1.062325599725306990e-02,4.949051737785339355e-01
5.027723441646378966e-01,-4.063395450974804923e-02,-4.945435156991354053e-02,8.690097172033668053e-04,-1.060274379685126187e-04,1.007449258341639418e-02,5.481496453285217285e-01
6.086969499614169887e-01,-6.168318773578049252e-02,1.138158530311064731e-02,-8.416184304992470680e-03,-1.213260865821089024e-01,6.324864918072455044e-02,6.798092126846313477e-01
5.201679978598632292e-01,-4.889675082104710802e-02,-4.784224593453090257e-02,3.235595728233299040e-04,3.388338819107622728e-04,7.651728605563689473e-03,5.686932802200317383e-01
5.308552768091084895e-01,-3.531058966118444387e-02,-3.788818427278978218e-02,2.038813738883167755e-03,3.212945497628010884e-03,3.954414460940107001e-04,5.674977302551269531e-01
8.849317756824151004e-01,-9.987148217814167950e-02,8.813516426450007657e-03,7.460152261618789582e-02,-3.250340694354441479e-02,3.533630799197194639e-02,9.477489590644836426e-01
5.186187834101869676e-01,-4.199850195806306696e-02,-3.795031110216345871e-02,-3.190898560041371956e-02,1.106974638780929866e-02,-8.066604534084352053e-04,5.616607069969177246e-01
6.200386956808378036e-01,-5.894465643106977515e-02,3.100599687925462145e-02,-3.267428470100607746e-02,-7.897122741730248918e-02,4.726641691437773879e-02,6.607942581176757812e-01
4.831041892314138497e-01,-2.026751141597768480e-02,-5.353275058026776834e-02,1.875785604998052129e-03,1.067996222219586792e-03,3.601257895034302818e-03,5.208525061607360840e-01
4.506679128632375964e-01,-2.533312440853979775e-02,-3.799050185515612243e-02,6.021187109652437197e-04,-8.495930050931089269e-04,-6.746158205329447384e-03,4.825991094112396240e-01
5.425501638037932839e-01,-3.747290161254737684e-02,-2.488857887437093130e-02,2.481253475476834225e-03,-3.814866833642892655e-03,1.591392882697244271e-02,5.745500922203063965e-01
5.225190702396949050e-01,-3.541035299751382759e-02,-5.713987340303952611e-02,-4.628276878356951587e-04,-1.333988649935878047e-03,-2.311550433933764678e-03,5.691247582435607910e-01
6.090161888139331570e-01,-4.363806667421740726e-02,-1.520598174170265104e-02,2.159095395641485657e-02,2.125934565577453778e-02,2.903576335854250387e-02,6.430343985557556152e-01
4.656865821985437526e-01,-1.418447138123388185e-02,-3.468765084031938395e-02,-4.198189259614849844e-02,8.392002629571673408e-03,-2.271191009270459062e-03,4.960339367389678955e-01
5.394182830355249703e-01,2.678812590859447340e-03,-4.747594689258929912e-02,8.038238910433637835e-03,9.480897918929635793e-03,7.049909382152730070e-04,5.639058351516723633e-01
5.392056072546170808e-01,1.824074618819782057e-03,-5.936272058652708461e-02,-1.708462659632166078e-02,5.352618438108855577e-03,-1.091545376061084718e-02,5.715963840484619141e-01
4.833514995171199202e-01,-2.624065977625208990e-02,-4.944410663827314423e-02,3.715422227160014991e-04,3.582508767149720846e-05,4.532902296494343078e-03,5.216405987739562988e-01
5.207064632913002145e-01,-3.247189567560018753e-02,-5.955139101532869184e-02,-1.213551555438937163e-04,2.628070314916704838e-03,1.226158604205212317e-03,5.672253966331481934e-01
5.233979172072646957e-01,-4.158795259610634232e-02,-9.691297571831264390e-03,7.756454743100483357e-03,1.935354660487704484e-03,-2.885270326426837492e-03,5.499290823936462402e-01
4.930553711028362596e-01,-2.137983146673275159e-02,-5.383143651362284898e-02,2.573816570039309196e-03,9.665701312806890483e-04,-3.724816056905958829e-03,5.314651727676391602e-01
5.345220839539654989e-01,-4.352444572115812815e-02,-4.976304356552127550e-02,-1.458827621622270365e-03,6.707738344170756546e-03,1.478575805137062149e-04,5.813125967979431152e-01
5.336761583313855972e-01,1.204930183025337831e-03,-4.888090980373915873e-02,-1.796678218188295026e-02,-1.695657261227670725e-03,-7.908697673777227710e-03,5.602393746376037598e-01
5.112948462936309779e-01,-2.927318534324682697e-02,-5.144274673063070624e-02,3.404131996276807409e-05,-2.484559152423258810e-03,-8.722303308819758655e-03,5.522102713584899902e-01
4.349992798978744579e-01,-1.764032927428815789e-02,-3.831469170585680151e-02,4.127687080200914921e-04,-3.704236664250801464e-04,-6.666932535946266025e-05,4.633238911628723145e-01
5.366797095324915556e-01,-1.048916016240714066e-02,-3.505754227411411739e-02,7.559694862598666590e-03,-1.604685469869081586e-03,-5.040159133036704701e-03,5.600855350494384766e-01
5.332277144019972326e-01,-3.922900353465894052e-02,-5.188596090264288585e-02,1.085661547773046024e-03,1.832627745986075080e-03,-2.457548655384038643e-03,5.789163708686828613e-01
5.362204615109317229e-01,-3.938784124002919773e-02,-2.935592711198897753e-02,-4.367221716282182128e-03,-5.129747025021802811e-03,1.258931068544605781e-03,5.707819461822509766e-01
5.326482263078708979e-01,-5.059727826145440921e-02,-3.954796219327094686e-02,-1.332481570394485493e-03,-1.298117502983502178e-03,-3.069427673300316115e-03,5.778335332870483398e-01
5.316827838228803671e-01,-1.306110975399982221e-02,-6.164122867968330199e-03,-3.831171519628979137e-03,-6.027615523147377904e-03,2.318018676411504747e-02,5.429561734199523926e-01
4.795097506730522929e-01,-5.223664692884691374e-02,-2.715666422971327321e-02,1.570536181319253863e-02,1.453291648532392157e-02,-3.838278130538781262e-03,5.210228562355041504e-01
5.393479745470954878e-01,-4.532146264907555011e-02,-4.162323053550542884e-02,6.896121341252779788e-04,-4.650964680095944241e-04,-1.004454611403470280e-03,5.828334689140319824e-01
5.441688627556944269e-01,-4.312725741509515487e-02,2.497651997983518779e-03,7.489052264920698608e-03,6.681190300107153583e-03,7.406326872585003787e-03,5.662770867347717285e-01
5.247515765869643634e-01,-5.612044457411685672e-02,-2.224534239021108695e-03,9.608774462212636702e-04,-1.779259060558729261e-02,2.423590641479599073e-02,5.583234429359436035e-01
4.723455494713078018e-01,-9.047389555689591689e-02,2.842098797361360119e-02,-3.271118057510740904e-03,-1.127237222689334434e-01,4.423219420811983632e-02,5.549836158752441406e-01
5.291667362171995626e-01,-4.109204872511068585e-02,-5.268280661898300243e-02,-2.185941248639178529e-03,-1.712608617522069950e-03,-6.369452449826853990e-03,5.762673020362854004e-01
5.250374110147324469e-01,-4.668299080429241799e-02,-4.069801081338828008e-02,-2.170100940249831446e-03,-1.798974909148238523e-03,-7.532821853908956873e-03,5.689221024513244629e-01
5.397929640785565919e-01,-3.785544761036876982e-02,-3.833675626939159198e-02,-2.019033328508350669e-03,6.990501334057499854e-04,7.960148023957516750e-04,5.779027342796325684e-01
5.647563776437495298e-01,-6.866071788127284248e-02,2.748943296833408767e-02,7.227013963050111026e-03,-3.530081001472865770e-02,3.367874351273186101e-02,5.973749160766601562e-01
6.297823904244130855e-01,-8.966443366704104911e-02,4.940234866524825796e-02,1.592547399217872708e-02,-1.270742717860954760e-02,-6.593687205846496084e-03,6.620180606842041016e-01
5.309241025773329126e-01,-2.852099690464318660e-02,-1.646511542231557379e-02,-3.866191845114357560e-03,7.583457992032713833e-04,1.127387130877011666e-02,5.539020299911499023e-01
5.641389013170177158e-01,-5.382613330740157465e-02,1.884290109005962166e-02,-3.049849442698015708e-03,-2.901788659979624360e-02,3.631307624105190729e-02,5.905629396438598633e-01
5.368330974807651312e-01,-4.747410855261247065e-02,-4.416225773973184165e-02,-1.340120104814935143e-03,-1.754708051525240026e-03,-4.707009490197410287e-03,5.827279090881347656e-01
5.191453195227060391e-01,-4.386872799456267846e-02,-4.556759331291873605e-02,2.451275061119554993e-04,3.722856914777673289e-04,4.107039048681760708e-03,5.639107823371887207e-01
5.185487281492686673e-01,-3.234644801404024106e-02,-5.625349167687218599e-02,1.163216156067828268e-03,-4.372960484788079318e-04,7.044614852620589189e-04,5.632348060607910156e-01
5.275234608626899746e-01,-4.447564938716935812e-02,-5.384273780136264453e-02,9.464206919440498094e-04,-9.591071432464320001e-05,3.347627673345705303e-03,5.767711997032165527e-01
5.234715380887209335e-01,-4.418608802496484800e-02,-5.054751303857260569e-02,3.885708440481970864e-04,2.760674354421174554e-03,4.362398212372528387e-03,5.709353685379028320e-01
5.208555035065913774e-01,-5.213428459757016298e-02,-4.212055280848048255e-02,5.563308567387345973e-04,1.822164713660684617e-03,2.941511423016497217e-03,5.680815577507019043e-01
5.162859434162122563e-01,-5.271042702028436167e-02,-3.813737365001962365e-02,-1.606523429964360882e-03,2.176781485917724489e-03,1.135818272858473039e-03,5.618745684623718262e-01
5.309481395541972848e-01,-4.343818057615095318e-02,-5.198755221269796278e-02,8.912225340791621883e-04,2.169814151906469986e-03,1.260929683170391611e-03,5.787267684936523438e-01
5.915706891073369000e-01,1.671292377475308566e-02,-1.123891418186238889e-01,-1.374889058515170459e-01,7.480225129976558751e-02,-4.884485635139713955e-02,7.085176706314086914e-01
5.668796607111352692e-01,-8.113269882711668379e-02,3.616855347093303474e-02,3.924249905175968348e-03,6.980809804925177005e-03,2.062977296822488156e-03,5.982241034507751465e-01
5.556533603928168752e-01,-6.082275647633619831e-02,2.589374150184259316e-02,-7.801505614159742459e-05,-6.426395518010150944e-03,8.975581664400242125e-04,5.781264901161193848e-01
6.024418449132725728e-01,-7.290085278022348514e-02,1.039977445587944582e-02,-3.130255337577356883e-03,-1.902113528219996283e-02,1.601464816313779432e-02,6.392608880996704102e-01
5.185800341474102737e-01,-3.503018391596790515e-02,-5.396080040056389082e-02,7.555794325273101214e-04,-1.033645371504293611e-03,1.893278977498654694e-03,5.633280277252197266e-01
2.547158251441423160e-01,2.748786325846833134e-02,-1.286441492340076320e-02,-1.137153458535079681e-01,1.793821677543859516e-02,-2.426221664997475422e-02,3.224203288555145264e-01
5.200115098926616497e-01,-3.511992304815761412e-02,-5.728891636118690900e-02,2.835761938924398202e-04,-1.400682124609748942e-04,2.746446338508791787e-03,5.665615797042846680e-01
4.123440376914047634e-01,-2.224561730829947848e-02,-1.814438177082981773e-02,-5.943453410231912259e-02,1.629868623409143694e-02,6.193128711434363678e-03,4.456591010093688965e-01
3.112938087700765077e-01,-4.569094910582355284e-03,3.490897896130246147e-04,1.457766403005946593e-02,7.395849587557569438e-02,1.014331320423278796e-02,3.399938941001892090e-01
5.173551128125853937e-01,-3.320689975288562690e-02,-6.184070808208588788e-02,1.267942545925802595e-03,-1.954436769545622092e-04,3.632144248644171569e-03,5.654622912406921387e-01
5.325113464504976912e-01,-4.694598868912358558e-02,-4.760607588789403377e-02,5.919243747300596652e-04,2.749391059403211634e-04,3.560766873357062382e-03,5.798215866088867188e-01
4.639651190120443469e-01,-2.611045045581636415e-02,-4.821088677590881777e-02,-1.098766280868078513e-03,7.445528011588266673e-04,7.928834491650280439e-03,5.016844272613525391e-01
2.480348863937868187e-01,-9.170891197715150267e-03,-1.174072954244848033e-02,-8.623035367047827970e-02,1.169417543642477415e-02,-1.624264655623520320e-02,3.005514144897460938e-01
5.209251094608406962e-01,-5.928153454393006450e-02,-3.697387407317367924e-02,-1.642683292487723615e-02,5.569765631959504651e-03,-2.858560144079587352e-04,5.701729059219360352e-01
3.529363241854396316e-01,-2.787464398587247150e-02,-1.061742424625032599e-02,-9.908952606329403390e-02,-4.976674553818354399e-03,1.676665151316820328e-03,4.102219045162200928e-01
5.213900318978786919e-01,-3.829758977316843893e-02,-5.339247096625743261e-02,1.225637165419640566e-03,1.162765714477866910e-03,1.657814500289864733e-03,5.674005150794982910e-01
4.338040102408444731e-01,-4.433802514673101935e-02,-1.249702281496914424e-02,1.561763874866274235e-04,-5.851186870610099367e-05,-3.598609710368941630e-03,4.630853831768035889e-01
5.133176232138414452e-01,-2.824417383938210291e-02,-6.076723433464931157e-02,2.643421074014968056e-04,-7.467981440830377248e-04,-3.098758789993831921e-04,5.585358738899230957e-01
3.657373840738571968e-01,-1.024565513168800013e-02,-4.577456738843702078e-03,-2.183291566179478352e-02,2.506120145900464849e-02,7.343814508088078279e-03,3.778097927570343018e-01
4.940301799283837725e-01,-2.821199832635992721e-02,-5.424805396140924829e-02,8.110020721874787713e-04,1.053175862338176722e-03,-1.785202349380295530e-04,5.357399582862854004e-01
5.264219740666611358e-01,-3.808822086750060509e-02,-2.994555106097984698e-02,-6.871075316573899399e-04,-2.157581643429943002e-03,2.391549785435620381e-04,5.604971051216125488e-01
5.352922781822452292e-01,-5.050343921914660084e-02,-4.452524552544809278e-02,2.193750690400604955e-02,2.276964961265397214e-02,1.071089491962806672e-02,5.856907367706298828e-01
5.165159571193276289e-01,-2.971105755257366643e-02,-5.672734410373314606e-02,-7.614724138233756488e-04,-6.256337596624252009e-04,-2.993433274985364545e-03,5.602505207061767578e-01
4.244615715491273367e-01,-1.961008245868334221e-02,-3.594700979074702540e-02,-2.924297033374799633e-03,5.860158091208741982e-02,7.640634179795423656e-03,4.639229774475097656e-01
5.259951764246184602e-01,-3.564820077720476377e-02,-5.173958943243964215e-02,-1.735267445744559508e-03,-8.853884878956836801e-04,-3.926815160685176269e-03,5.699100494384765625e-01
5.268770157295077361e-01,-3.624322362681486887e-02,-5.744719098654649247e-02,-1.606804560076008446e-03,-2.361875713346574777e-03,-8.858711963555645011e-04,5.740393996238708496e-01
4.787996764667862282e-02,8.732326127543307837e-03,2.145066979872387730e-02,2.857955045203274674e-02,6.746642997278844145e-02,-8.549142401485205567e-04,1.315451413393020630e-01
5.334959613604928208e-01,-2.859779575290699594e-02,-2.156618644831884146e-02,2.826318338947465120e-03,-2.104307234379870686e-03,-1.446240968446610561e-03,5.586500763893127441e-01
5.306932876595105153e-01,-4.112962595623001483e-02,-4.227111220851617612e-02,3.308916702153511403e-03,1.507508369934413683e-03,-2.574023870101435499e-04,5.724293589591979980e-01
5.286015487268284074e-01,-4.307868484674232112e-02,-4.666136592315042741e-02,-2.732584307966262008e-03,-3.302740529551786292e-03,-8.310651610138084650e-03,5.737086534500122070e-01
5.377697223498446588e-01,-4.098229253577237441e-02,-4.923692189777603700e-02,1.368462419999069788e-03,1.250963569972168051e-04,-1.928547000809598122e-03,5.829375982284545898e-01
5.242817495754896751e-01,-4.165187264700320746e-02,-3.465524987891488440e-02,-5.382411072938992659e-03,1.513694358653767166e-03,9.451605821668634467e-04,5.625537037849426270e-01
5.323913036011935773e-01,-3.889019264541032639e-02,-4.151850773221435476e-02,-4.810917198906882776e-03,3.107966038119540277e-03,2.886997942605452547e-03,5.727079510688781738e-01
5.358804216801176246e-01,-4.148892204561416275e-02,-4.796025776598786261e-02,-1.696143970630652024e-03,-8.706524604178326283e-04,-2.993339037637028719e-03,5.806645750999450684e-01
5.296913664123581444e-01,-3.636804848923838596e-02,-3.871801572136493452e-02,-6.505913060072580586e-05,1.137834780095041192e-03,-6.028012924924877267e-04,5.672424435615539551e-01
5.412977988385101469e-01,-4.518168123522858792e-02,-4.442539016464414070e-02,-8.799124589285202414e-04,-1.243141705924171022e-03,-2.101777891601514393e-03,5.861189365386962891e-01
5.400498472058488098e-01,-3.878033413151776854e-02,-4.257668904646449981e-02,-3.414076811751625817e-03,-2.203851138678936551e-03,-1.083590292183839350e-03,5.807833671569824219e-01
5.284085634162966061e-01,-3.705776366754193196e-02,-4.214791926777491926e-02,-5.372278797732540911e-03,4.878553598687811015e-03,1.652238855296501259e-03,5.681747794151306152e-01
5.342792020821007792e-01,-5.388788055531948396e-02,-3.968261915007581520e-02,-6.877416302235959261e-04,-1.149133929655227031e-03,-3.241997247815711896e-03,5.812264084815979004e-01
5.322044923343738354e-01,-2.832749585168892192e-02,-3.543902795428663377e-02,-5.290704794895281348e-04,2.106080688443786545e-03,-4.949877578648752274e-03,5.641990303993225098e-01
5.411621753641717714e-01,-4.332061903243622503e-02,-4.331507799665712533e-02,7.224950156708253690e-05,1.849768379128836622e-04,-1.556439409522836822e-03,5.844863653182983398e-01
5.423512752679776616e-01,-4.351031580586212089e-02,-4.504412006947863811e-02,-1.052160876245448171e-04,-3.157819401022632388e-04,-9.929936371713455907e-04,5.866327881813049316e-01
5.412169061510674339e-01,-4.600448474801990817e-02,6.153425100283688165e-03,-7.739893663446249837e-04,2.815076857481037254e-03,3.751731548803150830e-03,5.630177259445190430e-01
5.368270323717032610e-01,-4.791019258965903416e-02,6.385652996000301673e-03,-4.312478899905239534e-03,3.639694160361924002e-03,4.109985695159328566e-03,5.596991181373596191e-01
2.704251631509182463e-01,7.043850876726084898e-03,1.116809300466983790e-02,3.505863048383547897e-02,1.303927516587343426e-02,4.809984171030902769e-03,2.693831324577331543e-01
5.968746240515413470e-01,-4.591203596466153503e-02,1.042877740963085720e-02,-1.111742304198130513e-02,-1.376394429837903347e-02,4.204215605240353010e-02,6.215912103652954102e-01
5.392136355596310882e-01,-5.856206685170409210e-02,3.678968791710571229e-02,2.823370730657544735e-04,-3.625985822855573582e-03,4.164199666083725007e-03,5.563456416130065918e-01
5.132429309055458466e-01,-2.157821494681133601e-02,-4.611698191796659296e-02,-4.101950860450771091e-02,-2.706657646245974949e-02,3.232163417758982492e-03,5.541088581085205078e-01
7.364778831785420143e-01,-8.438806510161980801e-02,-9.681470158187016617e-03,-2.582531942897086860e-02,-8.911068017535175856e-02,5.313483609235048616e-02,8.076947331428527832e-01
5.429484049720988414e-01,-6.028817640963110569e-02,2.479008990736678020e-02,1.568634241887290753e-03,1.620859412644752671e-03,-1.207474902740864964e-03,5.655351281166076660e-01
5.406822589798430112e-01,-3.429130285190473693e-02,-3.138917926799258962e-02,-7.330355073007178632e-04,1.668499123694161881e-02,-3.917294139737091674e-03,5.742971301078796387e-01
5.335917970213942541e-01,-5.009635185517447020e-02,-4.022598298577675924e-02,-7.054116134598878950e-05,-2.367882868347035742e-03,-1.733394815825192855e-03,5.788384079933166504e-01
4.402809296465237665e-01,-4.038144891110767576e-02,-1.780504378656011522e-02,-1.037124442560888489e-03,-3.806292641686864417e-04,-8.772374843941656243e-04,4.697875678539276123e-01
5.254722977700527764e-01,-3.521594689186355320e-02,-5.643987098711847339e-02,1.746903075333804036e-03,2.680778643170506417e-03,-2.332526322325947313e-03,5.716369748115539551e-01
4.233090364065722477e-01,-5.486613516386362743e-02,4.547306335120759879e-02,-2.709905307887218624e-03,-1.352939014816729735e-01,-5.042459042920945447e-03,4.957331717014312744e-01
6.832116747446076443e-01,-5.297901186764811254e-02,-4.602472982267044599e-02,9.885756697354751432e-02,6.883588317488693875e-02,5.687503405923009792e-02,7.682078480720520020e-01
3.185162212990478858e-01,-4.640826738671471885e-03,6.754775386188432984e-03,1.672276732144488366e-03,-2.922050509202383205e-04,1.053642967298572437e-02,3.181500732898712158e-01
8.741409634810464180e-01,-7.645575362407067144e-02,-1.017890065046459791e-01,2.484320546181493714e-02,4.455832259098733983e-02,-7.081487493383351040e-02,9.752998352050781250e-01
4.871225214530086056e-01,-4.433477316929815282e-02,-3.199486944721352533e-02,-2.041103153879908656e-03,-1.900715661953115672e-03,-8.070852827451482220e-03,5.256041884422302246e-01
5.414651499435324533e-01,-3.329016392122213785e-02,-1.381938843075480872e-02,4.327533135901137293e-03,-5.095359912984778750e-03,-4.251233485241774808e-03,5.654380321502685547e-01
2.706078374666399666e-01,1.455273071072316071e-02,1.763088555494878029e-02,-1.572771544583891588e-04,-5.232446517652547535e-03,2.645281639987706254e-03,2.547326385974884033e-01
5.369765779016639762e-01,-4.597354803733749717e-02,-4.146157612193129838e-02,4.176615735657344779e-03,-1.354312834928317767e-03,-1.542878619062761688e-03,5.807632207870483398e-01
5.449970132419674762e-01,-4.893900517605309641e-02,1.696748700916098085e-02,-1.050089644569634139e-03,1.135955189851280654e-03,2.761494855725205380e-02,5.659102201461791992e-01
5.057642635137360454e-01,-4.346408504352650137e-02,-3.943038560801043202e-02,-3.658646381340123314e-03,-3.324203927124763647e-03,-9.956986915135090238e-03,5.475612878799438477e-01
2.015874722622181814e-01,-6.843719964231848030e-02,-5.999940118695450131e-02,-3.741347621902081031e-05,5.320312717041540684e-02,-1.636725863850609433e-02,2.828453481197357178e-01
2.913765079468372265e-01,1.000886469519896016e-02,1.252571046640262031e-02,4.757639027014259837e-05,-2.067209008947493761e-03,7.091883466040093016e-04,2.801432907581329346e-01
5.304237587342934823e-01,-4.252852729650746788e-02,4.611990666070986400e-03,8.174596876634369165e-04,-8.097483090126044586e-03,4.378683892031905341e-03,5.511292815208435059e-01
5.024371229973789710e-01,-8.394262649643011165e-02,1.265222703796459180e-02,-6.593414984291251502e-02,-1.318403858463364497e-01,5.522256323428073599e-02,6.089882850646972656e-01
5.524233199862610411e-01,-2.352844255351990710e-02,-3.604864175935731940e-02,2.383378136533062432e-03,-1.684611362108232860e-03,-1.336484247119239764e-02,5.827946662902832031e-01
5.242201652427670444e-01,-1.955609465414054338e-02,5.986920481238222624e-04,-2.243357195317640176e-03,-1.971014293958773655e-03,1.004693068631039646e-02,5.342926979064941406e-01
3.156156942929380094e-01,-1.037925268405869017e-02,-1.032913063390793751e-01,1.437645666434271274e-01,1.065974789166206430e-02,-3.054839096072484508e-02,4.586278200149536133e-01
5.577146749194510367e-01,-8.895566232916624072e-03,-5.227649266123371441e-02,1.375561203530078179e-03,1.716393487365975440e-02,-2.437203895576626686e-02,5.917606353759765625e-01
5.359039567654447778e-01,-3.278390483236753861e-02,-3.328520111496868772e-02,-4.657483127880434996e-03,-2.686487152076569209e-03,5.359627185273566075e-04,5.690156221389770508e-01
2.997315804127841377e-01,1.395610276627490265e-03,8.296749344085502242e-03,-4.292835289142768809e-03,-5.465408312708676386e-03,-2.096719675102393186e-03,2.952138185501098633e-01
4.988464072431177954e-01,-2.293336300381823567e-02,-3.665757588276871703e-02,-2.515869250723273831e-02,1.345412388433637509e-02,-3.612738285616507328e-03,5.311163663864135742e-01
5.328108757186362787e-01,-4.951518995840242798e-02,-3.851885774572980092e-02,3.124069158550587199e-04,5.358745819399863110e-04,-3.025422888576449667e-03,5.769312977790832520e-01
5.286398089823819424e-01,-4.039135506403954134e-02,-3.850610801430404129e-02,2.757097708865349252e-03,-5.633260913739442793e-03,1.693673367631227250e-04,5.681948065757751465e-01
5.105269542839159236e-01,-4.476701322427326102e-02,-3.385714245897486485e-02,-3.421346542978167225e-03,3.110474564386189918e-03,2.162597107593354408e-03,5.499912500381469727e-01
5.280459110278382662e-01,-4.414820865640495251e-02,-3.680221639591241267e-02,-1.098218177114066232e-02,3.600538290107435820e-03,-2.691402361588509534e-04,5.689091682434082031e-01
5.155898444175638362e-01,-5.176127521648016261e-02,-3.783823600438970813e-02,-8.502848343073108250e-04,-3.319240063665512093e-04,1.026059231114806502e-03,5.605243444442749023e-01
5.432087876034145113e-01,-3.258018073525076330e-03,-5.095733955186940167e-02,4.807554754246811182e-03,1.308681849601542888e-03,-2.662281298683694380e-03,5.718942284584045410e-01
6.002403837061273117e-01,2.762545883339487252e-02,-6.274698816298349136e-02,9.510497726081208747e-02,-2.519935396561100160e-02,-4.754064696044201649e-02,6.508639454841613770e-01
4.517818564725534780e-01,-5.192659772092608761e-02,-1.365321730656970933e-02,-1.577196376233049729e-02,-7.352911144632721984e-04,-3.723318216697761498e-03,4.865160882472991943e-01
5.250734145466000591e-01,-1.983767209973152923e-02,-1.656033807924439660e-02,-1.030795939545892407e-03,-1.769361772730888935e-03,5.320173249112572673e-03,5.433695316314697266e-01
5.421445962663452578e-01,-4.060602204232297008e-02,-7.514150952052711663e-03,4.732572792527480268e-03,1.157767041121820226e-03,-4.197818412025308699e-03,5.670388936996459961e-01
6.404402580128916167e-01,5.171374249333912654e-02,-8.776856141905864384e-02,-1.145700558201426800e-01,1.551884272709746007e-02,-5.380314108667508775e-03,6.988271474838256836e-01
5.625321607962927573e-01,3.553328419593745902e-02,-6.313463010361544669e-02,4.320215419824469973e-03,4.001364138752521935e-03,3.462434500329710733e-03,5.827530026435852051e-01
6.442427233370480177e-01,-7.096654421602449636e-02,-5.901717488634911080e-03,-3.844334964185817938e-02,4.000171080248977190e-02,-5.608553373085728433e-02,6.984938383102416992e-01
5.292215443187279211e-01,-2.532656967157220773e-02,-8.428844848083649754e-03,-3.131231511150539375e-03,2.167838145912738546e-03,6.236471732879206482e-03,5.464419126510620117e-01
5.310995911534733827e-01,-4.243741844181583844e-02,-8.319682131206290743e-03,1.194430872450699590e-03,-1.347790791074260537e-02,9.197063150590231370e-03,5.579820275306701660e-01
5.261630138513062604e-01,-1.361624204452713260e-02,-2.110244440575895220e-02,-2.101156384546694691e-03,-2.547049592541009762e-03,4.607052416419475660e-03,5.436496734619140625e-01
8.254951425841735579e-01,5.484232909933633993e-03,-1.291672730242730271e-01,-7.092431075614112623e-02,5.503739618521780175e-02,-3.580354574492773667e-02,9.104880094528198242e-01
4.650601123328967912e-01,-2.923122137237824103e-02,-3.820594381252440108e-02,3.222191331936515826e-04,-9.199236902909518757e-05,1.010699220737551300e-02,4.991466701030731201e-01
5.362551372378825398e-01,-2.827968018281881712e-02,-1.758800430585066854e-02,-3.468974116008677160e-03,-1.925295858822967865e-03,1.195924378664696246e-02,5.596913099288940430e-01
5.520796810088888229e-01,2.595968961842473610e-02,-5.433423916619192773e-02,1.141592302399383613e-02,2.193063595429312063e-03,-2.762624706952388973e-03,5.708956718444824219e-01
6.226619378369477875e-01,-7.115548834668122824e-02,2.366556713238887610e-02,-6.077999233270527622e-03,2.187489677189416448e-02,-2.222623557775173578e-02,6.539216637611389160e-01
5.260524944886277865e-01,-4.355249013520906542e-02,-4.456620503419461699e-02,2.002827892716071631e-03,-1.529942135000374182e-02,-1.481468698185744136e-03,5.707443356513977051e-01
5.338541716893260292e-01,-2.878442130366198892e-02,-4.327146912178220228e-02,1.897617575228000095e-03,2.265073881565550853e-03,2.702999332559066856e-04,5.700433850288391113e-01
6.474497313039632163e-01,1.638214763590414846e-02,-7.560197648655911373e-02,-7.952850336641479473e-03,1.055350544317208532e-02,-3.471301376360468038e-02,6.847586631774902344e-01
5.159877822574143735e-01,-4.804903405685043150e-02,-4.380998830057150628e-02,-3.622838842384260515e-04,7.006164636915841954e-04,5.421431306252679459e-03,5.620093941688537598e-01
5.033925680994459917e-01,-4.054115273763123084e-02,-1.676286997620696217e-02,1.532184544337748811e-02,-9.065501539229615935e-03,-4.048200843083143291e-03,5.333811640739440918e-01
5.384381132005445769e-01,-2.292748905180555519e-02,-5.374059324159230489e-02,-1.650142662619413086e-02,1.861902289114491594e-03,-2.460471746910550435e-03,5.781207680702209473e-01
5.398863607058563829e-01,-5.050012059459726976e-02,-4.036403826739506928e-02,-9.525790901175359938e-04,1.084113492015541420e-03,-1.768592646236013958e-03,5.853976011276245117e-01
5.282710039559389559e-01,-1.864692560540898159e-02,-1.593166088651790102e-02,-2.466636288983792540e-03,-1.031130439068740461e-03,8.841293460767828474e-03,5.457999110221862793e-01
8.775212561358121111e-01,-3.159017923189699761e-02,-8.970681432542793043e-02,-1.043613015377043568e-02,3.217896833394538747e-02,-5.000671729973554802e-02,9.453204870223999023e-01
3.709774571104565433e-01,-8.962858130933018530e-02,-1.776554770488095181e-02,-1.569171269038594288e-02,1.090515192414318879e-01,-2.987843734725039585e-02,4.725624024868011475e-01
3.860747538789176536e-01,-1.072913089415085397e-02,-5.643058036083184459e-03,-1.215160427406140539e-02,3.236314033218276598e-02,1.146660488972221954e-02,3.993000984191894531e-01
5.397900286267891534e-01,-3.039362635390449596e-02,-4.411761656313734070e-02,1.372219951724628316e-02,5.506795055314809249e-03,-2.474869293767377378e-03,5.777518153190612793e-01
5.868586357073248827e-01,9.644301867761745362e-03,-7.361758426451769921e-02,-6.967881723138706455e-03,1.484574710072513425e-02,-7.279900841101772171e-03,6.238066554069519043e-01
3.221840844160447359e-01,-1.249282918472847947e-02,-1.492212660724676065e-03,-4.938166034128275983e-02,-1.223475757318329919e-03,8.811721343697041103e-03,3.405893146991729736e-01
3.975197896132540154e-01,-2.111612241686365576e-02,-3.529106555633680642e-02,1.704249388165262821e-02,-7.237145459197834307e-02,-5.170422894029242170e-03,4.450342953205108643e-01
3.135711309240789002e-01,-5.381755225702389289e-03,6.203046084950605832e-03,-2.434084563516178412e-02,4.080857130939140841e-03,-7.076507925425298568e-04,3.162262439727783203e-01
2.332989697826440278e-01,-7.025559053868021819e-02,-1.067286794650268433e-02,4.067773274505626785e-02,1.423521971769267369e-01,1.590280958423567412e-02,3.796367347240447998e-01
5.245067623487936759e-01,-4.125951300300959024e-02,-4.409933696862206043e-02,-1.942025618442782446e-03,-7.795540468134723802e-04,-2.502599119216916603e-03,5.672196745872497559e-01
5.692822402310679930e-01,1.956967770319628652e-02,-6.621332354409217857e-02,-1.331075888127710161e-01,4.851812295430652650e-02,-5.332474711979981463e-02,6.522607803344726562e-01
5.335973419319403055e-01,-5.171245957292019968e-02,-3.862350826551322336e-02,1.769521564289050844e-03,5.567201711591833121e-04,-2.508787949101181931e-03,5.789015293121337891e-01
2.994152665560536608e-01,-2.173910953925359268e-02,1.265241462315053189e-02,-6.411661179667743626e-02,4.188233460956421877e-02,5.872813475986157772e-03,3.331315219402313232e-01
8.312728942213928884e-02,8.798003823131284040e-03,1.969261973459874443e-02,-6.626735626576411853e-02,4.287101897517511112e-02,2.808626789017464043e-03,1.534446924924850464e-01
4.969023983482758755e-01,-5.254689741422352567e-02,-3.475975174860637673e-02,-5.397459732511120621e-03,-7.413059585923148162e-03,-6.232177354954624923e-03,5.411159992218017578e-01
4.761615158596521624e-01,-5.396581374260545072e-02,-2.102016894246047651e-02,-4.341874095846524895e-02,-1.083158186028770030e-02,-1.302726560935886209e-03,5.202572941780090332e-01
4.022784276935228442e-01,-1.982243937061178851e-02,-5.229774714689661153e-03,-4.294395453846320404e-02,1.958769799099032566e-03,8.092368529061907956e-03,4.218566417694091797e-01
8.075156919019766955e-01,-1.368813431682069370e-01,1.287381218316849263e-02,4.699085748172898182e-03,-8.549416337320522863e-02,1.495265773108119672e-02,8.919354081153869629e-01
5.532542960400688159e-01,7.890188792897767645e-03,-6.253934819444578741e-02,1.003434929648256736e-02,1.444275712103706803e-03,4.079350574108825834e-04,5.840384364128112793e-01
3.244688046335667542e-01,-1.267702674984674815e-02,1.657416413934784116e-03,-8.412534152235213959e-04,-2.339040761680465444e-02,5.878095366166342754e-03,3.328469693660736084e-01
5.334580539811033528e-01,-3.033389294029040228e-02,-1.972011199195039532e-02,7.060679124577937636e-03,6.194391623817778296e-03,-1.433078291856529525e-02,5.593485832214355469e-01
2.995264946986493371e-01,2.900507564568235996e-03,-2.196065674398632594e-02,3.604791294741125501e-02,-6.733185746573974728e-02,4.989374043637052718e-03,3.369767069816589355e-01
5.173502425800320381e-01,-3.658945305883568033e-02,-5.696759982100729758e-02,-2.407406347754757238e-03,-1.256608572484351621e-02,-3.394394157847031249e-03,5.648702383041381836e-01
3.181851565715544394e-01,8.331674098619873403e-03,-1.058125218846142634e-03,1.534421669219928654e-02,2.263242740400423642e-02,-3.409767969041115326e-03,3.182525932788848877e-01
3.418028556858281886e-01,-1.468858405317127747e-02,-1.929303490798493781e-02,4.528525248686959132e-02,1.194148951558442022e-02,1.373963278637321643e-02,3.686396479606628418e-01
5.161453220992936464e-01,-2.876829949301187850e-02,-6.661431744298990099e-02,3.993414165236491842e-03,-1.951161140686584645e-03,-1.069923794633315280e-03,5.648439526557922363e-01
5.448160799128818343e-01,-1.185924968940293978e-03,-4.183738541994946880e-02,-2.072503316672605084e-03,1.149071830386895140e-04,-8.057324748150625909e-03,5.676038861274719238e-01
3.691964617843025986e-01,-4.367870177390500985e-03,-1.823611732891745885e-02,9.921320745229300977e-03,-2.487686803341264061e-02,9.622917196304418830e-03,3.838658630847930908e-01
4.740899083109133549e-01,8.835135500864788050e-04,-5.878497054013218093e-02,1.124366961979647722e-01,-5.971574008556597424e-02,-3.887766016022048410e-02,5.557683706283569336e-01
5.623794158272558130e-01,2.065496084351486905e-02,-6.158951100117027178e-02,1.000136154001123739e-01,-1.614885797544946683e-02,-3.052947633399002644e-02,6.151179075241088867e-01
5.216541208420800713e-01,-3.494325085656657670e-02,-5.313605822908992748e-02,1.284007023532180748e-03,9.587344525428653091e-04,-3.530986809801193397e-03,5.659530162811279297e-01
5.394217969878690733e-01,-1.554862442461835137e-03,-5.008619132941455332e-02,-9.584481865813981871e-03,8.414067729285242339e-03,-2.687625266109446888e-03,5.672521591186523438e-01
5.351269421525910452e-01,-3.890031816718647617e-02,-3.820880133586157523e-02,3.907210070952914054e-03,5.716675609716766714e-03,3.543068502385191628e-04,5.738074779510498047e-01
3.582596878587727129e-01,-2.386168856047320153e-02,-4.238268377327297776e-03,4.066134752899181609e-02,-1.304440292476814062e-03,9.431917718617097851e-03,3.796515762805938721e-01
4.861970457306284965e-01,-4.217349450790458532e-02,-2.718829240526238200e-02,-2.056540238961739216e-03,-1.853342917333721147e-03,-1.147703791906715641e-02,5.214406847953796387e-01
3.833223752890700942e-01,-6.684733559550612436e-03,-2.094960953420056671e-02,-2.521663566261606992e-03,-1.921162516418791974e-03,-7.352152210762345763e-03,3.975735604763031006e-01
5.368100501602038888e-01,-4.426991516170319940e-02,-4.720161175165943357e-02,-2.016988406614052265e-03,-2.398025220635954195e-03,-4.785736248136133672e-03,5.826355814933776855e-01
3.230489330017999872e-01,-9.350903294915488551e-03,-1.033154134694840021e-02,3.070640574454449635e-03,9.227742819268706931e-02,2.241723335110809914e-03,3.693308830261230469e-01
5.366422087570030808e-01,-4.246999871789300385e-02,-2.023077765704167641e-02,7.075914014062860240e-03,-1.664509781761125753e-02,2.184993108709889814e-04,5.691819190979003906e-01
5.593732677688085797e-01,-1.985999071667055027e-02,-5.994116774209098941e-02,3.125170128169098283e-02,-5.429996630350997396e-03,-7.755813170763682998e-03,6.029369235038757324e-01
4.698145894246793519e-01,-3.078764491932375891e-02,-4.475739640919973450e-02,8.637130968558651275e-04,1.119231536880094138e-04,-1.054562204511126818e-02,5.080619454383850098e-01
1.461338136932595066e-01,-7.738737999984708626e-02,-5.664948458524412395e-02,-1.190276471166400868e-02,-2.704245735362593300e-02,-3.019099140105484247e-02,2.260748147964477539e-01
2.064590191021910826e-01,-8.005861935383208616e-02,-3.545259293469328610e-02,2.760951053287724610e-02,-4.914152974941405488e-02,-2.021203953631096201e-02,2.864589691162109375e-01
1.002060309554988482e-01,1.821778160820225478e-02,1.397429853347672418e-02,-8.180317445246431188e-03,-2.516576767077533666e-02,5.862085440587988354e-04,9.586306661367416382e-02
5.238515456484773569e-01,-4.193513993532146933e-02,-4.177755562753776575e-02,-1.508305445913101081e-03,-1.103443110963535020e-02,-2.345249221110850320e-03,5.660512447357177734e-01
4.025029506808340818e-01,-5.025296451116112451e-02,-3.722775581856946348e-02,-7.978140431739309812e-02,-6.876105756085593157e-02,4.698031135975993394e-02,4.890411496162414551e-01
4.964776810247120142e-01,-2.841543024583209620e-02,-5.899054563588407296e-02,-1.185465255641936352e-03,-7.330284687959490869e-03,-4.681720806798410524e-03,5.410429239273071289e-01
4.790579639839028792e-01,1.703117138313364753e-03,-8.015195554809106948e-02,8.588031976437403292e-02,-4.801882386603389258e-02,-1.643327255085835423e-02,5.509044528007507324e-01
5.258278538271469182e-01,-4.022396608044329080e-02,-4.033673233314385986e-02,-8.097206466112003400e-04,-9.680555195032090063e-04,-2.548867178354672410e-03,5.661296248435974121e-01
2.884654336591589430e-01,8.973154282755996247e-03,2.145726854198740097e-03,-6.201856047944000715e-03,2.388539602221943781e-02,6.157832868966012230e-03,2.863763868808746338e-01
1.513460200447783732e-01,7.927589026213429507e-03,-6.161321898421535243e-02,1.473067422628237047e-02,4.048131250371689305e-02,5.512949089651816847e-04,2.023519277572631836e-01
2.113935428866064448e-01,-1.313584115822907794e-02,-8.231658215326301264e-02,-7.381212178597480744e-02,3.259911763404701318e-02,7.481916156348986623e-03,3.007212281227111816e-01
5.437455567099664933e-01,2.204597852056192075e-02,-5.168588002557847338e-02,1.482890019837900322e-02,5.340889423884203485e-03,-1.646718179505804111e-02,5.635880231857299805e-01
5.631779855873083607e-01,5.326838748955231573e-04,-4.890691384233486483e-02,-1.389844124478709780e-04,6.222366580572005409e-03,-9.017208612014260966e-03,5.892292261123657227e-01
3.895174637008633756e-01,-2.266671231491787508e-02,-9.150021437813710135e-03,-7.247838666435833972e-04,-1.029791003663519094e-03,-6.437586716321669865e-03,4.057538807392120361e-01
3.887502576168730961e-01,-2.398599571205793646e-02,-1.300474447769844888e-03,-6.690525198084804970e-04,-6.865389730095924859e-04,-9.748913086182245044e-03,4.022320210933685303e-01
5.334236201815873990e-01,-3.879982706402396175e-02,-3.122839084106959762e-03,1.317873923527296417e-04,-4.440164800818825232e-03,-4.102295492200750369e-03,5.553440451622009277e-01
4.976260762949709648e-01,-5.904703311677533817e-02,-3.231929658508927994e-02,3.451021310812828896e-02,1.391871842835623770e-02,-2.042114373896318676e-03,5.476196408271789551e-01
5.442280983628469127e-01,-6.279181340449718762e-02,3.694357385985319597e-02,4.403202058084795811e-03,-1.979772472550259642e-03,1.918271755238576360e-03,5.638793706893920898e-01
5.616104791332939827e-01,2.996016401280529595e-02,-6.787586667623340952e-02,-2.788879217755090619e-03,2.703565544466883259e-03,-2.600088124428077616e-03,5.867742896080017090e-01
5.259047944296638688e-01,-3.725269093888816663e-02,-4.531540729427183112e-02,-1.889654202669345008e-03,-9.137681381211602144e-03,-2.237355862559724066e-03,5.674752593040466309e-01
5.445992543605679970e-01,-6.125631536838299640e-02,2.723490167820777352e-02,5.006248560764613165e-03,2.071805210671329254e-03,-1.794917269561249230e-03,5.669007897377014160e-01
5.164153942499583039e-01,-3.521075070598633783e-02,-5.827823755325706179e-02,3.108789640129224190e-03,-3.474667639881107595e-03,3.024039687612395475e-03,5.635963082313537598e-01
8.082991754569488485e-01,-1.414062588158788436e-01,1.630027678769330191e-02,2.424281992627121476e-02,-1.204331823003258334e-01,7.410221307463631633e-03,9.069053530693054199e-01
5.328234431374154756e-01,-4.016398675913634975e-02,-2.503862970861889248e-02,2.672942041606431174e-03,-7.498847472693386494e-03,1.020629698346809961e-03,5.657472610473632812e-01
5.152439553887313561e-01,-3.115331841945623292e-02,-4.925168649416886146e-02,9.490510685625980214e-03,-7.272074903675847593e-03,-1.638800185271489709e-03,5.560605525970458984e-01
4.776806650433457757e-01,-3.143447494769405215e-02,-4.560888748726477093e-02,3.125462358925040155e-03,-1.282079027593931685e-02,7.241722130281342054e-03,5.170060992240905762e-01
5.157759705486826274e-01,-3.778203460247409051e-02,-5.465206951403697722e-02,-1.226849571211159661e-03,1.217568147616590645e-04,1.527141853082910174e-03,5.621931552886962891e-01
5.302944671967348977e-01,-3.754486664353107184e-02,2.203115344512063256e-03,1.421794758519759252e-03,-1.375294056848328774e-03,-5.332736038720481062e-03,5.491338372230529785e-01
4.965741869987431167e-01,-2.544572827485203081e-02,-6.166266348965568356e-02,2.082304515191990297e-03,-1.033046292140839088e-02,5.046892127462175668e-04,5.413467884063720703e-01
2.877744937142779347e-01,-9.085619734875381714e-02,-1.431117384518092173e-02,-1.438362722347004755e-02,-9.107441905334659471e-02,3.083051755309440707e-03,3.817995190620422363e-01
5.380071992771857659e-01,-5.205816466165014145e-02,1.801109978611453721e-02,4.087115719724085557e-03,9.238508317206853976e-03,-5.391842373564284096e-04,5.586129426956176758e-01
4.806477441624592006e-01,-3.106303668685631014e-02,-4.953811844736483172e-02,1.248280616858782680e-02,-1.943362210417576980e-02,1.008350012707419016e-02,5.230187773704528809e-01
4.923980136996951584e-01,-3.606451650603323400e-02,-4.627273359030786848e-02,1.453368574550219759e-04,-4.612490667308194285e-03,9.395996161881218708e-03,5.339478254318237305e-01
4.794326200154401252e-01,-3.928570127150887714e-02,-3.673192483676898656e-02,1.684338739803116838e-02,-1.225550401219913273e-02,9.996522179457952711e-03,5.189913511276245117e-01
6.274163321371326596e-01,-4.405727113886936941e-02,-5.106903121511222055e-02,1.703702923718420637e-01,-1.071393756145483378e-02,-8.650946391015601478e-02,7.520028948783874512e-01
3.992742544119056713e-01,-3.079203888956004442e-02,-1.582055565378372164e-02,-1.451030633395594509e-04,-2.086097561218343147e-04,1.165765047686874445e-02,4.232615232467651367e-01
7.265656456410491959e-01,-1.342822028582550675e-01,5.506870545517073001e-03,2.832471721904050374e-02,1.202253431611943202e-01,-7.411694725299357821e-03,8.283700346946716309e-01
5.324061719420467576e-01,-5.241047597964110238e-02,-3.582321275027738894e-02,4.798396508734762561e-03,-5.344308952445392174e-04,3.008572303006617349e-03,5.767861008644104004e-01
5.147025795525113079e-01,-3.337826345532257655e-02,-5.402060406065015141e-02,3.326206494535384819e-03,-6.490040562322736857e-03,4.863871802194182255e-03,5.588943958282470703e-01
3.764402290784416016e-01,-3.175040449398994213e-03,-1.946949560818554692e-02,3.739578985850460099e-04,3.003668311981524605e-02,-1.608597968749474107e-03,3.915018141269683838e-01
5.316743908846546240e-01,-1.981164980990582358e-02,-2.317133881531840967e-02,-5.842627693238877954e-04,2.810767481001128290e-03,-8.557388141359577663e-03,5.533944368362426758e-01
3.296951758620029205e-01,2.226198542859186835e-03,-2.119337306263180398e-03,-3.762101909382650246e-03,2.800234826213728913e-04,7.110893233111780821e-03,3.299579322338104248e-01
5.585603339964995140e-01,4.455060716393127729e-02,-8.482554786515122958e-02,4.581063316834540176e-03,1.483697668237685206e-04,-1.672712986654572090e-02,5.902094841003417969e-01
5.362266046095213179e-01,-3.949170012671121555e-02,-2.511956628308012474e-02,3.073717000479616896e-03,6.165419531669514945e-03,-1.581669594457736899e-03,5.688002109527587891e-01
5.329188819145227463e-01,-2.053579877131411768e-02,-3.210995634838154089e-02,3.852480568016538025e-03,-2.319010215826585537e-04,-1.894984108599989192e-03,5.593811273574829102e-01
5.377497893747462676e-01,-2.981393606229437721e-02,6.873081200985564632e-03,6.545105609306872164e-03,-3.450205489495543950e-03,-2.549736358997647251e-02,5.520569682121276855e-01
5.275168392407543205e-01,-1.702809275249719811e-02,-2.235848602464551860e-02,3.211690860445555825e-05,1.006963041726313202e-03,-4.707417726948191078e-03,5.472931265830993652e-01
5.381097282888326339e-01,6.003587857012521178e-03,-5.248273784699380995e-02,-5.708417391010159499e-03,5.882051427803580007e-03,-9.267844827974845712e-03,5.640370249748229980e-01
5.302282847604259386e-01,-3.991316755101523284e-02,-3.916588656246941524e-02,3.019340273027469688e-03,-6.017999872237124979e-03,2.643195594268438805e-04,5.698876976966857910e-01
5.268922423351124484e-01,-3.111586946721889291e-02,-3.622003569536499934e-02,-6.438250673104519133e-04,-6.914144761965993011e-04,2.395304091005231030e-04,5.605801939964294434e-01
5.402033523800626735e-01,1.702675977584158784e-02,-5.381291707364954657e-02,-1.350577887104525195e-03,4.655380406877723982e-03,-5.281654760035489615e-03,5.620923638343811035e-01
5.248764186767254092e-01,-4.336216265894643485e-02,-4.311598655098436428e-02,1.668086221915082929e-03,4.367844801382965913e-04,-1.955853042915116791e-03,5.681334733963012695e-01
5.320151964081445417e-01,-3.904592607492551881e-02,-2.736481173917149068e-02,-2.539756045519404870e-03,7.423918148348521671e-03,-1.483761302575650060e-02,5.660580992698669434e-01
4.348724434473640876e-01,6.850203751075381597e-03,-9.159778480359984099e-02,2.134145603182198425e-01,-2.640555557661772995e-02,-5.742444626191164220e-02,6.193987131118774414e-01
5.266116008035607310e-01,-3.314554507631309321e-02,-3.769770510581865741e-02,2.121565108049505276e-03,-1.086817755598402978e-03,4.336392370723321293e-04,5.620627403259277344e-01
5.269903813245695456e-01,-4.080658509225310038e-02,-4.101265148585650500e-02,7.922156282849275328e-04,1.926123928490516748e-03,-2.556889587869491491e-04,5.679116845130920410e-01
5.383825500315059243e-01,-4.445035552274839707e-02,-3.650173821272809094e-02,4.792814136037522668e-03,7.016879001590784967e-03,1.651319744929304707e-03,5.790936350822448730e-01
4.979071485190034174e-01,-3.211402941857005588e-02,-4.564352735330437505e-02,-4.791912750880209654e-02,5.676630388756081363e-02,2.551169127103826428e-03,5.521339774131774902e-01
5.272831105533077878e-01,-3.816273368828734802e-02,-3.405942525885044536e-02,-9.674908251630823892e-04,-1.839304966979332049e-03,-1.815858335870221664e-03,5.634256601333618164e-01
4.923383303909401598e-01,-2.481361259888706372e-02,-6.017453726172622419e-02,-1.775079136062783156e-03,-1.046165921956438219e-02,-1.387888611625106563e-03,5.360289812088012695e-01
4.711365868500171361e-01,-3.996772306551604759e-02,-3.549079908549659934e-02,-1.485925776841840254e-02,7.900927581018219945e-03,9.748348100213560102e-03,5.099943280220031738e-01
5.357001342867317994e-01,-3.974067853792254135e-02,-3.628268924221128566e-02,6.121421382156392622e-03,7.585569246799834381e-03,4.368418066174491448e-04,5.739684700965881348e-01
5.403381416992982800e-01,1.665266885152394405e-02,-5.398189693254965005e-02,8.424629121670959217e-03,6.024295166826303463e-03,-1.306351329518991647e-02,5.630806088447570801e-01
4.271713779109682085e-01,-2.848587892612636230e-02,-3.876795141371633391e-02,-7.547145490417835056e-02,1.188322134751398779e-01,-3.031758288010609828e-02,5.240447521209716797e-01
5.252298332806951686e-01,-1.423635738810308249e-02,-2.368057832587222578e-02,2.278254914850844342e-03,1.221173977041448274e-03,1.418016102426859337e-03,5.442737340927124023e-01
5.623979354414578857e-01,-2.388864282585936860e-02,-2.100023079030810536e-02,4.829729798464681145e-03,8.850469066198731957e-03,2.363782905447539898e-02,5.865390896797180176e-01
5.270328222384291772e-01,-3.942515195462539812e-02,-4.416044739677493780e-02,-2.118951296226576249e-03,-4.072403672171041530e-03,-3.255702641880076076e-03,5.689239501953125000e-01
5.344687133630909859e-01,-4.312622692497153354e-02,-1.071635919719954311e-03,1.430321382738491747e-03,-7.447826052850138601e-03,4.669971134013589480e-03,5.579712986946105957e-01
5.289820729400356303e-01,-5.056796963999718453e-02,-3.801839860647410196e-02,-2.314659148514378040e-03,2.995063507791687887e-04,-2.899929331298931739e-03,5.734145045280456543e-01
5.497231534374651396e-01,7.070235193974649945e-03,-5.278458381463788096e-02,3.335735993490562216e-03,-3.321989104563329584e-04,1.091158723569767312e-03,5.749543309211730957e-01
6.167854356170661134e-01,-7.120412713307186503e-02,3.520749829026531552e-02,-1.252443912286513653e-02,2.515843378395022159e-02,-7.565890163812271502e-03,6.434159874916076660e-01
2.763412349527858969e-01,-1.479952575293737305e-02,-4.705133093193508698e-03,3.310712013072162480e-02,1.198893378861090320e-01,1.299140266040496984e-03,3.582451939582824707e-01
4.369607804219242109e-01,-3.472236540007533900e-02,-1.384125328867935600e-02,4.169562319070551477e-04,2.057602160504237460e-03,1.764587216939177312e-03,4.616213738918304443e-01
5.333798015344127785e-01,-2.843107997981078605e-02,-3.003450743428023872e-02,7.238445881599116878e-04,-3.290518670386603957e-03,-5.305197026087849757e-04,5.626453161239624023e-01
4.994724701323951521e-01,-2.873742694279304843e-02,-1.688669148526592001e-02,-2.187805272314709629e-02,-2.640063468856532550e-02,1.488308246888798286e-02,5.263819098472595215e-01
5.292727437905030419e-01,1.133350166567043127e-03,-4.451914670178858113e-02,-4.883167564645774471e-03,-3.668349534975063383e-03,1.920163454513994922e-03,5.524936318397521973e-01
7.723511366583413196e-01,-4.049877284172520575e-02,-3.107672555500406997e-02,-8.541341125892773500e-02,-9.156104152253502493e-02,6.833479696948223381e-02,8.451039195060729980e-01
5.294554417082659725e-01,-2.477158132018134062e-02,-3.748882275954107390e-02,-5.258703456338151283e-03,2.866307013910950312e-03,9.468773966045932909e-04,5.607921481132507324e-01
6.108667252848742901e-01,-4.984251679405510282e-02,1.465632627821733536e-02,-2.832298092979966889e-02,-3.434217242451820945e-02,4.218461331177203455e-02,6.398165225982666016e-01
4.912508250547696909e-01,-2.558603911666065822e-02,-4.757608914249222831e-02,-8.420903818132748813e-04,1.522555834786103006e-02,-1.446205480621918019e-03,5.288411974906921387e-01
5.093045732125203173e-01,-3.952898764965312450e-02,-4.103173197215251311e-02,-8.345854173808412530e-04,-7.939617983204902635e-04,-8.800795641518215431e-03,5.498014688491821289e-01
5.492299791572654577e-01,3.199126845279762210e-02,-6.125338181335956977e-02,-7.043535274456317989e-03,4.116907762425617810e-03,2.270798721462857859e-03,5.698028802871704102e-01
5.774891632514818074e-01,3.259970366237907591e-02,-7.333466341297384394e-02,-1.765048908467320432e-01,3.382125817726395339e-02,-2.109018922802068097e-03,6.802617311477661133e-01
7.558802675223120771e-01,-9.267299513259411037e-02,3.176516063166101578e-04,-2.522113720150970934e-02,-1.055096336393277490e-01,5.512630962085027925e-02,8.331892490386962891e-01
5.289607698837629490e-01,-7.997834234831913136e-03,-2.766803828032665669e-02,1.464712971902114736e-03,-2.465110525060790377e-03,6.869960722383061831e-03,5.472109317779541016e-01
8.907653352325153318e-01,-8.062871248454744899e-02,-4.739583192467056172e-02,2.620315732848349510e-02,5.988758750454248325e-02,5.683182535308810984e-02,9.669216871261596680e-01
5.360852333264081171e-01,4.629501259754059683e-03,-2.409289573369313708e-02,7.025774525400919901e-02,3.435415966177844671e-02,4.657582916297327985e-02,5.686755180358886719e-01
5.354682931381986588e-01,-3.160136830764959104e-02,-3.515616023792778044e-02,-6.969525003962785898e-04,-2.602773886670996240e-03,5.002039367000766373e-03,5.689405202865600586e-01
5.285290238913097349e-01,-3.606496069952683237e-02,-5.214911107426245529e-02,-4.184143324180065147e-04,6.647589018258138679e-03,-1.423709936664528382e-04,5.729216933250427246e-01
5.136008131328152482e-01,-3.460750138601811909e-02,-5.056731507474362952e-02,8.291717207748496021e-04,-2.981468561510349641e-03,4.951021469836074454e-04,5.563864111900329590e-01
5.321430862711242771e-01,-2.896137271511006750e-02,-2.593381100931255179e-02,-3.082788435549060728e-03,4.648336652258676089e-04,2.247781807721099985e-03,5.596364140510559082e-01
5.309185040675834522e-01,-4.712517090027171229e-02,-3.815806882529021449e-02,-2.152902803177181822e-03,-1.644041676090055417e-03,-2.001895725265817518e-03,5.736423730850219727e-01
7.461571311315698951e-01,-1.171988070148993755e-02,-9.924268084923934530e-02,8.133448308312256347e-02,4.462909244222926231e-02,3.499991859360870872e-02,8.233258724212646484e-01
4.961074284508593113e-01,-2.585797276018123037e-02,-5.553977851886751638e-02,1.414751982241502660e-04,-7.804228154893707095e-04,3.078552870164404668e-05,5.374231338500976562e-01
5.249037829475888817e-01,-1.972813770803213962e-02,-1.492871562300868149e-02,-1.155023530339145460e-03,-1.024938663025099644e-03,2.533197743045076476e-03,5.422725081443786621e-01
3.817906261897578979e-01,-8.589506408639785429e-03,-1.848156329461997371e-02,-3.309034972200413684e-03,-2.916549904739701177e-03,-7.119449474449958404e-03,3.956849575042724609e-01
5.124486640889684974e-01,-2.236388307893225069e-02,-4.604551039838264415e-02,2.675162387436444064e-02,1.637329108411399517e-02,1.017814115552795979e-03,5.497316122055053711e-01
5.118694898552499373e-01,-4.907189601386982569e-02,-3.965147866741905447e-02,-2.873607259885456282e-03,-3.137630204171415211e-03,-9.117118011100521988e-03,5.565638542175292969e-01
8.568291618487426931e-01,-2.103523324672246231e-02,-8.540482576084990063e-02,-7.256310578365941788e-02,-1.326451190068489352e-03,5.326021443850036119e-02,9.249911308288574219e-01
5.260020183871629840e-01,-4.094057074557372333e-02,-3.687952623049861600e-02,-1.501704903069146085e-02,5.234055657303050575e-04,2.108060213142973899e-03,5.655339956283569336e-01
5.169918973665349471e-01,-5.732322272003534391e-02,-3.097454424985357502e-02,5.849547450715461561e-03,-3.897008127900059124e-04,4.697706539577979797e-03,5.617552399635314941e-01
5.370636186533755962e-01,2.932580194642225857e-02,-4.809084453984996399e-02,-3.108514760500757576e-03,-7.222745817660719547e-03,1.436171878628794522e-02,5.512736439704895020e-01
5.226948696373677761e-01,-1.865579529548863635e-02,-1.220742184276357722e-02,-2.027014489487072128e-03,-1.045899251108073011e-03,4.620332454496637806e-03,5.382294654846191406e-01
8.769959895639860559e-01,-2.121314454921763293e-02,-9.496509027251820445e-02,-6.669567170638078524e-02,-2.028922924124012400e-02,5.043058476446234811e-02,9.490380883216857910e-01
5.050804823550769651e-01,-2.979806199486290108e-02,-6.105811065044791652e-02,-2.858182623983003198e-04,6.364592848334151270e-04,-2.331624787356777889e-03,5.511899590492248535e-01
4.862151877458031346e-01,-3.097071596173861519e-02,-4.358906796380673798e-02,-7.904181589005267183e-02,-2.471691145402366008e-02,-7.460820974127364662e-03,5.430553555488586426e-01
5.674577832851114279e-01,1.100818446042139964e-02,-6.089121729322913290e-02,4.987455422049534223e-03,4.917105479293230712e-03,-1.204125533651724186e-02,5.961511731147766113e-01
8.914219334266951789e-01,-8.845233529628515612e-04,-1.264655048235594492e-01,7.706800536749022594e-03,3.004925099413336201e-02,2.567111343503607548e-02,9.637957215309143066e-01
5.326792630824030983e-01,-3.134061376058333570e-02,-4.286376275581832429e-02,-7.239938644406812215e-03,3.031367417207870424e-02,-1.093878573875330454e-02,5.727333426475524902e-01
5.298811851484210855e-01,-4.493400811307818321e-02,-1.435117011416162103e-02,9.219664134652418366e-03,5.886432346233532115e-04,-1.607403982784433782e-03,5.603857040405273438e-01
5.049105613549754734e-01,-2.826184873964471267e-02,-5.725797601889243138e-02,2.817955972184320920e-04,8.614495801655505658e-03,2.678394841893068021e-03,5.484687089920043945e-01
5.263475913738766554e-01,-4.263959781874113175e-02,-4.020298365220711934e-02,-2.764039373449224271e-04,-1.585845118273727407e-03,-1.357095604799505402e-03,5.677844882011413574e-01
4.525162222862713080e-01,-5.357727493993780232e-02,-2.288893575273359682e-02,-1.512624880330158336e-02,3.537141679789990081e-03,3.748034947566188622e-03,4.922472238540649414e-01
5.578218788885818125e-01,2.405433034481491150e-02,-6.312178978197402479e-02,-1.853106705701319107e-02,-5.808549640141184156e-05,1.356028921165808830e-02,5.836275219917297363e-01
5.412202658498661556e-01,3.028665209210106013e-02,-1.075664259332341222e-01,-5.351030935769474778e-02,3.248210072900967887e-02,-1.373266881479007911e-02,6.023383140563964844e-01
3.276863720732513530e-01,-8.557186432687757804e-02,-2.974163557294834392e-02,1.336135693005714546e-02,1.319618016849534448e-01,-3.795117963831180080e-02,4.559882581233978271e-01
5.564605589875636360e-01,3.707697599287125556e-02,-1.181870574134472329e-01,-9.088899215034669521e-02,9.130834546383715181e-03,2.433928382111356231e-02,6.334962844848632812e-01
5.325299921459548669e-01,-3.910599997705441200e-02,-2.710263502929116664e-02,3.072886486444622797e-03,-9.072351004062281093e-03,6.021961902498173570e-04,5.659739971160888672e-01
5.006920906796052950e-01,-6.124362432032881554e-02,-2.995881421825827284e-02,-2.440035844158495830e-03,-3.999695521261726651e-03,-1.943418422940762632e-03,5.470352768898010254e-01
5.389002362164415638e-01,-2.827302655257615815e-02,-2.126183971540526740e-02,7.470044984959572573e-03,-2.172531139385861204e-04,-1.284806676052636584e-02,5.642879605293273926e-01
5.489570538317427584e-01,2.814813956377068549e-02,-6.957648532439916766e-02,-1.992448815251010759e-03,8.590036804128238501e-03,-3.655325083774886401e-03,5.761607885360717773e-01
5.216009167908475241e-01,-3.523725476291431069e-02,-3.626404130662069791e-02,2.283968390483939010e-04,-4.160850542814087524e-04,-2.111238903911974874e-03,5.573648810386657715e-01
5.969089778121341450e-01,2.702895484245296243e-02,-1.079647860448235686e-01,-1.392891095638898735e-01,3.867443364145619830e-03,1.946266187758818877e-02,6.923167109489440918e-01
6.400012894845419353e-01,4.661819855800991563e-02,-9.322469065759464435e-02,1.682469137350984731e-02,1.382038133903155074e-02,7.762939662970245493e-03,6.754575967788696289e-01
3.682061673944519997e-01,-1.169695076757014396e-02,-8.828295683597414678e-03,-2.577413739944149976e-02,1.678608075298849295e-04,9.699378890262053132e-03,3.814708888530731201e-01
4.524435955304492163e-01,-2.883822838400411370e-02,-6.918323778382103051e-02,-8.984205266893321995e-02,1.051357058362163560e-01,-6.164068291730917526e-02,5.669667720794677734e-01
5.315851918704690426e-01,-3.834828112639199205e-02,-2.947386811256694217e-02,1.551765457623646314e-03,1.942062982555571452e-03,1.642659442852974433e-04,5.655649304389953613e-01
4.980554695988976266e-01,-6.195891159944910687e-02,-2.592957761827224816e-02,-2.713794623431619972e-04,-1.848293342456172562e-04,5.288422943594397801e-04,5.428981781005859375e-01
5.109418887977255075e-01,-4.990779184408317137e-02,-3.959442570995497235e-02,-1.843312326826653143e-03,-1.931703051631419301e-03,-1.028507939949151878e-02,5.560694336891174316e-01
5.622406326436257817e-01,-6.821302025766953769e-02,2.544232275291849477e-02,4.591113862335995978e-03,4.783440487230829381e-03,-4.877906830333977352e-03,5.894073843955993652e-01
5.095421905603216839e-01,-4.814118978448087005e-02,-3.751964321266376690e-02,4.087425427329786465e-04,1.366454239532771783e-04,5.827991544570520002e-03,5.525419116020202637e-01
2.810536163231168172e-01,1.211422532518056927e-02,3.313819251703903346e-03,-1.379378135382983367e-03,-2.755753948987658096e-03,5.401705084623067803e-03,2.736578881740570068e-01
5.327367133589774317e-01,-3.369365394142143089e-02,-3.703548455848387766e-02,-2.150420102998338266e-03,2.435051776107930669e-03,-4.121023595105298182e-04,5.681369900703430176e-01
5.372576333148790795e-01,-4.633637885960295577e-02,-4.014671334802683011e-02,-2.446836736793029342e-03,-2.403783012337038557e-03,-3.709643549356112240e-04,5.805546641349792480e-01
5.308920761793602949e-01,-4.481144545619381026e-02,-4.796461183036943021e-02,1.260868167590529620e-03,2.333617350525890447e-04,8.465449579502130960e-05,5.772908329963684082e-01
5.316468642498649588e-01,-3.884911015142919477e-02,-3.448042977543128162e-02,9.171864873031277104e-04,-1.831844501127344489e-03,-1.829606475733021450e-03,5.683441162109375000e-01
5.430163232095629455e-01,-6.021378021196660546e-02,1.863835320592810429e-02,-3.753681674454951121e-03,-1.111413608261156358e-02,4.763378288026286385e-03,5.683477520942687988e-01
5.130759311297425906e-01,-2.990880403622167560e-02,-5.957576013417748007e-02,7.164737249438315504e-04,-6.239384600766509185e-03,6.952246660404000887e-05,5.585155487060546875e-01
5.434591698851123365e-01,-5.730112140419749145e-02,1.203642364160983913e-02,7.171406768116592428e-04,-6.977222278948595063e-03,2.555615125199987327e-03,5.694141983985900879e-01
5.300312889288061324e-01,-4.870602921305208777e-02,-4.031286269217934648e-02,2.939693259632252496e-03,3.176965656763199291e-03,4.429387171732765069e-03,5.746868252754211426e-01
5.159399461718460200e-01,-9.382809077612025428e-02,3.225529166874011033e-02,-2.832441243110463830e-02,-1.714014369743199762e-01,4.792308798139875703e-02,6.389557719230651855e-01
5.282415234044316454e-01,-4.383917304493670231e-02,-4.724140906646126514e-02,-2.607790703912863783e-04,-1.253706442073421320e-03,-6.892151644702112882e-04,5.737949013710021973e-01
2.232610347111703697e-01,7.941784321979547534e-03,-2.872915754850158265e-04,-7.552186020117077070e-03,-5.637160265646698476e-02,-3.911499209947605013e-03,2.407327443361282349e-01
5.470025428681256630e-01,-6.126496981261014829e-02,-2.899143899334749586e-02,1.456834449949885070e-02,5.240298371049212367e-02,4.063173369374585391e-03,6.002703309059143066e-01
5.300352922880721129e-01,-3.272481093224066662e-02,-3.017314475090379644e-02,3.702504086656659837e-03,-4.275846653768848875e-04,-4.668473908478470644e-03,5.615839362144470215e-01
5.507284124209306242e-01,-6.176964661508538290e-02,-4.552009451243399507e-03,8.355769151287259500e-03,-1.225713166422042269e-02,-1.991492984760159790e-03,5.865612626075744629e-01
4.382556666702791537e-01,1.924649145359122460e-02,-5.809584183859797801e-02,1.261588022825170241e-01,-7.002025581437689924e-03,2.449906558605885465e-03,5.117332339286804199e-01
3.101722706066652457e-01,-9.463897100958448827e-03,-6.054377544331561445e-02,1.331647402503654265e-01,2.743384844890948623e-02,-4.392497627521588233e-02,4.270222485065460205e-01
5.312737932391311535e-01,-4.013615847454352070e-02,-3.970866514768003896e-02,-8.284477775687608490e-04,2.306460525080681386e-03,7.602713823302161781e-04,5.712136030197143555e-01
5.299830644138109337e-01,-5.415741354936703944e-02,-3.777601228861934834e-02,2.586001432037790624e-03,-1.051389540029508103e-03,-4.993382538939515614e-03,5.762096643447875977e-01
3.398076129094122488e-01,-3.224157922273127030e-02,4.020332816573406187e-02,-7.891554258425855645e-03,-1.500771182968610451e-01,1.326071664370400034e-02,4.301157891750335693e-01
3.369022081841107075e-01,-4.447963309552382949e-03,-1.504875077432898944e-02,-7.829724561824694552e-04,-3.685628933819228709e-02,7.589400211017890280e-03,3.528465628623962402e-01
4.402178926399863967e-01,-3.489025153224717402e-02,-3.520270369892922191e-02,6.234554394833668328e-02,-5.423073071315762106e-02,1.776884697770493571e-03,4.963563084602355957e-01
5.276731851280486163e-01,-3.236455198358378915e-02,-6.315290322596145423e-03,1.041557836116781960e-03,1.267067110784121870e-03,7.396893385033073871e-03,5.476353764533996582e-01
2.734949749364672389e-01,-7.186736535335716547e-02,-1.583466748702720001e-02,1.234846605385656326e-01,-6.647466849069730288e-02,-5.028140009600708116e-02,4.118857979774475098e-01
4.841633662271028760e-01,-2.262384101277314929e-02,-5.687355471092950254e-02,5.821994404290332589e-03,9.192512497302280858e-04,3.413279250781393014e-03,5.248836278915405273e-01
6.354760180368900224e-01,-1.059009296484864082e-03,-9.522673113578017379e-02,8.060530261802321961e-02,2.772185739739657304e-02,2.678166933569273850e-02,7.056446671485900879e-01
6.913246900332312705e-01,-4.393495274876174639e-02,-5.825338437251895152e-02,7.659661717486179744e-02,1.036150870149089437e-01,5.217755093669630695e-02,7.805871963500976562e-01
5.247060599424059335e-01,-2.201743058724400792e-02,-1.686638069008200569e-02,9.425031651436034620e-04,-3.462708632442371582e-03,9.064130699094672880e-03,5.444281697273254395e-01
5.273477959756878164e-01,-4.032990490161714181e-02,-2.189621459821763927e-02,-2.459676052870725100e-04,-5.088465059669209159e-03,5.094616909299943229e-03,5.588283538818359375e-01
5.263404923437984273e-01,-1.074880877615361219e-02,-2.534399888886629260e-02,-1.811884895866056402e-03,-3.115956281459325052e-03,2.752062294422675040e-03,5.445902347564697266e-01
5.327495315238833795e-01,-3.713893801562712094e-02,-1.047841265248339315e-02,1.752534173922584270e-03,6.046167231214375631e-03,5.498449556047123148e-03,5.572249889373779297e-01
2.818733505485817026e-01,-1.275308649321779675e-03,-6.843727709825980776e-02,1.534917371551605680e-01,4.205184630206706270e-02,-1.247601424755847947e-02,4.244430363178253174e-01
5.368762121530784581e-01,-3.025397583977723626e-02,-4.226341530598914931e-02,-1.066067706746335903e-03,-3.254962903404782105e-04,9.610035986859769746e-04,5.732349157333374023e-01
5.190713570889571304e-01,-5.131727523970647242e-02,-4.097808375317610330e-02,5.041559733437078576e-03,-6.786753710826347839e-04,5.045447611847918463e-03,5.654261708259582520e-01
5.600770310146543363e-01,1.179333702287752028e-02,-7.336662655899056640e-02,2.324114562047036384e-02,1.870158622063365899e-03,7.752953740889915318e-03,5.969675779342651367e-01
5.156550010355841485e-01,-3.880005976462433392e-02,-5.008085592462183100e-02,8.464616484506012895e-02,3.954521644682510405e-03,-9.028196217909264035e-03,5.793002247810363770e-01
6.190378951650947759e-01,4.478982807452924764e-02,-8.632413598556004652e-02,2.429699968356620592e-03,1.202705379799384917e-02,-7.884252557604427489e-03,6.502936482429504395e-01
5.206692327986714997e-01,-4.092050736171912173e-02,-4.081423954917365315e-02,2.562114256977316915e-03,2.463645911648465687e-04,1.096671420238275836e-03,5.615575313568115234e-01
4.477336298085798361e-01,-3.958739850463520449e-02,-3.718360679255207357e-02,2.676331855713160162e-03,-3.606056410303921239e-02,3.808094473726031642e-03,4.901859164237976074e-01
5.358675773357970407e-01,-5.394192740780529016e-02,1.807664898836225387e-02,-8.630428623105688242e-04,-9.014260638178662327e-04,-4.416584372059584838e-03,5.573579668998718262e-01
5.335478580607990740e-01,-3.272753158522390127e-02,-1.316728451061568994e-02,-7.952574990182764356e-03,-7.476225105078899112e-03,3.695586087858149411e-03,5.571106672286987305e-01
5.281972178527375439e-01,-2.778418292689030511e-02,-1.540215909037773168e-02,8.710575798250782826e-05,-1.215928387481141374e-03,-2.372235181601553122e-03,5.499143600463867188e-01
5.309049403515466725e-01,-1.942385159934384431e-02,-2.099351312494115995e-02,-1.834296700812982316e-03,-4.078443064175265968e-03,1.053325578218957011e-02,5.514715909957885742e-01
5.344151135045933643e-01,-8.351552615380286593e-03,-3.450343408239084364e-02,3.062769174411341180e-03,4.521491830417902723e-03,1.111048815197192112e-02,5.567169189453125000e-01
8.062400460769341137e-01,-8.369394453526945998e-02,-5.649602865681346842e-02,1.358131428446056332e-01,-4.478894104941188309e-02,-7.921941988532284207e-02,9.212484955787658691e-01
5.281510556328723460e-01,-3.602538452876605235e-02,-3.861493171452257123e-02,-3.059950542757725999e-03,-1.009278513844880012e-03,-1.688938755648875358e-03,5.655107498168945312e-01
4.198205287089745719e-01,-1.200293285403268573e-02,-4.937694150901193735e-02,8.246254756262744873e-03,-9.227104671952184034e-02,-1.278333865762391192e-02,4.798368215560913086e-01
5.342544634504774459e-01,-4.748092398242709233e-02,-3.167440380626040941e-02,4.030936751525128307e-03,-5.546126316931789153e-03,4.025219818167582314e-03,5.741605162620544434e-01
5.389621118107039699e-01,7.728229256091762034e-03,-4.932167146703966831e-02,-6.618759557251051827e-03,1.961461269730261411e-03,-3.038756744336917285e-03,5.620868802070617676e-01
5.413202234359708598e-01,-2.965616127318207451e-02,-3.023047952109478298e-02,-6.449154614072385994e-02,-4.211414357234577466e-02,1.786693322324518773e-02,5.874506235122680664e-01
5.357365628197675589e-01,-2.980927452882570217e-02,-3.275075259668527861e-02,2.882050100365335116e-03,3.457915289295874356e-03,-3.778961154062896290e-04,5.670762658119201660e-01
6.019277242798191097e-01,-7.224821384252416712e-02,-4.720969910263297931e-02,-4.104335450189707662e-02,1.166825907208326463e-01,-6.961588195550791336e-02,7.061848640441894531e-01
5.298560404458209083e-01,-1.335166427088982366e-02,-3.568003860364804547e-02,-4.579710864315242498e-03,3.474385684961190930e-04,3.243627039566066364e-03,5.547944903373718262e-01
5.284384960074467452e-01,-3.355952557589034213e-02,-3.170658508749821247e-02,-3.648695473445509553e-04,1.930623376238692129e-03,1.721956512154940383e-03,5.610920786857604980e-01
4.137530499881483248e-01,-1.520504549865182853e-02,-3.180383532353521503e-02,4.116672479336266031e-03,7.228207269071516838e-02,9.288380077260132914e-03,4.553948938846588135e-01
8.262097078118560978e-01,-1.332622113429549060e-01,-2.331850132784399343e-02,6.184661664788768110e-02,2.664284523387652499e-03,-4.880080248941617849e-02,9.196885228157043457e-01
5.493750255969589436e-01,-2.056155902331746610e-02,-1.663714418988382349e-02,5.235083173546226619e-03,6.450147591742212347e-03,1.558596739129383853e-02,5.688077211380004883e-01
5.347705221794115671e-01,-4.650949477434584978e-02,6.923097700351987793e-03,-5.970466763494958022e-03,4.302882189768032946e-03,5.216700190302726164e-03,5.567102432250976562e-01
5.255706459997941948e-01,-4.673248976889532447e-02,-4.177897694561230613e-02,-1.111061266054543667e-02,2.847756416886232898e-03,2.289570640674523543e-06,5.701887011528015137e-01
5.530100975346172731e-01,-6.401303306617042721e-02,1.882116494811775231e-02,-1.988626212355067569e-04,4.684158421626404695e-03,8.206814648436382489e-03,5.802899599075317383e-01
5.257893774780593166e-01,-4.783248995719927010e-02,-4.271047079538020652e-02,8.512180201638178210e-04,7.723245838551751584e-04,-1.476400194064213375e-03,5.710873007774353027e-01
5.293511484781612264e-01,-4.109118389591900899e-02,-3.943352915471981524e-02,-1.984615349118023890e-03,5.508353735063934104e-04,-2.493926834026436064e-03,5.696428418159484863e-01
5.103693342841568725e-01,-4.360107178306008024e-02,-2.719777273230311598e-02,-7.372030177358377019e-03,1.184011765325494736e-02,-8.752726560338904352e-03,5.466980934143066406e-01
5.533954948926926853e-01,-5.672044459972575003e-02,-1.339709958920104471e-02,7.184943145374611713e-03,2.090259676223668248e-02,-9.679550088142691369e-03,5.911284089088439941e-01
5.476118159201963653e-01,-3.049789212904319147e-02,-3.106704821477374034e-03,-1.905943025181471365e-02,-2.327665758407126625e-02,2.211628971998621726e-02,5.686023235321044922e-01
5.473511133920393457e-01,-5.167485956670170300e-02,2.761488063674430449e-02,-3.198888964834721658e-03,-1.091053496353518865e-02,8.494079762513128892e-03,5.641158223152160645e-01
5.265797162863529168e-01,-3.318876037472143214e-02,-3.005955300147217235e-02,2.072763237026252828e-03,2.910239767565827532e-03,1.675370798258669913e-04,5.582448244094848633e-01
4.168812151258406429e-01,-2.889132390313710330e-02,-2.861147666333847817e-02,-7.559378787601311878e-02,1.123869893411878346e-01,-5.572702950899515589e-02,5.127775073051452637e-01
6.284410421592622198e-01,-7.707291446188588302e-02,3.515937474304145494e-02,1.344478572326904091e-02,5.508599465934052586e-02,2.702600516363067029e-02,6.655835509300231934e-01
5.750563129343781998e-01,-1.031270322161551567e-01,1.803184200107119106e-02,8.586036017138952425e-02,1.034733398754306699e-01,1.367619445111411050e-02,6.687611937522888184e-01
5.398975803792668282e-01,-2.318150751207989635e-02,-3.602040182479812613e-02,6.609826782482761814e-03,-1.251016396195597791e-03,-8.149641723091103490e-03,5.699010491371154785e-01
5.840694438099891528e-01,-5.656253900731469941e-02,-3.792812546116905437e-02,6.676740719202210739e-02,1.058711933240553127e-01,1.363591218988212048e-02,6.681140661239624023e-01
5.207950150352103069e-01,-3.625781283636206331e-02,-5.823915448193978106e-02,5.606983941376351283e-03,8.069865651071582782e-03,-3.292030059392707809e-03,5.686457753181457520e-01
5.424171553277904456e-01,-5.316033693323313214e-02,-2.847907218497061632e-02,-2.498532733809278347e-04,1.402787183296867746e-02,1.361403316374285239e-03,5.841388702392578125e-01
3.959893815569076048e-01,-9.695955358111088551e-03,-2.440275348086227980e-02,9.698079272959536992e-03,3.780787321733819484e-02,-6.123033137867101364e-03,4.188629388809204102e-01
5.178543974629683522e-01,-5.904701144156002113e-02,-3.444991039237238484e-02,7.033451019525756472e-03,-3.549557647097539674e-04,2.501060898181255328e-03,5.651528239250183105e-01
5.153247344017701514e-02,3.124482924253425484e-02,7.519208277641232369e-03,3.164832785044495445e-02,5.555193841493891865e-02,1.504479474760842591e-03,1.171559840440750122e-01
6.316465018378087937e-01,-8.429125226940012428e-02,-3.588120236355629711e-02,9.360669928739630274e-02,1.216339912360765163e-01,4.500430801440249984e-02,7.463237047195434570e-01
5.271717358339963466e-01,-2.953396903423394226e-02,-2.958827498583740945e-02,3.569764813303051218e-03,1.412906914183014676e-03,1.154638059819212883e-03,5.567761659622192383e-01
2.952903886578880366e-01,6.560078226172078031e-03,-1.443495998284849424e-02,1.152578841624306077e-03,2.899372568188234023e-02,3.202542382125027429e-04,3.039639592170715332e-01
5.643291118473474643e-01,-4.752852028500259562e-02,-9.133478451083004712e-03,8.019699991769892178e-02,1.677148606149569607e-02,5.203042467474394694e-02,6.169373393058776855e-01
5.297731414326234400e-01,-4.643522850636264132e-02,-3.653472656735667901e-02,2.491454706788624740e-03,-2.228891401640667545e-03,-3.664884935341075622e-03,5.713870525360107422e-01
5.562683628385458601e-01,-9.980725517526398138e-02,-4.315621168439198740e-04,8.972042322903195366e-02,1.954045440494998898e-01,1.880384386389657297e-02,7.175455093383789062e-01
5.256199151218229337e-01,-2.695692514875910883e-02,-2.929559477874110751e-02,-2.045931940956570872e-03,1.058695428420756892e-03,2.230462597166628976e-03,5.537777543067932129e-01
5.289410045000897398e-01,-4.266620540401461215e-02,-3.897732373144527362e-02,8.888909425273419358e-05,1.856749009530403796e-03,2.472975828178894907e-04,5.697810053825378418e-01
5.302527606129867621e-01,-4.317686595060546417e-02,-4.712559046054304313e-02,2.070613880307068354e-03,-1.294270794205985668e-02,-1.466911207130899234e-03,5.758674144744873047e-01
5.212085893060279806e-01,-5.281946920932276135e-02,-3.814005521423102785e-02,6.742818409421572632e-04,1.145606851400168217e-03,1.650666711874849502e-03,5.668427944183349609e-01
7.404198593604178757e-01,9.122003613534573896e-03,-1.381230123261361353e-01,1.100588694726741118e-01,3.262351635552823616e-03,-2.767313714959965254e-02,8.383470773696899414e-01
7.479366921981225325e-01,-1.652028087399864953e-03,-8.631654164088251036e-02,9.006043161108696904e-02,3.445402050234035868e-02,2.436992538973315262e-02,8.137508630752563477e-01
3.165788115801306812e-01,-9.311633207830419257e-03,1.233433721719785769e-02,9.605574214444455305e-02,-6.443565084275466870e-02,-3.757234855969430326e-02,3.794600665569305420e-01
3.804493965808132261e-01,-1.110447638880004972e-02,-2.458935221705985108e-02,2.000556557252815629e-02,-4.686455891580522967e-05,7.728621631535903189e-03,4.001952111721038818e-01
6.211025787649930852e-01,2.815145465274310199e-03,-2.191894404102040506e-02,8.766351241231214175e-02,6.016808295271396795e-02,5.132787227177527251e-02,6.633270978927612305e-01
5.190118890701180820e-01,-5.365379875867531956e-02,-3.642304958166153739e-02,-3.622683552240377799e-03,-6.686695983398562764e-04,-2.621789691986335224e-03,5.643020272254943848e-01
4.687518564635162477e-01,-4.541601925968885567e-02,-2.766519664035427262e-02,-1.738143161134437327e-03,6.342854598100276754e-04,-1.241869489903141104e-02,5.059937834739685059e-01
5.360310622378239298e-01,-3.814872176668718251e-02,-3.937883986006504577e-02,7.944201969710091432e-03,1.636621399670649219e-03,1.252404833195918514e-05,5.749675035476684570e-01
6.156535620527310293e-01,-4.968214368669657266e-02,7.204992810479010634e-03,-5.993706332160045336e-02,-1.427261723790903269e-01,2.586171440152353063e-02,6.942296624183654785e-01
5.100042813061066438e-01,-4.813694248856134617e-02,-1.087886123504061553e-02,-1.887266377753740038e-03,-2.044954838892490759e-02,-5.624365873803861176e-04,5.416463017463684082e-01
3.197013762557263661e-01,-3.220149543583950003e-02,9.520244820181128498e-03,-1.992649196518080090e-02,-9.889138535182551148e-02,-8.741126305971055888e-03,3.763685226440429688e-01
5.220659094830488733e-01,-5.814882232924986627e-02,-3.891134854270580923e-02,-1.717516105150310971e-04,1.258046671252472087e-03,4.605753982604056905e-03,5.708991289138793945e-01
5.263702792134673514e-01,-4.863980513196017319e-02,-4.495695599667751119e-02,1.278511381354998765e-03,5.101079634657970392e-04,3.756751152726444352e-03,5.732194185256958008e-01
4.437291778510402684e-01,-5.783242611523975452e-02,3.305508907515845862e-02,5.433212547763170003e-02,-1.272086822391060579e-01,-7.359643575963874598e-03,5.213477611541748047e-01
9.009544207857990150e-01,-8.813355698303410035e-03,-1.471555959769279276e-01,2.538828566728051905e-02,5.353837408123120895e-02,-2.801321985779989948e-02,9.927548766136169434e-01
8.792882382174385114e-01,1.573913705706503352e-03,-1.486339247158258436e-01,3.596038503089352134e-02,2.117345098840322029e-02,-1.515768434219438333e-02,9.647269248962402344e-01
5.258720121010864723e-01,-7.721189119817603586e-02,3.404612478341173532e-02,2.512083769928837723e-02,-9.429168409231807046e-02,-4.892384854682900464e-03,5.810579657554626465e-01
5.471957149813636567e-01,3.362228452563431613e-02,-6.076803117739340565e-02,-1.719371305801172716e-03,3.413468190842876022e-03,-7.755108757905571342e-04,5.667355656623840332e-01
5.496359496819706036e-01,2.398598788741276855e-02,-6.656653668192286100e-02,-2.816364002994750995e-02,-2.252884684115366229e-02,1.530439540537405912e-02,5.802684426307678223e-01
7.670171093237809767e-01,1.725762043264217338e-02,-1.315295880327238265e-01,-1.441277753436744913e-01,-6.126049201242924833e-03,2.761146140858210252e-02,8.720950484275817871e-01
5.329514745256140884e-01,-4.057135424137797708e-02,-3.725132886422388712e-02,1.999266470141547198e-03,1.477302727619611046e-03,6.786822313909352802e-04,5.718874335289001465e-01
5.020969421173758773e-01,-4.174310277740903019e-02,-3.912819203419951042e-02,2.190775414405575841e-02,-4.684911121260184469e-02,9.376664226108838082e-03,5.501226186752319336e-01
5.493804823563970263e-01,-2.328954161366000863e-02,-3.216605725894314260e-02,-2.259782793044733725e-03,1.659583390187954711e-03,-1.547452697509553617e-02,5.778018832206726074e-01
5.831527573623043192e-01,-1.324017908721109027e-03,-7.694835025139251661e-02,8.101446666818855336e-03,1.035881569578578180e-02,-1.231733098066939425e-02,6.265035867691040039e-01
5.385147577093220006e-01,3.257521663785423183e-02,-5.951332592413058342e-02,-3.171743840349563678e-03,3.779724137427468642e-03,5.181826083029713800e-03,5.578529834747314453e-01
3.578514008075740493e-01,-8.773417735461030986e-03,-2.919908556878675343e-02,3.177506852543703075e-02,-2.557141544108224376e-02,8.456539657658567258e-03,3.840894699096679688e-01
2.917489082097007858e-01,2.739412887969278065e-03,-1.375634105431491894e-02,-6.686384619375285512e-03,-3.796858772028754297e-02,-3.492718250303139451e-03,3.050599694252014160e-01
5.299381160112306421e-01,-2.729690628326281177e-02,-4.195541836527150181e-03,1.264581703306782252e-03,1.353118102656633136e-03,-7.040744884036757682e-03,5.461965203285217285e-01
3.794593547210403095e-01,-2.510829896537752903e-03,-2.462359975428143888e-02,-3.131604452638394719e-03,-7.775650049823201661e-05,5.934648841824594241e-03,3.936644792556762695e-01
8.177891195597747354e-01,-9.671134785202151196e-03,-1.403573102462746247e-01,7.195286995890308457e-02,3.094214718531519692e-02,-4.073475604412441636e-02,9.128465652465820312e-01
5.278993629281467648e-01,3.190912076492234684e-02,-1.134797886363679009e-01,-1.243926298565345145e-01,-6.252033451229099814e-02,3.579053692780869572e-02,6.334394812583923340e-01
5.608095707330387203e-01,2.481004322809771123e-02,-7.608153034608874932e-02,1.103409653407230046e-01,9.314614272338079745e-03,-2.811943662299383126e-02,6.250681877136230469e-01
4.158962755270256828e-01,-1.726981663496532371e-02,-3.496393153541949017e-02,-1.418137081924660502e-02,-6.847297611169830475e-04,1.080263447594687412e-02,4.433568120002746582e-01
5.311502146893056775e-01,-3.265109589155401615e-02,-2.300615196560121256e-02,6.343851288018951531e-04,-2.556440350505547864e-03,1.251090963117544407e-05,5.590598583221435547e-01
2.877637428561825028e-01,2.828292914360569510e-03,4.385211894715454473e-03,-2.049412031837171203e-02,1.343449996604159646e-02,3.626248658947496713e-03,2.873811721801757812e-01
4.211804043081561200e-01,-2.182651477481813151e-02,-2.517955840589218564e-02,6.857248438781993194e-03,3.316703284454587675e-02,-6.962267114171026214e-03,4.487075209617614746e-01
5.288614815602314945e-01,-4.877251937736543086e-02,-4.417462833043653281e-02,1.536100864977583145e-03,-2.048155562794627162e-03,4.494789739402562517e-03,5.754185914993286133e-01
3.809704960996794787e-01,-4.473434507225489132e-02,6.730739876572897074e-03,-4.001823686458643586e-02,7.089288145831026955e-02,-1.682568205989789026e-02,4.274288415908813477e-01
5.525182328931673714e-01,-1.005709108361513282e-02,-3.898178084420347855e-02,-1.287203070150523716e-02,-1.346049674525230840e-02,1.711935543630564716e-02,5.792406797409057617e-01
5.075051700348625072e-01,-3.078260451147413201e-02,-5.935851020613450157e-02,-4.827942927200613919e-04,-2.145373723808363946e-04,1.081870802118107796e-03,5.531335473060607910e-01
5.108258210399045929e-01,-4.309639472657500470e-02,-4.367346804912849989e-02,-5.734243289668307765e-04,-1.467370749287417444e-03,7.105903453661015223e-03,5.543543696403503418e-01
5.051258686059594272e-01,-5.662488682280814034e-02,-2.745009749530818999e-02,9.876215487702117227e-03,4.798724036813431840e-04,-1.024385510275408568e-03,5.480169653892517090e-01
4.986053781481533109e-01,-2.929080397682673476e-02,-5.701527209049400691e-02,3.803531107654190219e-04,-6.471781292401309130e-03,3.967921899297188922e-03,5.424500107765197754e-01
4.223142339348661123e-01,-1.504860767604737637e-02,-3.568675224270581592e-02,-2.277921145105184621e-04,-1.434550818441553827e-02,9.586376164517650122e-03,4.490342736244201660e-01
5.264879727821668576e-01,-3.049785094261761587e-02,-2.989512018010923033e-02,-3.265210822698580428e-03,-8.266115620782137161e-04,1.747690338850107789e-03,5.567234754562377930e-01
5.419955220027968812e-01,-3.916618721357156829e-02,-9.997774298170836182e-03,-7.987040113943338210e-03,-4.260678197868079074e-03,1.597904917836762487e-02,5.680316686630249023e-01
5.333084819053210968e-01,-3.910249203212926017e-02,-4.671393349754546231e-02,2.121393424135224401e-03,-1.760880441069866478e-02,1.262049167023731114e-03,5.770767927169799805e-01
5.258017773838510323e-01,-3.299635992689536890e-02,-2.821379304811100219e-02,-1.901517284436405773e-03,-6.844547784666205146e-04,2.202616576824787276e-03,5.564463734626770020e-01
3.948681047923748855e-01,-3.654950259847883354e-03,-3.155857445698000141e-02,6.021625512445375914e-04,-3.554545424209126780e-02,6.830580217625328507e-03,4.179126322269439697e-01
5.218304577937015187e-01,-4.951621793442156916e-02,-4.036345317628345364e-02,2.972799562051558434e-03,7.904163698081431494e-04,4.370840154041875578e-03,5.669013261795043945e-01
6.014964822864569127e-01,-6.884955584951946150e-02,-6.136184949753434315e-02,1.574928048853792006e-01,-7.345393324979553051e-02,-7.815052599111006748e-02,7.438557744026184082e-01
4.649441589486759119e-01,-4.412291051829642097e-02,-2.863485360200454521e-02,1.956177092558909758e-02,2.459056244447533224e-04,1.069654031804166336e-02,5.029872059822082520e-01
3.188049713900467097e-01,-6.745166340796374116e-03,-6.900176377073671818e-03,2.458110103558435594e-02,2.753271386924342062e-02,-4.459900442927751917e-03,3.319335579872131348e-01
5.042581980545171039e-01,-4.562351770676015272e-02,-3.579475306445037419e-02,3.549608982752870505e-03,-2.148728689845889103e-03,-6.776046459959647605e-03,5.452075004577636719e-01
5.339222843938508101e-01,1.506163875945268349e-02,-9.736692199926880176e-02,1.441091873203830809e-01,-5.833229662101057679e-03,6.649866708380672634e-03,6.346088647842407227e-01
5.397676968678356557e-01,1.867591543000671206e-02,-5.169135525452678293e-02,5.301360835833455153e-03,6.111233802085545321e-03,3.153064410877979770e-03,5.598055124282836914e-01
4.306459033702813022e-01,-1.485233285482337462e-02,-4.602947717029745589e-02,-3.516829959634600912e-03,-2.241740122745628644e-02,-3.292360759963686417e-03,4.635809659957885742e-01
5.315271182675531669e-01,6.060140209825981561e-03,-4.603296397683342978e-02,5.639318037805658712e-03,-2.649721204076762281e-03,2.111576304215690512e-05,5.534608364105224609e-01
5.454617646345260029e-01,1.777352796655251588e-03,-5.368709661084339335e-02,5.538489881878348731e-03,3.870020096385732786e-03,-1.038135874420757299e-03,5.735541582107543945e-01
4.616367567888228773e-01,-3.621755511297561347e-02,-3.476244460577726514e-02,-3.919039283820943687e-02,1.861544509419406704e-02,-1.166539809757846571e-03,5.027801990509033203e-01
2.630639323720542211e-01,1.467093313420292366e-02,1.385746159466252903e-02,-2.486159069879452857e-03,1.566392275105775997e-04,1.275053833513692695e-03,2.488479465246200562e-01
4.954862598770857218e-01,-2.959240498894818994e-02,-5.809276598030002625e-02,3.039241398092041788e-03,-4.238595116883251725e-03,2.124235036722632239e-03,5.399814248085021973e-01
5.333431191236945867e-01,-4.380675266485864472e-02,-4.578678845839093126e-02,-3.452830491894341020e-02,6.111738386349390654e-04,9.323789404693646945e-04,5.812305808067321777e-01
5.307326895980599701e-01,-3.028844548939085835e-02,-1.233448687640373298e-02,-3.037381905386935584e-04,-1.788446437144718170e-03,-1.601678815942085207e-02,5.529683232307434082e-01
5.417259428893335116e-01,-5.183222537454407197e-02,7.744430512061556415e-03,6.508757440531497997e-03,1.227092104800110717e-02,-1.913331863250964521e-02,5.676050782203674316e-01
5.162054002026423838e-01,-3.616158343396380648e-02,-4.796117879239070181e-02,-2.152803988227962144e-03,2.489753248888017592e-02,6.550326729621223226e-03,5.601504445075988770e-01
7.472963368651278637e-01,-7.752213948738106986e-02,9.367822358582078568e-03,-2.671081410526539995e-02,-1.147949063544278919e-01,3.301496409842150093e-02,8.131119012832641602e-01
5.069147146397330328e-01,-3.073982614666440072e-02,-5.765539432432822964e-02,-2.820064268037449713e-04,-7.640922146113018898e-04,8.655437431274906179e-04,5.516089200973510742e-01
5.222331025208087896e-01,-5.141870991633695764e-02,-3.983047474559484047e-02,-6.940029407754616433e-04,-1.745994334289743518e-04,1.223458904175283007e-03,5.679516792297363281e-01
5.341112884417479334e-01,-3.874870193771551286e-02,-3.814358926924762971e-02,3.428931942481354325e-03,5.908217421370190806e-03,3.386049924575953800e-04,5.726802349090576172e-01
5.350273412416719498e-01,-2.929806333705686772e-02,-4.096190616600389744e-02,4.592154126214146974e-03,8.042005587605556517e-05,3.527915661289414461e-04,5.703026056289672852e-01
5.322657340493071043e-01,-5.039868337807937304e-02,1.106002309487280622e-02,7.345440570276630561e-03,3.629897835028102204e-02,-3.192461053475827842e-02,5.609255433082580566e-01
2.912727914418380970e-01,-2.679182316001745001e-02,-6.539522516707463318e-02,-6.524020941766242587e-02,8.669590840716433211e-02,-5.031925428284677454e-02,3.972998559474945068e-01
3.513202637800045824e-01,-4.284028886361912480e-02,-3.017112051976716947e-03,1.276765607927068391e-01,-8.931638504726589767e-02,-1.808846149240199430e-02,4.637557864189147949e-01
6.368156661901200888e-01,1.269071218529732592e-03,-8.895118818610794897e-02,1.297861818830834063e-03,1.800445772847973983e-02,-2.748103223064922093e-02,6.874892711639404297e-01
6.358768205469782497e-01,2.233696877433893890e-02,-8.418859166698736129e-02,-1.097752764911879945e-02,1.159922331718357159e-02,2.759518434881341308e-03,6.737391948699951172e-01
3.189630061759797242e-01,-8.154845020424356106e-02,-1.514805150394053779e-02,1.729443065375483105e-02,8.840110319938361549e-02,-3.194056683874861580e-02,4.069723188877105713e-01
6.052055257282782375e-01,-8.133486595735103797e-02,2.673898722275294682e-02,8.005281874732790917e-03,9.018640816080746025e-02,-4.037121067560706100e-02,6.620446443557739258e-01
5.276666229141333542e-01,-3.455570045181735606e-02,-1.041978101450447003e-02,6.840450461829197804e-04,-4.483790810167464884e-03,3.014405051814135830e-03,5.506321191787719727e-01
9.020821107830043761e-01,-5.278682815830942898e-02,-3.205581170066862384e-02,-5.502588016730910157e-03,-1.279443995815869074e-02,5.560949878023820764e-02,9.498780369758605957e-01
5.393863779698080396e-01,-5.098772776612911506e-02,-2.475351999042604834e-02,4.263653875723165051e-03,1.470266462272203263e-02,-2.554189641601371102e-03,5.783290266990661621e-01
6.243432126918546654e-01,-1.214108042929101239e-01,2.320374321344592650e-02,-1.844677940648383266e-02,-1.416770525184410656e-01,2.491066789542784737e-02,7.295993566513061523e-01
4.260820674265674013e-01,-3.324972839593906548e-02,-2.272642005312006108e-02,-7.374920652355371198e-02,-1.284658734862283158e-02,1.527464804958498373e-03,4.723152518272399902e-01
5.644244987658251222e-01,4.175279185236766000e-02,-8.118627961177846131e-02,-5.730006017798741635e-02,6.756045204556899650e-03,1.156810508504727561e-03,6.021190285682678223e-01
5.272050881250811560e-01,-3.857503174415841118e-02,-4.877662322578832366e-02,1.382899374342103690e-03,1.092031301252724190e-03,-4.035101269788725353e-03,5.710002183914184570e-01
5.082734737611402931e-01,-1.367261772265679354e-02,-4.238978251351438464e-02,-7.865971951621388708e-03,-4.667334131139717554e-03,4.960978145895619806e-03,5.371834039688110352e-01
6.366267349461197655e-01,-1.353666592202679153e-03,-7.955230324436227130e-02,-8.109296495028176649e-03,4.719489032809252166e-03,-2.615596512193460801e-02,6.821581125259399414e-01
5.295572411649771549e-01,-5.017962519579172165e-02,-4.186487204413294472e-02,1.085639486815105290e-02,-6.862127358384781037e-03,5.963279910364549519e-03,5.761467814445495605e-01
4.333603825827587741e-01,-9.451112444068369978e-02,-5.033490464977044554e-03,1.541516551770621621e-02,1.551786412762933831e-01,-3.834895014961790805e-02,5.628391504287719727e-01
5.231440165087324345e-01,-1.753302011090013268e-02,-1.433744052648536216e-02,-6.410293775306745738e-04,3.465946361948173495e-04,4.395221283702139409e-03,5.391415953636169434e-01
7.527767297201357621e-01,2.975615855627622430e-02,-1.005864445081699199e-01,8.270436596051186640e-02,-6.570347891271269281e-02,-2.767808213267567742e-03,8.169957995414733887e-01
3.707134204230122521e-01,-9.093274671385653818e-04,-2.287714216584429971e-02,-1.308172801614287560e-03,2.562493483901959537e-02,6.754657355400986267e-03,3.858260214328765869e-01
7.518528870354472815e-01,1.762132542701677629e-02,-1.284097406278676134e-01,-8.793159175046222353e-02,-1.096337435207618213e-02,2.545488584130137927e-02,8.325514793395996094e-01
7.747414397063394631e-01,-1.200624417365969698e-02,-9.015893872440455814e-02,-6.893081445824006392e-02,-6.462229142901743280e-03,5.141667965424660119e-02,8.419482707977294922e-01
6.325657972000970908e-01,-7.122642405389040254e-03,-1.845540825049862832e-02,-1.522785364970103417e-01,-1.114115687080913936e-01,5.327963713044613081e-02,7.293142080307006836e-01
5.329455920054597673e-01,-3.022898289126871307e-02,-4.247234889303719285e-02,3.860344051737124929e-03,3.962975701927756896e-03,1.452798714571382254e-04,5.694756507873535156e-01
3.426930518104314705e-01,-2.904514050920874169e-02,-7.645655385556619776e-02,7.700283383909926893e-02,4.404455030618948524e-02,5.411821868933838764e-03,4.263305068016052246e-01
4.703452704723067312e-01,-4.419953882324828554e-02,-3.554412636324655317e-02,9.267931436604709416e-02,2.938205588876455221e-02,-1.870904131389886441e-02,5.383177995681762695e-01
5.335565940026989473e-01,-3.881386885308782397e-02,-3.729800175386513428e-02,1.404647047380359155e-03,2.319207252549553098e-03,1.558305858823698636e-03,5.716397166252136230e-01
3.098386063156269299e-01,1.848532905499564172e-03,1.307213780317666163e-02,9.809455498254010530e-02,4.534500214048867162e-02,2.033067300908745004e-02,3.574957847595214844e-01
2.702402947691869839e-01,2.842592603109821842e-02,-2.858445040547591409e-02,-1.235077407376212605e-01,3.578218998811168172e-02,-2.320782761092023139e-02,3.559911251068115234e-01
3.729294886704327405e-01,-2.211874457009131711e-02,-4.330426253057184649e-03,-2.002105893768152487e-03,2.249957962630463881e-02,7.798338000490357032e-03,3.886713981628417969e-01
5.268873155900963834e-01,-4.355255187176007570e-02,-3.908293240010257685e-02,-6.870029847811676485e-03,4.684340624834121020e-04,-7.638459170650055072e-04,5.683449506759643555e-01
6.024941818924370862e-01,-1.997024616573445099e-02,-8.304919669842183994e-02,1.157948778464071848e-01,7.515296567064817801e-02,3.679296385119371765e-02,7.013813257217407227e-01
2.897958305063286222e-01,-1.171843399406256869e-02,1.562785238418046285e-03,-5.546588733883701244e-02,5.713425266194106095e-02,8.216831320887180504e-03,3.260485827922821045e-01
4.726722987741448501e-01,-4.293688472666307154e-02,-3.404776631786654573e-02,-7.455689449524617769e-03,1.958065343577181788e-02,1.180631001297806695e-02,5.129168033599853516e-01
4.467568657082369166e-01,-4.264949716621488363e-02,-2.699090509328808118e-02,-1.821139415914581686e-02,9.822587346293100777e-03,1.297515608225026547e-02,4.836215972900390625e-01
5.158156061072832754e-01,-3.273463238675336506e-02,-5.990910904084906230e-02,3.027833255427899925e-03,-2.524743599065644179e-03,1.459449751026255107e-03,5.626769661903381348e-01
6.643112677068581107e-01,-1.398911366394381406e-01,2.390136745554424791e-02,7.372582079552157663e-02,-1.372411543236517484e-01,-1.944178528493499883e-02,7.847247719764709473e-01
6.170186904801832073e-01,-1.146057173368233983e-01,2.123610479333762346e-02,9.885590727983054049e-02,-1.568170059197205868e-01,-4.480444253081524580e-02,7.506374716758728027e-01
4.291620935823455274e-01,-3.380468020276332364e-02,-2.729970266626789710e-02,-1.243029689183934063e-02,2.264706943855734553e-02,1.400561564296135333e-02,4.625577032566070557e-01
5.304942706574955480e-01,-2.513550473393832974e-02,-2.096889848405628087e-02,-1.350455334763232948e-03,4.290553579199270044e-03,-7.001168449141497753e-03,5.537458658218383789e-01
5.321475194451279478e-01,-3.635810882253692755e-02,-2.558074984783850758e-02,2.167290647630582944e-03,1.014613662847242302e-03,-3.829086895440229118e-03,5.632485747337341309e-01
5.261976658717282263e-01,-2.117099683182555037e-02,-2.317281809739199505e-02,5.781581246064467459e-04,-5.876281687588565719e-05,-1.743691562546863813e-03,5.483815670013427734e-01
5.657702378954216904e-01,-4.088366814715568842e-02,-5.941140147175144604e-03,1.132289148897188714e-02,-1.627723912627766951e-03,-3.018286185760788928e-02,5.926023125648498535e-01
5.473576137556175336e-01,-4.432749256257845216e-02,-4.271224149108659995e-03,6.201104474546533830e-03,-2.096085675370912282e-02,-1.366821401500281641e-02,5.744466781616210938e-01
5.347154315035558270e-01,-3.058686007250108196e-02,-2.765676321835583429e-02,3.483302502786536306e-05,2.836722617607635461e-03,-2.569839841345869687e-03,5.638819336891174316e-01
5.415126391084099655e-01,-1.182318418251060432e-03,-4.019169121940180389e-02,2.567671711968292150e-03,3.226053922336265516e-03,-3.541454195078368259e-03,5.632924437522888184e-01
5.414851475425035421e-01,-3.917418473923942046e-02,2.290721308184362481e-04,5.590962582193257247e-04,1.899177620214478239e-03,-3.716970933805856421e-03,5.620419979095458984e-01
6.138655107226309582e-01,3.060232888903166582e-02,-7.550127440609732954e-02,-1.477875490936349755e-02,1.104418310477932319e-02,3.175958440921944782e-03,6.437326073646545410e-01
5.722671301262660659e-01,-2.530795595122370401e-03,-6.109861771455676882e-02,1.485231838319050297e-03,7.838452624361192181e-03,-2.132664041433547999e-02,6.074890494346618652e-01
5.327795164380326742e-01,-3.709481912451054186e-02,-5.163769708880619480e-02,4.733813759789083121e-03,1.634034040689236536e-02,-1.799783726051276504e-03,5.780431032180786133e-01
5.114272054881053853e-01,-3.488787145270133561e-02,-5.797322523567108310e-02,2.573365890528598546e-03,5.022059530192338759e-04,3.106997869372166935e-03,5.582603216171264648e-01
5.296274072497940688e-01,-3.359863780262484223e-02,-3.825364510045192734e-02,-2.585377632880973570e-03,1.978818295514763945e-03,-1.245529691250478075e-03,5.656001567840576172e-01
8.619265602512773405e-01,2.334674542359876925e-02,-1.102569254854908198e-01,-8.688769012106791964e-03,-1.237447291189904333e-02,6.012337324088427512e-03,9.131799936294555664e-01
5.802162043052404572e-01,-3.213761122957137228e-02,-1.032532032745023254e-02,2.053969159605061739e-02,8.215902210090633012e-03,-6.270822924285385236e-02,6.126673221588134766e-01
5.338613029816443589e-01,-5.363843487391231624e-02,-3.856361643721761823e-02,7.778418798590804864e-04,1.907566915980392960e-03,-1.261815488245853585e-03,5.801243185997009277e-01
8.448238771326801455e-01,-1.403863189883932938e-01,-1.516985601885240120e-02,4.539575634555628042e-02,3.641133826523383632e-02,-2.598218477119804831e-02,9.354884624481201172e-01
8.648690278421236055e-01,-1.371024140320461771e-01,-2.579079592762181794e-02,6.347060950231316057e-02,-3.687231038686985922e-03,-4.983338508405928818e-02,9.614480733871459961e-01
6.966322000682751980e-01,1.749220175313545567e-02,-1.381655439902991500e-01,-1.491854292214004618e-01,4.071628446715232219e-02,-2.324312474339251464e-02,8.151913285255432129e-01
5.302862344630343561e-01,4.553970458621742212e-02,-6.535721599675534121e-02,-1.553835086823862621e-01,-2.244871022448264447e-03,9.336934654476618592e-03,6.113452315330505371e-01
7.645318108520423594e-01,-5.844603489281988140e-02,-7.650209352807027519e-02,-6.042209857625062408e-02,1.121340920692665694e-01,-6.550834402035007886e-02,8.683472871780395508e-01
6.092915003464319801e-01,2.852437041972563647e-02,-8.689177846846274367e-02,-1.006049311689156782e-02,4.785162017506768852e-04,1.234721800468711536e-02,6.468407511711120605e-01
5.554128553295217818e-01,-8.347746216656737328e-04,-3.842208399381888406e-02,2.368784342056213296e-03,5.204844102916738637e-03,2.048609718811338076e-02,5.771388411521911621e-01
5.716115427282886241e-01,-2.306919371810103869e-02,-6.340424522728696499e-02,1.070607150889816284e-01,6.124975476889544385e-02,3.682460412051752341e-02,6.549559831619262695e-01
5.256588408386114741e-01,-3.222771758801282194e-02,3.069954557647358584e-03,-2.795595393201464555e-03,-1.621169632539260115e-03,5.436209439921261752e-03,5.412127375602722168e-01
5.321491826060207320e-01,2.681022590020287755e-03,-3.230931933853223303e-02,-1.901688545403095853e-03,-2.790242657911046892e-03,5.756822970908914011e-03,5.479240417480468750e-01
6.128331281328727176e-01,1.591679040480642460e-02,-8.663024460880505706e-02,-4.023247747131886848e-02,1.105779482993978109e-02,5.377798284078726121e-02,6.647827029228210449e-01
6.497955489193016909e-01,3.716451168940460015e-02,-1.214178295676527353e-01,6.896045185613228212e-02,5.401849921957409956e-02,1.778573473262354265e-02,7.222099900245666504e-01
5.201651237749060908e-01,-3.618871242646085062e-02,-5.186951771020475999e-02,5.606147018445537325e-03,-2.439596294815529667e-03,-1.301698835152871343e-03,5.644614696502685547e-01
5.982209116801925353e-01,-7.668659075123965274e-02,-1.887742849505055776e-02,7.000798138648613167e-02,1.286423320882694732e-01,3.839066225268193688e-02,6.989976167678833008e-01
3.041765717326273544e-01,-1.927061684172773348e-02,-4.277785189027723256e-02,4.709599193818748974e-02,1.097838720809839533e-02,2.889043169291732882e-02,3.497051000595092773e-01
7.301217618194149050e-01,-1.052398372061268961e-01,1.068487442790644337e-03,2.087155349763840720e-02,1.109356653212561356e-01,4.296925526455262767e-02,8.149175643920898438e-01
5.279149491326539101e-01,-3.826826094697136083e-02,-4.746415887730923155e-02,-1.015672879221072916e-03,-2.675510953195610960e-04,-1.382190954151843844e-03,5.708446502685546875e-01
5.271513388508048958e-01,-1.231013545391707042e-02,-2.721866129228656117e-02,-2.421764601079774357e-03,1.587433339170755790e-03,1.567133439358340792e-03,5.470978617668151855e-01
3.399912386426766631e-01,-2.781885949728089835e-02,-1.376165410339150186e-03,-7.333901653725470593e-02,-1.304173666281116181e-02,-7.219901520738841727e-03,3.782328367233276367e-01
5.396098095458075061e-01,-5.314786972395765807e-02,2.506357495288921711e-02,2.947766731710015162e-03,2.630689321822034807e-04,-1.914311692797224023e-03,5.578131675720214844e-01
5.268523414180006359e-01,-3.618953389667001197e-02,-5.304760979522005204e-02,-1.534151913323817491e-03,3.970137223549680388e-04,-1.206233016244431279e-03,5.716677904129028320e-01
5.304529565663481661e-01,-3.950745961006130180e-02,-2.755117556048874983e-02,-4.034116678743060805e-03,-4.236542337024676655e-03,-1.509820840052662294e-04,5.641683936119079590e-01
5.303541147557763180e-01,-4.218651818087498784e-02,-2.881468947544885140e-02,-2.651382613233901030e-03,-5.183066109643768953e-03,1.678317269546791488e-03,5.660704970359802246e-01
5.304584942839336570e-01,-5.025329026622846196e-02,-4.036014481479441307e-02,3.323331615811655690e-03,8.722348173650613197e-04,1.709074660108194765e-03,5.758672952651977539e-01
5.388355293895985554e-01,-4.211368151698441364e-02,1.245798698485900413e-02,-6.991376972384418312e-03,-7.522766061558865819e-03,1.098357038244377262e-02,5.562868118286132812e-01
5.396712912617621649e-01,-4.104175959702743848e-02,-4.404976716882116894e-02,-1.472845162697874674e-03,-1.178669602064315097e-03,-4.051100658463034827e-04,5.822324752807617188e-01
5.295801125821016919e-01,-4.072264873328096391e-02,-3.987990295202645252e-02,-6.935455150674177003e-04,-1.324483655116278713e-03,-1.704426282025696187e-03,5.698953866958618164e-01
5.323941712310045205e-01,-1.976908414071357201e-02,-2.925467117933924777e-02,-6.498019527373466789e-04,-1.362786855566288985e-03,2.391209941857948447e-03,5.569881796836853027e-01
4.979463891815992804e-01,-3.677761878725815947e-02,-2.494238814640115098e-02,9.602818311073230487e-03,7.129004259952020396e-03,1.036196237152462894e-03,5.293142795562744141e-01
5.631425768124642683e-01,-6.773038006052151117e-02,4.131154122994315503e-02,4.703540775308684418e-03,2.643448075681014038e-03,-3.339960052450646581e-03,5.841404199600219727e-01
7.115905426225241914e-01,-1.339511382335612788e-01,9.661957467120119158e-03,-9.688912077518116103e-03,1.749861972204760086e-01,-4.020019801228400663e-02,8.432822227478027344e-01
5.175401260806808956e-01,-4.114971720565860358e-02,-4.455773000565957376e-02,-3.249061991537690740e-04,6.453834012196789024e-03,-8.057080238948242587e-03,5.606870651245117188e-01
3.266652297620235013e-01,-1.286433016753979475e-02,-3.613341880405393503e-03,-7.203211973687828878e-04,4.739584491451936249e-02,7.767813714410867418e-03,3.451761603355407715e-01
2.958682343174136031e-01,-2.045735421188145386e-02,-4.184430779316093696e-02,6.661852203425755459e-02,7.332782458462741570e-02,-1.366075605116776927e-02,3.705257773399353027e-01
1.872000218634423396e-01,-3.764449557204238572e-02,6.507044440568952870e-03,9.178939059213847909e-03,8.213584577796216590e-02,4.954340982214737281e-03,2.512816488742828369e-01
5.339642172940697318e-01,-3.822860442554776306e-02,-5.430883601845590269e-02,1.505332426158956498e-03,-1.304340299451707378e-04,-1.211490754014215611e-03,5.804097056388854980e-01
5.260349949640377165e-01,-2.829784087635606182e-02,-2.154073662154951108e-02,2.528604135219335129e-03,2.325744841779043420e-03,7.038902453775581006e-04,5.510188341140747070e-01
4.033885270994203576e-01,-2.557967506025493609e-02,-5.437611478458254100e-03,-1.126246611986384261e-01,-1.861016886696706119e-01,4.722561392133527158e-02,5.695825815200805664e-01
5.213357391335131652e-01,-5.432728245146206669e-02,-3.617326483494043288e-02,4.081832094142426250e-06,1.528948958164755897e-03,1.944731918249483719e-03,5.668202638626098633e-01
4.951813198266237226e-01,-5.062517620305440058e-02,-3.530298835318029793e-02,-1.340663460651975950e-03,-6.134487262070502551e-03,8.448955515756091661e-03,5.386176705360412598e-01
5.178801294948328637e-01,-5.055754557309433128e-02,1.845617509763697317e-02,-6.670296895300795994e-04,-6.806262902613653687e-02,2.109111740184821393e-02,5.512601137161254883e-01
5.267170253135151636e-01,-4.338767442875279823e-02,-2.908667740379239364e-02,2.322383265021140796e-03,2.648064376173311137e-03,1.855568109851281431e-03,5.631326436996459961e-01
5.324831203432154325e-01,-4.364018879731895728e-02,-1.714946456850768852e-02,1.499748542999764477e-03,-1.170352726957718005e-02,4.488394800288306695e-03,5.637694597244262695e-01
7.599637365741720441e-01,-7.804681393949644552e-02,1.466726855499742022e-02,-8.519711643775036702e-02,-7.807870097183527980e-02,2.834156774576659932e-02,8.219710588455200195e-01
5.341116186264184273e-01,-9.198767914238265009e-03,-3.526829915482812550e-02,-4.590484106038768622e-03,1.186177902366537459e-03,3.476408781240207784e-03,5.568961501121520996e-01
4.176606896937191671e-01,-4.258414923902198446e-02,1.803672673560743900e-02,-2.736244142621350670e-02,-1.211475860186033288e-01,2.286245584035720424e-02,4.852258861064910889e-01
5.707161048212839871e-01,-6.646158419179837296e-02,1.142102081924600832e-02,-2.901693525442992395e-03,-2.169961799471408284e-02,-2.361932114763548468e-05,6.032196283340454102e-01
5.368326997545693757e-01,-5.310779614492538991e-02,-3.109644841033568086e-02,5.190666550459042093e-03,2.778183886544118540e-03,1.992434833917932063e-03,5.793486237525939941e-01
5.334612148377775309e-01,-4.254724466705403496e-02,-9.297536534154632326e-03,8.499118888971740355e-04,6.546701834051598876e-03,4.013339264290623556e-03,5.602840781211853027e-01
5.284267289747911489e-01,-4.293082653256857784e-02,-3.033316118478815437e-02,-2.618859773291206099e-03,-1.802829444223086851e-03,1.239163211687966575e-03,5.651949644088745117e-01
5.371106946495973755e-01,-3.669406970509711541e-02,-7.187814092459721138e-03,-3.674099608634958086e-03,2.142492276220031838e-03,4.213433983205998323e-03,5.597313642501831055e-01
8.765959293768114113e-01,-4.452991239695558434e-02,-5.324800894086101355e-02,-1.691550334529172070e-02,-3.478156672297769841e-02,6.481229032513480259e-02,9.347025752067565918e-01
5.369031642907197144e-01,-3.498450229154384528e-02,-3.537715347617056971e-02,-2.242828378082116058e-03,-5.050027351743330978e-03,3.352798188266075188e-03,5.721936225891113281e-01
4.878814792544738377e-01,-3.405500569066280403e-02,-4.637208918029289695e-02,2.665904449803369221e-03,1.520287292394628155e-02,-7.740222435869258816e-03,5.290487408638000488e-01
5.515227605075905259e-01,-5.178629397947823176e-02,-3.803470834090244557e-02,2.630213465741321113e-03,3.825759430915680499e-03,-2.649239076930822237e-03,5.966240167617797852e-01
5.566132528221512388e-01,-4.900120958950260341e-03,-2.865962347079328842e-02,4.664746393500350356e-03,5.184641008759612209e-03,4.676178133639036227e-02,5.795765519142150879e-01
8.282961216136418559e-01,-1.167471116286097899e-02,-9.840918771580922653e-02,-7.051787033228268387e-02,-1.435712302394571288e-02,5.349102662908274131e-02,9.000271558761596680e-01
5.213511883722623530e-01,-3.419680477249650852e-02,-5.642644219786535631e-02,6.326605508903200732e-04,-1.621772646610288536e-04,5.628486148316563060e-04,5.669916868209838867e-01
4.799164780395493990e-01,-3.299930452960972427e-02,-4.402443468126113202e-02,1.327830006710250220e-02,-2.138427661280078301e-02,8.947483084578636628e-03,5.205767154693603516e-01
5.538369314423041700e-01,-5.345036813890555183e-02,8.525516884016953734e-03,5.228185210828017798e-04,-3.012908444747166778e-02,8.689675483531542283e-04,5.811437368392944336e-01
5.206743926434628245e-01,-4.066971366851546144e-02,-3.410590227939097607e-02,2.003396111752359272e-03,-2.919932071322983410e-04,2.598874205155939044e-04,5.581023693084716797e-01
6.097833803123815510e-01,-7.626527153802822867e-02,2.413017894153168807e-02,2.799447086755803282e-02,5.970404005911182470e-03,2.326585839185279711e-02,6.449401378631591797e-01
5.704569809003798841e-01,-4.612594037650818990e-02,-1.343355074280391803e-02,-1.608844533837215998e-02,7.384647941998015441e-02,-1.305879252866267055e-02,6.154134869575500488e-01
4.958861752458779137e-01,-2.968485168396745033e-02,-6.055502262881540254e-02,-3.218208815618828298e-03,-6.646525762412592610e-03,-3.118851151827781859e-03,5.418441891670227051e-01
5.384263848853090284e-01,-5.293524816667691257e-02,-1.085317820926937071e-02,4.073627318744178424e-03,-1.364578453462845543e-02,2.692700265446200739e-03,5.720348954200744629e-01
7.145082921218236516e-01,-6.235795601236449048e-02,-5.868270647513385008e-02,1.312238423260152775e-01,-5.324526434827211996e-02,-8.114499994699429786e-02,8.249831795692443848e-01
5.499718812479135188e-01,-5.032019568114420860e-02,-5.632134540858646510e-03,-1.935113839273077058e-03,-8.040534277162171908e-03,1.890954633909096684e-03,5.794287323951721191e-01
4.943757977943942783e-01,-4.470429046873725110e-02,-3.917613505538958263e-02,6.171113702945098603e-03,1.321744758758778052e-04,1.033548601266895232e-02,5.367425084114074707e-01
5.730341552307072206e-01,-6.638034141216433981e-02,6.653575189068006157e-03,-3.411180060576284728e-02,-1.084823785217573638e-01,5.703846385148335363e-02,6.450133323669433594e-01
9.044221204239473177e-01,-1.225346641145045323e-01,4.592643612267799380e-03,2.189256823372529373e-02,-1.699796195874710147e-02,1.368517904713206779e-02,9.711405038833618164e-01
5.417382932709340349e-01,-5.920378273070497910e-02,2.475106133190402291e-02,6.464191469466168405e-03,-6.956851543521274002e-03,-4.306530739034447608e-03,5.639627575874328613e-01
8.201757598326925303e-01,-1.348206762248819468e-01,-1.172389659791939209e-03,4.292582627185985433e-02,-1.030183028316532245e-02,-2.810808662082437889e-02,9.002571105957031250e-01
6.006438460337000240e-01,1.006322237153006727e-02,-6.562575223575745076e-02,-1.751410024551546679e-02,-6.206762402203210190e-03,2.195484474480699499e-02,6.337953805923461914e-01
5.721950368839354706e-01,-6.385908013126481708e-02,4.349469592490448622e-02,-6.270372077831039108e-03,-1.342542497246980784e-02,2.023974443951128549e-02,5.913497209548950195e-01
5.081540775790645004e-01,-3.696855115909741807e-02,-5.363496929802763491e-02,-4.008461104926949563e-03,7.385686373319757733e-03,8.596133860137604096e-03,5.540354251861572266e-01
5.177645823249668044e-01,-4.551469587433970565e-02,-5.587834230518842760e-02,4.039577879723023519e-03,9.057486320778486422e-02,9.132565656617779720e-03,5.900331735610961914e-01
5.978995280099552723e-01,4.436851076358078183e-03,-7.549702596258131559e-02,-2.048409203137360832e-03,1.885797162236483096e-02,-2.567489355827691153e-02,6.395953297615051270e-01
6.078131271127643620e-01,-1.758128775219219841e-03,-5.233677654917301414e-02,-4.811358864016863218e-03,-8.459247034651969695e-04,-1.590075499528844499e-02,6.370217204093933105e-01
6.154293466419374914e-01,-1.038997706397033205e-01,1.435071179293320731e-02,-1.807468190697577096e-02,-1.318052109117300030e-01,2.781769188923442770e-02,7.083614468574523926e-01
5.392243013550748199e-01,-4.349171153313066696e-02,-2.641912009167290964e-02,2.908727034857337777e-03,-9.722016136842865155e-03,-6.363389012787288050e-04,5.746399760246276855e-01
5.433362767256285641e-01,2.605121666248388923e-02,-5.329221901036901299e-02,-5.393538099253371992e-02,6.947077224511052917e-02,-3.835302667109265901e-02,5.852699279785156250e-01
5.377949674080582110e-01,-4.497997226627917233e-02,-3.697704193140827211e-02,-2.180001572732592763e-02,2.440187963318884642e-02,-1.287740071701910360e-03,5.815873146057128906e-01
6.472264554614972631e-01,-4.623534939781764885e-03,-2.760344783620874431e-02,4.994875949897249756e-02,-1.015516257815967174e-02,-5.126292633875404597e-02,6.753470301628112793e-01
6.283740035448424077e-01,-4.742340427501429145e-02,-8.077001539796613283e-02,-1.000541716687981461e-02,8.733857897656034652e-02,-7.869540503754357541e-02,7.225738763809204102e-01
5.134621778024776040e-01,-4.052321023285632151e-02,-3.779654575488003432e-02,-3.317554471383804722e-03,-4.087252405971331624e-03,-2.278632983926551399e-03,5.527164340019226074e-01
5.546450480821785156e-01,4.081714905782779512e-02,-5.871221955714087115e-02,4.096137886051707394e-03,-6.991074087581178754e-04,2.135440004356608731e-02,5.713895559310913086e-01
8.188707954207476991e-01,-1.184443393814442191e-01,-2.031636819942633787e-02,5.871246634361156763e-02,1.216028241708033177e-02,-4.890152570558219114e-02,9.023143053054809570e-01
8.878297277284352695e-01,-8.400224646349796487e-02,-2.163173235301091291e-02,-2.652943765393612192e-05,2.142051661724678376e-03,-4.377505104501151073e-02,9.452493786811828613e-01
2.841477700586673705e-01,1.353366359617744208e-02,8.509326725377616696e-03,-7.686953413685605578e-03,5.316826439190043899e-03,2.380633815395022824e-03,2.736712694168090820e-01
2.872676712872292981e-01,2.677080596565933890e-03,9.817882584008563729e-03,-2.041466266677526009e-02,1.154057143366386123e-02,3.576357445647026720e-03,2.840753197669982910e-01
4.763875160410182552e-01,-4.934160166722997842e-02,-2.830727899392651570e-02,1.539256915612694301e-02,5.955386061025771472e-04,-7.312164350838005686e-03,5.163791775703430176e-01
3.039609395648031898e-01,-1.568088625968408478e-02,1.140706049511872044e-03,3.551164510609895048e-02,1.420376428098686292e-02,2.800792936876379726e-03,3.185733556747436523e-01
2.544045156802484664e-01,-6.856865172056089697e-02,-4.493866878604932391e-02,4.503941335085869663e-02,-8.518256881004995784e-02,-3.850938789999163586e-02,3.599179983139038086e-01
4.837533058264249508e-01,-3.315871751395771394e-02,-4.390885893932161554e-02,2.208856227420792195e-03,-6.591837805996669276e-03,8.820276905304577988e-03,5.227321386337280273e-01
2.974638786972850779e-01,1.007874315055459769e-02,4.922635346520876087e-03,6.646763748670960273e-03,8.374177502987475248e-04,7.701596550177300209e-04,2.902326881885528564e-01
4.137150318054280129e-01,1.712991810294219042e-02,-4.380155561532389497e-02,7.751322298585548720e-02,1.447930228810300618e-02,-7.573763567228317985e-03,4.516445994377136230e-01
6.097704768617534521e-01,-1.246769175525779538e-01,3.730886387604928633e-02,-1.508692132753718454e-02,-4.856854090336220481e-02,-1.963557405756768612e-02,6.749804019927978516e-01
1.729384393185477431e-01,2.315926752070150696e-02,1.083120919564838774e-02,-2.697708426574204829e-03,-3.498780233857844840e-02,-5.955502817115919086e-04,1.677128672599792480e-01
3.304176211656846274e-01,1.379922060501262426e-03,-1.578867338242902207e-02,2.815398857220539983e-03,-3.513751312430422186e-02,6.530300985823817711e-03,3.436063528060913086e-01
5.111350310351469028e-01,-3.660732060270577293e-02,-2.984523322380838728e-02,-9.224258759758298745e-03,-3.479902149388163640e-02,2.486557619219514448e-04,5.479524731636047363e-01
5.250939470458942937e-01,-4.518896615196224542e-02,-6.051671317868312361e-02,-4.872066192104963778e-02,-6.265786995128337124e-03,8.077648643176773115e-04,5.843282938003540039e-01
3.032200331639248736e-01,1.249717947513157013e-02,7.069512698932023387e-04,-2.521653330264794681e-03,2.080408558451911014e-02,1.235090767808106043e-03,2.990126311779022217e-01
3.217638870179065358e-01,-2.910088330666374401e-03,-4.374025891963617685e-05,2.311398392209415217e-02,1.997000218884208492e-02,7.248173973203367836e-04,3.275538384914398193e-01
3.222518135816377916e-01,-4.527285063626138029e-03,-1.201803635037940188e-04,1.526638796663555911e-02,1.644034918392319258e-02,1.879574519329745127e-04,3.269158899784088135e-01
2.959147483471867290e-01,5.839372166400819131e-03,1.608819121326182655e-03,1.033828855072571259e-02,1.371737573031591578e-02,-7.143986259498098963e-03,2.939847707748413086e-01
2.847599089765365243e-01,-4.783972306345030123e-04,2.227481670034656136e-03,2.902223759487991203e-02,6.078626076659444585e-03,1.454473918720898150e-03,2.885142266750335693e-01
6.216701498994005037e-01,-7.010702182718964171e-02,-5.958975771742566763e-02,1.528268361210415871e-01,-8.705119503317859664e-02,-7.360168663185730209e-02,7.618688344955444336e-01
4.307878962410406354e-01,-3.451958651705713810e-02,-6.752507334964547026e-03,4.331715421619507949e-04,3.304473041128170446e-02,1.452106492822961576e-03,4.556803405284881592e-01
5.383125515092948010e-01,-4.940713455670797671e-02,-4.223549644557975102e-02,1.237474286014314138e-03,-8.940315884646513490e-04,-4.910583407573480656e-03,5.842347741127014160e-01
4.496447833107179437e-01,-3.293932460568432807e-02,-2.764659374366229549e-02,5.474054094320780252e-04,2.954035746455373353e-04,1.092000915358550157e-02,4.803333580493927002e-01
5.046604821132778529e-01,-5.170282256659441966e-02,-2.938757335503192070e-02,9.784505600318696428e-03,-3.954865467623761119e-04,-6.983367857700999506e-03,5.459457039833068848e-01
4.606922998829855453e-01,-1.805930484790477242e-02,-4.726443076057434967e-02,-3.640902580081296371e-04,-2.060033148057690416e-03,-1.520891082852846672e-03,4.940223693847656250e-01
5.186903209440735241e-01,-4.830720238247895870e-02,-4.208046410705701401e-02,-4.931498431490420305e-04,-1.099203843087927365e-03,-2.960399875721179009e-03,5.639371275901794434e-01
5.207994463178140521e-01,-5.148104525582944402e-02,-4.228786592369213060e-02,-3.896164094457528742e-04,-1.210579607572671466e-03,-2.556592109618282659e-03,5.677612423896789551e-01
5.150056494687951236e-01,-5.346879389693409701e-02,-3.877445585316868781e-02,-2.284988658941868034e-03,-1.607228687809816522e-03,-1.784964793847382139e-03,5.613009333610534668e-01
4.575599856791519593e-01,-4.291927910474896413e-02,-1.974078089141048653e-02,2.952536555248602354e-02,5.550864496011239865e-03,1.063384424841225077e-02,4.924056231975555420e-01
5.622722452463762011e-01,2.385947245664871152e-02,-7.739186122208471796e-02,1.175750522847527901e-01,-4.078329417722509342e-02,-3.795178808650393615e-02,6.367399096488952637e-01
5.293860387668630763e-01,-3.075641040314858188e-02,-2.797453982410239015e-02,-7.531009372044588247e-04,1.358074900533430725e-03,-3.018232189578130571e-03,5.587876439094543457e-01
5.829198002015066882e-01,-2.380015816696623432e-02,-8.794328229333964186e-02,1.605273332968535360e-01,-3.412733003251249703e-02,-5.809840629544282126e-02,7.085673809051513672e-01
5.219917274893904890e-01,-5.393224499742521605e-02,-4.008472758618275567e-02,-2.091120140242793638e-03,1.545052230104343016e-03,-1.806797924375128919e-03,5.691530108451843262e-01
3.366553259872067105e-01,7.328565657974128733e-04,-7.546484329344987918e-03,-2.063576819190093056e-03,-2.885303983169039410e-02,-5.865897665808159599e-03,3.439580798149108887e-01
4.976216948628028325e-01,-3.140879052013983985e-02,-5.246859260825437188e-02,-5.178133700003425578e-03,-8.791822641475590880e-03,-5.643535476919771775e-03,5.402461886405944824e-01
4.497403240288508353e-01,-3.357379075241712085e-02,-2.775807266734561796e-02,6.608912237827932251e-04,3.152883280209515409e-04,1.055012508696274824e-02,4.807817339897155762e-01
5.259407270563846160e-01,-5.772635973042727908e-02,-3.525433470491459720e-02,-4.890037483153975238e-07,-9.142522214069315808e-04,-3.679665838920950002e-03,5.727994441986083984e-01
5.309170807150487281e-01,-1.006372005980156747e-01,1.921719516451678156e-02,5.254978370382474423e-02,-1.115768439342768176e-01,-2.856054877727767088e-02,6.209759116172790527e-01
4.814505412934849682e-01,-3.558577121257314180e-02,-3.897522458072824603e-02,-1.223328795194615539e-04,2.442527099525435095e-04,1.060496084973314157e-02,5.190646648406982422e-01
4.293935800902386468e-01,-7.565322673906804685e-03,-4.060867341693155663e-02,-5.391922614695604694e-03,-2.068546161199142849e-02,-9.598899530009558090e-03,4.561916589736938477e-01
3.271830276869397980e-01,7.584296975802137797e-03,-1.285754794331592232e-02,7.672837769004135604e-03,-4.022144773534936518e-02,1.886041682787526581e-03,3.378387093544006348e-01
3.816296206930266943e-01,-7.338594514978534489e-02,-2.977427339069671497e-02,1.018637044103026940e-01,-8.692913683976571937e-02,-6.756501406512310792e-02,5.065480470657348633e-01
5.342602502020208366e-01,-3.885272971642625417e-02,-3.906655913584619610e-02,6.309756877924313674e-03,3.400298116217705113e-03,5.143050502358477655e-04,5.733550190925598145e-01
5.245629625072024682e-01,-5.008702492839225973e-02,-4.479429984003835408e-02,-8.479841313399247640e-03,-2.824465359165783881e-02,-5.594318128863459000e-03,5.743796825408935547e-01
5.347000006171641617e-01,-2.047226056891471302e-02,-4.023232535018930744e-02,-3.704426421064059300e-03,4.697238629568716885e-03,-4.304560987793606269e-03,5.654554963111877441e-01
8.029964088150824963e-01,-1.022153522713608320e-01,-3.121187881399770103e-02,9.529137286852643052e-02,-7.043099714191393412e-02,-6.610122196846988929e-02,9.029992818832397461e-01
3.288531183931462376e-01,-8.855393665350846932e-04,-1.529450317651877278e-02,8.969304156858193960e-03,-3.450243403095750588e-02,7.554692659203814803e-03,3.430309295654296875e-01
5.371372713396294074e-01,-1.960346492794737272e-02,-4.758171990307841215e-02,-1.146712642908741253e-02,9.001948615872530993e-03,1.860033175190347341e-03,5.718108415603637695e-01
3.658760601692908621e-01,-1.813332242819902518e-02,-2.582935590538872062e-02,-5.199253039745790200e-02,-4.616051093964067958e-02,-1.079743268348961824e-02,4.066074192523956299e-01
2.889360501494787070e-01,2.930106369084084506e-03,-1.383606952670486667e-02,-2.713949844953902901e-02,-1.998104638170080521e-02,-3.296872386473071598e-03,3.005257546901702881e-01
5.281267328543644002e-01,-4.006002749413442587e-02,-4.166910653905830930e-02,8.097322178825885203e-03,-4.991553796953836827e-04,1.241345926384888106e-03,5.691705346107482910e-01
5.331604645910136275e-01,-4.910288923192951405e-02,-4.275656854463399936e-02,1.121508523852215522e-03,6.026203138987369732e-04,9.549614933754798415e-04,5.791228413581848145e-01
4.130865708988505913e-01,-3.257636020601806237e-02,-4.781314762419727749e-02,-9.485492729487186858e-02,-9.019384339799747796e-02,6.134291449049139588e-02,5.180000662803649902e-01
4.503047798054476414e-01,-4.632234445959303171e-02,-3.969599719304052476e-02,-5.314955681407972088e-02,3.853545148051448765e-02,2.671883797931716474e-04,5.062819123268127441e-01
5.336362279952123755e-01,-4.808771546508422423e-02,-4.448785571819674489e-02,6.931264946807489096e-04,-7.592315529733682355e-04,2.562135416135105865e-04,5.799353122711181641e-01
8.398660816421328335e-01,-2.754021217010324540e-02,-1.026168433877420461e-01,2.510146227582130823e-02,5.400337461522686233e-02,-5.336532400815994365e-02,9.177881479263305664e-01
5.383640308285747578e-01,-2.126138575416908205e-02,-4.355421653922922354e-02,-1.485672935660107413e-02,1.647652702244320629e-04,2.798007610833059880e-05,5.716777443885803223e-01
5.637825717742682707e-01,-5.556694794272981630e-03,-5.590605334180454022e-02,-3.682068272460788799e-02,-2.050036369154053725e-02,2.752180046854356410e-02,6.024520993232727051e-01
5.328731283570846688e-01,-3.739639112570367074e-02,-3.002727101990546044e-02,-1.704661618116682284e-05,3.210357091050438511e-03,-1.198901962180966459e-03,5.666519999504089355e-01
5.319318330532005756e-01,-3.798701023180711678e-02,-2.831890539278608676e-02,1.683156126233055581e-03,1.033442037129818619e-03,-1.249716880207951556e-03,5.651612877845764160e-01
5.111817521904198358e-01,-3.304588441784567232e-02,-5.340253703113678752e-02,1.156257114122211842e-03,4.241890868840334644e-03,4.678000365081056398e-03,5.547976493835449219e-01
7.101667196599421583e-01,-5.478363612907999336e-02,-8.102309381028338642e-02,-5.496676154596046721e-02,8.912996510591705834e-02,-6.369867358130223978e-02,8.068323731422424316e-01
5.191637307887212449e-01,-4.085032331668575489e-02,-5.286172468064864738e-02,3.684643069973317104e-03,-3.044458318550428109e-03,6.358392975284267445e-03,5.662829875946044922e-01
5.309677328044013489e-01,-3.282278401450355876e-02,-2.672864642913094779e-02,1.788307809703927002e-03,2.434510974979141665e-03,-2.223667282527177352e-03,5.608059167861938477e-01
5.459936524795612200e-01,1.189691910531801011e-02,-5.283860270517440338e-02,-1.149660815645551018e-02,-1.732197876891587544e-03,3.231059870467282123e-03,5.696155428886413574e-01
6.497888846610125890e-01,3.259088283022151811e-02,-1.144211457741766413e-01,1.206750126033289718e-02,1.892068878591702738e-02,-1.978325477610659924e-02,7.042488455772399902e-01
5.323256976887037473e-01,-3.811548874889383876e-02,-3.903426228217829475e-02,1.919999354963397575e-03,-9.574402719703648977e-04,-2.259125053070298005e-03,5.709266066551208496e-01
5.332854714033546939e-01,-4.351234095987435713e-02,-3.915066270500575096e-02,-9.778229408778406351e-04,1.610587519018473295e-03,-1.813443216007655415e-06,5.746386647224426270e-01
6.170510389206357305e-01,-2.473479820611698687e-02,-6.265622727644010181e-02,-6.091991412853033604e-03,-6.479523873853136606e-02,-5.282910668597874670e-02,6.773063540458679199e-01
8.251584959826613330e-01,1.324769811723777724e-02,-1.375617834814610030e-01,1.118529146515048617e-01,-7.837120542542683893e-03,-2.003544946915031613e-02,9.183181524276733398e-01
6.257267021225131343e-01,2.985057181121633652e-02,-6.805790812790948885e-02,3.861844935533601019e-04,7.642258864096412342e-03,-9.176800280897203649e-03,6.507104039192199707e-01
5.581088483098884945e-01,2.674441102666302861e-02,-6.315439224135080409e-02,4.817668889508222065e-03,2.503419472212703185e-03,1.655609421806755266e-04,5.816248655319213867e-01
5.434142884261602413e-01,1.671723825375459604e-02,-3.820597323223545727e-02,3.447496051552838368e-03,-1.886854689167606538e-03,1.979573049246757463e-02,5.572936534881591797e-01
9.339365316930879901e-01,-2.531130616774890374e-02,-9.619701584499656954e-02,5.521543713493883704e-02,4.038915321174939288e-02,5.756824710238325760e-02,1.008543729782104492e+00
8.531590638481176825e-01,-5.832970981928903287e-02,-1.943996718575774496e-02,1.007485047692674857e-01,7.651438305389973715e-02,7.242140028696301968e-02,9.276989698410034180e-01
5.761420477885894620e-01,2.376898938142898987e-02,-4.917924903108347734e-02,-9.960197822768593334e-02,-5.143989435513450503e-02,4.313857945793552612e-02,6.277059316635131836e-01
5.706681978855780990e-01,-3.310786931542539224e-02,-2.940315481105040818e-02,-1.049283769122159003e-02,-1.129026136783253809e-02,1.863632849768405778e-02,6.033880114555358887e-01
5.053313780720789516e-01,2.074448136243758900e-02,-4.401539633650705663e-02,-8.049392702293653445e-02,-1.282534489156345915e-02,3.131798559334533771e-02,5.415475964546203613e-01
7.212320683319476400e-01,5.631298342485435704e-03,-1.273744568260266330e-01,7.271600992421027587e-02,5.914375742641472117e-02,1.430102317462557567e-02,8.074183464050292969e-01
5.261817665187180637e-01,-4.052650063336121766e-02,-4.006856319199827987e-02,-5.061451742724714861e-03,-3.063413045218531250e-03,-1.456272099194112985e-03,5.665777325630187988e-01
8.454397589179358796e-01,3.498049215554799307e-02,-1.387601874486384945e-01,-6.710008745295747978e-02,3.553454422858107892e-02,1.886746462627993809e-02,9.198929667472839355e-01
5.393968241831432753e-01,-2.567632211283094046e-02,-4.646158544059222906e-02,6.465797771279722939e-03,-2.565596694913896674e-03,-9.760766532837958582e-04,5.758757591247558594e-01
5.876020698367455664e-01,1.953510724782114849e-02,-7.896187791873632289e-02,9.986070386087914780e-03,1.931858247785516597e-02,-1.798233602690392507e-02,6.250947713851928711e-01
5.395716921271757061e-01,7.287378230650176647e-03,-5.217596170019120350e-02,9.669789929339244264e-03,-6.648184261907522487e-04,3.453820668867851103e-03,5.646516680717468262e-01
5.483055744142637522e-01,-6.976826737220082064e-03,-7.997977815283718872e-03,-9.801441030608712759e-03,-1.159297153177063153e-02,3.733153521500572058e-02,5.601597428321838379e-01
5.320873282561781048e-01,-9.591943281324288861e-03,-2.247686775032275985e-02,-2.895708353115373623e-03,-3.579810554859969712e-03,2.121897723528464244e-02,5.495237112045288086e-01
6.119839180461505990e-01,1.672388865029264537e-02,-3.289198282895100522e-02,-3.642978772861803216e-02,-4.538573751487092606e-02,6.082973546235222184e-02,6.384295821189880371e-01
5.839437339298134688e-01,1.062204103717243053e-02,-6.066502579043764332e-02,-9.623138468230447995e-02,-4.877809984177654268e-02,5.937369427765631924e-02,6.481859683990478516e-01
5.931512453756180303e-01,8.839916569443023731e-03,-2.659696138272768517e-02,-9.097994548363928791e-02,-7.469318954193274185e-02,5.738185651725452585e-02,6.440721750259399414e-01
3.301213389792791442e-01,1.865845677731209351e-03,-2.798678914408940510e-02,2.500220961302206286e-03,-2.991599575297224436e-02,6.886450443343491816e-03,3.482643663883209229e-01
9.159692488736266291e-01,7.328302385275153874e-03,-1.418865619019969437e-01,2.333084404181733768e-02,4.048492141358549928e-02,1.526759600516268238e-02,9.953519701957702637e-01
5.292678696873300837e-01,-3.213413411285062637e-02,9.225634822392220213e-03,3.854552603996198173e-02,4.273775773470815664e-02,4.422226917652447714e-02,5.562976002693176270e-01
9.011185840807249825e-01,-4.610034503056470445e-03,-1.126081785707491179e-01,-8.612248110906082360e-03,1.582806551919104660e-02,4.723787064983291095e-02,9.682423472404479980e-01
5.388250795773497082e-01,-3.930078368281847423e-02,-3.727125146068116512e-02,-1.479194668829338078e-04,-1.784258409836456593e-03,-9.262402564229265615e-04,5.771243572235107422e-01
5.253517562991907308e-01,-4.130770668962058245e-02,-2.771809140879466504e-02,3.512181036325528593e-03,2.009057436430749469e-03,2.465951428484096483e-04,5.600323677062988281e-01
5.296980271228759474e-01,-2.258702015286481735e-02,-2.477023122698257529e-02,-3.756700934877616697e-03,-4.161774701579841994e-03,1.168780312348581801e-03,5.534687638282775879e-01
6.987299703694659359e-01,-4.989401009897223571e-02,-2.222881576647686708e-02,1.222969840021120996e-01,-5.001699870188384273e-02,-5.609060427712653230e-02,7.760835289955139160e-01
5.336454610510463770e-01,-4.667898685556909344e-02,-2.595440085098207894e-02,4.979420796882490577e-03,6.900874583663658404e-04,-4.793497564989177701e-04,5.703117251396179199e-01
6.732585405113046262e-01,-1.265097742621796861e-01,1.616773543852295658e-02,6.859504373973951408e-02,-1.235345673421164442e-01,-2.913785671084510517e-02,7.799503207206726074e-01
6.773809468592068006e-01,-1.246077928713943128e-01,9.618930725880936450e-03,6.126077710509219426e-02,-1.282906968927174929e-01,-3.208391235780040651e-02,7.856696248054504395e-01
4.508667163748630857e-01,-4.709181392677835865e-02,-1.630011110874937663e-02,1.979579032729275254e-02,7.509868195865050146e-03,-2.658020257489992957e-03,4.847100675106048584e-01
5.317643948799362086e-01,-3.459361512173317332e-02,-3.487758082207337296e-02,-6.779549750639008582e-04,-2.009205468194305501e-04,5.011960503521911432e-04,5.665020346641540527e-01
3.977161006435866453e-01,-1.611001580566122360e-02,-3.747707683252339550e-02,9.336496347828741188e-03,-6.447123446237788824e-02,-6.623338204095277452e-03,4.397881329059600830e-01
6.037058807071887800e-01,-6.664440149226988352e-02,-4.647047812177290682e-02,-5.327168634653337009e-02,1.208505200663972379e-01,-7.208831507851605480e-02,7.100501656532287598e-01
5.213255760034856134e-01,-3.348973493592380390e-02,-4.416361482029848573e-02,-2.922542506016315503e-02,2.137079567163123472e-02,2.600184070881537361e-03,5.637453198432922363e-01
3.953554953277524930e-01,-2.067385911838706680e-02,4.575995945818506216e-03,-1.012134263133065981e-01,-1.833465905454802480e-01,2.955734973794307482e-02,5.453572869300842285e-01
2.823688145705803287e-01,6.662816174932070790e-03,2.028139841502185625e-03,6.065444059259249981e-03,3.048465199966336400e-02,2.652931950296043111e-03,2.832534313201904297e-01
5.271677416481467260e-01,-5.507326242611879086e-02,-3.876812696207079800e-02,-5.764162758494142252e-03,5.871056893924624792e-03,-1.462627949410771119e-03,5.744444727897644043e-01
5.240815358856308892e-01,-4.365095152846193427e-02,-3.976054200709466802e-02,4.212271171823610207e-04,1.184920785598178638e-03,7.113426492813166527e-05,5.658015012741088867e-01
5.283815507926322708e-01,-2.966163814392494547e-02,-1.409067394827867581e-02,1.812800508035562232e-03,4.273754836037488639e-04,-2.940389623619271958e-03,5.504559278488159180e-01
5.959531037803598164e-01,4.054759291893969553e-02,-9.731149110777662092e-02,7.639959043629837576e-03,4.203608855664982269e-02,1.555934210184193277e-02,6.405080556869506836e-01
5.122525000854679655e-01,-4.740918218450387855e-02,-3.633336063757294787e-02,-5.838127637094887162e-02,1.108918751370431034e-02,-7.809062218559729854e-04,5.636852383613586426e-01
4.818571329089841870e-01,-5.409707263018542767e-02,-2.350916465835467539e-02,-1.102247965185314781e-02,3.922073435484979553e-03,2.798190956535019040e-03,5.217498540878295898e-01
4.428629565381047017e-01,2.384548324820329190e-02,-9.551374056463714235e-02,-1.505681666084277837e-01,-1.858776420008741506e-02,2.246831398714158393e-02,5.571348071098327637e-01
5.302283858031692221e-01,-1.974398295322404850e-02,-3.209928411666884696e-02,1.867805740483483717e-03,1.826321001994467199e-03,-1.059280701333054076e-02,5.565738081932067871e-01
7.126198514290009722e-01,1.402027835791705423e-02,-1.286977656692475658e-01,-1.231785795434895414e-01,8.564936089746701814e-03,2.281555482399637291e-02,8.095759153366088867e-01
5.411077519676263936e-01,2.958810909602871408e-03,-5.274146083687691888e-02,2.257935077718796653e-03,1.622807106154464107e-03,2.008349361499149176e-03,5.680819749832153320e-01
5.373488625881995828e-01,-7.835197550763867147e-03,-4.107166768236136800e-02,1.215162741828199446e-03,-1.549015781297213932e-03,2.527016427122415112e-03,5.625665187835693359e-01
3.320918637127453499e-01,-3.362285576206106019e-02,-2.416401296562445400e-02,-4.576384662835854961e-02,-8.012395452668752416e-02,2.744169323199854155e-02,3.977174460887908936e-01
5.289637756229329524e-01,-5.281230881059090221e-02,-2.984910963725306843e-02,5.448543432909502653e-03,-4.194703311899788262e-02,7.898220263278677572e-04,5.753267407417297363e-01
5.827416580887943010e-01,-3.507017279963631218e-02,-6.680995013036805652e-02,-1.763179195674657862e-02,5.661629336221430525e-02,-1.660568872136938129e-02,6.431828737258911133e-01
5.061218511512556306e-01,-9.122489777622028173e-02,-1.840312943630523224e-02,-6.747922160923944257e-03,1.369117299954276390e-01,-5.039472149123444544e-02,6.185598373413085938e-01
5.452487376190204849e-01,-4.731674157346169030e-02,-2.010586526280949693e-02,8.339734307971755425e-03,2.868073832346442614e-02,7.193746385548123803e-04,5.817456841468811035e-01
5.050570823288703659e-01,-5.846473732511572874e-02,-2.998647616381802661e-02,-5.357350966361823334e-03,4.177820610115155937e-03,5.417573705889460779e-03,5.500420331954956055e-01
5.098236658029365875e-01,-4.567013931118257819e-02,-2.349671746390533111e-02,-5.862956214406802105e-03,1.247941044051455693e-02,-6.996460578970182045e-03,5.454035401344299316e-01
5.145793476318535342e-01,-4.765527323834922724e-02,-3.936129160736759336e-02,1.589348378487804225e-03,8.160355081387318105e-03,6.910130231576275955e-03,5.584478378295898438e-01
5.397882277590806410e-01,-1.623183852630172286e-02,-2.214084441893315880e-02,-5.759777243396900503e-03,1.067570311278806701e-02,-2.306421945103395710e-02,5.608173012733459473e-01
5.271009163116538998e-01,-2.063950516141171976e-02,-2.660377966575272479e-02,4.728147681798499204e-04,1.530972010001211900e-03,-2.611011257966874746e-03,5.507723689079284668e-01
5.514011367875407688e-01,-1.879160326461004615e-02,-5.823106414721757051e-02,-4.236454879305987138e-03,2.104589756633826192e-02,-3.020283725107159034e-02,5.943757891654968262e-01
5.410961261572968528e-01,-3.716406365646535148e-02,-4.448153321982503683e-02,-1.462344323875494796e-02,6.246492606685024457e-02,-7.740426385901251830e-03,5.926184654235839844e-01
6.111313327255899486e-01,1.382173453684792941e-02,-1.276527349645170673e-01,-1.138541128271182423e-01,7.269301858029889041e-02,-2.852013751583514639e-02,7.200549244880676270e-01
4.536533502647720484e-01,-4.971909042196454021e-02,-2.101649334961067095e-02,-1.860797600012887784e-02,8.745524557341139565e-03,7.482229797868849078e-03,4.911168217658996582e-01
3.118530517607978059e-01,-6.743097536954817395e-03,-1.389136942731254709e-02,-2.412871878704853437e-02,3.439282892788296520e-02,7.185985077441004766e-03,3.305784463882446289e-01
8.402922093061052644e-01,1.107225426534103052e-03,-1.246071776060105607e-01,-7.619157886261074264e-02,7.459088999864868508e-02,-5.436727390584354669e-02,9.319374561309814453e-01
8.265927898782003957e-01,-3.117145476891819422e-03,-1.415671778939240344e-01,-6.629677247253053241e-02,5.036912935712218459e-02,-3.802134776084396123e-02,9.206487536430358887e-01
3.646891820168136622e-01,-2.618661207479128228e-02,-1.573642269319711073e-02,2.479484941809537504e-02,9.686391274415447061e-02,1.176211894431965742e-02,4.233386516571044922e-01
6.351647058041502980e-01,2.574633075415741490e-02,-1.108907545642830450e-01,3.836255624604886783e-02,6.438155443207857487e-02,-5.267592431373529366e-02,7.060480713844299316e-01
8.162526779988308334e-01,-7.337273675032285336e-03,-1.293745685104400744e-01,6.322459152501949675e-02,9.385110124611101279e-03,-3.695104887119052273e-02,9.000303745269775391e-01
6.609882856538554785e-01,-3.202719054504199470e-05,-1.291616099084337554e-01,1.461943574026606518e-01,8.344431776166278195e-03,-1.634673503935117622e-02,7.772441506385803223e-01
8.664891075552687560e-01,1.397349609870471299e-02,-1.443279607232487716e-01,3.790523402784846778e-03,4.439043213261925636e-02,-1.244500600437761957e-02,9.451010227203369141e-01
5.374524589931900520e-01,-1.025267004950491945e-02,-4.024522646015415983e-02,2.393502305617205630e-03,2.172353435005780823e-04,8.762701629820217157e-04,5.633180141448974609e-01
9.128632754568666297e-01,7.599458558683214182e-03,-1.386700299714761497e-01,2.432883725036017949e-02,4.168101974622646921e-02,1.388331474731295014e-02,9.903916716575622559e-01
6.010383281396418642e-01,-6.030482375814860685e-02,-3.438289449802234277e-03,1.409110954125224364e-02,1.825992236808813007e-01,1.698794241238678684e-02,7.102739810943603516e-01
5.341023551736203689e-01,-2.754237356623551181e-02,-3.080215197072305733e-02,5.846984763720107720e-04,-2.785439808582077827e-03,-5.943854357054614108e-04,5.633041858673095703e-01
5.312495085240060977e-01,-3.934147598346329766e-02,-3.599361813951651445e-02,2.630752593252617694e-03,5.702050131256291600e-03,4.449139548149654965e-04,5.690289139747619629e-01
5.335995585021897636e-01,-2.726214377182720194e-02,-3.343003450149828470e-02,-2.530963776221099230e-04,7.812682382221328853e-04,2.853927611542335461e-03,5.639944076538085938e-01
4.056799146227962893e-01,-3.345153238227174808e-02,-1.370443812964541874e-02,-3.514157794234251675e-02,-9.176992942633512181e-04,1.401009911072256288e-02,4.345698654651641846e-01
4.631829140780407972e-01,-1.285397149989334076e-02,-4.182349219914557881e-02,5.834373543606823781e-02,8.464022414276764494e-02,6.734082641522400048e-03,5.225713849067687988e-01
3.243676884715753772e-01,-3.868793168273931826e-03,-1.618425719543833963e-03,2.890555761579153855e-03,-1.189914372881558562e-03,8.672850601494870582e-03,3.275066018104553223e-01
5.022718282438969339e-01,-6.041384643084293793e-02,-2.867357115887653185e-02,-2.497150317820958851e-03,-1.027211984311642706e-03,-1.104254471552534259e-03,5.475293397903442383e-01
3.002355587102896184e-01,-1.281830479713391702e-04,-1.661890852812365760e-02,2.133292034378008947e-02,4.546502115420571200e-02,-3.509687761391868440e-03,3.210093080997467041e-01
3.787553659478869461e-01,-7.387202457884269047e-02,-3.368608877454046246e-02,1.043740542200240207e-02,9.453290500263963891e-02,-2.100076783000662251e-02,4.655711948871612549e-01
1.835189422835441508e-01,-4.845861695814734221e-02,-2.830065074952640286e-02,4.095174237746031232e-02,-2.047634178446954695e-02,-6.758901870649049182e-02,2.636997103691101074e-01
4.986853775008996958e-01,-4.677540123787740645e-02,-3.683704143847268964e-02,-9.254516753087889749e-03,-9.257276649497389294e-04,-5.492905494058896408e-03,5.408837795257568359e-01
3.093001086934803467e-01,2.320316387271911807e-03,1.699218091246595952e-03,-1.445168883957451003e-03,-8.537712732750678529e-04,-7.170005951517253139e-03,3.075554072856903076e-01
3.231595645535305650e-01,2.537953836832543275e-03,1.441268581328578047e-03,-5.189577948873570117e-04,2.448096492609534193e-03,3.653814729543135992e-03,3.212629556655883789e-01
1.757662642545790022e-01,1.501080598231667104e-02,-7.773681950814331776e-02,-5.966852198758388487e-02,-1.819992039169259293e-03,4.804162512263443312e-03,2.451821863651275635e-01
1.969576323192884781e-01,9.138703893343591567e-03,-6.412832915402844058e-04,-1.197052121402233105e-01,1.016087886027799460e-02,3.924684752201122902e-03,2.838175892829895020e-01
2.820892350819510508e-01,-2.282874886028020411e-02,-3.848754106258631125e-02,-8.210144683790478182e-02,-4.728698860144730370e-02,5.539123913379499081e-02,3.662369549274444580e-01
5.157880528481270099e-01,-5.292989227212130388e-02,-3.800210218710725618e-02,-2.681371912808783089e-03,-1.355286571771480457e-03,-6.151607784101041816e-03,5.615281462669372559e-01
4.953324186135552587e-01,-6.057209177079284079e-02,-2.906136816236123965e-02,-8.567329307209553199e-03,-1.627520153212649303e-03,-3.503579769863539826e-03,5.410829782485961914e-01
5.156790167906184497e-01,-5.476441137031221040e-02,-3.658730287359546196e-02,-2.208836169654254233e-04,-3.069999722694086121e-04,-1.981937637174599996e-03,5.615864396095275879e-01
5.147305517757019278e-01,-5.835760838328399314e-02,-3.380279463731877820e-02,-1.306535801808646983e-03,-2.056307245230462512e-03,-1.921496095480625110e-03,5.612394809722900391e-01
3.908101773575139992e-01,-1.450271656270669951e-02,-1.913929439047130920e-02,3.566067887716573709e-02,-1.843858600457377872e-02,1.093970098575626493e-02,4.139726161956787109e-01
5.033917713587778842e-01,-6.088116016803096775e-02,-2.959866415570278075e-02,6.651700022345286185e-04,-1.273781101709573144e-03,-2.783633852613007741e-03,5.493269562721252441e-01
1.920880152243032435e-01,1.869885748730977515e-02,1.898494934201026829e-02,-1.525204105880350290e-02,2.245461636909609066e-02,3.987441401171134062e-03,1.796454340219497681e-01
2.364740977340493155e-01,-3.444700715684573256e-02,-7.108963573353621612e-02,1.315847868272398413e-01,2.703674691508732228e-02,-1.804238991224687075e-02,3.738735020160675049e-01
3.763629807190353449e-01,-2.565375197904851134e-02,-2.436606950868488997e-03,3.973440047684148602e-02,6.841629038482924426e-03,-1.170746686235170971e-03,3.971194028854370117e-01
5.371186598541370927e-01,-3.475119010995719737e-02,-3.372356890548922070e-02,-2.564005655904734882e-03,-2.326253834958582657e-03,7.307651156146787201e-04,5.713896155357360840e-01
9.032206029426124161e-01,-5.504265072429481709e-02,-4.079807109613931004e-02,-8.864666706095224169e-03,-9.987262952311743575e-03,6.226641312464457206e-02,9.575946927070617676e-01
5.079490736036708087e-01,-5.791230125198487677e-02,-3.274028503317996663e-02,-4.965767601751573971e-04,1.131550359468530293e-03,-1.852329981250860512e-03,5.537180900573730469e-01
5.268165332566205894e-01,-2.322048842874666064e-02,-1.413303787211220297e-02,-3.386994878791274068e-03,5.050365286439302743e-05,2.684369158005408054e-03,5.456014275550842285e-01
5.054414947031405925e-01,-4.154813360894837881e-02,-4.619100206269896591e-02,-9.522933518788228441e-03,-3.659030075096242340e-03,-5.384953939811509480e-03,5.496890544891357422e-01
6.015618234639975581e-01,-5.127687973020450540e-02,-1.610273447634322230e-02,5.066014309431623314e-02,1.754649595818588356e-02,6.186326557087520189e-02,6.515955328941345215e-01
5.181997819289199114e-01,-4.018365424090974969e-02,-5.375430661815147615e-02,-1.840918737310588867e-03,6.972505778721118340e-03,5.262828246112410610e-03,5.655024051666259766e-01
5.313755942388076470e-01,-3.885910858456256833e-02,-4.380946739176466709e-02,1.859102576474916694e-03,-1.174251057670248856e-03,4.833902213176457336e-04,5.727391839027404785e-01
5.193211398341738283e-01,-4.194653525566577335e-02,-5.071469844650111636e-02,-2.454244791025512519e-04,-3.991189937400077721e-04,-1.270690197010217919e-03,5.657075643539428711e-01
5.279420634134257551e-01,-1.232122553097081408e-02,-2.188781871307063365e-02,-4.400418120610248909e-03,1.336933594552203479e-03,6.577604039295944886e-03,5.452867746353149414e-01
5.170939776034860769e-01,-4.160957589498251452e-02,-4.355327674315725983e-02,-2.141832380875185755e-03,-1.966224064837080940e-03,-2.841500520743094754e-03,5.597222447395324707e-01
5.338207919965469728e-01,-4.083791439599845918e-02,-3.394795961075408597e-02,2.330684897702586279e-03,4.730052077355689777e-03,-9.778205187358276346e-04,5.713204145431518555e-01
5.191051134024496916e-01,-4.400596004066806288e-02,-5.254246683247507099e-02,-2.819322620386735881e-03,-4.836573100594010813e-03,-6.234761593430950335e-03,5.676130652427673340e-01
5.209375234975152091e-01,-4.222870750749166402e-02,-5.228286734979459283e-02,-1.260879028648934314e-04,2.544235363374840143e-04,-2.903173152823457226e-03,5.682824850082397461e-01
5.384350697970702315e-01,-4.173720511638182029e-02,-4.127730091700498871e-02,2.084987102520185977e-04,-4.886350973082465542e-03,-1.239827133737034671e-03,5.800083279609680176e-01
5.216944280301875070e-01,-3.976769888625827920e-02,-5.406182352089494714e-02,1.398780838153773458e-03,-2.826393084683278146e-03,-1.592406288278909194e-03,5.687768459320068359e-01
5.145893348999048822e-01,-3.632970510968569489e-02,-5.672426985174697234e-02,-1.518403027643962840e-03,-1.112139497339493209e-03,-2.007106213561103084e-03,5.614144802093505859e-01
3.773922539105279972e-01,-1.444107899676194684e-02,-5.577826623040717247e-02,5.455788689136815278e-02,-5.490796914902482811e-03,1.112900185424042787e-02,4.252424240112304688e-01
4.243507385028044698e-01,-2.716254854455973922e-02,-2.417132026684504220e-02,-1.272971779671854334e-02,-1.464943392009083155e-02,-1.677482720257001889e-02,4.522131681442260742e-01
5.312700457824244271e-01,-3.728710842859006558e-02,-3.324709003755677017e-02,2.198538125951019027e-03,-1.188191627438988686e-03,-2.721915116667929430e-04,5.665646791458129883e-01
4.680094865652588143e-01,-4.641010844610349295e-02,-2.649284716219343916e-02,1.456870425323266230e-02,1.555140088884600195e-02,-6.883621051448943554e-03,5.062438249588012695e-01
5.106636496151187865e-01,-4.893024346477967135e-02,-3.479009907662003465e-02,-1.360746869474208261e-03,-2.316104862999486362e-03,-6.912140144668085448e-03,5.528087615966796875e-01
5.363201034307545356e-01,-4.504064781327019040e-02,-3.946482283526003831e-02,6.569632928842698665e-03,-2.222147118728234113e-03,-3.493056041015568571e-03,5.787492990493774414e-01
5.246189739881925718e-01,-5.558235100447442290e-02,-3.424040480442230860e-02,2.471561175498524984e-02,1.447334561357232390e-03,-5.105832590564456097e-03,5.715098381042480469e-01
5.417117422950287198e-01,-1.669925687091494693e-02,-3.861980047127286375e-02,3.235130760962844076e-03,-1.687293263843797370e-03,7.501026819702710270e-03,5.698708295822143555e-01
5.480788683019417462e-01,4.306449358626721069e-02,-5.820558610227333229e-02,-2.450252101132693785e-03,6.665244944097169872e-04,2.446353423204349758e-02,5.641389489173889160e-01
5.220573744759566814e-01,5.665365932146781969e-03,-3.041764737098873184e-02,2.919936978821678977e-02,4.258953767223584014e-02,4.128942735145658266e-02,5.474573373794555664e-01
3.610896722215761745e-01,-7.574668383594236609e-02,8.506338609988214894e-03,3.320182272400368922e-02,-1.113227555234807403e-01,1.972307725893231774e-03,4.490176141262054443e-01
5.319424107007671987e-01,-2.857987252362190200e-02,-2.479342198135370268e-02,-3.062432286865262795e-03,4.547341712343415257e-04,1.051396497428703928e-03,5.586673617362976074e-01
5.147588320342832979e-01,-4.433089350007235474e-02,-3.785672061895578588e-02,2.321045503053965117e-03,3.612710191005644774e-04,-2.852604740993628339e-03,5.559177398681640625e-01
4.616621510373458692e-01,-3.656620839540875023e-02,-3.002055886882135094e-02,-4.876302090977204656e-02,-3.877258780880234179e-02,-8.210667071596832248e-03,5.068123936653137207e-01
2.896996181131416548e-01,1.203615773822191981e-03,-4.127604704258491797e-05,3.689329239537100791e-02,-4.419640596627202878e-02,1.112041392126160953e-02,3.064391314983367920e-01
5.358714230059171690e-01,-3.760260549055696733e-02,-3.874369389834605992e-02,9.875666139789070902e-03,6.048261807003953335e-03,7.547446808051333066e-04,5.743972659111022949e-01
5.363717972630103192e-01,-2.714230251263305416e-02,-3.886070164172958363e-02,-4.354575570005230802e-03,6.948689311578374293e-03,-1.033587360512102683e-03,5.696436762809753418e-01
3.831389210737453643e-01,-6.083210341684616718e-03,-3.629741526279001151e-02,6.669954752740778854e-04,-3.660813924677417536e-02,-1.042903778635360587e-03,4.101120233535766602e-01
1.865740858894516241e-01,2.038842015931881940e-02,1.412421965028901744e-02,2.731166442365466889e-03,-4.168975085253971008e-02,8.151004172901776118e-03,1.847531795501708984e-01
2.659176450275546610e-01,1.050542688187465490e-02,-6.008897730856763153e-03,3.973163826145174882e-02,2.426287615422870886e-02,6.321476638478226370e-03,2.763111293315887451e-01
6.639263020262986537e-02,2.387196917525236106e-02,2.335541675536950690e-02,5.280146427143069671e-02,1.054466453805087515e-02,4.579415128522696700e-03,1.029111519455909729e-01
5.360576797655014492e-01,-4.039406143436233276e-02,-4.849364146771784068e-02,-2.725078552179328330e-04,2.626458585598048703e-03,-5.573359454776792565e-03,5.806421637535095215e-01
1.247168965105641958e-01,1.180574849027373960e-02,-6.829264094455467227e-02,-5.545286174322876845e-04,-4.021587258910534757e-02,-4.444078335672934504e-02,1.974499970674514771e-01
5.395876872784757250e-01,-4.967029391174807018e-02,-2.651069799923180814e-02,-6.102203221574958522e-04,-9.743353244201332503e-03,-6.816074430617789781e-04,5.782747268676757812e-01
3.815037195662578928e-01,-5.877016241865165580e-03,-2.432466289271616178e-02,-8.933969315935843614e-04,3.591102871902037558e-02,-3.856443391467215612e-03,4.018286168575286865e-01
5.137817502671058190e-01,-3.450485609504111428e-02,-5.993443079647678418e-02,-2.776379702424024588e-03,-9.588963650959278495e-03,-2.241678689394974253e-03,5.617130994796752930e-01
1.109458551926519737e-01,7.522191542471599879e-03,2.778625286853907139e-02,2.033834747937350931e-02,-6.139482578958316283e-02,-4.619070540447928999e-04,1.468361765146255493e-01
2.672299286952156683e-01,6.527802242460828408e-03,7.915421293661628610e-04,-1.992854137009574325e-02,-3.522957813644461006e-02,-6.458225089655026188e-03,2.730089724063873291e-01
5.391020262401164942e-01,-3.863645420402767039e-02,-3.441341887407992073e-02,-4.927804087442902133e-04,8.882334250703608457e-04,-2.030530891750882781e-03,5.756520032882690430e-01
5.397316697683973707e-01,-3.876757596588312205e-02,-4.166922655568158773e-02,-4.876154459447094901e-04,-3.142844747052750062e-03,-1.926191867797253819e-03,5.799912810325622559e-01
5.395717716517742790e-01,-4.035535016153718457e-02,-4.492236508912178516e-02,-6.939210413396937251e-04,-9.153343431396831868e-04,-4.243517552205294547e-04,5.822279453277587891e-01
5.414414330993129187e-01,-4.355613288097220925e-02,-4.229980427286741951e-02,-1.768749077969046166e-03,-1.480096933219296300e-03,-6.766801892522691627e-04,5.843852162361145020e-01
5.449919116503452177e-01,-2.495313890562073089e-02,-2.841132841571064604e-02,2.858968512609088783e-02,3.584911487634308887e-03,-3.157979597514516679e-02,5.764571428298950195e-01
5.358225740457958075e-01,-3.993527690557546750e-02,-3.023869689764482893e-02,-4.912828974854293804e-03,-4.103226711923749735e-03,4.517167014561600941e-04,5.710794925689697266e-01
5.391742372596290966e-01,-4.029964233222543823e-02,-4.261895399609802459e-02,-2.900117673725016113e-03,1.484081675275809170e-03,-1.454391820877149214e-03,5.806698799133300781e-01
5.410197615530472071e-01,-4.375270115676574423e-02,-4.233587805194768960e-02,-1.017061061549291798e-03,-9.975582246433067294e-04,-5.035984819887184263e-04,5.840712189674377441e-01
5.375710244523344006e-01,-3.751198472888886415e-02,-3.414426298097836265e-02,-2.000493388199106864e-03,-2.044793163989061958e-03,-2.906923183518499826e-04,5.734282135963439941e-01
5.270018570888643783e-01,-4.734195683300920776e-02,-4.789003562807545022e-02,-4.482982363765814447e-05,8.781020357144718154e-04,-6.686459483182751904e-04,5.746212601661682129e-01
5.399253037011555456e-01,-3.944154296176521912e-02,-4.022473339807722259e-02,-2.406493323050438830e-03,5.955433501155332722e-04,-1.775698989780964687e-03,5.797829031944274902e-01
5.314181590106701325e-01,-4.460456510776850125e-02,-4.484609742798495446e-02,-1.958149299106659753e-03,1.987115879920034207e-03,1.518582492068575431e-03,5.761697888374328613e-01
5.189841977112437110e-01,1.522929347709095493e-02,-4.787518762250042581e-02,-7.151917535215532307e-02,-3.922816858074693741e-02,3.779288325774453339e-02,5.601667761802673340e-01
5.232375042413248689e-01,-5.034354453418793396e-02,-3.584590600221074230e-02,1.152289143605642269e-03,2.878250152402394256e-03,-7.475168806814319264e-03,5.666447877883911133e-01
5.421482236899868301e-01,-4.395050150810458911e-02,-4.154495243774891655e-02,2.552384738791204310e-04,2.887277247762747110e-04,6.989153620077841135e-05,5.849000811576843262e-01
5.104515315502258233e-01,-6.432188991335657802e-03,-2.330197507839115723e-02,-4.884671372194789724e-02,-5.602571930070755768e-02,5.024614647331402534e-02,5.480161905288696289e-01
5.204755231056614750e-01,-1.962260669478363417e-02,-5.760232096127598789e-02,-5.640647280642917955e-02,-7.775900674204842648e-03,9.334532956601727938e-03,5.689016580581665039e-01
5.706210859970054505e-01,1.024413359655723665e-03,-6.221601837362866760e-02,6.459117093322370995e-02,8.702206360383633876e-02,2.901767489356293570e-02,6.342096924781799316e-01
5.226579686879816444e-01,-3.640209384120637881e-02,-4.085978264328432585e-02,-1.019078996036260933e-02,1.990007634468749908e-03,-3.663049438191360403e-04,5.615905523300170898e-01
5.357288662799557510e-01,-4.048386193156708335e-02,-4.889171788113871875e-02,-1.272320550489603732e-03,4.003374846806574379e-04,-7.353412289098510682e-04,5.804682970046997070e-01
5.365419452711975845e-01,-3.907978524624639016e-02,-2.765278769210310905e-02,-2.411580731977952345e-04,-1.048541818530377215e-03,2.820229374478071434e-03,5.700181126594543457e-01
5.356375045281768221e-01,-3.916424443983509973e-02,-3.072102152823896759e-02,-4.047144612875894915e-03,-4.530805774086891537e-03,8.970723535540067696e-04,5.707260966300964355e-01
4.051900196726540004e-01,-3.561647733546892403e-02,-1.020572959570904825e-02,-2.354656949371668889e-02,-1.391998547653489808e-03,-8.433542709796281248e-03,4.308565557003021240e-01
5.295309959911675968e-01,-3.958609888361219742e-02,-4.111750698714855545e-02,-1.475765712860497604e-03,2.710873455582959619e-05,-3.982589824511553571e-03,5.699318051338195801e-01
5.336000659099717769e-01,-4.179303783719726106e-02,-4.578159404538528765e-02,1.056760979729459574e-03,2.205067452560790717e-03,-3.354696893048810143e-03,5.774424672126770020e-01
5.391180985482539878e-01,-4.029795021108842357e-02,-4.985168897854305725e-02,8.062738339264094098e-04,-3.413197248556022203e-04,-1.653726529113213207e-03,5.842605233192443848e-01
1.870226885563240349e-01,-2.083583887762696651e-03,3.264838652737882957e-02,-4.696022063700876388e-04,-7.789536085230486240e-02,-6.589898499007987992e-03,2.207565605640411377e-01
5.927274199721275227e-01,5.746545044947148906e-03,-5.018238931475416109e-02,2.699323255840812945e-03,2.149514297278479549e-03,2.501925227482495670e-02,6.183990836143493652e-01
4.668727291996045414e-01,-3.572048391430393544e-02,-3.485229657225352717e-02,-1.890769245036722727e-03,-8.356524284771660316e-02,-1.554966038911050020e-03,5.226200819015502930e-01
5.597919885782876026e-01,2.590941058438672728e-02,-6.433091975421889597e-02,-4.494973384805825423e-03,6.810206159003342682e-04,7.202784883695101739e-03,5.844393372535705566e-01
4.883768090561694808e-01,-2.731076086744749221e-02,-5.531310683279436202e-02,8.564318299978919760e-04,-1.025319114064716236e-02,7.570794379699550278e-04,5.305445790290832520e-01
5.248498288708045578e-01,-4.374784954069205201e-02,-4.737264392390527767e-02,-2.333939972794117548e-04,9.578642176511669489e-04,-1.293049113266861493e-03,5.704256892204284668e-01
5.193435947887180548e-01,-5.171003825384576369e-02,-3.905079052427773423e-02,9.638432118568247614e-04,-4.215464682662548924e-04,-1.092657287021577212e-03,5.648365020751953125e-01
4.396821742559811064e-01,-3.907582827499160583e-02,-3.797722117385161911e-02,-1.005171420325100123e-01,-3.154124638573093525e-02,-1.606219679335432185e-03,5.118474960327148438e-01
5.304866780166032081e-01,-4.589988171909528680e-02,-4.747987335428188738e-02,1.414388105779810405e-03,6.748937623614088962e-04,1.480281530401734861e-03,5.771902799606323242e-01
5.484970093161796179e-01,3.118316745602148221e-02,-4.310494554660471156e-02,8.328156277789206322e-03,3.080870391088175609e-03,2.924028968655362909e-02,5.606818795204162598e-01
5.349265485795156039e-01,9.416345234504047701e-03,-4.182936317838520379e-02,3.420350501128348840e-03,-1.589309315682575904e-04,1.081605992103113617e-02,5.532661080360412598e-01
5.538672571341390904e-01,-5.821068509074656117e-03,-3.646879121714635685e-02,3.640961025175211158e-03,8.478336919357740489e-03,2.213438163824697422e-02,5.771210193634033203e-01
5.449405601274247557e-01,2.037565342913244537e-02,-4.852331687196650978e-02,-8.837530502234042240e-03,-1.830217585143735525e-04,1.364574128653414826e-02,5.628947019577026367e-01
5.341765398839696255e-01,-4.953190253641839846e-02,-4.355539793306237306e-02,8.466655397777194877e-03,3.732268683424766822e-03,-2.913093061149575266e-03,5.809862613677978516e-01
5.332982491578532880e-01,-5.326778543335411453e-02,-3.344510673168762938e-02,1.177004256616668437e-02,-5.834962827369870059e-04,5.695228268423655578e-04,5.772719979286193848e-01
5.873437957113333829e-02,-2.517166642786245259e-02,1.909927770220639504e-02,1.662095512794922996e-03,2.329068848036726716e-02,4.028600116717530322e-02,1.085821464657783508e-01
5.467537710845727927e-01,3.170973874353730237e-02,-5.535704341846997556e-02,-1.422166251986477052e-02,2.119829848878262979e-03,1.681310868199596339e-02,5.649446845054626465e-01
3.965099137527868245e-01,-1.354127848478609009e-02,-3.151029499588012261e-02,1.227322495375628847e-02,-3.002621006313161214e-02,8.220108408678325831e-03,4.233112335205078125e-01
5.154968782238157354e-01,-5.544961489816915834e-02,-3.429669717593031297e-02,-1.762759777145201463e-04,1.553598941469993546e-03,2.102932426491589506e-03,5.606877803802490234e-01
4.924889926959156172e-01,-5.246655308228420633e-02,-2.819504572779960028e-02,-5.969046275874818636e-04,-5.890765796036687802e-04,5.495277726875068616e-03,5.333211421966552734e-01
2.519583550768201285e-01,-3.707707829842927377e-02,-2.851491588651818704e-02,7.815398652375811495e-02,-1.010829712811241315e-01,-6.744436573929633860e-02,3.791618347167968750e-01
5.150020663116551267e-01,-5.852769750430464324e-02,-3.068515504668800631e-02,6.748151687750180566e-03,2.888813674348421779e-03,1.253699627730395704e-03,5.602762103080749512e-01
1.661401731602514253e-01,-1.690244763764482683e-03,1.179859029809055687e-02,3.837620360343109438e-02,-3.970686743340496455e-02,-3.471416907385308122e-03,1.878015398979187012e-01
5.246201280629760877e-01,-5.175099619980103038e-02,-4.502608362376264717e-02,6.910145992709064390e-04,5.497759791155088990e-04,-1.075548331825010567e-03,5.730433464050292969e-01
1.098477240324727683e-01,2.178823143524786024e-02,3.502245035835252485e-03,-4.301960768246878078e-03,-6.094509999833691571e-02,-6.300753224831863279e-03,1.449711769819259644e-01
2.515572610199184878e-01,2.671235061696086710e-03,2.813021494233375330e-03,3.456953228556965130e-02,-6.700687859989169770e-02,-1.787999701104041675e-02,2.827065587043762207e-01
5.937281727863121805e-01,-4.248116672760060553e-02,-4.288094753010432414e-02,1.646057851139373987e-02,2.473467343448907188e-02,2.412565555317924479e-02,6.398525238037109375e-01
5.503779282515746107e-01,-4.954058978295561300e-02,-1.521269595245033912e-02,2.266121353241599501e-04,1.009595439036509688e-03,6.035706050490976908e-03,5.836087465286254883e-01
5.938188533198209829e-01,-6.080341836833438873e-02,-3.556447315071598059e-02,6.395150721196913440e-03,1.893566496306379326e-02,1.187317540926217246e-02,6.436355113983154297e-01
5.397944013723119383e-01,-3.229692233979983285e-02,1.622698447675005595e-02,-6.302892051585039235e-03,-2.223592935247860856e-03,3.004128802602685708e-02,5.520184636116027832e-01
5.417177518502165334e-01,-4.346709747857230299e-02,-8.797947722736176868e-03,-6.162907620417218055e-03,-8.843475105304834244e-03,5.924188176540503073e-03,5.690423846244812012e-01
5.435572482046764353e-01,-4.166966617478712331e-02,-4.069530240337876359e-03,-5.267653369720256759e-03,5.255380139196137073e-04,1.554224436270483165e-02,5.680743455886840820e-01
5.343350992982711656e-01,-5.441121058076064942e-02,-1.370458677579383666e-02,1.315434875703680277e-02,6.709448419812550843e-03,-9.495688319532142457e-03,5.702964663505554199e-01
3.146206213547044772e-01,-4.743192321484523966e-02,-5.261640302613213027e-02,3.982370839871465784e-02,3.832104077304198525e-02,7.212815084935628868e-03,3.772338032722473145e-01
2.628365325495150007e-01,1.428611912974445119e-02,1.653416696458979984e-02,-2.476009739250980678e-03,7.927688775789398931e-05,2.496226975842701177e-03,2.475090175867080688e-01
4.468436129801384160e-01,-3.595981317131655142e-02,-2.146954271618928267e-02,2.101751597548410719e-03,2.973262020381579516e-04,-7.688647438169235980e-03,4.759244024753570557e-01
5.242624609072794595e-01,-4.849115751830326837e-02,-4.574478739270360084e-02,9.349768702744220943e-04,6.070694000100505935e-04,-2.303953873273759806e-03,5.714026093482971191e-01
5.037833652752126135e-01,-5.398103405622395323e-02,-3.016994687795063190e-02,-1.960731906132497007e-03,5.903826289910809808e-03,-4.504595499483969936e-03,5.464102029800415039e-01
5.390671447901894675e-01,-4.542255369287051536e-02,3.105658532106006509e-02,2.208403873815790834e-03,3.496656629539093494e-03,1.294318074420466869e-02,5.507539510726928711e-01
2.911837053541487252e-01,-7.642344316766325196e-02,2.239473288679544316e-03,2.127729740422756866e-02,1.051594130843545305e-01,-1.986117006260680953e-02,3.848673701286315918e-01
4.595394783470871936e-01,-2.816318570708309377e-02,-3.287895441053440004e-02,1.787498311351547534e-02,-2.424257690519056839e-03,-3.239666914696121783e-03,4.911045432090759277e-01
5.231980320051878852e-01,-3.812091319169463866e-02,-5.203845555101929699e-02,1.104223806793541577e-03,5.512392980558186370e-03,-3.946974879166126847e-03,5.685300230979919434e-01
5.153904433087705961e-01,-3.511806859749425080e-02,-5.523022417649364746e-02,2.859286482452191858e-03,-6.267785933318932015e-04,2.836596482866507885e-03,5.608795285224914551e-01
2.471934413354808513e-01,1.046462077642501542e-03,6.274931174968592651e-03,-4.495686637253148293e-02,-3.159594520521134819e-02,-6.014487806438126999e-03,2.617164254188537598e-01
5.309760340778852949e-01,-3.303364862009211533e-02,-4.316644448902412501e-02,-7.919462440601833823e-04,4.060618572141897244e-06,2.062653533218828641e-04,5.691455006599426270e-01
5.226585013974327509e-01,-3.943852023551119856e-02,-4.398218542904158701e-02,-8.836659861293801044e-02,-7.413532257649772805e-02,1.748875780183050191e-02,5.994659066200256348e-01
5.122949937788857655e-01,-5.334905961334329705e-02,-4.079985183811352112e-02,-6.596170620356749201e-04,3.291518139569239092e-04,-8.961158083068448271e-03,5.596917271614074707e-01
5.325279326275850211e-01,-3.603541241491098335e-02,-2.449816625938802672e-02,-4.525975481319066858e-03,-7.171543130695023222e-03,8.773582740752751061e-03,5.632800459861755371e-01
4.481993107643650331e-01,-9.539369143268063012e-02,1.425833799113800093e-02,-4.429766096111553003e-02,-1.510487681835161189e-01,2.715718848808191047e-02,5.696116685867309570e-01
5.237547936120183767e-01,-3.705161699904455097e-02,-3.261021851099424329e-02,1.344236514727553721e-03,-4.106728005236191283e-03,-1.347416867585606536e-04,5.586491227149963379e-01
5.414085117231621780e-01,-2.577823559418576660e-02,-3.983963024789186069e-02,-9.955872960931644311e-03,-2.941469981217538585e-03,1.051513368180606242e-03,5.746308565139770508e-01
4.544866083456583494e-01,-1.784784426289137693e-02,-5.214408991698460394e-02,1.745038012288072657e-04,-1.738415909874182000e-02,-6.221420308370723996e-03,4.914246797561645508e-01
6.002375806745189335e-01,-9.427656584319332733e-02,1.507484271910752849e-02,-1.838812771989994585e-02,5.511158102686423282e-02,-2.733980864562261803e-02,6.563003659248352051e-01
5.290979653919123393e-01,-3.979919432009923486e-02,-4.218726788239582359e-02,7.091266287189481113e-03,-8.502493899100647956e-03,2.669745816871455305e-03,5.704361200332641602e-01
5.307594314598080842e-01,-3.885943330939486962e-02,-4.967879218119536366e-02,1.689373078509109677e-03,1.524038927055572628e-03,5.068222274921412073e-04,5.751190781593322754e-01
5.303776178842856126e-01,-4.469324199295449107e-02,-4.929844477498626643e-02,3.122159173403532746e-04,-2.442702972099570110e-06,1.171426462235084344e-03,5.773910284042358398e-01
5.058105399361637611e-01,-4.982521254883423567e-02,-3.271396962928299623e-02,-3.749197541987825399e-03,6.653286541742102142e-03,-7.149087541645035180e-04,5.474420189857482910e-01
7.133399496740748802e-01,-7.155179375167958211e-02,-1.600330394920934651e-02,1.428182466348439962e-03,1.504974036961873041e-01,2.382776168173708978e-02,8.032427430152893066e-01
5.535392066692080837e-01,-5.392860947094268997e-02,-5.506653023372748423e-03,3.006868264503336548e-03,-1.051827375905577122e-02,2.915894687626829646e-03,5.850911140441894531e-01
5.499764645063388580e-01,-5.325258778956884487e-02,-8.731338809178812443e-03,-5.894691020256553025e-04,-4.391366719111272979e-03,-7.270267976989670767e-04,5.822983980178833008e-01
5.275901627357629797e-01,-4.886803461160660333e-02,-4.655420720624223185e-02,-8.809190394250740724e-04,-4.042782526891962758e-04,-1.213039820798621736e-03,5.753110647201538086e-01
5.298427883153004059e-01,-4.062447043442468653e-02,-4.141732496201624980e-02,5.952347501158901030e-03,7.952164659433392721e-03,-3.609298946550550113e-03,5.711575150489807129e-01
8.502418204782671851e-02,1.943018628186935284e-02,1.785578578071416594e-02,-4.632227496113957427e-02,3.817361226680768965e-02,6.026243198824763649e-04,1.233626604080200195e-01
3.086224900615459066e-01,-3.407351838624510243e-02,1.754002684890740293e-02,3.105244701280724523e-02,8.669255585482932291e-02,7.104842711988319098e-03,3.577817082405090332e-01
4.898862636716840857e-01,-2.812778280310038181e-02,-3.940112662890152273e-02,-2.710283540709055791e-02,4.109876235874469069e-02,-9.114263134720987022e-03,5.308725237846374512e-01
4.051713074150345983e-01,-1.067066694483759653e-01,1.704349249068221051e-02,4.597024876109266633e-02,1.388874500559407754e-01,-4.361409436639979847e-02,5.328261852264404297e-01
5.197897706220824254e-01,-5.022009726175830080e-02,-4.237167807273617415e-02,1.986103916193107351e-04,6.547698355504217443e-04,-1.720368925650360295e-03,5.661355257034301758e-01
5.101373369623680709e-01,-3.728629061290716917e-02,-3.545332270020648546e-02,3.956148769995017009e-03,1.446668234445576927e-02,-5.527144085962344775e-04,5.471273064613342285e-01
4.655589719192251841e-01,-3.354369324090067384e-02,-3.781028763069543830e-02,-2.784658158192582222e-02,7.722618876756581763e-02,1.011254682928072225e-02,5.213212966918945312e-01
5.687916370468814042e-01,-5.676231545463955586e-02,-4.798197958684463638e-02,-9.496500442601384095e-03,4.914902895840403407e-02,-1.181933133703249109e-02,6.275657415390014648e-01
5.218873091674408604e-01,-4.968801537399297752e-02,-4.358636528547049638e-02,-1.107417184252122103e-03,-1.337951314476894162e-03,-1.805207453784144454e-03,5.685656070709228516e-01
5.220884517723318741e-01,-5.238816208155588905e-02,-4.232114020886182382e-02,-6.891674809774743981e-04,-9.142443330829082976e-04,-2.533296503761798754e-03,5.695301890373229980e-01
5.987921130821934890e-01,-1.779060529197129537e-02,-2.490113162301499372e-02,-2.026106126519968201e-02,-9.330767186428353885e-03,5.586183951403551895e-02,6.288588047027587891e-01
5.271156265504597371e-01,-2.157740342611549900e-02,-1.450190413682614365e-02,-4.255100458762233438e-03,-1.791072819711099886e-03,1.444357035521155047e-02,5.458219647407531738e-01
5.391468969203895290e-01,-4.132971976628393995e-02,-4.140929147324512449e-02,-4.444155976717577457e-03,-5.918217385816910297e-05,-1.367468780757369285e-03,5.805723071098327637e-01
5.402135906315537195e-01,-4.954619860229134143e-02,-4.366355554896386715e-02,-3.436712338920632757e-08,-2.223848298799133063e-03,-2.844126002675383125e-03,5.868738889694213867e-01
4.373255153820715391e-01,-1.885865494736535530e-02,-2.305655836100456435e-02,1.408485036409007074e-01,9.311432653305429241e-02,2.576358638727273623e-02,5.454847812652587891e-01
5.620522175696449629e-01,-3.949569177088615990e-02,2.245583530532152539e-02,1.176798631541744328e-02,1.780002087617070516e-02,3.351456216028805835e-02,5.772059559822082520e-01
5.275716261376368621e-01,-5.007233363416513372e-02,-4.520993762105646185e-02,-2.428929322162537343e-03,8.821798281940980164e-04,-1.521048085918560782e-03,5.752516388893127441e-01
5.343118843160762355e-01,-4.809281206693455379e-02,-3.733569941740577658e-02,3.865229322423816786e-03,8.073750510306374611e-03,-4.839374163643057891e-03,5.773704051971435547e-01
4.835159157958181519e-01,-2.203424357737243655e-02,-5.725794200522860145e-02,-1.132173823197881162e-03,-2.109510774784516957e-02,-2.657972052307933791e-03,5.253466367721557617e-01
4.705139158295764679e-01,-1.533815507604310846e-02,-5.705813745508001023e-02,4.482272428569286893e-05,-6.885758759631922538e-04,-1.095774655879870043e-03,5.080035328865051270e-01
4.712679281872187986e-01,-2.205658244907740539e-02,-5.604823783379916935e-02,-1.172292647930870324e-03,-8.813056251962829608e-04,1.722795706261879981e-03,5.111836791038513184e-01
2.914124656953762660e-01,-7.287619783878490631e-02,-7.856113236762468643e-03,1.295404452060515132e-01,-8.388555397481464726e-02,-5.377310223984101134e-02,4.397441744804382324e-01
5.545752803194550218e-01,-2.745148488318951974e-02,-4.168834833786355665e-02,-4.096418261598714153e-03,-9.432388998557537105e-04,1.980306471592974474e-02,5.903164744377136230e-01
3.258464340437035034e-01,-2.073407880506974998e-02,-5.129905434395815034e-03,-2.936885665720477545e-02,4.941007761428050683e-03,2.563414733188562351e-03,3.429781198501586914e-01
5.011923539178619880e-01,-2.623257936227915699e-02,-6.222155806683032919e-02,-3.869463742124912265e-04,-6.296336145946940330e-04,4.168786570444284970e-04,5.463111996650695801e-01
5.621976990777419747e-01,1.923326767311811514e-02,-5.052240040310002067e-02,-1.266452309826000735e-03,4.969931123862629703e-03,7.656706551373609199e-03,5.812106728553771973e-01
4.892499582265290581e-01,-2.326713243886394111e-02,-6.082111765246406287e-02,6.913931550305087203e-04,-9.712536914518394085e-03,-2.753068859193429953e-04,5.325558781623840332e-01
4.477469141046334089e-01,-1.393495779062886575e-02,-4.573395852443998266e-02,3.923135645163833827e-04,-1.741864337991593653e-02,1.605947782527959462e-03,4.793336689472198486e-01
5.294343985120473217e-01,-4.499424165603913006e-02,-4.676117678236590969e-02,-1.336751900620625124e-03,-1.843745041347036621e-03,-6.348517272030411787e-03,5.754327178001403809e-01
5.258712942291237091e-01,-1.251663489684770592e-02,-1.375257802468232704e-02,-1.951520185702672197e-03,-1.953460799465114514e-03,1.051878401046603580e-02,5.393359661102294922e-01
5.533966048669947124e-01,2.840911655175734629e-02,-5.743358038305002022e-02,-8.425176740253391069e-03,-1.676413395676257462e-03,2.264258746172693407e-03,5.729606747627258301e-01
5.152419370906763385e-01,-3.560450840473258771e-02,-4.915400405172759557e-02,-5.607611616885667307e-04,-2.311667572263470007e-03,-5.891605566878743228e-04,5.577607750892639160e-01
5.375213384101613645e-01,-4.582466803680856904e-02,-4.352006191502610921e-02,-7.386814117221356980e-04,6.879017218472253167e-04,-2.574408691147759068e-03,5.822167992591857910e-01
5.461243122672179151e-01,-1.899432459385286265e-03,-4.552899338160992793e-02,1.009897888718975893e-02,1.476348302996957542e-03,1.558451263543393899e-03,5.713697671890258789e-01
5.446974176758048181e-01,-6.432146503213859168e-03,-3.943924942489873686e-02,-2.170426004371502331e-03,-2.003261523163878208e-03,7.240009528309628191e-03,5.685137510299682617e-01
5.317171973516289230e-01,-3.861285744133594044e-02,-5.338306280335070042e-02,-1.040171340878472204e-04,-8.969308243774847802e-04,-2.470747542895542024e-03,5.778747200965881348e-01
5.284685851207266971e-01,-2.492543490797541339e-02,-3.004409758570103506e-02,-5.407088290485872334e-03,-5.773885384053004111e-03,7.591632238134178243e-03,5.562952756881713867e-01
5.348624708687053086e-01,-4.273449002878107472e-02,-4.563433630883126368e-02,-7.116519214993321293e-04,3.028448124778994419e-03,-3.511524271119356808e-03,5.791093111038208008e-01
5.370999228833815975e-01,-4.551841417387933464e-02,-3.980431190782365847e-02,-2.528347830145811700e-03,-2.259676600734335499e-03,-1.256129544312901102e-03,5.798162221908569336e-01
4.898579159546559980e-01,-2.272190957289615953e-02,-5.908326253926435290e-02,-2.703377820825522432e-03,-7.924242934963895979e-03,-2.407148613211790387e-03,5.319079160690307617e-01
5.109185010217520695e-01,-4.373569405099608787e-02,-3.809221161045234227e-02,1.742061401987745218e-03,-1.844992957975614576e-03,-5.764381567669779084e-03,5.519618988037109375e-01
5.350109772590568857e-01,-4.768631007607004868e-02,-4.133700271377779845e-02,1.657435708222930243e-03,-5.065564152702817778e-05,-2.146218871123270824e-03,5.795677304267883301e-01
5.263086496697526595e-01,-3.904537421228715388e-02,-2.754722726664646237e-02,3.878596911157201552e-03,5.377706741294895586e-04,-9.667935985547945667e-04,5.597371459007263184e-01
5.410801748362306096e-01,-4.148876056483177810e-02,-4.411753600112269802e-02,-1.960873838858351401e-03,-2.396766078655707208e-03,-2.068298474891219925e-04,5.839124917984008789e-01
5.376017818648040070e-01,-4.948535162657324848e-02,-4.224538086780985080e-02,3.055853604110005811e-03,2.632060199916416189e-03,-5.042120245101928966e-03,5.836079716682434082e-01
5.386903949843530048e-01,-4.353505023620238279e-02,-4.601525736499087471e-02,7.163570941420801304e-04,2.755703980687624829e-03,-3.218375816236147564e-03,5.835169553756713867e-01
5.358464080935777529e-01,-4.088324165796813903e-02,-4.470768805950534053e-02,-3.048374019458678121e-03,-1.409960721209530280e-03,-8.463525477429731337e-04,5.786824226379394531e-01
5.308171786095967626e-01,-3.326262292185733216e-02,-2.808982943398244392e-02,7.451520738298642163e-04,2.586924867677139334e-03,3.855952134875342613e-04,5.615310072898864746e-01
5.152544346952547816e-01,-4.001243717548935708e-02,-2.974061891191004392e-02,1.657008990493248277e-02,-3.843704239629683328e-02,-1.603431825324619624e-03,5.549656152725219727e-01
6.171339432566408378e-01,-2.603468914010675928e-02,-4.922960079058172345e-02,-2.588686510774480809e-02,-1.033545627891638286e-02,2.885409683360177710e-02,6.587493419647216797e-01
5.032693322910600786e-01,-4.165023934076123036e-02,-6.388224972730338624e-03,-1.831498678909986586e-03,-2.265137419650982073e-02,5.918561056602707898e-03,5.297359824180603027e-01
5.342312126467523292e-01,-3.067865299347161123e-02,-2.488205815599298099e-02,2.397117994963355019e-03,4.554380791316771024e-03,-8.500290718293109643e-03,5.622974634170532227e-01
6.266185387960989672e-01,-3.314320971159800955e-02,-2.340231673807777191e-02,1.544972073051707577e-02,-7.356940924227575729e-02,5.861550283631476038e-02,6.754365563392639160e-01
5.296023104918601287e-01,-2.428335032879502808e-02,-2.790475806150025107e-02,3.243596344095208989e-03,1.679611637372973969e-03,-1.195601971159152357e-03,5.557450652122497559e-01
5.299258028223946537e-01,-2.838734531493389279e-02,-2.167129217407809394e-02,4.700477872440565752e-03,-4.654897645663150403e-03,-1.333405635694794077e-03,5.551086664199829102e-01
5.310949119851960942e-01,-2.985001330171369038e-02,-3.566599322324115473e-02,2.614824032521568305e-03,-6.780707645092557247e-04,-1.011650956207517903e-03,5.638975501060485840e-01
4.957514232749762328e-01,-2.970573006772023184e-02,-4.652004121825470406e-02,4.456215315236473559e-03,-2.226116717307825496e-02,7.180640868693650286e-03,5.356529355049133301e-01
4.442670513228010876e-01,-9.130222900818441012e-03,-4.565218708146118187e-02,-1.211381915147448363e-02,-2.252812482914346131e-04,-1.440529466829634916e-03,4.731897115707397461e-01
5.196515837491068046e-01,-3.973015343203106786e-02,-4.528519366493527487e-02,5.382817131944243536e-03,-1.484488857363383042e-04,2.834798642330049745e-03,5.622786283493041992e-01
5.318748138481860233e-01,-4.416667593192180608e-02,-4.671573463391287540e-02,3.042317753979324399e-03,-8.402006727504077871e-03,-8.442287506382108045e-04,5.775294899940490723e-01
5.535071648582368109e-01,-6.813379004606623379e-02,-3.769301555049489605e-02,8.284413097007309323e-03,-6.763003322555551089e-02,-2.702378244814144723e-03,6.183770298957824707e-01
4.273631222585079770e-01,-9.232614351719224677e-02,3.613959886052524328e-02,7.711088018827214584e-03,-1.405164634908739607e-01,7.920108789172890587e-03,5.286012887954711914e-01
5.243774797693525613e-01,-4.337013023420568936e-02,-3.661366775465776935e-02,-6.571218026528975395e-03,3.741744489043054506e-04,-4.655086717029580687e-04,5.645154118537902832e-01
5.428289525923508663e-01,-2.610792629979938329e-02,-4.378276162951560968e-02,-4.834096819305910842e-02,3.405864633956608763e-03,2.147574253925621166e-03,5.840519070625305176e-01
5.373170561718044747e-01,-4.283414738139040834e-02,-4.750761712432938211e-02,-1.174719478687500512e-03,2.188002044235117828e-03,2.700448733833763545e-04,5.825180411338806152e-01
4.939908313447091692e-01,-2.880107719162622315e-02,-5.439399238839648376e-02,8.949402632078285943e-03,1.073282399322480520e-02,-8.852750517339733061e-03,5.368120074272155762e-01
1.705467850604128199e-01,-3.660057340832569006e-02,-6.640038793028087138e-02,-7.780710802445751050e-03,2.628563292723052822e-02,-1.482836869808338426e-02,2.299675494432449341e-01
3.613786591300390816e-01,-8.736412532529896913e-02,-1.073153751972752423e-02,-7.312453864858712432e-03,8.801143924174079092e-02,7.603638069788945259e-04,4.430062174797058105e-01
3.312649151816206561e-01,3.235355298348632780e-03,-3.901992902930875862e-03,1.332438287217906385e-03,-3.419780910106759355e-04,8.361957731023281128e-04,3.316675722599029541e-01
4.541949035266881207e-01,-4.835468020036096104e-02,-2.113107335022529343e-02,7.839274930045435352e-02,8.757935761906003244e-03,1.418266588478262055e-03,5.082208514213562012e-01
3.498547882722680691e-01,-1.068856822531481787e-02,9.108030934237995591e-03,-2.071362447863163859e-03,-5.278798572884759940e-03,3.678583320059753900e-03,3.512590825557708740e-01
4.265517502810316497e-01,-2.298993023149678572e-02,-2.027573546537664306e-02,-1.395989120128909031e-03,-1.660888865167391409e-03,-1.014835558519949429e-02,4.485510289669036865e-01
5.475673259427078499e-01,-1.445401359347131542e-02,-1.424066252976566305e-02,-2.702743317431573547e-02,-2.314622233330856926e-02,2.993417348026000332e-02,5.676574707031250000e-01
5.249997650836487617e-01,-4.576157684753828780e-02,-5.285490373787260499e-02,4.030864718902050624e-04,-5.247349524980001855e-04,-3.230898076638674850e-03,5.743692517280578613e-01
5.267423944096034649e-01,-4.496872745449159714e-02,-5.020384763210841705e-02,7.688866852137363206e-04,-1.007077461096081775e-03,-1.132998292811735223e-03,5.743541121482849121e-01
5.260472195023694342e-01,-4.619600721029279433e-02,-4.891801762785299990e-02,5.988968782905613797e-05,2.180578294637502512e-04,-1.826861862286137611e-03,5.736179351806640625e-01
5.266642913922005009e-01,-4.081327351756899868e-02,-4.415905800855662866e-02,8.894141033030750166e-04,-8.381249540643986515e-04,-1.964270805927835809e-04,5.691618919372558594e-01
5.264700768976340317e-01,-1.136834513534396018e-02,-1.953352037230388083e-02,-1.993822415724244655e-03,-2.503799462238043977e-03,5.221566963505409539e-03,5.420709252357482910e-01
5.274898516820494265e-01,-4.457280219765993867e-02,-4.624768389932804036e-02,-6.480314883344935866e-04,1.720025143655269564e-03,-8.498346266058585041e-04,5.729126930236816406e-01
5.262324088531584731e-01,-4.233471062670399188e-02,-4.003319732429724831e-02,2.320718925118427436e-03,5.762743549111397487e-04,2.354064863494721585e-04,5.674351453781127930e-01
5.158677547663923502e-01,-5.009242743735986547e-02,-4.147619244309574960e-02,-1.278790425930615782e-03,-8.892205292110326356e-05,-1.264638767466568165e-03,5.617102980613708496e-01
5.244732158793415921e-01,-4.879190267204283615e-02,-4.186289269633294841e-02,-2.444682236516188684e-03,-6.644172069688612575e-04,-2.805202437778557458e-03,5.698698163032531738e-01
5.329939084948744910e-01,-2.739638412353431751e-02,-3.134766317694714921e-02,-1.147147990338400272e-02,-8.998182819733056143e-03,1.627365858546556826e-02,5.636482238769531250e-01
5.281378757666875812e-01,-4.457341710879389463e-02,-4.151607941357085552e-02,-4.862830292664259316e-04,-1.513388106519119756e-03,-1.395829636910717649e-03,5.712004899978637695e-01
5.469579977894583056e-01,-4.729123822499051166e-02,5.772564353575204699e-03,3.287520009669864457e-04,5.089172899287666349e-03,9.093665274652065755e-03,5.698603987693786621e-01
5.264471494441739230e-01,-1.753089177284097855e-02,-2.120405188237933780e-02,1.440106047962189096e-04,-2.319535295757018441e-03,4.270683486516293342e-03,5.458888411521911621e-01
6.369298444387673230e-01,-2.511822819059356116e-02,-2.680249440222889912e-02,-3.087556611360875447e-02,7.819065606609190006e-03,6.516686292742315811e-02,6.746917963027954102e-01
5.287053627429108005e-01,-3.686194512531573708e-02,-3.657472454852400690e-02,2.744503197217845920e-03,-1.271720314120690669e-03,-2.524307522437880332e-04,5.654481649398803711e-01
5.234628130624119358e-01,-2.271151811008556565e-02,-1.654921243572424205e-02,8.276505974238143636e-05,-1.920965433777060451e-03,3.776933556117094328e-03,5.431690216064453125e-01
5.280401314283285075e-01,-3.476191369411152365e-02,-1.016824970164173503e-02,2.036235130977138378e-04,-2.341846418765579797e-03,3.306538690813800620e-03,5.509619116783142090e-01
5.297562271179678817e-01,-4.276842452653326077e-02,-4.068789880488496435e-02,-1.521074838722845162e-03,-1.983262991723698456e-04,-8.151635505332762354e-04,5.714951753616333008e-01
9.005430629695864164e-01,-1.333633769304676253e-03,-1.253154848510427133e-01,7.630464172791312505e-03,1.972663966943543831e-02,2.512869438978871869e-02,9.714967012405395508e-01
5.216579797077899316e-01,-5.266986829952044480e-02,-3.830674531171249231e-02,7.157346157412019377e-04,1.058694422612966321e-03,1.171589971215645024e-03,5.672906041145324707e-01
5.213861585314329972e-01,-4.455608668604474354e-02,-2.886561574878332426e-02,4.521709444578863799e-03,1.335408289688814988e-03,-1.156890074000128119e-03,5.583257079124450684e-01
5.410389835193469832e-01,-4.552580116748125572e-02,1.185473918574783680e-02,9.515567430172206683e-06,3.677705367372015050e-03,-1.167714645645987100e-02,5.604846477508544922e-01
5.641521172814725205e-01,-4.336287076201372770e-02,-1.751914631555606672e-04,1.578452254691807555e-02,1.688903233210859106e-03,-2.618160561232756034e-02,5.895039439201354980e-01
5.329960345743131045e-01,-4.172204192492315333e-02,-3.935936893108379908e-02,3.469541823688761760e-03,-6.005205759913262963e-03,2.558268333748403415e-04,5.736663341522216797e-01
5.310913390879563600e-01,-4.226685685902248357e-02,-4.354394704085362555e-02,3.841087722125234583e-03,-7.236497758851863230e-04,1.235220982476643425e-03,5.740417242050170898e-01
5.446549455804121642e-01,-5.350830583935636819e-02,1.756007596768624501e-02,4.195165291864672887e-03,-2.543929269827739040e-03,-4.568614906302838688e-03,5.661045312881469727e-01
5.635061045457886442e-01,-6.996796941410157733e-02,3.297452030462319494e-02,-1.186729115440554767e-02,1.400566430399338138e-03,-2.371931234909876313e-02,5.905855894088745117e-01
5.431668488220235957e-01,-3.367861921514092582e-02,-1.742121679049235539e-02,-4.786399039870698098e-03,9.721030658627271073e-03,-1.401494362508018052e-02,5.697178840637207031e-01
5.311774352971804225e-01,-2.948632659680139323e-02,-2.886341908244222099e-02,1.796851680115418327e-03,3.656133793302746189e-03,-1.291503281291927737e-03,5.604014396667480469e-01
5.300686914275105632e-01,-3.381236115312305501e-02,-2.945605624233960107e-02,-4.038137560753380300e-05,3.258938199909287327e-03,-1.071958554193790060e-03,5.617470145225524902e-01
1.989611974155440499e-01,-7.600990038291399742e-02,1.460831755830303141e-02,-9.871000888985611253e-04,7.509984790399784615e-02,-1.958841192982186188e-02,2.774479687213897705e-01
4.453489991350265131e-01,2.456068490967296125e-02,-1.014223463427345873e-01,-1.541528666363711220e-01,1.418147223809700401e-03,1.239439092982470153e-02,5.636514425277709961e-01
4.392022771216944621e-01,-4.217025979712349382e-02,-1.881020064880861709e-02,-8.075320112945293506e-04,7.137981638804949749e-03,7.282923093775516173e-03,4.704617559909820557e-01
4.854610384277755486e-01,-5.840661877522632106e-02,-2.557654569679509993e-02,-2.990985274165198289e-04,-2.645460647054523654e-04,-2.595999896865044780e-03,5.282379388809204102e-01
4.908056072496452260e-01,-5.645056582173227366e-02,-3.119118815108140597e-02,1.199639551552449720e-03,1.143951973381518222e-03,-6.680043785479091584e-03,5.352066159248352051e-01
5.091078709383981549e-01,-4.056900441729113793e-02,-3.830611618055634882e-02,-1.877681068698765915e-02,-1.415419604178792638e-02,-5.098488390657832450e-03,5.501296520233154297e-01
6.003584684955896034e-01,-5.786473956825474718e-02,4.060799429920797232e-03,-4.826862089332701472e-02,-6.018983231123246902e-02,3.334921059165417423e-02,6.461627483367919922e-01
1.356336227555414164e-01,8.067830620012442222e-03,3.837409310474056146e-03,-7.760265821567907674e-02,3.299059422374728268e-02,1.068580767512122831e-03,1.953603476285934448e-01
4.802410389975877436e-01,-5.413989178404240987e-02,-2.735945989372629006e-02,-1.221140440286903883e-02,-3.142152102953937529e-03,-7.696853989741640235e-03,5.221340060234069824e-01
4.842368884097048021e-01,-5.601006820285076016e-02,-2.893044003357914118e-02,-1.795526613433288607e-02,-9.540998482147232049e-04,-3.603171140472178659e-03,5.281848907470703125e-01
4.228693203175538651e-01,-3.391780850221184918e-02,-2.258564566098852922e-02,-1.416304596083593943e-02,-7.157494619619563479e-03,-1.178983752140090081e-02,4.525251090526580811e-01
4.905201022041844050e-01,-3.664730937543916878e-02,-4.522733471302253783e-02,-1.989053609552438734e-02,-1.795685850228236763e-02,-1.270473434529558951e-02,5.339856743812561035e-01
2.686865631981041336e-01,-7.875011038511570138e-03,-2.569802616383558280e-02,-9.313238628039667566e-02,-3.819890444984426481e-02,1.308074653908587043e-02,3.356260359287261963e-01
5.197157659805768937e-01,-6.030981445558097898e-02,-2.935666859929575434e-02,-5.482712228321825684e-03,-4.908627073102003090e-05,4.174470332339235643e-05,5.652648210525512695e-01
5.211252328018736169e-01,-4.155949245061743569e-02,-3.796424547766935609e-02,-1.329868746100499287e-02,5.284130913994278429e-03,7.884318025288750880e-04,5.614447593688964844e-01
5.226437603192506387e-01,-2.214096927278197402e-02,-3.788754830662854900e-02,-3.987793559845283740e-03,-2.865132306902540543e-03,3.086665559802428526e-03,5.529174804687500000e-01
5.391160296996810875e-01,-2.137773545987975421e-02,-4.879675929225449349e-02,-1.246658463148051302e-02,9.702400710944331097e-03,-6.293234191082336783e-04,5.753460526466369629e-01
6.316166847102738791e-01,-2.973449351106519090e-02,-1.676991938806529636e-02,-4.866545519210786243e-03,-9.965271804610049966e-03,5.344832050102964888e-02,6.617540717124938965e-01
5.733103691124713519e-01,4.071956695252010316e-02,-5.113045367745944203e-02,1.830262794065168688e-02,1.888411671106866516e-02,5.093615385234331883e-02,5.923395156860351562e-01
8.733296063724520497e-01,1.121476865526238598e-02,-9.593441154274429117e-02,-9.617025401258147226e-05,9.225615200950314926e-03,3.931860188083227681e-02,9.230335950851440430e-01
6.428101543767182902e-01,1.090700602147531839e-02,-7.995503295191239146e-02,1.691039697396320984e-02,2.725127825649823962e-02,-1.140745925718225813e-02,6.844338178634643555e-01
5.427591663281483569e-01,4.403057226793904988e-03,-6.285791643373661586e-02,2.338541446857619541e-02,1.009763061138252774e-02,-1.401273421172046126e-02,5.771458148956298828e-01
3.720071356959362419e-01,-2.291883999697577612e-02,-1.313493880683250237e-02,7.094784022642137977e-02,-1.823326175864120949e-02,3.809397137740315638e-03,4.102925956249237061e-01
6.556999408039526633e-01,1.159714169211734092e-03,-4.855310955867783718e-02,-6.224339849862954924e-03,-4.375444507001955211e-03,4.192263241585647560e-02,6.847477555274963379e-01
6.123227758486391448e-01,4.476379147514059076e-03,-7.666685630516595351e-02,-2.890469762693071570e-02,4.180480720088827090e-04,1.403279954573525071e-02,6.545852422714233398e-01
5.427279809631064822e-01,-7.163510449349930198e-03,-4.365580327490911627e-02,3.752929521187341882e-02,-3.895655862327969399e-02,-4.474596932139279087e-02,5.818624496459960938e-01
5.613940810508304402e-01,2.595945015102052444e-02,-5.960763561360410412e-02,-1.632350901168311968e-02,2.798906020234730868e-03,-8.599206998841630797e-03,5.838426947593688965e-01
5.341199528041451483e-01,-4.166621241772977546e-02,-4.519330134143598188e-02,4.364911251709643544e-03,1.053535275177220135e-02,-3.068415198652958784e-03,5.779199004173278809e-01
2.016405895884270105e-01,-4.696249450569246059e-02,-4.294566234003261568e-02,-5.862140925649306916e-02,-9.061208304891386900e-02,2.312270001908230468e-02,3.120353519916534424e-01
3.417779079315426682e-01,-1.822454036339710148e-02,-1.295156572751582358e-02,-2.493076161267153076e-02,9.860240000573476660e-02,2.250334753371740961e-03,3.984700739383697510e-01
4.091265238420654926e-01,-3.400577088175801843e-02,-1.940978800693668460e-02,-1.909147527510357545e-02,-1.867411544021203851e-02,-1.274396091126853842e-02,4.390195608139038086e-01
5.264149890049817371e-01,-4.457330613065288438e-02,-5.075298286318127849e-02,-1.139919905320162892e-03,3.415447764905518539e-03,3.697313946652358747e-03,5.741726756095886230e-01
3.767594066095652505e-01,-8.754182361873710794e-03,-1.962799505745142781e-02,-9.522424516379210261e-04,-1.808250642443643167e-03,-6.250008111129736962e-03,3.912297189235687256e-01
3.302936635308177937e-01,-1.507017136719616957e-02,2.177407824419635984e-03,-3.384377460500920948e-02,-1.757937404778396346e-03,-1.108137758818850127e-02,3.426818251609802246e-01
4.031276071362333013e-01,-3.344965013462959658e-02,-9.926664132437271193e-03,-2.366708375649375154e-02,-1.943391189250095942e-04,-9.301267688081479162e-03,4.275786280632019043e-01
2.617680534313839846e-01,1.856612690663126536e-02,-7.302113807116113187e-02,-1.242962222156716590e-01,-5.330384926181607613e-02,5.523771582700283400e-02,3.922190368175506592e-01
5.692071501080708806e-01,-4.088004160514829843e-02,-2.963645357900832056e-02,-5.221899400772871819e-03,-1.719308218333710780e-02,2.676969920280428128e-02,6.071175336837768555e-01
3.603101097341027126e-01,-2.113554674115830645e-02,7.181399934964236009e-03,-2.978922267993708121e-03,-3.682611262377570756e-03,5.361781458982153181e-05,3.681963980197906494e-01
5.421173034970383497e-01,2.688516154987224960e-02,-6.397047516461687455e-02,7.149363418560624253e-03,7.794143280652274762e-03,-9.115735859764514601e-03,5.666705369949340820e-01
5.151122869041481200e-01,-6.001780984591287282e-02,-3.040506261773337493e-02,8.683263159438485077e-03,1.569009525591070131e-03,-2.060121436714422698e-03,5.611298084259033203e-01
5.188444398524812984e-01,-5.968968598627363842e-02,-3.186722135451722226e-02,2.733388875907210268e-03,-1.051479696821833003e-03,2.328643016089552466e-03,5.651739239692687988e-01
5.467375805021366109e-01,2.106937839007314017e-02,-6.510518287853986341e-02,9.962353128866204000e-02,3.493056158856787559e-03,-2.667022539459282943e-02,6.008305549621582031e-01
5.929248235800672617e-01,-1.254486635487647717e-02,-7.421675044301020985e-02,9.826797883563049077e-03,1.091093683885129006e-02,-9.027041067612151526e-04,6.390514373779296875e-01
5.055970268569914827e-01,-5.430650871195746854e-02,-3.086873102187095985e-02,9.269131954287036443e-03,-8.257592942706620841e-05,5.621032551368023052e-03,5.488815307617187500e-01
5.112558844830855653e-01,-6.142671029523336101e-02,-2.943634960345856144e-02,-2.946107951374617325e-04,2.716368764757470821e-04,1.320657820916183592e-03,5.573815107345581055e-01
5.211539116288679274e-01,-5.813879920373662968e-02,-3.201205440755988674e-02,1.736732828764047840e-04,1.924884479910424738e-04,1.789395906249239762e-03,5.666899085044860840e-01
5.618063533310539981e-01,2.723399723186800681e-02,-1.241936377267568448e-01,7.442613125119666717e-02,4.237998969076326589e-02,-1.521286635662666767e-02,6.421426534652709961e-01
5.253359926977609895e-01,-3.736092491514425573e-02,-4.183311228729838516e-02,5.136960476357476778e-04,-4.861859491302050751e-03,-7.310394180793844312e-04,5.650111436843872070e-01
5.083244459997796616e-01,-1.037511077557997929e-01,2.740768129937679043e-02,3.030987301911228574e-02,-1.390392940585871429e-01,1.406139174671177695e-02,6.106594800949096680e-01
5.217814477553093244e-01,-3.966673113270322015e-02,-4.058949264455366523e-02,-7.552955884580640810e-04,-9.082162833737692995e-03,-1.223025873371114342e-03,5.621358156204223633e-01
5.085474596861883079e-01,-3.379189564106052646e-02,-5.936216697513529983e-02,-2.128852240533933137e-03,-2.774084425651726551e-03,-1.720063514077659322e-03,5.556070208549499512e-01
5.246700748824288940e-01,-4.761121947486932071e-02,-4.112256523442697764e-02,-1.689713817043534631e-03,-5.640613228977275776e-04,-4.126019713662384264e-03,5.691179633140563965e-01
5.324030970245816619e-01,-2.472262303824163121e-03,-4.350325976677527073e-02,3.966447807742707471e-03,5.013986402965103784e-03,2.816624471460743920e-03,5.566579699516296387e-01
3.672379575817987796e-01,-5.581798449420227737e-02,4.689713446706184063e-03,-9.656453437933472383e-02,-1.226030748018716449e-01,5.393730941493787151e-02,4.887082278728485107e-01
5.217257171044904496e-01,-3.803332471220638444e-02,-3.660001476678836907e-02,-1.220198272921552488e-02,-4.038037359558004752e-04,-1.293732975021502033e-03,5.594480633735656738e-01
5.153527717660144614e-01,-3.004327526802760828e-02,-6.024297861533525755e-02,1.087262869532222131e-03,-1.722470845825755867e-02,-1.314313104217404134e-03,5.619060993194580078e-01
4.452679114130937421e-01,-3.742172120775674737e-02,-2.162192100783710824e-02,-2.325458987141312828e-02,-7.070193127000301558e-03,-1.216431988714264043e-02,4.773140549659729004e-01
5.256485486958415443e-01,-4.269154223584120667e-02,-3.928679758435055236e-02,-5.900733636067538937e-03,-5.746880906365156583e-02,-1.628958397706180066e-03,5.754193067550659180e-01
5.359181111436972511e-01,-1.142541923165618645e-02,-1.722541541650016161e-02,4.739951259331671649e-03,4.742471141443195537e-04,9.113874015412606194e-03,5.505546331405639648e-01
7.094568674918136919e-01,-8.325083465283261708e-02,3.017555843040281571e-03,-3.782137594797763819e-02,-1.362118359793909605e-01,5.881003628896167706e-02,7.986052632331848145e-01
6.345516505121875372e-01,-9.410391169006143697e-02,2.090906965797714734e-02,1.416980814400819501e-02,-3.496054068237895024e-02,-2.468441187189270632e-03,6.816519498825073242e-01
5.262195852548069430e-01,-4.061645887303758085e-02,-3.878591596226987903e-02,1.671726810973654231e-03,6.978400104919354997e-05,-2.760904125993662774e-03,5.659506320953369141e-01
5.281903324751560103e-01,-4.792797842146856446e-02,-4.760940195537197162e-02,-2.078365464600903548e-07,-7.860015655426966967e-04,-2.070809216232698258e-03,5.759718418121337891e-01
3.869183541729294129e-01,-1.924781471821052081e-02,-2.192205751003165060e-02,-2.399429813712623122e-02,-9.115820966100449162e-04,-1.210012582749723370e-02,4.101624190807342529e-01
4.868119582781459953e-01,-2.731997157175353186e-02,-5.785194675905422357e-02,3.506810880827992321e-04,-2.030295440789756101e-02,-3.477639698223979644e-04,5.312237739562988281e-01
5.325218584475260863e-01,-3.633966173892955176e-02,3.962564020585951363e-03,-4.934703177749408861e-04,4.971345312536453375e-04,7.273241390805238599e-03,5.499649643898010254e-01
5.754412439641896082e-01,-2.889532992676147050e-02,-3.586457312461252545e-02,-5.966512730357585031e-02,-2.006537544952027505e-02,5.651736647436447075e-02,6.252626180648803711e-01
5.289772794718218263e-01,-1.957864184224905602e-02,-2.138942315716835241e-02,-1.246458391239560048e-03,-1.661290107962163460e-03,4.607596664662039210e-03,5.495332479476928711e-01
5.951999742972556851e-01,-6.428467243882041160e-02,8.482474977495407797e-03,4.072845923457085390e-03,-1.201935381555806724e-02,-1.809883283565977101e-03,6.266731619834899902e-01
5.200824823316272383e-01,-3.147036752131487924e-02,-5.806938981225981400e-02,-1.071052650932627153e-04,2.711157834008369374e-03,-2.800453274915256849e-04,5.653415918350219727e-01
5.059958485934328287e-01,-3.014145280427008022e-02,-5.769678840931341535e-02,5.248420762402577870e-04,8.088063031898526725e-03,1.403981533262786685e-03,5.506168603897094727e-01
5.385434850974426535e-01,-5.234189984852621880e-02,-2.539058054573156697e-02,-3.221429345104893059e-03,1.232306863284003511e-02,3.206973541183588076e-03,5.783289074897766113e-01
5.141238864345213377e-01,-3.065846781199990656e-02,-5.966492530186404131e-02,1.333816593448017762e-03,-6.502182616006644579e-04,-9.728323005400175136e-05,5.598553419113159180e-01
4.569418437980434788e-01,-2.802422896777501116e-02,-3.502686978138741525e-02,3.680625829427902618e-02,5.998944397775728132e-02,3.230187152727178376e-03,5.035164356231689453e-01
3.494671718001333693e-01,-2.536949514066919042e-02,1.486582795414781444e-02,2.490645876468206357e-02,7.871809923962684585e-02,9.255705536101136929e-03,3.843791782855987549e-01
5.268330583707987458e-01,-3.453563845473706095e-02,-5.853059865757745395e-02,1.835243718518455094e-03,3.481535065491647707e-03,-5.810482379755755765e-04,5.737839937210083008e-01
5.348898580394797486e-01,-4.269300917712362531e-02,-4.070204323455042794e-02,-1.500279551856330967e-02,-9.679137350608733870e-03,-2.941054827822150042e-03,5.774410963058471680e-01
7.270391954019495007e-01,-5.676210450457455647e-02,-3.619572173151569539e-02,-5.387778547069867197e-02,-9.358260454120187477e-02,6.869534110709069052e-02,8.048516511917114258e-01
5.844077222523520465e-01,-5.371808536400302092e-02,1.086169080944315857e-02,3.332046467543074535e-03,-5.373166311698856362e-03,2.526185290673260350e-02,6.100815534591674805e-01
5.512463816695125640e-01,-2.954304219934056341e-02,-1.880809431252267183e-03,-3.964930707928747498e-04,-1.046940948039356070e-02,2.073819740358268798e-02,5.688893795013427734e-01
6.412547327849428269e-01,-4.131182765948232527e-02,-2.642277721870375795e-02,5.157844582429364690e-04,5.191145734108748057e-03,5.011295427125665725e-02,6.808609366416931152e-01
5.094750118254418592e-01,-4.062567465989205817e-02,-4.758144558962593140e-02,-5.131259605874020219e-03,-6.538955781143874352e-03,-7.259703632645952281e-03,5.539412498474121094e-01
5.348761413304953249e-01,-1.322173862994335813e-02,-2.817773330806050414e-02,1.226145637880001306e-03,3.026731708356260320e-03,1.257821980883377239e-02,5.561825037002563477e-01
5.146415427199657611e-01,-5.453925992218028318e-02,-3.620114878577604389e-02,-1.018439105471839051e-03,-1.851854729898212617e-03,-4.792439129412710483e-03,5.603103637695312500e-01
7.567815289470518625e-01,2.209062405454781386e-02,-8.738163145309091329e-02,-1.364436217956450093e-01,4.378307633076568284e-03,3.891588991239193496e-02,8.322467207908630371e-01
5.308096565910396247e-01,-4.951101060405316279e-02,-4.089428979643913720e-02,5.108774180819388930e-03,-1.195515168374584967e-03,-4.502946486417750555e-03,5.761851072311401367e-01
5.342473825099175455e-01,2.600246305320769169e-03,-3.348340847626590788e-02,-5.916094010548914386e-03,-7.357381333278928404e-03,5.076675901558137284e-03,5.508894324302673340e-01
5.341979274018985313e-01,-4.180567278222996341e-03,-2.655699849035006443e-02,-5.453448935966828844e-03,-7.752027961642042782e-03,1.174256389867524807e-02,5.505290627479553223e-01
5.620574609987827319e-01,-3.007574497091583532e-02,-2.764941669873210994e-02,-3.754898508630683581e-03,-8.650516150480357797e-03,1.290044098461661480e-02,5.915716290473937988e-01
5.331884037277475619e-01,-2.808522373350114121e-02,-2.623703388725756591e-02,-3.136487460192217969e-03,2.852155997495645860e-04,1.859869991651134143e-03,5.603876113891601562e-01
4.496938893730653142e-01,-1.900873441080108694e-02,-3.668621222123660819e-02,-8.549500712753744288e-04,-5.531098571147310570e-04,-1.052907528525439014e-02,4.781378507614135742e-01
4.218501129424727658e-01,-2.696539998088029466e-02,-2.326718132653365911e-02,3.463780358202094012e-02,-3.235697925145879662e-03,-9.950076846666924477e-03,4.513501822948455811e-01
2.792812820803490803e-01,-9.931775534566811281e-04,8.126007622830111465e-05,3.164498112298796267e-02,7.685630553766961692e-03,-4.877428290809751772e-03,2.854935824871063232e-01
5.423693592338426628e-01,-2.251567517526706363e-02,-2.720033113845413131e-02,2.894772710594929136e-03,1.072524455646491591e-02,3.805888297030947387e-02,5.713834166526794434e-01
5.295721683912451017e-01,-3.871744329100562654e-02,-4.238134054439793297e-02,1.871306632078026302e-03,-2.300108756722562143e-03,3.321440286190893948e-04,5.701538324356079102e-01
5.561111536476399664e-01,-3.843577989638521930e-02,-1.526776360846499037e-03,-7.992551758043607568e-03,-8.436060293957856754e-03,1.932597747145732570e-02,5.782990455627441406e-01
5.208597613268616255e-01,-5.364869319281806437e-02,-3.661301241018496966e-02,6.173903867368044258e-03,-1.557427384560609168e-03,-4.220452897668030591e-03,5.663374662399291992e-01
5.664041504182752984e-01,4.850358259095022273e-02,-5.547998618121413594e-02,3.632654515663231998e-02,2.249534852850423525e-02,3.522071108786302418e-02,5.848805308341979980e-01
5.416075129553865608e-01,-4.476731990824261986e-02,-4.598260670913864590e-02,2.455241506885544756e-03,8.780832903037681658e-03,2.085031005679116242e-03,5.872069001197814941e-01
3.921691064073131727e-01,-1.297664399271133973e-02,1.170679246257126660e-02,1.209920758573223842e-01,9.841155425833277015e-02,2.342476230808024709e-02,4.789257347583770752e-01
6.312625616190904454e-01,-3.028248785515827435e-02,-3.600288703353948794e-02,1.043269015085143171e-02,8.532628238552586106e-03,3.954987420307293222e-02,6.683534979820251465e-01
4.023454636322014166e-01,-2.712002459021782552e-02,-2.156200680665763814e-02,2.563168799324720692e-02,1.571575929570804067e-02,-6.366778204364698796e-03,4.300209581851959229e-01
4.352922458502621605e-01,-1.570418855574209904e-02,-3.834637991903935839e-02,-7.680968633859495531e-04,-1.301845585056759375e-03,1.070413800385746272e-03,4.627442955970764160e-01
6.104071429273103533e-01,-7.721450267399485035e-02,3.635278073301007051e-02,4.737352289193537402e-03,-1.641397912474946291e-02,1.121545817124457167e-02,6.394393444061279297e-01
5.265214584028030664e-01,-4.030743263126151943e-02,-5.325953328763605166e-02,-5.002688332585671820e-04,9.049644535809765614e-04,2.499318981313027304e-03,5.734338164329528809e-01
5.495937606681235987e-01,-5.929764419288399702e-02,2.798883562648663004e-02,3.482125015276480579e-03,4.645275349841528068e-03,2.897660839289537861e-03,5.703910589218139648e-01
5.488183808963112975e-01,-5.428041467397318187e-02,2.016210491183978437e-02,3.274422201352709602e-03,3.180155251445463457e-03,-1.721869711161006389e-03,5.696007609367370605e-01
6.576201690853026305e-01,-9.566809348215837838e-02,2.769423685076821684e-02,7.066516417305764713e-03,-5.241494157101508206e-02,-6.427182837055874301e-03,7.058681249618530273e-01
6.435447019213110798e-01,-8.481460026028739274e-02,1.704443981083703097e-02,1.435289387807145434e-02,1.836588957267167033e-01,-2.987132511878975646e-02,7.557640075683593750e-01
5.448492923837231494e-01,-4.803546981908440872e-02,-5.255868732535695642e-03,1.411224755676395793e-03,6.240433768253832170e-03,-4.376072985213690959e-03,5.728518962860107422e-01
3.501729454193782676e-01,-2.971239934877896449e-02,2.095293189859076532e-02,3.476117004001084282e-02,-1.163405048758556631e-01,-2.959682782401653819e-02,4.177213311195373535e-01
4.573571998476589906e-01,-1.904193088387765020e-02,-4.492955189700698071e-02,-1.049312606180078083e-03,1.719856000720852707e-02,-3.633010170041047100e-03,4.908048510551452637e-01
5.002969797621836801e-01,-3.690587802075981361e-02,-3.885361781953525218e-02,4.388286091669619735e-03,1.139074440125405902e-02,-4.182439998338778435e-03,5.386432409286499023e-01
5.059589438229027403e-01,-2.815813127470606636e-02,-5.715206636123112971e-02,2.375890289760809390e-04,9.266379624796363887e-03,-1.787276311641146018e-03,5.494316816329956055e-01
5.007824672443564884e-01,-3.500345878062366411e-02,-4.796183137795972939e-02,3.708418139636809711e-03,1.368127089092581114e-02,-1.905468769084572075e-03,5.429466366767883301e-01
5.311083291780057669e-01,-3.092903085961734577e-02,-3.367525009334854103e-02,2.117511458458279892e-03,-1.373747802803956591e-03,-5.363428472840612530e-04,5.634332299232482910e-01
6.971760612500758070e-01,-5.851864572336282211e-02,-5.812445281630426730e-02,-3.996539888467473545e-02,1.524246718661921296e-01,-8.644531819305527331e-02,8.171209692955017090e-01
5.323746393015411638e-01,-3.106914049980058490e-02,-3.923671696132757791e-02,3.186411923557446336e-03,1.583217207963671068e-03,-1.435898359519036192e-03,5.676105618476867676e-01
5.317428694310186721e-01,-3.851334681433346563e-02,-4.332871726105885779e-02,9.465174951783672953e-04,-1.340185575321047344e-03,6.143422599720264714e-04,5.726871490478515625e-01
5.967683278447378781e-01,-1.020052193218393133e-02,-5.732338983368123753e-02,8.442498243465126201e-03,1.568629716029365170e-02,-2.429851289363296404e-02,6.340008974075317383e-01
5.293782602877195043e-01,-3.321115369704430442e-02,-3.136653835453426242e-02,3.302173220193293981e-03,-1.905578897372906102e-05,-8.642192060114195669e-04,5.617005228996276855e-01
5.356328993681442885e-01,-3.878198409354469134e-02,-2.716668858218376781e-02,6.268893146504517927e-03,-2.545030867276928434e-03,-1.415526520359706346e-03,5.688222050666809082e-01
5.425047754889084084e-01,1.793835968762258481e-02,-6.543957658981111591e-02,2.034556856035724462e-02,2.371742206186784694e-03,-2.334887076974094186e-02,5.733700990676879883e-01
4.977278169501111460e-01,-4.793329775694110673e-02,-3.387497046817933288e-02,1.382982651541055097e-03,-2.174964126066430015e-03,4.620412873881210407e-03,5.388474464416503906e-01
5.070666002994907995e-01,-3.766688594497594189e-02,-3.621477790364863170e-02,1.062228410761461780e-02,-5.278305493314842597e-03,2.359952352221509947e-04,5.443968176841735840e-01
4.815351516276558108e-01,-3.614701513484738782e-02,-3.905022442369834867e-02,-1.151073821569206996e-04,2.452079552434072141e-04,1.029307796763521965e-02,5.194461345672607422e-01
4.851154147712344322e-01,-2.339012804208695506e-02,-5.171762118620046311e-02,6.710792666786924649e-04,-1.892947265479427742e-04,6.736064332643129995e-03,5.233761668205261230e-01
6.084336166329626927e-01,-7.237386470065046429e-02,4.698945854754804641e-03,5.318337451498995894e-02,-1.461616855348077046e-02,-4.831913885407424641e-02,6.581016778945922852e-01
4.869210358319699949e-01,-3.089234086438927274e-02,9.173727250036234349e-03,8.919566644418888690e-02,-6.624827648954668968e-02,-4.324639042813595985e-02,5.400315523147583008e-01
5.556954825419331279e-01,6.541962229275111174e-03,-5.267671351665126345e-02,-8.252588987061900902e-03,6.154864325142417672e-03,-1.907518235382219766e-03,5.813135504722595215e-01
4.707452648959197794e-01,-2.167811856526613568e-02,-5.450008633958150495e-02,-6.018631565944263656e-03,-7.251663928945094231e-04,-2.831041997344569631e-03,5.097594261169433594e-01
5.070901382368879773e-01,-4.078428913431367264e-02,-5.176013133797821575e-02,9.882984390071004183e-03,-1.399336083595889395e-02,6.951635234749514378e-03,5.543696284294128418e-01
5.314305317986832700e-01,-3.714205421289393239e-02,-4.923149020246800345e-02,2.615839754026233824e-03,9.104885052194680931e-03,3.573556646465810439e-03,5.749801993370056152e-01
5.370885223683115051e-01,-4.281698641752590406e-02,-7.989240116633988809e-04,-2.899387317140160285e-03,2.642445634352747191e-03,7.379290098460759666e-03,5.602668523788452148e-01
5.465452607168336252e-01,-5.440499646732285810e-02,2.060723945847059424e-02,-2.578173691170924500e-05,-3.207216380948132561e-03,1.381349141904751263e-02,5.677083134651184082e-01
5.313730467870855234e-01,-2.847331179785841937e-02,-2.142596457481232841e-02,-4.357793687662804734e-03,-3.286121654316362731e-03,1.569575546159410152e-03,5.564430952072143555e-01
5.403510616219929785e-01,-4.789655964408862099e-02,1.557197475506325035e-02,-6.835223911073091616e-03,-4.265186409946249493e-03,6.174094461829489344e-03,5.594974756240844727e-01
5.329623394522128299e-01,-3.337106799776937138e-02,3.509018990199175292e-03,5.538131474748154591e-04,5.259436873604673339e-04,5.479115798509435337e-03,5.489071607589721680e-01
5.400642393707190125e-01,-4.266497299069804683e-02,-4.738801630093489314e-02,-2.833968509452525165e-04,8.077169032498227996e-04,-2.759887030246502282e-03,5.851264595985412598e-01
5.364246397205628680e-01,-4.085754474458250241e-02,-5.245989163572559177e-02,-1.837704211882826939e-03,-1.751692719421007365e-03,-1.134064029830681494e-03,5.831897854804992676e-01
5.058469409619253954e-01,-4.151475461382936327e-02,-4.027255132463361531e-02,4.955229820253489320e-02,2.804128368032922022e-02,-1.225021739231858461e-02,5.559692978858947754e-01
5.375951998108456920e-01,-1.895534521111960635e-02,-4.551791687927567165e-02,-1.827144684432579352e-03,9.082127523034827857e-03,-1.641040210478284401e-03,5.705287456512451172e-01
5.470023665265628665e-01,-1.321118977631211000e-02,-4.650938646527355558e-02,-5.412777422063090767e-03,7.915230888658158007e-03,2.807650796198220603e-04,5.778219103813171387e-01
5.594658139077920422e-01,2.015794867863585083e-02,-5.929646649558384386e-02,1.633282543649926732e-03,3.222755475359428360e-03,-3.385157935244544752e-03,5.831722617149353027e-01
5.305373956325707407e-01,-4.969881847434873268e-02,-4.155323798049664896e-02,3.824250084016940932e-03,-1.363006596144708191e-03,1.838197111191554843e-03,5.762583017349243164e-01
5.557862122126013826e-01,2.819669710565403387e-02,-6.300754820864587491e-02,-8.565354188003162367e-03,-4.867588540963849837e-04,1.953912921787807032e-03,5.788087248802185059e-01
5.467969571469688539e-01,2.976334070554814692e-02,-5.463399602713261971e-02,-1.488374326770645038e-03,5.274927339118040508e-03,-9.031834859589898262e-03,5.642851591110229492e-01
8.292166244045509060e-01,-3.047844513501840602e-02,-1.091759331698273217e-01,1.013355686931296240e-01,1.562502383610062454e-02,-7.310255259406341077e-02,9.276291131973266602e-01
5.521980258866788782e-01,-1.106413454304241983e-02,-5.557809816128220226e-02,-8.225709922938122948e-03,6.186380508856300850e-03,-8.705674668923477424e-03,5.872511863708496094e-01
5.414019742752476105e-01,1.004082835331554513e-02,-4.746059067102859075e-02,1.690649531928264471e-03,3.932527138926961846e-03,-1.295883891414864250e-02,5.628178119659423828e-01
6.604776062290378391e-01,4.058668295404319060e-02,-1.071725929425402513e-01,9.118301179925546174e-02,6.859103197375325534e-02,3.614757937908825991e-02,7.353022098541259766e-01
5.579273899773367074e-01,5.291908344827797595e-02,-6.968199810166098018e-02,9.656213128242375349e-03,8.495438543065053985e-03,-5.003790383834486911e-03,5.766717791557312012e-01
5.334679263658016479e-01,-5.352325613068226184e-03,-3.719203525003841881e-02,-5.039816817483059458e-03,-2.677542185573669915e-03,1.147044052657319665e-02,5.558680891990661621e-01
5.444890032449077877e-01,1.103073388946593236e-02,-4.572980934508430462e-02,-4.011241945996255748e-03,-4.308795947224677847e-03,6.912477325488373438e-03,5.642040371894836426e-01
6.401265163561846716e-01,2.369328833013314983e-02,-1.260038546697453410e-01,-1.403083470668868571e-01,-2.159957031530101296e-02,2.174895405895639622e-02,7.460263967514038086e-01
5.927586631498643621e-01,2.951495724346728244e-02,-7.291790843404721834e-02,-3.634397144030451776e-02,-2.257477782477420800e-02,4.070413959578665641e-02,6.291999816894531250e-01
4.945001485751222559e-01,-2.994573589829577220e-02,3.653681572106853848e-03,3.709304802213010677e-02,5.158230404539038139e-02,3.945081885161853125e-02,5.247192978858947754e-01
5.640648566100467942e-01,-4.403518207255874284e-03,-3.067815965977035986e-02,-3.962206818169643902e-02,-2.282112107273535917e-02,4.529791447982180197e-02,5.926303863525390625e-01
5.143471926383855752e-01,-6.004589692921261102e-02,-3.210698628453698134e-02,-1.865146902371920276e-03,2.705673975700298786e-03,1.185522184856607720e-03,5.609783530235290527e-01
5.066446721917199358e-01,-6.258222011838276977e-02,-2.788873771295743986e-02,-9.360860759650499116e-03,9.891699647783175949e-04,1.362166323541636349e-03,5.529428720474243164e-01
5.047393730219376096e-01,-5.719715533999431001e-02,-3.009946856520814840e-02,-1.155117691650634328e-03,-4.146652773841904747e-04,1.071918155548746889e-03,5.488968491554260254e-01
4.839230764227719916e-01,-3.010829460997721529e-02,-3.846016216151593170e-02,-8.652091970997154852e-03,-1.995607783122322482e-02,-2.515909543804677705e-03,5.196435451507568359e-01
5.285972613354184002e-01,-3.868987860525460731e-02,-3.951740453835542177e-02,7.809825069826777880e-04,-9.592546289783692240e-03,-2.221396084317457578e-03,5.679590702056884766e-01
5.229364550779702636e-01,-3.764557560737202824e-02,-4.999824752449325005e-02,-7.516072349341406875e-03,-1.071847854482548684e-02,-3.116309588638589527e-03,5.673382878303527832e-01
5.242831186302243651e-01,-1.365734358369932733e-02,-1.641842536566986976e-02,-1.441810642415100683e-03,-1.755775663671000969e-03,4.902806165911047925e-03,5.394074916839599609e-01
6.029529539168579921e-01,-4.925284522793726971e-02,-7.753158680042032680e-03,-1.032816997272064004e-02,-2.863714646833323552e-02,2.637305848876994596e-02,6.363137364387512207e-01
5.262737828931278727e-01,-3.171356555949406131e-02,-2.665540729096338435e-02,4.755637848497887461e-03,4.397523566110415894e-03,4.660331517864959444e-03,5.556474328041076660e-01
5.264717870722540605e-01,-3.971628723689424323e-02,-4.370782751490798201e-02,-2.569987698316865844e-03,-3.712080479227023062e-04,-5.101048608703698294e-04,5.682128667831420898e-01
4.873247512108984658e-01,-6.269838181500028695e-02,2.181064711509800302e-02,-3.119851932646630632e-02,-1.044906343307691193e-01,2.427053728575454331e-02,5.482950210571289062e-01
5.544753451786709197e-01,-3.891744964158647124e-02,-2.852387583707205465e-04,1.869907051210207378e-03,-2.158432830217750075e-03,1.765293825557939442e-02,5.758842825889587402e-01
5.470366367744404767e-01,-4.931714581011423237e-02,-1.872745979017975682e-02,8.231244832578964513e-03,-7.744629861505782781e-03,8.452024749262031580e-04,5.819936394691467285e-01
5.124769537113443851e-01,-3.157801682295677259e-02,-5.159130549357485163e-02,6.124314012003355401e-03,1.498987582979197271e-02,4.433108879358295222e-03,5.550947785377502441e-01
6.834130548351150525e-01,-8.106695828430096618e-02,8.658918709696650229e-04,-1.038861476044375051e-02,9.962753892380500631e-02,-4.730370851263335924e-02,7.518778443336486816e-01
8.452181287001191423e-01,-1.377356941193313145e-01,-1.509780882935929380e-02,2.342395149647603925e-02,3.527708267041632789e-02,-2.793104846137311678e-02,9.318856000900268555e-01
5.320925455452594210e-01,-2.597785359946475081e-02,-2.140644383147713437e-02,1.623035425405238916e-03,6.964607869671062641e-04,-5.408514757629409413e-03,5.558861494064331055e-01
4.770345768559021149e-01,-2.340486494037935516e-02,-4.100820535157276292e-02,-5.007721575420454041e-02,1.851317524354840691e-02,-6.872080093651827641e-03,5.179305076599121094e-01
5.436607662061685442e-01,-5.413778597524862568e-02,2.737138297525940067e-02,3.659437632383519441e-03,2.373724925269000540e-03,-2.567061991981796874e-03,5.615671277046203613e-01
5.368265668352075748e-01,-5.672389232270744208e-02,-1.931550693668321328e-03,9.871655695280451281e-03,2.011407127194806549e-02,5.964346094510539729e-03,5.695569515228271484e-01
4.855598970383240842e-01,-3.295637573458073954e-02,-4.247530991191150740e-02,-4.558178909703150018e-03,3.528683298487893250e-02,8.212025048668841060e-03,5.271485447883605957e-01
5.029302214004433003e-01,-4.718198111512419968e-02,-3.877839652634254564e-02,-4.254044228642017873e-03,4.029211206920688473e-03,8.278673727477661726e-03,5.462414622306823730e-01
5.297881996682820560e-01,-2.799772170390973924e-02,-3.407793266389874676e-03,4.499416395284406775e-03,2.859929186516882980e-04,-8.077823157193613629e-03,5.461415648460388184e-01
5.484754691409376992e-01,-5.455412778655804873e-02,-2.014806937060004133e-02,-7.069643179667181587e-02,1.580465959696696759e-02,-5.450572959944548906e-02,6.072368025779724121e-01
2.436330077813487205e-01,-1.268002537898541005e-02,6.464506943648570814e-03,-6.647065139972227477e-02,-1.121885721915203415e-01,1.035249196062098392e-02,3.353972136974334717e-01
4.257648776857502204e-01,-4.536091829012334209e-02,-3.702160039181329187e-02,1.259126469211820365e-01,-7.677853315603049011e-02,-6.620022692879891368e-02,5.445129871368408203e-01
3.908528548891794241e-01,-2.601962248596635663e-02,-1.208990387555593238e-02,5.121314993466938997e-02,4.233171749197985057e-02,-5.705103283548536644e-03,4.260419011116027832e-01
5.263460804405380999e-01,-4.824058153715027331e-02,-8.116564352673799609e-03,-2.766406705478660980e-02,-2.319852482540553807e-03,7.999153875718183898e-03,5.578611493110656738e-01
5.209780858978187990e-01,-3.838608112922078930e-02,-5.508123596333172611e-02,2.445745251105706144e-03,-4.983807442075618988e-03,1.334522276479797702e-03,5.679819583892822266e-01
4.491920223631273856e-01,-1.901593850569438526e-02,-6.718320892936224809e-02,1.322726315219260318e-01,-2.733645203010490882e-02,-5.802893065536735701e-02,5.558085441589355469e-01
4.524006768073712825e-01,-3.566176861405140341e-02,-3.648077285238668366e-02,-1.647438635612075500e-02,-1.615192882785753889e-02,-1.261256162811008781e-02,4.905909299850463867e-01
4.366061778939191451e-01,-3.468139892539209845e-02,-2.565126452095778387e-02,-1.600795704461678570e-02,-2.934027442714404383e-04,-1.344939188163815982e-02,4.682407677173614502e-01
5.660307489895570754e-01,-5.450391177806881982e-02,-1.306195183894562351e-02,3.056206339939412236e-03,-9.727356258854173710e-03,-2.686786252148539605e-04,6.011461019515991211e-01
4.429190204454990232e-01,-1.219494185875691361e-02,-4.617465718967089794e-02,7.348682551208636287e-04,-1.389276373864616184e-03,-4.999198715139386781e-03,4.731071293354034424e-01
4.450660089590203761e-01,-1.465885828331034424e-02,-4.758946523353521640e-02,3.480200042071825151e-02,-5.806158573838765546e-02,5.771927942323051668e-03,4.913423657417297363e-01
5.210810401640683098e-01,-4.719610040875474311e-02,-4.570961396934286602e-02,-2.251837074988064825e-03,1.955273450585284897e-04,-3.788117800106649037e-03,5.675867795944213867e-01
5.053340208017422786e-01,-6.009501294290475748e-02,-3.111986751489415060e-02,-3.171105534452550376e-03,3.805227351742655403e-03,1.031522846755026984e-03,5.515822172164916992e-01
5.105869454157239140e-01,-5.700656114166391397e-02,-3.316444601972340367e-02,-7.765042187913883179e-05,2.006126358842486111e-03,2.799214173391891946e-03,5.560879707336425781e-01
4.973254088080201751e-01,-5.853770524295948130e-02,-2.911087367349987631e-02,-7.797008162804422091e-03,-2.971605212553183150e-05,3.729747362841508412e-03,5.419562458992004395e-01
5.138817473000135694e-01,-6.064611589607482589e-02,-3.123385961711383496e-02,-4.478160426001364519e-03,-9.719406955380118646e-04,1.097591480664598159e-03,5.604603290557861328e-01
5.040510830728219815e-01,-6.268971965612679664e-02,-2.862423222197746364e-02,-6.962326328405687645e-03,2.320917982422413418e-03,-5.976586756676978331e-04,5.506468415260314941e-01
5.035047284846847493e-01,-5.607605528692435892e-02,-3.271790867670998360e-02,-3.650809044278351036e-03,2.331314119164797950e-03,2.044580859758936622e-03,5.483377575874328613e-01
4.988825199751214523e-01,-6.301562012985939543e-02,-2.588920768989463883e-02,4.826164234928640427e-04,3.926154015328993721e-05,-9.856446723188235903e-04,5.442887544631958008e-01
4.943150088805207121e-01,-3.926949846551092138e-02,-4.661594659131218510e-02,7.592146223588030281e-05,-5.757153299812068498e-03,-9.113878786883312585e-03,5.376197695732116699e-01
4.785525594991590914e-01,-4.387273679176145746e-02,-3.809445541501954580e-02,-1.892322916294502874e-02,-6.078204607821770808e-04,-8.335146901637106864e-03,5.207942724227905273e-01
5.436938551331274017e-01,-5.938018115113230522e-02,1.181994081938025909e-02,2.761737875992979763e-03,-9.297124365380833588e-03,2.316263469867913070e-03,5.710753798484802246e-01
5.299354167430916362e-01,-3.507734337059698060e-02,-3.142230517634270193e-02,1.235819324843762763e-03,-3.612763405957401548e-03,-2.141499641215648120e-03,5.632451772689819336e-01
5.554314440214480619e-01,-3.279408056084792689e-02,-3.748755945608944762e-02,-5.670578419939367731e-02,-3.904141433879092238e-02,2.635045781070854271e-02,6.042305231094360352e-01
5.249196469681280952e-01,-4.129385012534272925e-02,-4.871575315733073230e-02,-2.077676562036844671e-03,-4.008105890833795273e-03,-2.296248678814510544e-03,5.700281858444213867e-01
5.083746569035156870e-01,-4.665969335417655128e-02,-3.907181300812054281e-02,-6.152402224230233557e-02,-8.467641562630658092e-02,1.540424235299001771e-02,5.809362530708312988e-01
5.240271189935292728e-01,-5.153706956203246703e-02,-3.878398348574260690e-02,-9.704966115383352812e-03,-2.436461497252465774e-03,-4.678284859244759980e-03,5.696161985397338867e-01
4.996203883504936050e-01,-3.544405525845298333e-02,-5.205984268415009275e-02,-4.471815352746628947e-02,-1.963083371861926857e-02,1.250765944798318263e-02,5.505316853523254395e-01
5.060083679181712757e-01,-3.573939707683015943e-02,-4.388457583188587474e-02,-2.223226429293976691e-03,-1.053273633571488212e-02,-4.184318782495657918e-03,5.462323427200317383e-01
5.274335033594901301e-01,-2.468873169661528477e-02,-3.285508271526743629e-02,-4.091677399595297984e-03,7.629459530128495249e-04,-5.195386128306068432e-04,5.562978386878967285e-01
5.295053320103152439e-01,-1.234394193631244141e-02,-3.504668337676924983e-02,3.213461422038625757e-03,4.903611232750205821e-03,2.611650481916607831e-03,5.536615252494812012e-01
5.389021342810108584e-01,-6.778907426221419952e-03,-3.702690641413428074e-02,-1.281007156614517688e-02,-2.158923285173718499e-03,1.202470398733847604e-02,5.622531175613403320e-01
5.145327560707727566e-01,-3.365137646325774834e-02,-5.890216725692534738e-02,1.666899589842950422e-03,-4.065198514657449372e-03,-1.940855070538857969e-03,5.612973570823669434e-01
6.400247048744455158e-01,-2.449331834863260893e-02,-2.640355163366464586e-02,5.079666124408416771e-03,4.530332941719433966e-03,4.733156842337719883e-02,6.706094741821289062e-01
5.319365312556000314e-01,-4.660249593392323808e-02,-4.555382750982872597e-02,3.961005687187455632e-02,1.642186011381160937e-02,-3.624302309886008166e-03,5.828011035919189453e-01
5.305249859002262314e-01,-4.279238735096735358e-02,-4.480847750059063772e-02,3.070775660927095151e-03,6.858571176594495692e-04,2.320159776753033878e-03,5.743680000305175781e-01
3.627019019631653185e-01,-3.643018376221576760e-02,-2.277388668353025336e-02,-7.558935822431316065e-02,2.441103882606895925e-02,-3.913785291847922919e-03,4.159533083438873291e-01
5.039801957832338308e-01,-5.986286070745566734e-02,-2.968296308823936691e-02,-3.071210083771714499e-04,3.623745932333425138e-03,3.380512171253975966e-04,5.494115948677062988e-01
3.800629529293025888e-01,2.451188109641999624e-02,-4.242389197588181116e-02,-9.022082530295288949e-02,-4.196067188585429764e-03,-2.803750087782507210e-03,4.233105778694152832e-01
5.007850483133667874e-01,-4.001796415475625257e-02,-4.505814905768129597e-02,-3.786291068651614564e-03,7.438442247031449954e-03,8.959071503837469017e-03,5.437543988227844238e-01
4.455889426585635804e-01,-3.426580517819466376e-02,-3.346716214173872661e-02,-3.683994124780076013e-02,-2.735849977361714397e-02,-1.002640007544335771e-02,4.863091409206390381e-01
5.048920512924667259e-01,-3.795948132313958778e-02,-3.540628413156973742e-02,-7.272833036605035224e-03,-1.635850025697531450e-03,-1.218128268526100623e-03,5.417374372482299805e-01
4.920431065244026958e-01,-6.168295571214776896e-02,-2.691453794193054971e-02,-1.049361519755526682e-02,1.707548201702942681e-03,1.388344167227814618e-03,5.375072956085205078e-01
4.676993547778842686e-01,-5.383107434609024633e-02,-2.624837809784127951e-02,-1.921651144945519391e-02,-8.374407423177278320e-03,-7.243800343845838846e-03,5.097501277923583984e-01
3.784668520053693364e-01,-2.003490640015102853e-02,-1.817224220935874379e-02,-1.876198252725569740e-02,-1.664724986969080833e-02,-1.290361347249676521e-02,4.005643427371978760e-01
5.348147581722282329e-01,-2.229665605183830945e-02,-4.429182545957238704e-02,-8.256442358037725457e-03,2.023034917052319876e-03,7.280379948074417818e-04,5.686203241348266602e-01
5.315440989788360326e-01,9.940028160471542362e-03,-3.418398267478520158e-02,-2.182581997796904840e-03,-1.810652546666551921e-03,1.000021940106283168e-02,5.453046560287475586e-01
4.522617449445386351e-01,-1.975206378882352065e-02,-8.266230122160514449e-02,1.427211675551297299e-01,-2.212272172915773216e-03,-3.041420616275314001e-02,5.659920573234558105e-01
5.358165039191108425e-01,-3.047062967340116724e-02,-3.826652529510737866e-02,3.227410311689549280e-04,3.314174726406225128e-03,-2.435996592645311466e-04,5.702543854713439941e-01
5.576834899837699311e-01,-3.203163300579284223e-02,-5.379101932992053081e-02,6.424409110166670340e-04,-1.908287595402891968e-03,-2.583271360177620307e-04,6.009006500244140625e-01
5.268179392480799583e-01,-5.778926360798658513e-02,-3.590136061953341784e-02,-6.958987560617250785e-04,-1.251377710386968132e-03,-2.791922406802105090e-03,5.740020871162414551e-01
5.403674185851157219e-01,-2.615077135692656096e-02,-4.764935972983974644e-02,8.929744286500515896e-03,5.346481256927266071e-03,-1.356090557580681612e-03,5.778536796569824219e-01
5.359503953946258559e-01,-1.330360959688725586e-02,-2.195418585911040887e-02,3.120011700929592371e-03,2.868134079967724764e-03,1.202265554640635781e-02,5.540701150894165039e-01
5.158892477610612648e-01,-4.221186864946097073e-02,-4.482101193583257204e-02,-3.845183545600951852e-03,4.400395713012775212e-03,3.092145363766416431e-03,5.595274567604064941e-01
5.200947885210907007e-01,-5.002486833942323963e-02,-3.731832750096486517e-02,4.592540556343143593e-02,5.541150885493107553e-03,-6.183860864901006074e-03,5.696383714675903320e-01
3.651100230336408181e-01,-1.038906816105270026e-02,-1.616739465882363613e-02,4.699447551859537581e-02,-1.141409568852204924e-02,2.133652846408496534e-02,3.893388509750366211e-01
5.693781238061362826e-01,3.486315319431609883e-03,-7.298989983559656114e-02,1.355367717794123648e-02,1.597972575724540545e-02,2.038478499506745506e-02,6.098550558090209961e-01
4.987484587147424930e-01,-5.483926871799515990e-02,-3.461898896554227445e-02,1.778850770191474015e-02,9.710375185674104820e-03,1.492636787497122618e-04,5.448915362358093262e-01
5.243896121048273740e-01,-3.815566294367284117e-02,-3.634083181474659363e-02,-3.052740769624706814e-03,-1.354688898503618455e-03,1.071065109230493959e-03,5.616729259490966797e-01
5.054378696240872104e-01,-4.142799954959741626e-02,-3.335038959627945054e-02,1.551551332380354635e-02,4.681619888206067434e-03,-1.051453350031304008e-03,5.436004400253295898e-01
5.212325287770587234e-01,-4.165439122788358595e-02,-3.833044022194942446e-02,-8.027186016445013710e-04,4.006336269131324096e-03,4.673349104206294779e-04,5.612775087356567383e-01
5.161484971900118790e-01,-5.110723080985232758e-02,-4.186505166702914060e-02,-1.920278382882461502e-03,1.404313341196276063e-04,-4.981914743490020898e-03,5.627676248550415039e-01
5.144659494253815968e-01,-3.158277330434902663e-02,-4.355025655284652797e-02,1.722742480552433980e-03,1.138053608155865752e-02,6.190301865188818425e-04,5.524905920028686523e-01
5.277317765850783049e-01,-3.687985092738393922e-02,-3.958705518950064728e-02,5.995026432141595599e-03,2.189908254221356165e-03,2.195795747003539218e-04,5.660781860351562500e-01
4.955424979756291037e-01,-8.554458089268857091e-03,-4.646721650649321411e-02,4.023033900823475700e-02,-3.481843286001832377e-02,-2.948333571451568560e-02,5.345680713653564453e-01
8.795068132467056543e-01,-1.120480675685328054e-01,-1.084772420327317910e-02,3.698380511992689634e-02,1.908789898650647965e-02,4.953566813187241374e-02,9.516484141349792480e-01
5.351953178788942944e-01,-3.283560157260570489e-02,-4.808779342679730950e-03,-3.917906991467754764e-03,-2.964064670809208723e-03,8.033004699401959797e-03,5.547887086868286133e-01
5.374294523062232987e-01,-3.920672189976814881e-02,-2.632331446534882935e-02,-5.133083562071176151e-03,2.423568533207457864e-03,5.079993151787076493e-04,5.703890323638916016e-01
5.303555588658467324e-01,-3.230436064532810070e-02,5.177540739162322936e-03,7.590109214567660996e-04,-1.194635720075086922e-04,5.287577766066838339e-03,5.449652671813964844e-01
5.544651808270421034e-01,6.425572931179013292e-03,-3.115348431547207420e-02,-9.531224209235359540e-03,-1.508108911717291958e-02,2.327843167056315582e-02,5.700306296348571777e-01
5.377483615680863638e-01,-4.654652240321696666e-02,-2.122012620930893712e-02,-3.645927480440423318e-03,6.198336895870052224e-03,1.869837743234590470e-03,5.721970796585083008e-01
6.072121382682825752e-01,-3.458022527288648340e-02,-1.892066962680338804e-02,1.910608827538442037e-02,1.016578233337040865e-01,6.475198922288702419e-02,6.684077978134155273e-01
5.402934693798711052e-01,-4.867899486568949552e-02,-1.629021430328947417e-03,1.961448132540755465e-03,1.596571113512485277e-02,1.288613474634391423e-02,5.680365562438964844e-01
6.996036317594833687e-01,2.018557080155525263e-03,-5.611465367010209926e-02,-1.314345694002231647e-02,5.680467882228968507e-02,6.798664037013564532e-02,7.447297573089599609e-01
5.525393342290497722e-01,1.087936817281975888e-02,-2.344001124108532896e-02,1.759248902456756955e-02,1.322207145694743666e-02,3.914095673282537435e-02,5.649883151054382324e-01
5.325824527555910182e-01,-3.502127949061295542e-04,-3.329207618156315718e-02,2.487968403013598746e-03,2.880794674570493104e-03,3.702423645553628608e-03,5.502206683158874512e-01
5.921493234270474026e-01,-1.393064989403794418e-02,-3.616717957222170821e-02,9.146438624554539820e-03,2.168677753145192844e-02,5.223890363359211253e-02,6.254223585128784180e-01
4.682375548399159149e-01,-3.662244038405307323e-02,4.888834051804487324e-02,-5.361978615885745064e-02,-1.018870698017917131e-01,3.388898374100239586e-02,5.120920538902282715e-01
5.046402923613675373e-01,-3.260287754575738606e-02,-5.162210562634245159e-02,-3.568721280396548387e-03,2.957280993813481834e-02,5.625829212987269040e-03,5.495150089263916016e-01
5.366052106839503955e-01,-2.018966762904705892e-02,-1.839788428454158797e-02,1.969068493097569754e-03,1.337628109080564020e-03,1.353876502128600195e-02,5.564107894897460938e-01
5.515604565958918126e-01,-2.941979066314759361e-02,-5.086947784243361914e-02,1.094733681842921698e-02,1.816463447880354697e-03,6.056492876325699631e-03,5.924014449119567871e-01
5.352374992495184669e-01,-1.151377101291001237e-02,-3.638554555923745326e-02,-7.448837367929239846e-03,-8.178916119095684320e-03,3.596415444160268402e-03,5.599644184112548828e-01
5.351116310683321498e-01,-3.052653010285402702e-02,-3.946903746757265963e-02,-3.948159958323546950e-03,-5.569211707045438817e-03,1.310822121616919776e-03,5.702891349792480469e-01
5.520746677247884149e-01,-1.420362367256500224e-02,-6.234258852854474009e-03,2.485158877303326238e-03,-2.361547442977843941e-03,2.367525899353251431e-02,5.638604164123535156e-01
5.427129562138444108e-01,-4.381878922637713614e-02,-1.392874281388734037e-03,3.022519242292210154e-03,1.066815463474157788e-02,6.008658000264953912e-03,5.669324994087219238e-01
5.459589560586157742e-01,-5.396482007747152587e-02,2.313315419412548257e-02,3.905103156834267841e-03,4.030019258868073814e-03,8.869838540099917595e-03,5.656237602233886719e-01
5.336401189889807828e-01,-3.037703260156399132e-03,-3.770053885143084815e-02,-5.241628457184318961e-03,2.953305129896799841e-04,6.808813221053035616e-03,5.550217628479003906e-01
6.169177921022898081e-01,-6.961548464590738838e-04,-2.537239999200555096e-02,8.969973312388027781e-03,9.214483866114571431e-03,4.687020030126700515e-02,6.359110474586486816e-01
5.325383101949525688e-01,-3.643413861386760044e-02,1.263905117090893815e-02,-1.515648932229620187e-03,-1.456221929572736225e-03,1.172470027798606061e-02,5.464816689491271973e-01
5.393906033069897354e-01,-5.364296184679209767e-02,3.032062447638581015e-02,-9.432717230748977836e-04,-3.093460743282557164e-03,1.064591475004201919e-02,5.561625957489013672e-01
8.485789530812097858e-01,-8.763697373109174960e-02,1.755654802797593228e-02,-3.890771489533285943e-02,-2.723117068602479152e-02,3.193177381784560037e-02,8.938159942626953125e-01
6.458981088677044902e-01,-1.356325865293884769e-01,3.173246928879180917e-02,-1.995234120607135633e-03,-2.668294143157974932e-02,2.506874987386451328e-02,7.155652046203613281e-01
6.609482001505628812e-01,-7.139217704528696973e-02,1.475579501310300690e-02,-2.033840269247546087e-02,-6.607614385828826722e-03,3.563907022414718878e-02,6.970198154449462891e-01
6.143508095908408739e-01,-2.482995353198330646e-02,-1.385546678416946231e-02,7.352958832879495990e-03,1.458280878624532151e-02,3.154080985682327504e-02,6.367436051368713379e-01
5.466335239100791332e-01,-2.644992453513136943e-02,5.791498269738654114e-03,-3.443947210386833543e-03,-4.441507369152307601e-03,2.796821211622482067e-02,5.598468780517578125e-01
5.268703413372405331e-01,-2.037435141992452459e-02,-1.740073195894192848e-02,-3.181590035095004359e-03,-5.666696935158390135e-05,5.067453964126887242e-03,5.458623766899108887e-01
5.997543877992057570e-01,-4.360404576310997204e-02,9.034178656957353448e-03,-1.944054632488853226e-02,-8.229209546402528608e-03,4.205138428687796998e-02,6.240653395652770996e-01
7.683854142353286898e-01,-3.885673723669683111e-02,-3.551905132276964028e-02,-3.121006825006093083e-02,8.557382110429277711e-02,6.613310578780545734e-02,8.288355469703674316e-01
5.902154050196988244e-01,-6.526008181955514353e-02,-1.121741039340259927e-02,2.126874239607605757e-02,-4.284238116707236865e-02,1.425254724247022008e-02,6.360958814620971680e-01
5.240422355620566464e-01,-3.549971753720934653e-02,-2.750341273271558751e-02,-6.806364972430092863e-02,-6.107873883983779006e-02,7.390237619966347205e-02,5.917358994483947754e-01
5.353868416400821006e-01,-4.167009144690386746e-02,-9.464457602698123084e-03,-4.458513452985337494e-03,-5.281047335820413663e-03,3.886955174482291994e-03,5.618149638175964355e-01
5.347772965063292139e-01,-3.665134420356769285e-02,-1.257125190910443613e-02,-7.797144084437370934e-03,-7.672951721183931054e-03,3.031197163741096868e-03,5.601223707199096680e-01
5.553418811312738068e-01,-7.119557047671570826e-02,1.554216368251429281e-02,9.417340347484209895e-02,4.306256709701174884e-02,3.257336665754411581e-02,6.173170208930969238e-01
5.282595798716895885e-01,-2.235330264680959744e-02,-1.318898237188750877e-02,-1.724713678963459354e-03,-2.762595674979348740e-04,1.144517744578509889e-02,5.464564561843872070e-01
5.425017312391763324e-01,1.615093865071973167e-02,-4.684406920266906416e-02,-7.434240224279161161e-03,-4.900931437638218063e-03,4.069696908418816983e-03,5.607660412788391113e-01
5.317252186206252729e-01,-1.758677837182959225e-02,-2.385817356927943944e-02,-4.198232331171238528e-03,-5.340240326118978614e-03,5.894049144283573967e-03,5.526939630508422852e-01
5.260976328596287388e-01,-2.033458975043170303e-02,-1.036674015587540909e-02,-3.014700667090032451e-03,-2.477472886173122824e-03,4.469455874717552513e-03,5.416145920753479004e-01
5.208612589657136693e-01,-3.599327513175934468e-02,-2.996387597015878757e-02,-3.141884788520851756e-04,7.206293429188468302e-04,1.190585311093791867e-03,5.538699626922607422e-01
5.223050930930204228e-01,-3.850639384111029240e-02,-2.960664850031854978e-02,2.863794667311569953e-03,-3.722846519387704536e-04,6.615701204578782607e-04,5.564386844635009766e-01
4.989352106154419375e-01,-3.102587517999069733e-02,-5.641696914046431810e-02,9.813277382850556403e-04,-1.221709280771870239e-03,-8.242184127845941788e-03,5.432963371276855469e-01
5.119916420635572951e-01,-3.643769346074918203e-02,-5.661495698139717980e-02,-3.421500198074142220e-04,3.177032713573796179e-04,-2.755391799197588580e-03,5.588122010231018066e-01
5.165393883862796631e-01,-3.874429280966065758e-02,-4.340031006604314068e-02,-2.574857034687886084e-03,-1.495770365994427906e-03,-1.075479788717983781e-03,5.576532483100891113e-01
5.266892107995633232e-01,-3.310195019433834207e-02,-3.294060285240354990e-02,1.341653279603817906e-03,2.422951963247663935e-03,-1.345029295846559083e-04,5.597311258316040039e-01
5.324458297840335419e-01,-3.545798939576100262e-03,-2.567135865928535376e-02,3.705587097989220240e-03,3.093403694381445784e-03,6.549021180325883922e-03,5.475712418556213379e-01
5.263102849619858414e-01,-2.947416605191899297e-02,-2.242449239934518612e-02,2.562566918570208241e-03,2.341399538797401311e-03,1.836484059154167665e-03,5.523352622985839844e-01
5.432450691615395844e-01,1.684409437961170708e-02,-6.367230803851520182e-02,-1.009230840741955938e-02,1.658449418197839934e-02,2.251633261072331135e-03,5.719359517097473145e-01
5.272703218469531050e-01,-3.362488394724727492e-02,-3.621681867300094448e-02,1.384980437079330476e-03,-8.098030954800576695e-04,-1.799308959383582728e-04,5.622026324272155762e-01
5.249882819479533280e-01,-4.133807384043949873e-02,-4.777121506153275687e-02,-1.914973971742821345e-03,9.885889974677001136e-04,-3.924625309716637048e-03,5.696229934692382812e-01
4.974157888550702067e-01,-2.406422836103699892e-02,-6.038937598207450019e-02,3.967453061959101170e-03,-8.844044766826970536e-03,1.962722458462119908e-03,5.408300757408142090e-01
4.366917010841339097e-01,-1.417153943421277373e-02,-4.852881723395523206e-02,-2.021153416587651887e-03,-4.064532044523425786e-02,-5.134947048757068644e-03,4.743374288082122803e-01
5.323011417390381972e-01,-4.571028164629373225e-02,-4.191383773132947854e-02,8.473509480596280600e-04,3.112576239090984135e-03,2.071201261153102560e-03,5.761608481407165527e-01
5.247732583351762958e-01,-4.655652278342375938e-02,-4.106149688111965235e-02,1.842750002753769031e-02,3.188803734890011295e-04,1.027856055302573367e-02,5.697757601737976074e-01
5.129573957703964515e-01,-3.333177171929055382e-02,-5.889401233945093517e-02,3.643407369481586368e-03,-1.498889438701867796e-03,2.162144795928654974e-03,5.595625638961791992e-01
5.120471982003244049e-01,-3.246809552509319352e-02,-5.631233317641942682e-02,1.817865883321088906e-03,-1.680935813432744277e-04,8.481668995443805226e-04,5.568313598632812500e-01
5.802417135646229518e-01,1.992205897174983975e-02,-5.044034372482297801e-02,-7.405061943536828117e-02,-7.070984507164763955e-02,4.863640123941908450e-02,6.299849748611450195e-01
4.166304668090127228e-01,6.830853905761269385e-03,-4.344129837142648998e-02,-7.140252472342435708e-02,-6.621451101424763452e-02,2.876585577895756848e-02,4.711634516716003418e-01
5.264475802548219674e-01,-4.359971662122821834e-02,-3.751569761402884229e-02,-6.036461069414262443e-03,-1.418162031207504835e-04,-2.855472501054450059e-03,5.671477913856506348e-01
4.901068031770744460e-01,-5.653558163415753346e-02,-2.712648503326173244e-02,-1.652995643654637387e-02,-5.143875953104640360e-03,-4.556044488453364649e-04,5.333912968635559082e-01
5.529221681922520393e-01,-1.754465380276046260e-02,-5.763626129033203038e-02,-2.883261682638235332e-02,-7.351856592909222950e-03,1.337676670453832005e-02,5.942252278327941895e-01
5.112616501796125590e-01,-3.277545670198581118e-02,-3.683491828340143548e-02,-3.501708096535254000e-02,-3.154002251422387965e-02,6.705040644581035034e-03,5.522672533988952637e-01
4.163507628524504289e-01,-5.023738942852999656e-02,1.441678629498927000e-04,-4.574669728940387869e-02,-1.248371365491080243e-01,3.238971489757577760e-02,5.029054284095764160e-01
3.806867164214075006e-01,-2.227727963325459859e-03,-3.412936502553455542e-02,1.736763671711284848e-04,-3.727600119707583093e-02,1.838900551951057859e-03,4.050129950046539307e-01
5.148312425873240450e-01,-6.064417382397890854e-02,-2.640924014072956738e-02,8.085830639288065641e-03,6.405806715577838520e-04,1.853323252608614103e-05,5.593209862709045410e-01
6.046943991851698730e-01,-6.081959207807771661e-02,-3.856944327393457828e-02,-2.685883015829360412e-03,2.460575285588502414e-02,1.306989848527411770e-02,6.564652323722839355e-01
4.982042234033166594e-01,-4.284422384218519730e-02,-3.788235427870373373e-02,6.313427979136041271e-03,8.080219213266470052e-03,-9.113240279875754399e-03,5.391085743904113770e-01
5.213979700572068943e-01,-5.064750377856985786e-02,-3.694468976367365487e-02,-5.102063162171322592e-04,1.282575722601236434e-03,-6.551048098578717525e-03,5.654375553131103516e-01
7.369484770408475383e-01,-5.406516463753591184e-03,-1.109452657468437409e-01,1.075843286467751264e-01,2.606015959374204452e-02,3.164133695028450988e-02,8.248276710510253906e-01
5.197544917593553970e-01,-4.322773219952286139e-02,-3.888045977177528867e-02,6.057360888526225166e-03,-4.893605915539757161e-04,-2.519723421027133484e-03,5.609369874000549316e-01
5.007934076993754147e-01,-3.465508566145880653e-02,-3.645012969803426706e-02,1.389369454619585921e-02,4.466965619394819330e-04,-6.422098591251076960e-03,5.370036363601684570e-01
5.356866370707290548e-01,-1.629645005490204523e-02,-3.279735988591808704e-02,-7.864302021534132214e-03,-8.052422278184418261e-03,6.028950929043658778e-03,5.608519911766052246e-01
5.367317954162693638e-01,-4.069642237835549570e-02,-6.423336681905617018e-03,1.152976831929604026e-02,1.065069417486602492e-02,1.735933984148996245e-02,5.625396966934204102e-01
5.157399466680255840e-01,-3.112938106993176635e-02,-9.577921351763274416e-04,-9.793222940921107386e-03,-1.384140543508613139e-02,1.971357856610121695e-02,5.343264937400817871e-01
5.282470201413410615e-01,-3.630450659778688971e-02,-3.415617484888558431e-02,-6.601318962410470878e-04,9.025016662274710838e-04,-1.767542719847413650e-03,5.634920597076416016e-01
5.292161218181365978e-01,-3.876778191399529727e-02,-4.092977068017600306e-02,-6.258668430242472942e-04,-1.714594260728904019e-03,5.304486303804805498e-04,5.690774917602539062e-01
6.162359188840819124e-01,-4.135633455232295974e-03,-5.189395275830108178e-02,-3.335306713922641525e-02,-1.013938501574911284e-02,3.319991898905418765e-02,6.509393453598022461e-01
5.383512597061701488e-01,-2.975839515910047584e-02,-2.381435376497931244e-02,2.237808516756963594e-04,-3.161220699460885741e-02,1.906645693221521720e-02,5.687668919563293457e-01
4.637606447960396783e-01,-3.127932115616374742e-02,-3.723056117775994101e-02,-5.086150292808151036e-02,-4.195609047420367776e-02,-4.133729620297282338e-03,5.110175609588623047e-01
5.344122706752600926e-01,-2.161106710253912766e-02,-3.091292436188830539e-02,5.080480058744661111e-03,1.861482987206672770e-03,-4.380240239083271932e-03,5.608617663383483887e-01
3.211318685632192360e-01,2.919613045761523806e-02,-1.373227885625812050e-02,1.272019512211064463e-01,-6.213207740706538917e-02,-3.413315160564261291e-02,4.040037989616394043e-01
4.222983241124146914e-01,-3.226173901152006029e-02,-1.705241427605037885e-02,-1.301350056802659094e-03,1.334501129514458796e-02,1.040619328297177036e-02,4.481147527694702148e-01
4.277838271730904918e-01,-1.604264239668812264e-02,-3.383092428333547841e-02,1.257129090660930038e-02,-2.178757340621254729e-02,1.237526262846374604e-02,4.555775523185729980e-01
5.107609877606995585e-01,-3.720684930554643555e-02,-5.231290668252391862e-02,1.582461657369521190e-04,-2.918592110025289028e-03,5.171833059917212497e-03,5.557701587677001953e-01
5.299356520486722122e-01,-4.967443847333766205e-02,-3.697791654462675992e-02,1.675881254167427975e-02,-2.871200477329139723e-03,2.431515870324099226e-03,5.741385221481323242e-01
5.557760917960931080e-01,-1.988012246362738655e-02,-5.219425271980243641e-02,2.750716982278331169e-02,-9.882185069371867987e-04,-9.910834381762930606e-03,5.946373939514160156e-01
5.363006523455955410e-01,-3.859383811465255665e-02,-4.054198162430386332e-02,7.837133775588719584e-03,1.718857044670743734e-03,4.995733164013334195e-04,5.760393142700195312e-01
6.525483099062426851e-01,-4.398237014093694941e-02,-7.072322529707278371e-02,2.009164649872656194e-01,-7.120429424705290722e-02,-8.795284677463166556e-02,8.148714303970336914e-01
6.619243220111685755e-01,7.454044574034007775e-03,-7.338601012867584927e-02,1.316492677008946344e-01,-3.392620751863854867e-02,1.862049654772702807e-03,7.370426058769226074e-01
6.174664914942032956e-01,-2.683130261994845500e-02,-3.443362267403940469e-02,7.248267452045640581e-03,1.481754190424891711e-02,3.763153764355309933e-02,6.520278453826904297e-01
7.279142895489696397e-01,5.554561184326345380e-04,-7.221234670144729972e-02,6.690490018252633064e-02,-7.707505394628747127e-03,-3.767493546113483832e-02,7.779071331024169922e-01
6.420832937110017014e-01,4.797388201083660486e-02,-8.504656281824596320e-02,-3.554051480588671375e-02,-6.864133758384796495e-03,2.719796436757667898e-02,6.751585602760314941e-01
5.548109960054952161e-01,4.311722203577866841e-03,-4.730171804133814772e-02,4.169007078253799022e-03,8.877554079674792112e-03,1.592620116764560667e-02,5.789439082145690918e-01
5.517524891257343800e-01,-3.021652732734581015e-03,-6.210625919642659420e-02,-8.705272286330478435e-03,3.358676389727525968e-03,-1.546897333790505584e-04,5.867752432823181152e-01
5.495412370859825701e-01,-1.447738055991928952e-02,-4.616233154128213112e-02,-1.490666741425373436e-03,-2.422579435331966013e-03,7.771186342136401047e-03,5.806869268417358398e-01
3.823405805703712357e-01,-1.597846695593765909e-02,-1.232643046044071267e-02,-2.111987556052903007e-03,5.398616556056066822e-04,9.746698193766081125e-03,3.968828320503234863e-01
4.249953339962643795e-01,-1.613417493861099561e-02,-3.573075221497332143e-02,4.722721668353561659e-04,-8.249775916380642365e-04,7.667339199846111460e-03,4.514454305171966553e-01
4.387648361866978708e-01,-1.205746140409594269e-02,-4.110970369884764386e-02,8.205414198403815362e-03,1.011776488959839973e-02,-5.128193452626793325e-03,4.666585028171539307e-01
2.687454952437347000e-01,1.466717489380089945e-02,1.613581120054265183e-02,-6.480874745666715189e-03,1.752078971419168425e-03,6.392406662348399868e-04,2.536163330078125000e-01
2.665688302863357118e-01,-6.162320752407773883e-03,-1.683152995543710229e-02,-9.796384512756180218e-02,-9.054745360273927512e-02,4.690569131151282878e-03,3.617446720600128174e-01
5.203456583993488760e-01,-3.552039518337102297e-02,-5.865233288001178713e-02,-4.091938316225336107e-04,2.896304989430718499e-03,1.568003783778436355e-03,5.678146481513977051e-01
2.289242814043088159e-01,-3.328848775265310506e-02,-6.073647462619733567e-02,-5.821809923124485198e-02,1.136974794051312382e-01,-3.878482626180688314e-02,3.607884645462036133e-01
2.730011283792069254e-01,9.952217390616177606e-03,9.821992006382992968e-03,-4.222206555496862967e-03,6.646471867621716809e-04,6.809913398338906685e-05,2.632181942462921143e-01
5.385558837827066903e-01,-3.380330322137456434e-02,-4.014372378022543209e-02,-2.735835018871923818e-03,-3.205299663423920396e-03,-1.813261938770664109e-03,5.756104588508605957e-01
5.351257406259326554e-01,-2.303276879461965687e-02,-4.648795235264979731e-02,-6.266648586508214054e-03,-2.479053869040528067e-03,2.496591560890800213e-03,5.703838467597961426e-01
5.386965383170521093e-01,-2.530533478582555618e-02,-4.113805617116919611e-02,4.743202151425797430e-03,-1.568010575400831039e-03,-9.855572822873100061e-05,5.721480250358581543e-01
7.793821715628184155e-01,4.030615212083671350e-03,-8.048702945856778257e-02,-5.352410380090633600e-03,4.941845384059756485e-02,4.715730456970933238e-02,8.294143080711364746e-01
5.370567773861042449e-01,-4.853091798867584239e-02,-3.939412168665676339e-02,6.276825106726109486e-03,7.533008918725065534e-04,-1.774481149266876698e-03,5.811844468116760254e-01
5.337586569763622668e-01,-3.469855784910053087e-02,-3.936275392054677802e-02,-8.332729842975714280e-04,-1.731396677618030327e-03,-1.933101583911832030e-04,5.708134174346923828e-01
5.897900179901083284e-01,-3.436234100351939769e-02,-4.643384464008967760e-02,1.520509463363172581e-02,2.018168293802997948e-02,1.900562097451136134e-02,6.326495409011840820e-01
5.016969940403199768e-01,-4.723816440607805922e-02,-2.554026935784431407e-02,8.784366463420647392e-03,1.546708015561225205e-03,5.998209535611173692e-04,5.386368036270141602e-01
5.071103418313565037e-01,-5.615156767107629121e-02,-3.578976912493000984e-02,-4.651367756448440346e-03,-1.965662914143612768e-03,-5.184985019663831789e-03,5.535040497779846191e-01
5.315530872972262788e-01,-1.348873380587761739e-02,2.688013937948124932e-03,-6.238481122518102148e-03,-4.932301079862513350e-03,2.757155648354210273e-02,5.394307971000671387e-01
5.020744000376473615e-01,-4.291121107945239377e-02,-3.678158683182253252e-02,-4.458056786994320578e-03,-7.743819472212707181e-03,-1.117281029905039299e-03,5.421711802482604980e-01
5.254594573697491944e-01,-2.230956856662846821e-02,-2.517249699126489215e-02,1.983339902073407920e-03,1.093859846140316210e-03,6.976576261749031262e-03,5.493530035018920898e-01
5.416036906882777391e-01,-4.362470259115047710e-02,7.126820547500217762e-03,-2.716998529159269336e-03,-8.174922369507994779e-03,2.488240579259636334e-02,5.634241700172424316e-01
6.340140246079628561e-01,-2.817653331108063708e-02,8.421389605791723687e-03,-1.595375091436644979e-02,-3.669251548735751739e-02,6.219483156565833865e-02,6.572732329368591309e-01
5.348760183237971644e-01,-2.517780121765114676e-02,-4.107818414176581112e-02,-1.366292507353832238e-02,-4.534773047357768504e-03,8.361701491202168379e-04,5.687196254730224609e-01
5.403013667484544147e-01,2.617935927006737051e-03,-4.196001698072249209e-02,-8.064664600688026264e-03,-2.025509551605894198e-04,4.891058171695102791e-03,5.615394115447998047e-01
5.267827753438526495e-01,-4.275261931658619341e-02,-3.906758239892296758e-02,-6.361976274846475529e-03,-1.819005298443011464e-03,-2.549866334711984716e-03,5.678346753120422363e-01
5.580898741413831132e-01,1.190241846475312282e-02,-5.779972312481018726e-02,2.307302627892600377e-02,3.429257177321692277e-03,7.630202079103503253e-03,5.857103466987609863e-01
5.250108707536724761e-01,-3.044316923224210658e-02,-3.728577596365001412e-02,2.896095432166575102e-03,2.980507090857746101e-03,9.147840978376935422e-04,5.589553713798522949e-01
5.400079958293910742e-01,-2.327857793756674121e-02,-5.457268512205226685e-02,-5.084780747779742843e-02,-4.781335199797016010e-03,-6.334562485659712278e-03,5.863822102546691895e-01
5.329864628045789532e-01,-5.067128334649573240e-02,1.551382486806976435e-02,9.986394354722764183e-03,1.113460857025577386e-03,2.615874166361725067e-02,5.556645989418029785e-01
5.157374265600418450e-01,-5.286123782659332693e-02,-3.901318494685468430e-02,-3.769240783825574415e-04,-6.788103112844349292e-04,-9.472228656963466989e-04,5.618066787719726562e-01
5.356346220164606153e-01,-3.351320896744436340e-02,3.417784571842746866e-03,-7.458382800082267311e-03,-7.164021808767714709e-03,5.523779809586681043e-03,5.519840121269226074e-01
5.256872452124189410e-01,-2.314524312672053274e-02,-1.319233050275112062e-02,-1.128798254973988622e-03,-5.919586639983768573e-04,1.613887761531485488e-03,5.439360141754150391e-01
5.367702764004221860e-01,-5.290115223409172507e-02,2.282055308487870859e-02,2.169170420976249299e-04,-7.180199604260346794e-04,8.700894333538364278e-03,5.558993220329284668e-01
5.419926865792281667e-01,-4.623730078675364341e-02,-3.409823743139861474e-03,-5.740465662524217062e-03,-1.110294754293158180e-02,2.089761894558211236e-03,5.684523582458496094e-01
5.316377199140985832e-01,-3.631888116334555661e-02,1.278394310041411353e-02,-1.843462873059292318e-03,-1.755545988567092184e-03,1.144638539979219924e-02,5.454447865486145020e-01
5.267685983596283039e-01,-3.042089840244280308e-02,-4.913888965654006347e-02,5.544969768906404112e-03,1.468277191184228642e-02,-3.421942798002811266e-03,5.674628615379333496e-01
5.278665409108642681e-01,-5.314093065428873719e-02,-3.879612908080479206e-02,-7.637805144405286455e-03,1.174742262366870044e-02,6.557333107463844506e-03,5.745946764945983887e-01
5.284305134223905576e-01,-4.625774915906083473e-02,-3.736758884423002636e-02,-1.245520153858510615e-02,5.431048286751768983e-03,1.211651481427825560e-03,5.707843899726867676e-01
1.163392555388882144e-01,2.470647237256800438e-02,1.473926291258016719e-02,-6.706633709078670125e-02,-1.807413541625570164e-02,1.503479471951978466e-02,1.567197293043136597e-01
2.800071246129355873e-01,-2.428497330241896623e-02,-4.641164510543568933e-03,1.774993903882365106e-03,9.993356858702405476e-02,4.766429558971114165e-03,3.421109020709991455e-01
4.033005644914217647e-01,2.230580138065814400e-02,-3.537939311960108801e-02,-9.012027752075503495e-02,2.995754440691248896e-02,-2.723395186934444642e-02,4.469281435012817383e-01
5.411760732091319692e-01,-1.868471320587566931e-03,-5.381177779832024832e-02,1.859954349320738168e-03,-5.470159145635865175e-04,-5.573607984119290787e-03,5.708830952644348145e-01
5.170073044630787429e-01,-5.115546148229158097e-02,-4.197953915673835468e-02,-2.151542923917459677e-03,-1.644985614944783096e-03,-4.948884226188344712e-03,5.637155175209045410e-01
5.350311677175872971e-01,-3.963949575216949017e-02,-1.931520100633576931e-03,1.542206417383556322e-02,4.327381915074286246e-03,-3.111120813106334551e-02,5.600643157958984375e-01
5.451650588910430528e-01,-2.061446872746036663e-03,-3.894846976344693013e-02,-1.293053013978453332e-03,2.651991347622648793e-03,-5.178645378532735488e-03,5.666653513908386230e-01
5.259634067879178643e-01,-5.019866124440494626e-02,-4.245547400027385732e-02,4.846263160545776286e-04,8.778990757471619253e-04,1.822082853234145922e-03,5.723410844802856445e-01
5.572514834621531410e-01,-6.570993868718677522e-03,-6.577167800044839141e-02,-4.502118540871669072e-02,1.450267983473379346e-02,6.370823434920245068e-03,6.013423800468444824e-01
5.315679415874342562e-01,-2.722222806663918138e-02,-1.062872185530952529e-02,-1.613120765011433547e-03,5.116593383169222922e-03,-1.914184317647537464e-02,5.517563819885253906e-01
5.740026904931669893e-01,-2.992190597922173012e-02,-3.326302884469053978e-02,-2.958441026740404531e-02,5.265974755026438248e-02,-2.004597641333992833e-02,6.155520081520080566e-01
5.372784441020388435e-01,-3.732354074455107584e-02,-6.214997501364644128e-03,-5.390289312059121964e-03,4.908706096833161808e-03,1.670634015949149301e-02,5.605862140655517578e-01
5.502999599540657760e-01,-7.796553125809457807e-03,-1.985284512640878019e-03,2.586425564326960691e-02,3.851265141074344811e-02,5.772797320910363211e-02,5.698388814926147461e-01
5.829549880273136031e-01,-3.868507808516416513e-02,1.143164596634438368e-02,-5.938557146798094204e-03,-6.058406457706571116e-03,2.685177172608691973e-02,6.001436710357666016e-01
5.455708316319866080e-01,-3.793674942744626466e-02,2.654291759936755479e-03,1.433214506197766575e-03,8.432364914755477881e-04,2.085153874504594093e-02,5.654699206352233887e-01
5.349686935646603692e-01,-3.648881892912714253e-02,1.203270560115496379e-02,-4.991260676384214230e-03,-5.556202707274153843e-03,1.137062202059972368e-02,5.493134260177612305e-01
5.297456683950693135e-01,-8.839146669281733315e-03,-2.960996136537633050e-02,1.382821611875005097e-03,-3.261625904675033438e-03,6.105840058681319751e-03,5.494009256362915039e-01
5.310447899557777518e-01,-2.113568013213437680e-02,-2.743145583249848030e-02,-3.016134101779513379e-03,-5.685889401762362488e-03,3.749567330992765405e-03,5.555049777030944824e-01
5.835781154695391937e-01,-4.468037183468895335e-02,1.425496744503909619e-02,-5.872952726559904114e-03,-8.805175001316750683e-03,4.087215987698442771e-02,6.053950190544128418e-01
5.323926880639880954e-01,-3.666624162367690398e-02,-2.840224877737013154e-02,-2.065996406192999006e-03,-7.884464098574553784e-03,3.179433758726156727e-03,5.651754736900329590e-01
5.321138629390793628e-01,-3.937673760098536757e-02,-4.400568605949425893e-02,-8.940070974373151005e-04,-2.744389532348875341e-03,-1.732463868737011423e-03,5.738487243652343750e-01
5.253685693287022396e-01,-3.942451618596543028e-02,-3.709750727745297905e-02,-2.893228772963371120e-03,2.698055863173194364e-03,-1.561225383177646190e-05,5.636748075485229492e-01
4.781693405281595699e-01,-4.138870932134780523e-02,-4.097776369923522566e-02,-3.518959392117813195e-02,-1.543042545678199179e-02,-1.236943473827603265e-02,5.240376591682434082e-01
5.234861363272438339e-01,-2.175945440421014898e-02,-1.820201406778224062e-02,-2.368582653569195444e-04,-1.541680951715449855e-03,1.653634584294258122e-03,5.434898734092712402e-01
5.319668534552921546e-01,-3.261840029572285471e-02,-4.005771941011648796e-04,3.820159675752630123e-03,2.906436122323803085e-03,3.570763938206907798e-03,5.492833256721496582e-01
5.247924595437138962e-01,-2.336432476960911830e-02,-2.728400310717266075e-02,1.556451138885622549e-03,-7.208998925408860589e-05,1.266131210618682635e-03,5.501381158828735352e-01
5.388085989829082267e-01,-4.318452577943165949e-02,-7.395414408135708717e-03,5.123041842804077449e-03,2.480681029066739672e-03,2.419932603024411294e-03,5.650509595870971680e-01
5.422047992802664362e-01,-6.559834121318855460e-02,2.995650287287582314e-02,7.937930463467803358e-03,-1.050130878541254663e-02,8.997101228251031327e-04,5.665678381919860840e-01
6.382004837007958509e-01,-3.049864394841370063e-02,-1.260700159750838267e-02,-4.026675467965443872e-02,-3.411931576157363477e-02,6.174214674825135446e-02,6.747646927833557129e-01
5.348854056510922161e-01,-2.243358221728408708e-02,-2.673806057083027987e-02,-8.199094395371095759e-03,-9.513111007811232006e-03,1.224908523943476178e-02,5.603081583976745605e-01
5.371910712437997226e-01,-4.243988950255650483e-02,-3.074197708633791271e-02,-2.153618746779199181e-03,-5.950561347630787049e-03,8.853066922745184012e-04,5.739781260490417480e-01
5.337576751382895335e-01,-3.881661454704987690e-02,-4.899788073886118811e-02,1.100555785838727881e-03,5.524231815954328516e-03,-1.626398344416737788e-03,5.778214335441589355e-01
4.373023020048502074e-01,-2.259462607339697560e-02,-4.002454109296972595e-02,1.893123028811525763e-02,5.082310953912957258e-02,-1.037155386795721168e-02,4.785099625587463379e-01
5.308551353322672473e-01,-3.534298254860820943e-02,-4.944358854995462016e-02,1.453424803090422324e-03,6.629594437861188218e-03,3.415626356114181603e-04,5.734992623329162598e-01
5.150300833974177372e-01,-3.193437354132144801e-02,-5.745996090992083749e-02,4.648162773182353165e-03,7.480728843941549314e-03,-4.396523026221420272e-03,5.604230165481567383e-01
4.883259097898635659e-01,-3.968467274511253140e-02,-4.306269969816353682e-02,1.733743845798098315e-02,7.798671232055091364e-03,-9.671678159863535129e-03,5.309944152832031250e-01
5.292714704217686972e-01,-3.769965969121244487e-02,-5.040735396468795648e-02,-4.344060003366783588e-04,-7.616038871151614058e-04,-3.175368879371301173e-04,5.734328627586364746e-01
2.472983271364626034e-01,-1.492989360763079254e-02,-8.773231159024813541e-04,2.851848788653594743e-02,2.009809040817400663e-03,-8.602757429424671975e-03,2.606725692749023438e-01
4.262475267930339040e-01,-2.980324816889029504e-02,-6.235490557904288522e-03,1.200997624085356763e-01,1.234463944563862631e-01,3.659039937692969147e-02,5.392542481422424316e-01
2.413392823396883768e-01,-2.491206733633015424e-02,-6.196851151073488884e-02,1.206821870800393326e-01,7.656436942879527030e-02,1.082136059105389715e-02,3.791562616825103760e-01
5.247858346041305300e-01,-4.705595234585269182e-02,-4.312455110019339233e-02,9.810180730351314958e-04,2.962002380265441569e-04,-1.207260323046354137e-03,5.698928833007812500e-01
3.930622131333841307e-01,-1.372362988661032790e-02,-2.107830254772685707e-02,1.621556363372494633e-02,1.501342254536689597e-02,-8.520550779833838129e-03,4.125571846961975098e-01
5.040053693713981708e-01,-2.543399616622496473e-02,-5.779350771413399590e-02,4.084250722427055884e-03,1.317638343047002579e-02,2.285263369763223997e-03,5.468748807907104492e-01
3.919372308165691710e-01,-1.648587973395126971e-02,-2.466574339264396287e-02,1.065245007013666985e-02,3.434693864583678036e-02,-4.168391410830046655e-03,4.173114895820617676e-01
2.647637250966589084e-01,1.500247998297155050e-02,1.562119973366865588e-02,1.656652921316717790e-03,1.349352213281415809e-03,-5.320745811960704390e-04,2.494816184043884277e-01
5.583140817310452420e-01,2.698303167769322553e-02,-5.976230435494397919e-02,6.468192255187936099e-03,4.677073556860903217e-03,3.912035782641666223e-03,5.797973871231079102e-01
5.446037822762892500e-01,-2.365862398856694027e-03,-5.263830732944466129e-02,-7.647455912400404412e-03,-1.058238206813419012e-03,3.386902546185989026e-03,5.739458203315734863e-01
5.391514927938962920e-01,6.876870270641155525e-03,-4.848515112706269781e-02,9.265376075984677398e-03,2.388872243755581475e-03,5.031008078988311559e-03,5.623162984848022461e-01
6.074591369007620312e-01,4.151973634283742665e-02,-7.516062109547014258e-02,8.681283640414078073e-02,2.160042446743277306e-02,7.285041488376027899e-03,6.512327194213867188e-01
5.508350859010273659e-01,2.064304907898373287e-02,-5.831755741448893526e-02,-5.857285225588290505e-03,6.207286740110605841e-04,9.290476038552287000e-03,5.740780830383300781e-01
5.558816382807205692e-01,-1.657071085641773078e-02,-5.151496027192034588e-02,3.435414876034885434e-02,5.811284408628333321e-03,-1.777876932880012670e-03,5.937829017639160156e-01
5.314983684013766529e-01,-4.318723396688370353e-02,-4.273134196641248383e-02,3.323034864762056811e-02,-1.183579261855671402e-03,-1.108814555456901245e-03,5.773408412933349609e-01
5.559995888130535580e-01,1.842063109731759130e-02,-3.345992616642512463e-02,7.785904791753357757e-02,4.793732065063519010e-02,5.047754215504435954e-02,5.935457944869995117e-01
5.465552037251184547e-01,-1.100893589392581973e-03,-5.002201781284529303e-02,3.698391149366470239e-03,-4.486832654139151434e-04,-1.462273144435030604e-03,5.737251043319702148e-01
6.077259936434309395e-01,1.509716377594835790e-02,-7.333164220241716880e-02,2.325957786046697201e-02,-8.459559177549697342e-03,8.798856306389322523e-05,6.428622007369995117e-01
6.329712138880805306e-01,3.802276125250830807e-02,-7.671298029041506705e-02,1.353047793993267245e-02,3.471063320346209555e-04,-3.239084133747929806e-02,6.626363396644592285e-01
5.060576940173725502e-01,-4.647581687400123562e-02,-4.294472267038426661e-02,-1.131520204809988335e-02,1.065172768128468291e-02,9.093269122724836548e-03,5.516586303710937500e-01
5.255267391939029142e-01,-5.246935074752090422e-02,-4.604454689910969512e-02,2.236962733115441671e-04,-6.068481763464909050e-04,3.453720328445263575e-03,5.748428106307983398e-01
5.233637670454590607e-01,-4.417946270056444247e-02,-3.971936246625096256e-02,1.724267110325551893e-03,3.873878822088418043e-03,2.506372561333846901e-04,5.653742551803588867e-01
5.288191467329877993e-01,-4.265790627767823695e-02,-4.232967406531665255e-02,-5.123199329756698503e-05,5.629074037959740789e-03,8.989575788362307160e-04,5.713983178138732910e-01
5.098107688271779070e-01,-4.397602005771419909e-02,-4.220669811972227459e-02,-6.647829120871672978e-03,3.016709500656575890e-03,4.522455138802641134e-03,5.531042814254760742e-01
5.143486855108536648e-01,-4.118640624673639006e-02,-4.741421968834527712e-02,-2.889503031108663685e-03,1.107470641042291969e-04,7.212836582220951386e-03,5.588371157646179199e-01
5.246867779670476573e-01,-4.752006860707391755e-02,-4.503060722110116543e-02,-7.651558167719955256e-04,-4.189308522541371920e-04,5.685212751667295715e-04,5.709690451622009277e-01
5.310605812561621786e-01,-4.607518509543143126e-02,-4.760829208665090517e-02,6.242989481588767349e-04,1.594522507639835026e-03,1.276568855066712374e-03,5.779156684875488281e-01
5.268491388313903956e-01,-4.315573613266346364e-02,-5.038386565651409299e-02,6.646518174395632398e-04,6.658908625674849228e-04,1.037698003324463410e-03,5.736582279205322266e-01
5.265552506216559792e-01,-4.867181348235741223e-02,-4.151341079361081654e-02,-2.998645454565735183e-03,3.176112821164311061e-03,2.289092679835429654e-03,5.717452764511108398e-01
5.863367333366227285e-01,-3.684078494608430954e-02,-5.323983774435422922e-02,4.443189637815910670e-02,-2.197732076585666439e-02,-1.935787538833998178e-02,6.382275819778442383e-01
4.519531035973570754e-01,-1.876182185022967630e-02,-4.731200727337339651e-02,6.238527755637018023e-03,-2.742428936166089321e-02,4.157925618347146739e-03,4.881101846694946289e-01
3.955706454789547633e-01,-1.727734551577478350e-02,5.804143565805150451e-03,1.180973698982924480e-01,-9.831029696806271867e-02,-4.614689285444227573e-02,4.885400533676147461e-01
3.783781582705471602e-01,-1.990981488472658156e-02,-3.239041411636865708e-02,1.307643464167757286e-01,-6.437584144264178743e-02,-6.221021833904782222e-02,4.889795184135437012e-01
4.328398940037890830e-01,6.777627349361325937e-03,-5.816802446897575973e-02,2.089339489388748472e-01,-2.202724146477384563e-03,-6.072296500574143191e-02,5.961999893188476562e-01
3.228831790634752452e-01,-3.082074006324844739e-02,-2.491782361099717513e-02,5.920914950939698551e-02,-5.981008076628320513e-02,-4.597645095799905018e-02,3.881286382675170898e-01
4.027856989726588122e-01,-1.554768736680629815e-02,-4.412490258999450521e-02,4.186091205609856689e-03,-4.004061736804480354e-02,5.138241891346151391e-03,4.389940798282623291e-01
5.280691482218654587e-01,-3.566933411858846936e-02,-5.736102817832414158e-02,6.573429938033360787e-02,-3.157388819400380742e-02,-6.960648820447945528e-03,5.887266993522644043e-01
5.455628985901518346e-01,-4.350632088218553406e-02,-2.167522783566891431e-02,-3.657852675758164660e-04,-9.124121523041265475e-03,-5.181349231184123084e-03,5.787484645843505859e-01
5.063161548740697793e-01,-1.583084898421072140e-03,-4.423391112448521456e-02,5.604687419221600353e-02,-4.118631174049827010e-02,-3.763910076169814378e-02,5.479104518890380859e-01
5.229122431436379337e-01,-4.111856395816121390e-02,-4.083680508241052665e-02,-4.440637463465386611e-03,1.124241816586832874e-03,-2.616953305749251859e-03,5.639640092849731445e-01
5.389662777673844829e-01,4.553575487714928149e-03,-4.611084028866763163e-02,-4.871520257753378380e-03,6.042331915858480812e-03,-6.064563467502744228e-03,5.617210865020751953e-01
5.349229235791382875e-01,-3.987531048950906931e-02,-3.801560155505828709e-02,5.207546689963884166e-03,1.223646661575261479e-03,6.556627946147386172e-05,5.739454627037048340e-01
5.407803726964240942e-01,-5.020297653081401412e-03,-5.199312802483704865e-02,-9.034984432913830896e-03,7.390846762701736364e-03,-1.269125335519668807e-05,5.710966587066650391e-01
5.422826695444983303e-01,-6.813581872905066783e-03,-3.127025591022869477e-02,9.564734676626688789e-03,-2.544513990494318926e-03,-2.126255446390425477e-02,5.631909370422363281e-01
6.492497073482756953e-01,1.119014134687107420e-02,-7.599390735923763907e-02,-8.334092483938525253e-02,3.992822558745685868e-02,-4.741011018916425207e-02,7.090224027633666992e-01
5.250804862387509209e-01,-4.679108529709011255e-02,-4.852607581661205760e-02,9.033524986896138620e-04,8.551582134985022572e-04,-2.745872984221964241e-03,5.727648138999938965e-01
5.270639680083940570e-01,-4.516271375510594321e-02,-4.938725802376955909e-02,6.624415304231571610e-04,-1.344607630382739982e-03,-1.038634003829159297e-03,5.743592977523803711e-01
5.217063284671193957e-01,-4.219338584867585173e-02,-5.173266251366007151e-02,-1.096673507232739150e-03,-5.690576339266285128e-04,-1.778733088884380115e-03,5.687417387962341309e-01
5.383970251384699868e-01,-2.172758039924507778e-02,-5.129874127063288602e-02,-8.639440777854688613e-02,-3.093796515578778328e-02,9.514474376312980972e-03,5.972542166709899902e-01
5.061775434303574794e-01,-3.924449066554686061e-02,-4.707084410453638013e-02,-7.455117924580078118e-03,-4.250423638687394340e-03,-7.922588810195174344e-03,5.497493743896484375e-01
5.276627938567883813e-01,-4.242159758123789648e-02,-4.068449456822872956e-02,3.870671654289424622e-04,-2.009749922775074145e-03,-1.107333510635497269e-03,5.692321062088012695e-01
5.262922948262831468e-01,-4.013679330940880807e-02,-4.242144299702377275e-02,2.221305878778926496e-04,2.232397579473075974e-03,-3.990822542062895888e-05,5.675881505012512207e-01
4.514619083071903516e-01,-3.952820891628655575e-02,-3.283313871949120055e-02,-3.635976448832561880e-02,-3.116180338276971704e-02,-1.293578384085402114e-02,4.951870143413543701e-01
5.192937070558047985e-01,-4.350709097049321183e-02,-3.792081729119273215e-02,5.216063824556179361e-04,-7.905996049671464845e-04,-3.931687345777656406e-04,5.600313544273376465e-01
5.210512484652165544e-01,-4.337880363921503557e-02,-3.766887212412792230e-02,-3.849858252432338760e-03,2.995400826727881525e-04,-1.316558974114454906e-03,5.616413354873657227e-01
5.097324306168437014e-01,-3.879472077051632217e-02,-5.276302400400523229e-02,2.676632159330782912e-04,-5.242209846671730400e-03,-5.438085579597358443e-03,5.557972192764282227e-01
5.205052828242038299e-01,-4.652931001307450409e-02,-1.114929026501493281e-02,4.501030195207660414e-03,-3.239038640360605154e-02,2.665881135583070272e-02,5.550302267074584961e-01
7.996227987700658124e-01,-1.418163181218626279e-02,-3.638542439842853971e-02,-4.743271275357073546e-02,-9.793543250226005581e-02,5.762219124700645317e-02,8.522468805313110352e-01
5.647506274395862613e-01,-5.426234090920975528e-02,6.838277378274859597e-03,-4.226760452287294662e-02,-5.233419870637794763e-02,3.001564348395030501e-02,6.044562458992004395e-01
5.336125307040930910e-01,-3.915161826085136743e-02,-2.775592982559479949e-02,3.118141548736285632e-03,-1.083327726595392435e-02,2.635864192839319949e-03,5.675065517425537109e-01
5.636834615114156843e-01,-9.320557124930295423e-03,-1.252082780636099013e-02,-1.325264261844880387e-01,-1.173588822387774538e-01,6.369011944681110537e-02,6.605724692344665527e-01
5.199328995033378753e-01,5.061385332016388183e-04,-5.484912064902572326e-02,-6.363670442117144721e-02,-4.335505418086988555e-02,5.633248756634373633e-02,5.735235810279846191e-01
5.844213871886380085e-01,-3.523282027863486321e-02,5.729496939622241714e-03,-6.264572695312280171e-02,-9.786307133341419495e-02,5.081313200916094674e-02,6.391538977622985840e-01
6.978213842874251283e-01,-7.815058268088470594e-02,1.065043497897832925e-02,-2.249666159771370258e-02,-9.340916379114215518e-02,6.355364841841026902e-02,7.621825933456420898e-01
5.057920904334334278e-01,-4.754148953560957680e-02,-4.473832085114076706e-02,-7.529209099401288664e-03,-9.713487807479440767e-03,-7.716251447073780266e-03,5.525093078613281250e-01
6.196274173255809092e-01,4.052092372838220213e-02,-7.083297768112412074e-02,-1.947888411485547075e-02,-8.874041742717508202e-03,3.315326867506245695e-02,6.456947922706604004e-01
5.864211879519810600e-01,-2.584707331941091257e-02,-6.152522392529191642e-02,-3.012227546529008121e-02,-1.944875997096900608e-02,1.895813327445247665e-02,6.347637176513671875e-01
4.263835736824057587e-01,-4.279758758119656115e-02,-1.206845469067013843e-02,-4.130290978721428232e-04,-3.949652840982083128e-03,3.641908266123455862e-03,4.546920061111450195e-01
5.337584981162335485e-01,-3.390262769116061947e-02,-3.433691314226075542e-02,-2.367540001541886853e-03,3.153697642122420351e-03,2.278258423045213896e-03,5.679332017898559570e-01
5.256577889045978003e-01,-2.353749628132792426e-02,-2.183583876336983587e-02,2.246445336207091806e-03,3.537569320996116796e-03,1.729511859221441157e-03,5.484026670455932617e-01
4.283788145471010278e-01,-5.413073344529284459e-04,-7.294465769282054701e-03,-1.161863485796384293e-01,-9.269007154396059767e-02,5.068942878965471827e-02,5.107788443565368652e-01
5.128290921980486194e-01,-1.991257886215902495e-02,-8.269053612862481417e-03,-4.590211200270515046e-02,-4.557085228350436085e-02,4.577699415088481993e-02,5.445952415466308594e-01
2.953086521384995500e-01,-4.339125082035247272e-02,-1.891165163810572258e-02,-7.004070112531331216e-02,-7.329747879281178768e-02,4.574133535754561913e-02,3.796539306640625000e-01
4.901601767344743177e-01,-3.871875145393635642e-02,-6.883159604239741380e-03,-6.104258926755051079e-02,-1.163696722551147700e-01,5.200378628344583254e-02,5.690401792526245117e-01
4.971924344298835896e-01,1.950415021567186713e-02,-3.658963012639226964e-02,-5.855324598087917332e-02,-3.430079167403383977e-02,3.793414707859476404e-02,5.256044268608093262e-01
5.620211080762849143e-01,4.103969702367268879e-02,-7.420065202036099650e-02,-7.728300315394101561e-02,-1.565687139624621915e-02,6.582011571820511539e-03,6.029290556907653809e-01
5.200842650872624651e-01,-4.540761104018145589e-02,-4.829092036018001188e-02,2.092882208779919687e-04,-1.616738714437732441e-03,-3.459370714471466605e-03,5.669777393341064453e-01
5.198296375016129289e-01,-5.718423007496853394e-02,-3.461762616413596727e-02,-5.159859574245963428e-03,8.638661172805598559e-04,-2.200089599067741285e-03,5.661533474922180176e-01
5.076359186999813700e-01,-5.911443223783383050e-02,-3.068356150722570397e-02,-8.291526789711766918e-04,-1.191951945286101903e-03,-2.070684683270312011e-03,5.531005859375000000e-01
4.137958788999013260e-01,-1.316315302978471324e-02,-2.559477193843284759e-02,-1.069687958579172982e-01,-2.608142628493723830e-02,7.275310252675908952e-03,4.735850989818572998e-01
5.253759874947101505e-01,-4.789893587834501143e-02,-4.887216224014759303e-02,-1.306480264796224065e-03,-2.064834161767381375e-03,-3.684295253841454992e-03,5.738132596015930176e-01
5.149131059459765014e-01,3.131024704859963759e-02,-4.960515231011083936e-02,-8.416254176348454685e-02,-6.143239903994937058e-03,3.365600004038927368e-02,5.516442060470581055e-01
5.490917131634087678e-01,3.267960635380737222e-02,-5.908809402593581672e-02,-1.217375811932678610e-02,2.476212365992385474e-03,1.877656569611857104e-02,5.692217350006103516e-01
4.142383185522884315e-01,-4.000552616116567761e-02,-2.804406697722636177e-02,8.999833099700491404e-03,6.617269910095413543e-02,1.311489037401356028e-02,4.636190235614776611e-01
5.260546626733051401e-01,7.703112484727353548e-03,-4.973914461008477339e-02,6.354705644991538033e-03,4.192203685094601090e-03,1.445233660644423910e-03,5.494937300682067871e-01
5.376211241409620811e-01,9.628581800523700052e-03,-5.305840751887769269e-02,-9.898944722165509483e-03,-1.058819663690376001e-03,5.006276364946515324e-03,5.622957944869995117e-01
5.461351276358460405e-01,4.957155121160433664e-03,-6.025137806105043681e-02,7.098410303252427819e-03,5.635018429055804225e-03,-1.076767153598624229e-03,5.767712593078613281e-01
5.145348691437945376e-01,-2.250956218536845355e-02,-4.410837104931683572e-02,-2.915919594103767720e-02,1.957537071799892933e-02,9.889353710512001697e-03,5.517938733100891113e-01
5.645093586029228394e-01,1.261778627351631266e-02,-6.256487279786132616e-02,-9.480656904895018791e-03,6.228798015883171314e-03,-1.372646674945959952e-03,5.933979153633117676e-01
5.260727886215371685e-01,-2.818232150983349116e-02,-4.335491538829683300e-02,-1.293371670455527225e-03,4.908697792892686464e-03,4.894623862200228658e-05,5.620638132095336914e-01
2.653848211418815550e-01,3.099949455199348114e-02,-2.700090138117046401e-02,-9.852599463384828504e-02,-3.702470571173045039e-02,7.533801756062576821e-03,3.244993686676025391e-01
3.452757891829858483e-01,-2.087994001119175547e-02,-6.161207711442351354e-03,-6.154444270735997397e-02,-1.937166811454710215e-03,4.700781926406219884e-06,3.745286762714385986e-01
5.191586896517996763e-01,-2.780474966581977792e-02,-3.955070202264124313e-02,-1.999840905989812290e-02,-8.264613031989328368e-03,2.429904019527220210e-03,5.542147755622863770e-01
3.520429503475720479e-01,-9.385152471444307976e-03,-8.459083502459233128e-03,-2.426294012838691588e-02,-2.827384178750855237e-02,-4.331131203047807084e-03,3.667655885219573975e-01
2.960940799446606375e-01,5.611581579646557350e-03,-5.965107151652271344e-05,-2.786058220740383201e-02,-1.309416649721926746e-03,3.599262861183399973e-03,2.973756492137908936e-01
4.349669888644679405e-01,-4.383764689328079056e-02,-1.387420085382090607e-02,-5.821863637013911059e-04,-4.286352153483836101e-03,-5.420787541084825210e-03,4.647035002708435059e-01
1.529982032587567931e-01,1.209218120716410577e-02,4.794072132532245512e-03,-1.039066165126960872e-01,2.603131726419177089e-02,-1.172053401171265809e-02,2.361585795879364014e-01
3.970087899372334306e-01,-9.888008676389878349e-03,-3.512522328414859063e-02,1.356557830940556531e-04,-2.766615283173718895e-02,-9.164249379128283635e-03,4.231065213680267334e-01
4.513418440721863600e-01,-4.960827398905229280e-02,-1.956884590666244095e-02,-1.177439085225951212e-02,6.988241442905556051e-03,7.359148596572834787e-03,4.873705208301544189e-01
5.384922847882239738e-01,2.985752687464474087e-02,-5.673045426529294000e-02,-1.882318172853926497e-03,-4.550153177478260635e-04,9.290330495872837005e-03,5.572419762611389160e-01
5.249645051028208886e-01,-1.414083824114145682e-02,-2.606410251468169181e-02,6.539724070288117572e-04,-4.709684582404268264e-04,5.495088743574311901e-03,5.452496409416198730e-01
5.315107794591332757e-01,-4.182662905064854497e-02,-1.042882374810516488e-02,-4.276338005885576068e-03,-1.990172891204200142e-02,1.569868965770038205e-02,5.600736737251281738e-01
5.830942667074281438e-01,1.678344435387915667e-02,-7.543212020881454039e-02,-7.722242639188133667e-03,-3.608510714209525825e-03,2.114152560522772686e-02,6.188644170761108398e-01
4.406248997890960251e-01,1.826890603170083782e-02,-3.974417657567977380e-02,-1.608174380908942158e-01,-4.589527783010229761e-02,3.077000792417511690e-02,5.412933826446533203e-01
1.287331162762300196e-01,9.619412054268090817e-03,5.813559376270344137e-03,-5.505054604313952549e-02,-1.845564747166223915e-02,1.575257999636626993e-02,1.597305238246917725e-01
4.755053062809971309e-01,-5.534234364479620472e-02,-2.159619159454082005e-02,-1.233809126538566725e-02,-3.191499345421659577e-03,6.057626784920055584e-04,5.152788758277893066e-01
3.921239191134495150e-01,-3.931737273298273327e-02,-5.342073430925534105e-03,-3.552443909575837139e-02,2.370883544121794861e-02,6.014969590242408119e-03,4.221591949462890625e-01
3.945523077758907315e-01,-2.667250895594815152e-02,6.465918056534666891e-03,-4.493721927912327357e-02,-1.183615846501093471e-01,4.455818847575729325e-02,4.675601720809936523e-01
5.245063366625061230e-01,-3.748849160220549259e-02,-9.293068994991410259e-03,-4.389044183295802079e-03,-1.505956463407838973e-02,1.822277125487180294e-02,5.500198602676391602e-01
5.383145023324233946e-01,-1.933779007136002259e-02,-3.613445197834552758e-02,-9.142165754434564140e-03,-4.437230684253429258e-02,2.393094959133129293e-02,5.731495618820190430e-01
5.326149119648139196e-01,-3.803153777292117566e-02,-2.557942567538565304e-02,-1.000676601447816422e-04,-6.270346020918717705e-03,1.207440733662879526e-03,5.646317601203918457e-01
2.156306637308703367e-01,-7.386332677688844939e-03,-1.129464997653775726e-02,-9.563381396348809294e-02,-5.990484646664383239e-02,4.598080647042764903e-03,2.981445193290710449e-01
2.900548691503663234e-01,-1.053778398410615269e-03,-3.860365513431135431e-03,-2.246088381666381043e-03,-2.982450416721136449e-02,-1.748511747288615439e-04,2.970738410949707031e-01
5.252901807021846947e-01,-3.761172147332975113e-02,-4.114821068103605151e-02,-1.561638552085772456e-03,-6.758547331965327788e-03,-4.746823968295601852e-04,5.648068785667419434e-01
5.092524825315293269e-01,-4.710268769650277632e-02,-4.192745701251676671e-02,-4.102698106451629738e-03,-6.255597105132534082e-04,-4.953655074190668750e-03,5.538988113403320312e-01
4.534679040008683382e-01,-3.056524337238061828e-02,-3.053711537546291432e-02,-5.050792609072245892e-02,-3.445767473268322723e-02,-4.758325319181831020e-03,4.955376386642456055e-01
5.217770512156262308e-01,-3.893915647826767801e-02,-4.123649618092847802e-02,-1.677755572366431119e-03,-9.798787050225410411e-03,-1.352749334366113668e-03,5.621370673179626465e-01
5.298465492321651205e-01,-4.006788209210329632e-02,-3.251184065203696627e-02,3.276731758308665601e-03,2.117472733712415928e-03,7.765309166189554276e-04,5.662161707878112793e-01
4.267423244173785823e-01,-2.527590074297973721e-02,-3.582787453271478462e-02,-2.318551777500914637e-02,-8.648430677584011171e-04,9.299339125630926017e-03,4.594299495220184326e-01
6.002223689358441305e-01,-6.810969808062014574e-02,2.282665976082845494e-02,-6.788396344100709225e-03,1.266836761393836941e-01,-3.411463274247020921e-02,6.677854657173156738e-01
5.431221960128761461e-01,-4.360851265311477265e-02,-4.095524986414209034e-02,-4.396513093699409673e-03,1.694451823102478827e-02,1.735332302032909987e-03,5.862009525299072266e-01
4.847876229146615423e-01,-2.344516669156937461e-02,-5.543582475084340988e-02,2.230517006203427965e-03,-1.146993425857572267e-02,1.771655298463115135e-03,5.253586173057556152e-01
4.291753235833954960e-01,-3.017625876332588608e-02,-3.090585670127779516e-02,2.122258858645343922e-04,-2.834657108981535750e-02,1.416407862350419627e-02,4.629817903041839600e-01
4.778423499006611563e-01,-3.223731494208798010e-02,-3.690442194654369734e-02,9.969394788584984984e-03,-1.577798292428000265e-02,1.286208281901160544e-02,5.139308571815490723e-01
5.387676950568911494e-01,-4.577399338336776702e-02,-4.215273956450851789e-02,-1.715962814218014538e-03,-3.176545057133810940e-03,-3.256941327703205893e-03,5.828003287315368652e-01
5.313031175644472581e-01,-4.123960874492141326e-02,-4.303379523013184382e-02,-4.089432854863670787e-03,4.346513772091860697e-03,6.088487350264642226e-04,5.735360383987426758e-01
4.844773445450677452e-01,-4.411907043535667761e-02,-3.436849994897178684e-02,5.289485038968253124e-03,-2.986314742189702821e-03,9.870395566658649381e-03,5.241737365722656250e-01
5.167936656493236081e-01,-4.409424338323866821e-02,-3.855937271918866149e-02,2.132454786664884569e-02,-1.299721881222561624e-02,6.625050685007328154e-03,5.599322319030761719e-01
4.888603393552387599e-01,-3.738420286110488711e-02,1.312349717536534510e-02,4.426241531149723019e-02,-7.621282017294682409e-02,-4.542838423359214783e-02,5.314121246337890625e-01
5.248558138805934359e-01,-4.083255961527285094e-02,-4.300026319057040358e-02,1.261992602468143057e-02,-2.024551778049744899e-02,4.030342624679097638e-03,5.683224797248840332e-01
1.910048352937666616e-01,-4.630229535177127903e-02,-7.084946869681807424e-03,3.903052856562410494e-02,-5.167085147993615013e-02,-5.702125819109944704e-02,2.662332952022552490e-01
3.752889621943722998e-01,-5.140927247328945515e-02,6.846074081654912602e-04,7.206791932916424559e-02,-9.449392020453149799e-02,-5.147247023482911382e-02,4.613823592662811279e-01
5.932987986314897100e-01,2.459397063128845873e-02,-5.058129729714694323e-02,-1.191648013349006592e-03,-4.875793061157533692e-03,2.471215401641429360e-02,6.113401055335998535e-01
3.222254661192609504e-01,-8.905180278227675661e-03,7.184060030160602239e-03,-2.357175386642445386e-02,-1.290068128609814539e-03,1.073496192493904235e-03,3.259663581848144531e-01
6.155798679800984496e-01,-3.549276569113593571e-02,-4.160480515657200007e-02,-2.480975212995305615e-02,3.834869660044685352e-02,-2.753034230634007415e-02,6.606394648551940918e-01
4.498492577267443893e-01,-4.342188384385850530e-02,-1.962959527544846927e-02,-3.308842611622688640e-02,5.671063916349454274e-03,8.173540987627382626e-03,4.855181574821472168e-01
4.183089952803832889e-01,4.040315659122738212e-02,-4.774720404169510712e-02,-1.326075132997749650e-01,9.519348092934516378e-03,1.301755880907246553e-02,4.872682392597198486e-01
4.090672581311240452e-01,4.226915709311733493e-02,-4.755325599983500906e-02,-1.311971582369451661e-01,-2.185657043681778558e-02,3.041068493128172914e-02,4.810418188571929932e-01
5.318793503127760003e-01,-2.689436628864508294e-02,-4.920079536088753369e-02,1.157783260752838061e-03,-1.939114984499895481e-03,-2.382553620814593671e-04,5.702677965164184570e-01
5.424117062974641579e-01,-5.756987299519997214e-02,7.800544323758540344e-03,7.021077235016746215e-03,4.888499580083333074e-03,-1.152996027568548021e-02,5.706562399864196777e-01
5.325077617432791843e-01,8.521335567376914222e-03,-4.687340831541395025e-02,-2.869818720853676425e-02,4.220190238317677624e-03,1.816337342865647882e-03,5.560490489006042480e-01
5.362984009846337718e-01,-4.003802728076386042e-02,-4.304605421041984847e-02,-3.896325876463197120e-03,1.033732112726386482e-03,-1.040380990587131673e-03,5.778912901878356934e-01
5.394398468867245278e-01,-4.306431386002598782e-02,-4.915816836002223633e-02,-1.371648094994331680e-03,-5.832849094535418749e-04,-2.239388614860283490e-03,5.855934023857116699e-01
5.412459760797304620e-01,-4.860514019206194081e-02,-4.580104744916246862e-02,4.654026306155515345e-03,2.632812870155785967e-03,-7.464281399473591920e-03,5.886689424514770508e-01
5.264863884241877123e-01,-3.880916095919834108e-02,-3.829327146571873119e-02,-3.707694885125411427e-03,-3.600039531815383669e-05,-1.945606398265993650e-03,5.650843381881713867e-01
5.245608657735245650e-01,-4.356710503043001448e-02,-4.077430415433180855e-02,1.586282501694570492e-03,1.111919470676441240e-03,-5.588103042239959007e-04,5.667474865913391113e-01
5.274085580477876345e-01,-3.818128074880258738e-02,-3.231926370460214137e-02,2.141359359171379935e-03,2.182488087183639871e-03,5.710195454388299280e-04,5.627075433731079102e-01
5.263170062395664539e-01,-3.100721716722823484e-02,-3.238794855650539706e-02,-5.883751816649280316e-04,1.536403219891514056e-03,8.795534479284410154e-04,5.580252408981323242e-01
5.263449941983567859e-01,-4.291549901897451225e-02,-3.944395816069801164e-02,-8.859384542183331259e-05,-2.091281354090472177e-03,1.905782974633718908e-04,5.675443410873413086e-01
5.267669277853916920e-01,-9.881058261087455330e-03,-2.658861399012729665e-02,-3.871081453421897425e-03,6.373315702477032384e-05,3.081140905286077012e-03,5.452611446380615234e-01
5.272827644821984627e-01,-3.386970133636849067e-02,-2.910790885511588266e-02,2.177484295017732829e-03,2.716079000048777538e-03,3.938552859922722659e-04,5.588197112083435059e-01
5.252714288152742217e-01,-3.053969811799778222e-02,-3.712603463890370992e-02,3.201694124518662029e-03,2.521476657430824549e-03,9.020457657243260421e-04,5.591801404953002930e-01
5.283607214882248826e-01,-3.508115275746151451e-02,-5.230555049089394282e-02,1.137570742370129420e-03,-1.573184980780452987e-03,-1.647642744031362506e-03,5.722655057907104492e-01
5.185421680663667710e-01,-3.396502821238886471e-02,-5.499039719569664975e-02,1.437082723561371308e-03,1.853277801868605549e-03,-4.102592693301240160e-04,5.633293390274047852e-01
5.166610497675023783e-01,-2.725698301478246544e-02,-5.734311362431374071e-02,-1.043252453446693109e-03,5.991140693643102859e-03,-1.083645814510721507e-03,5.596703290939331055e-01
4.583429653039065022e-01,-2.339440222199892783e-02,-4.654325158149194563e-02,3.827566396357082699e-04,1.540251057395261060e-02,-4.182608986196841949e-04,4.944401979446411133e-01
5.172268109946885906e-01,-3.074214637836453212e-02,-5.548399240355231243e-02,-8.809121986329347242e-04,1.748598873060747529e-04,2.665800802547573878e-05,5.607515573501586914e-01
1.158375215282423515e-01,-4.168288161056851737e-02,1.615488705130087993e-03,-1.846830853858299343e-02,2.195313067369102002e-03,-2.521522884600231953e-02,1.510369628667831421e-01
5.322089738044544216e-01,-3.061919732761492208e-02,-3.618535288978066977e-02,2.379327613668460323e-03,1.995994432138326492e-03,2.217812750357832721e-03,5.656704306602478027e-01
4.130562803111954562e-01,-3.146420969164395731e-02,-3.977598204554658179e-02,-2.434073623127299899e-02,-5.921440013667117475e-02,-5.391639645311396487e-03,4.623266756534576416e-01
4.764091904044894799e-01,-2.134551306442569740e-02,-5.743965683853510806e-02,-3.447282958209463895e-03,7.866431541019578214e-04,-3.706342473321697865e-03,5.168242454528808594e-01
4.546802039497012116e-01,-2.120549796662399289e-02,-5.278421444440917210e-02,1.030118524402055856e-03,-1.613692062701634414e-02,2.316647655048646639e-03,4.932471513748168945e-01
5.248880528896984199e-01,-3.984366799023389416e-02,-3.905899578501312308e-02,9.683106872512782862e-03,4.250286417065684760e-03,-1.258827826832645226e-03,5.646411776542663574e-01
4.620615615932084363e-01,-1.935466622383463786e-02,-5.031185788728023689e-02,5.085188287241752120e-03,-2.017225239191617128e-02,5.752454727023796795e-03,4.990198612213134766e-01
2.352690267649342748e-01,-3.303872901556481612e-03,-5.565188979924501345e-03,-5.701971909961917745e-02,-1.293302881915795247e-02,-3.854369799368036458e-03,2.603108286857604980e-01
3.044380172049570565e-01,-6.397989566680084561e-03,-3.282896298721721395e-03,-2.402311599076991169e-02,1.622190501597702700e-02,9.706327058105850697e-03,3.137895166873931885e-01
4.797701302928255584e-01,-2.873001705026634323e-02,-4.814572498270741630e-02,9.406322736098910939e-03,-1.065987804684338618e-02,5.210617864814993776e-03,5.191435813903808594e-01
4.880991195471851007e-01,-1.571141457651234474e-02,8.685527398385350928e-03,8.571806709792376133e-02,-7.027423932930609851e-02,-5.186068345553792452e-02,5.357756614685058594e-01
5.358135840317790333e-01,-4.533419125426940699e-02,6.340663733764295706e-05,8.154117286490967023e-03,-1.818001070177005518e-02,-8.614736572154287064e-03,5.610923171043395996e-01
5.300949098238636470e-01,-4.385434889786582469e-02,-2.845330182788025075e-02,3.655944270317422039e-03,4.567944087496560884e-04,-1.740382673117375810e-04,5.664418339729309082e-01
5.308132532161925488e-01,-4.040597510135124359e-02,-4.282398297378375851e-02,4.794793435747475747e-03,-7.175829014710235522e-03,3.129138496550764540e-03,5.726528763771057129e-01
4.669755247053219982e-01,-3.885118923585340056e-02,-3.177360701225168116e-02,-1.787217523515488571e-02,2.640305998531401743e-02,1.310592829694006214e-02,5.058612823486328125e-01
5.393472774801708614e-01,-4.199404565384537436e-02,-3.036428095669532756e-02,1.646458789173279409e-03,4.136586074040234269e-03,-8.817244872964612830e-04,5.756682157516479492e-01
5.726102227344729290e-01,7.133614961210760219e-03,-6.205019137689254949e-02,-1.405547583115587529e-01,5.141500388816101774e-02,-4.093456424528384846e-02,6.602244973182678223e-01
5.939421186956591603e-01,-6.685792113694266625e-02,1.111259052224947141e-02,-2.688135754787716186e-03,9.806832780530706783e-02,-5.365484880191576794e-02,6.547698378562927246e-01
5.621347810390030508e-01,-3.898485249790778484e-03,-5.784275282436829313e-02,-1.352984184968158109e-02,6.183086168178199976e-02,-3.430975289864436617e-02,6.077727675437927246e-01
6.720646759534172343e-01,-1.181435867212592694e-01,-2.573283825538175140e-03,-2.142330128917522072e-02,1.480269130064950367e-01,-4.444818594506216858e-02,7.870836853981018066e-01
3.488883123941153297e-01,-3.018010246904019589e-02,-8.178440635629086186e-03,-6.644867705892389120e-02,1.025780767648205687e-02,7.844397713323830040e-03,3.867600858211517334e-01
5.280986067301410847e-01,-3.549849117905484741e-02,-5.329705609766879904e-02,3.831614300510492472e-03,5.407393216997779910e-03,2.086083940317967882e-03,5.728302597999572754e-01
1.528267384825087449e-01,-4.008574229360571672e-02,9.262772524904240579e-03,-1.152027477097959836e-02,1.284794649051747804e-02,-7.170753257973965303e-03,1.765734255313873291e-01
3.313337351386592688e-01,-7.338964576351178493e-03,4.396398700379777758e-04,-3.275771232988438503e-02,-8.663993555913509712e-04,-7.042875341945225263e-03,3.398463726043701172e-01
3.616629307480837552e-01,-1.588259544331553641e-02,-2.191412552720088669e-02,-5.005821296315259017e-02,-3.355086230566630551e-02,-5.594513384795353310e-03,3.947689533233642578e-01
3.063802502150522189e-01,9.719925286886255122e-04,-3.896781409711905231e-03,-1.867303299843699541e-02,1.292024137901373604e-02,6.445749444328148677e-03,3.105742335319519043e-01
5.286988631933657867e-01,-5.151765918181050452e-02,-9.283980746960240893e-05,9.070868179802781331e-03,3.194090066466637179e-02,1.979845484345313378e-02,5.603049397468566895e-01
2.485512571924530234e-01,4.494897662758429169e-03,7.532145316852395522e-03,-1.812014964836269892e-02,5.425005793569030038e-02,9.758464013719020391e-03,2.625478506088256836e-01
5.303172948410824761e-01,-3.946855135660179426e-02,-4.268798293610279182e-02,3.828468151505475935e-03,-1.521942192986627633e-03,-5.922305477697620713e-04,5.714478492736816406e-01
2.743574867438570153e-01,-2.238798766520719297e-02,-3.498363270516918755e-03,-9.744319084995663183e-02,4.835517484375673886e-02,2.149253763079189521e-03,3.439815938472747803e-01
1.732712938734977115e-01,4.983898468193293657e-03,-7.001774708983680984e-02,-6.966212340853095153e-02,2.652968059939153980e-02,-2.579407429729477577e-02,2.554087638854980469e-01
1.892905154419607938e-01,-3.871719293374149828e-02,-6.947107986897067822e-02,-2.368733205543094647e-02,1.665121023098001599e-02,-1.748065621461548230e-02,2.517483234405517578e-01
4.275797346740871085e-01,-4.282454470317122175e-02,-1.930195348455356064e-02,-3.523522493976727105e-04,1.083754946892194135e-02,7.739222638820090171e-03,4.596746563911437988e-01
5.257059390882201644e-01,-3.719373084745586366e-02,-4.977461853556580662e-02,-7.194318276418586178e-02,-8.122175699052757228e-03,2.275338715908321353e-03,5.829554200172424316e-01
2.906544607093515253e-01,8.215045376719423698e-03,-2.181452780889700516e-03,2.690170340760552475e-02,-3.456118450218477467e-02,8.573757800446283467e-03,2.979791164398193359e-01
3.777558923431855176e-01,-3.701036334922241933e-02,-4.939423259199271499e-04,-3.259067483115651170e-02,-1.507945356451837783e-03,1.423454294641302888e-03,4.017686843872070312e-01
2.511694802018898942e-01,1.232605232569579379e-02,1.866517930176125883e-02,-3.121054965056369295e-03,1.671161857801658698e-02,3.723050348327726355e-03,2.376572042703628540e-01
3.650635545316495700e-01,-2.470937209684362368e-02,-2.579062328777623203e-02,-6.025052442912302159e-02,-3.523530999151301690e-02,-8.181142458671431320e-03,4.088536500930786133e-01
1.389571265132405475e-01,-5.523204537313461393e-02,-4.372856887896212769e-02,-6.724068316534608132e-03,-3.319689742281148673e-03,5.599188297587319972e-03,1.893955320119857788e-01
5.338447722522531302e-01,-4.152034871611626210e-02,-3.450498087413672588e-02,1.228103777092221828e-02,-2.893131831413407913e-03,4.427051347359561677e-03,5.723584890365600586e-01
5.214175907231706208e-01,-4.939633358355641213e-02,-3.310954765257373422e-02,2.767674185237514479e-03,-3.541894295111098351e-02,-3.615532884367590738e-03,5.662356019020080566e-01
7.428398487073046841e-01,-1.433451510933872741e-01,2.457441457514458749e-02,8.061358310142976991e-02,-1.330739584695769528e-01,2.607560706707558228e-04,8.586820960044860840e-01
4.848731050601511328e-01,-4.055885181985816046e-02,-1.569127796643937645e-02,8.499243461433620556e-03,-5.124138108753872878e-02,-1.896292204904029234e-03,5.212824940681457520e-01
5.455786722506748010e-01,-6.208304436024728035e-02,1.942598399247882912e-02,9.235791349507348549e-03,-6.824983247102157057e-03,-2.281221299434871373e-03,5.716448426246643066e-01
5.369884231544040931e-01,-4.508706293942138510e-02,-2.031566292841763266e-02,7.472769196775057602e-04,-1.449432654047640850e-02,7.264250694177024330e-04,5.706489086151123047e-01
4.208062773016501557e-01,-6.072990044179180091e-02,5.030656346846625049e-02,4.472022500744806707e-03,-1.343069224571486198e-01,-1.537223946980321998e-02,4.956027269363403320e-01
4.957979855879968145e-01,-5.544036132642155001e-02,-2.955480585577108243e-02,-4.243274123576447256e-04,-8.980812711155533026e-04,6.158143244298070959e-03,5.388704538345336914e-01
5.306908169395230246e-01,-4.767813064739898077e-02,-3.708387292494416676e-02,1.093618545132550753e-02,-5.641979870092131248e-03,3.348343786332984989e-03,5.735707879066467285e-01
3.974166073216186534e-01,-3.298546105905973691e-02,-2.735127687375109307e-02,-4.561773712759539801e-02,5.474109789589673425e-02,1.550886377214701246e-02,4.458777904510498047e-01
5.200421410614070039e-01,-4.684327606592353366e-02,-3.708539198882504495e-02,4.418013413987923604e-02,4.937062840998764426e-03,-2.840045718760183559e-03,5.673408508300781250e-01
5.396420686844326520e-01,-3.432237527590920045e-02,-4.112286610847959434e-02,1.662861507808907971e-02,-3.971687015336121916e-03,-1.722458059533005540e-03,5.781612396240234375e-01
5.272197910063244342e-01,2.339566277194871091e-02,-7.073920121885093892e-02,2.219903045475288966e-02,2.489118189971196299e-02,-1.517670242730734947e-02,5.604959130287170410e-01
4.425450461889504084e-01,2.795195969355165899e-02,-6.546977649254887011e-02,-1.550712505701598021e-01,-3.142372228704713721e-02,4.288163386096210949e-02,5.476925969123840332e-01
3.052328055621014724e-01,-1.158217886243526062e-02,-4.275146224549797314e-02,-1.208997364027672577e-01,-4.133467547944171677e-02,3.623227196839531178e-02,4.051325619220733643e-01
5.264712382923404377e-01,-2.930899226028588211e-02,-3.808494158796191242e-02,3.224215379480545405e-03,6.072767322252040773e-03,1.992505066072483740e-03,5.603569746017456055e-01
4.928859072718593248e-01,-5.532946000843866341e-02,-2.817875147380316525e-02,-1.791047583372029628e-02,5.475104147693340799e-04,-1.825889342234605940e-06,5.360560417175292969e-01
4.388808718565004874e-01,3.236698583893585224e-02,-1.190480606026996790e-01,-1.055831545749721240e-01,2.704423496007294161e-02,-1.978334339975322542e-02,5.352981090545654297e-01
5.856274898976352450e-01,5.903363654155432960e-02,-8.075682322176899741e-02,-8.065030403755518718e-02,7.384583541750446489e-04,6.972715928451249899e-03,6.245927810668945312e-01
5.391088667595435036e-01,3.425439059193818858e-03,-5.438573467567245356e-02,4.703038284411431569e-03,5.996754069999296263e-03,-1.282695694081671840e-03,5.669625401496887207e-01
3.698581164530813092e-01,-1.908543291582646961e-02,-1.285114314217598863e-02,4.854718495727489147e-02,-2.549700462470536402e-02,-1.354678063397857495e-03,3.973882794380187988e-01
3.787516132665316171e-01,-1.575844022308142689e-02,-1.284111509307134247e-02,-2.217368783791870759e-03,2.818841891848121103e-02,-7.218517367734406977e-03,3.962961137294769287e-01
4.296701271903241581e-01,-2.307309076850055929e-02,-2.048952391172137455e-02,1.361567473767594065e-02,-1.105051002630773977e-03,-5.289197663418347857e-03,4.521693885326385498e-01
3.123848130470703310e-01,-1.779591382886340500e-02,-7.755835304463082336e-03,8.514029234243498945e-03,3.265348725482053460e-02,2.585533013898426782e-04,3.304867446422576904e-01
2.873392743882072775e-01,-1.032830700630579801e-03,1.275539036326819864e-02,3.053605456609012961e-02,-6.725335381436924834e-04,-1.049871151528935197e-03,2.866608798503875732e-01
5.307268449624266138e-01,-4.101772194007846650e-02,-4.230402176350325782e-02,-1.446461663852568417e-03,7.459722440342392118e-03,1.004696402814942661e-03,5.725427269935607910e-01
1.702977136929043345e-01,4.087942455259396812e-03,1.807618852037742863e-03,-4.673998065449828238e-02,-9.348913616338647148e-03,-1.139297391568881018e-02,1.876576244831085205e-01
5.264906142373915188e-01,-5.181510118336229986e-02,-3.696605872754027411e-02,-1.210148573106736196e-03,-1.830200197152649817e-03,-3.649041133239177941e-03,5.710736513137817383e-01
5.231162731539449329e-01,-5.195222304146723813e-02,-3.529932906372698631e-02,-1.378807547860936645e-03,6.889949792639322697e-04,-1.837470064917530671e-03,5.669407248497009277e-01
5.268301908441074266e-01,-4.954398445328841993e-02,-3.876825236798711605e-02,3.869585902477965661e-03,1.231561728527051560e-03,-4.221642777794844432e-03,5.711526870727539062e-01
5.079674171188960363e-01,-5.409009130517464237e-02,-3.272075514686709208e-02,-6.549807475342828405e-04,5.202141463817813553e-03,-5.607471909946322441e-03,5.518435239791870117e-01
5.273342291961099493e-01,-5.731424955611216787e-02,-3.748360360076369302e-02,-1.880093423933487055e-03,-1.780585129251333271e-03,-7.461755460658260923e-04,5.750086307525634766e-01
5.270893813297399255e-01,-5.637208430651347024e-02,-3.557900537041577826e-02,2.609869532667065308e-03,1.722351289460959545e-03,-2.250400184537551963e-03,5.733866095542907715e-01
4.932678546848883738e-01,-4.265746024741892684e-02,-3.806619983149320263e-02,-2.241095370592558617e-03,6.389110219348152417e-03,-1.200333037091717674e-02,5.341780781745910645e-01
5.152098202019299578e-01,-5.727304853961157072e-02,-4.053286088748717098e-02,2.297849903160626567e-02,1.086861378605056931e-02,-7.606401444902766151e-03,5.661672949790954590e-01
5.346954503443734907e-01,-3.969650694598830798e-02,-1.162263966737561716e-02,-3.637996819080901740e-03,-3.947967724377341239e-03,2.352126126886104011e-03,5.609740614891052246e-01
5.403800799880824624e-01,-4.036404137980417750e-02,-4.223722026828521936e-02,-5.629974335871923419e-03,1.373892654183250578e-03,-2.491931558987745595e-03,5.817855596542358398e-01
5.356868437808006700e-01,-4.161008414952860335e-02,-8.136587703829384344e-03,-3.425094050432260853e-03,2.646616207611660141e-03,1.075525524340741577e-02,5.616683363914489746e-01
5.082204943715701306e-01,-3.857155976566961630e-02,-5.461578523702384502e-02,5.001789336632094136e-03,1.460331540602660856e-02,-8.256986554078736898e-03,5.558157563209533691e-01
5.338921913339029768e-01,-3.646476927858205430e-02,3.706424949730890983e-03,-2.481801983648466124e-03,3.505404572505663695e-03,1.143358527045029542e-02,5.517756938934326172e-01
5.339459908097455854e-01,-3.634640115777801328e-02,-1.233063054036018236e-02,-8.182335184886199014e-03,-7.293834983703848321e-03,2.982385833293078360e-03,5.590181350708007812e-01
5.398046172814958688e-01,-4.038926787735125368e-02,-4.666871629379748532e-02,-6.803691340004051772e-04,8.955624642842537585e-04,-3.251130879899055172e-03,5.833894014358520508e-01
5.097493090230197366e-01,-3.477601917267969522e-02,-3.866767457840569744e-02,1.198909982471514299e-02,1.260586819906762447e-02,-2.818376136177214511e-03,5.473334193229675293e-01
4.825037109774147903e-01,-3.771187137321119209e-02,-3.273631431378679069e-02,1.146290897235103731e-02,7.364736839369781518e-02,6.046575512124070795e-03,5.337005853652954102e-01
4.206288210007387285e-01,-1.607915481447844130e-02,-3.220035641563256945e-02,2.144541155082499428e-02,2.327032120557685421e-02,-3.539253117783886828e-03,4.483924806118011475e-01
5.032998192559577921e-01,-5.376205660008243070e-02,-3.265099350720984672e-02,-5.648422165142913398e-03,2.225305171828077713e-03,4.336688471282736795e-03,5.469647645950317383e-01
5.395092712286468917e-01,-4.210344431102508445e-02,-5.372989760171378859e-02,1.548636256673259666e-02,2.980028412449865424e-02,2.894624262732194662e-03,5.904061198234558105e-01
1.076346441636775175e-01,2.874133493287354263e-02,3.541220130221026108e-04,3.589699237480056121e-02,-8.936091711290923556e-02,-8.327599205591664985e-03,1.931307762861251831e-01
5.577075292213754532e-01,1.830904880372907773e-02,-6.208048163487847604e-02,2.353072512283295448e-02,1.345908126366449466e-03,-3.833119238049431904e-04,5.851855874061584473e-01
3.302359968881423136e-01,-9.434395198179290620e-04,5.829873910767613410e-04,-5.414945136601359132e-04,-1.090231444012947819e-03,7.012390261067104856e-03,3.306487500667572021e-01
5.235967762117048618e-01,-5.457525050635270158e-02,-3.539413328933971314e-02,1.153609312875268980e-03,6.790454478526315816e-04,-3.704225997751778559e-03,5.688650012016296387e-01
5.223380416158743822e-01,-5.846390353340114032e-02,-3.378496035431888256e-02,6.289822860949179605e-03,4.683842919913239894e-03,-4.541740222827068268e-03,5.690806508064270020e-01
5.406899549114545511e-01,-4.973408512736920972e-03,-4.618133015631301075e-02,-7.380149932704821274e-03,-7.026548597028042971e-03,2.959010219838565953e-03,5.676883459091186523e-01
4.966296352500770284e-01,-4.654927473713291186e-02,-3.529893397323488613e-02,1.139239042010340916e-02,7.525677607692167134e-04,-6.845832772922760996e-03,5.381362438201904297e-01
5.426137437447713374e-01,-4.204505107850411982e-02,-3.732272188154006631e-02,-2.007221552154291044e-03,-1.495673388748848965e-03,-2.483629755548590490e-03,5.823439955711364746e-01
5.291696432229735514e-01,-2.409270900434731799e-02,-2.029646532034237727e-02,-6.431792226641039681e-04,2.407611639799707177e-03,-4.740915587313257983e-03,5.514520406723022461e-01
5.701447053639090434e-01,-2.758359583591840636e-02,-3.681629485076254316e-02,4.496094547701476145e-03,1.396360666589080077e-02,-1.599422042339217198e-02,6.035694479942321777e-01
5.338929189354054694e-01,-3.272577459340780814e-02,-1.768922875755629676e-02,-1.631236678797419416e-03,2.276479243544570884e-03,-1.924372982301803632e-03,5.592830181121826172e-01
5.291935864565300296e-01,-3.952840334404766898e-02,-5.814564274657735288e-03,-2.889520481335736048e-03,6.915623223133273226e-03,-3.714567297407658179e-03,5.528267621994018555e-01
5.326476644387997395e-01,-4.200740363628685525e-02,-2.785758046612840655e-02,6.356081309396909539e-03,-3.864215827684575879e-04,-1.523009173265049308e-03,5.678256750106811523e-01
5.585773596127251439e-01,-3.261752020738861724e-02,-8.830787364745074086e-03,-2.200201851560475933e-03,6.297607781922467084e-03,-1.988477598734876214e-02,5.808048844337463379e-01
5.414531760890508583e-01,-4.274096193879162175e-02,-2.694452785573689391e-02,5.578941009999447906e-03,-8.999967298028124091e-03,3.874099075810503155e-04,5.767503380775451660e-01
5.678413415551586407e-01,-8.926362105541499337e-02,3.577734485077346815e-02,6.810115320354635793e-02,-1.527394796708344826e-01,-2.264269101008537649e-02,6.713393926620483398e-01
6.001543197340515334e-01,-1.858803892380272993e-02,-4.500203284089787648e-02,2.073260521869275952e-02,-5.695944798068213605e-03,-4.460808440341348241e-02,6.381533741950988770e-01
6.885744661889310336e-01,-6.459330395289503146e-02,2.864660476364494501e-03,9.131507321910051211e-02,-7.026136404661807722e-02,-4.835932394377438770e-02,7.535557746887207031e-01
7.105336048053059184e-01,-8.340782370188429273e-02,-3.634335869352767201e-02,8.143919909490020259e-02,2.675442255533778610e-02,-6.091722584431141785e-02,7.926971316337585449e-01
5.854751469633707739e-01,-6.134122398074093319e-03,-8.894271284027283064e-03,-1.797591837520279821e-04,1.638168354350922696e-03,-5.638334476838764014e-02,6.009887456893920898e-01
4.951955386576697427e-01,-3.733428272052860541e-02,-4.289564557897532215e-02,1.801686918073563959e-02,-3.215254373428989149e-02,3.430051560058025931e-03,5.391576886177062988e-01
5.052934601158334260e-01,-3.632949987776984413e-02,-3.381833173212778210e-02,-2.271773001442419903e-03,5.999342110413143428e-03,-1.957573451222999281e-03,5.404965877532958984e-01
7.498729301500107747e-01,-3.116307583657218494e-03,-7.951324946792881487e-02,-6.858057381395671337e-02,9.736669095248220995e-02,-4.775233212458224186e-02,8.244676589965820312e-01
5.421211275625495984e-01,-3.506765585865895263e-02,-1.257534663730613955e-02,2.333605388472043910e-03,7.813127952908501461e-04,-1.489844328783454519e-02,5.668814182281494141e-01
5.285024628506673761e-01,-4.325635093114321705e-02,-2.015961389678788684e-02,3.513695817461131611e-03,-1.073254874804517589e-02,-4.741210581300676040e-03,5.609686970710754395e-01
2.546666086765575487e-01,-5.187149977411292801e-04,1.928080108120025504e-03,-4.928279431487479073e-02,-1.368147567900651271e-02,-2.937823502158687025e-03,2.690259814262390137e-01
2.738631660967260628e-01,1.537964762478297165e-02,9.516479169147940009e-03,-3.291614014454702190e-03,-1.003128177100778839e-02,-4.694949365293468995e-04,2.621043324470520020e-01
1.815679453245734043e-01,-6.606910503366683618e-02,-4.211030558122319523e-02,5.301387563912499101e-02,-4.663656455342862772e-02,-2.060470903465972878e-02,2.686913311481475830e-01
4.885445236851336803e-01,-6.111390167334460055e-02,-2.304329870355709131e-02,-1.052354151116763684e-02,2.752879523636752083e-04,1.853446148885590889e-04,5.319591164588928223e-01
4.691346447203039172e-01,-4.945371278790788860e-02,-2.272874861479518005e-02,7.803478827630262737e-02,-3.619247132786413551e-02,2.163612283853248719e-03,5.272578597068786621e-01
3.948681578855666174e-01,-1.205530833642620703e-02,-3.111170947099731188e-02,1.707557064223153009e-02,-3.332139790450341227e-02,7.460561348551300771e-03,4.219917058944702148e-01
5.298929084045311821e-01,-1.850706273810812097e-02,-4.050501643690962439e-02,-6.748844696941468449e-03,-2.078712816101217341e-03,-2.623401930025522338e-03,5.598753094673156738e-01
5.304554313470351001e-01,-3.042309889079689023e-02,-3.839704829299533939e-02,1.774585516633268249e-03,-7.905565093165945259e-04,2.062333421743049733e-03,5.649290084838867188e-01
5.297523694989432208e-01,-3.192291091045104667e-02,-3.661495749088725105e-02,4.253547033481586311e-03,3.277968217174957299e-03,1.195699022969156462e-03,5.641164183616638184e-01
5.286139940809962967e-01,-3.862071427083085817e-02,-3.880041761942479295e-02,-1.321925654389497287e-02,-2.625530512199761388e-03,-1.812640183886698368e-04,5.678047537803649902e-01
5.182745487649114136e-01,-2.197371617345020289e-02,-3.362300007957783055e-02,-9.825207022779593180e-03,-2.942242918336936304e-03,8.550385731433974776e-03,5.466555356979370117e-01
5.471274812835708046e-01,1.855065017638451996e-02,-4.918765006660930084e-02,-1.113417320976880934e-03,1.029949787148632181e-02,3.568892253948874327e-02,5.691484212875366211e-01
5.215152816714950790e-01,-3.287621388624278884e-02,-4.334108126868571609e-02,-2.494393385706168351e-02,3.786617303273491324e-03,-5.500495800002118581e-04,5.614014863967895508e-01
4.949692018865515242e-01,-3.983365643745664930e-02,-3.804661742369336297e-02,-2.472005990631883157e-02,-9.644021068593230939e-03,-9.670646545189849185e-04,5.358886718750000000e-01
4.987103411657136665e-01,-2.576574164960035440e-02,-6.109700688216679332e-02,-1.029831508331551968e-04,-1.459259044486595691e-03,-5.930067959214034177e-04,5.430113673210144043e-01
5.167400578316825310e-01,-5.273410707911338480e-02,-1.328213262479008283e-02,9.353491982721564083e-03,-2.552090867186287623e-02,2.419659539250234529e-03,5.528330206871032715e-01
2.520714492470892409e-01,-6.953505002346707653e-02,1.359218641433386499e-02,-3.387622931448933117e-02,-1.029946543682306731e-01,9.582973971940618105e-03,3.451791107654571533e-01
4.067604488610002678e-01,-2.433589309619570151e-02,-3.355723785123844449e-02,-1.823234607785726921e-02,-1.628125236562285097e-02,-1.424507794618675750e-02,4.385266602039337158e-01
4.019387999208148821e-01,-9.628975099449876840e-03,-3.888783309022414425e-02,-2.603545561057948876e-03,-2.546423773854810876e-02,-8.922900096494556371e-03,4.295236766338348389e-01
4.087304850580786297e-01,-4.115892086964033358e-02,-2.461151143627966775e-02,-4.488826896486794449e-02,-5.225630197056602838e-02,2.010702131210210727e-02,4.589985907077789307e-01
4.689855596640091218e-01,-5.688410874784377569e-02,3.136498885207765486e-02,-1.213596304831126730e-04,-1.543654311433059478e-01,1.389138182088238069e-02,5.567623376846313477e-01
5.002177365500759532e-01,-3.230934631089360520e-02,-4.282416551925311010e-02,-3.391934713624035827e-03,-1.111095845321487252e-02,-5.848218518931104330e-03,5.383331179618835449e-01
3.157919482560777591e-01,-5.751073117338641183e-02,6.919281614867989205e-03,1.407256493680701312e-02,-1.397500801251752023e-01,7.753090941418306833e-03,4.228698611259460449e-01
3.605866364778695932e-01,-3.492635085972539688e-02,-2.340732044745401363e-02,1.051212748618871179e-01,-1.083674818309600801e-01,-2.482810833080133575e-02,4.714218676090240479e-01
4.680131745136464350e-01,-3.019264310378644289e-02,-4.682739666304416848e-02,-8.564907197227786262e-03,-2.616028661680810941e-02,-9.352865498114561887e-03,5.092237591743469238e-01
5.068154458748930224e-01,-3.911133306223249506e-02,-3.838188409472961804e-02,-2.849200877788708383e-02,-1.293225770082559109e-02,-5.284154793000707742e-03,5.483240485191345215e-01
4.924064175393530474e-01,-2.881666200580007553e-02,-5.227508611022035900e-02,-2.696520684407591791e-03,-9.938942414452636362e-03,-5.676641451709434245e-03,5.337281227111816406e-01
4.513940030761163236e-01,-2.481842126289887651e-02,-4.493767522746441867e-02,-7.853283176699355633e-03,5.622234089056714085e-04,-1.035707430036559955e-02,4.871056079864501953e-01
5.154785660515510681e-01,-3.613403292989203486e-02,-4.658633432435774213e-02,-1.003322641042742828e-03,8.060739358296304009e-04,-1.019888916355123004e-05,5.569167733192443848e-01
5.141097812317394489e-01,-3.684952586841713784e-02,-5.397677409516535296e-02,-3.216193804611426643e-04,2.673238509588696959e-04,-1.849729751774382589e-03,5.597291588783264160e-01
3.814522502961098516e-01,-1.617061031124851500e-02,-1.833258401198005483e-02,1.398654872012918460e-04,-1.734419063267610616e-03,-1.110122052712631327e-02,3.991829752922058105e-01
3.667851975845957679e-01,-1.152775971406021227e-02,-1.112211184147962606e-03,-9.262031830439444854e-04,-9.194931001940289880e-03,2.550959203116643943e-03,3.735834360122680664e-01
3.168790763703912550e-01,1.121540682019678270e-02,6.409782623877785523e-03,3.468298492903692013e-05,7.847734415941594625e-04,5.178875893886270010e-03,3.082281351089477539e-01
3.745776757281945590e-01,-1.041758673827018755e-02,-2.618334099674808624e-02,-2.210377964646071183e-02,1.072882885456733285e-02,9.882662890520883120e-03,3.957824110984802246e-01
4.672094438561921748e-01,-5.060189270339862655e-02,-2.329164889791929260e-02,-1.226152610355198645e-02,-3.300183368713001798e-04,7.314495229573860641e-03,5.053164958953857422e-01
4.730701502815379822e-01,-3.608543985888809646e-02,-3.740758966453522349e-02,-7.767614578648312368e-03,1.891358896785499044e-03,1.228068422456134526e-02,5.104493498802185059e-01
4.070761855498478132e-01,-3.661003138095433873e-02,-1.669179956892347105e-02,-1.782629152943267237e-02,8.752831803100213914e-03,9.468962534043104048e-03,4.357394874095916748e-01
2.506537242703016366e-01,-8.207545178246608564e-03,-3.549215305951708421e-02,-3.579828008743094619e-02,-5.169074117871543667e-02,2.955244900454227427e-02,2.988259196281433105e-01
4.523007265666619814e-01,-1.828110058316709252e-02,-4.792376932926362132e-02,-1.911146831493011936e-04,1.660765691212259115e-02,5.733214757815304798e-03,4.870332777500152588e-01
5.217737809201284938e-01,-3.155706242874606327e-02,-6.137847432376561385e-02,2.299148942592199596e-03,8.147693415398843050e-03,-1.304096683778135056e-03,5.690215826034545898e-01
5.212714287603799068e-01,-3.150108817252134097e-02,-5.947206267079210851e-02,1.153363110781932370e-03,3.475098546860620839e-03,-3.737260508308642634e-04,5.673112273216247559e-01
4.765262757337163091e-01,-2.447254400811665898e-02,-4.901909293126902045e-02,7.862421759973781468e-03,-7.849679730966202312e-04,6.256426210735290157e-03,5.140086412429809570e-01
4.749844497417355926e-01,-2.582002906600616710e-02,-4.322709119346124229e-02,-3.989682106340355396e-03,4.103028072519522562e-02,1.396923661460454120e-03,5.147132277488708496e-01
5.146265124998613549e-01,-3.448271259989438287e-02,-5.286836774662004301e-02,1.748587019679805109e-03,4.564113382913878407e-03,-3.546894960973283242e-03,5.586270093917846680e-01
4.291311361081445730e-01,-3.773968106659346400e-02,-2.617884973168267682e-02,-2.222099585022168505e-02,1.303037642519125003e-02,1.259896834275532444e-02,4.638658165931701660e-01
4.351205013129708643e-01,-4.121853620571522270e-02,1.722907057414800602e-02,-3.906671697658808950e-02,1.003955162329701611e-01,-2.469705211525538568e-02,4.889993369579315186e-01
4.962490053795274303e-01,-2.779439317802234743e-02,-5.885174741511189911e-02,5.241054506288514783e-03,1.195974141603364099e-02,-6.430161563339880162e-03,5.408298969268798828e-01
4.820924461945743644e-01,-3.221129620626461687e-02,-4.982977762130480492e-02,-9.415085863544697675e-03,1.110896946922194754e-02,1.058020329434874313e-02,5.242632627487182617e-01
5.880559687939993507e-01,-8.014430867017879878e-02,-1.844232423649508346e-02,2.134112548237324450e-02,8.644527352973373560e-03,2.840075778488277379e-03,6.408464312553405762e-01
6.114664724333105372e-01,-5.446642811068053147e-02,4.234387389779270539e-03,1.601097760952650828e-02,1.423438188481071232e-01,6.770940606481454065e-03,6.852105259895324707e-01
3.885013745512457817e-01,-4.431075904425935130e-02,-2.019693441775774478e-02,-3.056960534730193560e-04,-4.920334245132389900e-02,-2.073618066423079439e-03,4.298222362995147705e-01
4.866787205965408258e-01,-2.476667471410903820e-02,-2.461541043526915828e-04,-4.394824386922011050e-02,-6.108492801102050757e-02,4.231836165731935745e-02,5.215340256690979004e-01
4.042740026069695514e-01,-5.786189334497843229e-03,1.005771533159280362e-02,-9.306387061867008037e-02,-1.095915035329839277e-01,5.649109196943023076e-02,4.832087755203247070e-01
3.905835449720916341e-01,-3.640701583283362242e-03,-2.202254360514066533e-02,-1.077902069909708882e-01,-1.116992241653281537e-01,4.526200770898253928e-02,4.913547635078430176e-01
3.057487504886814422e-01,-1.086482843569060164e-02,-1.651081391943362564e-02,3.605653057700449610e-02,-2.769838746630927037e-02,-9.670880436898354054e-03,3.294632434844970703e-01
4.630433923843356725e-01,-5.299679535377307960e-02,-2.127595887250091633e-02,-1.237453819440745631e-02,5.011724848591686890e-03,-4.415420981285041700e-03,5.015253424644470215e-01
5.154519459632557199e-01,-4.691546290322717860e-02,-4.624968261382922385e-02,-2.431356976637696898e-02,-3.564988940731442929e-02,-4.918445873066314145e-03,5.670466423034667969e-01
4.065210535168168327e-01,-3.552847106720084802e-02,-5.175256504718686590e-03,-2.373777174040586635e-02,-9.707844979275986885e-03,-7.542611130417710766e-03,4.301805794239044189e-01
4.773281141669177274e-01,-2.089595984197559209e-02,-3.499225936391164860e-02,-1.163279607618474681e-01,-3.369116367265125034e-02,5.155966833550010807e-03,5.472939610481262207e-01
5.258545440562188977e-01,-2.475472269158671135e-02,-2.756646477948876406e-02,3.090954130870221701e-03,-3.907416749571154314e-04,1.626195395811404470e-03,5.520540475845336914e-01
5.272928835893281319e-01,-3.311446579584875760e-02,-3.359670835811706668e-02,2.286589416368932717e-03,1.038104550381381943e-03,3.334518015631167333e-04,5.606657862663269043e-01
5.267661381096127027e-01,-2.939844278899153562e-02,-3.352364172837352108e-02,-7.052458104405201012e-04,-1.698928181157247346e-03,1.995825558157837340e-03,5.582584142684936523e-01
5.290798950627610964e-01,-3.448387595807639316e-02,-3.111296256734105703e-02,3.318089158052837072e-03,3.219303254008013589e-03,1.880013186759863257e-03,5.619524121284484863e-01
5.262375396770013758e-01,-1.946460947731243341e-02,-3.016521690353896057e-02,-4.074153664846550706e-03,9.427297304611852516e-04,5.039301522740281987e-03,5.512470602989196777e-01
5.324444771412975008e-01,-3.338454698288395583e-02,4.813098162589901641e-03,1.390975322264016928e-03,-1.147564292084191475e-03,7.841933774820572869e-03,5.479073524475097656e-01
5.281402499527211303e-01,-3.162039666324389930e-02,-3.134452522207398228e-02,1.327837736861116943e-03,3.711618146192076535e-03,4.013354281140694285e-03,5.597075819969177246e-01
5.300264434886263754e-01,-2.596435130101154565e-02,-1.678029534600650186e-02,-6.797541140098332935e-03,-2.597693747568082835e-03,1.069753305719110467e-02,5.519112348556518555e-01
5.155615497146747161e-01,-5.563749520519606362e-02,-2.961663483072263237e-02,-1.530238565187354467e-02,5.609172983337203273e-03,4.616209797126047919e-03,5.594131946563720703e-01
5.394669785423293895e-01,-2.262047386105084379e-02,-4.944539248204063431e-02,-1.193770085534892438e-02,-2.969718012069438753e-04,-3.828587958820918111e-03,5.763779878616333008e-01
5.742276161987168726e-01,2.864762785483548901e-02,-7.495913850071636575e-02,-1.411863681906626311e-01,-5.906056729551581452e-02,2.603323230884654546e-02,6.612231731414794922e-01
5.578932438220314260e-01,-1.837797889631118120e-02,-5.842469469998715081e-02,-3.507991429733280098e-02,8.778504864078839204e-04,1.383831495135082537e-02,6.008648872375488281e-01
5.316753389837486354e-01,3.665474085534659032e-02,-7.044594637983955798e-02,-5.885510414576657773e-02,-1.895137152779088939e-03,4.223070652282091830e-03,5.656757354736328125e-01
4.957542931262147734e-01,3.460198158287085268e-02,-1.068913107638949922e-01,-1.410928159333835197e-01,-2.895569691666437934e-02,1.791586672209745726e-02,6.009421944618225098e-01
5.053927916287266342e-01,3.780250653536323946e-02,-7.152310651457119417e-02,-1.030266649748556862e-01,1.720134925279632673e-02,3.909561980770612927e-02,5.648264288902282715e-01
4.950853411310742747e-01,-2.875252995841798276e-02,-5.108590987260569483e-02,-8.426231297957182537e-03,-8.848940082309792246e-03,-1.088394705275128396e-02,5.361037850379943848e-01
4.890182822332837520e-01,-2.854778522473494506e-02,-5.577077084914047744e-02,-3.369376171107330443e-03,3.603182936814827665e-04,-6.710334376467945450e-03,5.318598747253417969e-01
4.778627594216889873e-01,-2.963563093650029012e-02,-4.963897016729837408e-02,-5.612959963435821403e-04,-9.656235597900466108e-03,-9.774391083681117920e-03,5.183374285697937012e-01
5.313161743110040858e-01,-1.014468672049881337e-02,-3.413233925495870458e-02,-1.347403019817149106e-02,-9.400217432380262444e-03,1.848415018194999454e-02,5.554983019828796387e-01
5.226050612967775288e-01,-4.031202723020346768e-02,-5.405749920315755519e-02,1.486380476848384383e-03,-2.127143123558155637e-03,-2.043229139035541465e-03,5.699428915977478027e-01
5.148404411835946215e-01,-3.646458102028043990e-02,-4.923546742884402083e-02,-2.862330992419613671e-03,-1.161327764329771759e-03,-1.861426252979631393e-03,5.578351020812988281e-01
5.006985824103976634e-01,-3.716769826845980895e-02,-4.802787492518012513e-02,8.622737379119851399e-05,-1.098462653300729189e-02,-6.240425354610666317e-03,5.438181757926940918e-01
5.255098446631388809e-01,-5.294400792012884938e-02,-3.804411157991716141e-02,5.258053032448047233e-03,2.327454253847866406e-03,-3.678049546954406321e-03,5.712720155715942383e-01
4.666091212646407138e-01,-4.658800495980361389e-02,-2.413510613096672697e-02,8.815740505067846955e-02,5.869049196888028591e-02,-1.034033027171979077e-02,5.350909829139709473e-01
5.254398930638168874e-01,-5.307659976732267970e-02,-3.634105185102842750e-02,-4.213029493331144786e-04,-1.479695674267872060e-03,-1.029684922911804383e-03,5.703419446945190430e-01
5.380356950206517386e-01,-6.002289588284387412e-03,-4.097042295747091445e-02,-6.950252384775401290e-03,-4.257392839709541084e-03,4.586619751451581628e-03,5.625713467597961426e-01
4.763955843998549100e-01,-4.801734799476603532e-02,-2.697806833492824574e-02,1.640481461344164837e-02,-2.238711032795465616e-04,-8.757491522340028062e-03,5.152240991592407227e-01
5.251566987560812860e-01,-1.203674221960038260e-02,-1.488762505921137347e-02,-2.225922253421367628e-03,-3.415726684253158046e-03,1.088497892044174714e-02,5.390006303787231445e-01
5.339828389426475308e-01,1.063168557773377931e-02,-4.011938529831177158e-02,1.581913974697682921e-03,8.947573468571325735e-04,7.501501635735959364e-03,5.506464242935180664e-01
5.993053342016725349e-01,-1.668774705924508384e-02,-2.152689358381698614e-02,1.123453543130661925e-01,5.071414415528757713e-02,6.254318697739044697e-02,6.631492376327514648e-01
5.392218476613321876e-01,-4.238479689249025073e-02,-4.230382495424525602e-02,-2.435798786473644542e-04,-8.809908694058036496e-04,-1.013685951750963694e-03,5.815709829330444336e-01
4.830239144301399223e-01,-5.661379556783274758e-02,-2.491447831499740695e-02,3.268543559158455271e-04,4.013231240333064130e-03,4.196721707896628080e-03,5.246036648750305176e-01
4.879326529750425134e-01,-5.221898806844568752e-02,-2.200946305256759605e-02,-9.947414266211923942e-03,5.658233957118038830e-03,7.435621487999189566e-03,5.262294411659240723e-01
4.926994820486528814e-01,-6.105042175884847766e-02,-2.278365766203946374e-02,-9.270354824341502792e-03,-2.519597609801671988e-03,-5.926662554057887970e-04,5.359020233154296875e-01
4.918230447950926454e-01,-5.346087294370541199e-02,-2.809884758111733105e-02,-1.412502192444071124e-02,8.639332162458502815e-03,4.039037608499575910e-03,5.338723659515380859e-01
5.084650939870568598e-01,-5.802299186549075838e-02,-3.377752360102903584e-02,-6.324034118154092492e-03,4.364051266254588557e-03,3.956892716851220793e-03,5.549647808074951172e-01
5.158510463601024831e-01,-6.297981241803340957e-02,-2.996027971030970627e-02,-1.994834034379412962e-03,2.332307003108728596e-03,-4.366404184291210709e-04,5.630733370780944824e-01
4.807801084701737171e-01,-3.769937541430415373e-02,-3.287128219147128494e-02,7.750935854570987354e-04,1.267576092906838071e-02,-1.054688409457027465e-02,5.168738365173339844e-01
5.548872092906501630e-01,-3.277574492373008797e-03,-2.589194866749622292e-02,-4.722326144296009817e-03,-9.597853817760593556e-03,3.118040228701295796e-02,5.726619958877563477e-01
4.563690080569481888e-01,-2.387596494089574972e-02,-3.866242857533450095e-02,1.143119494391099840e-02,-1.569403134731475139e-03,-6.743653426746650664e-03,4.883552193641662598e-01
4.770340488112571053e-01,-3.011537129311855909e-02,-4.538698541496136163e-02,5.747948878289911405e-03,1.036874394636196420e-02,-6.223793942469389023e-03,5.154770612716674805e-01
3.735882400468598652e-01,-1.659436951301646035e-02,-2.033665460642147815e-02,8.656213715885815313e-03,6.724880584943339346e-02,4.625493892923837787e-03,4.093565940856933594e-01
5.435625317852662564e-01,-4.748477971870562753e-02,-4.651487130465456477e-02,-1.265025661084807386e-02,-9.962880307468455123e-04,-9.447542886478818916e-03,5.911983251571655273e-01
2.928427017649639086e-01,-3.500518121257403803e-02,6.574613498809778189e-03,-2.448376598224954320e-02,8.800022552654375441e-02,-3.091377684609468695e-03,3.473333120346069336e-01
5.380078673403358991e-01,-5.934169843043221593e-02,-1.901026273777595144e-02,1.261993604634915368e-02,5.860820164586501291e-02,1.046292155216470982e-02,5.877687931060791016e-01
4.187051343196180886e-01,-3.685728767660899352e-02,-1.618312497515912718e-02,-2.044310766203532789e-02,-1.480067662772734647e-04,1.094411368026357648e-02,4.473916888236999512e-01
3.861206502658618422e-01,1.424596168360371673e-02,-9.312976274500404938e-02,-7.155207682772189715e-02,8.162528421839218562e-02,-5.315556818518935717e-02,4.832952916622161865e-01
5.167769987031014534e-01,-3.385928394178619460e-02,-5.707044003229599927e-02,1.446469531797847435e-03,9.942459996240742091e-04,1.635222282758881391e-03,5.626164078712463379e-01
4.715931458082564531e-01,-5.129022799118918008e-02,-2.170415807825870624e-02,-3.981786061634973173e-02,1.752356001585447104e-02,4.092030502108822375e-03,5.143346786499023438e-01
4.017839797745105246e-01,2.727316777868343811e-02,-1.032465698117322334e-01,-9.946717295199701547e-02,1.916836148355362604e-02,-5.942753018127133746e-03,4.868923723697662354e-01
4.481423720444505099e-01,-3.212073868537609900e-02,-2.874763922333534172e-02,-3.851419998472035283e-02,2.488419321909180609e-02,3.720141523573737910e-03,4.851734638214111328e-01
5.951835835812837594e-01,-7.778639623735153497e-02,-2.114303898965330664e-02,9.373558499635111646e-03,1.097660128921007332e-02,6.033109165801022258e-03,6.470795869827270508e-01
6.023120805264280397e-01,-5.697336356972101945e-02,1.101434649738608496e-02,-5.939725633744716293e-03,-5.041003564674810636e-05,2.391194030041453311e-02,6.295057535171508789e-01
5.450156230989698924e-01,-4.816095311736084961e-02,1.524821226543668362e-02,2.899558708454394972e-03,3.044267747993732623e-04,6.105702018946343804e-03,5.642727017402648926e-01
6.208779364964274183e-01,-7.263009036660847406e-02,5.161724171610268530e-02,1.601452782331373031e-02,4.415589069592226745e-02,2.655401043765878016e-02,6.472698450088500977e-01
5.348973239969341265e-01,-4.284533194435760639e-02,-2.094490007160998424e-02,-4.351476611465857069e-03,-1.299589120802047484e-02,2.872079340435550448e-03,5.676280856132507324e-01
6.317956613227742046e-01,-9.187044230606106199e-02,3.565862079187398503e-02,1.272140246979740034e-02,-2.061529464308256912e-02,6.141410231418127641e-03,6.704785227775573730e-01
5.606521640490773617e-01,-5.006361112231355603e-02,2.879465420522114849e-03,-8.156403006531964817e-02,-7.135467975960377296e-02,5.336737130776518512e-02,6.222702860832214355e-01
5.331093855542896609e-01,-4.663698088814899334e-02,-2.001770409901126868e-02,-3.206913229262838352e-03,-9.073567080679047214e-02,1.475227549706161802e-02,5.888672471046447754e-01
5.269800615985645864e-01,-4.320081639053979794e-02,-3.470259980578171977e-02,6.498071000908455831e-03,-2.569792435906024033e-02,5.581457655029233716e-03,5.679209828376770020e-01
7.794376336070186762e-01,-3.707504307036907365e-02,-2.375801296997542833e-02,-1.053278657311125799e-01,-3.239396683740970728e-02,6.309868577773536380e-02,8.392682075500488281e-01
5.334317354789412935e-01,-3.360947930797311689e-02,-2.558371272553622289e-03,-5.942193969275233988e-04,-6.902358267938044079e-03,6.560415366780379502e-03,5.524181127548217773e-01
5.429500374092941506e-01,-3.823201545379756316e-02,2.561308937971767952e-03,5.565612289212168266e-03,-4.231725356389785721e-04,1.878112839518967722e-02,5.629209280014038086e-01
5.451504793744181843e-01,-4.765133739366764209e-02,1.601215196083419223e-02,-3.221062145421481619e-04,-6.584693622680053756e-04,3.859472073804981734e-03,5.637140274047851562e-01
5.164073201004193425e-01,-5.670496337224797956e-02,-3.640113681440665383e-02,-3.736625452127439150e-03,7.588472249769660598e-05,-5.105746400337824939e-03,5.633414983749389648e-01
5.148213927869554896e-01,-5.383865168528709222e-02,-3.902424745324420408e-02,9.592940330481763858e-05,1.456050591723812926e-03,-1.557249335406936950e-03,5.614116191864013672e-01
5.214417920108491700e-01,-5.427206798484934813e-02,-3.940058595609147174e-02,-1.664975178195763771e-04,-2.051932700984965188e-03,-1.553811900105426603e-03,5.684415698051452637e-01
4.836638652610139033e-01,-5.052050071450270297e-02,-3.593232654894018552e-02,-9.424015813845894318e-03,-3.957850868151967585e-03,-8.413525500113858135e-03,5.275403261184692383e-01
4.950429954078745531e-01,-4.680792162659699884e-02,-3.964223260571628216e-02,-6.816068014198687144e-03,1.882112952893638203e-04,-9.108939299453881755e-03,5.386644601821899414e-01
5.019811018847927242e-01,-4.044509505085294720e-02,-3.549803345885724215e-02,-4.081089628751111836e-02,-4.231569447168088277e-02,-6.314710655339336037e-03,5.495955944061279297e-01
5.219157179930568047e-01,-4.293219358237576611e-02,-4.079931030837583017e-02,1.285330714340482926e-03,8.521623082794996425e-04,-6.162417569001661438e-04,5.637918114662170410e-01
5.906089580640201397e-01,-2.259069111503977934e-02,-4.700861491897001532e-02,2.875244240277277565e-03,5.568467112481342851e-02,5.828350557150038108e-02,6.411716938018798828e-01
5.425576374833079862e-01,9.851903386555088682e-03,-4.169312103800579261e-02,-6.180853968907632119e-03,-4.748947608773479434e-03,9.709213473684950163e-03,5.606743097305297852e-01
7.066197985574899088e-01,5.883045033592992912e-03,-8.306891370294905430e-02,6.707660755988208157e-02,4.662164373481109819e-02,1.144873299995385722e-02,7.626848220825195312e-01
6.347471067029711866e-01,-3.199623407435295275e-02,-4.893383494836395231e-03,6.684478726773895180e-03,3.513563542881695256e-03,7.102126296081764933e-02,6.652170419692993164e-01
5.911807071363111010e-01,1.581966533732009905e-02,-7.309869410492841890e-02,7.427670724187311613e-03,1.128071412157357657e-02,7.597733831565110785e-03,6.251618862152099609e-01
5.890288981845752669e-01,6.101512262615460536e-03,-6.305740904509352096e-02,-1.740623449344215479e-02,9.597982876580195277e-03,2.003145430575909228e-02,6.223270893096923828e-01
5.395006393062912187e-01,-6.847635507909122232e-03,-3.978527479608498507e-02,-8.815487489332616416e-03,-4.174687870048324895e-03,4.586625126012924478e-03,5.638486146926879883e-01
6.181698656165445227e-01,1.744077408500224746e-02,-3.107504986943301906e-02,-4.237791439529204479e-02,-1.829789801045048417e-02,5.874022079845551275e-02,6.396228671073913574e-01
6.353761176825138968e-01,-3.846375670340496100e-02,-5.823868591171732501e-03,3.960818601564391681e-03,-1.605799581042221483e-03,3.964584853354613525e-02,6.617413759231567383e-01
6.701813358485912975e-01,-3.981606794092285018e-02,2.487686775320599453e-02,5.630830171529751377e-02,1.188017727010909907e-01,5.532257303760450967e-02,7.234534621238708496e-01
5.690107112556168634e-01,-1.841260488028920173e-02,-9.349734700663858700e-03,1.346174399896631242e-02,2.313946664201418577e-02,4.966965522926582860e-02,5.910801291465759277e-01
5.360466543504041059e-01,-1.866853051106040495e-02,-2.922984960861446657e-02,-3.159395149274833118e-03,-3.556825186228815359e-03,1.070991716013270159e-02,5.604382157325744629e-01
5.607170079126050366e-01,1.075891545585538900e-02,-7.948510500639355270e-02,1.370691559722149733e-01,6.282455130912675823e-02,1.455672636823680810e-02,6.550332903861999512e-01
5.403452563305377598e-01,-2.766659071100530110e-02,-2.765202419617962537e-02,-8.347121538420390618e-03,-1.458240610810446203e-02,1.678671502044236027e-02,5.694923400878906250e-01
5.126058947940166366e-01,-5.218775687132110042e-02,-3.503133529501273324e-02,8.882850414848146581e-03,6.894347615599355668e-03,-7.121206334258487793e-03,5.568912029266357422e-01
5.407005108575433372e-01,-2.747844558357054323e-02,-4.244550429869142771e-02,5.717939230312843457e-03,-7.556128673145460443e-04,-6.269019097623932345e-05,5.758950710296630859e-01
5.425730232041586776e-01,1.930825371218414244e-03,-7.830466164691735065e-02,8.389017144382522606e-02,7.794989000064132811e-02,3.795240380457366725e-02,6.211060881614685059e-01
5.377486962735631426e-01,-4.897303814139641887e-02,-3.900949206060191909e-02,1.261187090705338104e-02,-2.381985528571939782e-03,-3.872886641224300517e-03,5.822671651840209961e-01
3.494057858765786673e-01,1.911382637446693011e-02,-3.321255956987380353e-02,1.018853161153658732e-01,6.704853257627992058e-02,1.518682033027000597e-02,4.176530838012695312e-01
5.746205998962717887e-01,5.249495748588961508e-03,-3.584911964177411869e-02,-1.762686285612008463e-02,-1.789054670090250293e-02,3.898598598562787870e-02,5.964268445968627930e-01
5.345165628387302803e-01,-1.550313840816894273e-02,-2.701464026291539033e-02,-7.149240947758670438e-03,-8.249144623729425668e-03,5.767826951837770263e-03,5.562760233879089355e-01
5.551582252845546073e-01,-6.444767686729688250e-02,2.987512148880402951e-02,3.022615388422675731e-03,1.789831724513550257e-02,9.843836022929217458e-03,5.793483257293701172e-01
5.435001960943227628e-01,-4.426119072200890292e-02,-4.308239050794074321e-02,-8.020221913083713794e-04,-8.001131448074436797e-04,-4.135915583299164602e-03,5.872198343276977539e-01
5.210496183070955079e-01,-3.996602902434742699e-02,-5.037131182396589746e-02,-4.369743363214644060e-04,2.574944761035973407e-03,4.180265775821184054e-03,5.663543343544006348e-01
5.340650730062341811e-01,-3.794205731788732883e-02,-3.860100002242994321e-02,1.326758438926531119e-03,5.013256637010133666e-03,-3.981859967684826910e-05,5.724073648452758789e-01
4.949276789181588088e-01,-4.010937279752993523e-02,-4.597357470179147532e-02,8.525713124941378725e-04,3.738612496969095748e-03,1.010516393055727914e-02,5.383187532424926758e-01
5.015907833593158394e-01,-3.211962292066894431e-02,-4.933940104287604100e-02,1.870728055202102976e-03,-3.514949611262696560e-04,9.022964981661388967e-03,5.427603721618652344e-01
5.129931673610812481e-01,-3.786350471437846532e-02,-4.566154132607064264e-02,-4.998637682689321959e-02,4.351185608122377230e-02,-2.273876850417935486e-03,5.665604472160339355e-01
5.297695633494496903e-01,-4.652740872750874002e-02,-3.982938671483524096e-02,-4.672835197941156704e-03,5.453326588213988461e-03,4.317819667152495225e-03,5.731611251831054688e-01
5.229660917546725685e-01,-3.824319019060898328e-02,-5.600521265436550489e-02,-3.689673546007238856e-04,1.782068409128845753e-03,1.989496227563110169e-03,5.703169107437133789e-01
4.979617025814064846e-01,-3.502262670679504031e-02,-5.047956665744579574e-02,-3.393016348286120431e-03,-7.762495664784144732e-03,-4.643372370538102582e-03,5.411372184753417969e-01
3.456976904762839586e-01,-1.897374417896335874e-03,-2.535974638618476718e-02,-1.756587115048018413e-02,-8.062332866859030223e-02,-5.944434014623477952e-03,3.873761296272277832e-01
3.986883767431962378e-01,-2.020612150141325170e-02,-1.462145959367781856e-02,2.689850104485151661e-02,3.606833165959159870e-03,-1.568463990838262758e-03,4.187856316566467285e-01
4.732679632075503240e-01,-4.926142484181414427e-02,-2.741923552004291165e-02,1.468471633072805649e-02,4.627917728977986971e-03,-6.859090450365191299e-03,5.127896070480346680e-01
4.920537855777925573e-01,-5.237298012269794856e-02,-3.268561619208648628e-02,-1.219680729655123023e-02,4.374159410503265788e-03,3.965413502197292529e-03,5.353696346282958984e-01
3.350249272494998376e-01,-5.309525554898691935e-03,-1.569661920210113637e-02,1.196840469039152366e-03,-4.433245260820081746e-02,1.310394465806095747e-02,3.548042476177215576e-01
5.342505457778374822e-01,-5.032488650837130262e-02,-3.881282845736250264e-02,4.160638386405051542e-03,7.468176734441398521e-04,-3.582592149287692346e-03,5.789847970008850098e-01
4.229307810083528518e-01,-2.805211637465336583e-02,-2.608789868974518977e-02,1.298132926679768789e-02,-1.125614087318836882e-03,1.200132280999554983e-02,4.510488212108612061e-01
5.354524212122677707e-01,-2.492362448711388234e-02,-2.734270656068935046e-02,7.801567142680964836e-03,-6.731100658908023039e-03,-1.203415918271189336e-02,5.622594952583312988e-01
5.021229319326688811e-01,-5.788073459736395310e-02,-2.815546404852362072e-02,8.985344875538182896e-03,2.152818699957025962e-04,2.071750903809358758e-03,5.459823012351989746e-01
4.528431770208399820e-01,-4.074515356870375693e-02,-2.208142585119685086e-02,2.222112291668387751e-02,-8.839834624862596968e-03,8.809957762891333644e-03,4.865328073501586914e-01
2.997721332803990890e-01,-1.788123157918938833e-02,2.490297586484085945e-03,4.440553737581067612e-02,1.004666126100471971e-02,-6.547978972738053172e-04,3.179107010364532471e-01
4.905896104531610735e-01,-5.388193388502088288e-02,-2.634417117318962887e-02,-7.630235853014845143e-04,-8.235699731980798645e-04,-4.555257881812542855e-04,5.312423706054687500e-01
5.008895561625800186e-01,-4.719659071503012893e-02,-3.498193891895948204e-02,2.349663315633620381e-02,-4.056576254125072653e-03,8.679330724804748196e-03,5.438607931137084961e-01
5.419447950544662440e-01,-3.340961339867787316e-02,-1.216017918126327535e-02,1.694384191478579688e-02,-1.128800742295660645e-02,-1.605809583683356218e-02,5.668116211891174316e-01
5.473039621013767730e-01,-8.382534562533544564e-03,-4.993332983116977042e-02,-2.367643040962243151e-04,4.556762793082791071e-03,-1.445544671450882564e-02,5.781803131103515625e-01
5.334483975615842422e-01,-2.383799357025975785e-02,-2.283895371613148262e-02,-2.430595289529850149e-04,1.464189632563683580e-03,-6.799908642137068686e-03,5.569180250167846680e-01
6.276739308381430460e-01,-8.501964720715898816e-02,2.681958813956725196e-02,-3.981898977995661920e-02,-1.269113784893794727e-01,9.790442938802757650e-03,7.029201388359069824e-01
5.757013729622123543e-01,3.138628474366267351e-02,-7.107791866969417893e-02,1.019354174436130078e-01,7.103805822068953203e-03,-4.457517330152205998e-02,6.323253512382507324e-01
5.285396809445808142e-01,-2.822333771224799781e-02,-1.579100511604633605e-02,5.657863263462888396e-04,1.461108653669402268e-03,-3.213986675658853792e-03,5.506869554519653320e-01
5.339528944094057428e-01,-4.299129573877041866e-02,-1.824077336331914045e-03,4.025752229916212434e-03,3.838176048470589522e-03,-3.307254684844766757e-03,5.576143860816955566e-01
5.350310661655440780e-01,-4.898622099552343845e-02,-1.821831568431853121e-03,-3.203007025226762856e-03,2.990063936843835417e-03,-3.078706025019408050e-03,5.619981288909912109e-01
5.503969984867428389e-01,-4.226348555538900209e-02,-3.962898497694494759e-02,-4.292849152126455153e-03,5.470929435780107902e-02,-1.082317324314256875e-02,5.992312431335449219e-01
5.316227659997658783e-01,-3.977390166531152849e-02,-3.110447139600483468e-02,1.496702992603543341e-03,-1.267988411790789893e-03,2.073823212752090063e-03,5.671331882476806641e-01
5.341353004256104153e-01,-3.290221477505578251e-02,-2.029442532381958708e-02,-1.496352330992733928e-03,3.918932872942714613e-03,-4.030434095924112677e-03,5.609304308891296387e-01
5.369871201636406965e-01,-4.351787280359620258e-03,-3.282477559476046358e-02,-1.501060538313278309e-03,8.872877315314567793e-04,-6.899627682976788162e-03,5.562589168548583984e-01
5.305366943747167330e-01,-2.511012304840778975e-02,-2.403347442756759156e-02,-1.083626260708622085e-03,1.976415557678054373e-03,-2.626351283451524264e-04,5.551232099533081055e-01
5.291444546900461177e-01,-2.930191762148129375e-02,-2.400804718215374112e-02,2.391844275501269976e-03,-5.387852701010278737e-04,1.794909999649761320e-03,5.558432340621948242e-01
5.355876073100550583e-01,-2.619578794327850901e-02,-3.887260060506197989e-02,-4.961058429027055162e-03,3.508005849960072180e-03,-8.339207413006218645e-05,5.683253407478332520e-01
5.681926220694054619e-01,-5.987882560481411209e-02,-7.227933091767752005e-03,2.334628352481430552e-02,-2.443685736307308828e-02,-3.171402871938736739e-02,6.087867617607116699e-01
5.280148262762583977e-01,-2.472357625357873845e-02,-1.704812380703327190e-02,5.615285416198860340e-04,-1.030600700181192545e-03,-3.908895124090492994e-03,5.489864349365234375e-01
5.323826240092339734e-01,-4.304773914061862938e-02,-3.569862334311768581e-02,-1.826260452151716365e-03,-5.354471196967209440e-04,3.178335639761161921e-04,5.718010067939758301e-01
5.041746425454218805e-01,-6.216763111368939221e-02,-2.967524320080039413e-02,-8.888103926567315557e-03,3.436177473737041677e-03,1.020612633286161960e-03,5.510653853416442871e-01
1.517981257283837204e-01,2.030526883950409256e-02,-5.713997826071369468e-03,-8.152937586163915007e-02,-5.680887897272508119e-02,7.883280866923610478e-03,2.262697964906692505e-01
2.363647220325344467e-01,-4.135141411488713059e-03,2.083158355639223858e-02,-5.828205964187882504e-02,-2.455332239203792538e-02,1.364347706540392023e-04,2.538859546184539795e-01
1.804751541815147187e-01,-7.757956467280197055e-02,-4.240392351705664364e-02,3.177469402470589621e-02,-2.633871679730882126e-02,-2.263252811726042604e-02,2.557324767112731934e-01
3.660904763376179316e-01,-2.309236510216648719e-02,-2.448015095767878957e-02,-7.135740503312372474e-02,-3.287511812287591956e-02,-1.278248602722208832e-02,4.135377109050750732e-01
2.100896230354451777e-01,1.726668408322691584e-02,1.642513066275420874e-02,1.848899624153908794e-02,-2.535682878537254964e-02,7.673459536600558788e-03,2.011833637952804565e-01
9.657974074095457273e-02,-1.786269085370557896e-02,-4.623444408011507384e-03,-2.849918488339465983e-02,2.040485826561939248e-02,3.457429706890267213e-02,1.379458159208297729e-01
1.972848656286725899e-01,-2.893533391091808460e-02,-6.987639380921228938e-04,-7.766190212459693520e-05,-7.545854378451727351e-02,2.792724707752223048e-02,2.549646794795989990e-01
2.191832877684009584e-01,1.890799215832789093e-02,1.713686335210048983e-02,-4.003341257978135052e-03,-1.539726981927512332e-02,5.507366510136795304e-03,2.032691389322280884e-01
5.319871434980272262e-01,-4.561634472179365574e-02,-4.929438501650276749e-02,6.582014490353811416e-08,8.817653770687154018e-04,2.805466711731336251e-04,5.794534683227539062e-01
5.320369727657981995e-01,-4.615477164263367960e-02,-4.910971020624924077e-02,-8.367556125280961772e-04,-2.015107783369439284e-08,9.059630369449251188e-05,5.796766877174377441e-01
5.277735341306333261e-01,-4.320211596586875924e-02,-5.399602504752740173e-02,1.477891043735019136e-03,-1.058239493276261298e-03,1.916936542423973737e-03,5.764665603637695312e-01
5.268406217594314711e-01,-4.178293750646852600e-02,-5.202823611295720463e-02,-4.302854009207712229e-04,7.558187700408426201e-04,1.622210333200697950e-03,5.738236904144287109e-01
5.292256132360929621e-01,-4.935280763254237812e-02,-4.575146597140766769e-02,-2.383765389778852786e-03,-8.766360933517666114e-04,1.216611607300515686e-03,5.768067836761474609e-01
5.204091893277205116e-01,-5.133105523190895081e-02,-4.102547274215764816e-02,-5.094606865024234585e-06,1.227843873502126263e-03,3.285455631847286791e-03,5.666903257369995117e-01
3.951768518081276160e-01,-1.201949942906517521e-02,-3.210024382034089296e-02,1.028968879035014640e-02,-2.660784574463758920e-02,1.125730779732116854e-02,4.209639728069305420e-01
5.117928173490645660e-01,-4.976679987425533525e-02,-3.403469316227156205e-02,7.749777305416817716e-04,2.231256807682233632e-03,5.377344017603455308e-05,5.538762807846069336e-01
3.288996806669371997e-01,6.314330449209065721e-03,-7.960869857320529430e-03,1.441713242624634121e-02,-2.897849248027019320e-02,1.283181258042597698e-03,3.346906304359436035e-01
3.165955296418276887e-01,-5.601388313903055138e-04,-1.332022247593460385e-02,3.862105226473070557e-02,-1.412032945883871793e-03,9.113601328701110421e-03,3.309492170810699463e-01
4.076051413207661955e-01,-1.477875124462947609e-02,-3.117779101731917024e-02,1.801313153799012070e-03,-6.511242090343002595e-03,1.201111756189969168e-02,4.314782619476318359e-01
4.790459142531792169e-01,-3.650779806664203320e-02,-3.645831410811883888e-02,1.485091809250566920e-02,-1.135878428497583310e-02,1.133060883753279555e-02,5.169177651405334473e-01
5.177899863082049414e-01,-5.842455670188623218e-02,-3.517635900729101928e-02,-2.210445576207789066e-03,-3.678230325195066402e-03,-1.663811838882640231e-04,5.649982690811157227e-01
5.158836793823994293e-01,-5.754936309013328199e-02,-3.230983641847132160e-02,1.090521211464943107e-03,6.087461253930342422e-04,1.336529872556271306e-03,5.612480044364929199e-01
2.622554880262136234e-01,1.029173869503791083e-02,9.129294131684631552e-03,4.158542115896454033e-02,5.527926051820153050e-03,4.930289310810762569e-03,2.629308104515075684e-01
4.536321217160242947e-01,-4.680945161132246679e-02,-1.869321028460357859e-02,2.212787829140320378e-02,-5.166106713957491388e-04,-1.379247244004525898e-03,4.885050654411315918e-01
5.802071311583313351e-01,-3.759280878997944830e-02,-6.589830910470978464e-02,2.595050122362684702e-02,2.550297050030853399e-02,4.595993629499838147e-03,6.356099247932434082e-01
3.916770836651226606e-01,-3.360183768041671848e-02,-2.298904231912352047e-02,-5.915030519400927417e-02,4.847636759831511905e-02,4.736887483071420928e-03,4.405392706394195557e-01
5.034684012498173988e-01,-6.102597506062229504e-02,-2.737768881172839008e-02,-8.080552232420969150e-03,1.812108450720567414e-03,9.986325085145702444e-04,5.486351847648620605e-01
4.233880429422317015e-01,-2.881526360025944700e-02,-2.461874232932893813e-02,-3.256321179426971413e-02,4.810487863493729394e-02,8.848895499255373873e-03,4.614823758602142334e-01
4.744394271924948780e-01,-3.187546022025275483e-02,-4.222851827197898755e-02,-8.493006000726383356e-03,1.065410738565351033e-02,1.225952185553623626e-02,5.125540494918823242e-01
5.239138299525498699e-01,-4.332240992837563254e-02,-1.753821911867711747e-02,8.704918887496576954e-03,-6.341665824682348037e-04,-1.209226066899500357e-03,5.550035834312438965e-01
5.040460510423290241e-01,-4.976320955424246018e-02,-4.154063519242151559e-02,-1.054934878743408848e-02,2.370746171453125967e-02,1.438642090939675671e-03,5.515838861465454102e-01
4.564708657235682643e-01,-3.294679709699632753e-02,-3.364825957432560077e-02,4.813522612013029084e-02,-1.350543389997370565e-02,2.081022773119902379e-03,4.973777532577514648e-01
5.175003276585116163e-01,-3.576819126601055165e-02,-5.365210048411628296e-02,8.681686451598948431e-03,-6.873645806263342824e-03,5.899831024521785122e-03,5.628434419631958008e-01
5.251102263679582327e-01,-4.430382819169562114e-02,-4.902221483447194439e-02,2.241060723684001627e-03,-2.171261074194308534e-03,6.963767672568858293e-03,5.719406008720397949e-01
4.963984029102097573e-01,-3.281225959787956170e-02,-5.185656962523210733e-02,2.480787069793903218e-03,6.624432051878189655e-04,7.659050190722003874e-03,5.391668081283569336e-01
5.321978941672184105e-01,-2.132489695647205030e-02,-1.921123633997878777e-02,1.689492365413278099e-04,2.315953621692627869e-03,-1.158154460769243894e-02,5.528476834297180176e-01
5.284846493128100287e-01,-4.958613052313950997e-02,-4.198470087360525738e-02,-1.470446490957385676e-04,6.871084383740347400e-05,5.728800390893421185e-04,5.743086934089660645e-01
4.858471782936107930e-01,-3.579307601884984535e-02,-3.457473448079109724e-02,5.128688162614664786e-02,-4.260976852804816001e-02,-4.552072399630002590e-03,5.337363481521606445e-01
4.744228803427398833e-01,-3.918819992162830834e-02,-3.668382104413975275e-02,1.903786303494106949e-02,-9.323918087351574374e-03,9.745721580939626857e-03,5.139546394348144531e-01
4.274351911081644695e-01,-2.722398357666286350e-02,-3.372595620827906204e-02,7.681769148013431123e-03,-2.143829910611343842e-02,1.369709546991581400e-02,4.602521955966949463e-01
4.664135399805204862e-01,-3.035429993973584595e-02,-4.330944946478806901e-02,9.083363761132331321e-03,1.053355139144251853e-03,1.065243501108843922e-02,5.039574503898620605e-01
5.320327642919500111e-01,-4.265856700196468676e-02,-3.725582194784299306e-02,-5.768806239815284405e-04,-6.339284980115061311e-04,-3.333177731783786555e-04,5.720112919807434082e-01
5.332990185593475818e-01,-4.574538103086814300e-02,-3.753458538544826584e-02,8.646284874198647673e-04,-7.482924787800295224e-05,2.183928368379842166e-03,5.749973654747009277e-01
5.309347541320121877e-01,-3.339242218962723552e-02,-3.098777935673574513e-02,-2.199424449948955869e-03,2.555652462540087665e-03,-1.248744315572847567e-03,5.631631612777709961e-01
5.324214757764254013e-01,-3.379147084257058675e-02,-3.260122185047162335e-02,-2.147874195952254994e-03,3.597729776459570282e-03,-3.101284401920366939e-04,5.656656026840209961e-01
5.304663759425332081e-01,-3.545270522239724054e-02,-2.902641652638948688e-02,-1.010588212388381386e-03,2.822341351412379577e-03,-8.135016035449814647e-04,5.627591609954833984e-01
5.311192632944747860e-01,-4.206821343304961713e-02,-4.125508899928950757e-02,5.898048828302337662e-03,-1.515103744271092089e-03,3.843167590692709245e-04,5.728788375854492188e-01
5.326903653323168397e-01,-4.113961877920963017e-02,-3.769841887524047475e-02,4.211176900150103396e-03,-5.715112408640725047e-03,2.494875713090218515e-03,5.722655653953552246e-01
5.311755007654012095e-01,-3.721127611801708368e-02,-2.804388349182801443e-02,-8.777497196213536511e-04,4.475522678776234012e-03,-1.716336033678276043e-03,5.639221668243408203e-01
5.041313899397663612e-01,-4.951898563007600673e-02,-3.266263128732235788e-02,-7.115963687830927087e-03,3.132086737062241173e-03,2.041844401180688024e-04,5.455839037895202637e-01
5.316926608214572747e-01,-4.090187259760713623e-02,-3.727673997283106888e-02,3.866632189345751806e-03,-5.537871192127757913e-03,2.189988423091592494e-03,5.709230899810791016e-01
5.329038072023301043e-01,-3.301774008843558206e-02,-3.380199662150332185e-02,-1.860695180969619382e-03,4.027422243552881975e-03,-3.362965832798239427e-04,5.663664937019348145e-01
6.397742074269013868e-01,-7.555289420367489184e-02,9.859460776814821248e-03,1.102173191341968179e-02,-9.839506263912815853e-02,-3.732974333315725035e-02,7.010564208030700684e-01
5.363844071646394207e-01,-5.456677981562907398e-02,-4.764238793645292347e-02,9.965299516040988792e-02,-3.336624091691782479e-02,-7.865150340580759347e-02,6.299757957458496094e-01
4.396553126018249991e-01,-5.371701209069695837e-02,3.648164957262638175e-02,4.631091717810056907e-02,-1.334222323487507245e-01,-3.672932016580662904e-03,5.166522860527038574e-01
3.491377167836172690e-01,-1.908867659415414142e-02,1.679438669804120265e-02,2.006991343951638508e-03,-7.896020132756537135e-02,8.374586234515108557e-03,3.776133060455322266e-01
5.385683444483632121e-01,-2.688553611514885033e-02,-1.572832203139226670e-02,6.507371243443754380e-03,-3.795305420272726028e-03,-6.134991489701716039e-03,5.602114200592041016e-01
5.353038507796672452e-01,-2.074256819968692267e-02,-3.840060132566544548e-02,-4.239337246975234674e-03,3.375652030688141084e-03,-3.704332686522816311e-03,5.651967525482177734e-01
5.320182922054507157e-01,-3.941392547735925178e-02,-3.633644955123116471e-02,3.002077123278895469e-03,1.232115753309945229e-03,2.324183303570955764e-03,5.699416399002075195e-01
5.279886933521514836e-01,-3.741766061790438580e-02,-3.186064691344986377e-02,2.207978280090117096e-03,3.054434251057848090e-03,6.948668308441576175e-04,5.626875758171081543e-01
5.863031052155484035e-01,-4.919715312555167364e-03,-4.592757694942900537e-02,-5.651428018197124370e-02,-1.609359523331911623e-02,2.047263921677669116e-02,6.221630573272705078e-01
5.253222701651967252e-01,-2.645375418800327560e-02,-1.745040325358299116e-02,-4.764194574189804451e-03,-5.005511035002623010e-03,1.154409692421015481e-02,5.478257536888122559e-01
5.354392079227140444e-01,-3.248259012094922848e-02,-3.353050995069511986e-02,-7.641324596235119990e-03,-6.666820757694737198e-03,9.366134954272364171e-03,5.689491033554077148e-01
7.770869998337197604e-01,-1.054845453388833509e-01,2.223665502217125889e-02,2.496490387654397378e-03,2.960896396346851533e-02,8.654137296579293356e-04,8.277518749237060547e-01
4.509032931595721716e-01,-4.428871954010721312e-02,-2.455916573544897341e-02,4.516002278662402262e-04,-8.430809020445687724e-03,-1.022771001385008177e-02,4.861708879470825195e-01
4.893724956629192935e-01,-4.173837656493056825e-02,-3.807906085014339803e-02,-2.061639057612670717e-02,-1.587396397692000458e-02,-2.394400399481983605e-03,5.312221050262451172e-01
4.165967445212014342e-01,-3.254447531467989652e-02,-2.692291263124325928e-02,-5.376051660458306541e-02,-3.045934573774656401e-02,-6.077817810986850706e-03,4.591288268566131592e-01
5.028866346988800640e-01,-6.089076769233006670e-02,-2.732019858703743642e-02,-1.612996447203077308e-03,1.375110407198741006e-03,9.189919352804388954e-04,5.477787852287292480e-01
4.794360646374352664e-01,-3.345974000352597288e-02,-3.305129626981170854e-02,-3.004506177009822615e-02,4.527445745770731361e-04,-1.074224549943020030e-04,5.153266191482543945e-01
3.928222981019234838e-01,-3.135930498476402484e-02,-4.743053836049185290e-03,-2.508920857664605902e-02,4.322927378591471387e-03,4.819457874911526121e-03,4.139595329761505127e-01
4.336408218481481169e-01,-4.555594080127205181e-02,-1.495541185826469721e-02,-3.589454388016480313e-02,-5.987222393497932532e-03,-2.241830992834389241e-04,4.689085185527801514e-01
2.636861732233914957e-01,4.506356391307836384e-03,-2.415912728118724262e-02,-1.394501241728774987e-01,-3.323645341905058503e-02,-2.437626679096537605e-04,3.702412545680999756e-01
5.334939006559106245e-01,-4.506763128194618551e-02,-4.074477227393094592e-02,-1.893435035778978301e-02,-4.648450024308127928e-04,2.061389973408274618e-04,5.773451328277587891e-01
4.932899096600494859e-01,-3.339767580454067186e-02,-3.655793400711743191e-02,4.989734883087561419e-03,-2.008871796277121678e-03,-1.017694754913929349e-02,5.286508798599243164e-01
5.342343061727365949e-01,-4.559072396702096297e-02,-4.536100359149849992e-02,1.978937691916434274e-02,1.713345521254689557e-02,-8.106766135034935983e-03,5.816498994827270508e-01
3.649733641848355026e-01,1.307879749075217812e-02,-3.400639498611544853e-02,1.105720623953485304e-01,7.139271288361286050e-02,2.084987780231684074e-02,4.425938129425048828e-01
5.226105937824275793e-01,-1.378471770518452377e-02,-1.668295926791907302e-02,-1.024247377680834788e-03,7.156285634736925640e-04,5.435382886561005052e-03,5.379370450973510742e-01
5.263987578411221113e-01,-1.297915409230224193e-02,-2.338934238954534783e-02,-3.144045940980783136e-03,-4.527421879300224869e-03,6.724510973576553960e-03,5.448657870292663574e-01
5.273270782647686561e-01,-2.209694871149212037e-02,-1.548696300158955430e-02,-3.631342850782934197e-03,-2.194466370955674549e-03,7.646827846015197272e-03,5.463590621948242188e-01
5.245640645779302558e-01,-1.728307500498063587e-02,-1.453828131553699943e-02,2.563830483347586797e-03,2.322281563895062847e-03,7.667135113845913869e-03,5.406762957572937012e-01
3.214787939394763150e-01,-4.720271315355359376e-02,-1.883250468840955150e-02,-2.989715774055888564e-02,9.118909518674032932e-02,1.331182403498383862e-02,3.929768800735473633e-01
3.117725053389341916e-01,-1.219397636873899293e-02,-1.743003437259531274e-02,6.718022097482750921e-02,8.252062202368425081e-02,3.950720829364656392e-03,3.750911056995391846e-01
5.099947354834785118e-01,-4.504080157321524447e-02,-2.471624188829696367e-02,7.828119717882853559e-03,1.073645977767440432e-02,8.574478623711719819e-04,5.456450581550598145e-01
3.165128286607503671e-01,-9.459447997677630782e-03,-9.187147839809881034e-03,3.398774190726078920e-02,3.253612526736333194e-02,-7.724728911920324126e-03,3.361391723155975342e-01
3.888409869589167789e-01,-1.309746891642071809e-02,-2.957887798880526331e-02,2.530056037806480487e-02,2.162716038465327048e-02,-4.376495181563531782e-03,4.145258665084838867e-01
3.438187840566160891e-01,-9.333521602912300819e-03,-2.251835166016777356e-02,-8.889645732548624030e-03,8.153069054061354293e-02,4.951814001059949566e-03,3.870388269424438477e-01
5.368959654418490324e-01,-4.244808965078378238e-02,-2.912198337293267492e-02,1.274401659940642374e-03,4.645554016647420945e-03,-1.158808189536203459e-03,5.728615522384643555e-01
5.388615218511837446e-01,-4.486397408131209685e-02,-2.577177656387236171e-02,6.552006292021655097e-03,-8.733614861911064009e-03,1.949778837922782476e-03,5.747385621070861816e-01
5.472028724118016552e-01,-5.283031416040859241e-02,-4.450541858578874188e-02,2.830435604981925563e-02,-1.869024747057398267e-02,-8.766274568889266539e-03,5.989956855773925781e-01
5.313631425811573550e-01,-2.976062810425741945e-02,-2.631635682805089083e-02,3.807114225182675464e-04,-1.385672315287045776e-04,-4.276032722334384070e-03,5.594590306282043457e-01
5.382973026597797084e-01,-4.145910131834651402e-02,-1.974254292374516551e-02,-2.294488427741950276e-03,-2.441210522551105332e-03,-1.015380391046637014e-02,5.695101022720336914e-01
5.499792457566148318e-01,-5.459554761831975078e-02,2.871717060355633011e-03,9.889561817743204586e-04,4.095165006070115334e-03,1.116862260419741043e-03,5.780370831489562988e-01
5.462172268139531273e-01,-6.097961159693626731e-02,-1.910084627198654905e-02,3.621230968981532621e-03,-7.418655940243610962e-03,4.840722333356542451e-03,5.876120328903198242e-01
5.086457696776447435e-01,-3.239270386472287155e-02,-5.514029462010300309e-02,6.321386211392184944e-06,-1.836990489834957252e-03,-4.656753141453292243e-03,5.528314113616943359e-01
4.996965788792496199e-01,-4.228673678893263288e-02,-9.105506691962417243e-03,-2.963503765344321483e-03,-1.987174291299097922e-02,3.155403689511934728e-03,5.273557901382446289e-01
5.074069117089692327e-01,-3.364549692396545666e-02,-5.751228715645109735e-02,-3.270543601534817938e-03,-6.169766793113050200e-03,-5.740626242737663712e-03,5.535933971405029297e-01
3.745386593117995266e-01,-5.185212276074416260e-02,3.627807676800019754e-02,-6.484939404506008531e-02,-1.541454822388104995e-01,3.343309760707719597e-02,4.891321659088134766e-01
5.939981393081619210e-01,-6.235847191633961395e-02,1.845873539552603249e-02,-8.329152583159414591e-02,-1.379038904183148562e-01,3.044482508980792326e-02,6.818621754646301270e-01
4.727154990395910916e-01,-3.991342711372997121e-02,2.551238922425955180e-02,-5.162326231335154919e-02,-1.031040388218583959e-01,4.561970377628369461e-02,5.288283824920654297e-01
3.995761601068219537e-01,3.085486012337770867e-02,-5.386686177999028269e-02,-1.115877814928965261e-01,4.727322894452924695e-02,-1.264141159216938121e-02,4.678793251514434814e-01
5.355204452042710006e-01,2.666521546736821957e-02,-6.540279645152297094e-02,-5.489229077955435493e-02,2.205716247354459064e-02,-2.352452648832984924e-02,5.713306665420532227e-01
5.308120856376453700e-01,-4.362054838782100652e-02,-3.761820339846952410e-02,-3.391914462635387678e-02,4.047566526104543448e-03,7.820876767352582127e-04,5.745114684104919434e-01
5.300336215043041088e-01,-2.245692101506444049e-02,-3.019946593756417386e-02,1.342067076631448105e-03,1.448793753649288245e-03,-1.130014969337507546e-03,5.564161539077758789e-01
5.453436234409153593e-01,-2.285156624297302042e-02,-4.102027739884023250e-02,1.565953187314743367e-02,2.772833221664884086e-03,-1.090257226329464230e-02,5.784587860107421875e-01
5.154564727966840509e-01,-5.846982407504253132e-02,-3.040652172351612781e-02,-5.627643977016425110e-03,2.568705363804398185e-03,7.956147684661948015e-04,5.605260133743286133e-01
5.334716173529688854e-01,-2.988338146015201424e-02,-3.748222830846459352e-02,2.397470048547142938e-03,3.977757520349851049e-03,2.177331421306736149e-04,5.672497749328613281e-01
4.545194048315769342e-01,2.268842474609145121e-02,-4.329966227167109105e-02,-1.665070519681356997e-01,4.490401939465235581e-02,-2.252553433488387394e-02,5.568422079086303711e-01
4.594019071915635966e-01,2.571795124999287641e-02,-2.601480264055328062e-02,-1.131887900437611311e-01,9.671317488261269024e-02,-4.891706671726026023e-02,5.356003642082214355e-01
3.057788186802288255e-01,-5.759786151710549751e-03,-2.234098378260612749e-02,8.476721772754282347e-02,-4.034163930587199298e-02,-2.035393264911423625e-02,3.608026504516601562e-01
3.742149568641848778e-01,-1.051067654350266722e-01,-3.252495022377192846e-02,5.696327381976769300e-02,-6.183594540737478995e-02,-5.282230727592562847e-02,4.793782234191894531e-01
3.879194224604009533e-01,-2.529882670569374992e-03,-1.717576456110185557e-02,1.225172483365758874e-01,-7.629494092882128931e-02,-3.842117367239214487e-02,4.746644794940948486e-01
4.557906285347602671e-01,-4.509359270386337215e-02,-2.908871018354977633e-02,7.604808986702772666e-02,7.454719808770000032e-03,-2.473388905668616588e-05,5.105303525924682617e-01
2.720592347421514900e-01,1.310972568121440002e-02,-7.668147315642052930e-02,1.166703124562130933e-01,4.264289277847822107e-02,-3.344003659368463555e-02,3.847265839576721191e-01
3.486911318085247902e-01,-1.438420601379546138e-02,-9.972655154077886275e-03,4.288458495484704508e-02,-6.815889643522055064e-02,1.064718086256383374e-02,3.873444199562072754e-01
4.066904617641779462e-01,-4.039540500257743361e-02,-1.520377999731720164e-02,7.124139544586051420e-02,-1.060101627051105860e-01,-1.585097230963506548e-02,4.888269603252410889e-01
3.322626301134240512e-01,-9.812838573397597575e-03,-1.301414445627109562e-02,1.187641977146010330e-01,-7.753770586726776992e-02,-2.270902986057589043e-02,4.242866337299346924e-01
5.410943621578327978e-01,5.805471228530673100e-03,-6.782695927992177243e-02,6.017504143137290817e-02,1.549662901547066429e-02,-3.047490439093119771e-02,5.879968404769897461e-01
5.561216376017569241e-01,-4.503318567706149356e-02,-6.134203968639415083e-02,-6.347223998505335807e-02,3.045808548175928804e-02,-9.892555309230418106e-03,6.217878460884094238e-01
5.273653553895312207e-01,-2.652590066070112385e-02,-3.881088708776370133e-02,2.160226119475230390e-03,6.453988514337039017e-03,2.547608027054167100e-04,5.602589845657348633e-01
5.244184297853036192e-01,-4.231394760939094501e-02,-4.119880791399746500e-02,1.446345734239098751e-04,2.665727750072050591e-03,1.412384793339549471e-03,5.661997795104980469e-01
5.309733991068606995e-01,-4.491701044527582343e-02,-5.106740975987486553e-02,3.654950141038057661e-04,2.935068029268239186e-03,3.723762644662580081e-03,5.790486931800842285e-01
5.030720668593693379e-01,-4.818249936730042982e-02,-2.954136286928318866e-02,-6.360251465821804666e-03,3.982485290668698330e-03,2.185324769701554870e-03,5.423433780670166016e-01
4.991869688756622181e-01,-5.787609583255817758e-02,-2.864639340211266871e-02,-5.562917759954493988e-03,2.044855839289985700e-04,4.009352647721787545e-03,5.431684851646423340e-01
5.083030285402976300e-01,-5.507480491897781549e-02,-3.375370099890320774e-02,6.786860864931945105e-04,4.318470879297375831e-03,1.852853112287384477e-03,5.530867576599121094e-01
5.164892342637606992e-01,-5.800725979181875491e-02,-3.801966706766846116e-02,-9.124952973003059935e-05,-3.439127982328018347e-04,4.146595789986839281e-03,5.648140311241149902e-01
4.573082674706476780e-01,-3.896859010234990373e-02,-3.699788888025287714e-02,8.644263615236155718e-02,-6.618716842523545037e-03,-2.344905801832746894e-03,5.175727009773254395e-01
4.993313613515328320e-01,-4.104705288280441344e-02,-4.251989020675364661e-02,4.800524648673528544e-02,-4.069405828842919542e-02,1.617355534658244985e-03,5.519930124282836914e-01
4.362001307231468950e-01,-4.463014118636625394e-02,-2.249658566442895580e-02,2.618318888296767774e-02,-1.061563363500995193e-02,4.646563325086287138e-03,4.727628231048583984e-01
4.748663055217974271e-01,-2.732803801245028974e-02,-4.464271782041148717e-02,6.822387782828863434e-03,5.856260123958935415e-02,-1.408390543881792717e-02,5.217449069023132324e-01
3.942995688890741368e-01,-2.670920608828249165e-02,-1.889942232450496362e-02,1.831871011469006841e-02,-1.474327209271436567e-02,1.189262468947560429e-02,4.196480810642242432e-01
4.301610187095845084e-01,-2.970230513949644047e-02,-3.589036416780529148e-02,3.557316418488411236e-02,-5.049340156107294661e-04,1.140726424696262772e-02,4.674887359142303467e-01
5.125044619723193584e-01,-4.983556297080352082e-02,-3.721747545519812905e-02,9.537806062288125414e-03,1.347816612211687019e-02,4.842745691046377969e-03,5.569363832473754883e-01
5.011415430582896180e-01,-5.244181445396625674e-02,-3.344524600890497190e-02,1.235788996669925401e-02,-2.024562700562706086e-03,3.533256978516726224e-03,5.448001027107238770e-01
5.199427538793413017e-01,-2.105417772774995089e-02,-4.166177733484699441e-02,2.340654045814814094e-02,-7.854711365324716990e-03,-7.825423070885541982e-03,5.534107089042663574e-01
3.600581845869191833e-01,-1.329530050770902361e-02,1.324033549041786495e-03,-9.084266641582915136e-02,-1.338058790033655465e-01,2.294622358323638103e-02,4.628143906593322754e-01
4.845554647847800656e-01,-3.027927787368300816e-02,-3.965295278764444098e-02,-8.242495959590352347e-03,-2.100823392371533802e-02,-2.520928175893416990e-03,5.210714936256408691e-01
2.694450898075657075e-01,-8.592584057503807604e-03,-8.003247144934597102e-03,-1.386435543722067468e-03,-1.031933805252988751e-01,-1.245931354924784649e-02,3.309977650642395020e-01
2.748369227991707131e-01,-4.382460288938641590e-03,2.422790904859639660e-04,-9.505359302198033988e-02,-6.180066770095663659e-02,1.522227416605919509e-02,3.405175507068634033e-01
5.089286805539580127e-01,-3.725577402563456930e-02,-4.664637032450194565e-02,-1.046730064909387166e-03,-5.152083842545381563e-03,-5.255699040986086014e-03,5.510902404785156250e-01
4.535507672722514649e-01,-2.897081678871953059e-02,-5.058158415736878355e-02,-1.561017387358434004e-02,-4.406537155509201303e-02,-8.827938700081626802e-03,5.005115866661071777e-01
5.401715449052092444e-01,-3.893798696227382394e-02,-4.255910547622979156e-02,-1.292191101996016710e-03,1.110601750556693091e-03,6.593152253632453708e-04,5.809371471405029297e-01
4.472420685915129424e-01,-2.673572237216720326e-02,-4.333433018378515800e-02,-1.348403326343309769e-02,-6.753260819706400925e-04,-1.156588890284510757e-02,4.834728240966796875e-01
5.375989501185901576e-01,-3.953377547316164198e-02,-3.528108951804503901e-02,-1.825242025597633745e-03,-2.106480885407104736e-02,1.103530107338864929e-03,5.761863589286804199e-01
4.851874092137140049e-01,-2.356221217506584975e-02,-5.688798478611226117e-02,1.614272115340342512e-04,-2.065192228580233977e-02,1.485531954666043271e-03,5.274252891540527344e-01
4.191158782744027200e-01,-1.344079875073196650e-02,-3.788775498850045775e-02,8.357440340123004898e-04,-2.620539502773827981e-02,-6.822700594060312346e-03,4.477494060993194580e-01
5.154902883260490398e-01,-2.920113451601569210e-02,-5.857399585369685302e-02,2.121012678972878165e-03,-1.610542870288271533e-02,-3.108359508579796758e-05,5.606623888015747070e-01
5.342120827942581363e-01,-2.578164729325829740e-02,-1.484902437781046580e-02,-1.397981730808182813e-03,1.080716225740237062e-03,1.627118511143533716e-02,5.553322434425354004e-01
5.369761854980532600e-01,-3.917979486396266919e-02,-2.283953784913095308e-02,-1.301107927398624823e-03,5.300063091492278854e-03,2.767188909228853952e-03,5.682609677314758301e-01
1.306410569732726346e-01,4.833703321482467341e-03,7.697739178942931970e-03,-1.881601421609704547e-02,7.346100753415610307e-02,5.943162890500080890e-03,1.811988502740859985e-01
1.798446586877288089e-01,1.668776220721514270e-03,-2.941096965095819915e-03,-7.801374477048510225e-02,-7.571726828537763548e-03,-7.573909881239273591e-03,2.262560129165649414e-01
4.944848420249707832e-01,-3.358120523925481327e-02,-4.784578900656646927e-02,-1.237154606484713870e-03,1.638207162035796791e-02,4.560828502411300666e-04,5.360971689224243164e-01
3.959201258878993213e-01,-3.012745033662107830e-02,-2.537828399663961954e-02,-4.631616774297764305e-02,5.457516560472904649e-02,1.801554019942749191e-02,4.425610899925231934e-01
3.474017921029502465e-01,1.278108637133915093e-02,-3.042155836507952349e-02,-6.751407584274037033e-02,3.220717789043245349e-02,-1.858109897614701120e-02,3.822513818740844727e-01
4.182593268576690337e-01,-3.302146252310285413e-02,-2.758470625192376013e-02,-1.824971001825081984e-02,2.862916797549397083e-02,1.141711450024535980e-02,4.528570473194122314e-01
4.055903291440902114e-01,-2.119398410170938996e-02,-2.683499403815883810e-02,-1.017685780051350063e-03,2.769626281720878602e-02,1.447900886631545668e-02,4.330328404903411865e-01
5.216085653809534595e-01,-3.517392243174696786e-02,-5.413498829373722399e-02,8.869267362334506272e-04,3.940454328674283455e-03,2.848726459965656051e-03,5.665657520294189453e-01
4.066882249504624181e-01,-2.622633467426305209e-03,-2.541232922911099146e-02,-5.424031110889729335e-02,1.098790765930853647e-01,-3.591592155227792821e-02,4.757089018821716309e-01
5.308574667255050450e-01,-4.213139521796269160e-02,-4.231711437196933323e-02,-1.251163383038064172e-03,7.451773408022146529e-03,1.121919095999620447e-03,5.732344388961791992e-01
5.410831238504274499e-01,-4.243337101076397055e-02,-4.384134678170478749e-02,1.113485311797360062e-03,9.303153245520594944e-03,-1.811517744983922110e-03,5.844555497169494629e-01
5.500489647788374681e-01,-5.290996606677514369e-02,-4.710954747573964374e-03,-3.835681262472904595e-03,-9.750487502807924159e-03,1.214604413955721034e-03,5.806499719619750977e-01
4.388076411940545207e-01,-1.984538809951449934e-02,-3.726949677002247552e-02,4.883047445242035683e-03,-8.501395059417681628e-04,-6.754685893567037927e-03,4.678337275981903076e-01
5.339452368337471722e-01,-3.817101156335045431e-02,-2.113891052251432034e-03,-3.395710811180082441e-03,5.751452339599376828e-04,1.328501805273751314e-02,5.554757714271545410e-01
5.491937243950359981e-01,-4.688977630671042895e-02,-2.212733100431124589e-02,-5.168517190138591580e-03,-7.384506181318781053e-03,5.461018408045800916e-03,5.843812227249145508e-01
5.561617881828898602e-01,-2.670802407882144625e-03,-4.501343049616618464e-02,-1.346190048099835807e-02,-7.766831341364306696e-03,1.691804338266007096e-02,5.825225114822387695e-01
5.344155312823886117e-01,-2.265780352818252963e-02,-3.865993521564159430e-02,-6.587860881146351266e-03,-4.852783340111179941e-03,4.102982653307903245e-03,5.654665827751159668e-01
5.368504894974057695e-01,-4.150923426927333182e-02,-1.915960544557648859e-02,-2.239979252031083085e-03,3.846743021434417733e-03,3.552839600219917949e-03,5.676007866859436035e-01
2.235510129848658489e-01,-1.276928465570689730e-03,1.815123753212605218e-03,-7.126371633444997244e-02,-3.812765445179737422e-02,1.331133665167352070e-02,2.645567357540130615e-01
1.967831155976009494e-01,-5.561606583730865916e-03,-4.262857846674966700e-02,-5.458647723256723067e-02,-8.904790032407909617e-02,3.915277499516606891e-02,2.952018082141876221e-01
5.416421046879507095e-01,-3.518235719949935891e-02,-6.871445532642073140e-03,-4.578658985680267302e-02,-7.190071968879312159e-02,2.262290305835686424e-02,5.835505723953247070e-01
5.399096663690757802e-01,-4.919557766450211034e-02,9.632240394917640502e-03,9.920756102893618297e-04,-8.978809134279524054e-03,7.083203706280229335e-03,5.623568892478942871e-01
4.848240323418220310e-01,-4.891742616528482746e-02,-1.825884642978645167e-02,-2.213281741370291475e-02,-3.734227293294545974e-02,1.927428554136604785e-02,5.255697369575500488e-01
5.160333255232565364e-01,-2.728891617050033247e-02,-1.123391177273289077e-02,-1.464010810797624663e-02,-2.047861494516955289e-02,2.149898156248859424e-02,5.385364890098571777e-01
4.330087611824464666e-01,-5.288887190708113639e-02,1.361825208121554553e-02,-7.588290127997832091e-02,-9.491022694425864381e-02,2.544917792707269630e-02,5.044259428977966309e-01
5.732500389622434689e-01,-4.388271589656686511e-02,-5.729075844362691017e-03,-6.972729282706760512e-02,-1.150233458138336801e-01,3.296953818923754886e-02,6.452134847640991211e-01
4.208900996470731903e-01,-9.143390585394624293e-02,2.778120123763345994e-02,-4.033957057790849010e-02,-1.164781199408354423e-01,3.161636641595502728e-02,5.139974951744079590e-01
5.139326837026018113e-01,-3.205386953488736923e-02,-5.710729786873025571e-02,-1.016922733714950089e-03,-1.384258372352170814e-02,-3.636772247988273934e-03,5.594868063926696777e-01
5.511771919269601305e-01,-4.495560252972052862e-02,-1.954580658477805821e-02,6.498585311623447831e-03,-2.073237991283280630e-03,-1.356648856331265458e-03,5.839670300483703613e-01
5.286831580211502901e-01,-4.183414506695354307e-02,-3.317837956050717629e-02,3.017934581903634981e-03,-1.952850857310164598e-03,6.782204953567649332e-04,5.662744641304016113e-01
5.503330243833430835e-01,-4.665718381101174872e-02,-1.664370950546514849e-02,8.704409716109948875e-03,-3.266889650787453258e-03,-2.562465857362319042e-03,5.828030109405517578e-01
5.390626201783131899e-01,-5.560668899643897434e-02,1.332693966901449256e-02,2.295410504662258062e-03,8.554927675719831148e-03,-7.083937243815696151e-03,5.637168288230895996e-01
7.745401857973835957e-01,-1.204706769146020595e-01,-1.012478175160619331e-03,7.110451264224913748e-02,1.985824173078581251e-02,-3.687935683958744326e-02,8.537149429321289062e-01
5.466370202958716895e-01,-5.331778496961503411e-02,-3.875552198934872905e-03,-2.454366536929170756e-03,-7.412422455743919274e-03,4.821088108825123675e-03,5.770440697669982910e-01
5.581297471954600464e-01,2.856226872138589723e-02,-8.239185306345098159e-02,-1.727332427074822901e-02,1.511721216689751457e-02,-7.987269060922976699e-03,5.943755507469177246e-01
4.903752431265325784e-01,-4.700414144087117219e-02,-3.499859922365308740e-02,3.998138644739504532e-02,-2.304886576195502509e-02,9.082296837432661529e-03,5.376857519149780273e-01
5.323073387809289514e-01,-2.979070733551703043e-02,-1.555778494079729235e-02,1.563372030437716305e-03,-2.728724650634485605e-03,-5.440179075806029704e-03,5.552251338958740234e-01
4.966206812710369789e-01,-1.897263432053358789e-02,-5.213799624123519050e-02,3.254242368729522161e-02,1.656717679193497189e-02,-4.408823262229422395e-04,5.366910696029663086e-01
5.373721013780101696e-01,-8.130537552873379203e-03,-3.795632570746321210e-02,-2.805329251074214006e-03,7.507429944739301038e-03,-4.001022384839854340e-03,5.612249970436096191e-01
5.602958579321087873e-01,-5.845699432120815553e-02,-4.526590729390603252e-02,2.755201507781354989e-02,-3.980537771450298051e-02,-1.732001650043943700e-02,6.187065243721008301e-01
5.370578773156268193e-01,-1.020807037802437534e-02,-3.272054320031744790e-02,-4.238831238962038721e-03,3.573799154883747220e-03,-5.847438478647633622e-03,5.590366125106811523e-01
4.323706051392548488e-01,-3.690352234884108906e-02,-2.836045313912466392e-02,4.498211355830574604e-02,-4.428198378774497387e-03,-7.224072857330491974e-04,4.716065227985382080e-01
5.462003381841666894e-01,-3.316442479987349867e-02,-5.039931499113320390e-02,1.556358497441946015e-02,1.770117586109112070e-04,-1.048438718311436868e-03,5.887919068336486816e-01
5.968654022479402688e-01,-5.172414298007144140e-02,-2.883662919008156411e-03,1.802122270269034335e-02,1.268928847766299592e-02,-2.403617754761868536e-02,6.281456351280212402e-01
5.973741138155014285e-01,-4.057953834386363035e-02,-1.750351994269394584e-02,1.187064667983661961e-02,4.748317615072019521e-03,-4.498952673588364759e-02,6.319481730461120605e-01
5.312924852057252512e-01,-2.934402974166311351e-02,-2.797378263386746111e-02,2.352959582543092277e-03,1.546752472785954029e-03,-6.323821546590775548e-04,5.599749684333801270e-01
5.312817298459532322e-01,-3.342191541351813289e-02,-2.819740740415335734e-02,-1.205666719830464752e-03,1.136607022777805448e-03,-1.718143009071609884e-03,5.621247887611389160e-01
5.593192984937295220e-01,-6.299011239922239214e-02,-3.598332150843583377e-02,4.981567400254961059e-02,-2.680275417285168937e-02,-1.071353565406473959e-02,6.173622012138366699e-01
7.171088349622058988e-01,-1.180935835490234953e-01,9.532033763327618647e-03,8.839564572446916013e-02,5.315636728764350401e-03,-2.132233925086481768e-02,7.950775027275085449e-01
6.351786856419734395e-01,-8.779537623309890959e-02,3.574120999439561741e-02,1.293235536893175795e-02,-5.060419803459569044e-02,1.196970129082251290e-02,6.762048006057739258e-01
5.330226401986639662e-01,-3.553541410781704823e-02,-3.951945601120690488e-02,1.787008090499696581e-03,2.968799805317634457e-03,8.139533608345692192e-04,5.705938339233398438e-01
5.637862817313714636e-01,-6.243253127168474359e-02,2.490283142536628413e-02,1.520619678808127510e-03,-6.350272363940657680e-03,-1.313198365893443432e-04,5.875494480133056641e-01
5.275404345627219271e-01,-4.011575144077786370e-02,-5.193201048499923589e-02,-1.871183216452545778e-03,1.270019193435799982e-03,1.240764546120144219e-03,5.736730098724365234e-01
5.414891292645971355e-01,-4.560257635667158693e-02,-1.260988106314736568e-02,8.237359187370240504e-03,1.365626699126455332e-02,-1.682629736040520355e-03,5.719851255416870117e-01
4.379692612252883421e-01,-3.916549802819013770e-02,-1.994789910028377244e-02,4.448013160989140041e-02,4.289818193234221089e-03,5.403116020145579124e-04,4.741824865341186523e-01
5.492718990550153890e-01,-5.811115941494071624e-02,-3.848546344448586232e-02,1.685903640287132049e-02,-6.946427203033124498e-02,9.545530853120111651e-04,6.105000376701354980e-01
5.836645592761170453e-01,-7.042660944383888344e-02,-3.477532782339337603e-02,2.001206766161339398e-02,-1.794106473005070701e-02,-1.659272180557664136e-02,6.393591761589050293e-01
5.440609270543291798e-01,-2.670470275441449992e-02,-4.220650106072004748e-03,1.347271343340616934e-01,-1.111561534646808153e-01,-4.533033527419865621e-02,6.411954760551452637e-01
4.975775477505541278e-01,-3.569688593760522721e-02,1.454159505042623701e-02,7.240938007280654787e-02,-8.221407599764590790e-02,-5.316724990633261289e-02,5.519073605537414551e-01
5.589832570498796116e-01,-9.064737704087624803e-02,1.089209158995937954e-02,1.646195682124036025e-02,-6.253638870902797353e-02,-4.454966365424152530e-02,6.203760504722595215e-01
2.501768456038189203e-01,7.291447125368846760e-03,-6.509007774380862199e-03,4.808237749804212396e-02,-5.623821518191073759e-02,-2.196595072682687444e-02,2.835615575313568115e-01
4.952315590746004248e-01,-7.847344643827885990e-02,3.979121584164124759e-02,2.869657701216211595e-02,-1.325580158829770538e-01,-3.832721942230906450e-03,5.748950839042663574e-01
6.091781656490765640e-01,-8.764550864057249480e-02,2.951679827156086788e-02,1.129847840892098526e-01,-1.492042155406872184e-01,-3.036245317048593892e-02,7.249115705490112305e-01
7.163741684318317149e-02,-1.480661158296543711e-03,-1.648429638761205948e-02,3.484425321461062652e-02,5.452344269499626028e-02,3.303315700776755098e-02,1.500091701745986938e-01
3.801382821525925992e-01,-1.825735837750305790e-02,-5.644572745690579207e-03,6.173733067811103259e-02,-7.512913354469374916e-02,4.636966786224881384e-03,4.269489943981170654e-01
3.268979268766737944e-01,-4.878290700484341769e-02,-5.161818066403128791e-02,4.137090935216912457e-02,6.809606463481582272e-02,1.350265048194025999e-02,4.022463560104370117e-01
5.164801539558760979e-01,-6.177907336313823161e-02,-3.160662488142046422e-02,-5.700297685615311489e-04,1.024324500112794994e-03,3.329560137161403401e-03,5.638120174407958984e-01
3.254450559267515475e-01,-7.506131279360825359e-03,-1.240552555377764932e-02,-8.974769474534951760e-03,2.611827982325159309e-02,-1.418952461846461049e-03,3.388302326202392578e-01
2.949588794224818344e-01,5.859728729720972695e-03,-1.080522289753986509e-02,7.763987037905834042e-04,2.633257800559052689e-02,-1.701511698183512042e-03,3.012715876102447510e-01
3.181116663065348682e-01,-1.332824411124561292e-03,-1.845763197476336936e-02,9.830053216882862765e-02,5.433497503224495734e-02,-1.403283544913337504e-03,3.816545903682708740e-01
4.139778027046204789e-01,-1.632100592035526376e-02,-2.699787819102938968e-02,-1.519714254881354872e-03,7.703879532599194890e-02,2.683552675061750496e-03,4.557397961616516113e-01
6.156768424201075618e-01,-5.273825848812532802e-02,-2.343746488432246755e-03,-6.752067839692414697e-02,1.611209418359835222e-01,-3.607221119887574906e-02,7.149087190628051758e-01
5.781990583728098265e-01,-5.114045863031413397e-02,-5.157227505526459921e-02,-1.559906685966450102e-02,1.249706380956479568e-01,-7.858714508955567946e-02,6.800374984741210938e-01
5.309100998631588464e-01,1.158516264032774523e-02,-5.287236893624946976e-02,-3.106255717442769557e-02,6.771844091005869981e-02,-3.545525944227802956e-02,5.724952220916748047e-01
5.968900792230210639e-01,-3.605138262493509660e-02,-5.321729750293038852e-02,-8.289951189968926271e-03,3.128322420160303818e-02,-1.900177847399656811e-02,6.449805498123168945e-01
8.716054478414323459e-01,-4.092437374383633975e-02,-1.107622100310434732e-01,-2.827473058041492780e-04,4.892034839426760706e-02,-6.236917804971906648e-02,9.592531919479370117e-01
6.086661771102815921e-01,-6.141076325671421254e-02,2.546654320819638495e-02,1.279120000585655392e-02,-2.054929610298312018e-02,1.845764847896804242e-02,6.333371996879577637e-01
5.314693399949619312e-01,-5.036268977717348050e-02,-4.514773562978036114e-02,5.842647472054199624e-04,-2.825212935712040092e-04,7.303840759271700879e-04,5.792446136474609375e-01
5.290236141045979723e-01,-5.016342105622645375e-02,-4.341520707114776556e-02,2.237081134856722553e-04,9.025760333353799068e-04,7.944739951310603133e-04,5.758464932441711426e-01
5.275014480665294325e-01,-5.283150003991254895e-02,-4.190525909426900952e-02,1.371136326245685428e-03,-5.425614231660084172e-04,1.863893808324389341e-03,5.749624371528625488e-01
5.050705514681252950e-01,-3.445190826278521357e-02,-5.761392542147286688e-02,2.594929440736198564e-03,-5.193662635285982605e-03,2.906204046980862682e-03,5.515830516815185547e-01
5.271071119819912276e-01,-4.141858384988469921e-02,-4.006314797781218573e-02,-1.358257928172896373e-04,2.126717107818621409e-03,5.247831826484248337e-04,5.678619146347045898e-01
5.153835476255237413e-01,-4.114196538242254064e-02,-4.943415849074744850e-02,1.701670920048233091e-03,-1.717648746319551953e-03,1.520972831383026868e-03,5.607393980026245117e-01
5.288424296407232550e-01,-5.192522761684950638e-02,-4.202467349215510684e-02,-6.033732848671087003e-05,-9.995118525234737640e-05,1.679141533897541942e-03,5.758885741233825684e-01
5.326042624390058267e-01,-4.313710012775345826e-02,-4.241363441209855534e-02,2.101547818775302383e-03,-6.351271114900606622e-06,1.308520589575529972e-03,5.753959417343139648e-01
5.354812435930836889e-01,-3.566686260286464072e-02,-4.105933462070443518e-02,7.541690532790750086e-05,-4.436211685021596539e-04,5.644639536378035440e-06,5.738638639450073242e-01
3.636824843598361889e-01,-3.755007627844619833e-02,1.397065044834168435e-02,-3.373823405725830810e-02,1.533814156309095678e-01,-3.536040616913545265e-02,4.698016643524169922e-01
4.984936937507447041e-01,-3.552378738060274488e-02,-1.970432588653275863e-02,1.452536998262955042e-02,2.917315941034099094e-02,5.032797961173550785e-03,5.293762683868408203e-01
5.173962360490521606e-01,-3.171449184178559699e-02,-6.105548013257286466e-02,-2.548827642409973670e-04,-1.737712972951442484e-03,7.433214558548033616e-05,5.643617510795593262e-01
5.072187748713279376e-01,-3.525911326277694768e-02,-3.962319668749228474e-02,5.322120902787845628e-04,7.115384197865297702e-03,-4.024248598352958561e-03,5.448578000068664551e-01
4.649615241762816709e-01,-1.887973361522798932e-02,-4.785955043840692258e-02,2.469649483499859917e-03,1.508829006407262120e-02,1.964007489492174043e-03,4.996765553951263428e-01
4.653071466821040447e-01,-4.251222354854039542e-02,-4.049590151054338616e-02,-9.044881898072323900e-02,5.495544804778985937e-02,-5.792930776805056865e-03,5.390404462814331055e-01
6.368540862405371872e-01,-1.150426798481682389e-01,-7.679570469160401647e-04,4.682313095571015438e-02,1.604332548075657616e-01,-6.741607835261574470e-03,7.592198252677917480e-01
5.950002929486700731e-01,-7.172240662327591942e-02,4.793286343580063780e-02,3.946311557148966809e-03,6.072677846959387282e-02,3.807343825233388407e-02,6.281069517135620117e-01
5.780045261695546666e-01,-1.245700218762018918e-01,3.840651209180440118e-02,1.300179986863145287e-02,6.390480684332786043e-02,-2.459164553621884589e-02,6.482607722282409668e-01
5.417950658304651057e-01,-3.086263016849313812e-02,-5.443269291584812430e-03,2.902493455854707194e-03,-2.627221141170712603e-03,-8.126781794423337466e-03,5.605983138084411621e-01
4.869189966758716848e-01,-2.948467061044798831e-02,-4.416720699451620602e-02,-2.354473856390972356e-02,4.651168235713599303e-02,-8.039276233443921893e-03,5.318058133125305176e-01
2.616941729377991188e-01,-3.964188277076133304e-03,1.046067631547104027e-03,-1.148391592208176798e-01,7.386977290705200316e-02,-1.236557413788593775e-02,3.544876575469970703e-01
5.160919005831723361e-01,-5.771450015669662981e-02,-3.290767019183329922e-02,-7.324651975170624267e-05,1.189622470883700944e-03,1.989885794250260444e-03,5.618282556533813477e-01
2.997455436574545939e-01,-2.331761995685641131e-02,1.918709898138401537e-03,-6.634434962463715835e-02,3.625201666979858267e-02,9.800832056733261091e-04,3.376447558403015137e-01
4.735796717910061293e-01,-2.774437653848171870e-02,-3.170383981835211973e-02,-4.195841993083423288e-03,2.842763474630510823e-02,1.627475011795723528e-02,5.065553188323974609e-01
4.524681249220180446e-01,-1.779113069305149342e-02,-4.851440962826433778e-02,-9.550050952764620486e-04,2.016297937943486648e-02,3.339346612225447836e-03,4.876386225223541260e-01
2.543034480641001016e-01,2.048088395124837702e-02,1.453024574218013398e-02,8.557996672615404352e-03,-1.389545561236376660e-02,5.781618192676993805e-03,2.387447357177734375e-01
2.987183004622426252e-01,7.638817914865203562e-03,1.556509048022250430e-03,-4.601326370553663367e-04,2.328871308966419182e-02,5.663309946483805445e-03,2.970835566520690918e-01
3.181565116547558358e-01,-8.731808750765290839e-03,5.302734488454863282e-06,-3.122071004775339373e-02,2.966382369110598383e-02,8.894806260636949416e-03,3.314779400825500488e-01
4.202195627009487344e-01,-2.336671932028616672e-02,-2.637428572256975134e-02,-1.426061522686932100e-03,2.077788473249682702e-02,1.190407701661783460e-02,4.470328092575073242e-01
4.607145968971013139e-01,-2.172711103693186763e-02,-4.846087839109930462e-02,-8.598903664462300908e-03,1.652494574614440243e-02,5.576801474194801635e-03,4.974902272224426270e-01
3.755602666585896587e-01,-1.293272225037234158e-02,-2.370424910854018741e-02,6.856870702927187963e-03,3.405940616979988983e-02,-1.468257903432528379e-03,3.985663652420043945e-01
5.377232482544562764e-01,-4.482694400843659222e-02,-4.003724205498510047e-02,2.794069023716279528e-03,-1.129584841261289246e-03,-1.794932312366892720e-03,5.802019834518432617e-01
5.347783781751882515e-01,-6.400687686737960291e-03,-3.838375391907711265e-02,-7.281702399873433984e-03,-5.944016467926074507e-03,6.154351135881065693e-03,5.581979751586914062e-01
5.363885936778778341e-01,-4.505801772178671949e-02,-3.995497817014126429e-02,6.574652501962424157e-03,-2.483630484572610028e-03,-2.973324704318813620e-03,5.790628194808959961e-01
5.381828735113777240e-01,-3.965599974827452301e-02,-3.860601423052748005e-02,-1.003450559355641364e-03,1.299484159082195389e-03,3.458869660086736690e-06,5.773215889930725098e-01
5.282582906799566658e-01,-3.950257941700241471e-02,-4.121134389834868461e-02,5.698391092221672706e-04,-2.763040313253727238e-03,-2.607845776627461254e-03,5.686560869216918945e-01
6.082429279803722721e-01,2.078476709976714853e-02,-6.596716191322463119e-02,-2.122535764971964292e-02,2.324538734767045076e-03,3.775874812214111143e-02,6.397194862365722656e-01
7.611402685061804396e-01,6.933742708517570685e-03,-8.226033401042975868e-02,-7.271110314389947482e-02,-9.613393984041648105e-03,3.888726917980007969e-02,8.153088092803955078e-01
4.864459436949282733e-01,-4.413880332334027545e-02,-3.618803569543482812e-02,2.416161614642461236e-02,-1.519074425323129959e-02,1.122452305511170007e-02,5.293263792991638184e-01
4.824081238185229381e-01,-4.903568371993291541e-02,-2.758608995279121512e-02,2.210109105329107967e-02,-8.227189160044879462e-03,7.010862490916075669e-03,5.227898359298706055e-01
5.042566197752679225e-01,-5.381912539088040681e-02,-3.274027722096795046e-02,-5.569638623865182624e-03,2.844194220219831062e-03,4.367329324752940341e-03,5.479998588562011719e-01
4.745988674187794354e-01,-4.858435004185063244e-02,-1.987515492041183607e-02,-4.073864910899156755e-02,1.816247537373460660e-02,3.298389353604694665e-04,5.152606964111328125e-01
5.373135872676668701e-01,-4.171663481621720737e-02,-4.015724739983259073e-02,9.512092437612187576e-03,3.298714615390149762e-03,-1.866383218864679523e-03,5.785239934921264648e-01
5.502445919359318927e-01,-4.416867255678771920e-02,-1.460496742643258017e-02,4.152273810543894751e-03,6.544665112514837582e-03,-1.407482350809677839e-02,5.808636546134948730e-01
5.272636655039760756e-01,-5.027478075158978155e-02,-3.933734111719941473e-02,-3.816373518619325510e-03,5.590739713308067946e-04,1.578927526577812105e-03,5.721936821937561035e-01
5.229369945491841865e-01,-5.524766299031402816e-02,-3.600664476177731221e-02,-5.302468475491491952e-03,3.957077843386402199e-03,2.811680942701842798e-03,5.689445734024047852e-01
5.267590058946054477e-01,-4.044684645993654182e-02,-5.225102206741366606e-02,-4.697619313875120006e-04,3.443191794250101087e-04,1.888639254732976799e-03,5.732093453407287598e-01
5.291506270690249369e-01,-4.716543790197838537e-02,-4.740829049493186509e-02,-4.817057280974532292e-04,1.360101327255283914e-03,1.788119170727401524e-03,5.764512419700622559e-01
5.218413509183260635e-01,-3.225175630249949021e-02,-2.958532712655437269e-02,-3.109112534351873760e-03,1.097881420779111411e-02,-8.186968066293969642e-03,5.532996654510498047e-01
4.466031398783219530e-01,-6.094087497097835926e-02,1.010847908529624584e-02,4.093770508715636330e-02,6.504101116929178472e-02,-1.592278948957853713e-02,4.950429797172546387e-01
6.178765898939461154e-01,4.623040941963799111e-02,-8.703391844699856494e-02,2.896837519610021006e-03,9.049061299757106894e-03,-3.518547236962070099e-03,6.488657593727111816e-01
5.393981773342030328e-01,1.153334247866627527e-02,-4.197281343324177350e-02,-2.923251601691576312e-04,9.407224839635120600e-03,-1.632978792637528390e-02,5.575069189071655273e-01
5.610828985350573284e-01,3.065046771366902734e-02,-6.777679605264863572e-02,-6.261215764356743360e-03,3.468835490102791658e-03,-2.800000600071531932e-03,5.860313177108764648e-01
5.413622488655915888e-01,1.612084597848040257e-02,-6.089018653923611302e-02,4.389046687360988186e-03,6.558290303240953655e-03,-2.677669062465269645e-03,5.678617358207702637e-01
5.608100966062370407e-01,3.809332541074922363e-02,-6.817024533162260869e-02,-1.058597601391126145e-02,3.449896955047271341e-03,-6.078220145227823321e-03,5.835694074630737305e-01
5.230959578250179431e-01,-1.899412659610422160e-02,-1.505954055607017228e-02,-6.139088861819785251e-04,-3.846468362450429826e-04,1.570510940730854982e-03,5.401418209075927734e-01
5.216103348317149280e-01,-1.807904863419496078e-02,-1.496405339831144432e-02,-8.923893702526622396e-04,-3.154778398990720192e-05,1.368482454987254978e-03,5.381460785865783691e-01
5.237098381332905284e-01,-1.680156964253062823e-02,-1.857360451266382162e-02,-2.348305968535776829e-04,1.896885202938506775e-04,7.866962183045742105e-04,5.414015650749206543e-01
5.212483187619474378e-01,-5.504074241996653738e-02,-3.600706453778984573e-02,1.104134697743040100e-02,1.750348326029076227e-03,5.901309271854515009e-03,5.674344301223754883e-01
5.539954323981461926e-01,-2.533644168158513676e-02,-2.428279932938753882e-02,-1.018451364937315862e-02,-1.163133109189850266e-02,2.026528681747772134e-02,5.804870128631591797e-01
5.339837220510623705e-01,-3.217121744849091303e-02,-2.474379275983171200e-02,-7.457246282823011378e-03,-7.990010500310925148e-03,8.392577349406392731e-03,5.629841685295104980e-01
5.311781803028100546e-01,-3.074422227312564870e-02,-2.969210706815411660e-03,-2.974423287999110473e-04,-9.892720396433235877e-04,-8.582895062008601486e-03,5.487668514251708984e-01
4.680441133146349131e-01,-3.027214129486544003e-02,-4.270655492664143793e-02,-7.352576582997214297e-03,2.153650001349110069e-02,7.466696183288407118e-03,5.063505172729492188e-01
5.350577407076759773e-01,-3.936232426565583475e-02,-3.716447711598394599e-02,1.657360365755616849e-03,7.613914757757191468e-03,-6.117715905768188883e-05,5.734831690788269043e-01
5.486642246691106894e-01,-3.580641840500795037e-02,-2.937139411265687894e-02,-1.658984608452738509e-04,1.150349472815167216e-02,-4.937655352137298483e-03,5.816841721534729004e-01
5.314175359743872340e-01,-3.171007896142957749e-02,-1.933987487114702253e-02,-2.770686557405727872e-04,2.873264426179235071e-03,-1.920726791696317215e-03,5.570778846740722656e-01
5.311313969344851893e-01,-4.414157850413155670e-02,-4.722325706464788886e-02,-2.777835450066623926e-03,3.159241331750437583e-03,4.218357445887097913e-03,5.769122838973999023e-01
5.267090227214191733e-01,-3.989489314952973653e-02,-5.295895328702518445e-02,-1.717783718295984178e-03,1.404119235816800662e-03,2.084690396092241625e-03,5.732718706130981445e-01
5.207748629265294138e-01,-3.799616181848144980e-02,-5.141931676799374462e-02,2.580988560092490388e-03,2.593150996944950000e-03,5.827483785820359793e-03,5.657276511192321777e-01
5.230740762288556001e-01,-4.217009720408446127e-02,-4.618877988688918634e-02,2.462694475970129276e-03,1.049651306165383597e-03,3.645213321140552964e-03,5.673182606697082520e-01
5.294127525411036483e-01,-4.440555559345515935e-02,-5.039126348925626608e-02,-1.397078252111675289e-04,-1.489932468838240818e-04,2.043804324806130102e-03,5.768454074859619141e-01
5.258523178203921011e-01,-4.405339744205113983e-02,-4.828788564356781277e-02,-9.341369741896420574e-04,2.911533573816591468e-03,3.808175182793006007e-03,5.720972418785095215e-01
5.359382611776140060e-01,-3.605740101271553977e-02,-3.023831723468281552e-02,-2.496557623881709258e-03,-1.908651287936607857e-03,2.452227038237211540e-03,5.691503286361694336e-01
5.352424898077812188e-01,-2.692821578359597123e-02,-3.336771085227455136e-02,2.368685365560475268e-03,-3.841807009952001931e-03,1.526766398944406303e-03,5.654782056808471680e-01
5.332203925476481920e-01,-3.468127724293337821e-02,-2.831885796308236669e-02,-3.890200414529704741e-03,-3.348192572962847358e-04,-1.636233455628678841e-03,5.647949576377868652e-01
5.296621321666654669e-01,-2.348163014932827530e-02,-2.437298973115420431e-02,-2.446834751655202218e-03,-2.495360309752995675e-03,8.574665809309185835e-04,5.536250472068786621e-01
5.316793591446598022e-01,-2.922034579987520253e-02,-2.456750492047837797e-02,-1.388847953016173755e-04,3.132544831381199580e-04,-1.769966273064748317e-03,5.585965514183044434e-01
5.274119066693513380e-01,-2.559240249497693465e-02,-1.949347621804062292e-02,-2.815221552082454535e-03,-2.257572109740681177e-04,1.039602140235793394e-03,5.500048995018005371e-01
5.351872907972161642e-01,-3.060187846493334085e-02,-3.393962836507277703e-02,-4.673870293681699401e-04,-2.755320267517502846e-03,3.318115372347156099e-03,5.675151348114013672e-01
5.252656398483577238e-01,-1.917471370324366764e-02,-1.928391788842495624e-02,-1.759344504757701436e-04,1.346015292899399010e-04,-5.975765535418761263e-04,5.444960594177246094e-01
5.250258238710726610e-01,-1.912284594464494503e-02,-1.654008100463674746e-02,-1.864659163376069899e-03,-1.366006488332290091e-03,9.832784598846270978e-04,5.428793430328369141e-01
5.390131526206174417e-01,-4.598894826897939603e-02,-4.007527848685316085e-02,2.559777966346711911e-03,-1.001991700721994788e-03,-3.129582017118077032e-03,5.821124911308288574e-01
5.601625873606937978e-01,2.354917849212720404e-02,-6.042801412635911973e-02,2.842552461559734109e-02,-3.220881401139413878e-03,-3.276482516518103294e-02,5.880010128021240234e-01
5.266141120186691449e-01,-1.253059304162898457e-02,-2.918326250954408896e-02,9.350336779342162960e-04,1.847433722428981325e-03,-6.271443273469000726e-03,5.477803945541381836e-01
5.103381285219779073e-01,-3.393437799139770172e-02,-4.301406012269579082e-02,-2.383032168770159859e-02,2.224502012447953855e-02,1.471015811247084262e-03,5.517712235450744629e-01
5.329931747576485135e-01,-3.001778576585714675e-02,-3.444921767406283752e-02,-2.293608026650574040e-03,6.248954550169592099e-04,2.694686073797054795e-03,5.652739405632019043e-01
5.337099129521487573e-01,-9.530289650871853757e-03,-4.046995692307708836e-02,-7.254162587734226501e-03,7.801008657545498853e-03,-1.265844551611471427e-02,5.600857138633728027e-01
5.356478504448255462e-01,-3.192299293160491547e-02,-4.218436770964392735e-02,-1.600389300331455170e-02,5.644430263165843911e-03,9.499811607992366888e-05,5.735241770744323730e-01
5.057759055552139005e-01,-2.308226597613208253e-02,-4.212058899670065304e-02,-3.493077788001149042e-02,1.369922751288771799e-02,-4.812762404238039686e-03,5.426002144813537598e-01
5.638161909040459996e-01,1.746289636070719187e-02,-6.705600644106998742e-02,-5.950912854869334218e-02,4.056844666667606090e-03,-2.791730390074220400e-02,6.040149331092834473e-01
5.011703037907937475e-01,-5.425636501797287403e-02,-2.799192113190243636e-02,1.093025368786455960e-02,-1.590095402132993057e-03,7.224229139259924319e-03,5.432524085044860840e-01
5.777072987889286804e-01,-2.018125365374009994e-02,-3.661525029952084065e-02,1.485681758622341975e-01,-7.641274036308033646e-02,-4.586456220285233670e-02,6.764698028564453125e-01
4.008237475046595444e-01,-1.594366915256639761e-02,-3.609458611532731509e-02,1.680391016368214252e-02,-3.415235446360502525e-02,1.149267362410045547e-02,4.327145516872406006e-01
6.130905621139172146e-01,-1.321984869488768144e-02,-6.216763842689962405e-02,1.288257408556100873e-02,2.457899247516817740e-03,-1.312157959792070207e-02,6.529545783996582031e-01
5.533998790318011007e-01,-2.435013218009987601e-02,-5.659671575343783179e-02,3.231137475461960673e-02,1.203779502068975070e-02,-1.154234268789469491e-02,5.978560447692871094e-01
5.490048329150798434e-01,-2.585880627344622207e-02,-4.868856169148186308e-02,7.508646074195811371e-02,4.136374883213376520e-03,-1.013797253394156141e-02,6.011547446250915527e-01
5.407930236657615408e-01,-3.655662638804552111e-02,-3.935947032275008417e-02,2.011952733697995946e-02,-2.060806552308196669e-03,-1.227083558781857063e-03,5.798192024230957031e-01
5.902241913435262166e-01,-1.360161250199576344e-02,-4.238815633809359107e-02,2.034670983072258202e-02,-1.123937143790117860e-02,-1.865965793085474014e-02,6.208718419075012207e-01
5.230119534076613785e-01,-4.679420025201713740e-02,-4.584031278622180405e-02,-3.492575882421742705e-04,-6.370537954960292927e-05,4.539254726712050290e-03,5.693843960762023926e-01
4.921272137568659666e-01,-4.931754268158566878e-02,-3.285413648027632472e-02,-1.362854507882545196e-02,3.771553995755771646e-03,6.435410197015587787e-03,5.340819954872131348e-01
5.275723514470389564e-01,-4.016680422509197323e-02,-5.081225419510992936e-02,-1.717283181466324610e-03,2.772994591386492708e-03,3.639355180163878108e-03,5.731985569000244141e-01
5.129557774474609033e-01,-3.918927673740343898e-02,-4.601897301841711974e-02,-1.596206751525180382e-03,7.472552168989080035e-03,3.586897147415314679e-03,5.557837486267089844e-01
5.312204274503404822e-01,-4.042675583344174095e-02,-5.136902812053606437e-02,-1.098539157582637586e-05,3.107494134705782694e-03,2.084717451716995660e-03,5.772324800491333008e-01
5.283776970866613798e-01,-3.758933320447455095e-02,-4.271399041750487124e-02,1.144009063218233034e-03,-1.703300328182496843e-03,6.203710725529239147e-05,5.685577988624572754e-01
5.226685444436023342e-01,-4.193573839885569865e-02,-5.237404867604303349e-02,-2.748099958098300290e-03,5.878302442380273218e-03,6.119585968438043602e-03,5.701044797897338867e-01
4.968800746408611468e-01,-4.781393060830657626e-02,-3.057213475799216984e-02,-1.598031136187465576e-03,1.132392518031159583e-02,1.072436837064987165e-02,5.369681119918823242e-01
5.276289868851142817e-01,-4.847837642275887315e-02,-4.152734400951507698e-02,-7.836215737507777612e-03,2.429358175132919403e-03,3.724899466969158485e-03,5.728760957717895508e-01
5.363272429264457353e-01,-2.698720293682665972e-02,-3.806445411036540882e-02,-4.035647523250324858e-03,6.561074154977670526e-03,-9.721972776507460928e-04,5.690928697586059570e-01
5.828224599370931402e-01,6.114643732530899989e-03,-5.524370187113400443e-02,-6.486682463648545116e-02,-7.106147270391149906e-02,5.512241395342462602e-02,6.392419934272766113e-01
6.003229825001750175e-01,4.774863997877493160e-03,-3.017153139619357938e-02,-6.520480957615105988e-02,-3.313372315235250942e-02,5.186323990145706719e-02,6.331105828285217285e-01
5.239715575571914918e-01,-5.272664034716975645e-02,-3.879904578208159815e-02,5.347249858246107095e-03,-4.939426877197053943e-03,6.513879862513914654e-03,5.701131820678710938e-01
5.494874494835937373e-01,-4.608544248278576005e-02,-7.561467259315807210e-03,2.714651924407319138e-03,-6.607727777838880850e-03,-3.581258236663390090e-04,5.774087309837341309e-01
7.461803711350323276e-01,1.501565743570298928e-02,-8.732694892439768486e-02,-7.595213939113204527e-02,8.882391167703557536e-03,3.163632457180227953e-02,8.002815842628479004e-01
5.418850179673984080e-01,-1.805195135779114057e-02,-4.160386828090997802e-02,-2.284232955938947374e-02,1.684858881727445629e-03,9.024837471120717922e-03,5.736635327339172363e-01
5.963122612270433942e-01,-2.479163313588467199e-03,-5.390892667729632604e-02,-5.077965470264200754e-02,-2.853257422973054167e-02,1.474848742945929041e-02,6.346829533576965332e-01
6.007710201453473342e-01,-2.583569062308471720e-02,-4.794393128544544025e-02,-2.178159742125279283e-02,-1.047987797322101448e-02,2.873200660207159834e-02,6.412544846534729004e-01
5.340194858562798963e-01,-4.105251450326763418e-02,-3.355743399997390686e-02,-2.248055008105764808e-04,3.745650801479160925e-03,6.199555138131468109e-04,5.713993310928344727e-01
5.419939404652265313e-01,-7.664462482799366816e-03,-3.881603192798280255e-02,-7.391193135939913735e-03,6.373734149580464158e-03,-2.781071890947798154e-03,5.661505460739135742e-01
5.411089032798486187e-01,-5.175045001599470895e-02,1.303700377073269134e-02,3.585671190099206686e-03,5.169093525205191442e-03,8.700955528799620212e-03,5.635739564895629883e-01
5.629336516526219913e-01,-3.815206904842310953e-02,-2.748706028359609865e-02,1.571199229770100375e-02,-3.039706531006613338e-03,-6.920878720425318459e-03,5.965896844863891602e-01
5.428035495428724655e-01,-1.626036394441110478e-02,-4.267063231384976563e-02,9.222150394344031527e-03,-1.629867325302661015e-03,-4.194802811257484880e-03,5.730016231536865234e-01
5.403537010113401706e-01,-4.114240675080538256e-02,-4.016715784851929150e-02,1.354962388721162037e-02,1.520528795580744670e-03,-5.532509904449083027e-03,5.815678238868713379e-01
5.353610762834315473e-01,-3.437433249766172483e-02,-2.960076096877295448e-02,5.572857493075913937e-03,-2.853270059039346093e-03,-3.425299657529428179e-03,5.674983263015747070e-01
5.412304433927375147e-01,-4.057389091852833807e-02,3.258397833391574183e-03,-1.807717219651057070e-02,3.768715398565148506e-02,-4.986008276724093052e-02,5.723767280578613281e-01
5.399044309703495692e-01,-4.549447740498108184e-02,-2.058770700644044216e-02,6.229962186978224917e-03,1.135310725517493270e-02,-1.461047551780741581e-03,5.737955570220947266e-01
5.293815958018224244e-01,-4.069138543423284071e-02,-4.255664899297656456e-02,-3.879415050133774509e-03,5.451696130892150216e-03,8.183845991224507235e-05,5.711255073547363281e-01
5.119864862916890802e-01,-4.062251111761477906e-02,-4.639814839879269348e-02,2.077155694380944146e-04,4.480011939505113353e-03,9.233802625930527183e-03,5.558037757873535156e-01
5.291336064734815103e-01,-3.862590936690388221e-02,-1.619840777469269688e-02,2.012600335081638891e-03,-3.430351368976131653e-03,-1.668908736532735606e-03,5.569346547126770020e-01
5.279425217437647699e-01,-3.896027966821935529e-02,-4.230036697352748676e-02,2.593381365926679654e-03,1.161915687789270108e-03,-5.891897052008434124e-04,5.686024427413940430e-01
5.314837577751846398e-01,-3.156120333620185403e-02,-3.551395959855779827e-02,2.925895616166264250e-03,-6.201863972198507630e-05,1.004663109343618354e-05,5.650544166564941406e-01
5.311075498476707235e-01,-4.010031239675082571e-02,-4.284709641730921614e-02,2.713190099923167269e-03,-7.898002838991455190e-04,6.113321803307222727e-04,5.726081132888793945e-01
5.314934442083594224e-01,-3.535487824205793550e-02,-4.282192981403157295e-02,-7.228633452182129781e-04,2.095208054153909101e-03,-1.690811130963602339e-03,5.706388950347900391e-01
5.156435896766806692e-01,-5.118166178231980945e-02,-3.353526859918887215e-02,-8.319483832833526882e-03,-1.430117573923852300e-03,2.792401757945025338e-04,5.584029555320739746e-01
5.339825113469431894e-01,-3.867871732625363657e-02,-4.719393759864781712e-02,-2.491631083523064213e-02,7.275321425133497374e-03,-7.364952191072763645e-03,5.788555145263671875e-01
5.331129312050000291e-01,-3.303167311497540171e-02,-3.332167169732030976e-02,4.053788311771702214e-03,-3.333472195328017734e-04,-1.206393883041102284e-04,5.663335323333740234e-01
5.647443300329360039e-01,-5.506012819873101760e-02,1.908388029226881777e-03,-1.653884340925156418e-02,-2.976433436832878580e-03,2.955413462441027622e-02,5.962895154953002930e-01
3.017244766266311551e-01,-5.580038778099608021e-02,-2.682177938003166284e-02,-1.488096415805016497e-02,6.674874115685293374e-02,2.616420552603550276e-02,3.665888905525207520e-01
3.760873099936288821e-01,-1.711954293293321827e-03,-2.324960702102916998e-02,1.660145825167060572e-03,2.941164519163982222e-02,6.470355185686706145e-03,3.925074040889739990e-01
4.794147709211077357e-01,-2.719983219973878819e-02,-4.655621840381393706e-02,-6.808944440356405354e-04,1.256109807548022594e-02,-8.086778122629171769e-03,5.172138810157775879e-01
2.481705245813211613e-01,1.445154321237096529e-03,9.207956802731981361e-03,-3.639778570591375995e-02,-1.874055424176070692e-03,-3.701578345969367377e-03,2.510865032672882080e-01
3.962808268426826208e-01,-2.424026475852635032e-02,-1.853548031056716228e-02,-3.069023915693530700e-04,-1.476226702942607175e-02,-1.154239152088137876e-02,4.189573824405670166e-01
4.370403353600322838e-01,-2.704613109047175612e-02,-3.726520431561426705e-02,-4.117654491504669942e-05,-1.866866981833153680e-02,-1.355899009617596469e-02,4.709780514240264893e-01
3.411998193117373179e-01,-8.011919962366692571e-04,-1.189159337793786742e-02,-1.895110246967633065e-04,-3.141250591468658371e-02,-8.066131113600211525e-03,3.521876633167266846e-01
3.556122969135321887e-01,-1.129380072043023597e-03,-1.846559536304495652e-02,-1.337798007258062666e-02,-7.151472112564532645e-04,-4.849571183366777928e-03,3.665497601032257080e-01
3.891061330666455431e-01,-3.322472160530817731e-03,-3.618641173646369724e-02,-8.538974601407720022e-03,-3.444906628703492402e-02,-2.876777140224274967e-03,4.144644439220428467e-01
5.374212215817810723e-01,-3.021826142867312104e-02,-3.720737105315785609e-02,3.418946368731299798e-03,-1.646049596043678426e-02,5.524103085661672893e-03,5.719879269599914551e-01
5.391575549485764229e-01,-8.836956910448695579e-03,-2.457773489758208196e-02,2.533524860935818836e-03,-4.294175050220092743e-03,1.704244763602305243e-02,5.568819642066955566e-01
5.336863196781229668e-01,-2.937030770793336298e-02,-1.916468036791557639e-02,2.164859868499526951e-03,-2.359050746316150820e-04,1.005773373430349574e-02,5.583084225654602051e-01
5.555676740232282640e-01,-1.832015000004977301e-02,-2.431577988852937078e-02,-6.825591627298998113e-03,-6.875267534095249808e-03,2.333387444927760568e-02,5.785663127899169922e-01
5.364240514581918307e-01,7.782296368166935485e-03,-3.789867238193608823e-02,-2.098974622511752194e-03,-3.678519816823087353e-03,8.664787411418170548e-03,5.531516671180725098e-01
5.286848153156423757e-01,-2.425176955809482671e-02,-3.074266220543916961e-02,3.667133177755629164e-03,4.004908261321211797e-03,4.932467404933821124e-03,5.563555359840393066e-01
5.310366423884296250e-01,1.468068231893171482e-02,-3.529274153823655502e-02,-1.025110759947452490e-03,-1.349669238189466153e-03,1.447854365460064970e-02,5.436565279960632324e-01
2.277219987406366442e-01,-4.919079716689886417e-02,1.514768526897158213e-02,-6.758411372500724990e-02,-3.491591118298074947e-02,9.592467227002543853e-03,2.839722335338592529e-01
3.234360918657830375e-01,-7.469298236248367306e-03,-2.691637400360970267e-02,-2.243530230834770225e-02,-6.552667855965974009e-02,-3.559498859105931275e-03,3.615812361240386963e-01
3.741534520017087972e-01,-2.904293928171287897e-02,-2.713170364850304994e-02,-2.752753654736215735e-02,-5.309635860379286615e-02,-6.276238910608834820e-03,4.155111610889434814e-01
2.708623428002760458e-01,-9.842186683170620065e-03,-4.955317490292460159e-03,-4.248813178980161143e-02,-7.301724501513881527e-02,-9.115403961600463539e-03,3.148121535778045654e-01
3.664381086549389765e-01,-1.268033774684554360e-02,-3.631118279564536644e-02,-3.991583954936447909e-02,-3.647191226843350675e-02,-1.420947062663101279e-02,4.032669663429260254e-01
2.867331861721744146e-01,1.036393376889802043e-02,8.824114981504260768e-03,-8.234461629142202088e-03,-2.705827601841534567e-03,1.019761470395160212e-03,2.775543034076690674e-01
2.335635202005023892e-01,-5.350115932012733388e-03,1.552722902128003679e-03,-1.796452080373498253e-02,-5.165359076953580236e-02,-6.492124874774062374e-03,2.541202306747436523e-01
1.398308727090106784e-01,2.054818005464193603e-02,-7.192844330653716534e-02,-6.360523735221167152e-02,-4.981071697167412105e-02,2.756473465761803687e-02,2.359465807676315308e-01
1.309412101687782437e-01,3.209540373888396247e-03,-1.869807630363228002e-03,-8.155718127238661963e-02,-3.693610068438048927e-02,-6.840503227765929763e-03,2.029233872890472412e-01
5.538143290883045244e-01,-5.626623452071552456e-02,2.371520837086982247e-02,2.128611914860415594e-03,9.941583051743765886e-03,1.736561522437524499e-02,5.753390192985534668e-01
5.411411213467687276e-01,-4.345756400173445000e-02,-4.424637480482762619e-02,6.206888763887628314e-03,1.686036814164238590e-02,-9.384186360473107183e-03,5.860460400581359863e-01
5.281000776772351024e-01,-3.288338976616805853e-02,-3.533908986633307880e-02,-3.427793082493745501e-03,8.080687325826228437e-03,-4.845479567936582938e-03,5.624834895133972168e-01
