sxx,syy,szz,sxy,sxz,syz,smises
1.025506663894761028e-01,-6.203837904370902434e-01,5.137542337497615907e-01,-9.264158742666972479e-02,-1.319608045271438990e-01,-3.029223706457205220e-02,1.034280896186828613e+00
2.340947293416133224e-02,-5.014296136743364718e-01,5.833813617256090600e-01,5.734382656394445416e-03,-5.876920723231779387e-02,1.715750091267520885e-02,9.456548094749450684e-01
1.102342792832222418e-01,-4.995645811650845092e-01,5.053332365737455145e-01,-5.218988353212361195e-03,-8.578350269705234399e-02,1.841974145894587078e-02,8.899801969528198242e-01
1.090367096819138265e-01,-7.907923816844613096e-01,6.348319792712527887e-01,-4.278404384776290231e-02,-9.619792651131864325e-02,-4.632792166262888339e-02,1.264504432678222656e+00
1.937583756152146952e-01,-5.279681028482753335e-01,4.226613875681019539e-01,-3.296743568214820230e-03,-2.436512794545555582e-01,1.726881697274600461e-02,9.578706026077270508e-01
2.335363539308903391e-01,-8.399598988093751606e-01,5.066697569007790891e-01,-6.358611301976975494e-02,-2.501924456225275706e-01,2.789609965616329096e-02,1.312423944473266602e+00
3.698108561307341113e-01,-4.358433416047049480e-01,3.682395605830771634e-01,3.563330741120932649e-02,1.368058987165101954e-03,4.915516566878400107e-02,8.117134571075439453e-01
3.539513647985169098e-01,-4.084665964052296427e-01,3.608585597588605531e-01,2.262764891633532727e-02,1.137511650712594649e-02,5.331917442812526831e-02,7.726888656616210938e-01
3.454863871902013606e-01,-3.968705466787414426e-01,3.741526480817749523e-01,6.237266833104598319e-03,1.494016147382850462e-02,2.157919364218407327e-02,7.585377097129821777e-01
3.676694803116274946e-01,-4.132299063517522741e-01,3.643779533324301712e-01,-2.605475739841005625e-03,1.038713311468637476e-02,9.814905873898577271e-03,7.796649336814880371e-01
3.630673802150999330e-01,-4.158550594121792621e-01,3.616142616588529091e-01,-1.726691538983144911e-02,5.288977109528115138e-03,-2.037115204777158867e-05,7.788252234458923340e-01
3.710239981505166207e-01,-4.496119411008139277e-01,3.636244908674565735e-01,1.133327311883485303e-02,1.087446460102796733e-02,1.345864597422427762e-02,8.177464604377746582e-01
3.516086940286305973e-01,-3.948068480195705554e-01,3.603797338709009423e-01,-1.644542993565726360e-03,4.612344019660906576e-03,8.076609708618235489e-03,7.510176897048950195e-01
3.589550253190388895e-01,-4.149557740469926870e-01,3.600478656065775329e-01,-1.069809065100753472e-02,-7.065094660149264308e-03,-2.082440106807367710e-03,7.747845053672790527e-01
3.432286515116547698e-01,-4.535492477691268620e-01,3.193746664473375296e-01,7.554689449151908223e-03,-2.435060936012078264e-02,8.814149205591141623e-03,7.865118384361267090e-01
3.485458402609368789e-01,-4.202536665233669311e-01,3.491720946065062781e-01,-2.058017908675917676e-02,1.832810473715541094e-02,6.205762093636951575e-03,7.706675529479980469e-01
3.475224257965086050e-01,-3.844146148733580959e-01,3.598465304481331950e-01,5.810366274230653914e-05,4.533580485039165461e-04,-1.742923469195302097e-02,7.387937307357788086e-01
3.393189568229580400e-01,-4.566785823454272419e-01,3.642382380231379280e-01,-4.310671204552746216e-02,1.729125282278416026e-02,5.910702405472327038e-03,8.128007650375366211e-01
3.521422779666578129e-01,-4.125853434003443621e-01,3.590738402741583402e-01,-1.162043706868538979e-02,-1.397283787084718180e-03,-4.114182507564693482e-03,7.685173153877258301e-01
3.725086650842586167e-01,-3.990200709948408253e-01,3.640302825431581124e-01,1.827356772163986429e-03,2.200074595507802572e-02,2.538482856003000665e-02,7.695339322090148926e-01
3.669295031969786458e-01,-4.742349274187021013e-01,3.645324335644831715e-01,-1.490565741401503677e-03,-1.319672643756196169e-03,-1.421818167600621139e-03,8.399791717529296875e-01
3.481254904156121932e-01,-4.368249682435431103e-01,3.717677223816636678e-01,-2.043503866183337542e-02,1.702118456877382488e-02,-5.020406273533850779e-03,7.984119653701782227e-01
3.171236307003622024e-01,-4.516984637506394895e-01,3.647604404307907000e-01,-5.557927653615290370e-02,5.853197215478110615e-02,5.407156479629154217e-02,8.113551735877990723e-01
3.526870679613239856e-01,-4.339026873237042947e-01,3.636036176659506736e-01,-7.616825511750685909e-03,-6.068337546763443585e-03,-8.668124143002163204e-04,7.922854423522949219e-01
3.707494475236509657e-01,-4.508768471368974629e-01,3.638222926078085173e-01,-1.021073934772792624e-02,-2.589958638032652596e-03,1.393554348086733542e-02,8.187440037727355957e-01
3.499489659256037055e-01,-3.987227488842685075e-01,3.618429759811285229e-01,-2.059063128359471875e-02,-9.944928654966747952e-03,2.359964229314873499e-02,7.568321824073791504e-01
3.552905151161517838e-01,-4.360209157047153505e-01,3.555397437375226177e-01,-7.128224620682172170e-03,3.583173372839190338e-03,1.371495740945070235e-02,7.919130921363830566e-01
3.663983667099537933e-01,-4.096413890202038610e-01,3.538348569975086066e-01,-1.828560543520799803e-02,-1.714791658878198760e-03,2.936740328839286193e-02,7.721690535545349121e-01
3.659229411889236561e-01,-4.038189450337068553e-01,3.623290522021713755e-01,-2.168430002899681894e-02,2.703900019928283383e-03,1.614503494820932611e-02,7.693917751312255859e-01
3.386649493805385935e-01,-4.494418666003215934e-01,3.010114985455407122e-01,-1.900407855572392021e-03,9.189637253301902176e-02,1.156202399728635533e-02,7.865124940872192383e-01
3.086280899527311661e-01,-4.697285966366419041e-01,2.691177054073755626e-01,1.377193650484512776e-02,1.472589919786293222e-01,-8.876764696104665758e-03,8.015660047531127930e-01
2.714863125200455141e-01,-4.669615470231408549e-01,3.619698820183285259e-01,-5.872859987029665704e-03,9.148828099159606042e-02,1.314872579315303110e-03,8.034481406211853027e-01
3.144357798799718440e-01,-4.641416028225805457e-01,3.972121546347434640e-01,-8.015872693653679909e-03,-1.416202909473437185e-03,7.582645598194132086e-03,8.233187198638916016e-01
2.615223383743123797e-01,-4.513828543750658673e-01,3.913543354323055778e-01,1.376325272212920031e-03,3.767756689973632278e-02,5.777682843083112134e-03,7.886778116226196289e-01
2.562123584527113973e-01,-4.702697749323329068e-01,3.677608485605141087e-01,-1.553815060398845878e-02,1.329748981704442778e-01,7.804041650194495743e-03,8.217124342918395996e-01
3.483739346254847713e-01,-4.855550303256496170e-01,2.644513635073187929e-01,5.969045728608365561e-03,1.362010343244836053e-01,-1.105592025663420727e-02,8.298317790031433105e-01
2.363985525135045285e-01,-5.002638931832175118e-01,3.904912096543905475e-01,-3.985278858207753211e-03,8.237700313053805679e-02,-4.618826284449918836e-03,8.368989825248718262e-01
3.210797822419203529e-01,-4.848752072008595260e-01,3.102262830604172739e-01,5.117541244719428506e-03,1.875510062534340161e-01,-6.962016383185797887e-03,8.641087412834167480e-01
3.632749576491036692e-01,-4.328873882754915581e-01,3.613261111953370852e-01,3.516412418827261186e-04,1.533699208205048221e-04,-1.287764278742857017e-02,7.955027222633361816e-01
3.637237229335270605e-01,-4.590396637292998294e-01,3.722752732170032663e-01,1.424219020050148179e-03,1.343305682126859921e-04,1.987609083295745725e-03,8.270831704139709473e-01
3.719521294240500930e-01,-4.640476476204584699e-01,3.414504394952555533e-01,3.537863281412903429e-03,5.700985465479980509e-04,1.105513037457148476e-02,8.214205503463745117e-01
2.772479756541141871e-01,-4.752468279847824606e-01,4.278906916906966007e-01,-2.364980734346313826e-02,-3.877500780976891187e-02,-1.156491660730329767e-02,8.419556021690368652e-01
4.443558517656145401e-01,-4.653027306333222812e-01,1.472901353907530853e-01,-4.298027431983535152e-03,4.475900169292713199e-02,6.528045696110787617e-03,8.072742819786071777e-01
3.293096940920441917e-01,-4.852380284662650700e-01,4.473593412960037985e-01,2.469531326552106693e-02,-7.121970366101592655e-04,-7.132304166595377151e-03,8.806613683700561523e-01
3.409661244679249581e-01,-4.635810116285097315e-01,3.447508341168610269e-01,9.253899711489086723e-04,8.592766646118128130e-04,-6.293066300806198464e-03,8.065227866172790527e-01
1.207202644125111857e-01,-4.301715563838721668e-01,5.727744672729588871e-01,1.507542200500189278e-02,-9.105705865221175310e-02,-2.275447968161799228e-02,8.854247927665710449e-01
2.072419282650912464e-01,-3.983545127670929387e-01,4.405004259988926640e-01,1.993352359412777636e-02,-6.302487065285297674e-02,-3.428361953938878492e-02,7.609544396400451660e-01
3.425757099176015563e-01,-2.509292111013812776e-01,3.462823764806415294e-01,-1.410454134613679149e-03,5.029871594375971179e-03,7.385260983146720026e-02,6.090207099914550781e-01
3.360097348506776438e-01,-3.476735740833993837e-01,3.526141717243453932e-01,2.415862952765053008e-03,-7.187650337276049392e-03,6.713251638765958818e-02,7.019569873809814453e-01
3.620624268001807478e-01,-3.988239019543793340e-01,3.659131464251692556e-01,-2.791113686376860484e-02,-9.199727530459275021e-04,5.204488355903579694e-02,7.696482539176940918e-01
3.453020645191319238e-01,-2.899745493373249716e-01,3.420335833378205792e-01,-1.337465332543626498e-02,7.523440091936851523e-03,4.632099614401238158e-02,6.392605304718017578e-01
3.533845974444315696e-01,-3.359530657467422188e-01,3.551439446342440909e-01,-3.359422560834171567e-02,-4.054163750714443251e-03,4.669945512036322022e-02,6.974093914031982422e-01
3.514936780159262364e-01,-3.429284506559494572e-01,3.553846225987854490e-01,-4.023207428374778183e-02,-1.492047548617662575e-02,4.065740556430236241e-02,7.038621902465820312e-01
3.536670966423386409e-01,-3.641246052133895739e-01,3.533826954527445885e-01,7.185116679415627129e-03,-2.601640163066644071e-03,6.553911006597333555e-02,7.266926169395446777e-01
3.739820922201641529e-01,-4.655268456903521868e-01,3.213508282597658527e-01,-1.686736020161290267e-03,2.107497177922642087e-02,2.416908066603555214e-02,8.163665533065795898e-01
3.913185731098103304e-01,-4.528460179724800305e-01,3.245150068692249645e-01,5.461250604094497474e-03,2.004399895249019126e-02,1.180719037613541661e-02,8.138773441314697266e-01
3.913815782480442040e-01,-4.719044891433806788e-01,3.453376317778685256e-01,6.383259006945176707e-03,2.157879789415346680e-02,-8.847373523185170924e-03,8.422515988349914551e-01
4.095908720169589290e-01,-4.520790236580215504e-01,2.530531297131081159e-01,-2.443867022923756384e-03,2.881499751700964534e-02,-1.698577332362499748e-02,7.971634864807128906e-01
3.139316078552591427e-01,-2.088309772999223934e-01,3.307766905202995100e-01,-2.262400761111483041e-02,1.080460948487677909e-02,-3.299878304851321283e-03,5.331874489784240723e-01
3.730488609764259222e-01,-4.794385882024508883e-01,3.400138958054650384e-01,2.772820895023923090e-03,2.100721569583066661e-02,4.354444455372112263e-03,8.372980952262878418e-01
3.920986271509732668e-01,-4.980698775021044078e-01,2.524373117620795082e-01,1.490596297566509909e-02,7.283156924745841365e-02,-3.934623165020544044e-02,8.419070243835449219e-01
3.347062119476649777e-01,-4.609049407363776663e-01,3.591514635041238024e-01,-6.299441225901722917e-04,3.909655826046279370e-02,1.118711647962041499e-02,8.111755847930908203e-01
3.390837721712867125e-01,-3.307794524626391230e-01,3.587257579678254649e-01,-1.613896554168190584e-02,5.609943957014492874e-03,-2.551154888150005545e-02,6.819738149642944336e-01
3.564469177958146662e-01,-4.620772856342956203e-01,3.387312622655351824e-01,-1.093210126495541314e-02,3.383229518016992593e-02,2.235849327205810880e-03,8.121591210365295410e-01
3.343108428859120629e-01,-4.661233657322861879e-01,3.160784967896153042e-01,1.609935884452189797e-02,6.965763896735201188e-02,-8.444425134649529568e-03,8.012375235557556152e-01
3.717515165840807323e-01,-4.327863690452661283e-01,3.579753808849185370e-01,-5.046708321966030669e-03,5.382966221878890574e-03,-1.342968208935745207e-02,7.981804013252258301e-01
3.563881127300737028e-01,-4.718919428135697203e-01,3.661625860436236723e-01,2.047922525891890388e-02,2.185057997652125814e-02,-7.122952364677029996e-03,8.349144458770751953e-01
3.571414859499436045e-01,-4.675652647845406351e-01,3.453744738812698500e-01,-2.218788775256578735e-02,3.011037874082359012e-02,1.337275465794803171e-02,8.217716813087463379e-01
3.465573872053401283e-01,-4.754190128716272445e-01,3.404656707376232383e-01,-6.063080501219622435e-03,4.692845572178715174e-02,1.564993183016031089e-02,8.234846591949462891e-01
2.686271052092580325e-01,-4.237649913396013268e-01,4.544290052755631248e-01,-9.540478432685765495e-03,1.587719978488227966e-03,-1.448980024827990244e-02,8.021766543388366699e-01
3.421880199237347653e-01,-4.307056194024965201e-01,3.895438597679854453e-01,-1.261118141088425799e-02,-2.798062065941429866e-02,4.075653201550244855e-04,7.993963956832885742e-01
3.644855898069049305e-01,-4.691777638135873341e-01,3.749490620780191463e-01,-2.479485703457649359e-03,-1.683508917962562960e-03,2.122119488759325549e-03,8.389681577682495117e-01
3.821498170095284919e-01,-4.141869991906286241e-01,3.609095405074680407e-01,-4.021755761004224689e-02,9.904928227245108491e-03,-1.978428639708765084e-03,7.892068624496459961e-01
3.743252281586977315e-01,-4.254419816012982025e-01,3.566171197194355491e-01,-2.974022516612382164e-02,-3.724599856669077134e-03,1.392755176930907460e-02,7.931303977966308594e-01
3.297664691918872348e-01,-4.136264419028599093e-01,3.672158637693873073e-01,-2.561429473303773047e-02,-2.630450567664574524e-03,-1.349161653153662212e-03,7.641136050224304199e-01
3.271925938605801942e-01,-4.090286389847046511e-01,3.800371218149022345e-01,-2.640322885215110743e-02,-3.290214966377066549e-03,6.490213146362597274e-03,7.654865980148315430e-01
3.330660520769782584e-01,-4.980327153220575065e-01,3.927643157565413046e-01,7.393889646196729649e-03,-1.084620459942178860e-03,1.368417806846321336e-03,8.625991940498352051e-01
3.240882826846268050e-01,-4.352039355176136048e-01,3.954410020947063953e-01,-1.196191273325955019e-02,3.175949584488729945e-03,-2.777046363322284439e-02,7.991036176681518555e-01
3.958891617591054901e-01,-4.881519062831557454e-01,3.064646948784092162e-01,-1.102715651929079763e-02,2.191089944687963156e-02,3.176692278533070624e-02,8.457558155059814453e-01
3.667421007543519296e-01,-4.473564803283046620e-01,3.383050808026440981e-01,7.060555145716745787e-04,8.210479213618854938e-03,-6.690418562856109003e-03,8.004702925682067871e-01
3.696988681319871572e-01,-4.355144795313907746e-01,3.375092406285873925e-01,-6.867492745153141662e-03,5.080066497825273461e-03,-2.406782008819018971e-03,7.897604107856750488e-01
3.742267141977037581e-01,-3.823388384801778561e-01,3.319956827393133469e-01,2.623888056057910659e-02,2.122857811970692982e-02,7.335021759463456262e-04,7.386767864227294922e-01
3.826689147327747009e-01,-4.499320596402338612e-01,3.298901611516490417e-01,-6.715994003702206380e-03,1.172880115556173761e-02,1.104399700997959338e-02,8.080719113349914551e-01
3.660719424738619332e-01,-4.502078455456234307e-01,3.703060458793137610e-01,-5.216119809182649669e-04,-8.961761215444131665e-03,-1.810023645332732925e-02,8.191528916358947754e-01
3.409473118404117153e-01,-4.534281061519428446e-01,3.335035512416700820e-01,1.293840982995197271e-03,3.776353789346826272e-03,-5.677505980393346592e-03,7.907711863517761230e-01
3.626953775421860038e-01,-4.178376710763458401e-01,3.644296151586982058e-01,1.944130375043450973e-02,-8.402158261897062913e-03,-4.237059414178864780e-02,7.856971025466918945e-01
4.115296507592056674e-01,-4.798711833219290179e-01,2.203867556310584730e-01,-1.579871594652883845e-03,-9.060379932339243658e-02,-1.274378359673802516e-03,8.278802037239074707e-01
4.181334532921919256e-01,-5.168208046921467513e-01,2.157118298453540861e-01,2.630640283417427089e-02,-7.601316168430302667e-02,5.282539618125599301e-02,8.681247830390930176e-01
4.202992355371546473e-01,-4.718150113144611302e-01,2.545563112069317291e-01,1.239686419193370553e-02,-7.752643695765704113e-02,2.379669674837379609e-03,8.330582380294799805e-01
3.668988695394357347e-01,-4.741430530949775068e-01,3.667817482306016674e-01,-2.024800131403031462e-03,-3.087647701987322225e-03,1.708675502366502124e-03,8.410128951072692871e-01
3.823231197378192392e-01,-4.709705085931770174e-01,2.597523111925049699e-01,1.487972973842352498e-02,-7.642620502039275399e-02,1.179860186084774349e-03,8.103924989700317383e-01
3.732487382321218461e-01,-4.493491012131600737e-01,2.528658592028281138e-01,1.590315329000505096e-02,-6.379881139815640756e-02,2.640329764414574981e-02,7.792262434959411621e-01
4.141131541689566098e-01,-4.672451921623694826e-01,1.779643929441323824e-01,1.000653170239803810e-02,-8.696840257481358583e-02,3.643489037761658139e-02,8.070938587188720703e-01
3.668324850686754401e-01,-4.625994546591921663e-01,2.231234544799380881e-01,7.677749775672507333e-03,1.157143933515920042e-01,-2.171810684258830559e-02,7.944646477699279785e-01
2.992188927836783030e-01,-4.651417174623890816e-01,2.751252806025747399e-01,1.874056934213137737e-02,1.464023401770242483e-01,-2.254665475305537431e-02,7.957958579063415527e-01
3.469888559662567262e-01,-5.003570704525237556e-01,3.626910145001300267e-01,1.009949739326776452e-02,5.202235530982048106e-02,-1.965052380491372208e-02,8.608891963958740234e-01
3.830102364561950301e-01,-4.686098645580966116e-01,2.902590165513430076e-01,1.412284464334111547e-02,6.140475533538250485e-02,-2.335114210318914307e-02,8.175674676895141602e-01
3.377544473247861001e-01,-4.549269284409321878e-01,3.295351892147131978e-01,-1.732339115093587496e-03,7.782355923390903152e-02,1.437042048344065216e-03,8.000504970550537109e-01
3.724562665853042298e-01,-4.671494383379568571e-01,3.505621518644801982e-01,-4.296791590659158194e-03,-1.498886898367590009e-03,2.924877021136318162e-03,8.289285302162170410e-01
3.496374765592111244e-01,-4.663980243454759478e-01,3.655485627237160529e-01,-8.937363031307482900e-03,1.000542641211487867e-03,-2.074679090669933213e-03,8.242613077163696289e-01
3.509320310292098899e-01,-4.664939496028673860e-01,3.489899422538996210e-01,-1.014146059650737446e-02,8.767248181312485913e-03,1.439865614682259327e-02,8.171674013137817383e-01
3.432039893778300876e-01,-4.629539111621403524e-01,3.419279776468944765e-01,-2.547351178458702459e-03,1.919342822028721751e-02,9.374402752322250282e-04,8.062200546264648438e-01
3.351410860966599348e-01,-2.790457537926540610e-01,3.453197827217884264e-01,-5.021789177551587435e-02,-1.229368018030984645e-02,-7.651508517422363209e-02,6.396587491035461426e-01
3.424316630882808798e-01,-4.578127086290768588e-01,3.162065275503761486e-01,-1.360393969978800424e-02,5.666015981851828254e-02,2.444843703405475202e-02,7.950294017791748047e-01
4.028355624882620778e-01,-4.653870781688660418e-01,2.846287377625421611e-01,-1.332841755631468394e-02,3.532831609203191531e-02,-9.526422613342175327e-03,8.183538317680358887e-01
3.785392033973958847e-01,-4.596995163025663356e-01,3.332934101469267052e-01,-3.038749649884662889e-03,9.186876809782687156e-03,1.638966992608058629e-02,8.172217011451721191e-01
3.877712745657709847e-01,-4.577423973078572628e-01,3.339445984121223177e-01,5.793254060382161362e-03,1.686544370325352912e-02,1.290555215565244301e-02,8.208125233650207520e-01
3.850080612204693220e-01,-4.836537150125100881e-01,3.384311651542526445e-01,-7.400424022115541234e-03,9.791184589140468700e-03,7.749642635667945310e-04,8.466030955314636230e-01
3.879737612332927466e-01,-4.706457881769378071e-01,2.925841287185659834e-01,-1.835163928129856376e-02,-1.055648536361336043e-01,-8.295498169460187310e-03,8.361052274703979492e-01
3.710640506438160346e-01,-4.614514067007674525e-01,3.251676455935880172e-01,1.418531763839937787e-02,2.424116533398177481e-02,-1.484257177787058407e-03,8.120050430297851562e-01
3.753353898345098694e-01,-4.794272430521583361e-01,3.221335703928948080e-01,2.013662241960770607e-02,2.371456925121942505e-02,-1.807641673283959943e-02,8.317803144454956055e-01
3.795858856040607021e-01,-4.885901845618229045e-01,3.388526162732363733e-01,6.415676637297414858e-03,1.424862060242193529e-02,-4.666260874890830771e-04,8.489749431610107422e-01
3.762720243822191279e-01,-4.693735916337448133e-01,3.640891272390516797e-01,2.169317169720875408e-03,-2.290351905565395172e-03,1.399257470905142893e-04,8.396382927894592285e-01
3.145468893615697703e-01,-3.596653304812119090e-01,3.657792037992385059e-01,-3.942802956328634451e-02,8.147735797920024892e-03,-9.491833438592929204e-03,7.048839926719665527e-01
3.515252065572787021e-01,-3.578345197940916433e-01,3.564831609098907950e-01,-4.256682380942102689e-02,1.674767583686575818e-03,-6.718580284212237116e-03,7.157600522041320801e-01
3.668921460257835165e-01,-4.265011792493084153e-01,3.617063273353784969e-01,-6.505037995057272662e-03,3.981567512379428041e-03,2.265794570135437787e-03,7.909332513809204102e-01
3.580442648809701867e-01,-3.674145296972512464e-01,3.539746265819337934e-01,-4.057027419986961730e-02,-6.297468362140080152e-04,8.380394203145747831e-03,7.269830703735351562e-01
3.554518437586598467e-01,-3.617272148843585500e-01,3.422382579512818213e-01,-4.360406696816136740e-02,5.603803134605407632e-03,3.363060876431419048e-04,7.147324085235595703e-01
3.579681522187364573e-01,-4.301590275248012851e-01,3.600936781601295489e-01,-1.088978741833086794e-02,-1.298537891600275163e-03,-4.412759060618364100e-03,7.894576787948608398e-01
3.978504688285713908e-01,-4.724651474021687170e-01,2.836448009139197479e-01,-8.193913061644514731e-03,-2.258124737556232997e-02,4.919240067369331539e-03,8.203054070472717285e-01
3.341332987298605284e-01,-3.126321562945374444e-01,3.332942154982250771e-01,-4.260425937367209002e-03,-1.252779592844416312e-02,5.093831530399208114e-03,6.468127369880676270e-01
4.096741269663789486e-01,-4.805680356946905318e-01,2.945819467111650547e-01,-1.878134466878949443e-02,-2.032488867422269085e-02,-6.533466478825356027e-02,8.475970625877380371e-01
3.687727402960835343e-01,-4.294021780010639500e-01,3.367933678268851261e-01,3.022298728906808694e-03,1.942651119534742881e-03,-5.619939535483754571e-03,7.827606201171875000e-01
3.794997550449808466e-01,-4.655063131607852789e-01,3.681691708926188022e-01,2.548070648185799675e-03,3.514868052544245849e-03,4.820550149881237464e-03,8.394733071327209473e-01
3.837422483284911312e-01,-4.292852711821842915e-01,3.261747876625145093e-01,-8.892972569199767904e-03,-2.262788988058929440e-04,-1.534125115060898424e-03,7.859823703765869141e-01
3.840917770745905790e-01,-4.710692449260294179e-01,3.408456521517716498e-01,2.182741487038099715e-03,1.064511873276820404e-03,-7.326552590827776525e-03,8.344860076904296875e-01
3.567813801181625166e-01,-4.353632969765021121e-01,3.398398293947003657e-01,-5.088472861888780618e-02,-1.956804435733693059e-02,-6.390532565128898002e-02,7.972002029418945312e-01
4.080133584433534577e-01,-4.983062552687791413e-01,1.657497737740940558e-01,4.390392829255852780e-02,-1.850779594677879336e-01,4.015847816494942657e-02,8.797277808189392090e-01
3.606952501202925765e-01,-4.064400441163636968e-01,3.334539647199480372e-01,-8.550376079519981035e-03,-5.614877442940987597e-03,-6.163937230924895760e-02,7.616121172904968262e-01
3.244103815310256378e-01,-4.617163701980064872e-01,3.555425529763370784e-01,-9.071969611316926807e-03,-2.434573021235270085e-02,-5.846555755332214985e-03,8.034711480140686035e-01
3.286972478265512421e-01,-4.769817520570818203e-01,3.716582150906598825e-01,-6.012756429741535937e-03,-1.424826350864915117e-02,-8.086894848552917889e-03,8.285473585128784180e-01
3.321389166347616939e-01,-1.311955480554906073e-01,4.821590104530973364e-01,5.986981636959134989e-02,1.441212887440458112e-01,-4.701329490962126434e-02,6.216036677360534668e-01
3.663191385937181743e-01,-4.672260313333659321e-01,3.675440536778614153e-01,5.522855229728047474e-03,-6.787999874317718341e-03,-3.135998319447467261e-03,8.343136906623840332e-01
3.589975922063390890e-01,-4.727681446693318135e-01,3.647685781404583771e-01,-1.725902887076156099e-03,-1.739505348888961147e-04,-2.562564370964908345e-03,8.346834182739257812e-01
3.621575856706361618e-01,-4.686729859059373116e-01,3.611808378918112128e-01,9.418961136154854752e-03,-1.790339560309119147e-03,-9.755148017045337308e-03,8.306805491447448730e-01
4.704020496768940851e-01,-1.498234701622968568e-01,1.641026299161147950e-01,6.767513731265244192e-02,3.788953428995905232e-02,5.211119525608737257e-02,5.609970092773437500e-01
3.684566535267067011e-01,-4.668892276024109167e-01,3.613145531497811702e-01,4.478423126435497961e-03,-7.865226054766022781e-03,-1.436406428303122287e-04,8.319455981254577637e-01
3.653848565982205088e-01,-4.641266630300129314e-01,3.596116651817222176e-01,1.303226364933057508e-03,-2.575058484286880858e-03,1.300633611565224067e-03,8.266582489013671875e-01
3.352639873712173202e-01,-4.533958701407196923e-01,3.414566375201825155e-01,-2.759370770317653770e-04,-2.849103241594867775e-03,-1.744057324239193900e-03,7.917956113815307617e-01
3.669007205104315994e-01,-4.702969041762132818e-01,3.655983246886103655e-01,6.783474590483123609e-03,-5.001206205545928596e-03,-4.098261033368237605e-03,8.367046713829040527e-01
3.639550572047988153e-01,-4.559040117114192547e-01,3.646233134570837087e-01,8.601414200738491736e-03,-4.587742907748763865e-03,-3.348891684330614418e-03,8.203876614570617676e-01
3.656445158410904783e-01,-4.699263874354763226e-01,3.671870948343519125e-01,5.011554015198311889e-03,-5.215214801676515237e-03,-2.323826180568412843e-03,8.364467620849609375e-01
3.574258454390375483e-01,-4.695983960458003370e-01,3.512132173784847100e-01,9.593069121966836879e-03,7.443959022863657141e-03,-8.621322895734778724e-03,8.243391513824462891e-01
3.627071576391825980e-01,-4.699839020294684921e-01,3.614379655624174181e-01,6.127168501801638113e-03,-2.466946189563958090e-03,-3.410752767672914788e-03,8.321567773818969727e-01
3.663601479995525212e-01,-4.692774011215570251e-01,3.628632871743011634e-01,3.056373799275338005e-03,-2.247280389093169947e-03,3.514572153123644610e-04,8.339207172393798828e-01
3.612185604179904974e-01,-4.723730986295338052e-01,3.657939566145504418e-01,2.125736000461034888e-03,-3.570281699042461739e-03,2.540812273425814690e-04,8.359198570251464844e-01
3.671948199570077565e-01,-4.724479199903947046e-01,3.658198341220701422e-01,3.229565716879698178e-03,-6.286068319250248324e-03,-5.424078811510415869e-03,8.390979766845703125e-01
3.958800342384377613e-01,-4.583301267792915246e-01,3.674394471849024013e-01,-4.186875940803139011e-03,8.339449310860298087e-03,2.410037848198160609e-02,8.415422439575195312e-01
3.481620587414513412e-01,-3.468681548058376030e-01,3.603436045167970336e-01,-1.970007037424436822e-02,-3.597242056962242363e-02,-2.802917408876788238e-02,7.064595818519592285e-01
3.570530640100537112e-01,-4.094462122157659367e-01,3.519385992023488230e-01,-8.558411609443520099e-03,-6.773366763368855389e-03,-5.467408301309480828e-03,7.642474174499511719e-01
3.681334567001227631e-01,-4.719853729763889838e-01,3.653424709879559695e-01,-1.556698407309124559e-02,-4.743581705677431606e-03,-1.843786124559180714e-02,8.398077487945556641e-01
3.650546876152784836e-01,-4.614507006153409918e-01,3.861567609519741540e-01,-2.629828876059556175e-02,4.548600923713871751e-03,-1.147648600898745243e-02,8.387666344642639160e-01
3.207927226709993973e-01,-3.489184205028769137e-01,3.561438382465546004e-01,-3.389199305422553599e-02,-8.348744622052631584e-03,-5.545262524211188801e-03,6.907858848571777344e-01
3.721380618194490841e-01,-4.747513330988479829e-01,3.715435169203218368e-01,6.221183985996329643e-03,6.641776094896377491e-03,-1.362165140539897332e-02,8.470676541328430176e-01
3.650012538723027555e-01,-4.106122350524197273e-01,3.590355103953954963e-01,-1.709319472788455680e-03,2.775999582698967551e-03,4.342279076991725274e-04,7.726688981056213379e-01
3.712018795287532202e-01,-4.445049714849840239e-01,3.684396682612118834e-01,2.080994961314325958e-02,-1.858630555629485568e-03,-2.008650990965402464e-02,8.158750534057617188e-01
2.646733675382238471e-01,-4.372324539923319042e-01,3.967173282768616804e-01,2.751360291815581338e-02,4.104593134254668624e-02,-1.321782714844144807e-02,7.814341187477111816e-01
3.684921355243642727e-01,-4.266207189729360749e-01,3.655031044469080337e-01,2.034501885164560070e-02,-6.392697164326976642e-03,6.132061273345306525e-04,7.944824099540710449e-01
3.309617505030877926e-01,-4.923584578763769981e-01,3.980453482305285062e-01,3.205763187454283708e-02,5.637012393675029480e-03,-4.548878354685618325e-02,8.642764091491699219e-01
3.574561702042285960e-01,-4.735788286689949222e-01,3.865616854291670235e-01,1.595899676261284053e-02,2.118985543954080356e-02,-7.516838690648008046e-03,8.473102450370788574e-01
3.377484434425650495e-01,-1.969483932325593600e-01,2.994028279521693259e-01,-2.430320845995566359e-02,7.933338440494459853e-02,1.048319151085369827e-01,5.661186575889587402e-01
2.978751821855377679e-01,-3.574037214652129868e-01,3.814568706210794136e-01,3.431227379498480445e-02,1.964392760115840630e-02,-1.133303001040302134e-02,7.044292688369750977e-01
4.375770519706801420e-01,-4.601216958937220936e-01,2.940371530533459898e-01,-1.382617244264153222e-02,-1.364050952345009088e-02,3.321190502024869151e-02,8.378853797912597656e-01
4.547978620025431851e-01,-5.196674592867515097e-01,3.186733425736740788e-01,5.318913191998828277e-04,3.077786027264130080e-03,6.219640188144805182e-02,9.203794598579406738e-01
3.964988518048273569e-01,-4.786298802955885057e-01,3.277501914213622469e-01,4.391728550365017140e-04,7.547821626696646965e-04,-5.478638741884505302e-03,8.429146409034729004e-01
3.971678143595634980e-01,-4.317370877672375151e-01,2.740132104880289576e-01,-6.244036241888182778e-03,4.860145590188976426e-03,-6.431926963672096684e-04,7.748264074325561523e-01
4.319186688889423698e-01,-4.618176652066625643e-01,2.734448885661981965e-01,3.216090164353267982e-03,3.640866127845171496e-03,-5.466781268502009239e-03,8.260782361030578613e-01
3.980215900321031897e-01,-4.709009599027789150e-01,3.178366425413723939e-01,-7.581516939550432196e-03,-4.763039372840588426e-03,6.069999401910389225e-02,8.384959697723388672e-01
4.297508388462861206e-01,-4.491362189940614202e-01,2.712588094883068290e-01,9.966189792722372418e-03,6.253670036097095167e-03,-6.144679826986965132e-03,8.116613626480102539e-01
4.374809321031564169e-01,-5.298056129444211892e-01,3.107831980526211124e-01,-3.995084818737618809e-03,5.307665178856371159e-03,8.336179316681525953e-02,9.220209121704101562e-01
3.644773605392472859e-01,-4.547140265414089111e-01,3.609140581764009870e-01,5.362830396864282610e-03,-1.220717691047059489e-03,-1.236218843063537076e-02,8.177514672279357910e-01
3.578397954589248031e-01,-4.181171126259419779e-01,3.649770081943316535e-01,1.521804585795294429e-02,6.567976151608624635e-03,6.724086462412921968e-03,7.801653742790222168e-01
3.688795820053981656e-01,-4.615754420954478743e-01,3.503429540540726750e-01,-7.979367080895685346e-03,1.157189042198565913e-03,1.216522018249032973e-03,8.214650154113769531e-01
3.710868647353310901e-01,-4.678491638854296308e-01,3.661175187333967074e-01,-6.591345300441672599e-03,1.086120086767155407e-02,5.660187467372437310e-03,8.368092775344848633e-01
3.672106006626732477e-01,-4.552538209312650963e-01,3.563565517152117446e-01,-9.511295701976223149e-03,-8.509676355597092443e-04,7.729585818043099160e-03,8.173685073852539062e-01
3.540664826733282977e-01,-4.813353620790800091e-01,3.673653308536078410e-01,-9.189588026781978815e-04,8.734141184480955639e-03,-1.412321551386375856e-02,8.426225781440734863e-01
3.340447895093302533e-01,-4.535054318941847962e-01,3.390737668910818736e-01,7.246200296394683269e-04,9.412157997376709856e-03,-4.536101177393613536e-03,7.902849316596984863e-01
3.416370050494317301e-01,-4.585757549074381823e-01,3.435891370717139570e-01,3.852821778999406845e-03,-4.461925286057084536e-04,4.986985647667629799e-03,8.012653589248657227e-01
3.759673553958315373e-01,-4.572928798245990967e-01,3.518731498985574468e-01,1.783322833310916960e-03,1.549891325013980428e-02,-1.862661474728567745e-02,8.225554227828979492e-01
3.659466790419421134e-01,-4.973591107413039003e-01,3.705422954462703200e-01,1.103244472153149663e-02,-2.884976666614096769e-02,1.421300224232264868e-02,8.676136732101440430e-01
3.412924458069125921e-01,-4.653252089114952028e-01,3.176802457835276594e-01,6.799684473386239346e-03,-5.240146855713344320e-02,7.100014709705092415e-03,8.004193902015686035e-01
3.638929808903366148e-01,-4.690710057014649825e-01,3.162583254726308857e-01,1.713860683743495886e-02,-5.796367507695356081e-02,4.970417211635019816e-03,8.169790506362915039e-01
3.642299609266745342e-01,-4.686231482115830183e-01,3.237361652082370589e-01,1.412023201727584214e-02,-3.107543898539438798e-02,1.903502692348763015e-02,8.161745071411132812e-01
3.641790665736471810e-01,-4.673941929263710771e-01,3.412494608440065358e-01,1.060010725638781126e-02,-2.051198250130442657e-02,-4.085391639823977286e-06,8.213230371475219727e-01
2.875546529388728345e-01,-4.729463686023506197e-01,3.767034119530117131e-01,-1.758834207220213997e-02,-7.204827225246997202e-02,-9.187582000915362965e-03,8.190611600875854492e-01
2.772300090236233805e-01,-4.767612110635492950e-01,3.890029704623866880e-01,-5.694467755221826848e-03,-4.936235433322633259e-02,-1.045822489555882188e-02,8.203701376914978027e-01
3.527260127536792633e-01,-5.585859360331665302e-01,2.955609324590278142e-01,-2.010416454757062502e-02,-1.126950355233292678e-01,-4.266644926430978452e-02,9.090855121612548828e-01
2.613572697082579555e-01,-5.415231122176072942e-01,3.634932368174216832e-01,4.368663808968414886e-02,-1.353443215764098539e-01,2.523849871145313062e-02,8.942272663116455078e-01
2.215159029687348291e-01,-4.775500003511425895e-01,3.744226869073041253e-01,-2.945882178613331778e-02,-1.120319805726402995e-01,-1.439991061502554105e-02,8.123081922531127930e-01
3.509319501448830980e-01,-4.619303223585786711e-01,3.219863536565609752e-01,-9.055877505404132111e-03,-6.989744123933544495e-02,-6.834953694796158490e-03,8.081443309783935547e-01
3.407021020264741629e-01,-5.036013277177904257e-01,2.888499561056036002e-01,2.469678715232123851e-05,-1.532659906445456022e-01,-1.890907791012496827e-02,8.621496558189392090e-01
3.467425780318713624e-01,-4.673923053490836033e-01,3.241983047029687870e-01,-3.763578832754302210e-03,-6.889661669010779810e-02,-8.309761169235903647e-03,8.120712041854858398e-01
4.510611452036429325e-01,-4.914726340808159843e-01,1.670731897079337502e-01,1.048400372836237257e-02,3.844916434479751788e-02,-5.292113423181834392e-02,8.452913761138916016e-01
3.628360413077077462e-01,-4.262052862417546883e-01,3.629232837803399447e-01,-1.811005645481626389e-02,1.522697954899189174e-03,-2.136691048462377104e-02,7.905792593955993652e-01
3.723443943919618748e-01,-4.597467334406448725e-01,3.523237697598611273e-01,-1.232722789524269037e-02,-9.432027510743982643e-03,5.010162785973272873e-03,8.227487802505493164e-01
3.651398435264373576e-01,-4.520197953128017865e-01,3.293282719335892672e-01,-2.988252694143802169e-03,-1.611321897703596462e-02,-1.393572904114533930e-03,8.003624677658081055e-01
3.697365106943428792e-01,-4.814000643163230952e-01,3.526911808129510328e-01,-2.032548709118847316e-02,-1.913877739561814506e-02,-4.257634148826856813e-03,8.441615700721740723e-01
3.668457248371784218e-01,-4.647811969459106907e-01,3.322272062212794363e-01,-3.614601218358727639e-03,-1.571982553021353951e-02,-2.010726975897487827e-03,8.153555989265441895e-01
3.594216277908615087e-01,-2.359453845196287647e-01,3.590126337243571553e-01,-5.031722606742474596e-02,3.778777018768076593e-03,3.941998046109226189e-02,6.054078340530395508e-01
3.688711404360117130e-01,-4.050316528622077694e-01,3.576943755734629526e-01,-1.243269000158692648e-02,-1.290264901898656186e-03,5.720775165842198473e-02,7.750403881072998047e-01
3.504425278685305845e-01,-2.905268842293408649e-01,3.325662281152533817e-01,3.124421675501634632e-02,-1.072492512322193066e-02,-1.115369925088319052e-02,6.350984573364257812e-01
3.640008001913238589e-01,-4.270078396988236102e-01,3.767548102279287825e-01,-5.511786460839308843e-03,1.158738543454114261e-03,1.196526942918023882e-02,7.977910637855529785e-01
3.311531480228174784e-01,-2.902692019030259085e-01,3.493872097827650514e-01,1.325125966565708115e-02,5.895549673190017548e-03,2.329525966153856570e-02,6.325253844261169434e-01
3.407888000233202375e-01,-2.925123639095442152e-01,3.470524949725920516e-01,-8.964308461628402863e-03,1.013593168198526247e-02,2.758200692696825135e-02,6.386767625808715820e-01
3.578943870160714580e-01,-4.142370528485855852e-01,3.461292640549875621e-01,9.912452958112558457e-03,1.180797607754316761e-02,7.933797206795675447e-03,7.669048309326171875e-01
3.733576578291358250e-01,-3.652081323833455406e-01,3.167575511418344036e-01,2.013286363900138390e-02,-4.430002588347758258e-03,2.204094591191059840e-02,7.138714194297790527e-01
3.750862674467798641e-01,-4.112729791721124739e-01,3.567589243056510928e-01,2.517296949959098654e-02,-9.175637895604428886e-04,5.089068167349092980e-02,7.835547327995300293e-01
3.609735576334764939e-01,-4.128932919451835382e-01,3.625376805102091815e-01,1.701126766058396952e-02,1.022590549909354034e-03,-4.982374018068213076e-03,7.752602696418762207e-01
3.641671246308861853e-01,-3.517439477117803026e-01,3.480753246909678023e-01,2.405641092165717795e-02,1.530089008474303999e-02,-7.179659216109049837e-04,7.097234129905700684e-01
3.475811441211399400e-01,-3.127450701207549755e-01,3.491542918996548561e-01,2.539594924457061476e-02,-4.256611976448534430e-03,3.118485751422975585e-02,6.648147702217102051e-01
3.854810358893602795e-01,-4.239871082418278370e-01,3.584241908900166473e-01,-1.166757988305206807e-02,-4.741707220859250546e-03,6.045756999457978231e-02,8.034365773200988770e-01
3.833410366753330356e-01,-4.685279492640159749e-01,3.731580514013634331e-01,-3.584880476580643797e-03,4.582754047045588426e-03,8.957188340011119562e-03,8.470254540443420410e-01
3.560599689603162199e-01,-3.681858377568293927e-01,3.637462720990586873e-01,1.983910820082416399e-02,-5.466114902263981626e-03,8.749074255738302497e-02,7.445751428604125977e-01
3.735689866815792293e-01,-3.671251397541375749e-01,3.028283082883472810e-01,1.343335231969550311e-03,6.049244987347330476e-04,3.755874411058215262e-02,7.109664678573608398e-01
3.888496171990474259e-01,-3.438403330816859893e-01,3.607801877206722185e-01,3.280398044199193258e-02,-1.329060420749581667e-02,7.763644243194396666e-02,7.340958714485168457e-01
3.833397350627103517e-01,-3.632491316476451071e-01,3.506791492211285277e-01,1.433110200138985012e-02,-2.945481821890396507e-02,3.244777110748084392e-02,7.351565361022949219e-01
3.662823632945349517e-01,-4.529861601449746145e-01,3.343206720581695102e-01,-9.719696885781076851e-03,3.460403359951180063e-02,4.762004651802367525e-03,8.062139749526977539e-01
3.461106945669066293e-01,-4.971163620127506677e-01,3.489333051644592509e-01,-5.915190214680497195e-03,4.706913479024615876e-02,1.479458016497058916e-02,8.490159511566162109e-01
3.629716722704535159e-01,-4.265992858314041625e-01,3.538412880859725940e-01,9.679073094389541165e-03,4.412714997049657986e-03,2.894244984870396852e-03,7.852777838706970215e-01
3.720943217185108121e-01,-4.347583419159682938e-01,3.596815110369146473e-01,2.035248049624759081e-02,-9.460699517621186730e-03,-2.070241858251645542e-02,8.024630546569824219e-01
3.628882770609200281e-01,-4.715654611545270214e-01,3.623779262362805675e-01,-1.322162571754705637e-03,-4.972622208348622752e-04,3.798355758694803817e-03,8.342282176017761230e-01
3.629483689127797619e-01,-4.706247211824171606e-01,3.575337740834973466e-01,-1.844061114568063073e-03,-5.043588521339302348e-03,2.049584159774438599e-03,8.309386968612670898e-01
3.510403701364578355e-01,-2.172752849270203623e-01,3.364329698105255062e-01,5.242033245257605306e-02,4.267010165657852787e-03,5.101788055783371308e-03,5.685691237449645996e-01
3.619366034961774004e-01,-4.649952888653818839e-01,3.425856140469549227e-01,-1.611908293670647613e-02,1.088546613177336468e-02,9.978245745666889516e-03,8.183046579360961914e-01
3.360025728196037731e-01,-4.491708312692382910e-01,3.314411986444796843e-01,3.439618581798934739e-03,2.508214400097088636e-03,-2.265006665194492768e-03,7.829472422599792480e-01
3.642855976651130367e-01,-4.367933971884339073e-01,3.227190328204826431e-01,3.895840342091518721e-02,8.274822815505895879e-02,-1.083578520710863462e-02,7.972481250762939453e-01
3.676139213885536994e-01,-4.538286719395177027e-01,3.317115228192226151e-01,-3.133644897232890515e-03,3.450681702506179678e-03,1.409339783846011440e-02,8.045036792755126953e-01
3.775898058336064067e-01,-4.642610552705638272e-01,2.933341932373890737e-01,-8.840727587205048088e-03,3.949584558884950553e-02,3.620216439913162554e-02,8.085340261459350586e-01
3.918299400140500266e-01,-4.545521511549285298e-01,3.283686776143383002e-01,2.652286909603052828e-03,1.656983081794137763e-03,-3.045669042311902226e-03,8.165382146835327148e-01
3.980610568597997556e-01,-4.698109519785332866e-01,2.705562173476016019e-01,-1.813968621440559953e-02,2.331283460109156297e-02,2.514821889671158689e-02,8.144423365592956543e-01
3.957102280734580702e-01,-4.631437510585056927e-01,2.883502589525314685e-01,-4.471145873230047453e-03,3.333244394395473015e-02,6.316725180421355404e-03,8.126885294914245605e-01
2.057678217264966580e-01,-4.503509518722361715e-01,4.453247667225441742e-01,1.601390219855113733e-02,-8.081223336981481487e-02,-1.433389623146314948e-02,8.161095380783081055e-01
1.861436448276829747e-01,-4.629583672615019685e-01,4.261305552861319179e-01,-2.323481681854596553e-02,-3.921773547419270950e-02,-3.931668834451063077e-03,8.006142377853393555e-01
1.517312808864040019e-01,-4.600963347853185281e-01,4.607797904316178750e-01,1.272414763050575557e-03,-4.955740377014082598e-02,5.466133279347130253e-03,8.163275718688964844e-01
1.228200808856286241e-01,-5.007570464768099638e-01,4.361604614072298602e-01,3.045608736898983843e-02,-1.758342468511704948e-01,-1.714831709396036352e-02,8.825194239616394043e-01
1.136076493326323572e-01,-4.753957972520606035e-01,4.376172167438957539e-01,1.418848879123012566e-02,-1.615455378515566476e-01,3.182530990225725109e-02,8.512833714485168457e-01
1.495439532246561898e-01,-4.638702172410568147e-01,4.669715019833232672e-01,-1.319193249800822663e-02,-4.754818106001737488e-02,7.115143467334888658e-03,8.241409063339233398e-01
3.505537751725537055e-01,-4.484589748361862416e-01,3.593235825644953141e-01,-1.525326278753659504e-03,5.933968649971555279e-03,1.131032924816112971e-02,8.037424087524414062e-01
3.594482466003345866e-01,-5.102764812628202140e-01,3.855481987452876735e-01,6.608562355174009677e-04,2.066421413726799577e-02,1.445490946821502073e-02,8.841443657875061035e-01
3.346510108163039399e-01,-4.670214834481541955e-01,3.685944882699174197e-01,7.379933262155745875e-03,4.150045293335451885e-02,8.143756694620064851e-03,8.225398063659667969e-01
4.304446412894221141e-01,-4.661252155592322532e-01,3.219934850467405241e-01,-4.748619716994328249e-02,3.359236969268000056e-02,4.623859887710775329e-02,8.572801947593688965e-01
4.236402953652481096e-01,-4.862856593334146105e-01,3.360165940548958119e-01,-1.835618193468328135e-02,2.370179133567289209e-02,4.672579262971959801e-02,8.747332096099853516e-01
4.504650036331819263e-01,-5.167570934717882203e-01,2.721941849862110629e-01,1.005792248310596187e-02,4.032374359399239216e-02,-2.342308193473736921e-02,8.953764438629150391e-01
3.331547825869132784e-01,-4.531133483155068697e-01,3.356573735903353728e-01,-5.719320401616538596e-03,3.229369447394763760e-03,1.043569388531522544e-03,7.876066565513610840e-01
4.958284513910374280e-01,-4.005745293227399029e-01,1.245424850051012472e-01,-4.928341552060402225e-02,8.441492979435905042e-02,1.909583218131162552e-02,7.989542484283447266e-01
3.151793937042158267e-01,-1.345989697925067397e-01,3.064612049787251435e-01,1.564121216975786557e-02,4.536060657123234044e-03,1.710113209077636712e-02,4.473570585250854492e-01
3.033597716962481150e-01,-4.575838755367286348e-01,3.335679741648190366e-01,1.819137180224815117e-02,6.368822266360918416e-02,-1.488269314155179004e-02,7.853409051895141602e-01
3.359596444203845622e-01,-4.535473628165219706e-01,3.348963475091257247e-01,5.002269259378874441e-03,2.202049960931839676e-02,-9.736516520183719848e-04,7.899465560913085938e-01
3.285125364641691137e-01,-4.727993618534734876e-01,3.503898839780080210e-01,2.681246523118751071e-02,3.412150995648130514e-02,-1.735048974451280923e-02,8.164941072463989258e-01
3.364433922841589819e-01,-4.745161834955309299e-01,3.630832107208967763e-01,1.018134529999649169e-03,1.768033392449933072e-02,-1.993394847324325616e-03,8.251798152923583984e-01
3.553031517199300993e-01,-4.699194406888924647e-01,3.226390384593678107e-01,1.196333066989026944e-02,4.477170534030969207e-02,-2.824370341782200117e-02,8.148251771926879883e-01
3.661029145232413962e-01,-4.707987861679527875e-01,3.704585416354229666e-01,-4.424271948400874781e-03,8.940023050142941949e-03,3.423164216120288574e-03,8.392868041992187500e-01
3.434297412778313241e-01,-4.672230657444395030e-01,3.540347075297706758e-01,8.967456124123340463e-03,1.498393241322591024e-02,-7.795916699484812043e-03,8.166789412498474121e-01
3.560558038731388986e-01,-4.629247220144078190e-01,3.303394433359112536e-01,7.308014170338127981e-03,3.030761457395508146e-02,-8.809467950629862668e-03,8.083798289299011230e-01
3.657613397123024579e-01,-4.573483426931109763e-01,3.714458079589005868e-01,-3.068675357095370943e-03,-8.996848994076742795e-03,1.200076667538535653e-02,8.263921141624450684e-01
3.789040133585291903e-01,-4.619409377097596359e-01,3.601474259060872263e-01,-2.560280223676520729e-03,-7.700574205800280424e-04,-2.045299371540148462e-03,8.316457271575927734e-01
3.660790611407033768e-01,-4.667690087526533693e-01,3.342793810008350408e-01,-1.554499715453240560e-02,8.295474697007419393e-03,1.594470482809419443e-02,8.184478878974914551e-01
3.593440549777502380e-01,-4.663274601210877224e-01,3.608113531080608394e-01,-1.727901801933967238e-02,6.509787508329192493e-03,1.382639468284261285e-02,8.273714184761047363e-01
3.605796356125597346e-01,-4.467945184540467185e-01,3.637284350904355090e-01,1.965929018838429368e-02,-2.511270495817441700e-03,-1.789277647660755463e-02,8.102740645408630371e-01
3.774316742138215663e-01,-4.414094411824778241e-01,3.549736048391791687e-01,-1.054689969731655366e-02,-3.344399149217336907e-03,-1.104667430252557255e-03,8.080757856369018555e-01
3.756533212593979321e-01,-4.370870090644711770e-01,3.634057924918467353e-01,-1.312963664313748259e-02,-5.050635693251574569e-03,1.073567614389176958e-02,8.072683811187744141e-01
3.687000721612623821e-01,-3.746494217384364611e-01,3.476565148703065766e-01,-1.757676321740117217e-02,-2.005550498378492162e-03,2.381879306818472045e-03,7.337059974670410156e-01
3.670694398722183505e-01,-3.818438642011176554e-01,3.501980803097385908e-01,-2.177189965598863228e-02,-6.587053094744678081e-03,2.465780151553223411e-03,7.416812181472778320e-01
3.624438118149265753e-01,-4.499341806133070332e-01,3.625566078804858816e-01,-1.010889735903228517e-02,-3.750894100457206198e-03,-1.926936155801329056e-02,8.133341073989868164e-01
3.547774969412453294e-01,-4.662501721629815910e-01,3.963896928964601440e-01,-4.288637793006960797e-02,7.181785435147690008e-03,-3.400109516191786307e-02,8.480114936828613281e-01
3.487974887123471701e-01,-4.095401070218438466e-01,3.626360157714787480e-01,-1.374545605661470216e-02,-1.383066572921073933e-03,4.852964573749364401e-03,7.657707929611206055e-01
3.507630357858150805e-01,-4.602542151290139882e-01,3.623362227392966650e-01,8.122284143284854915e-03,-1.809660390610467323e-02,5.068063710486661079e-03,8.176346421241760254e-01
3.640401335123804594e-01,-4.361989453720758192e-01,3.375015744269224127e-01,9.719264705859523637e-03,-2.505933253811363365e-02,-1.968658182059800435e-02,7.894173264503479004e-01
3.624216248688034714e-01,-4.571274108059338870e-01,3.611195454683874817e-01,1.122056764140904987e-02,-9.111128571452273544e-04,-5.155060009841327994e-04,8.191313743591308594e-01
3.678030213098856249e-01,-4.434275517680886791e-01,3.594154013851434959e-01,-2.760260343328251736e-02,2.494552238254591978e-03,-9.470376466242684185e-03,8.086621761322021484e-01
3.583889645398993240e-01,-4.577684366660752513e-01,3.700023907704537707e-01,-1.977080719705221618e-03,5.660465525972342010e-03,-7.406477061102671386e-04,8.220922350883483887e-01
3.638510625587664249e-01,-4.689480353645706368e-01,3.601809887333133897e-01,-4.883845623443090929e-03,4.201310885189954306e-04,-6.580166493505556873e-03,8.310916423797607422e-01
3.687109577497479918e-01,-4.683872334773786505e-01,3.484596000231418578e-01,-8.770728454011528230e-03,-1.084607530548126501e-03,-8.106000235832022671e-03,8.274192214012145996e-01
3.634131163426388977e-01,-4.324357727950236541e-01,3.628553983221485257e-01,9.152849756189974581e-03,2.522057040207853831e-04,-2.915746230165024502e-03,7.957442402839660645e-01
3.638636282690664303e-01,-4.692550620926366767e-01,3.661972317926206477e-01,-5.311776207409238046e-04,4.583085882027631251e-03,-1.710523254938134874e-03,8.343314528465270996e-01
3.688982315140997836e-01,-4.594034740229427927e-01,3.630154484714370744e-01,-3.425782824822552102e-04,7.264272436630227203e-03,5.556530207989199060e-04,8.254727125167846680e-01
3.644253405100041365e-01,-4.695429892527092086e-01,3.582218625433480352e-01,-5.073368805157114567e-03,9.354701900396553312e-04,-8.359827693839664772e-03,8.310581445693969727e-01
3.395460456985971431e-01,-2.631140657785905335e-01,3.363441672488740597e-01,8.542223782001553967e-02,2.688236455922907164e-03,-2.706663009226138727e-02,6.207979917526245117e-01
3.356818904528273140e-01,-2.390820343609684206e-01,3.407095237297729229e-01,8.129441261759259851e-02,-4.454627065915769003e-04,-2.624412473231547277e-02,5.959544777870178223e-01
3.281548656839894385e-01,-9.300423212926445249e-02,3.126842396942458580e-01,6.813109374669626406e-02,3.177650283032127428e-03,-3.802067345910673662e-02,4.351910650730133057e-01
3.386318884158964759e-01,-1.933960685361459930e-01,3.226652154175946308e-01,5.912417860554735477e-02,-3.603702614310864624e-04,-4.465702638803278890e-02,5.397074222564697266e-01
4.547899065453714917e-01,-4.867010343172230025e-01,1.820858965289224307e-01,-4.836191388627314458e-03,1.016225007298172389e-01,-3.524052515434083349e-02,8.595356941223144531e-01
3.735852630459943757e-01,-4.676994321942375965e-01,2.521670412910764214e-01,5.412018854479763198e-03,1.275404285194534637e-01,-4.151802019555440176e-03,8.181040883064270020e-01
4.095285546145180922e-01,-5.431797841051224651e-01,2.391924349034840747e-01,-1.856063303551316532e-02,1.270414825919522206e-01,-4.974093914089957463e-02,9.117354154586791992e-01
4.206892957268771327e-01,-4.969948081656374583e-01,2.411947142984302017e-01,5.594708652914438980e-03,6.943278724906178090e-02,-5.821858081606344146e-03,8.510590195655822754e-01
3.843973240080328369e-01,-4.764155927570372651e-01,2.565145594699822507e-01,1.643563189927910867e-02,8.620892465877513788e-02,-1.627882520791199689e-02,8.192502856254577637e-01
4.004266698039219974e-01,-4.757140873307285078e-01,1.761453268630489566e-01,2.339263365669902190e-03,1.037209666493851545e-01,3.643788115004890395e-03,8.085500001907348633e-01
3.369108418942421967e-01,-4.519503495302107376e-01,3.706517200608389628e-01,2.021871144564700573e-02,-7.504098338344671049e-02,-1.528411253855731927e-02,8.178495764732360840e-01
3.402619695541594935e-01,-4.587774082353991423e-01,3.142026185870419042e-01,4.521207436706708299e-03,-4.216006926318103393e-02,1.683187841584413320e-03,7.897612452507019043e-01
3.403493232043133809e-01,-4.503348544273845233e-01,3.062554497562544054e-01,8.169794817213579113e-03,-4.384836483156574066e-02,5.796416988871131229e-03,7.781101465225219727e-01
3.391827879882458041e-01,-4.577588956753250171e-01,3.086211284783935138e-01,1.363250108870719436e-02,-4.419438267867525222e-02,8.986199508752035561e-03,7.863545417785644531e-01
3.682854195132651554e-01,-4.473252378603844726e-01,2.795754032947185830e-01,4.039568716974373426e-03,-5.865095354786088733e-02,-6.344737657062561077e-03,7.818100452423095703e-01
3.440741514858799421e-01,-4.520563626693120396e-01,3.400355031632523728e-01,5.282279670031737526e-03,2.196952957944642293e-03,-1.345196375820938714e-03,7.941841483116149902e-01
3.933549162877884031e-01,-4.774884158118722910e-01,2.232671220873834739e-01,2.794167073674205456e-02,-1.011773335785458583e-01,4.821803083863699518e-02,8.241394758224487305e-01
3.229989767283684698e-01,-4.480174698971073344e-01,3.162930276289909193e-01,-4.161953952456945265e-03,-2.966605293520082481e-02,-4.911171357278112243e-03,7.694839239120483398e-01
3.204843721707659743e-01,-4.472656699905336319e-01,3.417582228613669226e-01,-4.365787663658084530e-03,-3.591139091762091812e-02,-4.421451434290153172e-03,7.811596393585205078e-01
3.422753299738849897e-01,-4.551948879740176368e-01,2.797000442806948373e-01,-6.657117838032846832e-03,-5.863146300105315234e-02,-7.869177591898281893e-03,7.749865651130676270e-01
5.288781084979417013e-01,-1.209425210426138264e-01,3.607437494763057195e-01,2.853424500106466546e-02,3.014439233743925611e-02,-1.599322311538744004e-02,5.892493724822998047e-01
3.519660432427334507e-01,-4.588876867033678808e-01,2.817388979565977891e-01,-6.575365747565862194e-03,-4.996984384554735426e-02,-5.874698842642432639e-03,7.830682396888732910e-01
3.303088962417598529e-01,-4.617594731224373694e-01,3.390185825787980223e-01,-1.289400409953363191e-02,-2.581406586340584397e-02,-1.195699388003810398e-02,7.982941865921020508e-01
3.149725636663578965e-01,-4.505209161102505799e-01,3.456276649804442269e-01,-5.561635102240442344e-03,-2.156032454918895697e-02,-6.550937476516287099e-03,7.823057770729064941e-01
4.060745688158789446e-01,-4.714994535566087164e-01,2.995947846751237376e-01,1.286423919499647336e-02,1.202358806859125592e-02,-1.382113367014956538e-02,8.303815126419067383e-01
4.242094430928650683e-01,-4.734148563526024978e-01,2.632917306949986713e-01,-1.355916210750187680e-03,2.022310013366310569e-02,3.599761876103255414e-03,8.297297954559326172e-01
3.765743407871960935e-01,-4.615309639043523315e-01,3.714220119384100682e-01,-4.965525555909061119e-03,1.027740052625683749e-02,7.804797372430058618e-03,8.358842134475708008e-01
3.711522969164480212e-01,-4.683926148636375908e-01,3.342805898886858085e-01,8.539150853884016137e-03,1.786237870965497535e-02,-2.558526209555410120e-03,8.224568963050842285e-01
3.759915788552639637e-01,-4.709364874037628157e-01,3.341778325445506903e-01,1.250614779905554960e-02,1.375481577142245032e-02,-9.918601868411182354e-03,8.276196122169494629e-01
3.514326096618847761e-01,-3.066232485771744898e-01,3.460184483921565635e-01,1.160302819608506966e-02,-1.616180337073042702e-03,-5.161433310546456599e-02,6.617460846900939941e-01
3.851097885110906782e-01,-4.938274064218214354e-01,3.439649930901412800e-01,8.102977246040653919e-03,3.538106833455438582e-02,-4.135373989756609484e-03,8.614311218261718750e-01
3.345853573701415007e-01,-2.467239940160185219e-01,3.475799161815522065e-01,-6.511451874521234640e-02,4.738091275955107554e-03,-4.369220400384912079e-02,6.034545302391052246e-01
3.424935068065205201e-01,-2.664038864579056365e-01,3.472685962318025621e-01,-8.052578615726121991e-02,-7.669833819847524754e-04,-7.301421411567258352e-03,6.271373629570007324e-01
3.569175312887941098e-01,-4.002196501381375393e-01,3.636941981990339245e-01,-2.726831576626284614e-02,7.901975869093169277e-03,-2.548244699775335451e-02,7.634131312370300293e-01
3.263608717851976815e-01,-3.417778712094567961e-01,3.576145475759090475e-01,-1.192887315708710955e-01,-1.142104402152834160e-03,-2.773605144654580495e-02,7.164280414581298828e-01
3.679510844886006993e-01,-3.571264013940743665e-01,3.537034684692668129e-01,-2.463083594496568232e-02,-1.762788724410338514e-03,6.526260374914521177e-03,7.194212079048156738e-01
3.713989946994463165e-01,-4.556638038305268479e-01,3.698064896913532129e-01,-3.114758567015987051e-02,2.941616968746387992e-03,6.972413213410118792e-03,8.281307816505432129e-01
3.565367687180298617e-01,-3.676289665369920079e-01,3.576878587506876483e-01,-4.388549781685645995e-02,-6.237100642739792358e-04,2.635921559145067757e-03,7.287322878837585449e-01
3.998528267553859705e-01,-4.417609471097035945e-01,3.562313040101931505e-01,3.123831985978310632e-02,3.478618940065701659e-03,-4.284628060903950680e-03,8.225101828575134277e-01
3.877301941774768945e-01,-4.319016471709967719e-01,3.128612985202809949e-01,-2.452042867865772066e-02,-3.427248387673734881e-02,-1.070749973511995468e-01,8.097897768020629883e-01
3.116629087350483163e-01,-3.696920144556130605e-01,3.611472566426222608e-01,-9.788212067620878643e-02,-3.609973280248438693e-02,-2.224286299779661830e-02,7.311266660690307617e-01
3.805823075662082000e-01,-4.172108651915046318e-01,3.379724652276102081e-01,-2.633351919544224887e-02,-1.894320909896475211e-02,-3.709628107284842352e-02,7.820364236831665039e-01
3.616815951656489059e-01,-4.021985287752198879e-01,3.553405656750771024e-01,7.249245789705742286e-03,1.360048118748679452e-02,2.860607959515278249e-03,7.612137794494628906e-01
3.631368941325864297e-01,-4.086884816377385210e-01,3.627626040880029823e-01,4.765321634570569690e-04,4.777527242091847599e-03,2.215149462001705146e-03,7.716926336288452148e-01
3.529973395339962572e-01,-3.573087188329475139e-01,3.551078224442892894e-01,-1.998424886794732125e-02,-2.598280151166449704e-03,-2.135704407044440936e-02,7.131794691085815430e-01
3.582167651749872395e-01,-4.085972946904037340e-01,3.538374408753427458e-01,-3.030914803338769989e-02,3.806615246298583263e-03,-4.008525377613453289e-02,7.696003913879394531e-01
3.596717974111172111e-01,-4.051898714856960737e-01,3.574209413491855059e-01,-2.439134391488183978e-02,-6.583942122875217342e-04,-5.520012379362082555e-02,7.708593606948852539e-01
3.712037444571492650e-01,-4.310170728171449639e-01,3.630276373838592918e-01,-1.470303083525071122e-02,-3.238125296605488986e-03,1.325740997617919211e-03,7.985933423042297363e-01
3.500012637729333909e-01,-3.049449868371233441e-01,3.348554910460805889e-01,-7.292198052842281675e-02,-3.362220743178200803e-03,-5.250444745559094961e-02,6.659739017486572266e-01
3.729063829294856358e-01,-4.668838431056688831e-01,3.691029751927420999e-01,-9.114904125251928682e-03,1.392207534423023970e-03,-3.205259545796502844e-03,8.380655646324157715e-01
3.698071806932087813e-01,-4.430105702720957828e-01,3.741569215656143643e-01,-2.575531895921740616e-02,-2.188325950602691260e-03,3.240465328429088711e-03,8.162493705749511719e-01
3.306720685815498495e-01,-4.828873790674639288e-01,4.318204841834588081e-01,-4.423227164462499583e-02,6.948402631238437266e-02,4.592201847324868871e-03,8.802369236946105957e-01
2.677951963625587739e-01,-4.982611518135432460e-01,4.467121345775899033e-01,2.628731626728379733e-02,2.823764669899898883e-02,-8.271746624430385830e-03,8.721149563789367676e-01
3.236665261266468141e-01,-4.688653141854850492e-01,3.954399385834148073e-01,1.336941526567319606e-03,1.368810369511167663e-02,-2.313455580808694914e-02,8.320540189743041992e-01
3.511241177349787579e-01,-4.486358187387230467e-01,2.972145098741735270e-01,3.414019831873829820e-04,3.958097757613987522e-02,9.143280846025467071e-04,7.772452831268310547e-01
3.441544346631597029e-01,-4.811564643013036546e-01,4.232243325700668635e-01,4.169663111113262139e-04,3.007630500201134705e-02,8.111753394627690961e-03,8.692290186882019043e-01
3.204919438863501613e-01,-4.454964555786078417e-01,3.957632136098001019e-01,1.264301134155329520e-02,-7.114882818198563913e-03,-7.613544584470419846e-03,8.067628145217895508e-01
3.674279847079615635e-01,-4.505835994583851090e-01,3.694686935292852414e-01,-2.806185837960068191e-03,2.895793342640556357e-03,-4.085138243889524512e-02,8.221141695976257324e-01
3.865662464725763692e-01,-4.075675271779316544e-01,3.093360373517566320e-01,8.843507973133313965e-03,-2.056256797183904014e-02,-2.848888271442865869e-02,7.610648870468139648e-01
4.001168656450336258e-01,-4.781673339957234203e-01,2.723952325091823501e-01,2.749816028504736137e-02,-9.315507106045858854e-02,5.377452690410372549e-03,8.389927744865417480e-01
3.771201723330213085e-01,-5.627483782996619555e-01,2.582092288747651065e-01,-1.051828133320683624e-02,1.268444433360767232e-01,-3.627735483252209070e-02,9.155766367912292480e-01
3.987741854101804484e-01,-4.889193139730595439e-01,3.348990956922612838e-01,-3.205538643123481690e-02,-9.355593487456946925e-03,-2.153830168408630077e-02,8.602994680404663086e-01
3.979837164455898302e-01,-4.493060220567928198e-01,3.594780336454059810e-01,-5.868850056080249927e-03,-6.283410889927407497e-03,-3.717338196115808208e-02,8.313389420509338379e-01
3.717972330867402309e-01,-4.572440250532351369e-01,3.646852414126235398e-01,-4.710612122421363283e-03,2.174936426703647603e-04,5.463561852881565310e-03,8.256028890609741211e-01
3.794994235364797519e-01,-4.466094290297470959e-01,3.584093296286933183e-01,9.301056270324100164e-03,-4.044611940787060274e-03,-1.969144978884487232e-04,8.159574866294860840e-01
3.488093864048095738e-01,-3.489091303012232803e-01,3.465592755045526774e-01,-3.653433144730013071e-02,-5.693391386575293381e-03,1.160045092201298419e-03,6.995368599891662598e-01
3.778316057009583062e-01,-4.294714374055870199e-01,3.580789846298128021e-01,-1.044221619785475064e-02,7.740698690707195281e-03,-6.472031398654949814e-03,7.980065941810607910e-01
3.425172952038668672e-01,-4.432766697958369084e-01,3.130335774571704199e-01,5.304328009965603510e-03,6.146949002222436287e-03,-1.473331394028650019e-03,7.716071605682373047e-01
3.577351129402415175e-01,-3.474849330155476701e-01,3.498841518089442770e-01,-4.462017152984117108e-02,7.238249188500130854e-03,-6.119669401745667439e-03,7.057639360427856445e-01
3.479336954335932042e-01,-4.009204737848847122e-01,3.683708216502719068e-01,-2.795969057415094786e-02,1.204818868935884565e-02,-1.327783600594727338e-02,7.614553570747375488e-01
3.768290024022377671e-01,-4.562599414709533896e-01,3.110200053502258921e-01,1.533587039522942745e-03,-3.783767684611979293e-02,2.513083255354104338e-03,8.049002289772033691e-01
3.581475439760723467e-01,-4.484791386043613937e-01,2.905290553784480312e-01,-6.110308170905049937e-04,1.910239426084043776e-02,3.853647972357683495e-03,7.757682204246520996e-01
3.738626556446583704e-01,-4.739273098519624083e-01,2.912509176400345234e-01,-7.989345376243777580e-03,-6.231547011981332373e-02,-1.394564134964642287e-02,8.172880411148071289e-01
3.933530400111784342e-01,-4.755122676969986140e-01,3.238239863500240179e-01,-9.401813722243967941e-03,5.426226696506920855e-03,-2.816914546713636825e-03,8.364969491958618164e-01
4.112832141951454079e-01,-4.733578919944436691e-01,2.477033318228032688e-01,-7.910411838061601891e-03,-5.181935625618847019e-02,1.314644270364878284e-02,8.206099867820739746e-01
3.572874815426372863e-01,-4.457565333944543129e-01,2.944266229373869725e-01,-1.962199638322069221e-03,2.046913599013374871e-02,1.614904776787361390e-04,7.743511795997619629e-01
3.346575183425731792e-01,-3.643156514688929426e-01,3.645811146358584054e-01,-1.623133070715884665e-03,-9.159356993769912289e-03,4.318282340816428574e-03,7.146259546279907227e-01
4.694806840358881628e-01,-4.825267301436114709e-01,2.161213915882459202e-01,-1.227620515040828142e-02,-6.347930122239288375e-02,-1.905169545479689155e-02,8.619390726089477539e-01
4.181567491540073012e-01,-4.741694623297627587e-01,3.121618130294782634e-01,1.273565318003289223e-03,2.139338357141918473e-02,1.201898755424601895e-02,8.454053401947021484e-01
3.242201899819948108e-01,-4.494965527794523297e-01,3.204971080932548233e-01,-6.042488416078581684e-03,-8.962494354045308365e-02,-7.831412489068262719e-03,7.875038385391235352e-01
3.625655474322996841e-01,-4.754405612237022627e-01,3.610472787671317185e-01,8.316088439205877739e-04,-7.988022568173761082e-04,-7.009107040603051834e-04,8.372512459754943848e-01
2.810901296925719661e-01,-4.461187717848263956e-01,3.658768779825650741e-01,-9.913930975026848808e-04,-1.125662414365167022e-02,4.094897282005598681e-03,7.733774185180664062e-01
3.451928831099609352e-01,-4.705648004039365562e-01,3.311551610868778139e-01,-1.604713783748795350e-02,-7.297607018573515347e-02,-1.529872262141724996e-02,8.195471167564392090e-01
2.865084990155291611e-01,-4.791461610975938923e-01,2.888478007922099522e-01,1.408157205151773332e-03,-1.473491588540156161e-01,1.948160362922871818e-04,8.081862330436706543e-01
3.087080775006305622e-01,-4.671484940037439193e-01,4.016748956689583649e-01,-2.688673702049438913e-03,-2.330561815403071196e-02,8.208462297112240763e-03,8.273925781250000000e-01
3.123783046627286453e-01,-4.602120033302619095e-01,3.630627386732155903e-01,-2.335824729403756725e-02,-2.904630327260847300e-02,-2.657730271622553431e-02,8.030628561973571777e-01
6.463490194070066197e-01,-6.509792914326599789e-01,1.469765400987829151e-01,2.723510647993937148e-02,7.970946219516897302e-02,-1.058276581375236225e-01,1.157353878021240234e+00
3.568487369456909697e-01,-4.772471395655574211e-01,3.570190725433244894e-01,-1.739924005831134171e-02,-3.310945824429405854e-02,-1.457126274339591403e-02,8.370734453201293945e-01
3.149047207343825816e-01,-4.810807652144529767e-01,3.644877014750076416e-01,-7.348963578760569874e-03,-3.097583733627942010e-02,-1.613835195843885129e-02,8.242211937904357910e-01
2.651731978272443557e-01,-4.914683941646209586e-01,3.959282402153251890e-01,-9.718670926419852724e-03,-1.355994088866002423e-01,1.307900080615293989e-02,8.628419637680053711e-01
3.256099921586831369e-01,-4.738404789406974738e-01,3.021311757731982572e-01,-8.856229566740354484e-03,-9.792426672930809595e-02,-1.083206177826060053e-02,8.063850998878479004e-01
3.693318983787544085e-01,-4.727761010795052954e-01,3.668907956605721998e-01,1.484155313301150150e-02,-2.222773753252923513e-03,3.162038107979098147e-03,8.413095474243164062e-01
3.609521640361568751e-01,-4.321154097977948361e-01,3.621137047389413888e-01,1.291398230683943500e-02,-1.708513335597410150e-03,6.788450339302078964e-04,7.939705252647399902e-01
3.598618359611703843e-01,-4.444030828822941315e-01,3.654270958377042744e-01,2.506694030710886895e-02,9.408058863163298608e-05,3.514204355579425218e-03,8.082518577575683594e-01
2.839254662610210533e-01,-4.671639157799412079e-01,3.056736054867800201e-01,1.469724510622477665e-02,-1.213452962988489647e-01,1.637982406508385613e-02,7.915617227554321289e-01
3.754461839345382690e-01,-4.653834237973072385e-01,3.130797518412526959e-01,1.313550451220475007e-02,-3.598679011639586284e-02,2.857597324742729844e-02,8.156573772430419922e-01
3.654890724624714204e-01,-4.724635083142608716e-01,3.164194088906142066e-01,2.290603123898667451e-02,-2.365402337489065643e-02,2.335197200558884745e-02,8.175224065780639648e-01
3.624135239824896049e-01,-4.608903983683414474e-01,3.032323294308642003e-01,1.649643543252977268e-02,-6.413524050826295564e-02,1.500139096884562685e-02,8.040143847465515137e-01
2.954016040077565020e-01,-4.580308846525876776e-01,3.418982453784784048e-01,6.531906050506138851e-03,-5.038671673176371713e-02,6.290940108728089973e-03,7.827628850936889648e-01
3.383939278049757360e-01,-4.549509643706222128e-01,3.158986575984824574e-01,1.594232937737408151e-02,-4.110370372265582245e-02,1.111811112239244163e-02,7.862935066223144531e-01
3.235495537614230255e-01,-4.564145935560244283e-01,3.144894541325438109e-01,1.173361539243659470e-02,-3.201616125339824814e-02,1.296797938859284120e-02,7.780438661575317383e-01
3.149713614207522161e-01,-4.553153880785917318e-01,3.458492534027422516e-01,1.237017816371418534e-02,-3.051621152209457732e-02,1.177098561904935808e-02,7.885102629661560059e-01
3.934937918296904646e-01,-4.657050642683955299e-01,3.405694808536300355e-01,-2.595572607392246725e-03,-4.228601334522741340e-03,1.686675694931740604e-02,8.345528244972229004e-01
3.852205174897209150e-01,-4.654635231533148509e-01,3.376102390796423824e-01,5.888496089107148751e-03,-1.510240690658518157e-03,2.319256258733564530e-03,8.279829621315002441e-01
3.960631151481359136e-01,-4.675725292454345761e-01,2.938964016396399259e-01,1.545197877965782593e-05,-6.749124073198498053e-03,-1.121448396313300989e-02,8.176696896553039551e-01
3.039029348786596030e-01,-4.532048131459101015e-01,3.501475794235793249e-01,-5.872330162826625705e-03,1.593848980609822302e-02,7.019634660215979399e-03,7.819055318832397461e-01
3.614972908435692966e-01,-4.625128059560724703e-01,3.766912216383130896e-01,2.691727929059525588e-03,-1.971388831683401534e-03,-1.343872400487998312e-03,8.317344784736633301e-01
3.938486154408149531e-01,-4.777957814965888561e-01,2.939163743391626227e-01,1.612225864274191567e-02,-1.254726172656876054e-02,2.386766485489943967e-02,8.280133605003356934e-01
3.877894029650633678e-01,-4.735306540971768730e-01,2.946470903915321959e-01,2.260934907111304074e-03,-4.036555161930171359e-03,2.203729506877732253e-02,8.196606040000915527e-01
4.008363319605527941e-01,-4.686585578414190767e-01,2.911530887269923040e-01,-1.021628654292566600e-02,-2.235150201826281713e-02,1.867751642977874679e-03,8.212826251983642578e-01
3.952657490110427774e-01,-4.752002889002272523e-01,2.930114611037162309e-01,-1.012141960687177634e-02,-5.828149747745129186e-03,-2.044273316452008271e-02,8.251188397407531738e-01
2.941927204528858031e-01,-1.296553138368980451e-01,3.676449594932583720e-01,8.994681536820241241e-02,-3.776085092063196508e-02,-1.421482106595934290e-04,4.946958422660827637e-01
3.854599701368155995e-01,-4.663349897901387653e-01,3.483014522544510827e-01,-8.344541309952021105e-03,-1.112381437745642299e-02,1.028987605020675530e-02,8.343750238418579102e-01
3.708666655728570793e-01,-4.525152145749653521e-01,3.397052249497946042e-01,-1.200848367538052096e-03,5.926224499863602668e-03,-7.972841053049371796e-03,8.084375858306884766e-01
3.705331872275246519e-01,-4.625297516607238535e-01,3.556800195308011392e-01,-1.256630739490892379e-02,2.590114313230912693e-03,2.398257814251755424e-02,8.270792961120605469e-01
3.698150871712003740e-01,-4.656358477898242532e-01,3.644787922508000988e-01,-6.014744333188194736e-04,-2.628135276507306828e-03,-5.517636940923026367e-03,8.328635096549987793e-01
3.579551463304859737e-01,-3.963043274316675468e-01,3.597907538027464991e-01,2.116115733844481340e-04,5.441892321269257114e-03,2.591229758719706001e-03,7.552511692047119141e-01
3.686398052950256576e-01,-4.547985274220658347e-01,3.696481369574425857e-01,-9.473101803039646329e-03,3.281864927114107496e-03,-2.004505535543708947e-03,8.241332173347473145e-01
3.625593397430339482e-01,-3.969583872534684366e-01,3.580758274886768344e-01,-1.919524239422938303e-02,-3.251962918735805050e-03,1.457061253665305894e-02,7.584562897682189941e-01
3.658291310207650304e-01,-4.380689931780260560e-01,3.576758766596464523e-01,5.188541221504093352e-03,9.618344505389858461e-04,4.542748676620672783e-03,7.999435663223266602e-01
3.640363307104848567e-01,-4.558091335886874651e-01,3.473667141514392154e-01,7.679495064016541792e-03,9.296798540050473306e-03,-9.681133217719841907e-03,8.120808601379394531e-01
3.858291552044580963e-01,-4.741762555865558504e-01,3.155683774160358279e-01,1.885755853146558331e-02,1.621624296514788746e-02,-1.950914435440772449e-02,8.289262652397155762e-01
3.639057378227988360e-01,-4.254693124950686967e-01,3.647305624775289412e-01,1.137149654734733763e-02,-1.517174543457218069e-03,1.152407393650371021e-03,7.900402545928955078e-01
2.570075431623178308e-01,-4.440434062522667924e-01,4.177995256727022877e-01,4.833112079882830037e-02,-7.565212447020998321e-03,5.959758314699380166e-03,7.983331680297851562e-01
2.325006968073755065e-01,-4.690466029696070960e-01,4.755312933139199116e-01,-2.879417181658662506e-02,9.951022572768817090e-03,-1.476909038903548473e-02,8.515684008598327637e-01
3.225776445756040056e-01,-4.527370790519776866e-01,3.417939115377093828e-01,-5.559162620484431501e-03,9.365729911006294428e-03,6.397910886710911002e-03,7.854040265083312988e-01
3.214574282416263751e-01,-4.300291514002179127e-01,3.808559978943835689e-01,1.152574576586551033e-02,6.670696973802134680e-03,1.261898676703348925e-02,7.835223078727722168e-01
2.807593141048583263e-01,-4.916990764175367401e-01,4.169202537854213020e-01,-1.879159010041213385e-02,1.241586484355854114e-02,-8.341629842830717689e-04,8.496671915054321289e-01
2.759721391725645789e-01,-5.041045931688654669e-01,4.498626176293272771e-01,-2.710170722429159490e-02,2.201168281696633255e-02,-6.547409951350550983e-04,8.820793032646179199e-01
3.564537650557738635e-01,-4.321833838828161856e-01,3.725587920095860262e-01,1.042753612755391822e-02,1.035564881939330696e-02,4.979564673102434592e-03,7.972648739814758301e-01
3.699091141494805224e-01,-2.236581962086550135e-01,5.221594354127072624e-01,3.297913305458938238e-02,1.074301796004294984e-01,-1.265901093227849057e-02,7.100989222526550293e-01
3.559279258696966264e-01,-4.266235988735531670e-01,3.677734101236585507e-01,1.364453265132701404e-02,8.970397776681982363e-03,1.339581475653515118e-02,7.893891334533691406e-01
3.675373175385018287e-01,-4.172337531387431131e-01,3.675710877833039403e-01,2.993291076226707939e-02,8.739952400840602514e-03,-2.117646778384535064e-02,7.874989509582519531e-01
3.678369447694758709e-01,-4.734328841471520111e-01,3.651735835053324664e-01,-6.874163762059149266e-03,4.316077658919698079e-03,-1.647210571199801514e-03,8.400638103485107422e-01
3.056982468021125499e-01,-4.444447496797683250e-01,3.411410771261782493e-01,-1.514437121555360383e-03,4.263839954723013491e-03,2.912595936602572436e-03,7.685341835021972656e-01
3.554293982212543557e-01,-3.608376191588034132e-01,3.571446392436060657e-01,-1.600209772089742841e-03,3.997405865357236271e-04,4.146017949310429329e-02,7.207183837890625000e-01
3.504324211219825291e-01,-3.704233596057507905e-01,3.536234933119539736e-01,7.748287179580220889e-03,7.254261790165132673e-03,2.921421253409195451e-02,7.244597673416137695e-01
3.361799806046713024e-01,-3.044331036211763153e-01,3.389542627893628035e-01,2.825257242784566525e-02,3.068466256728033092e-03,-2.891105013611703842e-02,6.458331942558288574e-01
3.474532866014682364e-01,-4.678863996447806262e-01,3.517254250879168209e-01,1.489058312605954885e-02,2.096575933066816694e-02,-2.249609178562752415e-02,8.196233510971069336e-01
3.654959797695546131e-01,-3.672826210693809212e-01,3.494282666929907077e-01,3.021335561000410355e-02,-1.936234388032196004e-03,-2.462171016171330398e-02,7.280226945877075195e-01
3.570551052989943130e-01,-3.958637055081961620e-01,3.518002258076937672e-01,4.293631471801030546e-04,-2.398919596041317222e-04,-2.400991563308789781e-02,7.514572739601135254e-01
3.787979661168510703e-01,-4.235505675052131380e-01,3.512390944240524338e-01,1.414030397241309873e-03,7.320679763330375112e-04,-7.078191983601509439e-04,7.889359593391418457e-01
3.865525853350758045e-01,-3.832243209257510941e-01,3.513993842898734954e-01,3.878040837639056687e-02,1.599273450516136216e-02,-6.081490540649826804e-02,7.636141180992126465e-01
3.883946906903517626e-01,-3.577966869077066070e-01,3.245866651421099314e-01,4.766952276284899120e-02,2.766564459288142763e-02,8.966661470805900244e-03,7.229208350181579590e-01
3.571031553527513891e-01,-4.069888399255177092e-01,3.455401633643095938e-01,3.608221333147437065e-02,4.279218883076660838e-03,-6.645775746183091304e-02,7.696399688720703125e-01
4.123698407363683427e-01,-4.929440075462618864e-01,2.478267593680708036e-01,3.151319740837772027e-02,6.812782753433777039e-02,-3.826898650739565810e-02,8.479395508766174316e-01
4.419136479373660942e-01,-5.169362689548490097e-01,2.559109841125014051e-01,-4.663850845619181215e-03,4.479063343556534404e-02,9.521053069138992950e-03,8.843061327934265137e-01
4.188450522869061055e-01,-4.817373857985817187e-01,1.891137231879655989e-01,8.079408225719706543e-03,1.146011681680672023e-01,-1.783552346013107109e-02,8.351548910140991211e-01
3.582577467153523210e-01,-4.577293583960508894e-01,3.285363298642500207e-01,-1.124446979168232733e-02,1.589150421093071114e-02,1.935820215047035072e-03,8.022556900978088379e-01
3.790338903756621525e-01,-4.637364439197348975e-01,2.642253782576484689e-01,9.297865416569248490e-03,3.123039063214321648e-02,7.393686133962323664e-04,7.936451435089111328e-01
3.739101485782017620e-01,-4.709894891923989135e-01,2.070433783648571724e-01,1.900752901448737181e-02,1.126082084121852178e-01,-3.199111084435390939e-02,8.018168210983276367e-01
3.741417977084933177e-01,-4.643368970887896685e-01,2.945878902955029188e-01,1.442476671965286714e-02,2.885462099524872814e-02,-2.793050180923951908e-02,8.050673604011535645e-01
4.107559694086717617e-01,-4.794359676095137912e-01,2.512628519242274816e-01,5.813811094690417292e-03,4.782910172638615842e-02,-1.956625437536804735e-02,8.270508050918579102e-01
4.290982917118571494e-01,-4.743644786007823466e-01,2.530074573188227927e-01,-5.554328538918141753e-03,2.543202610072277381e-02,-1.250718935883112122e-02,8.310617804527282715e-01
3.777422589596838853e-01,-4.675742283203273564e-01,2.918979202357440128e-01,1.816384957651569210e-02,3.549541471649375612e-02,-2.228396242268276123e-02,8.097054362297058105e-01
3.871839983135625385e-01,-4.939695550633967924e-01,3.147490191173671903e-01,2.947402496361915987e-03,-6.724696093627952065e-02,2.604903717677765559e-02,8.564346432685852051e-01
3.389044720637841568e-01,-3.120660280464555014e-01,3.371089652991954289e-01,-2.913334846509264657e-03,-1.781531166495574012e-02,3.964548314840020404e-03,6.508623361587524414e-01
3.364236860263017936e-01,-3.105009160966898385e-01,3.374144936614670298e-01,2.712092334674209501e-03,1.333270007961804074e-02,3.513428107115235382e-03,6.478779315948486328e-01
3.670164674763314872e-01,-5.000955103234137056e-01,3.489636538998521220e-01,1.320626335868067477e-02,-2.031318544445580992e-02,8.600639382785485801e-03,8.593825101852416992e-01
3.459922333565921826e-01,-5.038583400944787183e-01,3.784167356491552892e-01,-1.252101656444461327e-04,-3.122531660288195565e-02,1.188728086271051247e-02,8.684482574462890625e-01
3.844562731782711906e-01,-4.461332936308676222e-01,3.355219209632858135e-01,-3.184180073475489925e-02,-9.255263358390700135e-02,-2.560802146777117413e-02,8.260364532470703125e-01
3.661053965021598411e-01,-4.618152292131634251e-01,3.702497479597698926e-01,1.490460856538301793e-02,6.805193565284141724e-03,1.465810339585642275e-02,8.308735489845275879e-01
3.543326957264619770e-01,-4.495266388166111460e-01,3.474344268017653392e-01,-9.605646753714424876e-03,-1.355547912057893795e-02,-8.896178819570053561e-03,8.010978102684020996e-01
3.731039697415027834e-01,-4.369426081649465665e-01,3.668942881375660825e-01,-6.682912193697017680e-03,-4.165466261030049966e-02,-5.059451162218919773e-02,8.149862885475158691e-01
3.713050760844300857e-01,-4.886277756606766109e-01,3.644425525095445484e-01,-3.642984623404024042e-02,-2.782142578666101790e-02,-3.099528536241544230e-02,8.618676662445068359e-01
3.615055554508090907e-01,-4.255697936478886056e-01,3.529741189108613897e-01,1.127121366769830678e-02,-1.993066763423274185e-03,5.430477600977723005e-05,7.830954790115356445e-01
3.518480715594433650e-01,-3.503152866344627081e-01,3.526377200114168553e-01,4.443964937654963643e-02,-2.351084075376544662e-03,-4.491280969928030525e-03,7.068169713020324707e-01
3.572330885044631144e-01,-3.916775979379763517e-01,3.574636395526538113e-01,1.011730856131320272e-02,5.344177733645190474e-04,2.080668203724055781e-02,7.500977516174316406e-01
3.663354030472911749e-01,-4.590266800598784558e-01,3.689900022266648927e-01,1.383987856094760251e-02,-1.251640441846804197e-03,-5.716299492212251199e-03,8.271021842956542969e-01
3.628593395844431635e-01,-4.407491968462035059e-01,3.723981373652567317e-01,-2.868071750608950678e-04,9.433325013363582159e-03,1.141609979882787437e-02,8.088271021842956543e-01
3.674816347815627604e-01,-4.681828009706776594e-01,3.536471945774419257e-01,-7.873440218052966955e-03,-7.842802280041989010e-03,1.115951980820841872e-03,8.290595412254333496e-01
3.790334808510266718e-01,-4.646536971281363115e-01,3.255001639630171750e-01,2.667920302559458664e-03,-1.281009264004350293e-02,6.353724361729746681e-03,8.186227679252624512e-01
3.827945654758778682e-01,-5.074955210512146486e-01,3.548977602968740319e-01,1.597071887326328987e-02,-1.893765978504945852e-02,4.129198613663449639e-03,8.777531981468200684e-01
3.881065742715852362e-01,-4.566133781592282004e-01,2.958399239342203169e-01,-6.142405878157952692e-03,-5.829730754851993393e-03,-1.172475424566769148e-02,8.029651045799255371e-01
3.742714034716606575e-01,-4.587284184969653289e-01,3.045788367268276176e-01,-1.448089835596279816e-02,-1.041374254348144054e-02,-1.644311041279149579e-02,8.015344142913818359e-01
3.566986053139395429e-01,-4.429304658858138621e-01,3.742232426466627904e-01,2.647219793385504998e-03,1.170354808473268379e-02,4.648732704483524505e-03,8.088409900665283203e-01
3.408678585691614082e-01,-4.472836656251117926e-01,3.151464299576097194e-01,-5.678313100631908125e-03,-3.562729225075793316e-02,-4.291174936788483621e-03,7.781593203544616699e-01
3.991058741043133629e-01,-4.760573642404605232e-01,2.856725328730056468e-01,-6.398761195450304584e-03,-5.282977995974992569e-02,-2.525098267637209543e-02,8.306104540824890137e-01
3.781807046511788672e-01,-4.793118620974233801e-01,3.076765657998532522e-01,-2.387510016943291194e-02,-2.786341739431025949e-02,-2.154299886960436144e-02,8.277916908264160156e-01
3.462787763664313401e-01,-4.438065538372506502e-01,2.975202115172308481e-01,-2.829317678883046597e-03,4.117907747808120106e-02,-6.045878007262624936e-04,7.701954841613769531e-01
3.527725233548689165e-01,-4.674284316718043675e-01,3.211976996845963273e-01,-4.519797059116769516e-03,-3.642805555009097362e-02,-6.974016601408320262e-03,8.074757456779479980e-01
3.505161956394720613e-01,-4.607191431941043414e-01,3.356160944206821872e-01,-1.267385186947799294e-02,-2.300768952833999459e-02,-1.191695157922754295e-02,8.054398298263549805e-01
3.758407929609373643e-01,-4.700302984136768281e-01,3.051880691603209295e-01,-1.649963837961557905e-02,-2.608357422034171536e-02,-2.541677424723777848e-02,8.157956004142761230e-01
3.494028318854653370e-01,-4.691575095696605135e-01,3.513985716555917960e-01,-6.488092484099690013e-03,-2.959819146364968401e-02,-1.043984472272542832e-02,8.214377760887145996e-01
2.843016764554323617e-01,-4.798562583345229449e-01,3.687957566055172776e-01,1.035612903231664800e-02,1.402000064058333828e-01,-4.174496308177510356e-02,8.486231565475463867e-01
2.969447506839245632e-01,-4.580845258797860975e-01,3.468646797543039617e-01,1.778503485034836976e-02,5.008649942483293926e-02,-1.566163717722131310e-02,7.870597243309020996e-01
2.930537075776882272e-01,-4.623849716561921896e-01,3.837799012693445810e-01,1.282783024131776278e-02,3.694654018911366217e-02,-1.051992478357573722e-02,8.076990246772766113e-01
2.493134913439112588e-01,-4.746278702862517518e-01,3.958615009127837148e-01,1.919361547842063018e-02,5.638490534070730864e-02,-1.530275988240919864e-02,8.142512440681457520e-01
3.272057164604080248e-01,-4.701237930698740630e-01,3.880908097898905784e-01,2.757770016440109703e-02,1.677738363188199799e-02,-2.164667229040793256e-02,8.321770429611206055e-01
2.934716854135809849e-01,-5.127566122352634759e-01,4.001000454350467916e-01,6.178635779064768456e-03,8.805083383042983103e-02,-2.159503527241855847e-02,8.786995410919189453e-01
2.367578256510669832e-01,-4.709901118806395504e-01,3.499019143846996416e-01,2.514749748122570294e-02,1.053191018835816783e-01,-1.874470794484187075e-02,7.937341332435607910e-01
3.057307431859491165e-01,-4.844235605296861591e-01,4.014155544396349473e-01,-4.325478015320882719e-02,-3.489862207595167964e-02,-7.690290413848378977e-03,8.476728796958923340e-01
3.542804928103771012e-01,-4.382681372514181106e-01,3.862372916436222492e-01,2.794855369739735612e-02,-4.879541449402849396e-03,2.623109996236494545e-02,8.117640614509582520e-01
3.027169313880643253e-01,-3.805778832075283336e-01,4.079008931997862852e-01,-1.286088927411545291e-02,-2.614196601323002384e-02,1.516736713895866853e-02,7.436825037002563477e-01
2.277849705913533307e-01,-4.862156932818478827e-01,4.119452668250010441e-01,3.191555581235216987e-02,-5.369616057385301344e-02,1.335017563631308614e-02,8.291217684745788574e-01
3.857703506712249486e-01,-5.647201479065633301e-01,1.673844046355958959e-01,4.288653989004381339e-04,-2.352982237608181038e-01,-9.462957330994828040e-03,9.538950920104980469e-01
5.424927985013884291e-01,-4.834350137559120242e-01,1.105952805717183574e-02,2.374916529928410014e-02,-1.080907887277842150e-01,2.949022709051932114e-03,9.091237783432006836e-01
4.242402186655114260e-01,-4.809043617475793342e-01,1.732141394112688415e-01,2.080256972620833644e-03,-6.315876903655801011e-02,-3.118825647122902989e-03,8.167589306831359863e-01
4.167114723881462646e-01,-5.073265793111757516e-01,2.542163993851134229e-01,1.705076177338965895e-02,-4.137275156923141822e-02,7.910076928850217487e-03,8.580759763717651367e-01
4.334348514095550664e-01,-5.163007913743878907e-01,2.112623459883651300e-01,2.744294649765033345e-02,-9.972353280064125136e-02,5.182462082935573866e-02,8.834615349769592285e-01
4.471890101301517761e-01,-5.732675684951695771e-01,2.528508478664928116e-01,-1.438503057451269267e-02,-1.209628630963129337e-01,-3.421680735291147274e-02,9.637502431869506836e-01
3.250187402872632969e-01,-3.049768161713661829e-01,3.584539075371153682e-01,-9.608102099320916384e-03,-3.357310075988007188e-03,3.531433407453647005e-02,6.504831910133361816e-01
3.515488171245327864e-01,-3.210862843105963815e-01,3.510131899383427956e-01,-2.929126963602441541e-02,7.559349042015639161e-03,3.672776255184517780e-02,6.773995161056518555e-01
3.312619399528779485e-01,-3.118282182966360949e-01,3.519431202703788841e-01,-1.245147323337581283e-02,-4.982815729414054144e-03,2.838315040127045372e-02,6.559336185455322266e-01
3.649319653491363558e-01,-4.513186250678880018e-01,3.648680620221447235e-01,-1.356170811578980527e-03,3.039567635505389595e-03,-2.484306980034332694e-03,8.162503242492675781e-01
3.450487558618726691e-01,-2.723029901525867991e-01,3.366924475438085040e-01,3.562125472357996221e-03,-2.413831287403627335e-03,5.584640335530342836e-02,6.208431720733642578e-01
3.648109517614546715e-01,-4.245750748313906753e-01,3.675168174191308923e-01,-1.926610878966378282e-02,-9.225454553085715367e-03,1.765721623050993394e-02,7.921980619430541992e-01
4.222434369332924708e-01,-3.691660324119934722e-01,2.992894302480104685e-01,-7.805317162302712053e-03,4.573867276374916913e-02,4.476484454221223847e-02,7.460631132125854492e-01
1.559634992231002659e-01,-5.480409632614338111e-01,5.232467469275828842e-01,-3.766794285074590715e-02,2.464757716996079234e-02,7.786273288177858985e-03,9.462289810180664062e-01
2.073564035470693845e-01,-4.586810716754522455e-01,4.381707946310904322e-01,6.626787374493361971e-03,1.766341848107810808e-02,-3.101604308097056541e-03,8.072848320007324219e-01
1.355982137788151742e-01,-4.621069521040606087e-01,4.582101240510464413e-01,-1.360412008283714246e-02,-1.423021821296045417e-02,-3.671272884786871537e-03,8.095430135726928711e-01
1.599429937256487411e-01,-4.600485552891275809e-01,4.979528790693457108e-01,-2.734381282192950135e-03,2.852251360671921587e-02,1.775570422174983093e-02,8.435711860656738281e-01
3.747978597105156018e-01,-4.438462104987432877e-01,2.760027945970680019e-01,-4.972037516164113519e-03,7.368700465391220256e-02,-6.877013367678792323e-03,7.845801115036010742e-01
3.649631248312547593e-01,-4.688558860771021575e-01,3.201166111603089837e-01,3.243773151425585755e-02,4.958801996479171581e-02,-3.037825340106083821e-02,8.204715251922607422e-01
3.795681346550509039e-01,-4.605353953936098810e-01,3.003809229930193281e-01,2.774389110888316259e-02,2.380455306677167759e-02,-3.097681280230734149e-02,8.077170848846435547e-01
4.353689048679006413e-01,-5.584290927385654468e-01,2.222749099539897688e-01,6.679496442088823926e-03,9.544145151539529248e-02,3.536984774278918719e-02,9.233012795448303223e-01
3.853102815020520433e-01,-5.265143135990213441e-01,2.545514587275895524e-01,1.833569474799038104e-02,1.363161041456473765e-01,-1.045253561340596035e-02,8.867781162261962891e-01
3.190245990021700617e-01,-4.687349708536056037e-01,3.438330449231888908e-01,2.395864391567157151e-02,8.213017114768089710e-02,-1.721547457196415803e-02,8.145986199378967285e-01
3.396410319970718517e-01,-4.523652512272618997e-01,2.910430186316829149e-01,-4.580965569716092547e-04,5.985406824331056252e-02,8.892379073296107200e-04,7.758197784423828125e-01
3.531863621705467193e-01,-1.166545127951710836e-01,3.396573270376694875e-01,3.816686360669804823e-02,1.140849137087710796e-01,-3.561282906033280682e-02,5.116620659828186035e-01
4.013442033191103597e-01,-1.643920436820192066e-01,1.856594208818946046e-01,-2.929208958841999361e-02,3.443474093473340020e-02,-7.643298298443929051e-02,5.178938508033752441e-01
3.730410651643452646e-01,-1.690727767941804238e-01,2.968933884819563440e-01,2.690406891908305939e-02,-2.416252882079873016e-02,-9.491634852014885215e-02,5.379177331924438477e-01
4.205435381901088121e-01,-1.260792008737213199e-01,1.909670110772166418e-01,-1.822181977686147120e-02,1.241012314636671596e-02,-1.238111834121350119e-01,5.229300260543823242e-01
3.457403465886975669e-01,-2.273295442956129730e-01,3.324610971303271212e-01,-1.015282891624579020e-02,-6.421504474350218580e-03,-6.511306865109250941e-02,5.780376791954040527e-01
3.836455403100982875e-01,-3.440208421288237783e-01,3.414455474585516015e-01,-1.146576683829348374e-02,1.115160182467877202e-03,-5.492078629406196844e-02,7.141559123992919922e-01
4.087786662309914609e-01,-3.493236074177574757e-01,3.573555177834354946e-01,-2.211848287445848573e-03,1.804780052306918531e-03,-1.106336312727973226e-01,7.583687901496887207e-01
3.541713552141209087e-01,-4.372611638315595517e-01,3.640591002771950135e-01,1.104352019943258267e-02,-6.946958870725978338e-04,-6.318782700348152953e-03,7.967281937599182129e-01
3.599728711048349461e-01,-4.695995117859050882e-01,3.692816070098621228e-01,8.441205197363185059e-03,3.012513917588951519e-03,1.261309633529741642e-03,8.344129920005798340e-01
3.761630210168339650e-01,-4.654503689941369426e-01,3.678865852156375515e-01,8.694984972903272921e-03,9.230025324946421542e-03,-4.387377467532665065e-04,8.377941250801086426e-01
3.680818070900842565e-01,-4.572297631307508103e-01,3.670450964664654370e-01,-2.807767977754771320e-03,5.100592596853964836e-03,-1.637219464100317726e-02,8.253426551818847656e-01
3.602258322984825401e-01,-4.565181216722382640e-01,3.670431203915915930e-01,-1.660188981218567927e-03,3.097832297158607633e-03,-1.689234814282340518e-03,8.202016353607177734e-01
3.384469597245725048e-01,-4.556998371356975053e-01,3.405161323771312420e-01,1.013460365359208568e-02,-5.734580045440061669e-02,1.696575892891020662e-02,8.020934462547302246e-01
3.663782729178544084e-01,-4.888504000910249836e-01,3.755031236236708869e-01,-8.873290175099564012e-03,-3.824009355417361949e-03,-4.381525602867301916e-03,8.600237369537353516e-01
3.506991285243556411e-01,-4.720296847448905986e-01,3.612374838885946682e-01,1.913293833282740664e-02,-3.613848136656641619e-02,1.725285936671489342e-02,8.316087722778320312e-01
3.670096461006974176e-01,-4.808874968788591220e-01,3.697572918533227337e-01,1.011796283102427661e-02,1.530700202360779898e-03,-1.181630001335162022e-02,8.497057557106018066e-01
3.607799072640595073e-01,-3.708289028305911672e-01,3.446331639669967251e-01,-1.260769097236173406e-02,-2.153812186690559627e-02,-5.708324622897488487e-02,7.316714525222778320e-01
3.928761802267267678e-01,-5.444650831785443623e-01,3.380753778672238585e-01,2.446074700985150473e-03,-2.208513737574949176e-02,-4.537722137436182857e-02,9.153705239295959473e-01
3.967381326249695417e-01,-4.333294716945605973e-01,3.298916735542037904e-01,-6.557655371531430355e-02,-2.010271052267006975e-02,-3.412837414223257853e-03,8.075529336929321289e-01
2.787852776820698431e-01,-4.441596546234960474e-01,3.968576911272350127e-01,7.864815638231454492e-03,3.804138642152229272e-02,9.823344331782696282e-03,7.916860580444335938e-01
2.630661844024747564e-01,-4.894805587876427388e-01,4.534367934034624903e-01,-9.846409407847717815e-03,-6.609897496149702047e-04,2.060336009212091445e-03,8.637912273406982422e-01
2.351764151079747400e-01,-4.693115821316957703e-01,4.479436054971759895e-01,2.939260466744269933e-03,1.839179137312927162e-02,-2.985403086621834894e-03,8.321854472160339355e-01
2.583735700195863294e-01,-4.512496811686490528e-01,4.522855769114456637e-01,2.161574004301677551e-02,4.118230157677352232e-02,-5.584673578476601757e-03,8.278615474700927734e-01
2.416434252457363985e-01,-4.539689541712573773e-01,4.144876131454475754e-01,4.791445889106038525e-02,3.376942148885225294e-03,1.504991505560518243e-02,8.009902238845825195e-01
3.748466223017146159e-01,-4.290663013028909178e-01,3.549406192155377671e-01,1.223942800687473700e-02,5.963573261718410623e-03,-2.387472678522586391e-04,7.944971919059753418e-01
2.749647255411041824e-01,-4.567772251232685710e-01,4.098979739387394461e-01,-1.885799849225458860e-02,6.749083821345036593e-03,6.720119850970087023e-03,8.085348606109619141e-01
3.127216802767538439e-01,-4.449900524577951044e-01,3.811737158518972435e-01,1.149654620985414953e-03,-9.429337635799740422e-03,4.892771657878177902e-03,7.943690419197082520e-01
2.616680008739161734e-01,-8.595208223325414565e-01,5.648598443169302596e-01,7.957592222243334290e-03,-2.683708836434139933e-01,3.236638575119269584e-02,1.381421923637390137e+00
3.377595493592204234e-01,-4.662017002156170209e-01,3.661481119428087738e-01,-3.374395977185571261e-03,-2.297216150335859141e-03,1.071150416555339581e-02,8.187655806541442871e-01
3.585242547702261473e-01,-4.553979926216245033e-01,3.766716533856491744e-01,-1.497695167811549308e-02,-3.517880005480212777e-03,6.030644659784772758e-03,8.236434459686279297e-01
3.637870404816326286e-01,-4.629042291025837752e-01,3.708781750050896830e-01,-4.798715827495170921e-02,-5.736188141554536893e-03,-1.774628170679683594e-03,8.344743251800537109e-01
3.804405161685244230e-01,-4.568658397191627252e-01,3.567410850711601467e-01,-7.662762332912106782e-03,-2.238687528758777270e-03,-4.584431888059204221e-03,8.258656859397888184e-01
3.668186156656835784e-01,-4.293718307404770229e-01,3.543407952259226557e-01,-1.148771608567733353e-02,-6.330572888623306688e-04,-4.329280692643037130e-03,7.903122901916503906e-01
3.832524181360615345e-01,-4.311052052304333859e-01,3.531253167265863135e-01,5.412894580990454223e-03,-1.284384117151582882e-03,-1.477902401418443529e-03,7.997819185256958008e-01
3.674689839269377756e-01,-4.359744748228036038e-01,3.642510162092730819e-01,-1.327374315318768754e-02,-4.899971676675569238e-03,1.075247247527749000e-02,8.024299144744873047e-01
3.736174930709221798e-01,-4.637617111392632330e-01,3.677300185511920838e-01,-1.094612567592934300e-02,-5.849675570835509431e-03,1.043535885487255864e-02,8.349235653877258301e-01
3.380180427716296121e-01,-4.622652701803964259e-01,3.429181895922105427e-01,8.186582282933048058e-03,5.720193878665943976e-03,-9.793531160558376775e-03,8.031101226806640625e-01
4.227583589348388182e-01,-5.818722664673799949e-01,2.458374196386982347e-01,-1.451996505347488524e-02,-1.485224766824160825e-01,-6.275499223572058791e-03,9.642462730407714844e-01
4.308105441940113245e-01,-4.776971815637368612e-01,2.579957731767561491e-01,-4.664536716326781254e-03,6.270712449806464112e-03,5.685323224617434834e-03,8.357797861099243164e-01
4.189482528157003616e-01,-4.816029118470347425e-01,2.920018432949272880e-01,1.228218177521618777e-02,-1.780436640412725452e-02,3.605397439777964508e-02,8.474014997482299805e-01
3.899751847173145158e-01,-4.857432656207513189e-01,3.386933810658518951e-01,1.201998501046944862e-02,3.046806995383538608e-03,9.650989183112846509e-03,8.516718149185180664e-01
4.109822788171171859e-01,-4.643822764659696345e-01,2.525877534506165700e-01,7.859419897780306127e-03,-2.471157719556936472e-02,2.659134350566362895e-03,8.091585040092468262e-01
4.401474911532808343e-01,-4.691251554546701508e-01,2.118173795682473382e-01,-9.698305411418198067e-04,-5.586346082644637334e-02,3.711696194034881657e-02,8.275234699249267578e-01
1.747501484285099438e-01,-5.810231951785033155e-01,4.939863366498868924e-01,2.567329653041757614e-02,1.132864100521052408e-01,-2.819039986123762082e-02,9.783855080604553223e-01
2.204171933791190807e-01,-4.601840508654648776e-01,4.202227447706831098e-01,3.358364407447167466e-02,4.046295404402777685e-02,-2.062574611648066922e-02,8.054190278053283691e-01
2.193567325229743292e-01,-4.754610708548787645e-01,4.285910237390107569e-01,-1.620860607162800948e-02,9.061998240504487434e-02,2.680019666178827878e-02,8.363667726516723633e-01
2.313139560713470266e-01,-4.698147467412500111e-01,3.885910670026228031e-01,-1.534963807590323213e-02,5.897250541724008421e-02,1.565211311817342119e-02,7.990394830703735352e-01
1.806750761803647687e-01,-4.514795268414566465e-01,4.266383526694577655e-01,-3.991880313988744461e-03,5.087726502711575893e-02,-1.042584934983163420e-03,7.895699739456176758e-01
3.453513658608860504e-01,-4.614562575636264041e-01,3.413094382707127505e-01,1.266076698439212592e-04,2.634842381479705550e-03,-9.751495633932190377e-04,8.048090338706970215e-01
2.212741931812864937e-01,-4.902102741093822269e-01,4.479789547356522461e-01,1.618096383059195939e-02,7.919241014224659425e-02,-4.383715412971967221e-03,8.593948483467102051e-01
3.663797577003747308e-01,-4.764132040036564986e-01,3.662064309596911871e-01,-8.062724752423018322e-05,2.885151052938497197e-03,-9.281987051215582346e-04,8.427226543426513672e-01
3.553846304786679178e-01,-2.150719040752091527e-01,3.686264864262925878e-01,-5.766403176692926069e-02,-4.579783746999823574e-03,5.404992231320081275e-02,5.932558178901672363e-01
3.556291632969408312e-01,-3.843803828348262841e-01,3.674290458446041741e-01,-8.014101586928161491e-02,5.683742497960887242e-04,1.140087365144103020e-02,7.590415477752685547e-01
3.376096318082452696e-01,-1.600366964144157023e-01,3.104855334704456071e-01,-7.262232128522627672e-02,2.681039275775161899e-03,-1.741832145488340228e-02,5.016404390335083008e-01
3.511107401520317528e-01,-3.179342515100856414e-01,3.457731936354833668e-01,-2.277770574325921338e-02,-6.400914052579751920e-03,6.403664529671176942e-02,6.768013834953308105e-01
3.550634006747265259e-01,-4.653213201222831108e-01,3.704380713009878257e-01,4.618373281558172880e-03,2.253565161796105502e-03,-1.381252411063586078e-03,8.282303810119628906e-01
3.514073754219887991e-01,-4.637806888400543004e-01,3.559183977751442240e-01,-1.119122322570591244e-02,1.652134171560514647e-02,1.211085962960941828e-02,8.184521198272705078e-01
3.576279374238822695e-01,-4.730742429961476425e-01,3.646449688347461748e-01,1.019834405249575582e-02,3.885225182085514165e-03,-6.192386250927271827e-04,8.344476222991943359e-01
3.437670407221879443e-01,-4.628965216258610349e-01,3.569451636294344588e-01,-1.996432218104082432e-02,1.836155720134261676e-02,1.171223921590496680e-02,8.149409890174865723e-01
3.350377835353334222e-01,-4.644301582856703581e-01,3.770421583568413504e-01,-1.345507377161614566e-02,6.064440039757314563e-03,1.111913206093326743e-02,8.218995332717895508e-01
3.306021535460910155e-01,-4.620371950166625163e-01,3.661531034407288221e-01,-1.606442690353211689e-02,1.553841844590275051e-02,1.702712551955577747e-02,8.124582171440124512e-01
3.527978465248359785e-01,-4.622765978251940355e-01,3.237776524542652634e-01,-1.927473265698192301e-02,2.336561610697105579e-02,1.619082324210849300e-02,8.031648397445678711e-01
3.466658332499335526e-01,-4.630127610354100032e-01,3.527086363153142390e-01,-1.248095886960986015e-02,7.663848054843994811e-03,1.627568042510606910e-02,8.136011958122253418e-01
3.684806303281472628e-01,-4.774121969062616877e-01,3.491190630218423130e-01,1.617827884253096593e-02,2.248123298412279397e-02,-1.849796218620682747e-02,8.383672833442687988e-01
4.852992624449785630e-01,-4.829757763427349193e-01,9.262215828630637748e-02,1.497540125684879847e-02,-1.852003974014835297e-01,6.560487318436910784e-03,9.029019474983215332e-01
3.550108626466844663e-01,-4.638883824867410244e-01,3.275585802295044591e-01,-5.610013196132549937e-03,2.117201173448315932e-02,3.303401765164943856e-04,8.064170479774475098e-01
3.415268640769090758e-01,-4.722542352081132710e-01,3.262990042781100941e-01,-2.621023501387229407e-02,5.813587769307228259e-02,2.365514966946812708e-02,8.148364424705505371e-01
3.162154648055276462e-01,-4.713704837412695525e-01,3.463872168260201945e-01,-2.886911192836023182e-02,6.788030084369960082e-02,2.655745848062748132e-02,8.144962787628173828e-01
3.604680038125598895e-01,-3.316908072691844844e-01,3.199783773898789430e-01,-2.450403174105605236e-02,-1.801493226140971928e-04,-1.629587140672008596e-03,6.741716265678405762e-01
4.480605440348136015e-01,-4.580837971139682940e-01,1.996967724511716225e-01,-3.443365024874348989e-04,-1.782352525797538043e-02,5.191022131518520898e-04,8.115928173065185547e-01
3.040347599692142522e-01,-3.074822471799578683e-01,3.915754887108491844e-01,-7.413457871185377690e-02,-2.480328212515791123e-02,-6.385417133823041713e-02,6.824328303337097168e-01
3.522578027612524587e-01,-4.665346235099059324e-01,3.066325048369340500e-01,5.981514317408247530e-03,4.895106362776692477e-02,-1.427052216828305839e-02,8.019052147865295410e-01
4.173238723409805617e-01,-4.597834623981553737e-01,2.205024033712545406e-01,7.300045272168756948e-03,6.937353957080538702e-02,-3.049500551323562451e-03,8.062556982040405273e-01
3.374050375577011263e-01,-4.521647107097314100e-01,3.073858640907167761e-01,1.499491775020300038e-03,8.220935890788746980e-02,3.318805167759686543e-03,7.879937887191772461e-01
3.399151294687473013e-01,-4.875743009346382717e-01,3.134706579255953640e-01,1.523519341989267549e-02,9.111186156568984451e-02,-8.200479905722399959e-03,8.302757143974304199e-01
3.866832512502190733e-01,-4.678432527765400417e-01,2.362059476435779126e-01,1.356372649689628791e-02,8.606405753702206507e-02,-2.469332679602452302e-03,8.044025301933288574e-01
4.546992907043884702e-01,-4.947739458283245684e-01,1.877403811807159262e-01,6.020284787465426078e-03,6.632009583029521704e-02,-2.311795892394680196e-02,8.568566441535949707e-01
3.551031111820927566e-01,-5.467698544402584959e-01,2.717556138958235890e-01,2.242136538857758196e-02,1.295312031862489444e-01,1.914108301465341361e-02,8.933616876602172852e-01
3.262393700976791155e-01,-4.755332268223140257e-01,3.988079523276650828e-01,6.567901581348536272e-03,-6.849995300347511834e-03,2.915186382067347110e-03,8.405858874320983887e-01
3.616761496892131889e-01,-4.349159735554861683e-01,3.748883805400629043e-01,1.845901801809150811e-02,7.480708059686898628e-03,9.076052572596842588e-03,8.041738271713256836e-01
3.455300596799251722e-01,-3.857645570410056513e-01,3.695870508390369236e-01,7.997795035207767855e-02,-5.621728789204411990e-04,2.450085754074026942e-02,7.575978636741638184e-01
3.754906226798780389e-01,-4.626105768489578995e-01,3.893553702171912989e-01,3.629263165324178586e-02,-1.094951387969404430e-02,-1.872463577608915550e-03,8.476718664169311523e-01
3.384711419481398198e-01,-4.225431995697607190e-01,3.675122432428087893e-01,2.155134389551354931e-02,-1.965309722142125418e-02,-7.257913606856821256e-03,7.776870131492614746e-01
3.441966194801748813e-01,-4.405214361466753825e-01,3.615786638123286156e-01,1.806113498572557707e-02,-1.311312294576552628e-02,7.031297437072342449e-03,7.945863008499145508e-01
3.476700436996438826e-01,-3.412517260886102077e-01,3.513635025790120547e-01,-3.224726286908952133e-02,-2.419568131071495216e-03,6.842431982181822366e-03,6.931443214416503906e-01
3.646193347679938523e-01,-4.665939834519063911e-01,3.704189054764788769e-01,-1.288318695467060258e-02,-7.284469214676671418e-04,-3.816578820891538496e-03,8.344537615776062012e-01
3.601128911245246589e-01,-4.266999165059764954e-01,3.645195527966808013e-01,-1.244187621858824054e-02,9.716490654358027335e-03,-1.071768132389795333e-02,7.897171974182128906e-01
3.660166767990976067e-01,-4.773242406540725291e-01,3.660250741548056186e-01,-3.042204811855889440e-04,-1.201883124285148957e-03,1.890656658512930924e-03,8.433542251586914062e-01
3.620784672266356696e-01,-4.357005204301530599e-01,3.565709357756342013e-01,-9.254268224534904080e-03,3.310436963247154717e-03,-1.659135648173335105e-04,7.952218055725097656e-01
3.743001122508458622e-01,-4.644512075865646628e-01,3.307810789759072501e-01,-9.779586550046541135e-03,-1.412406712714636171e-03,7.283530983765320807e-03,8.181369900703430176e-01
3.488344212525154031e-01,-3.930121936289205919e-01,3.886125333429268358e-01,4.213384538199566737e-02,-2.413861534899462008e-02,5.507556994475442530e-02,7.730470299720764160e-01
3.211903103589461850e-01,-5.055672639047911199e-01,4.006337113932362248e-01,3.554074544639089506e-02,-4.831623638927422248e-02,-1.561537125302011816e-02,8.758105635643005371e-01
3.190049106146609637e-01,-4.277700056978135379e-01,3.728213367350465268e-01,-1.970256699328948313e-02,-2.528190113409464757e-02,5.494927892376160090e-03,7.771295905113220215e-01
3.532946505623430489e-01,-3.326519758199187327e-01,3.739105129736881583e-01,7.509391473075766044e-02,-2.489975143447940853e-02,3.280451798311072309e-02,7.121059298515319824e-01
3.471821628878289379e-01,-4.467549066189725471e-01,3.009569812249992538e-01,-5.625578185702396171e-03,-3.926679018663542520e-02,-7.429194050138664997e-04,7.749162316322326660e-01
3.388899811052775157e-01,-4.903091319556703853e-01,3.812247190510187345e-01,-8.972468199314877907e-03,-2.189632329460586974e-02,-2.751108393472247518e-02,8.534739613533020020e-01
3.319485779997302100e-01,-4.560602347056492700e-01,3.707665720232494189e-01,-1.427727718745466952e-02,-1.101905423952382820e-02,-6.848519151085212010e-03,8.088078498840332031e-01
3.570755533683675487e-01,-4.921145293696843614e-01,3.736879830897621990e-01,-3.025300173515311011e-02,-2.901371193192606862e-02,-4.690283326375831695e-03,8.607229590415954590e-01
3.391104744499092716e-01,-4.609496514441793202e-01,3.551957486704775402e-01,1.863738671473869329e-03,7.069661979144391956e-03,8.922978715572721115e-04,8.083235025405883789e-01
3.669388490056451069e-01,-4.691277398880301375e-01,3.616383604905995530e-01,-9.154888005372707402e-03,1.075437032397016327e-03,2.682080920465448534e-03,8.335948586463928223e-01
3.647349564591088056e-01,-4.496500152815827711e-01,3.607584874338904402e-01,-6.600148540337494492e-03,-2.172987085567273241e-03,-6.278879471108007003e-03,8.125659823417663574e-01
3.506984709801173050e-01,-4.670136687433182887e-01,3.555663375074947785e-01,-7.770246919577959537e-03,-1.671993397639784038e-02,-1.274346284787619037e-03,8.207813501358032227e-01
3.593694694508990928e-01,-4.367668550366222702e-01,3.589939855260881330e-01,6.004588657303330627e-03,-1.838342392017157639e-03,-6.531067888509107210e-03,7.961033582687377930e-01
3.658371571038032122e-01,-4.833467905940154186e-01,3.621659506967839781e-01,8.395492084127533991e-03,-2.499686692790136118e-03,5.710285928232214023e-03,8.475478291511535645e-01
2.784213749753108313e-01,-7.449915775270206098e-01,5.261590957420925196e-01,-7.624110337823915284e-02,2.010898731287875663e-01,2.902513989691326082e-02,1.226198554039001465e+00
3.401388560352641699e-01,-4.451375905276191425e-01,3.498383171506221911e-01,-1.951757573501041246e-02,-5.014372818023676848e-02,5.139662934330105175e-03,7.956979274749755859e-01
3.520628764531372190e-01,-4.642592424975674481e-01,2.818748594662223717e-01,-1.096672349660310006e-02,-4.895360339289775431e-02,-3.466135829313654170e-03,7.884150743484497070e-01
3.839205030845751487e-01,-4.595581706695588409e-01,2.726090454513628303e-01,-9.190118327427663700e-03,-4.063126090435079801e-02,-7.328148037914458506e-03,7.970726490020751953e-01
4.026328225794235660e-01,-4.867333085219730515e-01,2.939124920781742700e-01,-3.415718957819197099e-03,-3.780865248325404604e-02,-3.953002268410169689e-02,8.456425666809082031e-01
3.757930162372827843e-01,-4.397400900703882787e-01,3.681878645874492872e-01,1.240682984915907928e-02,8.221027426594335052e-03,-2.953000470812893949e-02,8.137754201889038086e-01
3.545060736321583583e-01,-3.431975870062145550e-01,3.545487779488071256e-01,-1.165434969825360125e-03,-2.701682484947454544e-03,-4.473049302040458391e-02,7.020317912101745605e-01
3.708797214613264170e-01,-4.340330012361139911e-01,3.173001194122325730e-01,-6.884405868745424248e-03,4.742729042516134058e-03,8.461313236546074215e-04,7.796410322189331055e-01
4.300090333348999261e-01,-4.566124491021678056e-01,2.156997828743804080e-01,-2.991868917697906773e-03,-2.147666127668484970e-02,-4.553539271584202720e-03,8.021768927574157715e-01
3.658365279273115833e-01,-4.653369828794582386e-01,3.662325889965515890e-01,-3.403693536166474670e-03,5.383648249960026194e-03,-5.188422393202561482e-03,8.314933776855468750e-01
3.663955401043753057e-01,-4.037257294049796386e-01,3.579817589562995783e-01,-4.495838929411030932e-04,-2.784148078364240622e-03,1.949276461851241413e-02,7.667083740234375000e-01
3.554307597675794295e-01,-3.197320847897442420e-01,3.293497759383431367e-01,3.420654203985565994e-02,-1.007174444304002534e-02,2.957148997118655767e-02,6.673486232757568359e-01
4.043974794757652647e-01,-4.566162591394624659e-01,2.385390516531291638e-01,-4.015521962918767486e-03,-1.521762042537309206e-02,-6.169343008915915624e-03,7.917730808258056641e-01
3.625881681215934460e-01,-4.434126459961280631e-01,3.644014961841834377e-01,1.500188056198817170e-02,5.198680845561946644e-05,3.019772462847255395e-02,8.090198040008544922e-01
3.401057191566463356e-01,-1.792799738000905307e-01,3.166327120201536949e-01,9.761234924259402229e-03,4.004836060739151889e-03,-2.036340598018643658e-02,5.096065998077392578e-01
3.426845860469244776e-01,-2.144996584747136392e-01,3.173512823170956398e-01,6.170483964775683172e-02,-8.276977512237141191e-03,-2.434548236086047160e-02,5.571237206459045410e-01
3.253032816417537054e-01,-1.558517396753672513e-01,3.300115879157180521e-01,2.125016214974670761e-02,-6.241396013894638661e-03,-1.778191867366960346e-02,4.860225319862365723e-01
3.279716148431284228e-01,-2.205997812388899582e-01,3.805618218134504405e-01,2.711257465785272755e-02,9.255789048099059835e-03,-6.505972942238741341e-02,5.896663069725036621e-01
3.447693494143133086e-01,-2.794614930379213380e-01,3.319128744536442577e-01,7.510218231873395933e-02,-1.058291597281279910e-02,-1.140033810457876697e-02,6.320213079452514648e-01
3.086268828864839886e-01,-4.479447955122005665e-01,3.505526411158546574e-01,4.032838574198879811e-03,3.464365111412414516e-02,-7.327841803337862246e-03,7.808256745338439941e-01
3.468661987502792976e-01,-4.463494625253370263e-01,3.083090530757484071e-01,9.267384247554652163e-03,4.205555285426745837e-02,-1.038882951762674055e-02,7.784478664398193359e-01
3.342265590435215539e-01,-4.551941162366888172e-01,3.243263217659463904e-01,-4.533338330400868540e-05,7.217560357326432974e-02,3.723312143916008340e-03,7.944414019584655762e-01
4.096905141191588551e-01,-4.573701099487494925e-01,2.325155151871359238e-01,1.017179953469496282e-03,-2.275691893924976228e-02,4.300103079239079272e-03,7.944657802581787109e-01
4.497302437750381743e-01,-4.618863603410182650e-01,2.231991828282758050e-01,-3.661242086159722034e-03,2.281805398181720873e-02,1.863843173624731139e-03,8.230822086334228516e-01
4.949596854195589257e-01,-5.144175678761563342e-01,1.487586016266646272e-01,8.648980639404505594e-03,7.599036513895209011e-02,-4.546251184051616073e-02,9.016643762588500977e-01
4.643387201205813053e-01,-5.200038995742791714e-01,2.113842148934864662e-01,4.748257623128758096e-04,3.960515876749214070e-02,-6.866953300916092684e-02,8.959773182868957520e-01
3.539657057271959895e-01,-3.828758013841848662e-01,3.580443451393408028e-01,1.276708472119768289e-02,3.051340313804948648e-03,2.467688360201729728e-02,7.404735684394836426e-01
3.705533193061668062e-01,-4.751914181797908254e-01,3.610222360292855148e-01,4.105846897685391100e-03,2.486260676129040028e-03,-1.042643257226568212e-02,8.412546515464782715e-01
3.709061814135380941e-01,-4.389194147497936793e-01,3.616015202661027050e-01,-7.977259768176602622e-03,-1.277042871849118008e-02,3.263652115338900456e-03,8.056556582450866699e-01
3.619496124918620827e-01,-4.597757562999992276e-01,3.659698138849674098e-01,5.477122777451679490e-03,-6.004369785897712211e-03,-4.630491458696544757e-03,8.239021301269531250e-01
3.598582852830631840e-01,-4.585861910762651927e-01,3.761184721534771569e-01,5.160916458224207477e-03,-7.751816233968155528e-03,-8.544481211921398436e-03,8.269842863082885742e-01
3.589196504502753515e-01,-4.165345369333035563e-01,3.646947518135138511e-01,2.815173462434745685e-03,9.176312398033886070e-03,1.088863530005920906e-02,7.787637114524841309e-01
3.647208763311590718e-01,-4.742245667599845893e-01,3.639193942993316777e-01,3.139513096956368307e-03,-3.137576291377225618e-04,4.763205882192760206e-03,8.386033773422241211e-01
3.596336132065267588e-01,-4.544391148534677738e-01,3.618360859109652217e-01,-4.547244795587617253e-03,1.756492767801802815e-02,1.623995500830478691e-03,8.157866001129150391e-01
3.593415390637292872e-01,-4.608683290008331879e-01,3.739420785245179402e-01,-7.942738020492952356e-03,-4.733548103619655140e-04,7.413688183850446027e-03,8.278210759162902832e-01
3.401706937380762907e-01,-2.355150507907162183e-01,3.585574527111607401e-01,-2.312579370303298118e-02,2.110046768945779763e-02,-5.042799063958305385e-03,5.876678824424743652e-01
3.581789640529888796e-01,-3.542602356026917643e-01,3.556171394644583872e-01,2.401611194361024174e-02,-3.376147730694898166e-03,2.002380270203620721e-02,7.132449746131896973e-01
3.536641442759352327e-01,-4.562628677090010410e-01,3.327692518250444098e-01,-5.754605916724828954e-04,-1.831576364844489380e-02,2.253056732038646523e-03,8.003234863281250000e-01
3.662965253930104970e-01,-4.498984896793633004e-01,3.210487194402232847e-01,1.962215798204536982e-02,5.125422095726596405e-02,-2.807421906777685973e-03,8.002189397811889648e-01
3.741393806960796042e-01,-4.847092361732817656e-01,3.347140347949144057e-01,9.545693714977838713e-04,1.816604581582806355e-02,-8.711387310121570041e-03,8.405565619468688965e-01
3.842486264186091849e-01,-4.541670460804090315e-01,2.399436912148547041e-01,-1.194029661749358359e-02,4.820761822175154143e-02,7.190429925363680565e-03,7.812374830245971680e-01
3.403694029952800126e-01,-4.607774101329269456e-01,3.265548698896077462e-01,-1.676018983153455821e-02,3.131071395564746090e-02,1.077877111960748834e-02,7.969265580177307129e-01
3.617968997678383536e-01,-4.716669265920621079e-01,3.003830469727221120e-01,-1.204719028426581851e-02,3.531173567164628407e-02,1.024434813497050820e-03,8.071100711822509766e-01
3.749332670812615120e-01,-4.881648410342898092e-01,3.102944989373127571e-01,-9.057563927704072662e-03,2.972582850744386745e-02,2.702143912997473363e-02,8.357118964195251465e-01
3.758445342337539130e-01,-4.879808233257434402e-01,3.380154107809788533e-01,-1.391851566886248039e-02,4.788302924375947844e-02,2.341340577352696989e-02,8.509122133255004883e-01
3.447399089917593251e-01,-4.559296505088178408e-01,2.985832892625681634e-01,-2.009956668700350890e-02,4.576968070751100126e-02,2.096579973935139632e-02,7.842584252357482910e-01
4.075386771074351877e-01,-4.732610824380685255e-01,2.427281274161278979e-01,-1.518449370222018854e-02,2.924200326803513134e-02,2.454234039548998728e-02,8.141680359840393066e-01
3.538980417861097849e-01,-3.448279314707050069e-01,3.523081968995637192e-01,-5.423023744551015365e-03,-3.754495782536711591e-04,-4.146068561622769794e-02,7.016803026199340820e-01
3.867602298805279948e-01,-4.337581670033954229e-01,3.164742431543897672e-01,-6.191583706163291539e-03,-2.134498640341334075e-04,7.563012445966074216e-04,7.878048419952392578e-01
3.665157993428694305e-01,-4.607232541896001399e-01,3.785683731113712591e-01,3.011076474174213900e-03,1.667455033047663543e-03,-2.140047590675766068e-03,8.333602547645568848e-01
3.870280988764639440e-01,-4.635894135598808141e-01,3.375737764410488007e-01,2.685269507649371001e-03,2.214436242181438714e-03,9.917831755259405579e-03,8.272004723548889160e-01
3.633986501756093501e-01,-4.773177527582120883e-01,3.654746255198551008e-01,-5.626516061738698381e-04,-7.725492784104262024e-04,-6.775485779998914777e-04,8.417587280273437500e-01
3.921492130144572652e-01,-4.563272410672027934e-01,3.364066388298161403e-01,1.777395035546023997e-03,4.325674981808386166e-03,-2.731558808146592864e-03,8.220773935317993164e-01
3.412915314317644389e-01,-3.590407529857429503e-01,3.552443279313100000e-01,8.603813505938671252e-03,-2.165139685895069426e-03,-4.009449156920630308e-02,7.109785079956054688e-01
3.529819199897029636e-01,-4.327180365629684777e-01,3.782816955177932816e-01,1.061209207989665662e-03,-9.304267735096016789e-04,-1.438795661676649414e-02,7.990428805351257324e-01
3.833816082921538415e-01,-4.657289831206969932e-01,3.653027240229651529e-01,1.650638626946088205e-03,-2.064763983530160801e-03,-9.995553888817202901e-03,8.404078483581542969e-01
3.695430534179027782e-01,-4.647743000845352412e-01,3.598652919723189791e-01,3.213085291874930981e-03,5.699429340144250870e-04,1.944889052148286767e-03,8.295469284057617188e-01
4.819373245330517697e-01,-4.613057240780653601e-01,1.481047402910844191e-01,-1.551007451910911203e-02,-4.420608388373898495e-03,2.032174607648021616e-02,8.296297788619995117e-01
4.523510154688366591e-01,-4.628959482379482182e-01,1.555170827320524751e-01,-5.370869928212011063e-04,-1.338898765681352868e-02,3.924083110150185932e-03,8.091328144073486328e-01
4.454731507311569527e-01,-4.645762753685634960e-01,1.428202689957747129e-01,-1.788125287323305774e-03,4.109706488326570623e-02,7.470493749441378672e-03,8.059799075126647949e-01
4.275682115819049445e-01,-4.652696658633450610e-01,2.271275742613090842e-01,-7.573528173721384878e-04,4.423927727326111038e-03,1.149996829151063611e-02,8.116847276687622070e-01
3.626428273854866435e-01,-4.639835888017713739e-01,3.588058978489802597e-01,6.572948858299599260e-03,-4.058268257476405072e-03,-5.460112332140012147e-03,8.248773813247680664e-01
3.797170306419577757e-01,-4.618739684167096904e-01,3.621513027954390007e-01,-3.310349446631663702e-03,-1.001877959063307262e-03,1.916726350260603614e-03,8.329752087593078613e-01
3.573278098172467665e-01,-4.521799126675511982e-01,3.634976089658348286e-01,4.193011731812789147e-03,1.189207055937505780e-03,1.022755961527965947e-02,8.128383159637451172e-01
3.622181601398996587e-01,-4.395920585549456527e-01,3.613770860276850905e-01,-4.252327698582638107e-03,1.328067968164625559e-03,9.245417293514584731e-03,8.015871047973632812e-01
3.629041739359607499e-01,-4.431620068539650070e-01,3.653579972473383064e-01,-4.732959261780756051e-03,8.402548269711929141e-03,-1.056698513451339097e-02,8.076760768890380859e-01
3.798706569708794056e-01,-4.643483708039345403e-01,3.614508168851510161e-01,-1.161385765166653670e-02,-5.580873197874860678e-03,-1.282995972413728501e-02,8.357551097869873047e-01
3.670057182222337122e-01,-4.564513948851268710e-01,3.371856495275031840e-01,8.618018572703332533e-03,-6.983637547740227311e-03,1.195401893881611714e-02,8.094523549079895020e-01
3.629837289947877577e-01,-4.671815127114977706e-01,3.593238347728754944e-01,5.621946275503544518e-03,-1.345792402178521341e-03,4.453555840198104333e-03,8.284378051757812500e-01
3.616188150837554294e-01,-4.685086074796511735e-01,3.597892705680902359e-01,9.313596437028014846e-03,-1.344403719975774403e-03,5.232909565229526376e-03,8.294238448143005371e-01
3.799243076273719488e-01,-4.650047800853501778e-01,3.331989222915259230e-01,-3.211253813001985462e-03,1.104671165451679218e-02,8.296955371558428077e-03,8.229291439056396484e-01
3.252742580593919741e-01,-4.498747673067630126e-01,3.255037477806740909e-01,7.052729201290883904e-03,-2.312757681788122494e-02,6.169511625694866497e-03,7.764676809310913086e-01
3.524830723619980510e-01,-3.341399632924568763e-01,3.525695303902410815e-01,6.867046333114432653e-03,1.950750441361770709e-03,-2.558936019102716133e-02,6.882063150405883789e-01
3.658889225291995229e-01,-4.651785730049020628e-01,3.632372133173820128e-01,3.820716455665492360e-03,-3.445946277923916598e-03,-4.628152379196718257e-03,8.298314213752746582e-01
3.622442974467595111e-01,-4.402951897041440521e-01,3.604374302225446525e-01,5.068558945573239417e-03,-2.551348497038957025e-03,6.488073357089944003e-04,8.016986250877380371e-01
3.625712242898692650e-01,-4.439297416083080039e-01,3.721282587740198933e-01,5.516268207737044967e-03,-8.680354582236251768e-03,-8.792712929653064002e-03,8.116601109504699707e-01
3.567068960815823475e-01,-4.465685037398513524e-01,3.816057830830333342e-01,-4.619097346821992960e-03,-7.899358529404480744e-03,-1.912585551683445087e-02,8.168357014656066895e-01
3.711478786513828232e-01,-4.746894326131483322e-01,3.653320325499858079e-01,-8.460412025589789890e-04,-1.802577428051103763e-03,6.111955572221565783e-04,8.429521322250366211e-01
3.666576045297299524e-01,-4.340833103097172518e-01,3.610182863106801698e-01,4.766380748390097906e-03,-8.424364446014632937e-04,-4.581380631642309118e-03,7.980197072029113770e-01
3.693294458763256016e-01,-4.176947807854407557e-01,3.292906819820427544e-01,2.790510513133646637e-03,1.254547060695131860e-02,-8.336257202839186115e-03,7.682465314865112305e-01
3.690220350970390695e-01,-4.210160903947990363e-01,3.250993281996034101e-01,4.486953762484816727e-03,-4.189377540116045844e-03,-3.790464405574161828e-03,7.691196203231811523e-01
3.241902895691766151e-01,-3.508071508914583636e-01,4.001657483677683591e-01,-4.829668881977525197e-02,-2.019082940036036680e-02,1.021239061972104185e-02,7.219492197036743164e-01
3.095921465565467656e-01,-4.472860261404186799e-01,3.969519381109235523e-01,6.690862311452019234e-03,-1.018066661127578487e-02,-8.889452697948057799e-03,8.045491576194763184e-01
2.429752738969572223e-01,-4.493149555739786027e-01,4.749889335629602360e-01,-1.775148024895238999e-02,-1.773359978058870051e-02,-6.781502972048254405e-03,8.341124653816223145e-01
2.948242392337534490e-01,-4.726085380630116184e-01,4.110265119611302143e-01,-9.544106632400788104e-03,4.865478638760065144e-03,2.110722006693839265e-03,8.318600654602050781e-01
3.082464872592867167e-01,-4.748779428326692642e-01,4.050371080523809120e-01,-1.038150320390633999e-02,-1.327643426440556357e-02,-5.422300152582453306e-03,8.362964391708374023e-01
2.501230877150129039e-01,-4.411386534630273859e-01,4.023689942547021281e-01,-1.675350749760061084e-02,-2.056661414977830823e-02,-1.064016223980992701e-03,7.799857258796691895e-01
3.317679959135926282e-01,-4.737482300014139724e-01,3.969684081353966887e-01,-9.771776716702521362e-03,-9.393502813837701845e-03,4.346526086796014682e-03,8.403781056404113770e-01
3.603399141736346456e-01,-4.614118320782519822e-01,3.685739913397850787e-01,-3.851933174073042965e-03,1.024011745502829843e-04,-3.921363636038899259e-03,8.259544372558593750e-01
3.744733585356184724e-01,-4.464195617330961596e-01,3.690104743260069209e-01,-3.772806932794223189e-02,8.016769757705283911e-03,1.995163061136852843e-03,8.209053277969360352e-01
3.314391336098032603e-01,-4.332088442557293639e-01,3.710438229233738450e-01,-7.660872053084106549e-03,-1.537798818307149849e-03,5.622823762477069214e-03,7.853767871856689453e-01
3.496366771509067384e-01,-5.345001330422075592e-01,3.558346382178669831e-01,2.390703710923718864e-03,5.363105005323151597e-02,1.655503238546959755e-03,8.921157121658325195e-01
3.293714181254520090e-01,-2.914298688519749159e-01,3.334694424273080271e-01,-3.922509410398451355e-04,-4.515682914093661904e-03,3.151823275560221554e-03,6.229338049888610840e-01
2.774983071395172862e-01,-4.718519285781277439e-01,3.999674100408511235e-01,6.114055609495940881e-03,1.024556087767777013e-01,9.992703334145432159e-03,8.367794752120971680e-01
3.327630284596467258e-01,-4.260690273665463934e-01,3.409861372427065440e-01,-1.005571812161659868e-02,5.282681957871548928e-02,-3.964232079620474102e-03,7.686716914176940918e-01
2.605607537475761459e-01,-3.953253789574497912e-01,4.425315720874038461e-01,3.218679570291201747e-02,-1.261831443068425207e-01,7.620933600918604334e-02,8.068149089813232422e-01
3.624830889807406087e-01,-4.699305043077420807e-01,3.602615442168887738e-01,-5.356540603372930524e-03,3.770627260445536151e-03,2.185823807658147325e-03,8.313910961151123047e-01
1.976328391830136089e-01,-4.947419784864953707e-01,4.094905543344223298e-01,-8.100998257623046039e-02,-2.183003013962834804e-01,-2.138941262175550473e-02,9.137707352638244629e-01
7.878086566541951663e-02,-5.399585802314936789e-01,4.807163714518851716e-01,-8.354706766584514555e-02,-1.805580156058175234e-01,-5.025449390975781500e-02,9.588558077812194824e-01
3.657833888018326429e-01,-4.733002645065991221e-01,3.709484384404552193e-01,-1.537830095479623569e-03,1.570125955192086791e-03,1.112761990418311472e-03,8.416888713836669922e-01
2.447295402519809038e-01,-8.068027222511670038e-01,4.826361891079351540e-01,-6.857740993716822386e-02,-2.372789354431018571e-01,1.680606906125737265e-01,1.296237587928771973e+00
2.287127803801495829e-01,-5.738548594897822097e-01,4.766299320094081193e-01,8.442722650073053448e-02,-2.655164757310974344e-01,-6.114893139304428127e-02,1.071749210357666016e+00
2.147137258740349219e-01,-4.666684684366896319e-01,4.608158856109383361e-01,4.619025789642710461e-02,-1.118776857900002086e-01,1.876731821251158283e-02,8.588042259216308594e-01
3.769642255387465890e-01,-4.696568508988215873e-01,3.469370197540781464e-01,1.891465278049147668e-03,1.775475922525089276e-02,-2.469795868718449583e-02,8.336867690086364746e-01
3.725771343589446283e-01,-4.552161574635232855e-01,3.254188996474474127e-01,2.236854978406124274e-03,3.184016569647616507e-02,-2.233374700143655328e-02,8.080725073814392090e-01
3.700198124487710238e-01,-4.727345517196936964e-01,2.979817277329638303e-01,-2.845952023904042144e-02,5.199286882832082624e-02,2.966197510834910414e-02,8.172472715377807617e-01
3.859867640742352668e-01,-4.613389624005990175e-01,3.275720242843848107e-01,6.808958468436971008e-03,1.194292431755466025e-02,2.001799907429203246e-03,8.200340867042541504e-01
3.442358560572578718e-01,-4.733604658550316646e-01,3.016275961425379792e-01,-2.591394665126940666e-02,4.924065335518168496e-02,2.972271192092886330e-02,8.046003580093383789e-01
3.444221645845531032e-01,-4.828962529795377545e-01,3.443170759789171975e-01,-3.114479411156737682e-02,7.037527495797207822e-02,2.558684935975438779e-02,8.391072154045104980e-01
4.021177750373298165e-01,-4.840232214969001356e-01,3.309071549735129736e-01,3.132247417037972628e-03,4.573891449938112530e-02,2.225706841410962297e-02,8.573248386383056641e-01
3.376043394169718770e-01,-2.263277511469243830e-01,3.363310702992226009e-01,-2.925533890999550482e-02,-5.351497782329617953e-03,-4.940649190123981571e-02,5.720834732055664062e-01
3.537769106300691080e-01,-2.253697852685189740e-01,3.379185935126652884e-01,-3.086842108639649071e-02,2.089043697181221671e-03,-4.986565355508380121e-02,5.803529024124145508e-01
3.415617774466189749e-01,-3.394195715671654012e-01,3.468070719329757190e-01,-1.601239470247892149e-02,4.489184217535673732e-03,-3.856603792590348329e-02,6.874785423278808594e-01
3.502167225808966999e-01,-2.268827280803650259e-01,3.412947787275544820e-01,6.611897943276309753e-03,6.611019587544635437e-03,-4.357597812278433264e-02,5.778697133064270020e-01
3.893791702291683476e-01,-3.620684908115712197e-01,3.126986287135711251e-01,-2.610983246292902446e-02,3.678604773497245670e-03,-3.433153345486011226e-02,7.201067805290222168e-01
3.576748653405831258e-01,-3.725912009472902575e-01,3.634127317907706045e-01,5.728299119392308604e-03,9.594788244980088227e-03,-2.653863367821371680e-02,7.348463535308837891e-01
3.969273355897624533e-01,-4.884421823487213876e-01,2.969513151852707922e-01,-4.646233628346002446e-03,8.142818727915987487e-02,-2.444384382368048128e-02,8.527060151100158691e-01
4.021041005647164601e-01,-4.906510103595550509e-01,3.308214054166630502e-01,-3.869279133760216653e-03,8.958715786439416101e-03,5.709471609930217434e-02,8.651705384254455566e-01
3.440007168459615627e-01,-5.312684579582495070e-01,3.234489228549077833e-01,-1.291266382709191363e-02,1.290596049274782831e-01,8.548877496031866488e-03,8.939903378486633301e-01
3.532504031033049663e-01,-4.675684420202728120e-01,2.530368972933999538e-01,1.915361313259194426e-02,1.364995234342905039e-01,-1.707885569501477185e-02,8.120352029800415039e-01
3.876211000727499134e-01,-4.746513935353535718e-01,3.063787646673759579e-01,2.202848038779739795e-02,4.493488705496184732e-02,-2.628204963363782801e-02,8.304496407508850098e-01
3.776330170187339741e-01,-4.688071465506605806e-01,2.916938639055935978e-01,1.388887869047038433e-02,3.200985822112681345e-02,-2.303757199237186498e-02,8.101536631584167480e-01
3.662361388721784294e-01,-4.737831122629704295e-01,3.709608188979298671e-01,-1.526450329818215650e-03,3.682355338144750051e-03,-1.021995649805527897e-03,8.424217104911804199e-01
3.129446437397707670e-01,-1.644881383810931630e-01,3.158948756614143316e-01,-6.352968349785229063e-03,-4.044603645839023667e-03,3.454266822472450149e-02,4.828136861324310303e-01
3.261151584832998607e-01,-2.683694421881265835e-01,3.441036216479076426e-01,1.678126758337332219e-03,3.670475477633248357e-03,3.112795571387890967e-02,6.061230301856994629e-01
3.196509564709634210e-01,-2.803675093035353227e-01,3.467355256658484763e-01,-3.779172365994699630e-04,2.982152197108743456e-03,3.446406394081345803e-02,6.169257760047912598e-01
3.630092833927870410e-01,-4.666635281595852280e-01,3.763687867539139420e-01,-8.989754156176194130e-04,3.619231349520025433e-03,-1.695091776056569834e-03,8.364626765251159668e-01
3.600662347510004690e-01,-4.650626211315660452e-01,3.619717946816281562e-01,3.073344474693927926e-04,-9.062083974074686219e-04,1.158459694132040179e-03,8.260873556137084961e-01
3.630348736536894716e-01,-4.601387563021707150e-01,3.576299994478786548e-01,-3.772972747873347323e-03,4.876290943440356792e-04,-7.409829281828216735e-04,8.205119967460632324e-01
3.640149677146576335e-01,-4.733253378540459577e-01,3.672353334219303211e-01,-5.482960697032628929e-03,2.240326250799660936e-03,-5.423674709439865217e-03,8.390704393386840820e-01
3.636784410515124244e-01,-4.681939207163283712e-01,3.621258142474139130e-01,-7.271145909541353383e-03,9.430595184776288838e-04,4.619071266576646700e-04,8.311945199966430664e-01
4.141459768909496741e-01,-4.268606708596858201e-01,2.680302564352279315e-01,-2.304861179685021438e-02,-2.460792499224112584e-02,-1.461427085213000236e-02,7.809025645256042480e-01
3.788504662238542098e-01,-4.657261856676192524e-01,3.244523055927824862e-01,1.242042832796910051e-03,-5.362362327464260427e-03,1.350681678576823655e-02,8.191236853599548340e-01
3.578512622986075309e-01,-3.867465251709836793e-01,3.520453524786913979e-01,-1.788669305188908326e-03,-2.993168020011761389e-03,2.667752794117961984e-02,7.431743144989013672e-01
3.629731109901231378e-01,-4.463800639287212046e-01,3.667219267040987551e-01,6.799399294819451699e-05,8.559688163507725780e-03,6.740273039700645299e-03,8.114535212516784668e-01
3.624259692367008956e-01,-3.146122028136564275e-01,3.112998800822298073e-01,-1.291732618296187766e-03,2.479990873571653875e-02,8.631912229034284512e-02,6.712550520896911621e-01
4.203380623406759442e-01,-5.077037751297602819e-01,3.434348414904073721e-01,-3.204315242237738837e-02,2.316160326248914870e-03,2.305305357362479046e-02,8.947049975395202637e-01
4.014635554952615260e-01,-4.627038340057652022e-01,3.373304789066230436e-01,2.232110564861065211e-02,-3.566806991024661262e-03,3.964413978872997901e-02,8.376899361610412598e-01
4.052030813414281840e-01,-3.927038409725318591e-01,3.271224567444994125e-01,-4.205888813460133963e-02,-3.319306679561303229e-03,4.731434733365998818e-02,7.697446346282958984e-01
3.681500969706793525e-01,-4.525596565623393186e-01,2.837234015994588021e-01,1.510515696708478704e-02,1.039606568970729075e-02,-1.131214296576783795e-02,7.828123569488525391e-01
3.438717620949706122e-01,-4.647737421744400077e-01,3.656931203387769891e-01,7.614411685434636749e-03,1.039526408599250953e-02,-3.657234770045699173e-03,8.201022744178771973e-01
3.360945265045250929e-01,-4.796623688006850239e-01,3.505957423945653684e-01,3.199934074242678783e-02,5.508215234989631559e-02,-6.906784698783086963e-03,8.305517435073852539e-01
3.520134801318003381e-01,-4.623477339518199392e-01,3.279589466694099453e-01,7.788465442085881416e-03,2.266925629621237281e-02,-6.806583055964197417e-03,8.037638664245605469e-01
2.990429586041054577e-01,-4.651374895042984514e-01,3.478040305078625161e-01,6.431140870687229033e-03,4.831009340739450542e-02,-7.845231414086429461e-03,7.943059802055358887e-01
3.298079023826963607e-01,-4.621241138027022410e-01,3.497087189166419585e-01,2.007801131912103146e-02,2.814235235242822097e-02,-1.833244359537049284e-02,8.049260973930358887e-01
3.287837237095178611e-01,-4.622340656485017796e-01,3.387284624097123831e-01,1.880808697546977951e-02,1.846231468860089209e-02,-1.806706665646602011e-02,7.979583740234375000e-01
3.415167141208638735e-01,-5.396302764711343736e-01,3.626469549478313348e-01,1.431005390823991523e-02,1.233782101002307008e-01,-1.413106221313758203e-02,9.178045988082885742e-01
2.641636646008161948e-01,-4.773252559934010320e-01,4.595307615715975569e-01,4.114388931617837808e-02,-3.311662508104570857e-02,-7.120948135622782310e-03,8.610211014747619629e-01
2.682868819618274836e-01,-4.287370039476299244e-01,4.031348088098797300e-01,-6.503381567671251938e-03,-2.099605953012315812e-02,-5.747058256913050063e-03,7.743170857429504395e-01
2.975905440211922270e-01,-5.259274288627352467e-01,4.268788718379996072e-01,-4.366341953991837582e-02,8.439346131025609113e-03,1.429562348942418730e-02,8.988408446311950684e-01
3.494905624767198349e-01,-4.613726650140944630e-01,3.483220097063488563e-01,8.629363527576650039e-03,-1.324722286157826306e-02,4.849594717950682886e-03,8.107857108116149902e-01
3.615032121875012550e-01,-4.686934630005268332e-01,3.472259609864448704e-01,7.323794988967556943e-03,-7.165692400886197050e-03,2.398129831685286758e-03,8.233526945114135742e-01
3.832405374881983628e-01,-4.590807475602766141e-01,2.449103495852458512e-01,5.757382543474679447e-03,2.286255735200939943e-02,-1.469201054176182825e-02,7.838603258132934570e-01
3.938103292599496874e-01,-4.478039858953762886e-01,2.651777311582236285e-01,4.235225955041696348e-03,2.969437734708891413e-02,3.682239994419803791e-03,7.869826555252075195e-01
4.431748091951956403e-01,-4.523897402255411260e-01,1.941737993013550323e-01,1.290931247679986439e-02,3.391671490779035042e-02,-7.852549542864429091e-03,8.032290339469909668e-01
4.399205055820895605e-01,-4.661349039407978179e-01,2.082754344756884146e-01,1.682818875880844837e-03,3.723048275790535183e-02,-1.570287384400295000e-02,8.183025717735290527e-01
4.083271385586224600e-01,-4.615605006472176530e-01,2.259490247560845266e-01,8.685774723797947197e-03,2.845718339484126780e-02,-1.066625103121761689e-02,7.964388728141784668e-01
4.093468375731280640e-01,-4.627043922026045086e-01,2.285545549289658973e-01,7.440280446081247966e-03,3.053884579197727739e-02,-1.233835718059314752e-02,7.993245124816894531e-01
3.988874892385855797e-01,-4.606214958370609125e-01,2.508828837218140539e-01,8.921326223517477352e-03,7.508166771354029406e-03,-1.359086156799356113e-02,7.964997291564941406e-01
4.023970253568630584e-01,-4.613376807487375997e-01,2.078041000865732679e-01,4.415946861727043475e-03,4.889820248689444315e-02,-6.543292352330119105e-03,7.894222140312194824e-01
3.323786363351897144e-01,-2.256310676058266851e-01,3.466718884883223106e-01,8.749967115946784280e-02,9.838370923688291581e-04,3.370962982892453802e-02,5.881627202033996582e-01
3.021850473927659708e-01,-3.390019926223092894e-01,3.715673491978428999e-01,6.423616310346838554e-02,-1.867150503568541613e-04,3.801071864361390412e-02,6.907497048377990723e-01
3.097252365210571012e-01,-3.583739662707213780e-01,4.285626134220262284e-01,5.389879741034903082e-02,-1.608077044632793759e-02,-2.766876565508599034e-02,7.427393198013305664e-01
3.472569628926112095e-01,-3.347402407378023415e-01,3.616045355302364150e-01,4.854000395625499009e-02,1.384716552028221470e-02,3.850253081797072596e-02,6.979985833168029785e-01
3.626270116028694757e-01,-4.129104735001468685e-01,4.211364217638552954e-01,8.323744241127284393e-02,-1.550832002473168797e-02,-1.396080993642061924e-03,8.196162581443786621e-01
3.028861028516423026e-01,-4.469106995522247328e-01,3.501855014292694079e-01,5.386097296195302073e-03,1.831276521499478060e-02,-2.715121634065133325e-03,7.752500176429748535e-01
3.250860110512597823e-01,-5.781573044147978457e-01,3.399288930093589123e-01,1.373884217850506080e-02,1.337295485521979022e-01,-7.666631446085717116e-03,9.401430487632751465e-01
3.036938742973981364e-01,-4.691484120003551750e-01,3.432260868333731896e-01,4.855283985446258617e-03,8.472408999129102392e-02,-1.425903765855766545e-02,8.072269558906555176e-01
2.737498115861395354e-01,-4.556266455274123883e-01,3.860036580126922079e-01,2.763684290998621659e-03,3.826111222610851376e-02,-1.856912226638466126e-02,7.949310541152954102e-01
2.192422101671920864e-01,-4.728815426621708617e-01,4.054749270137117945e-01,2.240725440245677769e-02,1.389845417007763984e-01,-1.161490965763915112e-02,8.381378650665283203e-01
2.421843782455461724e-01,-5.472754829480530603e-01,4.061832280670471529e-01,1.933941073322413030e-03,7.761958526140665116e-02,1.301778852031885113e-02,8.934243321418762207e-01
2.148225373812752415e-01,-5.580835238720196489e-01,4.911965525337435023e-01,2.182952985937169216e-02,1.178084447487123820e-02,-1.701105625122596764e-03,9.429910778999328613e-01
2.459825258524146741e-01,-4.219976138735337390e-01,4.072502388837708764e-01,-1.623707026406372156e-02,-1.660063708051171330e-02,1.735537366214902691e-02,7.631838917732238770e-01
3.721348041909317006e-01,-4.636374584174313140e-01,3.393433683410834734e-01,-7.052042730088092966e-03,-1.993588884361070183e-03,-1.288213093660432566e-02,8.202702999114990234e-01
3.572740631445624482e-01,-4.604123292250067445e-01,3.555999108827567756e-01,-2.860277370752261077e-04,-1.710729706323087587e-02,-8.811148308903022502e-03,8.175304532051086426e-01
3.628903674514405986e-01,-5.054830368633054238e-01,3.654349466067557950e-01,-3.174116642265690982e-03,-1.705633572713057683e-02,-1.580112536213603217e-02,8.705977797508239746e-01
3.776263225855476247e-01,-4.153028833687454346e-01,2.848435532781640744e-01,9.419253130810330277e-04,-4.284866227085032397e-02,2.309149512527409673e-02,7.555696964263916016e-01
3.777043778368043281e-01,-4.515610535586481733e-01,2.994478939249538563e-01,-2.988046282458345620e-03,-3.562009616949450563e-02,-1.173863988516062051e-02,7.957112193107604980e-01
3.986958207388793252e-01,-4.673559032834914140e-01,2.947310967962957218e-01,-4.889829601091858630e-03,-3.591799630155905615e-02,-2.056812201350170094e-02,8.222083449363708496e-01
3.763318512788047521e-01,-4.537483150836115753e-01,2.753388114380196372e-01,1.375992651545056809e-02,1.693972972001437163e-02,-8.111497563576264280e-03,7.855104207992553711e-01
3.383102426077831404e-01,-4.582121541636685613e-01,3.482517210285232534e-01,-3.971876671822135302e-03,1.505556612445309306e-02,1.049974266612225225e-02,8.021991252899169922e-01
3.494368406534483218e-01,-4.665405761303933474e-01,3.589236640209321205e-01,-6.823787823203661916e-03,2.371728646401721242e-03,9.084036560065617341e-03,8.210080862045288086e-01
3.153432835765390685e-01,-4.624380474593025037e-01,3.703321082780647866e-01,-8.397092737313338953e-03,6.218952039592568620e-03,1.044375467788619116e-02,8.070883750915527344e-01
3.317692185879494438e-01,-4.671086369952280881e-01,3.588995997652577596e-01,1.593096647587565395e-03,2.200324389505242673e-02,2.829036766557577447e-03,8.136951327323913574e-01
3.426146967833028079e-01,-4.689166587135096265e-01,3.688705250880426334e-01,-3.681948544286137420e-03,3.638148027221879167e-03,6.332223455624497004e-03,8.250942826271057129e-01
3.307226013490585093e-01,-4.731382188710330228e-01,2.862036213232338477e-01,1.207993413631362235e-02,-1.427996224885450527e-01,8.754381678842119985e-03,8.211150765419006348e-01
3.805207098180813929e-01,-4.571946477898894967e-01,2.765921566893524419e-01,1.179631212911055535e-02,3.307640874532325609e-02,5.559197184393126949e-04,7.932251691818237305e-01
2.880284301561566451e-01,-4.563371031236032049e-01,3.538469270176142212e-01,5.707368770518116748e-04,-8.950740118347294549e-02,2.764355398176436616e-04,7.946326732635498047e-01
3.339039196805845267e-01,-4.891140259104433952e-01,3.628164385485552201e-01,1.319467785653861622e-02,-5.615636372612269056e-02,2.770056860085737607e-02,8.451478481292724609e-01
2.398217258157654963e-01,-4.684059943481475585e-01,3.414194860522310471e-01,8.883610353417611266e-03,-1.490296341149877080e-01,1.927840895534405075e-02,8.073686957359313965e-01
3.664343105517904320e-01,-4.773788054991571217e-01,3.678070738023775932e-01,1.807369398618470773e-03,1.012391808566397719e-03,1.131584643818335598e-03,8.445102572441101074e-01
2.937857903941238358e-01,-4.666895102321088062e-01,3.419707753534257377e-01,6.335304079317688637e-03,-9.391697824959957530e-02,1.312687850177953960e-02,8.027368783950805664e-01
3.716630850855412449e-01,-4.653706998274624862e-01,3.069241320506949089e-01,1.141030722552823298e-02,1.385738914997311846e-02,-1.179013535334200863e-02,8.074724078178405762e-01
3.635109428591910552e-01,-4.634951309745936054e-01,3.606091271104538420e-01,9.492663267519592992e-04,5.679959070298989552e-04,2.152567381764746855e-04,8.255612850189208984e-01
3.598248455410728019e-01,-4.692546256811316319e-01,3.594625649071962470e-01,6.970783616538724949e-04,8.075746321308924745e-04,2.651273642913469421e-03,8.289131522178649902e-01
3.594042581843329698e-01,-4.732864745823097685e-01,3.629568072646857657e-01,3.429824489932450666e-03,-5.377794550850207222e-04,1.136671313855413352e-03,8.344966769218444824e-01
3.609618068348904862e-01,-4.644244199066203116e-01,3.586478632538696587e-01,3.991824015026864889e-03,3.614116587503091432e-04,1.817923892914537817e-03,8.242669701576232910e-01
3.648524782150790458e-01,-4.690616128845951360e-01,3.622448822710722105e-01,4.671889727275285384e-03,2.283520071034233871e-03,6.121512154236338071e-04,8.326627612113952637e-01
3.611026926938362136e-01,-4.733509181988027059e-01,3.640263545162422676e-01,4.386958124325759587e-03,1.478537883531776641e-03,2.588891651867918000e-03,8.359697461128234863e-01
3.485718473055711142e-01,-3.433834293335920052e-01,3.390974467125721370e-01,-5.975202428863490151e-02,-3.617461318477565441e-02,-3.445924647463567692e-02,7.003820538520812988e-01
3.722554556984933871e-01,-4.623277021991277769e-01,3.460350198127958854e-01,7.385789160822909920e-03,-2.746210622459625827e-02,-2.421699165656673175e-02,8.243293762207031250e-01
3.314769957672205614e-01,-4.431028272255399525e-01,3.876589503303047857e-01,-6.778859741855555732e-02,-1.670417904749516361e-02,-3.582611163153705952e-02,8.155496716499328613e-01
3.566327322669364253e-01,-4.406650236658729014e-01,3.579656177841407660e-01,-1.740886625238308519e-02,-3.689981285015428956e-03,-1.813807914604062543e-02,7.991778254508972168e-01
3.583260373616994898e-01,-4.380499815994697288e-01,3.656573475819858698e-01,-1.351624706424091912e-04,2.097534143566468466e-03,8.355965063822317143e-03,8.002060651779174805e-01
3.651969723654746591e-01,-4.362425890367869208e-01,3.600527573536068116e-01,-7.832852917536032786e-03,-8.399056039762634387e-03,-3.879367661164832837e-03,7.991557121276855469e-01
3.400030308815272795e-01,-4.688971642545025631e-01,3.859960389685128113e-01,7.435899680433317484e-03,-1.875816325782400391e-03,-3.289134302999879508e-03,8.329750895500183105e-01
3.420311831558284776e-01,-4.631061386852325379e-01,3.507959613807161148e-01,4.615177261545113513e-05,-3.245347329698685009e-03,-4.562372438766193819e-03,8.096134066581726074e-01
3.538367448164365658e-01,-3.546578266118882716e-01,3.396842012841716496e-01,-2.935969384584405373e-02,7.758013834510728984e-03,-8.391614552854011200e-03,7.036445736885070801e-01
3.758018875478984500e-01,-4.182171476621996398e-01,3.428141795559532801e-01,-7.608029043198905050e-02,8.492964428829109791e-02,-3.015836526258969252e-02,8.044214844703674316e-01
3.736079221597523592e-01,-4.050047785744601558e-01,3.555873139675808647e-01,2.334290191416187044e-02,3.902487608784867626e-03,-3.152432667349205453e-05,7.708513140678405762e-01
4.018791425980866583e-01,-4.441271914788462727e-01,2.694590002234574788e-01,1.766537784823081145e-02,7.434311979158850225e-03,-1.185347931433358183e-02,7.891495823860168457e-01
3.790250476374943389e-01,-5.090905709798289047e-01,3.519980169644642554e-01,2.457827508180031664e-02,2.321798826785944486e-02,-2.655153838202899391e-03,8.768849968910217285e-01
3.918891362352153185e-01,-4.907689659245862979e-01,3.437356452954504205e-01,6.628548044177382838e-03,2.975969787302029657e-02,-5.661220973511575834e-03,8.612699508666992188e-01
3.650105363959098570e-01,-4.589282262893045194e-01,3.644623574905782593e-01,9.203892338485947580e-03,-2.994352606674344913e-03,-1.066847370103761461e-02,8.240426182746887207e-01
3.872886575745766446e-01,-4.361674068253930114e-01,3.358418146275170546e-01,-2.008684365260981694e-02,1.720945108017216466e-02,4.140240591566028000e-02,8.034948110580444336e-01
3.826121499828640249e-01,-4.730035445101746783e-01,3.412825901339704981e-01,-3.252053516320840831e-02,1.988706199166827282e-02,5.282718721322987587e-02,8.433003425598144531e-01
3.687619645650810352e-01,-3.601724982871152281e-01,3.226669729396274833e-01,-2.186261659649840067e-02,2.249475477970187473e-02,5.991487067486594986e-02,7.166528701782226562e-01
3.725870362077258746e-01,-4.733033446090789687e-01,2.887800848651000951e-01,1.505410396150914237e-02,4.286276014985394844e-02,-1.707175154400743938e-02,8.116208910942077637e-01
2.466493031757628906e-01,-4.456424782114338790e-01,3.713498910952452436e-01,7.565568983663843901e-03,3.044356983709935877e-02,-1.232650900990639453e-02,7.645621895790100098e-01
2.140814979904703264e-01,-4.864574351350161585e-01,4.207318971651214379e-01,1.092085700058846760e-02,5.774615927625163792e-02,-6.689852271464183202e-03,8.298926353454589844e-01
2.399941326423154220e-01,-4.646488791938080398e-01,4.172898139673303364e-01,2.142230337166711046e-02,2.981346749263728141e-02,-6.446941127926204655e-03,8.105884790420532227e-01
1.816126499040699449e-01,-4.576410354533565483e-01,4.373644970645417240e-01,6.420063254938674496e-03,4.031488258842272354e-02,-4.313008252992268747e-03,8.016232848167419434e-01
2.075424397062645143e-01,-4.512046259802910964e-01,4.455937552426483261e-01,6.894687641113481785e-03,-1.210627703841603633e-02,-6.285919194294422620e-03,8.050668239593505859e-01
2.393750000681592605e-01,-4.485315094049511231e-01,4.126605773535979016e-01,-1.269553376371201328e-04,1.993575890292425407e-02,-2.733853224422629416e-03,7.897229194641113281e-01
4.184379765589381073e-01,-4.681255146949924173e-01,2.249540417865201203e-01,1.637802430592951580e-02,1.739645845274958857e-01,2.092643371868777372e-02,8.630205988883972168e-01
4.354103263909752108e-01,-5.708148136601671752e-01,1.436611675662876619e-01,-5.093822642204229312e-02,2.253645922078890140e-01,5.170755821775576550e-02,9.860091209411621094e-01
3.036225103234521105e-01,-4.652395486340850095e-01,2.582486989427019708e-01,1.998872685831071944e-02,1.415365116171834470e-01,-2.162145606472912901e-02,7.880484461784362793e-01
2.095852118263395458e-01,-9.208376862352466441e-01,6.455410103192092963e-01,-2.571159646161591539e-02,-2.243643311390258743e-01,-1.185085376585640927e-02,1.454011797904968262e+00
3.604362671462339462e-01,-4.424407308924958038e-01,3.752760465100310472e-01,3.453697806659699037e-03,-4.188613079012102301e-03,-3.607634552182687609e-02,8.128586411476135254e-01
3.800312371303852799e-01,-4.241669172250807085e-01,3.700516331259953717e-01,2.276857212994996826e-02,-5.262578737724819128e-04,-3.294201348912127042e-02,8.022595047950744629e-01
3.663895604302250253e-01,-4.250897285340745624e-01,3.282641722239539872e-01,-7.874431096702782379e-03,3.306798436824924525e-02,2.126176890868821875e-02,7.762346267700195312e-01
3.730804654166947620e-01,-4.119602837677726059e-01,2.938579235802195599e-01,-2.570834477625059955e-02,9.041601831432460878e-02,-1.223633879554705990e-02,7.663741707801818848e-01
3.224795656406951316e-01,-4.019129469643412111e-01,3.951289253016816438e-01,8.863309977907858628e-02,4.394279616927063842e-02,-2.006454616755320303e-02,7.830818891525268555e-01
3.649743982917463825e-01,-4.308911614328112538e-01,3.698001276373906743e-01,2.485923626579686352e-02,8.788422155850799874e-03,-4.488854033805326181e-03,7.996324300765991211e-01
3.457529858164958281e-01,-2.768272133001076218e-01,3.308100831871176872e-01,4.513576500371199729e-02,2.501121515075241386e-02,-6.616213155451503014e-02,6.321763396263122559e-01
2.149604946673248085e-01,-4.720908555030949305e-01,4.484931373080197625e-01,-2.689735378708878882e-02,4.891533193805657279e-03,-1.504354343055603086e-03,8.302258253097534180e-01
3.699864954705157638e-01,-4.195352922863593292e-01,3.492567533862812601e-01,9.708967069008164405e-03,1.825146080849664870e-02,-9.194812718996933296e-03,7.803483605384826660e-01
3.627732834964976227e-01,-4.627179537946705112e-01,3.469008038817110173e-01,3.488524452666282830e-04,1.940438461148057125e-02,9.612638587626820205e-03,8.185305595397949219e-01
3.175301532705808172e-01,-4.552575274654848680e-01,3.858835864226776713e-01,2.607682026717134116e-02,1.075816424356682531e-02,2.332306609115442249e-03,8.106165528297424316e-01
3.576892909997219094e-01,-3.941364182814428019e-01,3.532789843091567739e-01,1.523118577768478067e-02,-1.099914713761277743e-03,-1.198616918097491352e-02,7.503840327262878418e-01
3.613104442576702824e-01,-4.512610154566092380e-01,3.601954759130717720e-01,2.280032882943571534e-03,-1.589027393897570178e-03,1.039867743699767659e-03,8.120307922363281250e-01
1.728018203468702219e-01,-4.572087667730820870e-01,5.142009113410956900e-01,-3.373524930829800011e-02,-5.801172659997968009e-03,4.688813364384145088e-02,8.594546914100646973e-01
3.677523805212731811e-01,-4.510053657348203071e-01,3.703145583071312807e-01,-3.539726816557150005e-03,-1.062128766576413662e-02,-2.929790655255758657e-04,8.202712535858154297e-01
3.348101132562275595e-01,-5.147514807048483299e-01,4.079900367313972764e-01,1.368893458348923939e-02,-5.673957128759822555e-03,-1.805336337930735918e-02,8.893354535102844238e-01
3.554876188349804789e-01,-4.572212875293092393e-01,3.909835454334488203e-01,-2.250146523007078361e-02,2.876954447058650225e-03,1.970818482726207493e-02,8.326539397239685059e-01
3.663961536996995783e-01,-4.759821875611617292e-01,3.660593495244533480e-01,1.533398667015969203e-03,7.851890282349499074e-04,5.480617008068308302e-04,8.422158360481262207e-01
3.672389204230921411e-01,-4.299021785292074238e-01,3.585883719625668209e-01,-1.452473982062960946e-02,-3.346372711092056133e-03,3.834644174255012229e-03,7.932992577552795410e-01
3.684788184859317806e-01,-4.252315752515574143e-01,3.612789253732249239e-01,-1.845905964939218921e-02,1.487007117961887479e-03,-5.766467024889004866e-05,7.907858490943908691e-01
3.667540183671439968e-01,-4.639082933100205919e-01,3.747395970327863646e-01,-1.080698406290189588e-02,-4.841278326084489780e-04,2.653883637490610757e-03,8.349066972732543945e-01
3.545326123077897074e-01,-3.391420351954942958e-01,3.369275071220512174e-01,-3.960816890119819161e-02,-1.428872477755974407e-03,-3.956718645405753708e-03,6.885069012641906738e-01
3.721810301908387575e-01,-4.572782415868976713e-01,3.654293140340043045e-01,-6.747837866847752886e-03,1.291224954067318308e-03,-1.604147549841589354e-03,8.261944651603698730e-01
3.546451712819119750e-01,-3.757121940036987628e-01,3.556916081221984105e-01,-4.279333660486252938e-02,9.391317724773849598e-04,2.795071356388012084e-03,7.346476316452026367e-01
3.736104987728989801e-01,-4.585272019223138873e-01,3.179774563597999038e-01,7.309948472694418470e-03,-1.220606631754410712e-02,-9.864161266601813305e-03,8.063206672668457031e-01
3.647779928504711333e-01,-4.448163422765474273e-01,3.577922722801994415e-01,7.516923824495599406e-03,3.704720920767062310e-03,-5.568302712718774857e-04,8.062554001808166504e-01
2.218124429390614105e-01,-4.582636890048380485e-01,4.247701353516437628e-01,-4.635625047672582016e-03,1.419642680256371151e-02,2.386552431432025206e-03,8.015037178993225098e-01
2.754229101034387228e-01,-4.569440555510129176e-01,3.880260625758493176e-01,6.676611703016387990e-03,4.093612792004090728e-02,-1.660924715356182357e-02,7.984336614608764648e-01
2.412746237220521894e-01,-4.510895583908991480e-01,3.774341536932663832e-01,6.969293056341988903e-03,4.830242726896823158e-02,-8.173864507637816634e-03,7.742900252342224121e-01
2.269579289690888957e-01,-4.534501311026577497e-01,4.034403748221036534e-01,1.819057746731867625e-02,3.310160960780703099e-02,-8.586797257872477024e-03,7.865635752677917480e-01
3.593588432385941278e-01,-4.084250640689685019e-01,3.578745644056308128e-01,-4.614559663182203446e-03,7.010642630666533842e-03,-1.065742715856958338e-02,7.674026489257812500e-01
3.677126169467502259e-01,-4.480626051091892714e-01,3.676307993339644198e-01,-9.291299146547096766e-03,8.608664901626079599e-03,-1.231207267102904686e-02,8.163079023361206055e-01
3.634865763105027403e-01,-4.592732509072515734e-01,3.723291987606839881e-01,8.299905056180574732e-04,8.353455304978425408e-03,3.357464894951941222e-03,8.273648023605346680e-01
3.470688370620407248e-01,-4.093137268126233463e-01,3.579294494921818059e-01,-1.845662111943059680e-02,2.959494613408243484e-03,1.479159486726566893e-03,7.625628709793090820e-01
3.631044614211410004e-01,-4.540664643664199529e-01,3.719050171327797361e-01,5.680855010267849350e-03,1.073234358691287429e-02,4.884539493595143299e-03,8.219192624092102051e-01
3.136518479016691119e-01,-4.800150951615144157e-01,3.872748352720362108e-01,1.157932162007286464e-02,6.696759199120846939e-02,-1.166469084376975732e-02,8.414416909217834473e-01
3.347519851044673533e-01,-4.768176656671939684e-01,3.626728532517559112e-01,2.211614771589105397e-02,4.158274478627664583e-02,-3.489134643600507596e-02,8.321006894111633301e-01
2.788989592974353560e-01,-4.829011804577703071e-01,4.107426462451753135e-01,3.895255081571569189e-02,2.901987557431718462e-02,-9.457265941928406222e-03,8.399448990821838379e-01
2.775441380646722633e-01,-4.851630740904142591e-01,4.124817773460376369e-01,2.449383359354964304e-02,-6.641879272465737311e-03,-4.223426190758173757e-03,8.395439386367797852e-01
2.283502599926942600e-01,-4.629542515302667027e-01,4.513850438450255353e-01,8.653872373114100333e-03,-4.760799629938220964e-03,1.466666918153749014e-02,8.262985944747924805e-01
3.681137433835878769e-01,-4.533990215993041195e-01,3.633492254920427378e-01,-1.018955253141412033e-02,1.390041214886967441e-03,-5.830189823937411732e-03,8.193967938423156738e-01
3.461908075322057687e-01,-3.303108458881863774e-01,3.474831790129490061e-01,-2.140343100831904044e-02,-1.464112350093482035e-02,3.831108277713924509e-02,6.818732023239135742e-01
3.304721918012950566e-01,-4.517678668353312110e-01,3.891348556961619076e-01,1.012695639845699082e-02,1.762623456746614803e-02,7.615671232277168926e-03,8.140287399291992188e-01
3.614587437585410901e-01,-4.724622669072543468e-01,3.626663790223945694e-01,-4.801375446091570346e-04,-1.228180117301459935e-03,4.781593063039100630e-03,8.345696926116943359e-01
3.420311477450699300e-01,-4.510540131972688993e-01,3.665319351103423218e-01,5.716737412095821390e-03,1.843577219396105339e-03,-4.874974010446474215e-03,8.057264685630798340e-01
3.607193844335163657e-01,-4.207895278209003997e-01,3.591561184163161724e-01,7.228650881186410825e-03,-1.819894742386627285e-03,-7.677893218451789514e-03,7.809484601020812988e-01
3.757312781959967762e-01,-4.637825056622721931e-01,3.403945802364295448e-01,9.167710096002777698e-03,3.276510703926564447e-03,-3.908743518716771038e-03,8.226157426834106445e-01
8.747329999973116332e-02,-4.084580915010682656e-01,4.885022549617219489e-01,-1.583967833398751412e-02,1.017767531615983434e-01,3.180164289371772979e-02,8.003232479095458984e-01
3.545550324703293232e-01,-4.664251983105448529e-01,3.527574589632824775e-01,1.053259235156625735e-02,1.969751349778982655e-02,-7.541538599355999267e-03,8.210989236831665039e-01
3.515260777686159965e-01,-4.800834268089892998e-01,3.425385248290211959e-01,4.462981379741588414e-03,5.002613651416622231e-02,1.286734364666385294e-03,8.317172527313232422e-01
4.188249467706565698e-01,-4.839873506167030603e-01,2.919486064440275364e-01,2.303017288450519284e-02,1.266506452515626102e-01,-4.636314490179950509e-02,8.790808320045471191e-01
3.698190093161600744e-01,-4.340647911983007701e-01,3.571142745275481811e-01,-9.571037181323216111e-03,-8.099823022502537079e-03,1.220314050482679963e-02,7.981828451156616211e-01
3.567533848922283535e-01,-4.666168833106186797e-01,3.541571255161030662e-01,1.306339904955487220e-02,1.737185550116611063e-02,-9.466814703242287798e-03,8.231001496315002441e-01
3.877084946585266922e-01,-5.271240490802615586e-01,2.810397364861316749e-01,-1.836797139325630976e-02,-1.278223025266956026e-01,-2.705768345490735388e-02,8.960674405097961426e-01
3.057306838324373999e-01,-4.779299971378234702e-01,3.607706683857148655e-01,1.410939839392127797e-02,-1.061314999308322904e-01,2.496440979970965257e-02,8.345925211906433105e-01
3.282554057014807625e-01,-4.758538579028508408e-01,3.644508754217067881e-01,2.940458323597480716e-02,-6.878094029555138766e-02,3.552370787370620966e-03,8.329652547836303711e-01
2.057313980701682143e-01,-6.716772999114511977e-01,5.171886985014831906e-01,-5.662331121684391344e-03,2.388705762070757466e-01,6.864888890593122406e-02,1.151320457458496094e+00
2.207511688724581589e-01,-5.145318465697619192e-01,4.625560759330794580e-01,2.775250011157931809e-02,1.003942820911171152e-01,-2.798987958760162237e-02,9.010015130043029785e-01
1.265368132929852174e-01,-6.030967382933969390e-01,6.309457384598783358e-01,-1.302508985920381446e-01,1.322030511598418778e-01,6.359189973541087837e-02,1.127070426940917969e+00
1.696156190361974847e-01,-6.318938253231879409e-01,5.014687762224745438e-01,-1.245167701478279848e-01,1.469875396393882094e-01,4.012870857137466885e-03,1.062969923019409180e+00
2.761843508286180304e-01,-6.895352391649461898e-01,3.454220723060278386e-01,4.609447635943433874e-02,2.355022947023970303e-01,-6.787298793328871982e-02,1.091261029243469238e+00
2.158242726537385192e-01,-4.976796627284374441e-01,3.929484014978251727e-01,2.134079572041261072e-02,1.365061791947382308e-01,-3.663616704825446452e-03,8.509688377380371094e-01
1.685626485165576116e-01,-5.191555559529406061e-01,4.377295792210900705e-01,-9.431415023869895928e-03,1.882674702708557746e-01,1.552815375510975537e-02,9.153372645378112793e-01
2.494548714917472765e-01,-4.775529699000036210e-01,4.095617381886488828e-01,-6.300954261217536767e-02,2.062674946110928942e-01,7.093336008755231348e-02,9.084149003028869629e-01
3.510995489132993086e-01,-4.250836414474380431e-01,3.556309968702521807e-01,1.520702401628918829e-02,1.333839797156582616e-02,-4.775060108352375925e-03,7.792907357215881348e-01
3.651957452557100248e-01,-4.493996367817832960e-01,3.584402790339323852e-01,-4.381375800547157931e-03,-1.095865823518206222e-03,-2.809751006736381940e-03,8.112910389900207520e-01
3.570177321048910168e-01,-4.218805182371172524e-01,3.341093494002648212e-01,-2.107698448220676063e-02,3.297388088280071156e-02,9.814289437269816188e-03,7.708745002746582031e-01
3.855676227582008342e-01,-4.718623301678682713e-01,3.280087506422332266e-01,-1.206256327966002614e-02,9.346322516546219650e-03,3.670042779479832989e-04,8.305693268775939941e-01
3.615503893580935824e-01,-4.295920870406233494e-01,3.619933623399454459e-01,-9.845361783551121945e-04,-1.112943595790794439e-03,-1.044138945890470301e-02,7.915748357772827148e-01
3.657845801771331673e-01,-4.649845849774644213e-01,3.692381681458004050e-01,-6.885883612031844236e-03,-2.789991633886653583e-03,-9.711950113432820872e-03,8.327707052230834961e-01
3.624498304846218710e-01,-4.751776380134392630e-01,3.655693615729077584e-01,1.332124007185292577e-03,-1.304048430684869855e-03,-1.487509123161872768e-03,8.392017483711242676e-01
3.525389855335242517e-01,-3.944888267505787249e-01,3.580037620071237492e-01,2.177934435636748323e-02,9.733973599287174504e-04,-8.040058648152787618e-03,7.508545517921447754e-01
3.537160882318072241e-01,-4.071747368508346065e-01,3.710395165719106991e-01,-9.217623112023816748e-03,-8.764713599965829119e-03,-2.254025849342268864e-02,7.710030674934387207e-01
3.507329683000175446e-01,-4.298630282042218420e-01,3.662358917812548742e-01,1.016676823959223805e-02,-9.732466534545642506e-03,-3.208653440785438210e-03,7.888581156730651855e-01
3.639726405841542389e-01,-4.673846826509491237e-01,3.760374839411826375e-01,6.291870507450778201e-03,-6.812458585248242632e-03,-7.998637270968396440e-03,8.377234935760498047e-01
2.756110497783791358e-01,-4.915587353448982455e-01,3.967551143825834292e-01,7.030265872723480240e-03,-1.545503775920168410e-01,-5.565897891081628829e-03,8.763915300369262695e-01
3.323379164291146992e-01,-4.241700443743406934e-01,3.763084266807043554e-01,-2.629400009676091578e-03,1.049429361136684953e-02,2.363491624815387826e-02,7.807232141494750977e-01
3.343324475223192760e-01,-4.780897145671332282e-01,4.063183152421129818e-01,-1.073315446546497208e-02,4.365702007521687217e-03,-1.407303732570078757e-02,8.512881994247436523e-01
3.148757892964237914e-01,-3.733413736869132804e-01,3.833140164619507906e-01,-4.116351934896370079e-02,1.596817318237487432e-02,-2.078071428892067172e-03,7.288951873779296875e-01
3.494148539047773339e-01,-4.638446329544724245e-01,3.534160580266958451e-01,3.472341756261163818e-03,2.844239244120764544e-03,-2.706661235224747629e-03,8.153179883956909180e-01
3.361733389969309704e-01,-4.826626759079168938e-01,3.852731119298780094e-01,-3.036048237864784251e-03,-2.503401175134455092e-02,1.351047860741931388e-02,8.459097146987915039e-01
3.186894250969329878e-01,-4.446819143660974971e-01,3.871737218916859180e-01,3.164048886178462460e-04,2.297983983956595859e-03,1.251640973570670957e-03,7.998285293579101562e-01
3.787421729800090064e-01,-4.529671741820548991e-01,3.693081609694126022e-01,-2.750783768499892937e-02,3.456006413580899744e-03,-2.377849600958012455e-02,8.294487595558166504e-01
3.647546242777042758e-01,-4.654099803268744173e-01,3.376274053911074713e-01,9.498360155033106975e-03,-1.372875771911202802e-02,7.134106745901596866e-03,8.175438046455383301e-01
2.933068369091418326e-01,-4.222750268170900600e-01,4.220100429825294763e-01,-9.617071054192256191e-03,-5.511953215564972808e-02,9.076364082802362149e-03,7.939513325691223145e-01
3.601094726273719182e-01,-4.719174989993879521e-01,3.632075765157742886e-01,3.386130191264554432e-04,1.152580175991288003e-03,4.270335364788425264e-03,8.336157798767089844e-01
3.681038709625257810e-01,-4.667027609377859543e-01,3.387581023120054269e-01,-3.452660565650247319e-03,3.942337005548306877e-02,-7.581299001933629149e-03,8.234901428222656250e-01
2.888939696467404672e-01,-4.541736546366474947e-01,4.117765026635439862e-01,1.161782673424598469e-02,1.181550630952878100e-01,-3.892761104871308997e-02,8.398764729499816895e-01
2.968966078634293071e-01,-4.696117365278961175e-01,3.489944959904576205e-01,6.584732512534572334e-03,4.824007946611665043e-02,-7.162984398060105555e-03,7.984034419059753418e-01
3.022344023976711869e-01,-4.677175444077268374e-01,3.183765934681094256e-01,1.590582101836586493e-02,1.080785056078542306e-01,-6.981921406480561323e-03,8.009141087532043457e-01
3.051782837114335178e-01,-5.014487857906693158e-01,3.203001012396116676e-01,-5.572320408106162110e-03,1.142421589445488661e-01,6.190357414857028569e-03,8.381142616271972656e-01
3.517733884262712607e-01,-4.534748318319310467e-01,2.754419070007243509e-01,8.440845609656853418e-03,6.118673117763975822e-02,-1.341341890831859382e-02,7.776698470115661621e-01
4.078046326803353994e-01,-5.183297848281819276e-01,3.120593565062642627e-01,1.745031267560391564e-02,1.324963886751994169e-01,9.902499138972510953e-03,9.121911525726318359e-01
2.934472015631500730e-01,-4.882543934460670254e-01,2.972061991851037699e-01,1.337681482130335595e-02,1.582829956765757218e-01,4.889110737196689007e-04,8.304865956306457520e-01
3.042110013906831334e-01,-1.208689788022270784e-01,2.610508115105300564e-01,-3.339423587479958822e-02,-8.947210536514187129e-02,-1.055178542093414551e-01,4.743127822875976562e-01
2.995812983681150898e-01,-1.117014728838461868e-01,3.543344498509131135e-01,1.069142898386699157e-03,5.955070630194401679e-03,-6.132122888778428205e-02,4.539395868778228760e-01
3.125098479661930218e-01,-1.335754154378347436e-01,3.564651601107292622e-01,-4.550458969297379447e-02,-1.000743673327084658e-02,-6.279558846601684952e-02,4.887476265430450439e-01
3.467107907855045967e-01,-2.952288789412552128e-01,3.392527744608074824e-01,-4.423702590435973220e-02,1.212328494478088006e-02,-6.064131122925982276e-02,6.516888141632080078e-01
3.555575330944997781e-01,-2.004258747301527754e-01,3.585965652675470183e-01,-2.377854605029560212e-02,2.625131296499724071e-02,-3.316407096468425991e-02,5.638081431388854980e-01
3.104117527202137072e-01,-9.409783795925358296e-02,2.979281251918525220e-01,-8.046582842036660577e-02,1.071712029938782888e-02,-1.616285054026991158e-02,4.234225153923034668e-01
3.629021053102582384e-01,-2.035602485032024789e-01,3.447315880875023719e-01,-2.435736966163958364e-02,7.501392479371834718e-03,-1.874350179240653197e-02,5.602851510047912598e-01
3.233256528122978590e-01,-1.994671685376668835e-01,3.295863713373412551e-01,-4.861112888309773727e-03,5.523249985588107695e-03,-4.254558846431800989e-02,5.312413573265075684e-01
3.534537504499024596e-01,-1.991018634384539299e-01,2.921554115386149064e-01,-2.175205017269227215e-02,2.234514167941011736e-03,-3.331608796019080998e-02,5.291207432746887207e-01
3.691352158202642064e-01,-4.515172402597704693e-01,3.697394448108548559e-01,4.754389928610130989e-03,6.378514936349090336e-03,2.573833200408476296e-02,8.222796916961669922e-01
3.400485948564868632e-01,-4.657112662795279689e-01,3.804830970598042650e-01,7.609598265749186081e-03,9.645658088440125112e-04,5.897777225487726462e-03,8.268889188766479492e-01
3.635274860352684101e-01,-4.709779471808231976e-01,3.779812252448004339e-01,-1.275852822632013960e-02,-2.003906673350507907e-03,4.942975020767604276e-03,8.421660661697387695e-01
3.204207751750653976e-01,-4.611794104399549177e-01,3.904866851568354336e-01,-8.806977821146848989e-03,-5.586156485512977152e-03,-1.080925423176829978e-02,8.192975521087646484e-01
3.026552856665035707e-01,-4.686520593669295520e-01,3.866747526790110800e-01,1.393402059629957404e-02,-5.164520501702411087e-03,1.095213563519722468e-02,8.171911835670471191e-01
3.080532298506252209e-01,-4.694688870194406727e-01,3.777002122950617324e-01,1.624461110955100970e-02,-7.656044624199588589e-03,1.145429225328385356e-02,8.154167532920837402e-01
3.523816450447780357e-01,-4.046345834601227098e-01,3.648014259146027394e-01,-2.593272040890372623e-02,-2.962027489892976768e-03,2.244519629779872030e-02,7.656272053718566895e-01
3.570038727262362377e-01,-4.314303620112299731e-01,3.737398646297232507e-01,2.636488892891014971e-02,-6.120603419367121392e-03,-5.969963859805242634e-04,7.983123660087585449e-01
3.542521933176079330e-01,-3.812740519578006748e-01,3.598422875449829306e-01,2.756444883853751207e-02,-7.167534249801282235e-04,-1.950122445942628407e-03,7.398878931999206543e-01
3.714607227582176208e-01,-4.446221784599011517e-01,3.631178725698849807e-01,2.803592215030960635e-02,7.748502961719006942e-04,-4.246323836777193134e-02,8.167139291763305664e-01
3.694442672076677647e-01,-4.997116557598035858e-01,3.793246666320997385e-01,-1.065564209536693473e-02,-4.799630273737759065e-03,-1.789697616279604594e-02,8.749216198921203613e-01
3.536127919191224267e-01,-3.860809340581311533e-01,3.630325714712660523e-01,7.573371664217154985e-03,-2.232511416966018961e-03,-2.386340923310997439e-02,7.457202672958374023e-01
3.288787044611466426e-01,-2.755228427922460366e-01,3.664723452430985740e-01,5.160207312714012312e-02,1.043727023576970954e-02,1.703267117493220684e-02,6.313648819923400879e-01
3.743528206332911168e-01,-4.746870322503738970e-01,2.564506224060811856e-01,1.552450635475013463e-03,8.632423187163677791e-02,-1.421534720010156003e-02,8.109470009803771973e-01
4.213340520307999881e-01,-4.753421241362284499e-01,2.172387307432602499e-01,-4.942150671830361497e-03,6.112750891354785943e-02,2.016324306981788841e-03,8.209572434425354004e-01
4.356261547742904527e-01,-4.815139182149962283e-01,2.503756414292866994e-01,-9.786635159947184096e-03,9.478053565390268109e-02,-1.711311169121513404e-02,8.565506339073181152e-01
3.830731716587969515e-01,-4.700342483351718226e-01,3.003526521234425317e-01,-1.597475820003097652e-02,4.758144663108833383e-02,3.554660715847957064e-02,8.218355774879455566e-01
4.272004430494409366e-01,-4.668525799424010359e-01,2.381616014373559576e-01,-5.185095291453363855e-03,3.989175180268463711e-02,-2.262197774668394182e-03,8.191006183624267578e-01
3.635095509026424754e-01,-4.589249400381655297e-01,3.643529171673867140e-01,2.070052922681864249e-03,-3.600241306231287408e-03,2.563163233910101171e-03,8.228999376296997070e-01
3.037700122684086068e-01,-5.333646329612594661e-01,3.690808867454484221e-01,2.123153923573754126e-02,7.464816400244135564e-02,-2.618745321738157397e-02,8.830971717834472656e-01
3.723216890566845572e-01,-4.745049171637630847e-01,2.416666574248767518e-01,9.820162497655960342e-05,8.183576863475520990e-02,-3.414331896386606485e-03,8.022905588150024414e-01
3.636039157124337784e-01,-4.784193252227451065e-01,2.394069947717638869e-01,-7.736429031243155161e-03,1.229589571284250837e-01,7.697138900281228109e-03,8.158218860626220703e-01
4.293740778985146167e-01,-4.725494262652631949e-01,1.737557708280178803e-01,-1.578230289995852242e-02,-6.767883076854683266e-02,7.527103352963638618e-03,8.141971826553344727e-01
4.200483728059936639e-01,-4.821272250085508748e-01,2.723479377601018547e-01,-1.724809358270877613e-02,-3.152437677194828980e-02,-2.924728075518902293e-02,8.419765830039978027e-01
3.412714577859906062e-01,-4.660232918840575556e-01,2.812677084164625918e-01,5.373807606676092585e-04,-1.051907733432589365e-01,-7.515204688146699501e-03,8.001563549041748047e-01
2.859779724526739786e-01,-4.747524596202243874e-01,3.091949674223783417e-01,2.023537133917590811e-02,-1.244643618708599353e-01,1.453825598267369755e-02,8.032734990119934082e-01
3.500955712304902323e-01,-4.708012736357097827e-01,3.614767407435161561e-01,1.009408865175096329e-02,-8.719357767151192026e-03,1.306623625864435784e-02,8.272786140441894531e-01
3.463911251413405723e-01,-4.698198263882117365e-01,3.635964301904551776e-01,9.754034671496261341e-03,-4.466000489803122024e-03,1.079460692500116073e-02,8.253691792488098145e-01
3.492148766824051398e-01,-4.741380536831767412e-01,3.609240390480360494e-01,1.752601779102028190e-02,-1.682405034385724141e-02,6.942661482561446676e-03,8.304234743118286133e-01
2.884684784727830076e-01,-4.722374722197424379e-01,4.044698451054833388e-01,1.169619624970947604e-02,-2.673091570673366557e-02,1.240323377441495713e-02,8.266730308532714844e-01
3.041939245769407774e-01,-5.399016169679270449e-01,4.542614792910493748e-01,5.407892411665990440e-03,-5.337615109260622492e-02,6.437662201142898590e-03,9.329780340194702148e-01
2.368997214901137627e-01,-5.544898726491467311e-01,4.583142770063391436e-01,-3.815472311178771947e-02,-9.247383134002579164e-02,-2.686863972597480776e-02,9.395394921302795410e-01
2.086738171853060320e-01,-5.046395136223863487e-01,4.609173001219736832e-01,1.736558075913708071e-03,-1.176457072122733538e-01,-2.553386819157919124e-02,8.921086192131042480e-01
3.423745104148078755e-01,-4.655695820696765796e-01,3.270529390362507671e-01,-1.670610304878661356e-02,-6.700747465115071411e-02,-2.025876472348773702e-02,8.100419640541076660e-01
3.319533928967332570e-01,-4.805080326517937594e-01,3.281301956854043023e-01,1.308265702787264661e-03,-8.561701341735011850e-02,-2.169421291498256459e-03,8.240218758583068848e-01
2.669434184098508633e-01,-4.621385993975813955e-01,3.711614963627722918e-01,1.377830005209726080e-02,-6.784204102747132259e-02,1.486785270974168988e-02,7.958931326866149902e-01
3.204032443432432986e-01,-5.468777717776761582e-01,3.435573400090223828e-01,1.286111333179049132e-02,-1.335025400005314389e-01,9.480133301768453938e-03,9.094108939170837402e-01
2.260238771479366471e-01,-4.470510187646172806e-01,4.289652343965994485e-01,-2.082395056620399768e-02,-9.911595769291425828e-02,-4.679791797859312458e-02,8.174060583114624023e-01
3.067107621234370640e-01,-4.731789248478512899e-01,3.303982288787420951e-01,-2.727836742878112734e-03,1.038652055130918073e-01,-3.331116419541518565e-03,8.122082352638244629e-01
3.237994328406300637e-01,-5.711747380518804595e-01,3.310730983590913779e-01,3.699953294708261883e-03,1.031010615235289085e-01,5.150890406731095661e-02,9.205604195594787598e-01
3.883061557800557284e-01,-4.710180418839728933e-01,3.005132575428494102e-01,-1.214491990877253347e-03,5.628789545050977283e-02,2.197844966750498591e-02,8.256280422210693359e-01
3.626527653984163990e-01,-4.256093081006748768e-01,3.650973473447678974e-01,-1.969474973671056679e-03,-6.989542911647401296e-03,8.260250075746435397e-03,7.897170186042785645e-01
2.912174919271280915e-01,-4.788081655124239999e-01,2.856415955130723883e-01,-8.087619026715519438e-04,1.500453962731114754e-01,-1.479281865121048409e-03,8.100780248641967773e-01
4.094232865548783074e-01,-5.211615069571948755e-01,2.454604599005660581e-01,-1.912436495489234708e-02,1.344025473762175960e-01,2.168251385614121743e-02,8.927431106567382812e-01
3.641857640819649022e-01,-4.713611323687828536e-01,3.654769424975670145e-01,2.353193382202549454e-04,3.855734526068381116e-03,1.934080903732293558e-03,8.362267017364501953e-01
3.632947628895561998e-01,-4.523743075146987591e-01,3.630532694593137655e-01,-2.132611602419863962e-03,5.099262853270554278e-03,3.773998608514184984e-03,8.156307339668273926e-01
3.620405033640730075e-01,-4.485029091677219526e-01,3.667177429742889405e-01,-2.002031685605618755e-02,7.380524740800470732e-03,-2.203359032612918142e-02,8.146262168884277344e-01
3.699419461192629544e-01,-4.560920089577868985e-01,3.620130466429436478e-01,-4.026671405448137633e-03,7.907020426655959541e-03,1.984466415674294624e-04,8.222419023513793945e-01
3.318103161652810051e-01,-4.601525005404289992e-01,3.726204254711983355e-01,1.214607297834345567e-02,-1.145835721363309967e-02,1.660799828203694123e-02,8.141588568687438965e-01
4.002877574706126818e-01,-4.836057535102566973e-01,3.394870208949921087e-01,-6.857654663522458685e-03,2.981094270143599435e-03,-3.068256657964746597e-03,8.552304506301879883e-01
4.358081029699798492e-01,-4.904426814817601787e-01,3.148668464494954744e-01,-4.922995746002937351e-02,-3.664902877109366131e-02,-3.117571326272812124e-02,8.802052736282348633e-01
3.988251567497780314e-01,-4.856535339096860193e-01,2.710395331844025479e-01,9.837215212890526236e-03,-5.454654391848280659e-02,4.195276583262166209e-02,8.367224335670471191e-01
3.997804835011071201e-01,-4.750365076763644057e-01,2.588454628586167594e-01,2.597141644034721419e-02,-4.261110931300707977e-02,3.800943778334420903e-02,8.207800388336181641e-01
4.342844271652204213e-01,-4.889990598832255619e-01,2.011735929126999556e-01,-1.642220356757295024e-02,-1.506592068268858553e-01,-8.103409040641679911e-03,8.721618652343750000e-01
3.721899120637182090e-01,-4.659582199945484504e-01,2.883632897320601574e-01,1.158756629271039638e-02,-7.701797160795299801e-02,1.717893934522599780e-02,8.113837242126464844e-01
3.408772199728654084e-01,-4.557685114757016320e-01,3.153509565790730274e-01,1.531555824930307466e-02,-5.153561246417928676e-02,3.348041122067347067e-03,7.897250652313232422e-01
3.798567863296025138e-01,-5.047844006012872642e-01,2.967500162701680599e-01,1.548940551993962860e-03,-8.796939039977844099e-02,-4.268992649481660392e-03,8.597992658615112305e-01
3.756929172946589790e-01,-4.615032914709038536e-01,3.035446664263989902e-01,-3.972814564708694596e-02,-6.057168751068711665e-02,-2.200368866504525539e-02,8.141835331916809082e-01
4.157357955612908662e-01,-4.779622984825557808e-01,2.921613355581547111e-01,1.409274560247006716e-02,-7.299158495425289717e-02,1.983665267859615819e-02,8.492869138717651367e-01
3.588630468566642584e-01,-4.867764628244245495e-01,3.257408403333761360e-01,1.118650688047927687e-02,-9.018513197866825926e-02,2.497761712672724385e-02,8.454826474189758301e-01
3.699315160983294160e-01,-4.672413418277350239e-01,3.695701441768405315e-01,1.994769535340770381e-03,9.599061776050321973e-03,1.849793357972407109e-03,8.371706008911132812e-01
3.657288365895937643e-01,-5.290511450781608671e-01,3.587176680151338837e-01,-3.598790692278739517e-02,-9.860626153670726257e-02,2.571827335181136806e-03,9.096602201461791992e-01
3.797590911111811129e-01,-4.494641707512427864e-01,3.072414572181570436e-01,-2.857379677047823877e-02,-6.853494951871219598e-02,-3.712426523042632737e-02,8.083389401435852051e-01
3.183678646027245929e-01,-2.572972205853732430e-01,3.295072598904953409e-01,-3.942597386478802202e-02,4.582591936107160112e-03,6.035200772455185866e-03,5.854591727256774902e-01
3.507290785599114780e-01,-3.026953220505468334e-01,3.323397135874001096e-01,-3.644501673684774623e-02,-6.846365183863953666e-03,1.438838890120977196e-02,6.480987071990966797e-01
3.444755865269517048e-01,-2.031103348666769559e-01,3.568233799681745921e-01,-1.004053793795151028e-01,-2.941259621972691987e-03,2.304321123632125864e-02,5.819165706634521484e-01
3.340635818004409341e-01,-2.792844208456505273e-01,3.280094621286312462e-01,6.070184969454496884e-03,-1.474149366807894074e-02,3.042869532256050821e-02,6.132367849349975586e-01
3.197463583236065388e-01,-2.166472765865057326e-01,3.234251526161521784e-01,-3.737416497340653732e-02,-1.220137468666285252e-02,2.505717311021271251e-02,5.442661643028259277e-01
3.040645316177033597e-01,-1.174670789274921967e-01,3.151695372321892119e-01,-3.093434869551217603e-02,-6.414135478485761058e-03,3.444761644578523546e-02,4.347958862781524658e-01
3.202585410036344893e-01,-1.513055583559185235e-01,3.414679143189930377e-01,-2.514054926884030233e-02,1.460575330142883238e-02,-3.526270886420540540e-02,4.889689385890960693e-01
3.765581859208262938e-01,-4.525554894774307391e-01,3.381125994026693005e-01,-4.930439849753178415e-03,8.711343885585658489e-03,8.717812212802406036e-03,8.109009861946105957e-01
3.780641724069375154e-01,-4.613180114815109700e-01,3.377780923542924585e-01,5.899519268628010231e-03,-1.453281342705595863e-02,1.445542524006693426e-02,8.208135366439819336e-01
3.669779318140382607e-01,-4.634507063659375481e-01,3.479964700058472693e-01,4.440297143221743660e-03,1.024862731094546009e-02,-8.527543786763626746e-03,8.214631080627441406e-01
3.563392750742084281e-01,-4.534872073780178425e-01,3.705703145694739797e-01,-5.085036889053154256e-03,1.702976434409724047e-03,-4.225922270650683626e-04,8.170880675315856934e-01
3.692985784316223929e-01,-4.147548838585044528e-01,3.370064568898561985e-01,2.729664901791767351e-02,-1.427530763142970810e-02,-1.267080041440484363e-03,7.702696919441223145e-01
3.508635117141594151e-01,-4.212328127974361847e-01,3.717819851488297078e-01,-1.009811895368860433e-03,5.081700246642605404e-03,1.794295576791821514e-02,7.834333181381225586e-01
3.663726201910734170e-01,-4.729493916410337784e-01,3.685047945162289174e-01,2.632806295581540269e-03,-7.183101586309270994e-03,-5.844278405709612233e-03,8.405555486679077148e-01
3.413344709982476521e-01,-3.583897379703704367e-01,3.591559579636732780e-01,2.513725171145997079e-04,2.462462331848216772e-03,3.935159050830708272e-02,7.120854854583740234e-01
3.505264229259243969e-01,-3.574059073326310565e-01,3.224283253494127921e-01,1.894916720578700142e-02,-2.345969933447202005e-02,6.653398438395360937e-02,7.057440876960754395e-01
3.586051225404595644e-01,-4.382114057814877617e-01,3.607863686764765099e-01,2.371032479784265616e-03,-4.470583128665962629e-03,1.510763375310034606e-03,7.979618310928344727e-01
3.633234171053977835e-01,-4.532910009675401586e-01,3.636567359466633120e-01,2.184972201884461708e-03,2.688770683847269225e-03,-3.954213170315693665e-03,8.168318867683410645e-01
3.294895501858799980e-01,-4.623999946980218434e-01,3.608801841488241124e-01,5.318743036029964510e-03,2.650817727085526959e-03,-1.098746102493538754e-02,8.083319067955017090e-01
3.251462154095011714e-01,-4.505045223944574850e-01,3.675310581659981812e-01,-1.581869165279447403e-02,-1.186281246613903051e-02,-1.751193401082486514e-02,7.989988923072814941e-01
3.471843889972600072e-01,-3.520927308359996788e-01,3.433999243865159534e-01,3.554047599729386053e-02,1.834002637245621230e-03,2.436549207250634282e-03,7.001240849494934082e-01
3.762318162341147798e-01,-4.579425954922700104e-01,3.623161907914996815e-01,1.248638605227567373e-02,1.022539129431546991e-02,-5.135085419294795235e-03,8.278242945671081543e-01
3.386597323679189087e-01,-2.844056825133893796e-01,3.551977029631473437e-01,9.872060769806682845e-02,7.401016499338798453e-03,-4.750879048443976127e-02,6.595157980918884277e-01
3.225712213093879233e-01,-2.010988284626124556e-01,3.918809389135214927e-01,1.105708362820065002e-02,1.407863912845160048e-02,-3.560100171304760724e-02,5.657678842544555664e-01
3.125527673736714362e-01,-4.539608266959325178e-01,4.100445913551213351e-01,2.312144202258952300e-02,4.936343486349366316e-03,7.181676086476312774e-03,8.207363486289978027e-01
3.634995005567283610e-01,-4.480559792331901825e-01,3.655208716241743483e-01,1.496310035016465076e-02,3.155423241084837072e-03,1.264167864249745102e-02,8.132944107055664062e-01
3.588173549873738821e-01,-4.361882379968538004e-01,3.578620155981226403e-01,-4.597901643719598183e-03,-2.821211999602646326e-04,1.084703989434343020e-02,7.947905063629150391e-01
3.206631377184878673e-01,-4.277969134170866994e-01,3.710738128181026996e-01,6.491377820386904675e-03,2.097597651860705695e-03,6.918311967374196061e-04,7.749871611595153809e-01
3.457337134580433791e-01,-5.616330725991266482e-01,4.237888210110530296e-01,2.683883422489610759e-02,1.233229633658334103e-03,2.970301294144385776e-03,9.499598145484924316e-01
3.395282569696681518e-01,-4.530117615342792448e-01,3.432949040772313443e-01,1.307992030952883494e-03,1.345328880893943528e-03,-4.268836102903545197e-05,7.944366931915283203e-01
4.091831577835111644e-01,-4.544104233329445686e-01,2.432344635902977392e-01,1.103699570971742976e-02,-4.111109191480861319e-02,8.700486071621950021e-03,7.972976565361022949e-01
3.348363502107747358e-01,-4.592524645606057554e-01,3.467998566175383157e-01,1.448311018572832551e-02,2.440870080886802657e-02,-1.594142693468995203e-02,8.021217584609985352e-01
3.781018027182164176e-01,-4.643483110575259420e-01,3.125628377298489413e-01,1.003609089513750503e-02,-2.688094100664390612e-02,2.246833686423137591e-02,8.141183257102966309e-01
3.625708255219955989e-01,-4.653042607152673149e-01,2.810093679613288042e-01,-1.176994756685482112e-02,-1.504232542128175476e-01,8.518299367814249554e-03,8.324791193008422852e-01
4.121906120389328132e-01,-4.894362177647243461e-01,1.903735058826399595e-01,2.548411030425045895e-02,-9.117053458230053864e-02,2.324991085338328281e-02,8.310497403144836426e-01
2.961205055407169495e-01,-5.579365840957145606e-01,3.553061173679157858e-01,-2.278775313202882277e-03,-1.076537281370021637e-01,-1.410583822523131005e-02,9.049004316329956055e-01
3.435886428131896264e-01,-4.571879932381226475e-01,3.354066706821703936e-01,2.383595589206019116e-03,-5.628626767407489406e-02,6.499095616227808236e-03,8.027492761611938477e-01
3.557354003695634148e-01,-4.725783639112898227e-01,3.040511712678045653e-01,6.202611705780162847e-03,-5.932462300637064700e-02,2.066663218003399888e-02,8.111221790313720703e-01
5.851987088249676061e-01,-3.662170807301340369e-01,2.219689354170910067e-01,9.934472549602535105e-03,-5.495114848131496532e-02,1.353026605974130825e-01,8.693795204162597656e-01
4.500930661990958925e-01,-5.090367681289622581e-01,2.558833627171958058e-01,-8.878818865403559704e-03,1.031536864112441998e-01,-4.035416196020801677e-02,8.991212844848632812e-01
4.214236653246332676e-01,-4.749183037147763908e-01,3.233282930995967641e-01,3.785809595507529796e-03,2.048585425485258821e-02,1.560354683037845636e-02,8.527350425720214844e-01
3.929264971207064305e-01,-4.059687867128304317e-01,2.989731031057153432e-01,1.263393502076008007e-02,3.787511777076533331e-02,2.237582253757721198e-02,7.604514956474304199e-01
4.036776954048975630e-01,-4.467074193495585988e-01,3.374095236370349138e-01,-1.677111556689901977e-04,5.870825523546924218e-02,-4.761109547529182064e-03,8.255912661552429199e-01
4.302856573907825610e-01,-4.759207161432912336e-01,2.648918009914114080e-01,-3.120737286218650940e-03,1.423024064501059865e-02,-2.224930128359683262e-02,8.371415138244628906e-01
2.450139522576237350e-01,-1.824612923777986229e-01,3.936589086072893595e-01,9.976314334889463398e-03,5.416483513984886485e-03,3.620105598380107814e-02,5.221978425979614258e-01
1.539530201728329661e-01,-3.046796275199745163e-01,5.721823906214923428e-01,-9.923803107023240755e-02,6.447010331577267273e-02,1.422329330117170880e-02,7.872064709663391113e-01
3.723082471592137344e-01,-3.578209009600997748e-01,3.935415487111532107e-01,-8.116526339737581419e-02,-2.295963452724192680e-02,-3.176257118359310933e-02,7.572409510612487793e-01
3.281462530621372942e-01,-4.029748373657970895e-01,4.101907134945062539e-01,-1.119841577353602180e-01,2.220001847454080093e-03,1.622136094647989510e-02,7.997995615005493164e-01
3.181485253190382556e-01,-4.559608175317041434e-01,3.931457905988474666e-01,2.970570708123082050e-04,2.008370339364558277e-02,6.439959370397025859e-03,8.150218725204467773e-01
3.356507195485519679e-01,-4.836082475782769174e-01,3.875754690396463475e-01,5.430250483430925680e-03,9.828798546344795495e-03,-6.175328760950747620e-03,8.467077016830444336e-01
3.074102004336363714e-01,-3.823168083380874549e-01,4.122274807794842899e-01,-3.933640073229849321e-02,-2.847134864223399738e-03,-2.109086277095035102e-04,7.507808208465576172e-01
3.762229797262017228e-01,-4.789718388682763228e-01,3.078438394439548809e-01,-1.693114061709981299e-02,-2.742675741018277963e-02,-2.390965800302868871e-02,8.260678648948669434e-01
4.299092012006041630e-01,-4.807697243615717264e-01,2.110782907719297996e-01,-3.802920095865797503e-03,-5.056479874743978475e-02,-3.308622458857415904e-02,8.300218582153320312e-01
4.287723437966783901e-01,-4.615156060212588507e-01,1.732130204073435986e-01,-2.172450235112139208e-03,-3.116016819284803813e-02,-1.252886001941844706e-02,7.961153984069824219e-01
3.822634660752818880e-01,-4.618404400882758498e-01,3.365277317899398879e-01,-1.657597859294937526e-02,-6.342496839892741711e-03,-1.379788395870281716e-02,8.231121301651000977e-01
3.565728819437586350e-01,-4.798694506576082208e-01,3.610155809213647649e-01,-2.120246264282025714e-02,-3.762872241028792503e-02,-3.454910264578248905e-03,8.420236110687255859e-01
3.779335503530963369e-01,-4.184924043248949843e-01,3.022036158100361858e-01,-1.894732676892943099e-02,-5.463834359884207903e-02,-2.223945735937908174e-04,7.679513096809387207e-01
4.529279760654318365e-01,-5.020979735795412235e-01,2.037902983297760762e-01,-2.733828135625751554e-02,-1.205332209883955008e-01,-2.530464927550742787e-02,8.854146599769592285e-01
1.178626945140176241e-01,-7.329151172156689320e-01,5.720030903533935840e-01,1.519920488006444026e-01,6.850718507464141627e-02,4.777787362652419212e-02,1.186031818389892578e+00
3.402140371994926138e-01,-2.338839333979703117e-01,3.662533355847186201e-01,-3.031164563899112555e-02,-1.850819319332532367e-02,-5.365318865710154428e-02,5.980264544486999512e-01
1.238449557942970514e-01,-3.630522465637027185e-01,4.836873692436939876e-01,1.212031670668017452e-01,-1.043994497447453800e-03,4.295016641344871766e-02,7.690057158470153809e-01
2.112580924915298808e-01,-5.090016655083702268e-01,4.720149220890926811e-01,4.163028156199437974e-03,4.770951384340077484e-02,-5.188434827844935759e-02,8.885591626167297363e-01
9.617473903314248396e-02,-4.259975805572541185e-01,5.282989917865936746e-01,1.272800047646308746e-02,-4.116057827204731845e-02,-1.509515009972255128e-02,8.314390182495117188e-01
2.299261909100414059e-01,-5.368824660551526629e-01,5.187016243340328847e-01,-2.302402416491668678e-03,-1.816558744578977008e-02,1.965864974046512351e-02,9.460378289222717285e-01
2.487022020817649393e-01,-5.631455267897236272e-01,4.677889104927200892e-01,2.575585752941610129e-04,-2.054752651072645764e-02,-1.880314399355304672e-02,9.419597983360290527e-01
3.078282525153213101e-01,-1.081835331454434890e-01,3.124473154678936715e-01,-7.918692854581498020e-02,9.589463095446401977e-03,-2.860537155016150412e-02,4.433408379554748535e-01
3.561546277902420399e-01,-3.239329677540670471e-01,3.278281675119361083e-01,5.629222387975039814e-03,-3.574808965261753839e-03,3.469300966821999704e-02,6.691795587539672852e-01
4.426790899834144311e-01,-4.710016965533909694e-01,2.486396882956025400e-01,-2.119349378903209735e-02,-4.716476209720529833e-02,-4.445750580180868328e-02,8.420951366424560547e-01
3.852966752794430572e-01,-4.736101964583950830e-01,3.427055553308792080e-01,7.860586380987348576e-03,-7.894129213446442542e-03,-9.908961509655308392e-03,8.388206362724304199e-01
1.511128804736136810e-01,-4.654002660771231481e-01,4.360499831423223505e-01,2.526304287204027277e-02,6.746767348036647460e-02,-8.385185184411043588e-03,8.079147934913635254e-01
1.298697429562310213e-01,-4.672622211409938053e-01,4.714878752603179901e-01,-1.820079110702828989e-02,8.750386781740766493e-03,-4.832356585360549420e-03,8.237439990043640137e-01
1.039571008145648845e-01,-4.673664763988242266e-01,4.776331178556830759e-01,1.289146977445666982e-02,1.152246711644510854e-02,-7.387556477125978684e-04,8.248835206031799316e-01
1.273661562349851506e-01,-6.222310114672298109e-01,5.759379547806573463e-01,-3.136777211263921950e-02,6.664691311935502099e-03,-2.770823590247429788e-02,1.051070451736450195e+00
1.074374772382107462e-01,-4.971943989329872249e-01,4.694696309933404921e-01,-1.026556919270854573e-02,3.356688664597072547e-02,1.232819964842048199e-02,8.483486771583557129e-01
9.386330526517489004e-02,-4.980187622326259778e-01,4.871264844124619797e-01,-3.581291745661312198e-02,6.140531806848086027e-02,5.128374190901152305e-03,8.677465915679931641e-01
1.225011639264038110e-01,-5.754402662803298485e-01,5.709864713159765737e-01,-2.198059154135418442e-02,1.029045696012405135e-02,2.998363549949485240e-03,1.001534819602966309e+00
3.076127357496256653e-01,-5.780498562438609600e-01,4.297579590187002307e-01,1.772445639453184771e-02,1.241254739375286797e-01,-1.077314545749860977e-02,9.772456884384155273e-01
9.498017096338293164e-02,-4.948009208985695295e-01,5.577175236410933934e-01,-1.211713897539857003e-03,3.243856342822481163e-03,-2.165297833585148445e-03,9.137458205223083496e-01
3.772006227433457037e-01,-9.515156243061806407e-02,4.992457558200359413e-01,2.306899543937515271e-02,4.376933449204342685e-02,-2.258777975233344434e-02,5.518462657928466797e-01
3.026980067620137493e-01,-1.504578874999257243e-02,3.575335820683328558e-01,4.947787305584493145e-02,6.037678258927359903e-03,-2.121874569157413890e-02,3.608267903327941895e-01
3.202926924348679094e-01,-9.098314696996867568e-02,3.125755865220236074e-01,4.173780858007383049e-02,1.459879848073634967e-02,3.800187330704261207e-02,4.197992980480194092e-01
3.193799990236372843e-01,-7.787314392898370130e-03,3.385903333428290640e-01,3.910286915156365589e-02,2.954988483988149443e-03,1.493831929343735279e-02,3.449278771877288818e-01
2.815482739582933491e-01,-5.102274888155727828e-02,3.993304615799250779e-01,-2.480149326610569041e-02,2.268417693766822812e-02,-1.922011763352657332e-02,4.100541174411773682e-01
3.598638443973909418e-01,-9.322908137630059322e-02,2.969210623943557836e-01,3.267911781362315641e-03,-1.626692957267496936e-02,5.510658244831274921e-02,4.366602301597595215e-01
3.857672204266990867e-01,4.509494565778937591e-02,5.456970716684119704e-01,3.124222907331069762e-02,2.564299155242173722e-02,-3.232959669488657400e-02,4.518355429172515869e-01
5.051911287277394136e-01,7.858599995717974185e-03,3.991501838819512260e-01,3.050169971206716322e-03,-4.664024985103981669e-02,3.631737512460588013e-02,4.651423692703247070e-01
4.129626684856388952e-01,-4.674089536355566787e-01,2.687911450442168615e-01,3.692294803236442248e-03,-1.225158490072692993e-02,-3.407182403509297075e-02,8.202980756759643555e-01
4.274470185635037556e-01,-4.700181251234110125e-01,2.715203016658960244e-01,1.080443926414191179e-04,-2.019306861275209364e-02,-4.947175739472364775e-02,8.356935381889343262e-01
4.180083914203160389e-01,-4.784347597114222417e-01,2.699508426141808970e-01,5.405791576837111999e-03,-1.073479040755744539e-02,-3.545834298808156482e-02,8.348721265792846680e-01
4.238296169639573785e-01,-4.683040823646206219e-01,2.541738763324133954e-01,9.874018446443040987e-04,1.913744704397279603e-02,-1.004736071426471332e-02,8.214222192764282227e-01
4.469475278914290528e-01,-4.921331766851141376e-01,2.012791798060771797e-01,-1.800915628173380828e-02,3.159153085770967199e-03,-3.808211155900656508e-02,8.466857671737670898e-01
4.285681937867503177e-01,-4.568674329738973139e-01,2.536475071836508111e-01,2.215950650236573824e-02,3.886725476157317644e-02,-1.406848549469678390e-02,8.162789940834045410e-01
3.671390477278019260e-01,-4.763947342493857207e-01,3.638048921542549885e-01,-2.677502216829543043e-04,1.385350988887286763e-03,-1.134212582426414283e-03,8.418775200843811035e-01
3.539679494804268134e-01,-3.478556511289728204e-01,3.576862540281826042e-01,2.012149447005060973e-02,3.689785592621870960e-03,6.023177540456946776e-03,7.046588659286499023e-01
3.673095747819378754e-01,-4.670325592445152552e-01,3.651895800268523118e-01,4.355851812843525989e-03,2.015222664763417380e-04,-9.522950244939324110e-04,8.333200216293334961e-01
3.601214743251028305e-01,-4.285072673023190282e-01,3.624465814684882936e-01,8.667932195075608165e-03,-7.077420794951707825e-04,-4.875214119473394504e-04,7.899379730224609375e-01
3.661667561531914417e-01,-4.383419632488209094e-01,3.668367421073498447e-01,1.485483681506328266e-03,-1.624076474768876982e-02,-1.146297789731808925e-03,8.053418993949890137e-01
3.533789244736686985e-01,-3.895971163650134295e-01,3.603654237893132439e-01,3.878712539605853882e-02,-2.417051554405433809e-03,-6.171189978100815720e-04,7.495231628417968750e-01
3.724071821979089147e-01,-4.626882301571724199e-01,3.686866522844413629e-01,2.844926362990201490e-02,-2.449224597718692529e-03,-2.152326293482591593e-02,8.355399370193481445e-01
3.524651788299397182e-01,-3.654090861923842692e-01,3.457578903976392670e-01,3.291813807433729283e-02,2.912544864146094509e-03,-3.703626242618047841e-03,7.168618440628051758e-01
3.513286653739511878e-01,-3.675583474396463823e-01,3.564665587969834126e-01,3.507309717524719622e-02,-1.135324166707654464e-03,-4.047015135222774111e-03,7.240592837333679199e-01
3.441859478405562278e-01,-5.474314845356702541e-01,3.879201727032952629e-01,1.796001535133464472e-02,-1.190441594479552667e-01,5.120641008517726883e-02,9.419326186180114746e-01
3.331244523954267622e-01,-4.643150967665280460e-01,3.745590691364203417e-01,-1.111125277232579388e-02,-1.488733386718875049e-02,-4.032309065769484890e-03,8.196049928665161133e-01
3.526287650968747411e-01,-3.955881579300358775e-01,3.456100983830432405e-01,4.159808349862281762e-02,-3.772720649913253316e-02,3.911481036093891750e-02,7.541070580482482910e-01
2.755313751451858861e-01,-4.499170699870144730e-01,3.165021826188477716e-01,-4.507143182226918364e-03,-8.401752917583329983e-02,-4.501799078884384173e-03,7.609039545059204102e-01
3.756724498007686930e-01,-4.643874310172596553e-01,3.800091563205741374e-01,2.497745255852897028e-03,-8.593177946002280437e-03,2.180596442267900004e-02,8.432254791259765625e-01
3.549222934759724279e-01,-3.423332373219412084e-01,3.379419622266696122e-01,4.983687362489655492e-02,-5.013993743750145247e-03,-3.406155757719086380e-03,6.943884491920471191e-01
3.523662887196571392e-01,-2.207343507753440903e-01,3.432523188905575728e-01,4.660862115906934389e-02,1.029040184439941608e-02,-3.516599869197781919e-02,5.777965784072875977e-01
3.433241140159473126e-01,-3.204207353683170001e-01,3.496574020534997107e-01,3.460858161511078113e-02,3.159801148842971211e-03,1.882629693492323883e-02,6.704382896423339844e-01
3.518380241422517374e-01,-3.206337640818643364e-01,3.451768916041260127e-01,3.174991119747624935e-02,9.572158412061859342e-03,1.334151511268747391e-02,6.720240116119384766e-01
3.475560585028796279e-01,-3.525994580142449708e-01,3.460503201811706564e-01,3.695628132085389261e-02,4.767455410638820126e-03,2.637950894015203464e-03,7.023903131484985352e-01
3.418636680911878445e-01,-2.338417380463654882e-01,3.380158558465897745e-01,8.751860910218843548e-02,7.858795729609513447e-03,3.702043742839034122e-04,5.936333537101745605e-01
3.361038052882157068e-01,-2.578291816972368422e-01,3.346215264144576929e-01,3.800804201001913019e-02,3.656653258809461869e-03,-2.622953401521860989e-02,5.985951423645019531e-01
3.461984917267306727e-01,-8.900286591363382183e-02,3.278875587055068985e-01,2.409398340509129668e-02,-8.138294710106318275e-03,-1.163919061264689220e-02,4.290841817855834961e-01
3.317058526436792998e-01,-3.019166033713444053e-01,3.568089333191964418e-01,1.013485202950509256e-02,-9.031017911211849589e-03,-3.490720648948402588e-02,6.497859954833984375e-01
3.489593529520323423e-01,-7.485081322820275052e-02,3.499866761645189506e-01,-3.198174497926362797e-02,-5.659289406661138430e-03,-2.465685672301368148e-02,4.301627278327941895e-01
3.403509278833088958e-01,-1.354110149141845576e-01,3.297087201229855769e-01,4.086926659266439110e-02,-1.218105903390338113e-02,-2.398203581410102841e-02,4.781014025211334229e-01
3.867968088631405510e-01,-2.757679576948265932e-01,3.459229995593114948e-01,1.552913014210207526e-02,2.614609106026256208e-02,-8.833534939826045984e-02,6.631477475166320801e-01
3.685478543038880339e-01,-2.960116408217363104e-01,3.428052935402708945e-01,3.904944543921649858e-02,-1.720597089398974780e-02,-6.756981795562962134e-02,6.665990352630615234e-01
3.532159274528924864e-01,-4.686019411808050039e-01,3.519141573235800013e-01,3.485973608958928271e-03,3.319907904350711918e-03,-2.792094953092655752e-03,8.212243318557739258e-01
3.452913165096723747e-01,-1.014889285011510989e-01,3.136223223423989515e-01,-1.740174872134541903e-02,1.572309567714228959e-02,-8.693321898468649167e-02,4.591172933578491211e-01
3.703509618149454785e-01,-4.536800949093020563e-01,3.643453723427294566e-01,3.172460272371175304e-03,1.340929961219320884e-02,6.715615451467497367e-03,8.214738965034484863e-01
3.335176153706433944e-01,-4.837839213571814012e-01,4.006093818921210303e-01,6.396002893133823086e-02,-1.934256614710860855e-02,1.692029227199138772e-02,8.611453175544738770e-01
3.643987036271703062e-01,-3.879678543454895268e-01,3.484490123277061979e-01,8.316924966528898427e-03,-1.703522491567770539e-02,5.862045547372610188e-02,7.521283030509948730e-01
3.393075270918081698e-01,-4.567684148386852439e-01,3.500991026560347219e-01,-1.149913150383473533e-02,-2.430980238474279159e-02,-6.945377088981748159e-03,8.029686212539672852e-01
3.119221920058050102e-01,-4.542315567585802905e-01,3.670052732051585775e-01,1.180219567058097933e-02,6.559911617983117671e-03,-1.399962315062655734e-02,7.958409190177917480e-01
3.071776633156976244e-01,-4.591388270713280262e-01,3.848669826737240451e-01,1.987305637227505806e-02,1.604915576200035762e-02,-1.482862388123825335e-02,8.095853328704833984e-01
3.069761897484052926e-01,-4.596183789948437015e-01,3.673980330983381282e-01,1.707500196783242816e-02,2.649834152348780336e-02,-1.208976645167979085e-02,8.006601929664611816e-01
3.459241136580198939e-01,-4.750186502347333306e-01,3.794454028295830561e-01,1.220731093254695272e-03,1.355297221592143692e-02,-6.427930081337416938e-03,8.386114835739135742e-01
2.882704653297984976e-01,-4.611050866264551074e-01,3.767388068848080973e-01,1.166110792204215485e-02,4.536373899792223163e-02,-1.095602250911388402e-02,8.016408085823059082e-01
4.525884026321995157e-01,-4.577633201499444748e-01,1.557002076339524810e-01,-5.836096747364063683e-03,-1.194082614595397621e-02,-2.681688714950686107e-03,8.044636249542236328e-01
4.903351077829333216e-01,-5.143073958442994087e-01,1.710903192359518599e-01,9.851594206409334045e-03,-1.348749070551100160e-02,-6.381183107974224521e-03,8.896381258964538574e-01
4.338888679441100238e-01,-4.632015258957750126e-01,2.316419673137078417e-01,-4.249445181103483037e-03,-3.128049809140011003e-03,1.440933136858924858e-02,8.154432177543640137e-01
4.412345770058606065e-01,-4.641401130984882384e-01,1.843273449785335916e-01,-4.967160530874524006e-03,2.417708666763608485e-03,2.071087686950928361e-02,8.090029358863830566e-01
5.076079578823744498e-01,-4.940075806945443126e-01,1.100934525529535662e-01,8.285308117411094644e-03,-2.712641567929741093e-02,6.010937169827026624e-03,8.749952316284179688e-01
5.162589833618594914e-01,-5.243661006840910632e-01,1.210020911986108144e-01,1.004790012630032980e-02,-1.505394874544376763e-03,-4.537922887867971988e-02,9.134012460708618164e-01
5.467489402269347654e-01,-5.013546724586944725e-01,7.763607132789444865e-02,-2.290573480481300755e-03,-5.264240440900186391e-02,-9.369456893790956142e-03,9.140579700469970703e-01
4.649152401704669257e-01,-4.838570534356413377e-01,1.744284314491297283e-01,-4.617928120152196662e-03,-3.060036995851860009e-02,1.011495827227575257e-02,8.438754081726074219e-01
4.566712527331984184e-01,-4.933019595996749329e-01,1.778455608816524314e-01,1.147950480414849928e-02,-2.268991098441172638e-02,8.664332061231724835e-03,8.470425009727478027e-01
4.465794595781266141e-01,-4.590932996089058804e-01,1.937523639815928456e-01,-3.883054546627874408e-03,-4.309208443887905735e-03,7.177749924711171329e-04,8.094989657402038574e-01
6.305437039064628602e-01,-6.758442875685429785e-01,2.183382988623257248e-02,6.362461158272313122e-02,2.194106344649469631e-01,-2.238407602785292411e-02,1.200015187263488770e+00
4.176348929794549414e-01,-5.071264192692255257e-01,2.108871781265400647e-01,-5.642510819822798944e-03,1.161845615515657293e-01,1.895460005776064549e-02,8.651044368743896484e-01
4.120202967041670661e-01,-4.668674213307896226e-01,2.203901153773663579e-01,1.271323116416390488e-02,3.383043264750012352e-02,-2.084972601501266370e-02,8.037206530570983887e-01
4.619483580821921453e-01,-5.256607542418743062e-01,1.893263012076062957e-01,4.510664575575353691e-02,8.327182510543353067e-02,-3.236323875864950683e-02,9.002771973609924316e-01
4.172126768937295949e-01,-4.675786275148136051e-01,2.026642514593237077e-01,-1.084525459688356723e-02,3.453431033252713639e-02,1.390115715978398891e-02,8.022260069847106934e-01
4.063056593823124452e-01,-4.562903009111272112e-01,1.983512146909504892e-01,-1.798698092401277435e-04,4.424078890804161029e-02,-3.620755677047868097e-03,7.834841012954711914e-01
3.713777059246173851e-01,-4.702443592561672547e-01,3.632141031751207061e-01,-7.089193717619888570e-03,-2.264451070103878656e-03,1.061334503488701618e-03,8.376712799072265625e-01
3.622604286239117233e-01,-4.532070115408673994e-01,3.592751951692362278e-01,-3.019104590515656657e-03,-3.107399823275598140e-03,4.537165824131728694e-04,8.140138983726501465e-01
3.628793381402933282e-01,-4.600926104256199967e-01,3.754936817364614154e-01,-4.905006616614752263e-03,-1.100799577738211313e-02,-8.456739622848038346e-03,8.297430276870727539e-01
4.153038543710140251e-01,-7.618755865480941747e-02,3.910703927561202109e-01,-2.114261538182701100e-02,-8.094204859468923097e-02,-4.807418872512478868e-03,5.013040304183959961e-01
3.579519498233270092e-01,-1.344916647217737626e-01,3.567334196043116523e-01,-5.936997747603092734e-02,-5.601940139508690755e-03,-1.959884098275176470e-03,5.025755763053894043e-01
3.835674588278097374e-01,-4.654899296879598802e-01,3.314491858724761264e-01,1.288086455290419173e-02,9.456327048955843334e-03,1.314031108874013851e-02,8.250135779380798340e-01
3.227880603719853192e-01,-1.865609523462287700e-01,3.343570674209060956e-01,-4.162711728803027145e-02,-4.872116772476539452e-03,2.064737057369736214e-02,5.215472579002380371e-01
3.313671440594569417e-01,-2.402503567887682712e-01,3.418616033662389975e-01,-2.603688699459977621e-02,3.595522850396749848e-04,2.060953723832201906e-02,5.797964334487915039e-01
3.410736015420361422e-01,-2.091300301424546815e-01,3.393746015738087207e-01,-9.179411235548279313e-02,-4.138450991019944174e-03,3.536168067673504251e-02,5.752158761024475098e-01
3.217919925262601177e-01,-2.134336395348724880e-01,3.428059709369063457e-01,-8.453646892743431340e-02,2.604663735491672457e-03,6.400361209206817913e-03,5.654535889625549316e-01
2.387173492442545286e-01,-8.558715375715392204e-02,3.744723136833894017e-01,-2.062264553540879564e-02,1.484145896750665994e-02,6.520392517623991267e-03,4.119381010532379150e-01
3.579467972461115588e-01,-2.671545191884758808e-01,3.897475492744347791e-01,-1.164322680247359687e-01,7.700100885528986597e-03,1.817908092546616922e-02,6.734095215797424316e-01
3.532668820574541568e-01,-4.628233334129912002e-01,3.346526401204482637e-01,8.288658876205999212e-03,2.744445214341310196e-03,-5.634422217795553335e-03,8.071448206901550293e-01
2.880922204633407091e-01,-4.809025568090443681e-01,4.276496736925629039e-01,-5.356225416871555553e-03,9.299768940225992472e-03,-6.203261566451070790e-04,8.476407527923583984e-01
2.959376909253721988e-01,-4.877340695615145494e-01,4.261534906197759209e-01,-3.340207572187561119e-02,1.796080734262687009e-02,-2.397547851335208799e-03,8.587642908096313477e-01
3.589521927783981270e-01,-4.675837441975172482e-01,3.474204987337651818e-01,6.307182416773585848e-03,4.366361002991279126e-03,-2.830577138871597301e-03,8.209530115127563477e-01
3.418008314655840985e-01,-4.756119099363103064e-01,3.789874904191129490e-01,3.513318870586840809e-02,2.605227928606661508e-03,-3.182589428438397326e-05,8.388484120368957520e-01
3.689243337267603118e-01,-4.623847209416892534e-01,3.526165976624169307e-01,-4.004273308075416773e-03,7.956109415246685398e-04,-5.122901496277796653e-03,8.233544826507568359e-01
3.590151049563472530e-01,-4.594689331898662576e-01,3.365945502347427176e-01,-7.580438276668547554e-03,1.176278319754637050e-02,3.326455804182598414e-03,8.078914880752563477e-01
3.597634564794479073e-01,-4.669845322466286142e-01,3.640393198555814669e-01,-1.301030464011694414e-03,-1.372924904763256262e-03,1.415176686993182588e-03,8.289042711257934570e-01
3.602105295701433230e-01,-4.619524312153313605e-01,3.578519218506262534e-01,7.424032532869045660e-04,3.075003708312268845e-03,9.729699639813045933e-03,8.211774230003356934e-01
3.565364081575314037e-01,-4.693772769187467553e-01,3.615395595272899443e-01,-3.204203278816606607e-03,-8.175486356113402259e-05,8.782715894031633413e-03,8.285848498344421387e-01
3.575360156019349311e-01,-4.701545895361953775e-01,3.526818239721374870e-01,-2.556025756326287587e-03,1.909646935263021629e-03,4.930449649056092669e-03,8.253368735313415527e-01
3.645729615387359179e-01,-4.666978834934313314e-01,2.252775074263030641e-01,-9.633925133713165320e-03,-1.144135603702162163e-01,-1.344772128239736866e-02,7.966897487640380859e-01
3.090300433346354625e-01,-4.535090207015628483e-01,3.681542739398959152e-01,9.741999379845182102e-04,-5.908708895254872334e-03,-8.578068519818316320e-03,7.939611673355102539e-01
3.913787539845596242e-01,-4.667680423275082369e-01,2.786040553803842412e-01,-5.668716306261646111e-03,-5.884448752215709622e-02,-3.213374453480122555e-03,8.141696453094482422e-01
3.955431951437726745e-01,-4.637631475655129565e-01,2.085741298931412246e-01,-1.623467195151331866e-02,-1.143322750607128624e-01,-1.367641466437476833e-02,8.082503080368041992e-01
3.572323423118162200e-01,-4.682918621512345281e-01,3.517712638187051599e-01,9.091835713045458983e-03,1.944102663656054227e-03,-6.493424141920518984e-03,8.230416774749755859e-01
3.765271058770641166e-01,-5.477430121947957087e-01,2.434132931034488911e-01,1.002615169443589298e-02,-1.136093255114709599e-01,1.050520184899744053e-03,8.876866102218627930e-01
4.080681939505727551e-01,-4.794930117409947901e-01,2.599814904913695379e-01,-3.510256679470103672e-03,-3.933205173605570926e-02,-7.815198995578890792e-03,8.265106081962585449e-01
3.439267514217969612e-01,-4.688218869077739326e-01,3.159078091696972956e-01,7.743048619309904346e-03,-7.750587916655367338e-02,1.304242236238428720e-03,8.104193210601806641e-01
3.721234042810346310e-01,-4.684069126001931815e-01,3.694879229209794835e-01,-4.750203729765011267e-04,-1.063689170772581273e-02,2.643728005930426426e-03,8.394307494163513184e-01
3.755520632447361118e-01,-4.102412858349042679e-01,3.629718964413508053e-01,-2.542714698984713945e-02,1.200913089560519398e-02,-2.365927970047652928e-02,7.821736335754394531e-01
2.783105368258187440e-01,-4.816878040174639164e-01,3.945260128491200891e-01,4.698333810653083920e-02,-2.508197348826167461e-02,6.286199815227947775e-03,8.294909596443176270e-01
2.911680897425562575e-01,-4.710639865165332507e-01,4.116823798773351917e-01,-1.398857478274008123e-02,-5.191640196848565196e-03,3.393699357754803667e-03,8.295081257820129395e-01
3.292009814967388204e-01,-4.576239005829995099e-01,4.490619577325651313e-01,-9.698588809278720080e-02,-3.433860421409780719e-03,1.518950619312987860e-02,8.698942065238952637e-01
3.490855364656343385e-01,-3.833536996861568458e-01,3.650421284110925702e-01,1.384957836767236605e-02,-1.025257766851963258e-02,-1.411526912748059005e-02,7.415508031845092773e-01
3.229040070748566693e-01,-4.600612028344830406e-01,3.823088163658813210e-01,-1.898150897710867285e-02,-5.484944020261476802e-03,1.069293310496307985e-02,8.152235746383666992e-01
3.002572328085795217e-01,-4.704136306789897803e-01,3.959342924139181985e-01,-1.758731917211815710e-02,-4.401225059783561711e-02,2.324090132945648077e-02,8.277577161788940430e-01
3.063600693061329650e-01,-4.396765577433128236e-01,3.775902291484607431e-01,2.146570719388543082e-03,-3.504102146381151556e-02,2.486218939536633324e-02,7.876144647598266602e-01
3.771975253700917130e-01,-4.434293038376397877e-01,3.584333302916995478e-01,-6.379613648669036144e-03,4.637296793257351685e-04,-1.040976994010707799e-04,8.114831447601318359e-01
4.346277877331620743e-01,-4.482676546273265394e-01,1.711131149859040634e-01,-2.365164849969118705e-05,7.158018718835708338e-03,2.440025691894966847e-03,7.851496934890747070e-01
1.495761576667728465e-01,-5.000283226701703887e-01,5.154059106626197595e-01,6.757872253653242345e-03,1.945538792153606381e-02,-1.999342196901506691e-03,8.914855718612670898e-01
7.189138404880145161e-02,-7.379801670076195919e-01,6.658250286727230849e-01,4.743248245594142848e-02,-1.007869144537220651e-01,1.856537910415736320e-02,1.236089229583740234e+00
5.516106446784777018e-02,-5.011166233694090977e-01,6.364735060470028127e-01,-7.260433576694491631e-02,-8.006850694778749888e-02,-6.162749511050986950e-02,1.008553981781005859e+00
-3.792402096488087238e-02,-5.044141521306070297e-01,5.596501948565244522e-01,1.694651726578101647e-02,3.722574426653809526e-02,-1.552718531508791213e-03,9.265508651733398438e-01
3.936011763780253303e-02,-4.987208389512639561e-01,5.268585540218608809e-01,-1.051207202739884994e-01,-1.544678957280824771e-02,1.952864291910294883e-02,9.080256223678588867e-01
3.576946272099029711e-01,-4.159909457847416059e-01,3.669142555869116529e-01,9.881300957223788494e-04,-9.795801434623623363e-03,-1.365930378067827314e-02,7.788825035095214844e-01
1.761745063819912249e-01,-5.212902174019296009e-01,4.708290489675686641e-01,-5.812740524599740999e-02,7.585644495877839899e-02,3.357752516622235315e-03,8.978988528251647949e-01
1.049606850936317670e-01,-5.527632839034855028e-01,4.712443492271121137e-01,9.149023280133533609e-02,1.670655888121785060e-01,-2.637938939336702607e-02,9.584413766860961914e-01
1.274165038255990756e-01,-6.033435476641249018e-01,4.875310734073911023e-01,-6.538272060259064933e-02,2.125411456766727047e-01,6.563459895911268049e-02,1.043129801750183105e+00
1.557658634044212786e-01,-5.164448894484607866e-01,4.489195364510077946e-01,8.026218007189368786e-03,1.877834980308148438e-01,2.539492505244497680e-03,9.169885516166687012e-01
4.503819798768324278e-02,-5.545948717226042435e-01,5.330061961748980837e-01,-5.232525401226387901e-02,1.177963330901668215e-01,-8.955259919031765756e-03,9.697198867797851562e-01
8.016992524776753171e-02,-6.509546059095902004e-01,6.096723054561078436e-01,7.338774713388304671e-02,1.130205198071605188e-01,3.347152885122668675e-02,1.122447013854980469e+00
3.246209880320194419e-01,-4.505469097672838430e-01,3.275431370634138695e-01,3.618093120464100677e-03,-2.358963487908751627e-02,4.786717291691589514e-03,7.777765393257141113e-01
2.754099669982987275e-01,-4.640952577165557980e-01,3.393696419679395060e-01,1.699104873559240114e-02,-7.220717314640485995e-02,1.571466114873152492e-02,7.845418453216552734e-01
3.251595627141550815e-01,-4.479362985083141790e-01,3.254347626876611388e-01,2.187005116607541443e-03,-2.136798887232709346e-02,1.792432587489361032e-03,7.741342186927795410e-01
3.504318092188936640e-01,-4.328888164168828157e-01,3.263788068470953041e-01,8.003154423284267183e-03,-6.686753368898488981e-02,-6.390033855707033701e-03,7.804210186004638672e-01
3.627614057730025321e-01,-4.435204689223462005e-01,3.568483726659442135e-01,-1.147709681501148972e-02,-4.670441691751009124e-04,2.442842890750889472e-03,8.035991191864013672e-01
3.496313026360137188e-01,-4.667971967588986359e-01,3.512303250399805843e-01,-6.873155889030839981e-03,-8.641091348096104074e-03,-1.059576542731290733e-02,8.176589012145996094e-01
3.570810425843817804e-01,-4.021245464429095140e-01,3.654820674592002550e-01,3.680845582517539016e-02,6.582091755698070076e-03,1.658814581213959027e-02,7.667214870452880859e-01
3.595838165190035074e-01,-3.954609820812458043e-01,3.588747436197675666e-01,2.683119125003272792e-02,2.228922990573234918e-03,2.367062735170427298e-02,7.572405934333801270e-01
3.684442238519764490e-01,-4.723669537219072900e-01,3.725322869227493672e-01,1.525655218673467074e-02,3.608814464628891903e-03,1.251913825859703178e-02,8.435786962509155273e-01
3.569901460820901207e-01,-3.947537498363127284e-01,3.506981812387436337e-01,2.368662796485149213e-02,8.593620055736913080e-03,2.712628392921223597e-02,7.513592839241027832e-01
3.425534958961710119e-01,-4.778779583917074358e-01,3.771272379980568079e-01,-1.160051235896393355e-02,2.853086122506003075e-03,-2.746038321041888077e-03,8.385220766067504883e-01
3.243306481410999087e-01,-4.455958784440440246e-01,3.318090021189551431e-01,4.631430937890321578e-03,1.058983989411314830e-02,-1.744754815345947929e-03,7.739576697349548340e-01
3.182462336333662933e-01,-4.446407702925914140e-01,3.307782855648251918e-01,-4.547095884843943255e-04,8.812919408420593140e-03,4.678302264441591305e-04,7.693818807601928711e-01
3.301241432452480806e-01,-4.428418837044915124e-01,3.268402581924463313e-01,-1.146382341056445282e-03,1.837652360904913629e-02,-8.387347962216501864e-04,7.719897031784057617e-01
3.452719797632656795e-01,-4.527907431149874595e-01,3.100120702170712228e-01,5.277607283920621520e-03,3.582736573767356797e-02,-6.121060139057113263e-03,7.836163043975830078e-01
2.912227371639277140e-01,-4.449276746386537917e-01,3.453693003499410663e-01,-1.349854912733126650e-03,2.012830740010760830e-02,3.570836494202775466e-03,7.654857635498046875e-01
3.124313629489392508e-01,-4.458311014364060298e-01,3.080715045083151082e-01,-5.245377543376889343e-04,4.684933271588959114e-02,1.812513642434320502e-04,7.604344487190246582e-01
4.365082070301193884e-01,-5.095759333252778411e-01,2.034249887606943141e-01,9.665862271935004787e-03,1.053283445479082647e-01,-1.264724660472414317e-02,8.734580278396606445e-01
4.290185337149488021e-01,-4.511935336929192575e-01,1.499748458786137051e-01,1.281663415698526369e-02,8.390254953669462612e-02,-3.112778230522967801e-02,7.946946620941162109e-01
3.595495812526839363e-01,-4.660331633943495255e-01,3.432156706921773992e-01,9.298998105401036149e-03,5.147866585795419624e-04,-2.798929054599587352e-03,8.177116513252258301e-01
3.556717532374625845e-01,-3.768143773077856085e-01,3.554440713674991703e-01,-1.372731199913337051e-02,1.594229209414622928e-02,-1.558647596674482549e-02,7.337750196456909180e-01
4.888402448686353652e-01,-5.663856652334586794e-01,2.154918758414404167e-01,-1.099899141150674324e-02,9.450581940509164558e-02,3.214418456071995583e-02,9.643824696540832520e-01
6.597615391994454681e-01,-9.736116409610610090e-01,1.099962958264010249e-01,-1.005822432798636826e-02,1.040780747497512537e-01,3.869994236777325736e-02,1.452401876449584961e+00
4.429257042518442988e-01,-5.125090072730337232e-01,1.564443841436253257e-01,1.407756797031940732e-02,8.300995624807680495e-02,-4.377803294356440861e-02,8.650022149085998535e-01
4.527416063146391667e-01,-4.776703617914364042e-01,2.093007947176635519e-01,6.204990795267937079e-03,7.506792138676440795e-02,3.248229810503993394e-03,8.458619117736816406e-01
5.228783460450003862e-01,-5.274728490439720696e-01,1.468803737337774640e-01,-4.724806191747958455e-03,7.366798406260662013e-02,-4.138943373538732373e-02,9.333645105361938477e-01
4.805793342107679278e-01,-5.340218979924699072e-01,1.158577288331693322e-01,1.975407698193188798e-03,2.306024996746517536e-02,4.053211263976822659e-02,8.938266634941101074e-01
4.778389248642259668e-01,-5.290281129808258598e-01,1.263121504445032239e-01,-2.840371342274215869e-03,3.019726410607898731e-02,-3.934715064600219359e-02,8.892783522605895996e-01
2.610737695408074099e-01,-4.740330136862147548e-01,3.624818224767053509e-01,2.094689633331660392e-03,8.223480907510631599e-02,6.665420412995435619e-03,8.035206794738769531e-01
3.428869178931563400e-01,-4.667013918268736461e-01,3.230368377144339775e-01,-1.395047909525279350e-02,5.587271277287705895e-02,1.837731277038726768e-02,8.066716790199279785e-01
3.927575931465687176e-01,-5.317522235530297570e-01,2.992269721002412952e-01,1.262104938717588561e-02,1.201921711072769794e-01,-3.041605876637661424e-02,9.075175523757934570e-01
3.409285103147809415e-01,-4.601024908976087957e-01,3.605310781533652142e-01,-3.685434892728271534e-03,1.594385000060128538e-02,4.720450555907613512e-03,8.115463256835937500e-01
3.872139188198986393e-01,-4.626230829509955234e-01,3.610769060991206869e-01,-7.483629018725152827e-03,-3.908688150361766230e-04,-1.172216789275512365e-02,8.374213576316833496e-01
3.248911545990338934e-01,-4.722019328573430208e-01,3.673446358853429405e-01,-1.517173117352139423e-02,2.590523587889061868e-02,2.091719873867616680e-02,8.215932250022888184e-01
3.704403260228402162e-01,-4.657045043978401688e-01,3.697365380426100856e-01,-1.526894604216735146e-02,5.237324098738369710e-03,-1.086665479835460281e-02,8.364724516868591309e-01
3.560895994275740661e-01,-4.408355245785224863e-01,3.367599676975127077e-01,2.625241107765991389e-03,-3.377476188387708994e-02,-2.826778478192384231e-02,7.911378741264343262e-01
3.770312615419759705e-01,-4.677000008958118737e-01,3.218843832422919604e-01,9.984139458185232324e-03,-2.001854615366310819e-02,-2.947045886080876340e-03,8.194846510887145996e-01
4.460076205125301785e-01,-5.535607672721530870e-01,2.670844369267898477e-01,-2.087339314668844314e-02,-8.894616826581383529e-02,4.085771159624163040e-02,9.393369555473327637e-01
4.154917626817493659e-01,-4.731718949163584709e-01,2.454282833234981143e-01,4.543544305778464236e-03,-2.682191837013591512e-02,-3.679490967155943544e-03,8.183985948562622070e-01
4.160461764659103001e-01,-4.650288739074506239e-01,2.408955366900609740e-01,9.624840795574889779e-03,-2.513148533579215999e-02,8.984191012870476264e-03,8.093608617782592773e-01
3.939035962327123164e-01,-5.270948735669007679e-01,3.014591167187892773e-01,1.871455063447103467e-02,-7.881485983543175255e-02,1.374068100269707979e-02,8.898850679397583008e-01
3.567564781598885348e-01,-3.992965396082812646e-01,3.679342488281778234e-01,2.433784994306751118e-02,-3.103343444763919864e-03,-4.785770013084542779e-02,7.673780322074890137e-01
2.859816833079086296e-01,-4.594175943408865814e-01,3.504463048400911496e-01,-1.888042342600444691e-03,6.966491471095964672e-02,-1.444516385921189175e-03,7.889260053634643555e-01
3.124878309704288704e-01,-4.672438365262505666e-01,3.463410598029363907e-01,-1.192197578308592382e-02,3.808807319317380341e-02,2.158774057974494065e-02,8.010621070861816406e-01
3.053081415416728506e-01,-4.491926437160179697e-01,3.515380538830747414e-01,-5.469975173301243332e-03,3.798667309323910946e-02,6.494324200350628552e-03,7.815589308738708496e-01
3.868712919428180519e-01,-4.692039056927921337e-01,2.915971421594318880e-01,1.230813072291410057e-02,5.146136344694242359e-02,4.375347057589678602e-03,8.178244233131408691e-01
3.519232039570076576e-01,-4.679373233056137726e-01,3.366351434710689872e-01,-3.228501013124234170e-04,1.559825447239522253e-02,-3.903380112539448811e-03,8.128018379211425781e-01
3.509711833372099465e-01,-4.601411790380528499e-01,3.542791765139003402e-01,2.552513318012317178e-03,3.892035199015142499e-02,-1.757200405460170424e-03,8.155798912048339844e-01
3.581367774839457896e-01,-4.704196162320618546e-01,3.691097495402003159e-01,5.796086161209724162e-03,-1.970431543417535715e-03,-2.864825573594904744e-03,8.341791629791259766e-01
3.743084682399126506e-01,-4.582444062066940438e-01,3.323580205402194010e-01,1.113195525333128370e-02,1.359151133562735633e-02,-9.779740040515480168e-03,8.131365180015563965e-01
1.010799484802495096e-01,-7.274162905739681717e-01,7.123393079161083330e-01,-5.941812080429984683e-02,-7.479438107582660200e-02,-1.600637697097197221e-02,1.262779831886291504e+00
3.523338425910418348e-01,-3.938499729459645771e-01,3.665753442695883768e-01,-1.528615470723778628e-03,-1.290703880576343082e-02,-1.882976212540445407e-02,7.544470429420471191e-01
3.483793814136657008e-01,-4.000139793399167809e-01,3.586281393923962391e-01,-2.028914571154413066e-02,-1.873610666623797341e-03,2.508680753621192038e-03,7.544084787368774414e-01
3.686842824813403863e-01,-4.733534718362063520e-01,3.593872961388583365e-01,3.502875113940833243e-03,4.949468918064224522e-04,-1.130213515421035590e-02,8.376791477203369141e-01
3.491917345148864427e-01,-4.043584608662577073e-01,3.592299232384442709e-01,-2.107653324278566803e-02,-2.437534797776333157e-03,1.610393848039483366e-03,7.595137953758239746e-01
3.540877113542528765e-01,-4.426130795740962354e-01,3.662818402562361131e-01,-2.193696357698417948e-02,-8.436530287218189580e-04,9.466609443634796395e-03,8.039344549179077148e-01
3.507116639931568969e-01,-5.235064878289373835e-01,3.456571028897953424e-01,3.867247483881362108e-02,6.760797093142220660e-02,-3.483554639169283290e-02,8.841401934623718262e-01
3.496489241500099210e-01,-4.634705158691990734e-01,3.574387600293775780e-01,3.569371919181726829e-03,6.332437808192644541e-03,-4.933799339821209363e-03,8.171839118003845215e-01
3.564732585249729691e-01,-4.642630006964363343e-01,3.645933125685738574e-01,2.987085010437765778e-04,1.003637563852935281e-02,-1.715694276172193347e-02,8.255445957183837891e-01
3.489707258236683374e-01,-4.622833655753717519e-01,3.606621308034075324e-01,5.248232978140103012e-03,5.060390546970779113e-03,-7.745168259060923946e-03,8.173701763153076172e-01
3.572867351697081029e-01,-4.932075983319197388e-01,3.898180104916738054e-01,3.081224747459377408e-03,1.054621262763972764e-02,-1.274168496819193946e-02,8.677071928977966309e-01
3.300073947571419697e-01,-2.974164058827702961e-01,3.533571325204106772e-01,1.827143758303398195e-03,-4.039077028249337190e-03,2.141626508751975216e-02,6.405395865440368652e-01
3.405449284439199253e-01,-2.918735458952568806e-01,3.364081092055167255e-01,-3.516381024462138238e-02,1.790975416359473493e-02,5.492443204006805524e-02,6.411519646644592285e-01
3.524113531442630287e-01,-3.449634687619917428e-01,2.988935402998021962e-01,2.315441052538227962e-02,-2.611284145190169437e-02,4.132014550168634087e-02,6.787119507789611816e-01
3.807630806186177441e-01,-3.739390798411161843e-01,2.984698176817872639e-01,4.110833869624894166e-02,-3.104291780113039440e-02,4.703528761683695159e-02,7.272126674652099609e-01
3.551835310102232635e-01,-3.808961206231474272e-01,3.522619836856498154e-01,4.505639399490416960e-03,-1.241831842919707482e-02,-7.959767753159100595e-03,7.351087927818298340e-01
3.558314123704926502e-01,-3.674627543069183822e-01,3.582714817552364317e-01,-7.686071102013224306e-03,1.303661116958743050e-03,3.716019232203884165e-02,7.274959087371826172e-01
3.809422872967080376e-01,-4.482522582587530335e-01,3.200948046283966786e-01,-6.458750528544113939e-03,2.740196105317415569e-04,4.081331964641405491e-03,8.006166219711303711e-01
4.599205727400984545e-01,-5.506700070097354516e-01,2.536174546468333846e-01,-8.206249858766645131e-03,1.343745130200177385e-01,1.788659726493028318e-02,9.543048143386840820e-01
3.414181341446624329e-01,-4.584539042856963231e-01,3.277831166475477787e-01,-1.385938052779154238e-02,-6.600417863274601893e-02,-1.211533258416916219e-02,8.019732832908630371e-01
4.188142137658739661e-01,-5.203466090348938256e-01,3.220223934603769766e-01,-1.899855652149336042e-03,-7.282998917716262954e-02,2.209927477131370596e-02,9.043656587600708008e-01
3.824385156479089276e-01,-4.669548166902108832e-01,2.865181465509763492e-01,-2.033844473802263325e-02,-5.394608747683328487e-02,-1.548577261441073764e-02,8.123340010643005371e-01
3.637655832516716869e-01,-4.714218368192156783e-01,3.660807847054519115e-01,5.522712752090674611e-04,8.299977362526095130e-04,-5.707020147199736056e-03,8.364076018333435059e-01
3.882465176607724500e-01,-5.033698399925783384e-01,2.513727813129996713e-01,-3.337239849398452446e-02,-8.771215464501966319e-02,-3.026895168122980054e-02,8.490260839462280273e-01
3.882038880429178884e-01,-4.681162895748185448e-01,2.648905729261879505e-01,8.540444243527098994e-03,-6.568425407450043108e-02,2.245519417358715804e-03,8.099826574325561523e-01
2.792516889833910332e-01,-4.175977261304062438e-01,3.879015941749739405e-01,3.582125533647165239e-02,2.930966345165626763e-02,-1.500141382233236356e-03,7.612817883491516113e-01
2.712931586349414115e-01,-4.306771918732983373e-01,4.332085429556673528e-01,-3.182433033384111151e-03,5.599812775787180175e-02,-2.819996048885247547e-02,8.027840256690979004e-01
3.490117942055178668e-01,-5.364288090644381279e-01,3.870577527467269907e-01,3.258564717987577630e-02,1.022653949616480762e-01,-6.774102612314923319e-03,9.240334033966064453e-01
3.438298815677659492e-01,-5.146736642114031479e-01,3.867467465701417972e-01,-9.491190961004578042e-03,1.188991673370551339e-02,2.615954959730247900e-02,8.823048472404479980e-01
3.374704688662947261e-01,-4.166974904803226742e-01,3.841414454959586888e-01,4.252008476578182997e-03,8.840261597156712225e-02,3.626562707279247511e-02,7.959837317466735840e-01
2.988312582244794235e-01,-4.661915366389531856e-01,3.741237116797972995e-01,-9.143440888417852380e-03,3.814474459000300605e-02,9.502133950340397803e-03,8.083415031433105469e-01
3.409299726450336632e-01,-4.986210645190604085e-01,3.826961254410969904e-01,-1.443157515262583936e-02,9.223022345249029877e-03,7.875603980026032883e-04,8.617058992385864258e-01
3.614697400122670601e-01,-4.709575230706588567e-01,3.614979105320105801e-01,-5.931077398925753419e-03,-7.207364301154680145e-04,8.592768768873227866e-03,8.326386809349060059e-01
3.433711640976374047e-01,-4.662274069715981462e-01,3.616043022775308202e-01,1.430767285406365531e-03,2.349007167729715278e-03,5.656571933060400639e-03,8.189398646354675293e-01
3.633064283028166197e-01,-4.581537340686225868e-01,3.715331362855953667e-01,-1.624463631455102435e-03,-1.473645787542246684e-03,-4.157556598110925122e-03,8.256443738937377930e-01
3.522546845779917501e-01,-4.689599375733672915e-01,3.535499944615987933e-01,-4.708955067742731475e-03,3.830153978723290983e-03,4.570736863837053694e-03,8.219684362411499023e-01
3.489737216943760711e-01,-4.718521074452186603e-01,3.618533643055829030e-01,-4.337739220626158146e-03,3.349922348306283958e-03,4.276568700449796812e-03,8.274284601211547852e-01
3.421098490476242038e-01,-2.385415927395301838e-01,3.440483981401546432e-01,8.009589554878809858e-02,5.243751059960945551e-03,-2.671375517976776887e-02,5.997956991195678711e-01
3.682687505721766730e-01,-2.676092589757524398e-01,3.873668375563649735e-01,9.747758469456792307e-02,-8.286049858830442719e-03,-1.355686562486106000e-02,6.679165959358215332e-01
3.608729735868940747e-01,-3.982142745003816042e-01,3.654041307805923622e-01,1.494505132375891290e-02,-6.313254627064153121e-03,-5.024283492421938169e-02,7.668351531028747559e-01
3.209950482157750695e-01,-2.424271508062418312e-01,3.504839317425413880e-01,2.233155543327352069e-02,-6.963571133608575589e-03,1.116679035179775868e-02,5.804692506790161133e-01
3.209200438967133584e-01,-1.897684665091225464e-01,3.253930392190530485e-01,3.840014848505503287e-02,-1.154991880808432445e-03,2.476662847453689129e-02,5.190134048461914062e-01
3.631274367409104142e-01,-4.644413027743479194e-01,3.666492531727215676e-01,1.714318929577040825e-03,5.571239112011128203e-03,4.615822612180165395e-03,8.294352293014526367e-01
4.572558031773955589e-01,-5.258553739171952790e-01,1.917273225757931132e-01,1.298957333810615671e-02,1.295885403468618746e-01,-1.589228773039525269e-02,9.097320437431335449e-01
3.523619164962450978e-01,-4.566601391897843198e-01,3.652247366492453740e-01,-1.234472002539925648e-03,-9.566266387028017192e-04,7.341086658918996762e-03,8.156331777572631836e-01
3.442832967810045552e-01,-4.665596231168707142e-01,3.573903836104249665e-01,-2.727721734244677523e-02,-3.916752304740628299e-02,-1.267375810937605360e-02,8.219380378723144531e-01
3.437772991008349877e-01,-4.256526514715538445e-01,3.693287996201624068e-01,-7.580612707073161333e-04,-1.609622425087176359e-02,1.060393278605199427e-02,7.832316160202026367e-01
3.585059339178383597e-01,-4.690895000820264338e-01,3.631238661794556344e-01,-1.409932758075659780e-03,4.102705139661819113e-04,6.242453883008316010e-03,8.299883604049682617e-01
3.638612193610240020e-01,-3.624034862646602906e-01,3.568550039424713827e-01,2.769739747688420434e-02,-1.121539591110002482e-02,-1.589765129132699600e-02,7.251607775688171387e-01
4.371823558254064879e-01,-4.764905943746728934e-01,2.849225596698589102e-01,1.017737570642085650e-02,-1.786111116365142124e-02,-3.840176720419549716e-02,8.512094616889953613e-01
4.738570675623382522e-01,-5.400582141313177154e-01,2.869910920986800118e-01,1.242768008454704989e-02,-1.103227465456427595e-02,-2.199804316638303420e-02,9.358189105987548828e-01
3.818799030712501930e-01,-4.235877328611307169e-01,3.249547303767062467e-01,3.416235507760925858e-03,1.081157755323079814e-03,-5.728975057160363982e-03,7.786553502082824707e-01
3.800550867743340278e-01,-4.333017587875791499e-01,3.583287322995073465e-01,7.610877396592227208e-03,-2.050826258631374948e-03,-3.873128812583616354e-02,8.056282401084899902e-01
4.083874681894105740e-01,-3.865828566870583294e-01,3.173213751513801473e-01,1.330380899575094727e-02,1.255525900836937034e-02,-1.150421029270508842e-02,7.545044422149658203e-01
3.903241844171637664e-01,-4.086215100915515652e-01,3.116823396486211317e-01,-1.031024173880951134e-02,1.279366849202956402e-02,-4.754304666299977167e-02,7.676321864128112793e-01
4.143630502124103221e-01,-5.143137671226361007e-01,3.136568821313738820e-01,-4.999854356779825926e-02,3.513492462845629882e-02,-1.167023632258563232e-02,8.891965150833129883e-01
3.508642676842058106e-01,-4.420217972218366542e-01,3.713157195755872886e-01,1.430666457045568808e-02,1.442536341324792207e-02,1.287717337678867362e-02,8.043867349624633789e-01
3.783616716919332434e-01,-4.525869228379049147e-01,3.758445853976198348e-01,6.552718141557629938e-02,2.958620449451897921e-02,-3.121011396191720327e-02,8.407258987426757812e-01
3.548348901729876936e-01,-4.556716770111661763e-01,3.626634187492271955e-01,-2.225089268779786161e-02,7.601242908363492479e-02,-1.541306193176429640e-02,8.263527750968933105e-01
3.341921747582098368e-01,-4.694397961342962056e-01,3.374772518054526271e-01,-3.603260106428535225e-02,4.646064650111231265e-02,2.790768040071513537e-02,8.131312727928161621e-01
3.687459602219178567e-01,-4.314401929933694424e-01,3.727376059968453559e-01,3.044904678468306897e-02,2.637248008092427792e-02,-6.032791102730067356e-02,8.119693398475646973e-01
3.577165214241807556e-01,-4.663916361580987546e-01,3.636029279308490847e-01,7.597137443851863800e-04,-2.757511718929994346e-03,3.156110170731212753e-03,8.270999789237976074e-01
3.904769035374046071e-01,-4.843029566357920368e-01,3.463400879899645735e-01,-1.652625773307695670e-05,4.400090528332104012e-02,-1.043911530403881724e-02,8.571540117263793945e-01
3.872560736004045934e-01,-4.801870327012750517e-01,3.044122910248281411e-01,1.137201407764796592e-02,-2.192619382503899900e-02,1.962583403961348782e-02,8.309296965599060059e-01
2.930468697059935845e-01,-4.587773493757040244e-01,3.928999710315360661e-01,-1.659936896548953184e-02,2.825842233764838674e-02,-2.780887908031277889e-03,8.084105849266052246e-01
3.747774881945687420e-01,-4.400243798040266441e-01,3.635092389392291512e-01,-9.724552552599735958e-03,-1.597195092556146639e-02,6.226804183836500556e-03,8.099462985992431641e-01
2.949032494714566299e-01,-4.565955023963244042e-01,3.872528296874728215e-01,-1.015777160569383830e-02,2.581803174658468814e-02,2.386060438542882307e-03,8.031225204467773438e-01
3.529573271476764140e-01,-4.598187205032222558e-01,3.892985358932067874e-01,1.501400132370926156e-02,6.459408791881476875e-03,1.346466787068003636e-02,8.323509693145751953e-01
3.204097979164283183e-01,-4.582475662052225562e-01,3.856035249368287565e-01,-4.108101524874151374e-03,1.616106325097845312e-03,3.682379332330324231e-03,8.132774829864501953e-01
3.793660521438591005e-01,-4.286886604598459938e-01,3.602027579630542875e-01,1.008989613357881565e-02,-4.930016834820760002e-03,2.994103724803585226e-04,7.988824844360351562e-01
3.606385215419057322e-01,-4.577756623128076408e-01,3.710976960523996726e-01,2.005138619800629282e-02,3.520717371337809057e-03,6.203132859102490626e-03,8.245179653167724609e-01
3.487224093317800033e-01,-4.925126905051976367e-01,3.839892978759364972e-01,-4.567181453098279401e-03,2.643460920564132555e-03,-1.060411648189209591e-04,8.594600558280944824e-01
3.443315933533712681e-01,-4.655493405286269537e-01,3.758264261846601118e-01,-3.648410008937985269e-03,7.663737529406961305e-03,1.349359626333249476e-02,8.265400528907775879e-01
3.054204977895852435e-01,-4.657322925120525037e-01,3.548305923632127379e-01,1.035418374151145585e-02,-8.853259675739086343e-02,-1.484785456008001422e-02,8.122301101684570312e-01
3.024828650860972301e-01,-4.558752466117178548e-01,3.484887177930258151e-01,-2.952014100908936789e-03,-4.720195858697236180e-02,4.741278936910064967e-03,7.866957187652587891e-01
5.236894378583510923e-01,-5.393146724836859196e-01,5.026728857434898529e-02,1.021220094951445778e-02,1.411910756460802163e-01,9.580766935297021364e-03,9.545939564704895020e-01
3.262523323429494804e-01,-4.500015109088346676e-01,3.354554856734362489e-01,1.534468481125682293e-02,-5.536379595797515096e-02,8.841041869185177829e-03,7.873595356941223145e-01
2.618952224335908685e-01,-4.683397281419698910e-01,4.382433410387091555e-01,-3.700334844111905636e-02,7.770522326727879320e-03,-1.189829281403841088e-02,8.353627324104309082e-01
3.091372870558997121e-01,-4.607690901923479077e-01,4.119066302911886246e-01,-1.785366525941427598e-02,-2.132095200467915008e-02,1.484513308783883163e-02,8.279017210006713867e-01
3.684209489254672842e-01,-4.630763672300475253e-01,3.692798271398467502e-01,3.589777172952268551e-03,-5.400144088124383610e-03,1.426745836690022267e-03,8.320065736770629883e-01
3.168010818866889289e-01,-3.700459298683397846e-01,3.631363189012243309e-01,3.574519633716689154e-02,1.665491360791163458e-02,-5.725431441414178223e-03,7.144891023635864258e-01
3.591589776335907258e-01,-4.514988289168622160e-01,3.932472694526784607e-01,2.323147919477038664e-02,-5.917018992271620356e-03,-4.600547362126090369e-03,8.293067216873168945e-01
3.153216919727050427e-01,-4.656225530188762285e-01,4.031763101199499211e-01,8.079936893978418438e-03,-3.724783844473927375e-04,-7.568428851239056981e-03,8.285952210426330566e-01
2.979546201208347345e-01,-4.525070213521210638e-01,3.527830642276349460e-01,-8.857458773573893872e-04,-1.909251111611642848e-02,8.590037821409291299e-03,7.801684141159057617e-01
2.778308957957170700e-01,-4.499062088819858474e-01,3.441476606050833942e-01,1.782130391471838105e-02,-4.661418219889743031e-02,1.120288768100327972e-02,7.681850790977478027e-01
3.030284826615162186e-01,-4.428838526649676588e-01,3.436770865402939967e-01,2.433661774755822155e-03,-4.767017607623026676e-02,4.984081942645728416e-03,7.715357542037963867e-01
3.210464104920122130e-01,-4.432457732647649973e-01,3.320800908880839897e-01,-1.248515071198362915e-03,-1.595259618897656648e-02,-1.498025193234703680e-03,7.703713774681091309e-01
2.853656287018613291e-01,-4.547817056362950527e-01,3.483407216832113407e-01,1.019807570157293085e-03,-3.930811359541980243e-02,2.215150918425562530e-03,7.765616774559020996e-01
3.268809695240899593e-01,-4.442908422416637082e-01,3.303762413984434043e-01,1.156715938063917234e-04,-2.535114551825958830e-03,-1.272440793811528345e-03,7.729409933090209961e-01
3.481938137430916624e-01,-4.577421561572719844e-01,3.524766528828638945e-01,4.793715198735866781e-03,1.492964179135077354e-02,-7.432186105798153572e-03,8.086446523666381836e-01
3.852532030467643587e-01,-4.698493653456098373e-01,2.738297177875306243e-01,2.215450879485015775e-02,4.431997776076884027e-02,-1.864714375529527568e-02,8.103983402252197266e-01
3.475036606028361064e-01,-4.514088942916010261e-01,3.048961022569688928e-01,8.575055620656453145e-03,1.442643570768334729e-02,-9.857994213573254699e-03,7.792133688926696777e-01
3.161413992206778545e-01,-4.492951602074160000e-01,3.227985269032869753e-01,1.159293283381462175e-02,2.649069201169623050e-02,-5.087342501176012055e-03,7.704668641090393066e-01
3.273088046419186936e-01,-4.508374370119484498e-01,3.210103211680248592e-01,7.147997263509252297e-03,2.749344218146268504e-02,-5.858725771711263859e-03,7.766427993774414062e-01
3.144254931070105674e-01,-4.485054132832395624e-01,3.448704422908684952e-01,1.100519918573266386e-02,3.306481166908459973e-02,-7.524057338340790074e-03,7.810447216033935547e-01
3.386283905628910684e-01,-4.706523176050551038e-01,2.246662270736653477e-01,1.382103436803434546e-02,-1.614617432699384514e-01,1.554040541972373339e-02,8.094457983970642090e-01
3.281205942964560696e-01,-4.482881133992525080e-01,2.741963161052818898e-01,-5.689588536925664283e-03,-7.533212979193563974e-02,-3.018786005916948654e-03,7.622337341308593750e-01
4.043913325677743198e-01,-4.738943227197017771e-01,2.207235944013592188e-01,4.167472082683301368e-03,-9.761274123148788728e-02,1.295009776157830805e-02,8.203333020210266113e-01
4.244227941395070092e-01,-5.159675875018635560e-01,2.336728573856394486e-01,3.835909327083145137e-02,-1.310305068265790185e-01,1.918067660873854635e-03,8.929011821746826172e-01
3.372438603224024445e-01,-4.663877859235848744e-01,2.892594088771869298e-01,1.804001330671166359e-02,-6.193040173779937319e-02,1.659718037509827840e-02,7.892232537269592285e-01
3.444984290124505355e-01,-2.893408085083692960e-01,3.363513247912992554e-01,1.311027679398029354e-02,1.969529398213361836e-03,-2.582264140596474827e-02,6.318087577819824219e-01
3.543902099050468824e-01,-3.138950943557407003e-01,3.375237776573036808e-01,4.674977453968027531e-03,4.283675610393229694e-03,-3.620247203415351972e-02,6.630766391754150391e-01
3.083100337037849581e-01,-2.014058206241921001e-01,3.790617245340073271e-01,-2.088410724313500416e-03,-9.582330175592380928e-04,-3.571834847290457360e-02,5.520167946815490723e-01
3.499022667029083600e-01,-2.066833241806352861e-01,3.140493182295879815e-01,5.282307341812149393e-02,-1.383330465250217842e-02,-1.617333633579953744e-02,5.484955310821533203e-01
3.583791974060333008e-01,-2.203498222189274602e-01,3.680160414428130800e-01,2.352928157880028806e-02,9.726572026991491676e-03,-2.454393509876775029e-02,5.868127346038818359e-01
3.607256622204346730e-01,-1.820964203277208315e-01,3.064575002599217446e-01,3.427038252766774484e-02,-1.042416920764137681e-03,-2.742046287082091499e-02,5.233786106109619141e-01
3.406462318045714310e-01,-4.023452859282772298e-01,3.750705024088893946e-01,-1.957733195536123447e-03,-4.168395334459023063e-03,6.582331694324601579e-03,7.609152197837829590e-01
3.906403831664224668e-01,-4.718825723948610884e-01,3.206051194255084003e-01,2.887899122231287787e-03,5.698519262810590111e-03,-3.040994983015633119e-02,8.314688801765441895e-01
3.464876980960358566e-01,-3.240930642249439941e-01,3.658061828937414495e-01,5.399813570987612929e-03,-6.492644488727711619e-03,2.524557871187240940e-02,6.820061206817626953e-01
3.645843703577624217e-01,-4.328081023836775065e-01,3.635879251092866693e-01,1.100330931294213679e-02,-6.296103609442266127e-04,-1.469094816676332245e-02,7.975293397903442383e-01
3.882920094063825878e-01,-4.504552492796136676e-01,3.622181830803556934e-01,-1.045723713632455178e-02,8.296118074690519290e-03,1.162829077905502134e-02,8.265879750251770020e-01
4.311982730386842988e-01,-4.312294098028695011e-01,3.060037370668881040e-01,-4.952018230332336929e-02,4.534108526549111839e-02,6.689497048824946668e-02,8.236703872680664062e-01
3.670473058047386550e-01,-4.635143379121878793e-01,3.634153689101126128e-01,8.018711192570124324e-03,-2.454352361911677632e-03,7.463541088958265853e-03,8.289797306060791016e-01
3.333463632487364547e-01,-4.438159045549413539e-01,3.261113355592483720e-01,3.304850906031859582e-03,2.748857199939232655e-03,-4.255145010481047995e-04,7.736063003540039062e-01
3.643111720142783727e-01,-4.177254389209252849e-01,3.608513393721217155e-01,9.537646307027374329e-03,4.466470119058056111e-03,1.246802754928819437e-02,7.808243036270141602e-01
3.501934655257018525e-01,-3.048339123819666097e-01,3.918542355921517117e-01,-8.580878954634608979e-02,2.184868725761915029e-02,4.121265089720765884e-02,6.976405978202819824e-01
3.744663441415563843e-01,-2.760190244319964958e-01,3.530323789990377770e-01,-1.560822198072757579e-02,-4.345473934344439362e-03,3.768648373318653905e-02,6.439692974090576172e-01
3.707724859290015273e-01,-4.761115689738369960e-01,3.679897155608569115e-01,-1.834695819372177432e-03,1.151765115325342499e-04,4.585180468127791746e-04,8.455024957656860352e-01
3.616359318742368711e-01,-3.853137521825512612e-01,3.609435262873336159e-01,-5.517568383131658816e-02,-4.328182099141487417e-03,2.661406264967934587e-02,7.541427612304687500e-01
3.575188702024343912e-01,-3.322591990770563108e-01,3.467090684710881776e-01,-4.062209998480589834e-02,-4.725771195588898514e-03,-1.615753546724885831e-02,6.886616945266723633e-01
3.560171189378557033e-01,-3.556264634701041261e-01,3.421050650677027738e-01,-2.391615380688403431e-02,-1.154377308614606273e-02,7.435886602815306411e-03,7.064073085784912109e-01
3.454700499557471494e-01,-2.371247248291247223e-01,3.411453058254225734e-01,-6.428222817455644944e-02,-3.068329778311375267e-03,3.199243991772402623e-02,5.936422944068908691e-01
3.266031093924141593e-01,-1.883352704669812860e-01,3.291792765142516064e-01,-5.582217489780600533e-02,-1.630065035299634035e-02,6.716163379252371168e-02,5.386763811111450195e-01
3.379966084337913124e-01,-2.925201555895660666e-01,3.308926283608819574e-01,-2.098598584021624247e-02,-1.485169958779437513e-02,1.711577896999955800e-02,6.292729973793029785e-01
3.644441818716137593e-01,-4.705946646326504279e-01,3.496405243556737208e-01,6.015428430606101738e-03,1.237842362635789518e-03,-5.360571259754099045e-03,8.278567194938659668e-01
3.668655196341320535e-01,-4.729649315568886792e-01,3.582409275286213002e-01,1.620652397483493155e-03,-1.012146908404813837e-03,-3.930728177806695235e-03,8.355858325958251953e-01
3.670328752539313011e-01,-4.683308755598738493e-01,3.563837756111459254e-01,4.316489046186303656e-03,-3.364154993193254478e-03,-5.924943917404226594e-03,8.302080035209655762e-01
3.682970415337096792e-01,-4.669955757291979204e-01,3.706017875123792660e-01,-2.554396381006185813e-03,-1.033742112572734288e-02,1.224413463625850318e-03,8.366533517837524414e-01
3.678918895999478966e-01,-4.687022099302105005e-01,3.559542356211368164e-01,8.046507794160351681e-03,-2.874137773177244150e-03,-1.286424865179324438e-03,8.308244347572326660e-01
3.734745441276153821e-01,-4.519482204157551086e-01,3.539271452565384557e-01,-2.401092770906710847e-02,-1.558780031315978084e-03,8.879158931021352563e-02,8.312392234802246094e-01
3.496226550514204279e-01,-4.681187861142243056e-01,3.596026781025123964e-01,1.193411355989082521e-03,-7.987961235351304437e-03,6.391369171963064491e-03,8.229702115058898926e-01
3.375151058782699387e-01,-4.587498791347452975e-01,3.488240168107890615e-01,6.042485951334666643e-03,-4.080505329602588174e-03,9.536899617623899664e-03,8.022487759590148926e-01
3.229319079955819682e-01,-4.655610092877239259e-01,3.607478063010141067e-01,1.232633993618760873e-02,-8.146544352219417182e-03,1.282438797025148638e-02,8.087750077247619629e-01
3.556788845221878215e-01,-4.668228900720793328e-01,3.477379583375747041e-01,5.216620207747047801e-03,-1.533352713937623842e-03,7.615900582391405167e-03,8.187206387519836426e-01
3.454281882648587154e-01,-4.679248313085107025e-01,3.597324596689949749e-01,3.459857414680586520e-03,-5.862041360374875901e-03,6.225906188910961328e-03,8.207541704177856445e-01
3.836958084226592125e-01,-4.467340357298084097e-01,2.946850017772768004e-01,-5.921719429366646172e-03,5.900724509223195802e-02,3.784797794645111679e-02,7.990416884422302246e-01
4.118158285272025543e-01,-4.585756906081190909e-01,2.205680172903631275e-01,-9.856674808653881001e-03,5.567737822258850278e-02,-9.399272262805973346e-03,7.984691858291625977e-01
4.720454156220627029e-01,-4.739492046301759798e-01,1.875830607868577693e-01,-2.011583348060800441e-02,5.457978278993799726e-02,2.290859336504267804e-02,8.476142883300781250e-01
5.017650913959174064e-01,-5.246329269996030664e-01,1.906330917356851562e-01,-1.486661452820428088e-02,5.427337056125494663e-02,2.678405333490333634e-02,9.179339408874511719e-01
4.283864928495208502e-01,-4.460463488687496092e-01,2.094795562184150195e-01,3.455234702751146074e-03,3.416080226711089990e-02,-2.368194429792054492e-03,7.903715372085571289e-01
3.445100916507415345e-01,-4.701238169180218529e-01,3.799991414888003183e-01,3.571116048204904525e-03,7.481617763863055576e-03,-1.189329240831499788e-02,8.333240747451782227e-01
3.736140346629034381e-01,-4.517219245898883573e-01,3.642294959875089777e-01,3.796456243174933798e-02,-4.526810204353023471e-04,-3.140936648760276392e-03,8.233324289321899414e-01
2.672968638713607570e-01,-1.042013568225344522e-01,3.801272390662724376e-01,7.298978956862443856e-02,1.259151081326323127e-02,-6.512426461785812692e-03,4.574311971664428711e-01
1.156329085995179140e-01,-1.795071051193263822e-01,4.296706330940803231e-01,7.375829948161030658e-02,2.065744593062420961e-02,-2.664959631015772004e-02,5.460256934165954590e-01
1.633754014975730418e-01,-5.195591275450964774e-01,5.179304584140717038e-01,9.816828397704396858e-02,8.519058321100414499e-02,-1.382671137190023131e-02,9.410120248794555664e-01
3.382911084192006257e-01,-1.405772508767317297e-01,3.892669199871935937e-01,-6.182825475412209899e-03,-3.042819500053601384e-02,-1.563025915099937237e-03,5.091402530670166016e-01
3.649270198672301957e-01,-3.794125791425981276e-01,3.605225104029819994e-01,8.692987611934432923e-02,-1.097709978891506580e-02,-1.351983889457167819e-04,7.575053572654724121e-01
3.660868195506511436e-01,-3.237743771107892132e-01,3.794491429940799465e-01,6.421695016762724029e-02,-1.306954807665086302e-02,2.496350530696673717e-02,7.071481943130493164e-01
2.508986008643987464e-01,-4.565963767483059987e-01,4.073732775029195730e-01,3.458685010822931064e-03,5.103284856050378793e-02,-1.058213460196627369e-02,8.024483919143676758e-01
3.102239412433501209e-01,-4.494575684718793429e-01,3.457819245864653945e-01,6.098988502946393366e-03,2.902461477975137177e-02,-7.740207347764272057e-03,7.798792719841003418e-01
3.055806890905312656e-01,-4.596996815070041320e-01,3.761234053386456888e-01,1.113129736486692320e-02,1.646383196902105606e-02,-1.179959780227537655e-02,8.038767576217651367e-01
2.766680030188405359e-01,-4.495631091691993930e-01,3.734731183127272813e-01,5.756264806025703298e-03,6.011498315637027468e-02,-8.349904655668588874e-03,7.862796783447265625e-01
3.042722537276398853e-01,-4.497967647881426778e-01,3.450166842485618002e-01,6.151900994291968280e-03,1.337278683898911538e-02,-6.887975932206450227e-03,7.757555246353149414e-01
3.631479935123589353e-01,-4.736895609960876108e-01,3.652000056283509766e-01,2.667862207117507618e-03,-1.202323653058353205e-03,-4.419576115315545020e-03,8.379157185554504395e-01
3.280010079216830743e-01,-4.601723873636160977e-01,3.486492481239780727e-01,8.884411684868741624e-03,8.840524924591744091e-03,-1.284601791447250937e-02,7.993023991584777832e-01
3.172664675184476146e-01,-4.597681114631307908e-01,3.686439142795280843e-01,7.627690920615464408e-03,5.974785173065084651e-03,-1.333922051586542215e-02,8.044624924659729004e-01
3.543619018573158641e-01,-4.267495157744796153e-01,3.732902188917871511e-01,2.727227674623809110e-03,-8.872459079679883426e-03,6.994650933096463637e-03,7.910017371177673340e-01
3.479263057097233824e-01,-3.426230697954809057e-01,3.536196753186613417e-01,-2.191427613337666030e-02,-1.241019147641429440e-02,3.341162550563454847e-02,6.971901655197143555e-01
3.785333238104506837e-01,-4.611848788806861554e-01,3.335061636129336704e-01,1.603701793150348609e-02,9.392202372327350043e-03,-1.414342227535084900e-02,8.191338777542114258e-01
3.633847990505728598e-01,-4.481271443389289733e-01,3.682193231684292023e-01,-8.775281824133299158e-03,-3.722436869604441381e-03,1.623313012900698751e-02,8.145927786827087402e-01
3.476762602615330322e-01,-3.469086693713299141e-01,3.537941910926663547e-01,-1.940775081961652535e-02,-1.054423155041929894e-03,2.306446507831024298e-02,6.996172666549682617e-01
3.602174125529146176e-01,-3.748784291631005461e-01,3.535776417242105230e-01,2.245122168310753358e-03,3.799544818034031107e-04,4.011905738582884073e-02,7.351008653640747070e-01
3.510955133331250533e-01,-4.633065146978083693e-01,3.423566663107534547e-01,4.959048742447139113e-03,1.584497280268258503e-03,-1.221536066582997750e-04,8.101181983947753906e-01
3.872888030470382215e-01,-4.613453036325442236e-01,3.521076106926710469e-01,1.068488284691576119e-02,-3.882550077256866940e-03,1.038537242415873453e-02,8.320294022560119629e-01
3.611843294182121022e-01,-4.368282741623261689e-01,3.653854805923943405e-01,-3.970069860762652676e-03,1.542278946498435842e-03,1.792093350033211949e-02,8.007572889328002930e-01
3.667922899344046583e-01,-4.582689316533894441e-01,3.567769913930470271e-01,-9.141570593675259898e-03,9.492696903080563575e-04,6.153147836970090760e-03,8.203231692314147949e-01
3.766169229171487109e-01,-4.143253945437614383e-01,2.862337696002683618e-01,2.640129865842281293e-02,-4.509947083081637664e-02,1.463310575404616620e-02,7.557157874107360840e-01
3.831624284340002795e-01,-4.719276855889277256e-01,3.708537131083132765e-01,9.806200345347595732e-04,6.058653925259548448e-03,1.047494233610385059e-02,8.492630720138549805e-01
3.853573883228791352e-01,-4.805557655678648343e-01,2.794066493774738369e-01,-2.072050888356605919e-03,-8.300119607343166284e-02,-1.347915428479805680e-02,8.309708237648010254e-01
3.608611218529411691e-01,-4.758657166678210704e-01,3.543100635459353054e-01,-1.373229937266252747e-02,-3.828832287698219483e-02,-1.492903590324526526e-02,8.368426561355590820e-01
2.811328732182967194e-01,-4.970406697675210372e-01,4.272753405053943965e-01,-1.936685923487140026e-02,-4.168731783323036122e-02,-1.754716724311100248e-02,8.648111224174499512e-01
3.095013346674571064e-01,-4.676166983685426937e-01,3.738209656168512973e-01,-3.549030877015358124e-04,-8.326450531749823858e-02,-4.849543739275997620e-03,8.239558339118957520e-01
3.460504438902434199e-01,-4.467691988860830188e-01,3.485555448618836150e-01,1.792104865593273366e-02,-4.275188328056096776e-02,-4.331736982343421111e-04,7.981244325637817383e-01
3.184741115636708364e-01,-4.791391741404509297e-01,3.558777638448938352e-01,1.499783118543160203e-02,-3.404596479043309198e-02,5.772611146741931515e-03,8.195558786392211914e-01
3.534665202996710720e-01,-5.068641965872398014e-01,3.679542606168386132e-01,3.207929061217330673e-03,-3.713741181884021997e-02,-8.247010608188467401e-03,8.701813220977783203e-01
3.188017483589588585e-01,-4.530377063474227972e-01,2.766236218542616476e-01,1.074739335937739161e-02,-2.092083714712033027e-01,-2.458849750366676537e-02,8.357183337211608887e-01
3.461437094145369819e-01,-5.350003698775075422e-01,2.975197483788685759e-01,2.833541146902657237e-02,-1.557345524360140843e-01,2.042781093557472297e-02,9.013072848320007324e-01
3.436454198009109562e-01,-4.686986398472753335e-01,2.923617388804151673e-01,1.473701046958517460e-02,-8.919659205261307178e-02,8.958387320474417784e-03,8.035131096839904785e-01
3.340898901461443748e-01,-4.979255006770372249e-01,3.633000435775818882e-01,1.672932463585859175e-02,-5.468819528578901246e-02,2.446113093871682409e-02,8.538227081298828125e-01
2.989662112911967706e-01,-8.229970875847677503e-01,3.760429781688864881e-01,-1.601471445402024019e-01,3.098993304865230169e-01,1.548428490781804667e-01,1.337237000465393066e+00
4.036727972593937008e-01,-5.625016310621999693e-01,2.911514899965950143e-01,-2.429964780035332242e-02,-1.394602530790573780e-01,-1.408350714038122953e-02,9.477092623710632324e-01
3.748847341035122516e-01,-4.648362503187125627e-01,3.614940333006225748e-01,3.661047920216600575e-03,6.325034421953448088e-03,-2.690809969512873365e-03,8.332155346870422363e-01
3.630014983182008881e-01,-4.669004053747621841e-01,3.713853470008693924e-01,8.519026873710429382e-03,-1.136787249642614087e-03,1.147457429397400787e-02,8.344949483871459961e-01
3.628073329047326046e-01,-4.723825968523438501e-01,3.697365329425014169e-01,-3.256567088970456578e-03,5.545873811347704074e-03,9.589453269464320168e-03,8.389143943786621094e-01
3.571817347582474378e-01,-4.655297265553560715e-01,3.670054002623009959e-01,3.000988026707484321e-03,-8.892419592207048522e-04,8.854353076481271539e-03,8.278268575668334961e-01
3.402286590700799307e-01,-4.705680461532032455e-01,3.753616381118071721e-01,1.598466387300183367e-02,-6.402537084943432958e-05,1.107684033436946366e-02,8.296058773994445801e-01
3.657416167448397371e-01,-4.730175211210273511e-01,3.670890616214510516e-01,2.681320685015225590e-03,-1.527002574088181033e-03,-7.534625919936378032e-04,8.394516706466674805e-01
2.521382531670759430e-01,-4.642213942965586204e-01,4.137944819424290710e-01,-1.222728456385683247e-02,-2.653496351500442274e-02,8.871542553976275499e-04,8.109692335128784180e-01
3.396219040962766833e-01,-5.117364580621047709e-01,3.950010689447485679e-01,-1.797629234506404553e-03,-2.707892083800518546e-02,1.855830751795298217e-02,8.821950554847717285e-01
2.236217096875762755e-01,-5.078397246332952975e-01,4.191248463429455007e-01,2.983356795217030621e-02,-8.822846549733737165e-02,8.376964433393120635e-03,8.616807460784912109e-01
2.448600392873908349e-01,-4.458515051457349054e-01,3.966274394238290535e-01,3.595281580387325870e-02,-6.973646120371559953e-02,-7.202868787943452963e-03,7.896621227264404297e-01
3.788128622765423725e-01,-4.615401354218977570e-01,3.016095427139820484e-01,2.785704139919359390e-02,-2.504910590981496848e-02,2.425046300529708904e-02,8.082389235496520996e-01
3.615238848345915801e-01,-4.530248555465435922e-01,3.596154014902268048e-01,-9.971727667652280792e-04,-2.831806068746395982e-02,-1.194444203722676637e-02,8.153376579284667969e-01
4.082224875973404221e-01,-5.098232421955589677e-01,2.270648522021640192e-01,3.668541218456915741e-03,-9.947520298526602023e-02,4.129663016877457848e-02,8.626456856727600098e-01
3.792712089579077239e-01,-4.728101764089460701e-01,3.442100750219055372e-01,1.898182966002577923e-02,-2.599092218133876309e-02,-1.107507765983014106e-02,8.371812701225280762e-01
2.748433830141059908e-01,-4.603943381549591152e-01,3.849877303348482882e-01,1.258954726191799031e-02,-4.634922010091631350e-02,6.236508279397559758e-03,8.004533052444458008e-01
3.653292662894745968e-01,-4.677097830742997786e-01,3.542152187681116282e-01,1.041840730621347577e-02,-1.205148972595934632e-03,-6.710795548812572078e-03,8.278189897537231445e-01
3.554116268031231041e-01,-4.713956473583507112e-01,3.657675006173589094e-01,4.182682100734606487e-03,-2.588892438638071801e-04,-9.587887609374404901e-03,8.322309255599975586e-01
3.648269528446636545e-01,-4.620946503235879854e-01,3.700509636692961291e-01,6.848541317448372800e-03,-1.052430570774184025e-02,2.924032743814177805e-03,8.298464417457580566e-01
3.644365389027784952e-01,-4.578609293890604226e-01,3.629427633956792132e-01,4.026925924419274411e-03,-3.777331487833546220e-03,-2.124268706409917877e-03,8.216155171394348145e-01
2.959579180903475493e-01,-4.578760278206309708e-01,3.847900316169504675e-01,-1.375128498921153290e-03,-1.477445201806074429e-02,9.197622016745277823e-03,8.025183677673339844e-01
2.907404031837282909e-01,-4.728176027069923570e-01,4.001484386202541210e-01,2.263196036970357289e-02,-2.219695967743114812e-02,7.083453484505719371e-03,8.256486058235168457e-01
2.714277597693074973e-01,-4.646230889657101404e-01,4.109677662279319632e-01,1.176880878416560264e-02,-2.422897753856063929e-02,3.766087058033579238e-03,8.161923885345458984e-01
2.283035435472329511e-01,-4.575254060043801863e-01,4.209481353353834998e-01,3.287847614004276234e-03,-2.332293006000678987e-02,1.112342799989952773e-02,8.010181188583374023e-01
2.680626841032845986e-01,-4.542011182213252507e-01,3.837586164960958279e-01,1.331909493122335544e-02,-2.178864655682648949e-02,1.465584795130196738e-02,7.881715297698974609e-01
2.627932406839910140e-01,-4.568657056563527608e-01,4.001176996418036591e-01,1.596317493758628477e-03,-1.028296552237230495e-02,8.450314640602505506e-03,7.975794076919555664e-01
2.259204062222743281e-01,-4.669723895495316857e-01,4.240360425311436865e-01,-2.786249002236348971e-02,3.094429964055107896e-02,4.392626077294431441e-03,8.135616779327392578e-01
2.053333651867754739e-01,-4.697742824676423012e-01,4.353619575988856849e-01,-1.677115950822801252e-02,3.445511013638177106e-02,8.394681566398295644e-03,8.176761269569396973e-01
2.527873715659803011e-01,-4.610858509128253901e-01,3.860328489732987034e-01,-1.338743456275212629e-02,4.273596426084910055e-02,7.974765457304532762e-03,7.929043173789978027e-01
2.714002823327848479e-01,-4.603035942233201228e-01,3.847773967681183405e-01,-1.286218302855855061e-02,1.961327674609290514e-02,5.757091414211300447e-03,7.955835461616516113e-01
2.232807169182686180e-01,-4.593995668057903048e-01,4.022412173575724559e-01,-9.960485420229602677e-03,5.473100170976948065e-02,2.294429933660378351e-03,7.934430837631225586e-01
2.343995407331975755e-01,-4.500735605078256540e-01,4.011109457473100437e-01,2.149081733211931008e-03,9.325772046941162297e-03,4.279826027094218500e-04,7.814607620239257812e-01
2.080673468980977492e-01,-4.461609696442041528e-01,4.204846566157665610e-01,3.997543148234925198e-04,2.707228985493433798e-02,4.243268228969227819e-03,7.838101983070373535e-01
3.518560514934976347e-01,-4.587477232595090770e-01,3.321039581246229000e-01,1.202131106954349229e-02,5.028269575135057776e-03,-1.007409747201349140e-02,8.014183640480041504e-01
3.437288794798101232e-01,-4.606351035365710000e-01,3.422892385481051125e-01,9.039802484049834497e-03,9.876999791229862033e-03,-8.742194731547043435e-03,8.041222691535949707e-01
3.269079525515000140e-01,-4.473931543211147055e-01,3.102651458595334644e-01,1.303030887356506490e-02,3.701603711476056380e-02,-9.760673533874015401e-03,7.693103551864624023e-01
3.447739483166707419e-01,-4.476381049694048153e-01,3.266398698462180672e-01,4.526149994258669464e-03,1.325696875993022730e-02,-4.078814813465406197e-03,7.839098572731018066e-01
3.560886088165304275e-01,-4.626476653073157141e-01,3.455408420686602589e-01,1.174371526518955093e-02,9.855957779554213108e-03,-7.375415351768929706e-03,8.140472173690795898e-01
3.597409757942204300e-01,-4.608269056339021619e-01,3.233066771679632412e-01,1.354068499328418655e-02,1.017845945016229367e-02,-3.719526533021417277e-03,8.035326004028320312e-01
3.687097237306013464e-01,-4.621930755753833608e-01,3.647301531389064433e-01,4.024802152022652346e-03,2.143076474018586371e-04,2.928724681290282173e-03,8.289650678634643555e-01
3.586702353141763555e-01,-4.165515496886684765e-01,3.590700243662420243e-01,1.130470424170586631e-03,-8.628296370774550528e-03,-1.511122113927301606e-02,7.760097384452819824e-01
3.577016580926870581e-01,-4.618607853106153627e-01,3.266169763178451424e-01,-1.311991345933066419e-02,-1.359718613852044580e-02,-1.105964625099304689e-02,8.053638935089111328e-01
3.814767985938503081e-01,-4.494381134738661965e-01,2.968433090543614039e-01,-3.345195083432527840e-03,4.461480063130143781e-02,-2.561144858266369007e-02,7.970144748687744141e-01
3.692121967567597585e-01,-4.461677928267120397e-01,2.896371944352651440e-01,-1.419429187468264179e-02,3.704898823698029448e-02,2.325554517368222385e-02,7.827116847038269043e-01
3.667177991663944647e-01,-4.703978159400098447e-01,3.696020676290869833e-01,5.887299819253686943e-03,-4.410902282822726358e-04,-9.712287414283553647e-03,8.387925028800964355e-01
3.444589808310039025e-01,-2.583061350340096207e-01,3.460779281257158613e-01,6.011912841781681671e-02,-8.571199991112228578e-03,-5.753848859278384853e-02,6.207250952720642090e-01
3.551588237889864441e-01,-3.904358269448743313e-01,3.596239392578218785e-01,3.402782880581597946e-02,-4.961021710179097308e-03,-4.450751362998188118e-03,7.502449154853820801e-01
3.630998654375716672e-01,-4.580572890968563904e-01,3.746376468945303850e-01,5.494463873429926253e-03,-1.446188895302138663e-02,-8.318835428509654094e-04,8.274216651916503906e-01
3.827012405484122026e-01,-3.839471886842444892e-01,3.119491359448439138e-01,-9.612570310597883319e-03,5.841601480540971683e-03,-2.176590719286941936e-02,7.350608706474304199e-01
3.896183466839307497e-01,-4.228093180132210804e-01,3.007964301103119853e-01,-2.042263702937952528e-03,1.461108584923793627e-02,-5.052725468952595084e-02,7.772249579429626465e-01
3.712176867324570306e-01,-4.633191661139236528e-01,3.591188669752410356e-01,-2.708526907434620663e-03,5.625243486753418645e-04,-8.007872425266316600e-04,8.285686969757080078e-01
3.702171345847516393e-01,-4.908276057239846502e-01,3.410803117564478737e-01,-1.796662530538136945e-02,4.016364083193449397e-02,1.918571475414475314e-02,8.509235978126525879e-01
3.663905123465847069e-01,-3.099759285145726184e-01,3.632769863795179965e-01,2.920137637834081812e-02,5.031911987959344912e-02,-7.378333019966289152e-02,6.941624283790588379e-01
3.527415993396828542e-01,-2.967212360899256218e-01,3.236351102092863141e-01,3.482932651664164686e-02,5.035754472353601470e-03,-6.021976793050657500e-02,6.467922329902648926e-01
4.023154205945501660e-01,-4.455181901838637382e-01,3.433578303260080289e-01,9.039934014733996478e-03,4.530703313358255824e-02,-5.546620991551381996e-02,8.294241428375244141e-01
3.692815250633270097e-01,-4.640198890942203169e-01,3.660443160854170430e-01,5.275539730051958219e-03,-9.307737576468174366e-04,5.303153833041058564e-03,8.317900300025939941e-01
3.273599336338942067e-01,-4.506860589313838039e-01,3.431211492422684417e-01,-6.074866489099595840e-04,8.509106049269002728e-03,-1.067884757583650694e-02,7.864015102386474609e-01
3.438027559853222836e-01,-2.702375324122676115e-01,3.416312220730411964e-01,7.017072572334370761e-02,-4.225326018654959256e-03,-2.108275793980378399e-02,6.259996891021728516e-01
3.633926244579303022e-01,-4.703642169443733589e-01,3.765252200907224789e-01,-3.025437379228079239e-03,-2.575412280724974964e-03,-1.784525271557559339e-03,8.404339551925659180e-01
3.776132182045727759e-01,-4.369183014907945806e-01,3.560010218888953748e-01,7.232143416934923123e-03,-7.865240742155939907e-03,4.763362429130027671e-03,8.041986227035522461e-01
3.713737957388130173e-01,-4.402445754020798407e-01,3.626878901134750199e-01,-3.196516827816816772e-03,-8.715543394051434786e-03,3.368789004113119639e-03,8.074916601181030273e-01
3.727308328428222683e-01,-4.728254627327835857e-01,3.749159511560516411e-01,-8.773837328057264989e-03,1.986365232633482709e-03,2.600010439243928811e-03,8.468062877655029297e-01
3.943801053857103889e-01,-5.058714282519926053e-01,3.433369437790207979e-01,3.498007428270367980e-02,8.561888642841475328e-02,-4.721819169282267170e-04,8.903762102127075195e-01
3.483644674713549660e-01,-3.466115084367787369e-01,3.365367646829090509e-01,-2.965059453263839753e-02,3.010141951565611061e-03,-1.923499483849236240e-03,6.910769343376159668e-01
3.100512969643038907e-01,-4.554874562944879468e-01,3.870914803319563391e-01,2.533706552648253701e-03,4.005879260291340081e-03,-3.156848428035011374e-03,8.068824410438537598e-01
3.713283342377091678e-01,-4.696045195336661093e-01,3.671678372032321502e-01,-1.144031737616629102e-02,-2.474636916370773643e-03,-4.163804239705451785e-03,8.391363024711608887e-01
3.642849884975429831e-01,-4.687623719859994598e-01,3.757110588444846910e-01,3.562028748761875054e-03,5.660827357351707473e-03,-3.111160453249616192e-03,8.389160633087158203e-01
3.654915059806024269e-01,-4.706326074155681161e-01,3.720911401328437784e-01,6.808426515951055335e-04,7.389278098720621080e-03,5.814179637407207793e-04,8.395423889160156250e-01
3.611078440702589765e-01,-4.494667738505342403e-01,3.746097532069407876e-01,-1.550385356327704366e-03,8.919880674961017455e-03,3.019547736613483347e-03,8.175763487815856934e-01
3.705412188436027487e-01,-4.668283838610320924e-01,3.484906876148584076e-01,5.301028042053491929e-03,1.653446309251254635e-03,4.168977631315694959e-03,8.266524672508239746e-01
3.700584965458535991e-01,-4.631464797822236745e-01,3.645928446711830251e-01,-5.118071232222652645e-03,3.961664361490852167e-03,-7.986704996299852366e-03,8.306764960289001465e-01
4.190635378311626247e-01,-3.577872613301703031e-01,3.012597545642983210e-01,-4.635044085533806396e-02,-8.671634587357637466e-03,-4.945353954886479164e-02,7.347561120986938477e-01
3.798574663660505002e-01,-4.653043685507148863e-01,3.562417737365216053e-01,7.800482998728264228e-03,-2.690662974628918718e-03,-2.617829327469435585e-03,8.337397575378417969e-01
3.626660561347879175e-01,-4.600486666985641460e-01,3.742325677205199375e-01,1.353969790919773691e-03,3.677322353197112412e-03,-4.491125042515935434e-04,8.285866975784301758e-01
3.588196328952905079e-01,-4.460445937608528144e-01,3.736643869216628167e-01,-2.962570307522606212e-03,7.309217427606044121e-03,-5.772241744431511230e-03,8.125646710395812988e-01
3.449442787709267044e-01,-4.113386736229386331e-01,3.172749115150200749e-01,-4.531278548540873877e-03,5.076355892959415195e-02,2.871302098444672435e-02,7.497128248214721680e-01
3.323805391629108819e-01,-4.624990945525162545e-01,3.542490098290047573e-01,6.311637755053201536e-03,4.054638122507736760e-03,-1.193292114894648967e-02,8.064060211181640625e-01
3.629911832394715487e-01,-4.741162737059975152e-01,3.679094843179839813e-01,6.698065752786153300e-04,3.078072151387644881e-03,-1.055017492561119603e-03,8.395971059799194336e-01
3.899349517976313795e-01,-4.486952077286960883e-01,3.360204876733340340e-01,-3.484181735692677608e-03,-9.029782370545807665e-03,-6.055047233978422261e-02,8.199226260185241699e-01
3.979923385670200431e-01,-4.003736397187585005e-01,3.236318492354409715e-01,-2.179364099189332743e-02,-2.346414923414125164e-02,-1.362725539034744804e-01,8.014599680900573730e-01
3.824275824621576891e-01,-4.649180888702374448e-01,3.631767646265599558e-01,-3.399847088346666032e-03,3.937821108193450062e-03,-1.421614692120923285e-02,8.382962942123413086e-01
3.735262398526990602e-01,-4.617674441958675713e-01,3.519837351997046060e-01,2.857587510680636208e-03,-7.942540197881633925e-04,-3.325235201388873196e-03,8.247695565223693848e-01
3.887122701033598471e-01,-4.658927476184737682e-01,3.363242534683134610e-01,-1.579602923367527233e-03,2.114161125491699315e-03,1.661093576396721269e-02,8.301637172698974609e-01
3.585356424162185474e-01,-4.307269820483441425e-01,3.674397359245830663e-01,-4.160211368424928833e-04,1.462972188080846354e-03,-1.045089303191805950e-02,7.939628958702087402e-01
3.686446104055789985e-01,-4.665191065736656872e-01,3.661839695967957220e-01,4.540744437262492911e-03,6.466880291821591568e-04,-1.508126903749914052e-02,8.343829512596130371e-01
3.538179540677337531e-01,-4.275566967484553116e-01,3.625025665651569473e-01,-2.409990326143800969e-04,1.387686931603594569e-03,-8.582226919058725048e-03,7.858973145484924316e-01
3.691252076406754123e-01,-4.575914360873577502e-01,3.649884212657018012e-01,-1.661920334731517568e-03,-8.556460568022188420e-03,5.739793730849864764e-04,8.247948288917541504e-01
3.678539295099745865e-01,-4.351941688339352465e-01,3.589948543800848824e-01,5.914990063100433043e-03,-7.548932160071068764e-03,-3.616159848770976546e-03,7.988526821136474609e-01
3.685767455510653434e-01,-4.569664041266731092e-01,3.651565517513568060e-01,2.088439129518186201e-03,-2.033117344592827880e-03,-3.287819503615368143e-03,8.238735198974609375e-01
3.483646295239650748e-01,-3.576629969379947482e-01,3.430168429715472200e-01,-2.876224070202052299e-02,-1.020926767157073929e-02,8.356684784017831200e-03,7.055011987686157227e-01
3.655368222834790015e-01,-4.754144271107899611e-01,3.681343425601121822e-01,1.612365298761893415e-03,-3.927968995172849073e-03,-1.528651290126178952e-03,8.422892689704895020e-01
3.682591915008364136e-01,-4.578219459169208250e-01,3.701693410614307345e-01,-1.268220409594500702e-03,-1.073080738288267021e-02,4.847974260455013146e-03,8.272922039031982422e-01
3.644844175055054758e-01,-4.679217689534853619e-01,3.607120710658846541e-01,1.101442731660830926e-02,-1.885289310607228368e-03,-9.660629521270702388e-03,8.309204578399658203e-01
3.643778619298878585e-01,-4.674927423370076607e-01,3.591704666346746677e-01,5.798543890257612174e-03,-8.796328214864975164e-04,-4.523254425880491453e-03,8.293783664703369141e-01
3.446987578434509980e-01,-3.858875242775020586e-01,3.615204320891253764e-01,-9.804537903675114227e-03,1.873574055088943636e-03,4.431946946293190484e-03,7.393827438354492188e-01
3.500199011407719718e-01,-4.616496292929284095e-01,3.581667341172088959e-01,4.950879512783273352e-03,6.466626536241417214e-03,-1.060640523268779715e-02,8.161022067070007324e-01
3.672217664602057119e-01,-4.704790592417446016e-01,3.633976859103995039e-01,6.897402194708188335e-03,-5.206809104257051520e-03,-3.378524699054944944e-03,8.359498381614685059e-01
3.447030350954584099e-01,-4.676673648533012928e-01,3.558719285378216801e-01,1.099920890281166214e-02,1.301553874489486465e-02,-9.973792826705468392e-03,8.187265992164611816e-01
3.514044990401387070e-01,-4.620854785750362348e-01,3.279227871998366406e-01,5.610334865535008923e-03,2.381712643820943498e-02,-1.982847931811916511e-03,8.031333684921264648e-01
3.577250718623098957e-01,-4.641910848193863126e-01,3.439926830794317603e-01,1.261464839934984747e-02,9.780103330275909113e-03,-9.319272052867437831e-03,8.157651424407958984e-01
3.547126522797608428e-01,-4.518977542865844077e-01,3.062420773847273625e-01,1.573012356847954332e-02,-8.259188558343082132e-02,3.198893969697170353e-02,7.988424897193908691e-01
3.697096935320479671e-01,-4.864376839887025739e-01,3.135200851196520144e-01,3.468126066863756046e-02,-5.857385865303933736e-02,2.004126052322990556e-02,8.385374546051025391e-01
3.738817419473075554e-01,-4.644175401630011857e-01,3.374426279553579544e-01,1.510757480567258282e-02,-5.128060989317569096e-03,1.037633541775891816e-02,8.213484287261962891e-01
3.247501015621083731e-01,-4.488308593524663603e-01,3.481574396359534695e-01,8.837523603033145894e-03,-3.838493649921404655e-02,1.019583316694944175e-02,7.887009978294372559e-01
4.273129524966066128e-01,-5.080259391640047362e-01,2.886385856239339631e-01,-6.783020146274843648e-03,-6.322501314013735663e-02,-5.822004931826357810e-02,8.869503140449523926e-01
3.495249520960760914e-01,-5.125280189699029654e-01,2.482552585950769941e-01,2.890403529652507339e-02,-1.481026879427164156e-01,3.274620568560169392e-02,8.588466048240661621e-01
3.728560160460833162e-01,-4.683195258221554136e-01,3.229740244319023179e-01,-2.070823876481856125e-03,-1.839941629787950061e-02,-7.431782709523110896e-04,8.180068135261535645e-01
3.805034049438439925e-01,-4.755317612793028559e-01,2.628257754444473515e-01,1.163396666497529958e-02,-5.705739042964842744e-02,2.698339132064713278e-02,8.113353252410888672e-01
3.811881397495200940e-01,-4.638846950576543948e-01,2.943500087721580005e-01,1.853157335877408376e-03,-3.653316896181842133e-02,3.620977237262163525e-03,8.076868653297424316e-01
3.422765537647984857e-01,-4.603821171554486336e-01,3.710473396720122552e-01,-8.324880475536854466e-03,-1.165509701835549215e-03,-8.491121266455438354e-04,8.175548911094665527e-01
3.591613800439050208e-01,-4.629063456176708558e-01,3.748217073815618416e-01,9.902060726279552846e-03,-4.483218316791090508e-03,-3.950354105464259392e-03,8.302503824234008789e-01
3.594826846897545836e-01,-4.424033273476537520e-01,3.649400649613844805e-01,1.068500476317904742e-02,5.331040587594835199e-03,5.329848143115414362e-03,8.049473166465759277e-01
3.530120627764986585e-01,-4.016878854252031728e-01,3.662077858595240709e-01,3.022554536713168913e-02,7.406867690348657718e-03,2.012165979886065478e-02,7.640843987464904785e-01
3.190382579296580090e-01,-3.523729364962581712e-01,4.079847834260930117e-01,7.411066798434301495e-02,2.041337949728065995e-03,6.177242302591288980e-02,7.391626238822937012e-01
3.546438419123800756e-01,-3.650549892223144965e-01,3.444773871233470230e-01,3.236927999298060132e-02,4.458210418836278804e-03,6.234932183833945783e-03,7.169885039329528809e-01
3.213576691827548237e-01,-1.344756976542542115e-01,3.253516348719558415e-01,2.328940693942953971e-02,-9.150088149350758121e-03,9.063934279826865725e-03,4.601580500602722168e-01
3.625409580186932934e-01,-7.339367137809277297e-02,3.515066251308474055e-01,-6.698086033347876340e-03,1.236618416773002313e-02,1.250640085207861728e-03,4.312175214290618896e-01
3.664146436415784969e-01,2.205613050384222507e-02,3.502844901312229808e-01,3.933097338327300879e-02,-4.255188371575592543e-02,-2.414248866016245956e-02,3.537085652351379395e-01
3.941338759588562946e-01,-5.199098103038252150e-02,3.344879994014988700e-01,-7.942412931695314038e-03,3.271510192028023734e-02,-3.822946303548852703e-02,4.286724328994750977e-01
3.331060953036824035e-01,-3.091577138479403297e-01,3.410855065592478530e-01,-9.023671596781954185e-02,1.802668343059396147e-02,-9.028876321501972529e-03,6.658369302749633789e-01
3.394059014418762121e-01,-1.593439082834390841e-01,3.168706499783557895e-01,-4.598053760296817727e-02,-6.920036930397251498e-03,-1.638241127411138240e-02,4.952889978885650635e-01
3.123183059260096206e-01,-1.384322435723418510e-01,3.087193626903679822e-01,-2.801215501575141098e-02,1.084015878325116436e-02,-1.884714951442880565e-02,4.531434774398803711e-01
3.581397356752643590e-01,-2.297499400106720602e-01,3.326124627656561472e-01,-2.603744890279412541e-02,-5.774377428523516827e-03,-6.800953679332247259e-02,5.892949104309082031e-01
3.472011527878048343e-01,-2.664866726699079424e-01,3.389863892812841617e-01,-5.649231862358893713e-02,-6.461549600745595222e-03,-7.622025746638771970e-02,6.314799189567565918e-01
3.465199118677827483e-01,-2.660273395119608919e-01,3.443042630809753923e-01,-4.543236962316563043e-02,6.652654079856395834e-04,-7.159621137225828658e-02,6.288350820541381836e-01
4.054650512159805875e-01,-4.648412559018736401e-01,3.065233892821108697e-01,-7.210461503779620057e-03,-2.184900293376094635e-02,-4.311829717105082442e-03,8.262910246849060059e-01
4.195455098064344024e-01,-4.992645599964029568e-01,3.358698631284157132e-01,4.829265886055231910e-03,7.572975356725670723e-03,1.392065636984634279e-02,8.804287910461425781e-01
4.093535096619853597e-01,-3.704302434277686462e-01,3.300882301154153264e-01,2.839566764915924663e-02,-5.647687771236946028e-03,-1.081868888148535268e-01,7.682211399078369141e-01
4.492300674438591268e-01,-4.305343576122867555e-01,2.872666814072530883e-01,-7.617905479141493311e-03,-5.154501903236535787e-02,-1.209239014542711974e-02,8.162789940834045410e-01
2.909793362274489814e-01,-4.654505030416078437e-01,3.490966937309801232e-01,4.008660076941825785e-05,5.481892010087474620e-02,-2.439930301845641674e-03,7.928168773651123047e-01
3.671018123887063722e-01,-4.656382861770069770e-01,3.663495132339795179e-01,2.481630580849026723e-03,2.182966517560686309e-03,2.228894394315023269e-03,8.323928713798522949e-01
2.832233664785313021e-01,-4.510013912764656574e-01,3.333616157145688486e-01,6.360837943628801228e-03,5.821586708034130753e-02,-6.716205962720361161e-03,7.673568725585937500e-01
3.203190816569302379e-01,-4.491680662881234465e-01,3.191157585359212234e-01,-4.713177972801402618e-03,2.915267773176662136e-02,1.940580222785022327e-03,7.705929875373840332e-01
2.699077845608601756e-01,-4.507228502402546022e-01,3.451568359780499140e-01,-6.303464267640586718e-03,8.546377773462947303e-02,9.232933277833374822e-03,7.755545377731323242e-01
3.008081674268743289e-01,-4.857115916320128290e-01,3.368374723900837142e-01,1.650254416241130062e-02,8.541371169782106809e-02,-1.546411468317954174e-02,8.195548057556152344e-01
3.156806306211065172e-01,-4.444054922134285102e-01,3.167640150439884339e-01,1.489039086752445937e-04,3.267074111556723254e-02,-3.905397855098584076e-04,7.627307772636413574e-01
3.380162463447017318e-01,-2.741160911655715626e-01,3.322548950132057088e-01,-6.355475492407698657e-02,2.167296638281618684e-02,-1.690777684661579419e-02,6.209644675254821777e-01
3.477027745242987633e-01,-3.358694068205100858e-01,3.470772716566798977e-01,-7.239537094335676305e-03,1.176246506511955531e-02,-1.371678156813341959e-02,6.840909719467163086e-01
3.489619538281201194e-01,-3.306750980166717202e-01,3.410939761816917382e-01,-1.290147483309795652e-02,1.106288432822142426e-02,-4.041775389829847928e-04,6.763786077499389648e-01
3.607799296522369858e-01,-4.622150651868429660e-01,3.811205362580379341e-01,-2.927062027204596021e-03,-3.215083478125319374e-03,-6.114148188651523895e-03,8.334528207778930664e-01
5.320638900987393338e-01,-5.227227349363630093e-01,1.165226823752692625e-01,-1.707220123927707944e-02,-7.267010330059405984e-03,-4.889407634945788089e-02,9.247414469718933105e-01
5.342976412340700865e-01,-5.366521834430485471e-01,1.446274131650719941e-01,-1.656918960098236610e-02,3.849476007809621292e-02,2.214275782581683061e-02,9.424431920051574707e-01
5.665921692876627613e-01,-5.568746573751593987e-01,2.067441199805004903e-02,-2.856455049771092908e-02,-3.068863053351215259e-02,1.005984277948062250e-01,9.912198185920715332e-01
6.212967097349609835e-01,-8.218922726623730801e-01,8.882618294074245968e-02,-1.158361274443128405e-02,-9.259830919208597577e-02,7.028503230875640835e-03,1.274416685104370117e+00
5.448535189496646058e-01,-5.624901164878408633e-01,3.447492831321101459e-02,-1.136896490374953751e-02,-5.129325878582260967e-02,1.014197224879350018e-01,9.801379442214965820e-01
5.872817380112476116e-01,-5.938052950975770683e-01,5.397879408735581364e-03,-2.538084131227965473e-02,5.998251026295739474e-02,-1.083697750748995048e-01,1.046067953109741211e+00
3.628920385893423806e-01,-4.724787324590421500e-01,3.620958735495845016e-01,4.183105896911345004e-03,3.754068280568972731e-03,2.114875550493946056e-04,8.350297808647155762e-01
7.507886423757791361e-01,-9.091393080127789794e-01,1.329972716291145940e-01,1.586367789674772086e-02,8.794453350630837551e-02,1.137925618659020588e-01,1.474564909934997559e+00
3.737278513583797146e-01,-4.430342021985763656e-01,3.740612930894210431e-01,-1.294648707695496628e-02,-1.820288593090749196e-02,-6.223885575291984024e-02,8.249185681343078613e-01
3.600341953510345916e-01,-4.090196016370711840e-01,3.640243802727757827e-01,-5.696335259741169832e-02,9.557989425388381879e-03,-2.030193524450486439e-02,7.783144712448120117e-01
3.552898982244175330e-01,-4.289233478591576443e-01,3.597910175825440038e-01,1.213369757408122238e-02,-3.778372537865073121e-03,-4.387668461834613037e-03,7.868181467056274414e-01
3.674057078851031277e-01,-4.444587428846749066e-01,3.841303247469903814e-01,-2.868335176218846788e-02,-4.232195859839949469e-03,-8.757812714130074755e-03,8.220302462577819824e-01
3.526659629729448353e-01,-4.679371740325862783e-01,3.863808969776735824e-01,-1.828207169274213839e-02,-2.461694047718451100e-02,-2.686506984225168690e-02,8.409391641616821289e-01
3.459468118542687876e-01,-4.553201174949587093e-01,3.656159785177998667e-01,-7.428339033559926488e-03,-9.711640491527603891e-03,-9.398033295915160512e-03,8.117199540138244629e-01
3.333873452293157902e-01,-4.615696589180744436e-01,3.798361178188501275e-01,-2.147830524942762054e-02,-7.575149532615850501e-03,3.866996811274764963e-03,8.201462626457214355e-01
3.519547790757432404e-01,-3.582712507313483563e-01,3.574665407463392119e-01,3.695321386335678054e-02,-2.673862561017759966e-03,-1.311579356737273619e-02,7.162402868270874023e-01
3.511122665240044016e-01,-3.635710242234740930e-01,3.580000214674425862e-01,3.375623542102244162e-02,2.921971516225563151e-04,1.551263127956182923e-02,7.210290431976318359e-01
2.664586256995213898e-01,-4.938059899019443533e-01,4.138283937380575761e-01,-2.300974808018830739e-02,1.708940820378117287e-02,2.267546372382331366e-02,8.460302352905273438e-01
3.111574704336124708e-01,-4.594535204289942332e-01,3.955530115301185701e-01,5.535090465730979278e-03,-2.731853128095615424e-02,-1.392267563160995078e-02,8.178706169128417969e-01
3.682932826262683701e-01,-4.675218275902480736e-01,3.672171128621548042e-01,1.091378816062203716e-02,5.752354633270438363e-04,-3.120099766213569898e-03,8.355094790458679199e-01
2.126089231951899250e-01,-5.799069217628726181e-01,5.362368653237292726e-01,1.846828423090005750e-02,1.627466316802573393e-02,-2.722584315945417513e-02,9.966635704040527344e-01
3.597065644913849392e-01,-4.693675659082997553e-01,3.651781276811488230e-01,8.813504330217767843e-04,1.025186282358873241e-03,-5.070230766430102766e-03,8.318730592727661133e-01
3.670139005112642017e-01,-4.734147255019829359e-01,3.694970154641277760e-01,8.931486395860855580e-04,4.750892761088417598e-03,2.519750023387879161e-03,8.417258858680725098e-01
4.213143771561034256e-02,-5.218651847337761884e-01,5.068570377796820514e-01,-9.312412026532541909e-02,-1.378731973665689448e-01,1.978968025255023119e-03,9.376677870750427246e-01
3.443693227086553899e-01,-4.638647696683109167e-01,3.506314055801886820e-01,-3.105166757383092139e-04,-4.701635359370315206e-04,6.192535492620528451e-03,8.114547133445739746e-01
2.736341853241381905e-01,-4.541008025256531022e-01,3.871031675960486806e-01,-6.725892270728703153e-03,6.155927626018639978e-03,-1.035586538326445372e-02,7.909613847732543945e-01
3.569380534080217049e-01,-4.674457864686812902e-01,3.502030442055341641e-01,5.554601887306235587e-03,8.485557603811798646e-03,-2.832492007956649918e-03,8.212395906448364258e-01
1.716998897489921405e-02,-6.363235388851907759e-01,6.128971320252584176e-01,-1.203324052150831630e-01,-1.161683813994736879e-02,-3.057557485448274964e-02,1.103583931922912598e+00
4.703607532045019357e-01,-4.346583366877176946e-02,3.732302645685462439e-01,-6.551245673159225222e-04,5.230934984514594432e-02,-4.348542248788407616e-02,4.872647225856781006e-01
3.437062373773484558e-01,-4.630193041486816430e-01,3.487175333246544384e-01,-1.023065004391847540e-04,-2.469611831924986393e-03,-4.294295483791134380e-04,8.092544674873352051e-01
3.391227354384156456e-01,-4.649940643523006178e-01,3.535018103607158735e-01,1.937025315023685349e-04,1.986003605780170458e-03,1.023918156601445750e-02,8.116030693054199219e-01
1.861006572021789429e-03,-4.522074578582454540e-01,5.441972366323299948e-01,-1.269974750447288026e-01,6.458482601069989726e-02,1.229654844946486032e-02,8.988419175148010254e-01
4.310119334842711925e-01,-4.491433405045288652e-01,1.819324506056611002e-01,8.750718997070463297e-04,3.036613541329267509e-03,1.302264977847608033e-03,7.858245968818664551e-01
3.553873162835711197e-01,-4.686223837401024550e-01,3.601404009422128349e-01,4.425244650171265837e-03,-4.010465922758969445e-03,-5.797561633854183237e-03,8.265222311019897461e-01
1.937303081140648031e-01,-9.367551305250912952e-01,6.376032064787099385e-01,7.688777908774408962e-03,2.215366172490802477e-01,1.633991569246176848e-02,1.457746863365173340e+00
3.554185109465903825e-01,-4.341203990127242562e-01,3.777027175539718340e-01,-3.517207111785470696e-03,8.061436385702978186e-04,-1.103339286185184981e-02,8.011658787727355957e-01
3.616169680608093961e-01,-3.935751396476304675e-01,3.575300948961790959e-01,-1.941767621920621398e-02,4.200627265158072762e-03,-2.489706822710624837e-02,7.551748752593994141e-01
4.053289695919268243e-01,-4.740025920699887374e-01,3.255676302370118513e-01,-5.463827383132472022e-03,-8.866833343720965932e-03,3.998028841268663064e-03,8.425096869468688965e-01
3.830254245048451134e-01,-4.375965967699867454e-01,3.362941644242095629e-01,2.850042293021624006e-03,-2.721614654846612504e-03,-9.279846446180874814e-03,7.984738945960998535e-01
3.689145120178423110e-01,-4.315450966743122896e-01,3.363184597802352238e-01,-3.643707003422982753e-03,1.323771515008590740e-03,-8.514793290054823577e-03,7.848368287086486816e-01
3.633409805802140791e-01,-4.623654996945240070e-01,3.602385539174658424e-01,-1.757305778494202718e-03,1.248581083717603723e-03,-1.920577898927427639e-03,8.241748213768005371e-01
3.665386933234220934e-01,-4.616464667685772350e-01,3.624044267033168509e-01,4.521677851516967168e-03,6.126125932858149728e-03,2.171512755043455284e-03,8.262395858764648438e-01
4.468922277656543485e-01,-5.023947480359177709e-01,3.329624061857475170e-01,-2.221139299529603303e-02,-3.049254455622968374e-02,-3.547073955566881071e-02,9.022292494773864746e-01
3.636696531523173626e-01,-4.751706316124822971e-01,3.581429835540564932e-01,1.457709378018661253e-03,-2.199102096797262568e-03,1.789194219633393314e-03,8.361088633537292480e-01
4.259705133303139379e-01,-4.597138573109061932e-01,2.232081227542779822e-01,-5.928246383198197862e-03,9.507069801632961337e-03,-2.666428049625029287e-02,8.052797317504882812e-01
3.665278708690308807e-01,-4.715839162699613230e-01,3.814804896150630342e-01,1.561569331648031064e-02,-7.774571085235331032e-04,6.128837014113598138e-03,8.461872935295104980e-01
4.030319923455372155e-01,-4.566693485485360249e-01,2.523509900464361300e-01,-9.064483591197693146e-03,-2.264970106845167960e-03,-7.016521878372043025e-03,7.953993082046508789e-01
1.632733969124034734e-01,-9.316517285667639259e-01,6.935586619411029385e-01,5.476759028113362647e-03,1.612999236755502941e-01,-1.335017442229359183e-02,1.462656378746032715e+00
3.491928907534406212e-01,-4.166221754227631413e-01,3.723797913945350868e-01,1.921019050253763502e-02,1.869503739375022455e-02,1.140517254867177976e-02,7.793029546737670898e-01
2.968804100814475544e-01,-4.637674326447133177e-01,3.892089345678761969e-01,-1.795318936316963807e-03,1.598873972312112382e-02,9.360311559162731374e-03,8.114053606986999512e-01
3.736305958087050572e-01,-4.486565717724514402e-01,3.655034799754052766e-01,4.856484180186777279e-03,-8.657691682442535119e-03,-6.572073501955562509e-03,8.185136318206787109e-01
4.024067939873123279e-01,-4.433708894470876904e-01,2.296868288532753488e-01,-3.430049409408878446e-03,1.478406739626841535e-02,-1.227845384446335205e-03,7.744578123092651367e-01
3.434259682362599264e-01,-4.650280117006203584e-01,3.588592175282975805e-01,-3.091466394811163867e-04,-4.707404910686922026e-04,1.004148645563954223e-02,8.164659142494201660e-01
3.508460923028745571e-01,-4.622051194297772669e-01,3.377502908242858704e-01,7.974091832586089473e-03,-4.035474913722366698e-03,7.063006123178277619e-03,8.068243265151977539e-01
3.343085083269100588e-01,-2.910776944203212757e-01,3.340706978843863695e-01,-1.463653807865521747e-03,-1.556341251627616981e-02,3.251598261542698598e-03,6.258786320686340332e-01
3.527052443905044909e-01,-4.890773500493628134e-01,3.849762278613947375e-01,-1.176290447884840301e-03,2.103258832078462245e-02,7.788433912624610420e-03,8.592541813850402832e-01
3.651976011960483270e-01,-3.719754794152311250e-01,3.402943977115983065e-01,4.429600290187182994e-03,-9.606055474832736127e-03,-1.904977561828031119e-03,7.252812981605529785e-01
2.940583847541111129e-01,-4.754348371744641089e-01,4.025725727171790558e-01,-1.314480001316590228e-02,2.430984208581938449e-02,7.346139712197298326e-03,8.305716514587402344e-01
2.028751339418323196e-01,-4.881452553643567116e-01,4.774353930523749234e-01,2.259128018311007229e-03,2.127425040630399056e-01,2.140038009790906290e-02,9.379693865776062012e-01
2.680016381659794389e-01,-4.614427320975105218e-01,4.000430862413690281e-01,9.629059311714592215e-03,4.625804446624532133e-04,7.835206256269862043e-03,8.039302825927734375e-01
2.072807172798365738e-01,-4.630450754634367616e-01,3.636567441813804979e-01,6.860722730403993018e-03,1.813934349594056861e-01,8.228576027375830368e-03,8.232060074806213379e-01
3.570634115488876548e-01,-4.558948713630354144e-01,3.800099141042274642e-01,7.567697611116374918e-04,2.989490475242796534e-03,1.107876840380994654e-03,8.246905207633972168e-01
3.107096728483758064e-01,-5.298030352926996756e-01,3.930717823867831417e-01,2.569618006810191202e-02,1.088735935240830732e-01,-1.024964024777107012e-02,9.057195782661437988e-01
3.520347503639743580e-01,-4.628594437918389648e-01,3.356080265516863670e-01,9.094380137978799392e-03,-2.339513137246325078e-03,5.879549007992168098e-03,8.070344328880310059e-01
3.533580934467905332e-01,-4.676375256932174818e-01,3.589252028234611869e-01,2.918095430660790773e-03,5.578674604165661773e-04,4.374556271693559942e-03,8.238441944122314453e-01
3.317726526242161245e-01,-4.581320195907255810e-01,3.511501382403311444e-01,-1.279463591909485616e-02,-2.050614769719513036e-02,-1.643832908879730437e-02,8.013703823089599609e-01
3.475731845280108367e-01,-4.578815014537812589e-01,3.249230917811753994e-01,-1.841527279826181071e-02,-2.670004903016631737e-02,-1.400014332346316039e-02,7.967249751091003418e-01
3.429020125487199921e-01,-4.708303102128157391e-01,2.405007250189744594e-01,-1.323550349204843414e-02,-1.169539047189612491e-01,-9.551043883827702377e-03,7.944513559341430664e-01
2.954860719011049297e-01,-4.702203975902536914e-01,2.767835701239442225e-01,-8.281919581544099768e-03,-1.374798503296622287e-01,-1.150520037826358553e-02,7.934989333152770996e-01
3.553339898460534108e-01,-4.688930303634385455e-01,3.483532934081375321e-01,4.863950087562927960e-03,-7.882279501230960231e-03,2.763400590604021042e-03,8.209296464920043945e-01
3.298444207586366805e-01,-5.238115194642148920e-01,3.548543674173325058e-01,-2.616680850189826921e-02,-1.225771251472834444e-01,-3.095510622422480498e-02,8.948228955268859863e-01
3.319348747537029243e-01,-5.241721687197011814e-01,3.068077014940810421e-01,-2.924001470767712343e-02,-1.024464407552597156e-01,-2.875341264180407766e-02,8.651994466781616211e-01
3.060492554302081114e-01,-4.604594041910379243e-01,3.302431910240094526e-01,-1.067491599887593866e-02,-5.445020788460784578e-02,-1.316184361763879547e-02,7.851253151893615723e-01
3.391286562086091583e-01,-4.592102768252858125e-01,3.079043181008443986e-01,-1.312998611173634214e-02,-4.611349722195029477e-02,-1.008103076641097239e-02,7.877777814865112305e-01
2.892000661934982508e-01,-4.658277535261117208e-01,3.756666837517255164e-01,-1.970338386841015768e-02,-5.358012268360132224e-02,-1.207250263212740482e-02,8.081104755401611328e-01
3.606681363322594147e-01,-4.649216091389849481e-01,3.450671795815273835e-01,9.361281379738548708e-03,1.387402109891456594e-04,4.127105976120887731e-04,8.180618882179260254e-01
3.512631395013504632e-01,-4.671190384051696620e-01,3.492193754521593085e-01,4.533042571726468399e-03,-4.758312990412591134e-03,7.366235993376185620e-03,8.175410032272338867e-01
3.574220033967718813e-01,-3.630879414630309721e-01,3.399431024830488202e-01,4.620391188492858209e-03,1.195774361272189390e-02,1.685576742154584751e-02,7.128756642341613770e-01
3.487603360236006811e-01,-4.594705672842277488e-01,3.399017334887796116e-01,-4.825122621556399496e-03,-1.395689182572056302e-03,-2.510982033339196132e-03,8.038970828056335449e-01
3.743187770446040341e-01,-4.741670711092516033e-01,3.714246198209014138e-01,4.497728330460841028e-05,-8.636706129771354323e-03,6.628607847978324396e-04,8.471753597259521484e-01
3.275819923293418201e-01,-4.602195816941685447e-01,3.369253005642077747e-01,8.920088765416740034e-03,-1.871472654848886641e-02,1.118863388061433484e-02,7.935642600059509277e-01
3.655035937860355855e-01,-4.664660560430878844e-01,3.670576490456567420e-01,3.389708256246441991e-03,4.055293610654362758e-03,-5.197845014068912251e-03,8.328467607498168945e-01
3.689989238477447420e-01,-4.610625778107044770e-01,3.660057562228887229e-01,2.665829643187975738e-03,-8.263030514032442680e-03,-2.347389933499392442e-03,8.287153840065002441e-01
3.480994368927879945e-01,-4.606283267852996355e-01,3.578683570708844908e-01,1.272610451152089879e-02,-2.120104532304680628e-02,1.288156232634062037e-02,8.150880336761474609e-01
3.325274963189036592e-01,-3.556985756176430091e-01,3.842403991382292716e-01,9.509208649488395948e-02,4.063296624444992337e-03,-1.225985326426164493e-03,7.342350482940673828e-01
3.266678573991273482e-01,-3.815415042876803553e-01,3.591277823453732365e-01,3.933811877412367319e-02,2.272194590037255116e-04,-1.345336618174970775e-03,7.281830906867980957e-01
3.623603581463502032e-01,-3.971400902969091096e-01,3.512783190707431391e-01,2.584727667930537473e-03,-1.397527803063800325e-02,-2.965726628610644566e-03,7.544397115707397461e-01
3.731339284193356809e-01,-4.483839346365187106e-01,3.638355266612081085e-01,1.569942589137351963e-02,7.208460701777778118e-03,1.149619663482700886e-02,8.176985979080200195e-01
3.687511204541014664e-01,-4.663495004637076002e-01,3.676646329160351834e-01,1.262052102622113897e-02,2.429907886521128890e-03,1.387697959702921882e-02,8.352006673812866211e-01
3.747454394937907995e-01,-4.267306266182995245e-01,3.631224110699836638e-01,5.055279393983956766e-03,-3.021958515030214593e-03,-6.207656161014103724e-03,7.958662509918212891e-01
3.402740449159821212e-01,-4.724072393864666708e-01,3.291157263108707154e-01,1.763259762611051398e-02,-7.389001214409481044e-02,1.313308105842475246e-02,8.181299567222595215e-01
3.290932833062020224e-01,-2.468184758719139671e-01,3.171734437383143534e-01,-8.687713709348696871e-04,8.122706134849409787e-03,-2.544379796245367642e-03,5.702379345893859863e-01
2.688468101434964841e-01,-4.644150386699011923e-01,3.811460964623435421e-01,1.519883164117447408e-02,-6.730234186827740994e-02,1.431830273214791324e-02,8.046898245811462402e-01
2.757741349927746999e-01,-4.610414765141870319e-01,3.397229099322994772e-01,9.246312062724564712e-03,-9.736553431427980021e-02,2.990755725876286051e-03,7.891948819160461426e-01
3.213705766810369679e-01,-4.483212397704123831e-01,2.988952475406244647e-01,-1.365201539194403450e-02,9.718536910648237215e-02,-8.285202087235916599e-03,7.776449322700500488e-01
3.802686707989432202e-01,-4.468284396408958026e-01,3.179320605647806275e-01,1.589089042020943102e-02,-1.491226888976031340e-02,6.448987662168834296e-03,7.987280488014221191e-01
3.388010852312526300e-01,-4.527713455760707939e-01,3.338316669153233440e-01,4.209899075129463868e-03,1.254578112183789285e-02,-8.419759220638148561e-04,7.894335985183715820e-01
2.627386123579393828e-01,-4.724854388921090331e-01,3.901974720378741934e-01,3.277316477684755203e-02,-7.182322468717622366e-02,9.985722799640921882e-03,8.182347416877746582e-01
3.292475060810824972e-01,-4.440517612817131976e-01,3.271116625431527147e-01,-3.282392696067283535e-04,-1.544489155980630340e-03,-3.062384440202271254e-04,7.722386121749877930e-01
2.652183099243422548e-01,-4.714180282959424817e-01,3.926181496210744415e-01,-1.061764981607469897e-02,-6.762536124948018146e-02,-1.576577543418481234e-02,8.170156478881835938e-01
3.753848633905869647e-01,-4.603034628786363269e-01,3.650298452934174764e-01,-7.118694791572700679e-03,-7.321251611349992305e-03,1.765676389816502522e-03,8.307531476020812988e-01
3.714005152924634290e-01,-4.702243941248364090e-01,3.658046219445114655e-01,4.790123320407782201e-03,1.737050406995514404e-04,4.178481736068103553e-03,8.389132618904113770e-01
2.361825071796251618e-01,-4.557293854465919170e-01,4.274553702702704183e-01,6.585873705461954813e-04,3.432548170694818546e-02,-5.149861863269058820e-04,8.069747090339660645e-01
2.949643065374625284e-01,-4.570020736990118015e-01,3.490602542148875664e-01,2.831258103805894561e-03,-4.728511483929821735e-02,-1.255320350569427744e-03,7.847257852554321289e-01
3.734032563549218309e-01,-4.530350961611422367e-01,3.611559787881010730e-01,5.811373344968153755e-03,-5.985044383458138634e-03,1.186018607976757969e-03,8.205130696296691895e-01
3.213443056154868249e-01,-4.734267870626408525e-01,4.021854066952338935e-01,-1.070372428476887815e-02,1.010884893917194174e-02,4.483050186808524087e-03,8.385446667671203613e-01
3.242820544829108087e-01,-4.641004374846712244e-01,3.942672215098633193e-01,-7.730178780652011659e-03,3.680847160941168490e-03,-2.757475128317898091e-03,8.257497549057006836e-01
3.719682256067808890e-01,-4.478427260256887532e-01,3.690774766456278999e-01,-2.971717884702144638e-02,-7.740936134938895472e-03,1.977860156555714954e-02,8.208112716674804688e-01
3.757967374192490162e-01,-3.884346504545931333e-01,3.724101902287351717e-01,-7.846344514953910998e-02,3.309631734018195215e-02,-5.056730780111795207e-03,7.767273187637329102e-01
2.721422626523429811e-01,-4.448996220159946446e-01,3.683404499024451884e-01,3.424535696391974070e-04,1.014307672417410697e-02,-4.184112195943128290e-03,7.698979377746582031e-01
3.662749531984811902e-01,-4.379789601194107318e-01,3.648276910111306059e-01,-2.605926389386613393e-03,-2.612099360048212270e-03,2.731378873645653321e-02,8.049480915069580078e-01
3.598921672871942534e-01,-4.604272382050457191e-01,3.764129679610490609e-01,2.450806541289626654e-03,7.321944114852266955e-03,-9.569651690290667274e-04,8.288128972053527832e-01
3.244583129241112029e-01,-4.447587574736519000e-01,3.336906656629173851e-01,-9.740139923086272222e-05,3.882994584275467273e-03,-4.368363654055353279e-04,7.739041447639465332e-01
3.778875133634720940e-01,-4.652758967066933371e-01,3.413047593000205771e-01,1.221166226618195872e-03,5.623831805090465791e-04,7.009223239444372505e-03,8.255727887153625488e-01
7.766337584276361561e-01,-9.751706488729132705e-01,1.116533100857734218e-01,6.939259147839460865e-03,2.853850089674908608e-02,2.619366885638073350e-02,1.533214926719665527e+00
3.704026015050448928e-01,-4.697640516159109492e-01,3.653055123368323942e-01,-1.413159084639219014e-03,-1.889847690165437008e-03,3.208299791597407375e-03,8.376581668853759766e-01
3.368635302913358109e-01,-4.926224125403791954e-01,3.777395412855357737e-01,-1.411916751179049558e-02,5.154026820302058665e-02,-3.202161410706987760e-02,8.574772477149963379e-01
2.844459970061620768e-01,-3.884278737140262061e-01,3.846399228682389482e-01,-4.450153389421428185e-02,6.671620350982107595e-03,-1.318563551510912660e-02,7.326747179031372070e-01
3.218838040338481976e-01,-4.640819814651240272e-01,3.941455725891018225e-01,-3.590187895876667014e-03,2.624386465573729649e-02,4.682780514074705649e-03,8.257904648780822754e-01
3.891607150251505942e-01,-4.664961775084931483e-01,3.287135279695910239e-01,-4.647783324938078130e-03,3.060050487262583612e-04,7.137477404496344983e-03,8.272233605384826660e-01
3.649046552485626371e-01,-4.657501558354572024e-01,3.705018189001780260e-01,1.952444089823861468e-03,5.849833657188156788e-03,-2.110393689846965914e-03,8.335439562797546387e-01
4.611803800508351148e-01,-5.097789299893773496e-01,1.625999879560298123e-01,-8.754985561043766851e-03,-7.034448249874063197e-02,3.058991138164332199e-02,8.717138767242431641e-01
4.496727032039474214e-01,-4.993779205995289017e-01,2.068206896437611853e-01,-1.318666724106176691e-02,-2.178497432174007417e-02,-3.773758621106396149e-02,8.575623035430908203e-01
3.911794329917477331e-01,-3.822783292841462899e-01,3.616215650847224850e-01,3.810687433364996074e-02,6.996397616133156333e-03,-5.981950799948967251e-02,7.690820693969726562e-01
3.257947082980389153e-01,-2.089422254806593271e-01,3.166191563471837389e-01,3.143879514206337263e-03,2.855532226645587316e-03,-2.762548208553678580e-02,5.324141979217529297e-01
3.739282201808130646e-01,-2.690797467042050362e-01,3.660428931048399503e-01,4.653859922223706203e-02,3.633345865960012529e-04,-7.702783256654983923e-02,6.578364968299865723e-01
3.787514511388311855e-01,-4.624315370359176613e-01,3.630237110223795138e-01,2.257499854187398815e-03,-1.146369912080682195e-03,1.238599283167718824e-03,8.334447145462036133e-01
3.600125306920811119e-01,-3.053237313018514754e-01,3.273806682121447320e-01,7.369686097094946264e-02,1.328834838893749523e-02,-8.406939933688166444e-02,6.782716512680053711e-01
3.648474727515254590e-01,-4.762562107695600400e-01,3.661789661823908748e-01,-1.066756267290835166e-03,-2.637588356614336323e-03,1.355549370733664851e-03,8.417879343032836914e-01
4.639522739995834977e-01,-8.379893284956130284e-02,2.591627215169357568e-01,2.778950889494196524e-02,1.004336670424226530e-01,-4.397856300771112864e-02,5.178574323654174805e-01
3.322138368770904959e-01,-4.373776525655057035e-02,2.161972928397894178e-01,-1.977307962661675744e-02,-1.283664715954211701e-02,-2.843662547373782337e-02,3.395232260227203369e-01
2.693971241064297972e-01,-1.612526775575071070e-02,3.521305093554898957e-01,-5.599158648880666993e-03,-7.096533357077354151e-03,1.592422637776461786e-02,3.361487090587615967e-01
3.099880306237587924e-01,-1.523626370660590146e-01,3.168742330331146828e-01,9.860477791643795092e-03,-1.000332923191979070e-02,-3.455160995250192157e-02,4.702900350093841553e-01
3.159317040959824796e-01,-1.443687458784010391e-01,3.123097332064017628e-01,1.904404945809685598e-02,1.482765713014395914e-02,-1.359393662165945399e-02,4.610037207603454590e-01
3.053477286770924781e-01,-7.320182997016438931e-02,3.121025431678283724e-01,-3.105671419308345116e-02,1.208728168680652318e-02,-7.541811626302213911e-02,4.077964723110198975e-01
3.620595742134802286e-01,-4.722285091997064921e-01,3.607365913702088034e-01,2.545178225604991656e-03,-2.967530182892783724e-04,5.619390087708067954e-04,8.336397409439086914e-01
3.673316108476736841e-01,-4.749504250649783099e-01,3.659827792090459275e-01,-6.202418068449911011e-04,-1.576048935556760133e-03,2.854709272476864835e-03,8.416280746459960938e-01
3.978258547617369301e-01,-4.437514550135868152e-01,3.267849051497013768e-01,-1.561183805193054955e-02,1.484064344689348114e-02,2.873689826335897729e-02,8.107910156250000000e-01
3.719452952036300664e-01,-4.608585167557450735e-01,3.737212581764176589e-01,-3.873437801916869254e-03,2.534279795349870558e-04,5.218644303353292720e-03,8.337693214416503906e-01
3.554877416442258076e-01,-4.618791437986312642e-01,3.434974701880763037e-01,7.023141103950246954e-03,5.893982330960542693e-03,-3.710334689448584623e-03,8.116190433502197266e-01
3.678748083541220071e-01,-4.772872112891738405e-01,3.646116464808255575e-01,-6.220385123629575044e-04,-1.578625610774939906e-03,8.703832927676780117e-04,8.435416221618652344e-01
3.538406214502713976e-01,-4.614108828173862920e-01,3.312239474407648876e-01,2.150018529725351499e-02,1.902909170962583871e-02,-1.942165747139334986e-02,8.064198493957519531e-01
3.212703479891146352e-01,-4.526260916098064913e-01,3.533836323594259921e-01,1.211851171339327175e-03,6.539001244453560707e-03,1.115805293294392340e-02,7.907626032829284668e-01
3.446708819471245300e-01,-4.443255646381722990e-01,2.905538506768975959e-01,3.290095591112886329e-03,1.994856720190103100e-02,5.505539703067201295e-04,7.641813158988952637e-01
3.571914480089041222e-01,-4.385330148328714372e-01,3.733342681656557360e-01,-3.464933367105444469e-03,-8.519961564137956342e-03,4.764888096510534049e-03,8.041176199913024902e-01
3.872319175233212563e-01,-4.672867690685086339e-01,3.637462822249155625e-01,1.062818259906055243e-04,-1.569318847582358220e-02,5.816966341983158609e-03,8.435195684432983398e-01
3.472278791117799357e-01,-3.836297568830283611e-01,3.529150384551490438e-01,-1.434091882990943569e-03,-3.103373358605513756e-03,2.624111289758556537e-02,7.351480126380920410e-01
3.777128627754455237e-01,-4.846016268499334645e-01,3.094174220701750855e-01,5.199669297099897280e-03,1.342821399286237222e-03,-2.913002610011453455e-02,8.318597078323364258e-01
3.656805670451858670e-01,-4.452065137522446259e-01,3.595940689693398751e-01,-5.984936652878957222e-03,-7.032434729051608747e-04,4.699564493966532433e-03,8.079694509506225586e-01
3.625825127449336382e-01,-4.726524520985828648e-01,3.590140807344658902e-01,-1.551338335518202664e-04,-2.495933241454270299e-03,3.629716441263750211e-03,8.334914445877075195e-01
3.487944961917567310e-01,-4.636555380300874107e-01,3.548516376512958481e-01,1.094559902274927645e-04,-4.907418117627899588e-04,6.046219921063846099e-03,8.155632019042968750e-01
4.303487740307000431e-01,-4.891423126701122115e-01,2.745271114400171797e-01,-2.240518559088504596e-03,-2.046145827211870091e-02,-3.517886173144628426e-02,8.552492856979370117e-01
3.628141268351353088e-01,-4.726596035982565391e-01,3.604345744138793828e-01,4.149075830149713735e-04,5.893051220239352642e-04,8.605449414413258091e-04,8.342887759208679199e-01
4.308652022610076626e-01,-4.432226367577433157e-01,2.233758734882513308e-01,-1.034974117102438473e-02,-4.173037479307234454e-02,2.213516195281952856e-02,7.954451441764831543e-01
3.888985014732441736e-01,-4.830808077424630920e-01,3.274673648288977112e-01,6.717335884135915147e-02,-2.322743272823868388e-02,2.808800419539984883e-02,8.532743453979492188e-01
4.304262374566270033e-01,-4.512935808280207350e-01,2.799020587544533978e-01,8.780080222126972200e-03,-6.409852396094352367e-02,-1.683998862593526213e-02,8.250909447669982910e-01
4.005848055192102741e-01,-4.461160671745595385e-01,3.738086641090529461e-01,-8.230053551745865337e-03,1.869741080401268393e-02,1.635987247602537636e-02,8.348670005798339844e-01
4.124483493175405968e-01,-3.507722810182251072e-01,2.853066005481867395e-01,-7.814990262783550953e-03,2.108335206959292482e-02,4.993692284536845050e-02,7.145847678184509277e-01
3.674719093452628038e-01,-4.424657426708136221e-01,3.833961080330192672e-01,1.908722803636378126e-02,5.902720340975688845e-03,8.870727990246879413e-03,8.188917636871337891e-01
3.654697100285959621e-01,-4.640881483386002371e-01,3.679670904593949077e-01,-8.541168390371851188e-03,1.504383701118142472e-03,3.837217147976581481e-03,8.309717178344726562e-01
3.545220869504898120e-01,-4.632837557334820167e-01,3.480909979330495396e-01,4.050794056554450824e-04,2.908796137122351619e-03,3.703198235145005457e-04,8.146255016326904297e-01
4.326235944685848100e-02,-5.010517522233304266e-01,5.433998209528152490e-01,5.881033658806653075e-02,2.454164351303753794e-02,1.106017328501334752e-02,9.117000699043273926e-01
4.303747975390753711e-01,-4.542595942801560538e-01,2.335665613637044891e-01,-9.171760303940875228e-03,2.491265726639491085e-02,-8.662361720941662638e-03,8.059450984001159668e-01
2.721230976481266994e-01,-4.472994888291281779e-01,3.711387632782724433e-01,-3.268880380239567638e-04,1.093524417766262961e-02,-3.932402765774740266e-03,7.739589810371398926e-01
3.625274294782029894e-01,-4.344269405507142912e-01,3.658195707355914594e-01,9.503870120282437856e-03,1.073190839143449427e-02,8.861843625052854417e-03,7.991388440132141113e-01
3.658053341479048925e-01,-4.020723755600512650e-01,3.507651348990268314e-01,-2.766032536892092802e-02,-9.762644536139192947e-03,3.196999074709541699e-02,7.641732692718505859e-01
3.526979834692700599e-01,-3.995824212572672840e-01,3.173993259231058239e-01,-1.321414920269503926e-02,3.513369334653619613e-02,7.639731286227349413e-03,7.382543087005615234e-01
3.443335743087507783e-01,-3.728094613135508606e-01,3.585812007068689411e-01,-9.375509431212415788e-04,-9.163077761568124910e-03,7.852836847337164167e-03,7.246752381324768066e-01
3.568953200419203164e-01,-2.426288821197445933e-01,3.489671018575487560e-01,-4.331567242921445515e-02,-6.715969459911313479e-04,7.630302705249407402e-02,6.146832704544067383e-01
3.266421599634526940e-01,-4.442902551773673103e-01,3.292299278640068438e-01,3.078054827497301357e-04,9.358782494988762170e-04,5.778531529052979322e-04,7.722320556640625000e-01
4.149963287087704567e-01,-4.551665399175959248e-01,2.316158874362198583e-01,3.086185979972578316e-03,1.044343643875911970e-02,-6.577198225845903856e-03,7.948122620582580566e-01
3.211198745376737662e-01,-1.944628721196408061e-01,3.255476436855289091e-01,-4.415875466149582484e-02,-3.773512311748712482e-03,8.917517228802004925e-03,5.236977338790893555e-01
3.485411755108908660e-01,-2.998166384882557378e-01,3.377553079707388828e-01,-6.952282495264575091e-02,-1.466925474621990147e-02,3.458317748497100746e-02,6.574381589889526367e-01
3.787811174140364723e-01,-4.540305978297689560e-01,2.463684651266669079e-01,1.261870179871327734e-02,2.971886532152034216e-02,-7.738898833654017477e-03,7.772648334503173828e-01
3.512054767323509741e-01,-3.973450054092750872e-01,3.730871653250067421e-01,-3.670802454937235892e-02,1.007608662749461155e-02,4.517705327450351194e-02,7.665873169898986816e-01
3.575798959899043616e-01,-3.606990531019818036e-01,3.517839791500743107e-01,-6.218314858827650449e-02,-3.248217091213999319e-03,1.100792580323550762e-01,7.481840252876281738e-01
3.443770809186545434e-01,-4.656581523345605378e-01,3.530539984244052687e-01,-1.081309587023773148e-04,3.430865940986141394e-03,-1.113215159801680780e-02,8.146582841873168945e-01
3.655021935341436490e-01,-4.672355627127156019e-01,3.657100631384833100e-01,3.280431953823493164e-03,-9.205950121961845641e-04,5.175491863020531720e-03,8.329108357429504395e-01
3.275135768867449282e-01,-4.518073530779751490e-01,2.761025416166342783e-01,-7.751046418350729210e-03,-7.476794896097387066e-02,-2.822146055071310562e-03,7.660896778106689453e-01
3.834495247505311788e-01,-4.547624039121589412e-01,2.426398466682447574e-01,-1.293646523448035990e-02,3.206890780528275087e-02,1.032831487196557430e-02,7.799394726753234863e-01
3.379629784481322785e-01,-4.518995850004523529e-01,2.996305360575970411e-01,3.196817913664668897e-03,-3.935735426271469439e-02,1.282823449513949927e-03,7.744401097297668457e-01
3.317217675611945915e-01,-4.440305797777582830e-01,3.271273449994525073e-01,4.127489092709305755e-05,2.606380602768163662e-03,-8.122090379628860786e-05,7.734785676002502441e-01
3.422859662551434035e-01,-5.764336746188940541e-01,3.613608524524500876e-01,1.046124560885639682e-02,-1.677911578161971062e-01,4.439417085327276163e-02,9.760310053825378418e-01
3.692992299911725396e-01,-4.457331744867178980e-01,2.829765465296214533e-01,-3.131536963345390306e-03,1.097336271612162073e-02,-4.014066381435304619e-04,7.757350206375122070e-01
3.944533534655468299e-01,-4.758866946787695396e-01,2.630667492601990176e-01,8.151365623473480135e-03,-5.926637267946255339e-02,-6.680183986891160067e-03,8.193131089210510254e-01
2.832025828319696958e-01,-4.512074580831508808e-01,3.232673599841342504e-01,-5.110645393035530802e-03,-7.469587098090793575e-02,-8.232898555456230269e-03,7.664250731468200684e-01
3.424726198498089236e-01,-4.649469204391802890e-01,3.716187898124456712e-01,1.357670519993115291e-02,-3.436594056936808630e-04,2.338029631026803442e-03,8.227264285087585449e-01
3.626507431887240340e-01,-4.522862007913314164e-01,3.653338518463250528e-01,-8.917356874735769476e-03,5.982774675790036509e-03,-4.122081788974301352e-03,8.165248632431030273e-01
3.627712360304961581e-01,-4.691524837017621019e-01,3.639211959730473400e-01,-3.643005364180902823e-03,9.237667060597756601e-04,-4.399207796889625932e-03,8.325595855712890625e-01
3.770107828424295038e-01,-4.497523546746837741e-01,3.627912829831921315e-01,-1.901666302646220141e-03,1.148557274799720182e-02,-3.624232052274943723e-03,8.200178742408752441e-01
3.529385601299387387e-01,-4.058139385537613553e-01,3.535593486847432021e-01,-1.322635898464795401e-02,-1.381197642063402686e-03,-4.452867948402024559e-03,7.594516277313232422e-01
3.705455081129852002e-01,-3.992557026758770666e-01,3.316636682036078199e-01,-2.417579539493408189e-02,-9.106841991510652295e-03,-4.817406299841776873e-02,7.570593357086181641e-01
6.565428351750880742e-02,-6.953325059169260802e-01,6.293893505651924070e-01,9.630862211901321246e-02,-2.736768002652704979e-03,1.946465790625729123e-02,1.163992404937744141e+00
3.649156319454507913e-01,-4.763681401554377137e-01,3.627513147724416021e-01,2.806060828842015398e-04,-3.766832560061628274e-04,-1.222219438541101303e-03,8.402067422866821289e-01
9.337790512462626480e-02,-5.998989091241323512e-01,5.850046168227476251e-01,1.810591561741506372e-02,-1.075295186708878359e-01,-1.793333996163076760e-02,1.048713088035583496e+00
3.041225266821648843e-01,-4.446336190434752034e-01,3.414158475758812261e-01,7.637626686733201345e-04,7.313908050635264252e-03,-4.642719142744924400e-03,7.682298421859741211e-01
3.398750219344184309e-01,-4.649177452092889684e-01,3.676724579040531737e-01,3.495252670140496496e-04,2.348259356074291690e-03,-6.963960748143475932e-03,8.191444873809814453e-01
5.385562744927965828e-02,-5.575926234538063353e-01,7.050736023446089185e-01,1.317099357899030876e-01,-9.325049661633225129e-02,-8.569162850553291300e-02,1.138551115989685059e+00
7.389686625081719196e-02,-8.199581030269065263e-01,6.874853221460551778e-01,7.010743028673929733e-02,-1.071083451057368296e-01,-5.323164500562878321e-02,1.334761857986450195e+00
4.195266978134040703e-01,-5.302757918522986724e-01,2.217095524972123866e-01,-3.385758943318351727e-02,7.287277208916051463e-02,2.692071340861703493e-02,8.802918195724487305e-01
3.255634633335037775e-01,-2.259058741279640903e-01,2.427134291777263697e-01,-3.693001068054506050e-03,-1.303251214760805243e-01,7.022326873377231216e-02,5.753973126411437988e-01
3.080281480612676592e-01,-2.190188336474039321e-01,3.787311305224028146e-01,-3.771452059788583597e-03,-6.138135826862002598e-02,4.831768864244585793e-02,5.817136168479919434e-01
3.460102192292504597e-01,-2.452526135920193306e-01,3.331031924995948024e-01,4.022281401085614494e-02,-3.684164895568515369e-03,7.579312168099591740e-02,6.035354137420654297e-01
3.657020142446443245e-01,-4.715502965577668126e-01,3.693437473520186365e-01,5.535903711972815344e-04,-2.121576044908679223e-03,-2.526772160969261403e-04,8.390877842903137207e-01
3.841485702938943758e-01,-3.127793976555493516e-01,3.460153103878766401e-01,5.150312675242017108e-02,6.125729908951250968e-03,3.975583368265018375e-02,6.880396008491516113e-01
2.599721757862203386e-01,-5.160467829983720334e-01,4.119469462878417865e-01,8.344980617690393732e-03,8.343400503841548466e-02,-1.479108719158634018e-02,8.746348023414611816e-01
4.241316755668561034e-01,-1.110092667517870724e-01,3.009343213628585811e-01,-3.888406415674063726e-02,5.951890675959702059e-02,-6.663554631545698034e-04,5.007895827293395996e-01
3.619523884573713768e-01,-4.702354275947751017e-01,3.812826523302024762e-01,-1.669637400235019983e-02,1.171123009502784452e-03,3.084945915403461327e-03,8.425351977348327637e-01
3.999160396354087821e-01,-4.587395557998319440e-01,2.508493289449436059e-01,1.342638549655367913e-02,1.046507074027606433e-02,-2.310305409464787768e-02,7.962310910224914551e-01
1.826348324473493490e-01,-4.395395678642114445e-01,4.604181094627754489e-01,-3.467466140883190828e-02,4.843124257971771762e-02,-2.066353095985992011e-02,8.056170940399169922e-01
3.640947496264315131e-01,-4.758304594438413915e-01,3.677408827037489947e-01,2.948772694443084204e-04,-1.495096285538181219e-03,-7.183747170477319853e-04,8.417592644691467285e-01
3.013980777712846892e-01,-3.823004649348736295e-01,3.913974940081694220e-01,9.842575063164547486e-03,6.020125639216823005e-03,8.850185224476826013e-03,7.332873940467834473e-01
3.494911051768012089e-01,-4.634487892101424311e-01,3.418045459841114186e-01,4.525512436421051839e-03,1.677420842302980778e-04,-3.396418163636660218e-04,8.091622591018676758e-01
3.644493969950433065e-01,-4.549964257155827418e-01,3.109099785861318965e-01,1.030427383574180483e-02,5.587379574991172687e-03,1.751108849714373651e-03,7.942963242530822754e-01
2.097606339701109657e-01,-5.541984536016714147e-01,4.759053724532412710e-01,3.847546361424913214e-02,-2.689985247421160935e-02,-5.519255237845669196e-06,9.297322630882263184e-01
3.170697591302553131e-01,-4.712696148686909003e-01,4.064885463762881734e-01,2.852638572338141165e-02,1.214329838106594298e-02,6.504054732859752483e-03,8.384376168251037598e-01
3.651881144525784273e-01,-4.655174290525052605e-01,3.786036430091927474e-01,3.078427718641870738e-03,-1.012184935167539934e-02,-4.048194221376047452e-03,8.377236723899841309e-01
3.044839462721491419e-01,-3.921995461957317186e-01,4.499004023910905814e-01,-1.682070174426836609e-02,3.363636915990172310e-02,-2.834998759383480435e-02,7.838860154151916504e-01
3.031095416611295779e-01,-5.000069752698512726e-01,4.476822095005972835e-01,5.824808675038467554e-02,1.036197998292909955e-02,-4.688032856029011181e-02,8.939239382743835449e-01
3.676498114377306226e-01,-4.496261441896961530e-01,2.834490723056123374e-01,6.574139429833265880e-03,1.037844504792412824e-02,1.837126674264244225e-04,7.788885831832885742e-01
3.573677244997056635e-01,-3.387546635170744502e-01,3.586859052769463263e-01,-2.109055582168611886e-02,-4.922422092130665158e-03,4.047701120842717160e-02,7.013044953346252441e-01
4.915013258048194222e-01,-3.743327652067576228e-01,8.889612370402025232e-02,5.390524826740247799e-02,-4.029321799249427349e-02,6.170275314587995996e-02,7.669289112091064453e-01
3.726293714424591119e-01,-1.394913456441416177e-01,2.719515572177919061e-01,4.678630863758704780e-03,-4.062235952641620601e-02,9.467146405769051587e-02,5.027412176132202148e-01
5.006351859856635889e-01,-3.698539179409013333e-01,1.802988394152952589e-01,6.107883683065933392e-03,-1.422484500425753584e-01,1.263612696132283275e-01,8.308036327362060547e-01
3.654754074842173073e-01,-4.700082886473154753e-01,3.638122733345155457e-01,7.108854128979348423e-03,-1.568468165638725771e-03,1.890331567089361233e-03,8.347550034523010254e-01
4.053132321749863820e-01,-1.996751715547436246e-01,2.833394119028025404e-01,-4.096880954179651924e-02,-1.876136590299748788e-02,3.536917930702230400e-02,5.629743337631225586e-01
4.565418523443325882e-01,-5.223094999155523110e-01,2.711837903896074375e-01,5.817775705503750762e-03,-4.502053642919126575e-03,-3.436510834238554191e-02,9.026488065719604492e-01
3.616566109476184732e-01,-4.721439973650936039e-01,3.538239480190303321e-01,4.363116531289329262e-04,8.171203890797442901e-04,-4.231163883187262498e-03,8.299459218978881836e-01
3.646122831651726348e-01,-4.502123070553207818e-01,3.344064409904561885e-01,-1.733610754783572461e-02,-1.368539574751207258e-02,-5.450894505103231341e-03,8.011190295219421387e-01
3.827657382845311984e-01,-4.658441504742832917e-01,3.632157133608697741e-01,-1.802342839658706026e-03,-3.924789781922334748e-03,1.667394590579464320e-02,8.395359516143798828e-01
3.817003821554195708e-01,-3.698328160359176109e-01,3.293340533889336230e-01,3.747451228773659992e-02,-4.564724121479645652e-02,5.529585497334699173e-02,7.401528954505920410e-01
3.830186863053985369e-01,-5.082451575788625719e-01,3.163104149135748111e-01,8.626128907365238768e-03,-4.496031965393185170e-02,2.338474268117111520e-03,8.635105490684509277e-01
4.342087675941188607e-01,-4.124772088863641883e-01,3.188526374983585709e-01,-1.569428574098193779e-02,-1.879816452938140939e-02,1.018777890901290638e-02,7.966330051422119141e-01
3.512874838675092426e-01,-4.547014856553330819e-01,3.384324973104126943e-01,-4.057465139044154345e-03,-1.871976710061527480e-02,-6.394405159032496948e-03,8.004035353660583496e-01
3.680160326533995496e-01,-4.187676208485446860e-01,3.505401400776066989e-01,-1.855260324431711599e-02,-1.877998904799197885e-03,2.516603803776236176e-04,7.788629531860351562e-01
3.110230993780487285e-01,-4.029619165613402276e-01,3.677091619775607612e-01,-2.489100667720626006e-02,3.902500331824464846e-02,-1.092355355444482590e-02,7.484961152076721191e-01
3.335540539206838240e-01,-2.695711664364645599e-01,3.230467029251602451e-01,-4.164553178635086589e-02,7.680943648353014477e-03,3.455939748239473391e-02,6.053893566131591797e-01
3.335731941732044681e-01,-3.229469936901682714e-01,3.827613615859347118e-01,-6.194554359820763495e-02,7.337860720222929775e-03,5.292778848059009195e-02,6.969997286796569824e-01
3.015486160254499670e-01,-2.875133348623376550e-01,3.860038548752121601e-01,-7.068071043944017251e-02,1.782718102405565427e-02,3.022002334190504805e-02,6.500434875488281250e-01
3.558429800525983455e-01,-3.976553409127163707e-01,3.522165494240148131e-01,-1.420324759407871375e-02,-3.270054113184536933e-03,-2.504696967743926493e-03,7.521279454231262207e-01
3.391144934865084615e-01,-4.276279392605564222e-01,3.938388734371514599e-01,-3.505499395196353535e-02,-6.615988789654539404e-03,3.640505320086401264e-02,8.004012107849121094e-01
3.416645925769097314e-01,-3.533292650874326202e-01,3.511088892505944692e-01,-6.258426377014514319e-02,1.118872923147535940e-02,1.917096172549614258e-02,7.091529369354248047e-01
3.333408010524273601e-01,-4.562421577978620357e-01,3.795550308887996049e-01,2.600871822234181174e-03,6.988020094324455533e-03,-6.845789813949924515e-03,8.138638734817504883e-01
3.479354005467535371e-01,-3.612742413682704101e-01,3.604389963370512318e-01,-2.588618041623226215e-02,-4.425872887912867329e-03,2.696349253359701936e-02,7.185071110725402832e-01
1.601276967297622089e-01,-5.008347457093821342e-01,4.745190627252939830e-01,2.970704125811068821e-03,-4.311075977760483319e-02,1.083112577505375429e-02,8.657183051109313965e-01
2.301864537639229935e-01,-5.140142013356598927e-01,4.670092209984596510e-01,2.597645973113162782e-02,-1.021490705292987800e-01,1.141069221628061327e-02,9.054731130599975586e-01
7.952240821254898118e-02,-4.855075731193078115e-01,4.945643097838439139e-01,3.080635517840304635e-02,-1.165909144788210561e-01,2.904687404438179368e-02,8.787425160408020020e-01
2.991145751471756542e-01,-8.763204162986252266e-01,4.149308567239330947e-01,1.143373807850106560e-02,-2.379952692699299210e-01,-2.140786185671045630e-02,1.304947376251220703e+00
3.658652424171770501e-01,-4.759151122202101014e-01,3.649244492047542532e-01,1.523933234960273345e-03,-1.303743252214826284e-03,-8.748959599316691923e-04,8.413189053535461426e-01
1.881282686113927016e-01,-5.091068451321870691e-01,5.065607098613482684e-01,3.598974196262662295e-02,-2.535942109630596186e-01,-3.300839393152815715e-02,1.004809856414794922e+00
2.129826697195234819e-01,-5.105800945177785266e-01,3.283593118169371716e-01,3.762521117626553557e-02,-2.458833470160584622e-01,2.232427865381650042e-02,8.985850214958190918e-01
1.750985805461395817e-01,-5.633526387415602743e-01,4.907143306854274689e-01,6.881466004523080493e-02,4.965760835852112143e-02,-5.610469117783008219e-02,9.534345865249633789e-01
3.051117377149161758e-01,-5.767898575147483164e-01,3.737455649756484810e-01,3.778554397317384489e-02,-1.611456659516039003e-01,2.105101375149009621e-02,9.625517129898071289e-01
2.429430922911043900e-01,-4.663888493882485387e-01,4.310530279496245787e-01,6.336265164914376205e-03,-2.212141016362965257e-02,-1.093616855695857433e-02,8.209244012832641602e-01
2.098111794699100974e-01,-5.623955564716601740e-01,4.836220905411717785e-01,4.930617186535294488e-02,-5.324501183767804680e-02,8.270761459808623206e-03,9.480073451995849609e-01
1.819875126736324455e-01,-4.896025892935783608e-01,4.653429200420555745e-01,-3.793354646136123248e-02,-1.199310788698747937e-02,3.757364341625474453e-03,8.522986173629760742e-01
3.511668831115969391e-01,-4.634871175064081417e-01,3.471764655790138265e-01,-1.024294330069615809e-02,4.306983978667053119e-03,8.432009368221602156e-04,8.128952980041503906e-01
2.692256130521160640e-01,-4.950586830714983622e-01,4.480170851457390135e-01,-9.084076605687340517e-03,2.560151030545737040e-03,-1.400524099878084098e-03,8.677657842636108398e-01
2.794096666311832733e-01,-5.067369314848718664e-01,4.064359078287695937e-01,-3.520774516341612648e-02,-4.248618509697969087e-02,-3.218931438482288548e-02,8.638668060302734375e-01
2.822378526732843285e-01,-4.838593584826443861e-01,3.852605104123652535e-01,-2.563139516316301214e-02,-3.513779698885838298e-02,-1.424786036759035160e-02,8.262735009193420410e-01
2.855256929239117225e-01,-4.655297498061709005e-01,3.859821723766436730e-01,-3.654590405132736308e-02,-2.260978795361903021e-02,-3.037699144058030390e-02,8.111305832862854004e-01
4.179844404824257231e-01,-4.779372195758803121e-01,2.349887706245549768e-01,-2.548823310133400966e-02,5.495605469778584717e-02,3.157546212415802966e-02,8.283801674842834473e-01
2.558559273957459190e-01,-4.689832099860027359e-01,4.075140579772382754e-01,-2.711500175023126569e-02,-8.477010771375706466e-02,-1.577978457836082607e-02,8.263354897499084473e-01
2.962111684100211528e-01,-5.206385875841236244e-01,4.123124260963154097e-01,7.341122165463515557e-03,-1.852355259384938502e-02,3.568867159020962937e-02,8.835000991821289062e-01
3.424038353115655409e-01,-4.662076469637888021e-01,3.631680016659073473e-01,2.350864363885041275e-03,1.408786565031616960e-03,8.242063604117713313e-03,8.193290829658508301e-01
3.037148845042394463e-01,-4.563646937584412422e-01,4.015680851187307665e-01,7.125317965442574779e-03,-4.439804892566592831e-02,2.424176719614373754e-02,8.182305693626403809e-01
3.591571320405481105e-01,-4.434403575278683673e-01,3.661511758109891601e-01,-2.205135175511090898e-03,-3.229376657246539259e-03,-7.669241007431415978e-03,8.062551617622375488e-01
3.453647323187900575e-01,-4.641084575751935892e-01,3.517731758294286304e-01,3.614070885896193550e-05,-5.968317783910676716e-04,6.181803039216459544e-03,8.127675652503967285e-01
2.394187139814022980e-01,-5.317407717767823616e-01,4.133002604914532419e-01,4.367538749075831200e-02,-1.210937885567274497e-01,9.793014438069910701e-04,8.992934823036193848e-01
2.112732599357276531e-01,-5.119080769045605273e-01,4.124794366745500596e-01,-5.170737020863810929e-02,1.120068180827059612e-01,3.085126806133443519e-02,8.703428506851196289e-01
3.883960454674996177e-01,-4.570870134866440448e-01,2.961746188975525884e-01,-9.966272254178129911e-03,4.379338548622080385e-02,-2.877582027316736429e-02,8.086472749710083008e-01
1.405433623807586796e-01,-4.407460531677429572e-01,4.066429510888449061e-01,-2.304927920741332847e-02,1.927649107688430563e-01,-7.497187300668561871e-02,8.326573967933654785e-01
1.269855609456124745e-01,-7.313171803306548480e-01,5.544885712212883622e-01,1.290626905208814290e-01,1.293072247514532869e-01,-4.869828511799730031e-02,1.180515408515930176e+00
1.330083910507091627e-01,-4.630663811685901132e-01,4.907677550057660820e-01,1.053427835590357853e-02,1.058651970199975534e-01,-1.286083297493803568e-02,8.549851775169372559e-01
1.745516890302499236e-01,-5.218866660077453590e-01,4.535319757399324248e-01,-3.233131883036702292e-02,1.264229419869850324e-01,2.778895829144939489e-02,9.003054499626159668e-01
3.657322808161778682e-01,-4.620989333464351478e-01,3.625823039250248292e-01,-4.415293977239269363e-03,-5.225416317799316465e-03,5.654219365480929634e-03,8.264037370681762695e-01
3.414091293262523363e-01,-2.604428805114978318e-01,3.909221921601684357e-01,1.988040656107338197e-02,4.595719642310019254e-02,-3.369732870746059566e-02,6.367144584655761719e-01
1.725772960237360043e-01,-5.292686981604802776e-01,4.119180125830554928e-01,4.298984885609592049e-02,1.500856325602031582e-01,-2.168506764655354913e-02,8.901597261428833008e-01
3.204201838039073547e-01,-4.445353353707846011e-01,3.341635157638220277e-01,3.929250346263965001e-04,9.072587409586607698e-03,3.093759332608441836e-03,7.720977663993835449e-01
2.139001064289032805e-01,-4.691696199196274675e-01,4.246401320328560547e-01,-3.897526427471210281e-02,4.243733852540149121e-02,2.014869150708652537e-02,8.161639571189880371e-01
3.788087256315513240e-01,-1.719809416143672776e-01,3.015624985237739253e-01,-7.740452971311569466e-03,-2.240087203223667042e-02,1.860125509690308682e-02,5.191463828086853027e-01
4.610587190441409744e-01,-1.056328437475504423e-01,3.539254458070909548e-01,-5.926802669320613282e-02,-8.400877500780072615e-02,-3.042313192608648437e-02,5.535273551940917969e-01
4.612724818508261437e-01,-2.560584147192310756e-01,2.905079495336316819e-01,-5.547124056429093841e-02,-2.241048671957237420e-02,-1.961244865457680009e-02,6.581194996833801270e-01
5.645415767442795163e-01,-2.186228840667794326e-01,2.501690237533439332e-01,9.727491151830884239e-03,-4.624594504841103570e-02,-1.383047849493674805e-02,6.879280805587768555e-01
3.902879007102069697e-01,-1.931120009613994104e-01,2.925784810423985305e-01,3.097332800709264727e-02,-2.850079682700883826e-02,-5.546390729763112787e-02,5.544750690460205078e-01
3.469785414777647459e-01,-4.460261299832971593e-01,3.043123294238287979e-01,2.646239279178096756e-03,2.211035404226296963e-02,-1.040989089089457316e-02,7.737280130386352539e-01
3.428661845986816226e-01,-4.460679763255601671e-01,3.029934930598644494e-01,-4.655923056700303486e-03,1.069011353404961812e-02,9.826193917961897895e-04,7.700394392013549805e-01
3.794378148843363663e-01,-2.034331826262999465e-01,2.225939735457053148e-01,1.598127929600400010e-02,-6.980761490941930769e-02,-8.332308455663366142e-02,5.559969544410705566e-01
3.810930345087893412e-01,-4.463483635012801543e-01,2.552185698670780267e-01,3.728529646588065165e-03,2.062593248615408881e-02,2.483372571848364418e-03,7.731018066406250000e-01
3.930256201575200170e-01,-5.124053179714000983e-01,3.562613190497690985e-01,4.024772828105215722e-02,-2.312682695097645347e-02,9.077213836658575008e-02,9.050150513648986816e-01
3.714183897225210584e-01,-4.426257155442915314e-01,3.341067453870882886e-01,-5.203102883809204021e-03,-1.547606189356796717e-03,-4.638830385126990231e-03,7.961404323577880859e-01
3.496009121284378018e-01,-4.542644142678938790e-01,3.432821844716222870e-01,-4.280050325576659036e-03,-1.819534188555584076e-02,-7.483443908930238579e-03,8.014837503433227539e-01
3.655843602966799000e-01,-4.726468358830537841e-01,3.684131323376678147e-01,-3.085681841321371785e-03,5.898196095139226006e-03,-3.478310583427598416e-03,8.397499322891235352e-01
3.624842037111508097e-01,-4.691227526962238326e-01,3.652173186570927266e-01,-1.941984598761326659e-03,-8.695952827784130153e-04,-5.109110247746352119e-03,8.330320119857788086e-01
3.656148654755781990e-01,-4.610483727261405207e-01,3.632490717590636242e-01,-2.683615126227621977e-03,5.605771320780199990e-03,-8.440802272206220742e-04,8.255543708801269531e-01
3.648691614740660616e-01,-4.360221498887786318e-01,3.690146629476320772e-01,-6.784761057807695527e-03,-3.602351536063658037e-03,-2.624632411995030459e-02,8.043679594993591309e-01
4.167973664858561356e-01,-3.754162812535175586e-01,3.099333938643448194e-01,1.438923882518073835e-02,-4.632213081007446019e-03,-2.810832333353865259e-02,7.466049790382385254e-01
3.710300237103388299e-01,-4.227117679573724196e-01,3.507002684849169771e-01,8.208245773887174260e-03,-1.449804184729855828e-03,-3.148562498789993919e-02,7.858023047447204590e-01
3.240711147297460348e-01,-3.374131875211092146e-01,3.564685181374462886e-01,6.186729982579914321e-03,-3.546902377984381856e-03,-2.502633575267365629e-02,6.797595024108886719e-01
2.369462466312095561e-01,-5.094540581964394077e-01,3.431464920988976375e-01,-9.315907112763893716e-03,2.134890001033304396e-01,3.064783258901457655e-02,8.873954415321350098e-01
3.761593539802707276e-01,-4.606176319503088035e-01,3.598904076606277980e-01,1.513432334997429421e-03,-4.258835538362821214e-03,-2.056112613804539444e-03,8.288069367408752441e-01
3.524517852292823328e-01,-3.161810547079156319e-01,3.495617389446588064e-01,-4.831723759675388141e-03,-3.653621000167734008e-03,-2.455452069497663856e-02,6.686289906501770020e-01
3.605386253814958364e-01,-3.981083231387556598e-01,3.613276553692874593e-01,1.635487982611687902e-02,-8.536872496723732495e-03,-4.522499173456594190e-02,7.637417316436767578e-01
3.654278554594698747e-01,-4.722969846034560382e-01,3.637074647937453831e-01,1.596552717901347307e-03,-6.249734134851412217e-04,-2.271657046620317692e-03,8.368805050849914551e-01
2.314104690065852399e-01,-7.376128500494906204e-01,5.679012764095825450e-01,-1.161970734776928277e-01,2.232878265508642657e-01,5.524204751492644422e-02,1.255998611450195312e+00
3.642737575828455809e-01,-4.222750496229434880e-01,3.694978600912448008e-01,6.004712063614348755e-03,-7.410983133382269966e-03,-3.757437349994131176e-02,7.920250892639160156e-01
3.495856805798647216e-01,-2.304264836796264815e-01,3.293004909144817693e-01,3.691701767896454767e-02,-2.761987036223829094e-03,-4.873941360635646036e-02,5.799120664596557617e-01
3.865748258093941736e-01,-1.578070418221337867e-01,3.090920192304515979e-01,4.428504425191852334e-02,1.272157014311404814e-02,-1.239646960898964784e-01,5.591472983360290527e-01
3.477936200446725135e-01,-3.682917121765275636e-01,3.664388428950179355e-01,-3.487744613188022147e-02,4.806480104288374505e-04,1.257300076911921317e-03,7.281017303466796875e-01
2.843862267870605476e-01,-1.305676402812584458e-01,3.611799374025168041e-01,-6.573080159595799665e-02,-2.508642930480389083e-03,-2.431592553625787356e-02,4.740296602249145508e-01
3.546751799799545135e-01,-4.519305512297689953e-01,3.779529784686540550e-01,1.223140324687545461e-03,-1.209600059318846968e-02,-3.837849409825130811e-03,8.187907338142395020e-01
3.414166851635596078e-01,-4.492106658061176816e-01,3.765364654885799411e-01,4.512995415506059795e-03,6.754536304324513726e-03,-1.208401985069687892e-02,8.091524839401245117e-01
3.294064874034973722e-01,-4.585559187536883963e-01,4.211612530552737432e-01,-1.009057502043539389e-02,-6.068778941098161572e-03,-4.906573837006287207e-03,8.379088044166564941e-01
2.508701425971675558e-01,-1.183345256922821997e-01,3.942431228634106777e-01,-6.181047806384306481e-02,2.032077742247176411e-02,-3.458427012233644682e-02,4.754897356033325195e-01
3.496642516325058070e-01,-3.671680678401647024e-01,3.579689005813613822e-01,-3.635974383836852730e-02,-2.319159557138783783e-03,2.864804708151738079e-03,7.237938046455383301e-01
4.268007659486460770e-01,-4.185917480604747221e-01,3.610225548059785017e-01,-3.659166191915200900e-02,-2.419189873531697038e-02,-5.953791210102546416e-02,8.245081901550292969e-01
3.659421986535698057e-01,-4.658197512194544032e-01,3.742227002640833855e-01,4.474019181352023762e-03,2.787273233261483747e-03,4.564616813763997666e-03,8.360202312469482422e-01
4.220481197559525777e-01,-5.010973577219172137e-01,2.926321344055176632e-01,-7.322435672774324283e-04,-1.896566726210589457e-02,-4.849073565154747578e-02,8.704085350036621094e-01
3.818761932794229041e-01,-4.660044928702806732e-01,3.185736530177089021e-01,-6.544086851984184765e-03,4.220713025947222738e-03,9.852757415976744551e-03,8.183575272560119629e-01
3.540544644604141089e-01,-4.678358715059192097e-01,3.416465344876063459e-01,4.761162054592506070e-03,-1.589956954707183109e-02,3.729476228223582192e-03,8.162890672683715820e-01
3.800895890492921314e-01,-4.846010951688746182e-01,2.999168665542721879e-01,1.269493195071810104e-02,-2.996570326288341274e-02,-3.373031475865396426e-03,8.294603824615478516e-01
3.216241989937688173e-01,-4.588583048771620598e-01,3.459393957691190846e-01,1.237210294579897327e-02,3.327310776905498951e-02,-1.616472456904718621e-02,7.957927584648132324e-01
3.659661517835383071e-01,-4.084811625047601868e-01,3.572936825707202502e-01,-5.137138299411673353e-02,3.427928943228481656e-03,-5.539926772321261683e-02,7.812086939811706543e-01
3.924457656062960709e-01,-2.721913046239967660e-01,3.447075907159315999e-01,4.416448368188090334e-02,1.099847325017441410e-02,-2.191994639279546894e-03,6.469324827194213867e-01
1.572030686628752005e-01,-4.774279364128680703e-01,4.492116156297749630e-01,1.947370496024594319e-02,-2.321668187112060910e-03,-1.041254965345063226e-02,8.214756846427917480e-01
2.905657184803603910e-01,-4.534908696776839276e-01,3.694477438860777063e-01,1.724257806969530134e-03,1.022196335237452944e-02,1.079163233279508381e-02,7.868970632553100586e-01
3.642965247301936937e-01,-4.709038448584190739e-01,3.656954229352855079e-01,-3.119096986196688679e-04,-1.144944380100203002e-03,6.885423906077295549e-03,8.359882831573486328e-01
3.508986160627993733e-01,-3.360213574861629082e-01,3.568192176110421832e-01,-1.168563081085988858e-02,1.063745895495697398e-03,-2.241136510800199877e-02,6.912893652915954590e-01
3.872444799661821091e-01,-4.708866080577052138e-01,3.222403375089186173e-01,8.762902355775663635e-03,-1.640945575577262144e-02,2.216229172502413077e-03,8.281819224357604980e-01
2.299306162719553515e-01,-4.461728333916443745e-01,3.977878924723163290e-01,9.219076099215665074e-04,1.243618779692828510e-02,3.310338555680028376e-03,7.741318941116333008e-01
3.485451181377777763e-01,-3.733592367750322438e-01,3.809715226515365538e-01,-3.022044605059279535e-02,-1.442529958864694362e-03,-2.712661169291944504e-03,7.405229806900024414e-01
3.668506320232927109e-01,-4.642737243289649651e-01,3.624264719641889232e-01,9.269806380202107871e-03,2.677315157303634518e-03,9.276324065234606579e-05,8.290895819664001465e-01
3.616039434700352162e-01,-4.119295685807169427e-01,3.602791691184067391e-01,-2.979759221280078169e-02,2.004722705227168777e-03,-3.341433789561677747e-02,7.767601609230041504e-01
3.600648343568308429e-01,-4.280789295288769392e-01,3.628438950095942417e-01,-4.500564807153372218e-03,-1.279246260020708639e-02,5.302226248411879769e-03,7.899396419525146484e-01
3.419511873693986126e-01,-4.658329346898227863e-01,3.661242132320474130e-01,2.345495955185569921e-03,1.354333787449188420e-03,1.004475804964538241e-02,8.203358054161071777e-01
3.695563341896357934e-01,-4.829867258506460592e-01,3.588282568136836326e-01,3.029472106977011345e-02,-5.096383280448365388e-03,2.614383498560649347e-02,8.501060605049133301e-01
3.679351252058323252e-01,-4.458849432956664138e-01,2.774736464139564429e-01,4.372137873963986149e-03,1.236918278418186815e-02,1.926036947541365143e-03,7.729129791259765625e-01
3.610234132785252736e-01,-4.441375276963428487e-01,3.723094564146514074e-01,-9.020428272895737731e-03,5.158306718679461084e-03,-5.001316776840011163e-03,8.111088275909423828e-01
4.202514653898394292e-01,-4.728229471615357227e-01,2.621504866037111525e-01,-1.883973882548147655e-02,-1.374835943799936760e-02,-2.879515092378864480e-02,8.279500007629394531e-01
3.249590600225367165e-01,-4.685453678178369552e-01,3.781142583741425867e-01,5.353027133407219952e-03,3.799357212163362134e-03,4.010169956251066238e-03,8.214810490608215332e-01
2.913368503513399377e-01,-4.586337641215936234e-01,3.694000578930818901e-01,3.410174907928810017e-03,1.056450498833480349e-02,7.938837559560997167e-03,7.922459840774536133e-01
3.649616989493236763e-01,-4.644961882861715630e-01,3.664113025304336912e-01,-8.446785176731724798e-03,5.337584691522159232e-03,9.358250525414229734e-03,8.305221796035766602e-01
3.556498802986382546e-01,-4.272355402009940795e-01,3.639223664771066291e-01,-1.149386282114283611e-03,4.984154604203335989e-03,1.995235977392453147e-02,7.878624200820922852e-01
3.580690624730579197e-01,-4.432173687206201196e-01,3.765949634413837122e-01,1.207844425584932331e-02,1.164466716989143863e-02,4.312655615375549437e-03,8.112632036209106445e-01
2.720535007635355162e-01,-4.468196659245746716e-01,3.711310933642759657e-01,-2.102373215350412949e-04,1.098142570075227344e-02,5.251693451718279088e-03,7.734751701354980469e-01
3.651794816483348027e-01,-4.078911139854204393e-01,3.609577632433207395e-01,1.944810796098066230e-02,5.184608035969867981e-03,5.350528964725651676e-02,7.773004770278930664e-01
3.584288869724189253e-01,-4.459456738468287051e-01,3.625071971427477613e-01,-4.605292859975836615e-03,-2.946455667805460837e-03,1.694612198909341760e-03,8.064823746681213379e-01
3.682069301284820462e-01,-4.679540180193897392e-01,3.427216747503761818e-01,-9.528269013877228161e-03,-1.001466985565142159e-02,-1.232541722998907810e-02,8.243384361267089844e-01
3.666476643773644573e-01,-4.730728446902475737e-01,3.675278213615569833e-01,-2.425632441683796899e-04,-4.849285629588561894e-03,-1.826853782986353515e-03,8.402090072631835938e-01
2.926053006485178631e-01,-4.511820442363246864e-01,3.693255261533339717e-01,-1.201598255019424534e-03,1.027938875253097371e-02,-9.189793676606208481e-03,7.853304147720336914e-01
3.611435088163644225e-01,-4.454499482072231675e-01,3.839832938211450997e-01,-9.711898973329476104e-03,9.673948797355167925e-03,-7.049880734109451735e-03,8.186879158020019531e-01
3.685909068784136711e-01,-4.637006273777897203e-01,3.721064998676500979e-01,-2.804420061561645541e-02,-7.955335520297324332e-04,2.875796013580453336e-02,8.369527459144592285e-01
3.612222059362076299e-01,-4.579263394492105732e-01,3.635896054322007021e-01,2.075180505002882647e-04,-3.192862261337010496e-03,-2.702622640326821958e-03,8.203668594360351562e-01
1.482835066016066627e-01,-5.021209470666391228e-01,4.656019264759646004e-01,6.339058176773918266e-03,-9.489047938745972036e-03,-9.483781852696387613e-04,8.546903729438781738e-01
1.892294827371738264e-01,-4.611783139479025406e-01,4.469028102835262417e-01,8.973129974814808563e-03,-1.982338769178969371e-03,-2.629423632047385873e-04,8.107232451438903809e-01
1.555265689155272413e-01,-4.910592840841194739e-01,4.817082656396101115e-01,7.239107796967309688e-03,2.652503322541054781e-02,1.457229946691942363e-02,8.592305779457092285e-01
2.149143618677032963e-01,-4.590930536645523308e-01,4.407167126837568949e-01,-8.400561404812403182e-03,-3.541044713311201908e-03,-2.657208319545106400e-03,8.110090494155883789e-01
2.100239090390638996e-01,-4.667497287876488654e-01,4.383177571213134338e-01,5.336865605342131121e-03,1.126293826423697270e-02,2.735225055810400121e-03,8.155564665794372559e-01
3.697907138304864505e-01,-3.766377651062739473e-01,3.424038589100916186e-01,-1.610927203196215601e-02,6.937871271394009665e-04,-6.636167280449150555e-04,7.336514592170715332e-01
3.406769235864625101e-01,-4.678941140797548970e-01,3.650453982209651560e-01,9.449477840788488492e-04,3.157301051641817069e-03,-1.002172691936527651e-02,8.212298750877380371e-01
2.228027407926816417e-01,-4.557075816873156215e-01,4.008679894412208733e-01,-9.740599890316831502e-03,6.105482647769296112e-02,1.048169923675297890e-02,7.903795838356018066e-01
2.165389886246029960e-01,-4.564810644487153901e-01,4.233498448399839464e-01,-2.796756806147638295e-03,1.992866844926624581e-02,-2.185107954164105734e-03,7.975862622261047363e-01
2.208962155978407560e-01,-4.607402824723917378e-01,4.348351669212254245e-01,-4.019409450552660981e-03,1.361419528235582183e-02,-2.691709472353781877e-04,8.104514479637145996e-01
3.374963259093068935e-01,-4.658819377797298600e-01,3.676645080523194831e-01,-2.122851057575867069e-03,-1.792023769708338092e-03,1.052826040917183813e-02,8.190963864326477051e-01
2.106114833872689829e-01,-4.618543528240750540e-01,4.266805414426950160e-01,-6.025162965280910464e-03,1.068929048960680708e-03,-2.191423889899616305e-03,8.026966452598571777e-01
1.479898630162438389e-01,-4.991838825141987623e-01,5.246030084563595430e-01,1.558564053426341606e-02,-1.840386370519769832e-02,-1.927653292598236964e-03,8.978649377822875977e-01
3.233388934039742035e-01,-4.469484448444107638e-01,3.154093618259015686e-01,-3.344018179631465769e-03,-2.886276133457860160e-02,-4.459568535282350255e-03,7.680428624153137207e-01
3.151821360539489580e-01,-4.500055398815375751e-01,3.453424520497467842e-01,1.509806969780951025e-02,-3.257949852170009819e-02,3.945023589252666385e-03,7.832081317901611328e-01
2.828292946686660203e-01,-4.553630338952913137e-01,3.811570909625708881e-01,7.135410714508864417e-03,-4.613024732674879391e-02,4.905269724719181230e-04,7.960644364356994629e-01
3.168314252081566584e-01,-4.216882945330145960e-01,3.745248808993549838e-01,-8.767850834527659426e-03,-7.492134947842343795e-03,-1.118632117716768931e-02,7.694947123527526855e-01
3.716190537012767914e-01,-4.698723135337670165e-01,3.662283495163277114e-01,-2.764663393298351021e-03,-8.766786654830676165e-03,2.559176732389054163e-03,8.389717936515808105e-01
2.638480506384978108e-01,-4.485700152341404179e-01,3.813789435748670686e-01,-5.853804786290056281e-03,-6.292292345753486282e-02,6.490538901673239235e-03,7.856152057647705078e-01
3.327863693708972836e-01,-4.577629646919620932e-01,3.517928803868029530e-01,1.693984544254857963e-02,-1.965655855873182228e-02,1.830751126583876967e-02,8.021100759506225586e-01
3.104385188313037447e-01,-4.976227588456487716e-01,2.883113076908504491e-01,1.280525056408038029e-02,-1.234967294925261305e-01,3.040899778122527555e-02,8.274012804031372070e-01
3.661541305337591146e-01,-4.579177130860651035e-01,3.808052189922919717e-01,-3.893171365724071992e-02,-8.398761814335641701e-03,1.309420226402100221e-02,8.346589803695678711e-01
3.493064891742175271e-01,-4.580068928228551162e-01,3.423743467689782660e-01,6.094109164344717854e-03,1.941781359663179163e-02,-4.512991987825587005e-03,8.046801686286926270e-01
3.609374451168471110e-01,-4.669649373798601122e-01,3.701331577626283953e-01,-7.601392595239372767e-03,2.199782058402074796e-03,2.744587214653034651e-02,8.340070247650146484e-01
3.793007880332023296e-01,-4.655804977408974921e-01,2.895108307176462725e-01,1.000020104234492294e-02,2.714851300809363599e-02,-1.973610981112636567e-02,8.060424327850341797e-01
3.759902499904264062e-01,-4.681579238185057390e-01,3.633023140572041454e-01,2.815770807062228671e-03,2.054587963072045803e-03,-2.955634808648054286e-03,8.379136323928833008e-01
3.754002171824118439e-01,-4.612977506821752671e-01,3.379900635858096303e-01,5.622385818377714263e-03,2.665892444014861945e-02,-1.239701848234363649e-02,8.202743530273437500e-01
5.851954697662394844e-01,-3.558703109661003894e-01,1.849725131140013967e-01,1.025776181522071104e-02,-7.921339311630114233e-02,1.284112789706871038e-01,8.589268922805786133e-01
3.613365438369962046e-01,-4.062255417473613628e-01,3.655325361255962746e-01,1.194710727579745887e-03,6.498802893183926177e-02,2.438706556916564808e-02,7.790049314498901367e-01
3.670063327887525539e-01,-4.701061759633196058e-01,3.725368472753715632e-01,4.568089353767052115e-03,1.057082516451586561e-03,4.110662364571912759e-03,8.399608731269836426e-01
4.315439254693425042e-01,-4.591510665302852567e-01,2.020510414690773748e-01,-5.923653691921094283e-03,-8.751181391139310414e-03,2.220150256977881844e-03,8.012154698371887207e-01
2.898978764125865193e-01,-4.541911215505719523e-01,3.686952941360833735e-01,-1.025833772129324840e-02,-9.372300779688908998e-03,-1.512315788869539844e-02,7.872579693794250488e-01
2.296427482060020009e-01,-4.474312676710701098e-01,4.014458909582049873e-01,6.543070398479299910e-04,1.321684685669621481e-02,4.682499315663248701e-03,7.777275443077087402e-01
4.602433610480967108e-01,-4.700500681940669168e-01,1.730316436107393052e-01,-4.534166009612448922e-03,-1.486162013037056751e-02,-1.234801442913439039e-02,8.257886767387390137e-01
4.184646729519232444e-01,-4.469724523340498079e-01,2.149444328288438455e-01,-6.577877078449028726e-04,-1.855624892736398163e-02,1.885139269329544646e-03,7.844188213348388672e-01
3.582491687972924055e-01,-3.427452054505428780e-01,3.342865635819347592e-01,-1.640031350875693645e-03,3.915994129214604193e-03,8.861090075356317826e-04,6.893664598464965820e-01
4.214377886621842317e-01,-4.584678889863361695e-01,2.261982365726854793e-01,-2.532468231072797140e-03,-6.168020731392883510e-03,-1.558588981123090397e-02,8.008884191513061523e-01
4.432591739717412493e-01,-4.693888966759102166e-01,2.165883274083738042e-01,-1.174805238983874910e-03,-4.044212172278368808e-03,-1.110338849947748764e-02,8.233216404914855957e-01
3.552894157449301149e-01,-4.696577322687457423e-01,3.322064842869134060e-01,-6.886615091946418805e-03,2.048543516792106570e-02,3.270968479190977229e-03,8.145316243171691895e-01
2.854088413517374967e-01,-4.659156896733344100e-01,3.897125345155919018e-01,4.913638541285715589e-03,9.073438730626132154e-03,5.024348701135635323e-03,8.087823390960693359e-01
5.227220547710652587e-01,-7.400944885874305434e-02,4.338705523783652485e-01,-1.024770062442117123e-02,8.760844626211473571e-03,1.389742644560364171e-02,5.586477518081665039e-01
3.636246902311571771e-01,-4.822704529974968235e-01,3.232962145988114155e-01,-9.387276980672056969e-04,1.013060502161373111e-01,-1.606394554035229507e-03,8.448967337608337402e-01
3.130480650686521260e-01,-4.591648556035613504e-01,3.742979890304437562e-01,-9.676563059749829221e-03,2.632127189764900399e-02,1.572939177359386487e-02,8.065134286880493164e-01
3.655817107494352403e-01,-4.581952093683586691e-01,3.789098860597862606e-01,-2.563553948913249725e-03,-5.077624807034991769e-04,1.126270999510142583e-02,8.307626247406005859e-01
3.387813794356198116e-01,-4.697779776370980542e-01,3.783325320633709188e-01,-1.233105843033578328e-02,1.306589091219717634e-05,-8.305628821217483568e-03,8.294426202774047852e-01
2.735166901109509774e-01,-4.598542766277935456e-01,3.819572570628791408e-01,-2.581815548764736234e-03,4.956399007688025438e-02,9.248871053137002265e-03,7.979761362075805664e-01
2.311851474669917306e-01,-4.754064702831887201e-01,4.518251555379676487e-01,8.643876416697953910e-03,2.539742070334757157e-02,-3.520547216149479564e-03,8.402693271636962891e-01
2.384503619404600983e-01,-4.496660258189518755e-01,4.003945996560823173e-01,-6.443948333428595188e-04,1.331568292148284371e-02,-4.229690981919200822e-03,7.821466922760009766e-01
3.370053553401880508e-01,-4.707885192483555192e-01,3.448288851989207426e-01,-1.576359299914818421e-02,7.108341014465718866e-02,1.418548384823381178e-02,8.218392133712768555e-01
2.070617658378692827e-01,-4.511244822962915402e-01,4.299608895887123139e-01,-4.271991260917696459e-03,5.608237578722896285e-03,-5.247782578527638084e-06,7.935687899589538574e-01
3.694826916526393612e-01,-2.773720565050323827e-01,3.198934693784877825e-01,-1.357371377616689925e-02,2.006917343556395561e-02,3.987159439617360412e-02,6.287554502487182617e-01
2.854997573756192786e-01,-4.535479231284613721e-01,3.478433321258806443e-01,-5.434524575769233978e-03,5.692596467651894754e-02,4.567100201041910702e-03,7.784766554832458496e-01
2.640974683712067339e-01,-5.154592219901740213e-01,4.013828679363498075e-01,-3.021244200211078978e-02,6.787433420411509433e-02,2.496763377805437389e-02,8.671833276748657227e-01
3.581404411684860345e-01,-4.487643875820115369e-01,3.336899607067339013e-01,5.540923854343526161e-03,-5.512184998413618975e-02,3.699418543432369307e-03,8.007574081420898438e-01
7.465833180395345381e-02,-5.227880595192795354e-01,5.080570156155421735e-01,6.114323120464381159e-03,-5.395831641247333943e-02,-8.199786787490535162e-03,9.015306234359741211e-01
3.670944255406971002e-01,-4.698423949618025786e-01,3.689024102467167721e-01,2.470566567669824770e-03,-4.833909996338041533e-03,-1.636579105900398245e-03,8.378998041152954102e-01
3.740305932205795214e-01,-4.537116481936371848e-01,3.624661080315123574e-01,5.419880642623778159e-03,-8.741774992706773453e-03,-3.859056914832351397e-03,8.222411870956420898e-01
3.672753995345217071e-01,-4.654625728821977226e-01,3.647304634274220470e-01,-5.398117665009897863e-03,-1.088001719627287997e-03,-5.250274664346838045e-03,8.315728306770324707e-01
3.346708494552529944e-01,-4.500739947171783495e-01,3.356271144158560205e-01,-4.582032415096276567e-02,-1.391309613875528761e-01,-2.206351534188989976e-03,8.252037167549133301e-01
2.850733657233094354e-01,-4.641278798309842468e-01,3.347496646052469105e-01,-1.248985959034074576e-02,-1.131120997738108147e-01,-1.518805761095480891e-02,8.003317117691040039e-01
3.656300306033350433e-01,-4.688385232922960277e-01,3.657047877353319376e-01,-4.585725052313031208e-03,-1.158940577410135344e-03,-6.057766145085990116e-03,8.346121311187744141e-01
3.312582967996036132e-01,-4.611752323963962397e-01,3.375175954402982459e-01,-5.849025603015404855e-03,-2.679363683479904501e-02,-7.893945575395876213e-03,7.971156835556030273e-01
3.228856457562804261e-01,-4.582069683340670441e-01,3.577270136181425753e-01,-5.740340154905725426e-03,-2.390788027345853994e-02,-1.496952696796319780e-02,8.006371259689331055e-01
3.667195076415879496e-01,-4.680488318418040139e-01,3.696833435252864231e-01,1.457653516131412292e-03,-6.984516835223173251e-03,3.328435021584153657e-04,8.363457322120666504e-01
3.626093253965935181e-01,-4.426772171670563250e-01,3.660513354573520228e-01,1.394706180392952383e-02,2.009654365181573390e-03,4.965612386086311900e-04,8.073824644088745117e-01
3.614734444532208268e-01,-4.684180649904006177e-01,3.643832718365866974e-01,9.085600717607908092e-03,-2.100285819835400868e-03,-1.154369327788648363e-02,8.317474722862243652e-01
3.487388455264468501e-01,-4.678908978644562566e-01,3.532357625872555862e-01,-6.104341303547128512e-03,-5.581489289261975725e-03,-3.737441480956357406e-03,8.190383315086364746e-01
3.476983283846469819e-01,-4.646954451843624545e-01,3.139473616411224688e-01,-1.865410157010896630e-02,-6.015642420957079128e-02,-2.471383090376622071e-02,8.046342730522155762e-01
3.365333884135743858e-01,-4.643799770538261651e-01,3.582838667091680640e-01,4.475880860473943623e-03,-1.391657471068524776e-02,-7.446816423486623572e-03,8.125041723251342773e-01
3.465330232106508812e-01,-4.891568725281385532e-01,3.548149581426449650e-01,-1.971430363605421524e-02,-5.129243324868920650e-02,-5.212167120082277644e-03,8.452854752540588379e-01
3.637866533727666662e-01,-4.681452407604397292e-01,3.606733816432362016e-01,-2.792160296405502050e-04,2.134996743867147682e-03,-2.547759356109235117e-03,8.303997516632080078e-01
3.461264243295044674e-01,-4.682427856277997513e-01,3.605522369904029523e-01,-5.133820048499448258e-03,-6.352065881089524746e-03,-6.643017215956148122e-03,8.218793869018554688e-01
3.556307109547628409e-01,-4.651886377470422218e-01,3.353538471490826733e-01,-1.144225541270229955e-02,-1.905327031879619493e-02,-1.236299205225210515e-02,8.120666742324829102e-01
4.872921816167424813e-01,-5.574447794163677194e-01,1.992529624360440121e-01,3.871285983186426721e-02,-1.195076108034487938e-01,2.575922282172884992e-02,9.606506228446960449e-01
4.662015982427442640e-01,-4.997822327787199148e-01,1.696996556119449440e-01,-1.048913389972324500e-02,-1.048943293255754083e-01,-3.855733616337478353e-02,8.788745999336242676e-01
3.813931738116914105e-01,-5.273658341739351219e-01,1.355666251158816060e-01,2.542244928831847300e-02,-2.532063812789260293e-01,3.803866966001178546e-02,9.281684756278991699e-01
5.882470604373509770e-01,-6.044909576268894247e-01,2.032069255091810411e-02,3.163357122908365664e-03,-7.354151762331520570e-02,1.046281217857229356e-01,1.056822180747985840e+00
4.301837249865247959e-01,-5.054020998806724174e-01,1.732394265951547607e-01,9.264701760524237523e-03,-9.944281629175816262e-02,3.559629740615648935e-02,8.571307659149169922e-01
5.000406017161613814e-01,-5.559065783992787058e-01,1.745746047379707344e-01,2.793249751360401406e-02,-6.279010402803959778e-02,3.051352699636377883e-02,9.456422924995422363e-01
3.613785543381045628e-01,-3.683493330293597934e-01,3.511487110822094637e-01,3.377631308232478119e-02,-1.479542244422441845e-03,-6.422308985930709306e-03,7.271143198013305664e-01
3.564851201267437708e-01,-3.505207744244158152e-01,3.547432060864704750e-01,8.586552754917514685e-02,-3.471862439755920952e-03,-3.603059304147412933e-02,7.243467569351196289e-01
3.284746596813116204e-01,-2.349735643528612083e-01,3.317785884651091033e-01,7.413957839536594596e-02,1.403585724127481144e-02,-1.390785134762248867e-02,5.805236697196960449e-01
1.497365634559517100e-01,-4.593204441612005473e-01,4.697448444147982460e-01,1.360600693330591554e-02,4.655746913530348086e-02,-4.687895739071566183e-03,8.218169808387756348e-01
6.185114303002503533e-02,-6.303307763392987928e-01,6.470101412664192031e-01,5.702859977454385887e-02,1.239424025927336193e-01,5.569024525602414566e-02,1.136533975601196289e+00
3.254701897541544819e-01,-4.670309936441874310e-01,3.808615854891798658e-01,8.706142402840013131e-03,7.557321494181023017e-05,-7.524910726818194277e-03,8.218402266502380371e-01
1.534720639506369222e-01,-9.425769950364322192e-01,6.114199891374910711e-01,-5.358643249086995214e-02,1.718212521726559805e-01,-6.231285081007474635e-02,1.421901583671569824e+00
5.793589009204348772e-02,-5.566757831671022005e-01,4.799515952405526420e-01,1.043735870431019286e-01,1.706352123299358925e-01,-6.692621379329848075e-04,9.670845866203308105e-01
2.021792666605568278e-01,-5.445609326067849532e-01,3.982404774044915330e-01,4.611542838321282776e-03,2.421611701278867379e-01,2.204594311191178119e-03,9.583695530891418457e-01
3.255424267514655523e-01,-4.657306261124218860e-01,3.797550247379076205e-01,1.058666964144987233e-02,3.194871159797959756e-03,-4.837858315652238290e-04,8.199491500854492188e-01
3.682935016493919522e-01,-4.671025134226934883e-01,3.650757263999248048e-01,6.641674576634313404e-03,1.158593379759726132e-03,-5.509435820337223524e-03,8.339281678199768066e-01
2.512348913121497107e-01,-5.267763001815255475e-01,3.898731609534409337e-01,3.531723140497274038e-02,1.749646594634328145e-01,-2.446461079544181433e-02,9.109113216400146484e-01
3.314054347576180781e-01,-4.415535712743460239e-01,3.931262571759673308e-01,3.634560277421760438e-02,7.554836378304216615e-03,1.946527175848776145e-02,8.088594675064086914e-01
2.089505496566185783e-01,-5.659175927556123753e-01,4.776630267397014018e-01,7.012564427978038029e-02,2.416902227290038674e-01,-1.781957765608122718e-02,1.035273671150207520e+00
2.132782668977421248e-01,-5.452183454948418273e-01,3.985614149960115538e-01,6.385438040778346203e-02,2.148217387169633064e-01,-4.217326433724718007e-03,9.491650462150573730e-01
3.643644736101774306e-01,-4.670277944448181229e-01,3.698529786006722886e-01,2.948682349636170923e-03,2.153853669352070142e-03,-2.760768048294455056e-03,8.341877460479736328e-01
2.765525202055006959e-01,-4.641803863431740451e-01,4.021815898712038928e-01,7.919097108994212902e-03,4.392947813135750050e-03,-2.069638550998170647e-03,8.110390901565551758e-01
4.892940476587057663e-01,-1.984794590409031945e-01,2.473263826359701767e-01,3.860315129174634458e-02,4.324537505298391149e-02,-3.831575031299395973e-02,6.161551475524902344e-01
3.731695196761343758e-01,-1.282514576524205752e-01,2.767923579039669457e-01,3.419442430607109312e-02,7.389024711266052592e-02,1.469592826429865287e-02,4.826189279556274414e-01
3.640057923743296731e-01,-4.275561486393716359e-01,3.654690626705343615e-01,-4.155595088816666470e-03,-1.704608717122053224e-02,5.043507699850492687e-03,7.929252982139587402e-01
4.019013431913505130e-01,-8.004485737643274312e-02,5.244002469437454295e-01,-1.617510709132870608e-02,6.824897461392440221e-04,2.579965894749541508e-02,5.559668540954589844e-01
3.397762545972629056e-01,-2.604667488650159735e-01,3.308940867359274063e-01,8.479843773349989011e-02,-6.106725265587718832e-03,-7.861881026595671229e-03,6.139289140701293945e-01
3.225260565311647287e-01,-4.662040583779406555e-01,3.749104322201513573e-01,7.968698412365976189e-03,-1.958369668200702837e-02,3.677326649693582646e-03,8.170300126075744629e-01
3.695234774293485458e-01,-2.347306236715621663e-01,3.472301711225014298e-01,1.064801929193768676e-01,-2.166675538415802765e-02,-3.319498245165286576e-02,6.252018213272094727e-01
3.967755753927217355e-01,-2.643454289974392357e-01,3.260929956169243971e-01,-3.163908439569800696e-03,3.367695386187851553e-02,-7.808662072022887202e-02,6.458113193511962891e-01
3.374288379500116619e-01,-2.196156422930685692e-01,3.338612665914446609e-01,2.767255566324641411e-02,2.003498809285781876e-03,-6.862421417986491745e-02,5.698782205581665039e-01
5.337446402839149950e-01,-8.884961710260136369e-02,3.097915873814997001e-01,-5.115013425800173617e-03,-4.316159144000727976e-03,-2.025354455028774772e-02,5.474593043327331543e-01
2.242805795280756187e-01,-4.624010005706979953e-01,3.513566845194376342e-01,-4.292674707099251342e-03,1.157099435102268703e-01,4.858830194769954251e-03,7.843680381774902344e-01
3.417094614067859859e-01,-4.552919368940422373e-01,2.854804897276743136e-01,2.235316440614706392e-03,6.550898404151879462e-02,4.710807421370997138e-03,7.787902355194091797e-01
1.914772792900385212e-01,-4.527625977052239792e-01,4.298751398192157680e-01,1.837906650246804363e-03,9.490836325088687631e-03,-6.794239069809834440e-04,7.910408973693847656e-01
2.879919507904377673e-01,-4.541474666470459720e-01,3.380011731401811881e-01,-5.432049287940422799e-03,6.684228187023139034e-02,-2.772276501496293444e-03,7.771106362342834473e-01
3.439818402539104314e-01,-4.581033081813311592e-01,3.350391221968158639e-01,-5.565165582809234422e-03,1.577853466963872325e-02,5.376970145881601083e-03,7.982319593429565430e-01
4.702692756916346251e-02,-4.060890852767927717e-01,6.029684709555142019e-01,-3.863902118857950180e-02,-2.943155939755669886e-02,-5.652104565592515339e-02,8.848460912704467773e-01
3.794820553227260529e-01,-4.636286213734805983e-01,2.676364064973784651e-01,1.399579527978314121e-02,-2.537634220672986551e-02,2.060927521693644432e-02,7.955127358436584473e-01
3.582432012141240074e-01,-4.828313566480539887e-01,3.595901599425275763e-01,-1.349623009633721220e-02,1.422558436062237516e-02,1.440375105644745544e-02,8.428031206130981445e-01
2.119502873132355081e-01,-4.505067700119016472e-01,4.313564441292963569e-01,-1.742313920321679000e-03,-5.815864532911685716e-03,3.851575890655732637e-03,7.952927947044372559e-01
2.918445133946163672e-01,-4.699675786187630377e-01,3.262299502204242807e-01,1.727943213181633991e-02,1.469818305432594729e-01,-1.533541167551438246e-03,8.206394314765930176e-01
3.131421115153921186e-01,-4.469808424781372969e-01,3.193743801038568253e-01,3.129091082525779690e-03,3.534101462948592565e-02,-2.966640600285448508e-03,7.657452225685119629e-01
2.777824274421895612e-01,-4.637817350841916264e-01,3.905859621805730653e-01,-3.730574979437938261e-03,-1.009469032760932500e-02,1.614391465376549322e-03,8.041445016860961914e-01
3.032437040494394553e-01,-4.424139936399604789e-01,3.125595174883320504e-01,-6.249807098221176437e-03,4.625126035862019147e-02,5.310116830677649204e-03,7.547568678855895996e-01
3.018313453904752919e-01,-4.705569578749981829e-01,3.610223341518228324e-01,-2.495663872171796985e-02,6.692606791380772968e-02,2.768847179181810336e-02,8.145007491111755371e-01
3.692939632167583919e-01,-4.612765362914473810e-01,2.725852270783202247e-01,-1.148828984341744575e-02,6.319107306181769024e-02,1.799821099220178314e-02,7.951248884201049805e-01
3.165523071930674837e-01,-4.665726068786719694e-01,3.834972305280697213e-01,-9.385384989935562430e-03,-1.359880047196368108e-05,-1.268938677436876397e-03,8.188171982765197754e-01
3.806102154416764471e-01,-4.565787820950489850e-01,3.591614530559253948e-01,-8.534956271779503209e-03,-3.623785800940305425e-03,-1.962100690891431347e-03,8.268362879753112793e-01
3.795491057719703742e-01,-4.737864669506767212e-01,3.900655338038918618e-01,-9.993784261249094580e-02,2.125700785249830527e-01,6.922449205295325148e-02,9.576863646507263184e-01
3.750855903464642149e-01,-4.632527705980399313e-01,3.615808805332291209e-01,-1.313675226998741027e-03,1.378574491713559225e-03,1.749630058474830512e-03,8.316802978515625000e-01
3.448326811953623672e-01,-4.218116563655494033e-01,3.335015205057947352e-01,1.278426242214079044e-02,2.533064770445225128e-02,-9.323475089457933587e-03,7.627981305122375488e-01
3.952972020692268051e-01,-4.635812482058754291e-01,3.260310449223838836e-01,6.793704459319311988e-03,-1.593979480919570802e-03,6.929101994892180802e-03,8.266007900238037109e-01
3.413488278265135456e-01,-4.661534369467714711e-01,3.044573224907582976e-01,-9.156822693125612686e-03,9.334986683350621206e-02,7.174528925411542864e-03,8.063370585441589355e-01
3.827810242156798326e-01,-4.599138393811229575e-01,3.595372073019507120e-01,2.565497086848201290e-03,5.446536829340847818e-03,2.108278829603678177e-03,8.313901424407958984e-01
3.791359758554166404e-01,-4.612781708599781316e-01,3.594080035870748646e-01,-3.683893805352359604e-03,-3.459517516741334679e-04,-5.665411103624907888e-04,8.307511806488037109e-01
3.695968278241929528e-01,-4.649158733504621388e-01,3.608214426299062860e-01,9.384895867331155550e-03,-3.778537099438566971e-03,1.503260441557707251e-02,8.307528495788574219e-01
3.632204304464303757e-01,-4.576740914913751679e-01,3.740331559888792068e-01,3.548324380504810005e-04,-1.860525696694052735e-03,6.498273703302012488e-04,8.263612389564514160e-01
3.056080725891258121e-01,-4.406982468500881822e-01,3.275696932886967838e-01,-6.723354710451914275e-03,8.330030996349013783e-02,-1.295057862788046368e-02,7.715575695037841797e-01
3.528085553284371345e-01,-4.550739529115811477e-01,3.212332490166200927e-01,1.020934594923615484e-02,6.032760778345752292e-03,2.634931832601770729e-05,7.928328514099121094e-01
2.913120573521924550e-01,-4.683724616422372256e-01,3.897187906154752635e-01,-1.904157448049923970e-02,-7.252967981304319842e-03,-5.995412113997519200e-03,8.141964673995971680e-01
3.741449403524329531e-01,-4.526244378108950084e-01,3.230754956613492435e-01,6.560678312607069046e-03,9.897986027739268458e-03,1.369139884933377217e-02,8.030681610107421875e-01
3.238745714877969140e-01,-4.768668947398313485e-01,3.622345194855952633e-01,2.231427887109426259e-02,2.261501191061764809e-02,-1.351674933272944447e-02,8.227702975273132324e-01
3.609454472003703618e-01,-4.662176878572856786e-01,3.663603323586577809e-01,-4.107363365340532292e-03,3.670210543656858169e-04,3.185940170397981702e-03,8.299329280853271484e-01
3.063833234489005686e-01,-4.721133062793589907e-01,3.866535910689111732e-01,2.829238245330842338e-02,-3.494985466396136747e-02,1.449198323997772340e-02,8.256430029869079590e-01
3.705439123898523479e-01,-4.545192907113210223e-01,3.615611890181971710e-01,5.643623773088802566e-03,-7.635529512937900762e-03,-1.315639609060671863e-03,8.207766413688659668e-01
3.903583879965018544e-01,-3.959956066432896993e-01,3.618649588367213177e-01,-3.244055625505515988e-02,6.228601498566866887e-03,5.048793734607977257e-02,7.795377969741821289e-01
3.582524617491059660e-01,-4.718509986625434305e-01,3.591423530769988770e-01,3.174144154292642735e-03,7.457169566026042046e-04,2.955656637537264816e-04,8.305681347846984863e-01
3.348729524037094007e-01,-4.417252669213731497e-01,4.055436994465723144e-01,-2.516037315866227406e-02,1.421628196947287079e-02,1.943271277189813698e-02,8.164681792259216309e-01
3.501115914882271807e-01,-4.751020482016474755e-01,3.592662427391272173e-01,1.307270108005138994e-02,1.237876934975667975e-02,-1.346930162542394477e-02,8.307421803474426270e-01
3.792975897353277337e-01,-4.609729592081777128e-01,3.627349210814533875e-01,3.927829031047257516e-03,5.350771218638848822e-04,5.790614931513316920e-04,8.321417570114135742e-01
3.718730798176935748e-01,-4.372420848361009416e-01,3.551934180127933605e-01,-4.476266459745458946e-04,-1.134763269685754375e-02,6.071173769079473738e-03,8.012161254882812500e-01
3.610343825388798722e-01,-4.929634327741841959e-01,3.913361120348030631e-01,5.341492178217682567e-03,1.764396385014803045e-02,-7.217273695195246599e-03,8.702206015586853027e-01
3.236325370863331052e-01,-4.533839830564023732e-01,3.547011833056469832e-01,4.680572550045744226e-03,2.541665200107601913e-02,-6.120860378002077225e-03,7.943405508995056152e-01
3.874615693938073813e-01,-3.695424410963745743e-01,4.005866350755522554e-01,3.974465893060716293e-02,-7.841552687120832352e-03,5.260744030349370770e-02,7.722623348236083984e-01
4.079405651005189037e-01,-4.442646951477589035e-01,3.694322134052616113e-01,3.292580803128569711e-02,-6.710020329065911893e-02,6.832410543614272913e-02,8.518707752227783203e-01
3.919668397349360123e-01,-4.657512447753665574e-01,3.140708422861006044e-01,-1.891024661473886606e-02,-3.293001581547194689e-02,-1.327901771997553465e-02,8.244939446449279785e-01
3.740806850994464750e-01,-4.670469586633566594e-01,3.445432923545240778e-01,-3.122260222564426924e-03,-9.034834747687640801e-04,-7.804361060714656232e-05,8.267739415168762207e-01
3.700680420009717086e-01,-4.619440438061280796e-01,3.480172878631226929e-01,-5.701563767034326449e-03,-2.279476565683663004e-03,1.392958021666947880e-03,8.212811946868896484e-01
3.269477468202204307e-01,-4.507293094566128255e-01,3.668412401847899740e-01,-1.596691822388372761e-02,-1.247356028553430266e-02,-1.792279302929526696e-02,7.997453212738037109e-01
3.953596951252362213e-01,-4.698816221273462990e-01,2.959858585553046262e-01,-2.120072167848666145e-02,-2.861849298889626581e-02,-4.175700978053667467e-02,8.255735635757446289e-01
4.076864422011716727e-01,-4.644367111570093520e-01,2.474305744600215629e-01,-1.726859739286048905e-03,9.388949928644340845e-03,7.079856984411482708e-03,8.043268322944641113e-01
3.394872341573434982e-01,-4.658069732876509716e-01,3.657768781720605600e-01,9.249446918994173438e-04,-2.420895001544583203e-03,-1.043745695244118962e-02,8.189675211906433105e-01
3.681891820506212332e-01,-4.762472907351682494e-01,3.664714132514503842e-01,3.987561694605825584e-04,1.337112116118017004e-03,-1.499139520903940235e-03,8.435863852500915527e-01
3.597329885873822852e-01,-4.433731001910952152e-01,3.795787541555633027e-01,-6.955614322550715024e-03,-2.382040111126389539e-03,1.695819245855373705e-02,8.138405084609985352e-01
3.513578536763145577e-01,-4.636929883780605000e-01,3.428428408087142998e-01,-1.118174244963103829e-03,-3.011848318466554472e-03,-6.518139193346240111e-03,8.109245300292968750e-01
2.858235164154091512e-01,-4.692004673876113419e-01,4.127350828077389067e-01,-1.780208576547502239e-02,4.624416014322303660e-04,-7.475447085626129098e-03,8.265035152435302734e-01
3.539715083511635330e-01,-3.459630889708211199e-01,3.926444187780124273e-01,2.966133716447933236e-02,1.053621669417842063e-02,6.042013464662293609e-02,7.296552062034606934e-01
3.604413503260186502e-01,-3.417184263857180326e-01,3.467908771107398591e-01,2.630343038115906876e-02,3.496441190849484092e-03,7.394448933354269560e-02,7.086222767829895020e-01
3.251099612126809868e-01,-4.377203397195770229e-01,3.564195508292682946e-01,-1.502421699790002126e-02,5.269697722869252920e-02,7.526742218390764134e-03,7.848262786865234375e-01
2.985727984190322259e-01,-3.969970433814112853e-02,2.942190825548698929e-01,1.167691914392312603e-02,1.838024945617058783e-03,-1.140463256630553854e-02,3.373186588287353516e-01
3.912270502740851641e-01,-5.301251556880034466e-01,2.618013815842820669e-01,-2.751656832277090889e-02,1.433018543712010762e-01,3.073201389113431811e-02,9.017235636711120605e-01
4.092269855129584966e-01,-5.088030138047460182e-01,2.941252569375807924e-01,-1.303488803075553322e-02,5.940983853566343675e-02,2.843978096830134233e-03,8.726300597190856934e-01
3.987581988141634115e-01,-4.796485776497897424e-01,3.060568739136746430e-01,-2.375105181480666183e-02,2.619860359146767431e-02,2.824008596781380290e-02,8.395870923995971680e-01
2.954585603596374677e-01,-4.439473929635625593e-01,3.607338574546267718e-01,-1.589670121128282376e-03,6.493253562057714479e-02,1.380046040373955271e-03,7.822461128234863281e-01
3.577202386526014966e-01,-3.931206394892523548e-01,3.616626264916837918e-01,-1.425673895009274030e-02,1.440489222660815485e-02,-2.302621738150805245e-02,7.546923756599426270e-01
3.350019446346243490e-01,-2.962841988553669981e-01,3.446243342668890985e-01,-2.490016694776744574e-02,1.565280139968752357e-02,-2.032904913015102719e-02,6.391589641571044922e-01
3.286882915506398328e-01,-2.967560415651521732e-01,3.394445403452548415e-01,-2.493325162703421624e-02,8.491734988945929402e-03,-2.003309159128825387e-02,6.334896087646484375e-01
3.154611050368267278e-01,-1.781312734406129139e-01,3.224786873133070886e-01,-2.255980898608766355e-02,1.462569756427657339e-02,-9.637641876567315004e-04,4.993174076080322266e-01
3.540418061242103231e-01,-3.096179735963514590e-01,3.287831498408715358e-01,-3.592831279992014792e-02,1.277883052869564426e-02,-2.934323795635982585e-02,6.567074060440063477e-01
3.552094379020319659e-01,-3.161248146383341950e-01,3.361335992490516178e-01,-2.787840036541132729e-02,1.669120013465155705e-02,-2.067265543956169419e-02,6.653546094894409180e-01
3.798960198403829591e-01,-4.676499551539852195e-01,3.296565414560953533e-01,-1.205155023248663266e-03,-5.866746770143237534e-04,-7.760526131768709021e-03,8.236892819404602051e-01
3.357110643019621810e-01,-2.632157626867490663e-01,3.131728778117439105e-01,-2.860159536814765088e-03,6.174358991886152656e-03,-4.466090521140985651e-04,5.881004333496093750e-01
2.128479159851270341e-01,-4.658654308448639814e-01,4.270624069969606862e-01,2.066095262779981886e-02,9.676737835528604562e-04,-3.983440012915232670e-03,8.082455992698669434e-01
2.886618808234249212e-01,-4.582847054882086546e-01,3.873409265665486712e-01,3.270488946942918824e-03,5.507504776304522273e-03,1.038886273872456981e-02,8.011376857757568359e-01
3.880475593910864274e-01,-4.662801853651806772e-01,3.288453321341554547e-01,1.203573354025684432e-02,-1.377885065217215443e-03,-1.205601121127273211e-02,8.268488645553588867e-01
2.297493140922577670e-01,-4.472335236411244530e-01,4.048737198802392911e-01,-6.413660274091052436e-04,-1.356135191841259524e-02,4.621512740767171057e-03,7.798381447792053223e-01
3.795184938948853448e-01,-4.371082066042083492e-01,3.349105212481294780e-01,1.139151511431303263e-02,1.156429246782541415e-02,1.128137566076888899e-02,7.959982752799987793e-01
3.551948451374758453e-01,-4.277540859134686402e-01,3.659973337585061826e-01,6.363607661961909190e-03,-1.665102430887304905e-03,-3.379399610748648215e-03,7.885097265243530273e-01
3.102007722649722243e-01,-4.545188237999445713e-01,3.673933328503111717e-01,7.095090607961041396e-04,5.888260496359751239e-03,8.626567413038740278e-03,7.950673699378967285e-01
4.789045025794562704e-01,-8.789789032780853661e-01,3.540877278208950374e-01,-1.019929609318452612e-01,2.948952478234145858e-01,1.119051432800679119e-01,1.421128273010253906e+00
3.477084934274853323e-01,-4.322404324280086918e-01,3.791646840120762585e-01,3.039850358754230941e-03,9.823363203537327937e-04,-1.622144306459697219e-02,7.966580390930175781e-01
4.014276559502585329e-01,-4.372527646638154630e-01,3.159092320855241831e-01,-1.265372755245595189e-04,-1.213685276600224433e-02,-8.594272921532654028e-03,7.997744679450988770e-01
2.481949358091150304e-01,-4.595827572318518239e-01,4.084223095957625338e-01,3.950855687849369989e-03,-1.471333925625818370e-02,-4.166962691264398770e-03,8.004847168922424316e-01
3.649427536394274085e-01,-4.344244638360448274e-01,3.692211016139612667e-01,-5.405248259295135360e-03,-4.090085910690930901e-03,-2.731763296086844178e-02,8.029961585998535156e-01
3.579022836609274671e-01,-3.246596226678471475e-01,3.170635856868056490e-01,1.331658023156255879e-02,-1.838868058579218659e-02,-5.190441982363547951e-02,6.703075766563415527e-01
3.104239568907701807e-01,-2.004168518634723006e-01,3.256264223855832030e-01,2.629821138437696704e-03,1.096543135208292996e-02,1.444404876612691117e-03,5.189828872680664062e-01
3.899371202702601180e-01,-4.847300710585457084e-01,3.427424654822916472e-01,8.103239747106487714e-03,-2.155259266802049718e-03,-5.417099858619309205e-03,8.522261381149291992e-01
3.788313802889492488e-01,-4.395290417779443848e-01,3.565467546916384345e-01,3.810027325225884970e-03,-6.550360322076408809e-03,-2.272952106273669511e-03,8.075650334358215332e-01
2.177745562973958937e-01,-4.573299335409052313e-01,4.149595619956419346e-01,-5.015640437559271830e-04,-4.095520642153106100e-02,-5.710868039841600526e-03,7.955495119094848633e-01
3.234398857000863048e-01,-1.956269308383353778e-01,3.447964510203518906e-01,-2.067969369979191091e-02,1.841035903770506590e-02,-2.251265780629177135e-02,5.336592197418212891e-01
3.720909834419289797e-01,-4.430115276195691898e-01,3.584581845315705229e-01,4.091331462527388919e-03,9.013812505330539085e-03,3.615358402298045944e-03,8.085783720016479492e-01
3.374158503145175958e-01,-3.240234299324577516e-01,3.440375097187624576e-01,-1.476193499970861536e-02,-1.619003369671915410e-03,-7.257084232909260038e-03,6.653910279273986816e-01
3.539524757072891603e-01,-4.577853533416021969e-01,3.422906466465737152e-01,5.239139430572788657e-03,-1.529867264993289150e-02,9.259824940459087175e-03,8.066161870956420898e-01
3.568505862175537224e-01,-3.602571346781760497e-01,3.390150186486836636e-01,-7.671532954981063850e-03,-9.049830837504338477e-03,-4.863368488828429675e-02,7.136452198028564453e-01
2.959927036915211418e-01,-8.729629493790538319e-01,4.029775550413073337e-01,7.197984871233562010e-02,-2.425914490977394422e-01,-1.502215544329537356e-01,1.327689051628112793e+00
3.673116608521910242e-01,-3.395188638090360644e-01,3.754672612505943752e-01,-6.015526407058642555e-02,-1.323580644666406958e-02,-7.645001348588199852e-02,7.309964895248413086e-01
3.583765926581356509e-01,-4.143316205643547967e-01,3.562114453262399949e-01,-1.587506778134474203e-02,6.311413499587087070e-03,-2.526259634778817067e-03,7.722074389457702637e-01
3.441449202619243364e-01,-3.585745277883266580e-01,3.643012895956359021e-01,-1.219894393147243072e-02,1.432753774916003739e-02,-2.227028821829997798e-02,7.147974371910095215e-01
3.601535355604172373e-01,-4.424987160924874763e-01,3.766009043098714204e-01,-1.822554778258960199e-03,1.251169294448313193e-02,-6.940691604291976402e-03,8.113856911659240723e-01
3.670507440168459534e-01,-4.377243725896574622e-01,3.598272409698766716e-01,-7.018617446407002941e-03,3.828013998971222485e-03,-9.814982339832373920e-03,8.014877438545227051e-01
3.275811760865082745e-01,-4.552405043623709568e-01,3.430834483997347584e-01,1.186119643935006074e-02,-5.934068987002751039e-02,1.965739992755911533e-02,7.983300685882568359e-01
1.316461369584135399e-01,-7.572605860740464490e-01,6.694614071238567110e-01,-6.616424403220200201e-02,1.074063244033420517e-01,1.642068906826237712e-02,1.267287850379943848e+00
3.716119581953752915e-01,-4.427678376527047766e-01,3.619446794462407024e-01,3.992509581055098122e-03,1.112951585192356596e-02,3.519049261010905819e-03,8.098713755607604980e-01
3.401146510929323186e-01,-4.516872375446809862e-01,3.332288799851706451e-01,4.039451433066304498e-03,-2.278698794867189958e-02,8.366988742881451349e-03,7.895328998565673828e-01
2.880538325170344804e-01,-4.553488570493970933e-01,3.434712852272762684e-01,9.346717165256493431e-03,-5.292145273574175302e-02,9.388997409822354492e-03,7.783602476119995117e-01
3.365737227317770475e-01,-4.447024370780210401e-01,2.951178100721189024e-01,2.990918610271768845e-03,-4.596654746433410932e-02,1.627039767503502682e-02,7.660824656486511230e-01
3.823812339435379570e-01,-4.589998782028402724e-01,3.589936941357440570e-01,5.703093359348313483e-03,5.508194770490742066e-04,6.657814651953971241e-04,8.299946784973144531e-01
2.629950836358316835e-01,-4.742198043385401629e-01,3.969942590231010926e-01,1.591613495568117501e-02,-6.953526053647550442e-02,2.562448941779936311e-03,8.218958973884582520e-01
3.451488147142911522e-01,-4.695745550857757245e-01,3.258946498287058069e-01,1.158610152913260548e-02,-3.538266024933457710e-02,1.855309460632303953e-02,8.084857463836669922e-01
3.530297496622900044e-01,-4.666839622112333164e-01,3.355174330014827899e-01,1.517612474662628080e-02,-2.046459446604364726e-02,1.399900767520941350e-02,8.126606941223144531e-01
3.906758754195320815e-01,-6.477038427249109942e-02,5.243863148921157347e-01,-6.623867388548194783e-03,2.799387278731912954e-02,-3.667686742072970296e-02,5.410414934158325195e-01
3.403741936237719701e-01,-4.666440189301196417e-01,3.572912576673938356e-01,2.125832747351588409e-03,-1.538925763677135433e-02,6.451145205815257341e-03,8.161285519599914551e-01
3.454153762062704414e-01,-4.638738683259927553e-01,3.494142662470847149e-01,6.793873273510668761e-06,-8.342803718628245650e-04,5.714196238967252615e-03,8.113577365875244141e-01
3.479154359193210033e-01,-4.689722343454771902e-01,3.688936916899859253e-01,1.181844923223216055e-02,-6.837624332528500007e-03,1.744931325490471641e-02,8.284655213356018066e-01
3.667477750030300188e-01,-4.678713955683705406e-01,3.656507409742549286e-01,-5.318315338169311672e-03,8.915948083052928179e-04,4.411074335182198908e-03,8.341584801673889160e-01
3.614291310415082559e-01,-4.626144652149967174e-01,3.428600859506557574e-01,1.003415527546883471e-02,-9.076614839524184755e-03,1.374900164919585881e-02,8.156024217605590820e-01
3.794092772925978241e-01,-4.278207420917794490e-01,3.427434327138413339e-01,-1.712018421995467480e-03,6.578923749039207805e-03,2.502909910881772129e-03,7.896355986595153809e-01
3.669061963247045588e-01,-4.591874291638763372e-01,3.692091851621266407e-01,1.087010614390838568e-03,1.041610978472474157e-02,1.068782151915777072e-02,8.276534080505371094e-01
3.559723592709995166e-01,-4.694470262203894739e-01,3.688155121246520229e-01,9.194131370502496223e-03,2.592328133446216397e-03,8.913648050044688589e-03,8.322230577468872070e-01
2.956618649609229488e-01,-4.610056472497554569e-01,3.934434495054604519e-01,6.196647150132936037e-03,-6.399283752569328437e-03,-7.535656037162724238e-03,8.102490305900573730e-01
3.794926832264491345e-01,-4.271418618050099036e-01,3.511473728935878835e-01,-1.345289435262297722e-03,1.030568994630611749e-03,5.072583390237286064e-05,7.928474545478820801e-01
3.590022090316527525e-01,-4.707121334796228185e-01,3.644404204571399797e-01,9.678104892334863860e-03,8.425001541669115915e-04,1.121790580400569212e-02,8.328434824943542480e-01
3.259074196024543957e-01,-3.637033362375398649e-01,3.661962241034252830e-01,5.006943627063283053e-03,-3.155788970398121750e-03,-7.349612696272081599e-04,7.106873393058776855e-01
4.465434408731630556e-01,-4.770119847625452492e-01,1.807044945173026940e-01,-5.066516373466136564e-03,-1.267558876720830188e-02,1.936966005775977301e-02,8.244953155517578125e-01
3.489022821210575054e-01,-4.223675618874149773e-01,3.599691572938544804e-01,7.551827781098041821e-03,3.305883589779496853e-03,7.660214420819873131e-04,7.769947648048400879e-01
2.960718945724323259e-01,-4.573380786804226439e-01,3.860021731406598766e-01,7.472616517845191708e-03,-9.148320363892917251e-03,-9.732140149344935959e-03,8.026027083396911621e-01
3.710956801340780653e-01,-4.541989822096598184e-01,3.623849170302059219e-01,5.014222187752544885e-03,1.059986852570285985e-02,5.145199269414821655e-03,8.212735056877136230e-01
3.423843930388288381e-01,-4.650846897774681965e-01,3.686911441223568175e-01,-7.330054114169749953e-03,-9.509836592997745770e-05,8.385566994959051459e-03,8.211652636528015137e-01
3.617740507180796095e-01,-4.719817220367359401e-01,3.645272489559466811e-01,-5.478488808722970643e-04,7.731380318024441787e-04,-3.801479480879569207e-03,8.351633548736572266e-01
3.703465873538708264e-01,-3.619367805752700673e-01,3.637469755954594874e-01,4.632048328745055205e-02,2.552116717265785761e-02,1.351668373643138011e-03,7.347421050071716309e-01
3.600296910476145640e-01,-4.313158886569800066e-01,3.638929273270061771e-01,1.730051344905016164e-02,-1.943068708168962325e-03,1.005973957730735713e-03,7.938590645790100098e-01
3.619556621782968886e-01,-4.048472519870788267e-01,3.642061501689632386e-01,3.038766362675155222e-02,-1.053447942084495895e-02,-3.193965353047575895e-02,7.719333171844482422e-01
3.679082223438502885e-01,-4.463764690478402297e-01,3.594483159790748950e-01,1.422669968918016323e-02,-4.870733578817916694e-03,-2.024504794439227137e-02,8.112646341323852539e-01
3.960764766543964921e-01,-4.906133711541414977e-01,3.420841717193600084e-01,6.277003191776562262e-03,4.035355603994489858e-03,2.136506370940607913e-02,8.618561625480651855e-01
3.534966669071387124e-01,-4.640798248371389434e-01,3.536946863363211180e-01,4.329075402391850680e-03,-8.032675960677026887e-06,-3.794977765404951384e-03,8.177363276481628418e-01
3.703004368265531698e-01,-4.537586343195825211e-01,3.635560704745549043e-01,6.028445252411888597e-03,7.542337719094514489e-03,4.379192216790513126e-03,8.209130764007568359e-01
3.440843023176263782e-01,-4.680557527228109693e-01,3.573239632248159103e-01,6.214195188192564445e-03,-1.322583229816062453e-02,6.547593032085283205e-03,8.193097114562988281e-01
3.350395906640667998e-01,-4.533565929482551438e-01,3.336902294249682321e-01,-5.089787524114490003e-04,-2.225594469330546658e-03,-5.686903567171288330e-03,7.877938747406005859e-01
3.821960909241329807e-01,-4.653543299442529646e-01,3.176666541494407303e-01,-1.395879607450778524e-03,7.733837556299593546e-03,7.212094529247295785e-03,8.174075484275817871e-01
3.548053122564183148e-01,-3.865021339356180530e-01,3.564750779837840833e-01,-8.105175214124718877e-03,1.335830499040789252e-02,-1.044325101466365112e-02,7.428572773933410645e-01
3.615699980692418936e-01,-4.619544812912645959e-01,3.824197374828235962e-01,2.119337703141822328e-03,-3.773000311530100639e-03,-2.842327052086570695e-03,8.341929912567138672e-01
3.590580279621905513e-01,-4.247650900658797024e-01,3.670988565248478608e-01,-1.288319859144050269e-02,1.000166835728501756e-02,-1.295324358665398724e-02,7.886997461318969727e-01
3.255605726960588697e-01,-4.518004251457548026e-01,3.557805039750196463e-01,1.052451806339062962e-02,-5.033129461749116795e-02,1.774271633046086913e-02,7.984808087348937988e-01
3.292316858183910178e-01,-4.706099022166283508e-01,3.855761826145064908e-01,9.577847007697086468e-03,1.514262612078861280e-03,-3.470675532381771802e-03,8.296421766281127930e-01
3.157226873533676148e-01,-4.443841280600675514e-01,3.302526332802843689e-01,1.058636633086339597e-03,-1.278725080344686113e-02,2.535322304528330080e-03,7.678092122077941895e-01
3.650587655885162430e-01,-4.564783868861045368e-01,3.593399768669363614e-01,4.334259652169093931e-03,5.330959808862626749e-03,2.282336920147187980e-04,8.187792897224426270e-01
3.373678634798533693e-01,-4.566801467238975620e-01,3.625363004270747980e-01,-1.142794859466615340e-02,-2.202881397004152753e-02,-1.059664638110766749e-02,8.082790970802307129e-01
3.613989280227958845e-01,-4.620095445445667748e-01,3.499851289053126924e-01,9.664498244464463095e-03,-1.699752789970049305e-02,1.524063302488775327e-02,8.188878893852233887e-01
3.681328898186558840e-01,-4.736309047932711902e-01,3.639186930609365489e-01,2.325182904168057827e-04,1.501683695036373258e-03,-1.497977166691596669e-03,8.396727442741394043e-01
2.824042881970789676e-01,-4.438400444555392621e-01,3.680573463745626661e-01,6.547084036716016185e-04,-1.265990045588477261e-02,-3.556731375306630867e-03,7.729763388633728027e-01
3.631191290679149364e-01,-4.319867975846113373e-01,3.559076025060348147e-01,7.890765117305326148e-03,-1.131030654989923943e-03,1.243456654821088834e-03,7.916481494903564453e-01
3.422888155472241789e-01,-4.273457924650132522e-01,3.769556925570988204e-01,1.505161304868940855e-02,-6.435893365659979548e-03,-3.021824573881850672e-03,7.880681157112121582e-01
3.594469998906161812e-01,-4.685551767820951286e-01,3.516689962711302408e-01,7.954341230312557409e-03,-1.516500023619023890e-03,3.678289881208759993e-03,8.242846727371215820e-01
3.772536676723679538e-01,-4.654316503511877201e-01,3.183389769675493142e-01,4.233933492550329136e-03,8.237039155953112222e-04,7.311061211210744849e-03,8.149595856666564941e-01
3.772613445507891905e-01,-4.309358937201799300e-01,3.523194339723058066e-01,7.997307218743667651e-03,-2.416848011674604512e-03,-4.045473380529097766e-03,7.961817383766174316e-01
3.650266600726141397e-01,-4.286848591925430663e-01,3.712436241513225599e-01,3.759700329161194676e-02,-1.031461956866188551e-02,-2.846146559853054633e-02,8.012122511863708496e-01
3.703765139184128641e-01,-4.816143806805536220e-01,3.711458957294217487e-01,4.227852965813447815e-04,-2.568941378343644107e-03,-4.627694968896637305e-03,8.524254560470581055e-01
3.348373790544701967e-01,-4.521179460040268827e-01,3.435911695841973867e-01,9.587995520380033967e-04,-5.691407950492150371e-04,5.825789918980789524e-03,7.914352416992187500e-01
3.188692815661320346e-01,-4.521817426483919489e-01,3.445483058502048501e-01,5.499858174439372499e-03,6.397450876499179498e-03,-8.289328939377222163e-03,7.844734787940979004e-01
3.227791040218912499e-01,-3.482189086787092491e-01,3.844602809221741024e-01,1.041292609720116322e-02,3.534014826547507426e-02,-2.705179975919129107e-02,7.083066701889038086e-01
3.604760448161088982e-01,-3.721362647433889004e-01,3.465778856890360249e-01,3.994590569233723298e-02,-9.095764537396799909e-03,-2.191519581228035165e-03,7.292335629463195801e-01
2.985954732519362498e-01,-6.981885371578305799e-02,3.019236566712000247e-01,-2.329298684595152921e-02,5.650408103648321472e-05,-1.722637566387343749e-02,3.734759390354156494e-01
3.336092803652975225e-01,-4.659338117587072947e-01,3.703047934204797276e-01,-4.703506571077816639e-03,-3.414222094905104352e-03,7.254433391134042924e-03,8.186663389205932617e-01
2.924211665131306592e-01,-1.020162690018392437e-01,3.034256864559472522e-01,-8.169736186351131066e-03,5.893099613593805707e-03,1.426331553975110356e-02,4.011948704719543457e-01
3.617149547729874293e-01,-4.594224096022938575e-01,3.695163349069270908e-01,2.803072712512724805e-03,-1.367196787402398376e-04,-2.005485225907858819e-03,8.250873684883117676e-01
2.965537185272607568e-01,-1.059057532459525830e-01,3.047344668625777686e-01,2.140411147723218256e-03,1.091084417176020702e-03,1.344730618878406218e-02,4.072993695735931396e-01
3.031319521400592798e-01,-1.407751036914973719e-01,3.087455809300327370e-01,-2.864302911262972540e-02,-2.733519582215925003e-03,2.542853923814576006e-02,4.516640603542327881e-01
3.146760677942893603e-01,-1.572089928485696508e-01,3.075898207175741250e-01,-3.314268890109881016e-02,-6.716643519347561056e-03,1.974610111469674370e-02,4.732675850391387939e-01
3.668334974375545565e-01,-4.701638464955248953e-01,3.648370120716683540e-01,-6.911774076767187311e-04,-1.405064597754875251e-03,-6.354118451827842247e-03,8.360777497291564941e-01
2.948734665777664743e-01,-1.322516115071774023e-01,2.973972226297216803e-01,-1.793288575669810302e-03,7.619072109937442133e-03,-5.804114388985888613e-03,4.287248849868774414e-01
4.227087953370650131e-01,-4.685900160304709017e-01,2.321929603227171623e-01,-1.105714563297817508e-03,-2.169279992801120480e-02,1.988452168803410414e-03,8.138369321823120117e-01
3.960611536840823454e-01,-4.514687989916686961e-01,2.571164420579139520e-01,5.692778888403578902e-03,-1.036526083859560035e-02,1.593420490603240924e-02,7.880571484565734863e-01
3.514584224883836039e-01,-4.710434418893183484e-01,3.621055891257233261e-01,9.354027995232315831e-03,3.773815786347830409e-02,-1.783395542335336481e-02,8.311854004859924316e-01
3.355406278505115858e-01,-4.489241898206958181e-01,2.868587977576040338e-01,-1.456495957700137218e-03,6.247059954387315650e-02,9.381914965559628007e-04,7.689489722251892090e-01
3.381687083456609844e-01,-5.439921851389625251e-01,3.219723420563082583e-01,-6.639528825512199190e-04,1.816886918392973116e-01,5.725996552918642853e-03,9.291471242904663086e-01
3.389868819599942684e-01,-4.641030953729669006e-01,3.675972686329978534e-01,1.137197132328799992e-03,-2.073686405489203778e-03,-8.510136064864271682e-03,8.179137110710144043e-01
3.459205810560215255e-01,-4.672681827751505867e-01,2.845493971945026734e-01,-2.310667186425356678e-03,6.063728658150094319e-02,1.046592770746265950e-02,7.915246486663818359e-01
3.717675186569405765e-01,-4.732027141409103077e-01,3.656142295644094764e-01,1.765251859428182499e-03,1.809122722629095698e-03,-2.757833093194756065e-03,8.419353961944580078e-01
4.058176940848085557e-01,-5.203999845216661368e-01,2.175565486562769935e-01,1.931145285719955071e-02,8.016897959632686421e-02,4.388985962556497811e-03,8.598886132240295410e-01
3.673685011788687671e-01,-4.741332897488360620e-01,3.653482975786241926e-01,-9.895235291947773737e-04,-4.997860242830624335e-04,-7.698997379102799675e-04,8.404967784881591797e-01
2.910891361102737607e-01,-4.500414691491680941e-01,3.319889417218860883e-01,1.104143527183188561e-02,5.941931526042927569e-02,-6.619793710553568793e-03,7.696418762207031250e-01
3.120296967867589588e-01,-4.800548355897495956e-01,3.900557990099294270e-01,1.355774990934146586e-02,2.131728104243313035e-02,-2.510442571569678274e-02,8.361188173294067383e-01
3.630172400397766452e-01,-4.235820320646301873e-01,3.541908386700125533e-01,7.603227445280826479e-05,1.998307116039490031e-03,8.120267500132984095e-03,7.823575139045715332e-01
3.453909064748857949e-01,-4.680930234327380646e-01,3.687362740758776680e-01,-1.059086385902060709e-02,-3.058985712017069612e-03,-8.386522755163093937e-03,8.257528543472290039e-01
4.515875097525400284e-01,-4.693940928849089644e-01,1.795423776973645580e-01,-2.636126870109442317e-03,8.305230658396504668e-04,1.626880248353550912e-02,8.200512528419494629e-01
3.513421126968791497e-01,-4.673293458593779093e-01,3.669466202112244835e-01,-5.377911225011067914e-03,-3.991051496735385264e-03,-7.275399859079552389e-03,8.267616033554077148e-01
2.845453564531544854e-01,-4.830221238778197312e-01,4.197113391130440907e-01,-2.566087406271587087e-02,3.236710825963101147e-03,1.072112764614292085e-02,8.447073101997375488e-01
3.922517068239105287e-01,-4.611212477187401904e-01,2.748045749686298667e-01,-5.879980668274616996e-03,-1.474310568766953183e-02,1.413132575799247968e-02,8.019775152206420898e-01
3.725071231061341526e-01,-4.697812743811057290e-01,3.653739371906112865e-01,4.201019821687805317e-04,7.125898997211825570e-03,-3.074359995316385333e-03,8.388525843620300293e-01
3.694786389529112758e-01,-4.588337762001946096e-01,3.319211377921186257e-01,-1.256506579046979058e-02,-2.246690929151399369e-02,5.156991653528278895e-03,8.114618659019470215e-01
3.663561773655809595e-01,-4.553418238809734397e-01,3.108786467801906150e-01,1.105950966197467335e-02,7.188616271065742871e-03,1.552103888041710469e-03,7.957441806793212891e-01
3.646377050997200442e-01,-4.707997500817771019e-01,3.702011032145298697e-01,-5.659168535198228628e-03,7.789410124231530095e-04,-7.204963506279556465e-03,8.383842706680297852e-01
3.611056296958375378e-01,-4.800963355001979238e-01,3.187315306084297917e-01,-1.049371492230555258e-02,-2.185951680432218422e-02,-2.356124624273896878e-02,8.229218721389770508e-01
3.278709878625155061e-01,-4.578791667109421981e-01,3.602431792340178296e-01,-5.353919834085444328e-03,-2.011704016655740598e-02,-8.997415845617917629e-03,8.033869862556457520e-01
3.631952823805644770e-01,-4.718223533333067987e-01,3.641931340133419681e-01,-3.502429477071633546e-03,2.321580388485901931e-04,-1.765510584209111942e-03,8.355447053909301758e-01
3.319689613339871781e-01,-2.376069697116118817e-01,3.561959649165452602e-01,7.412027392151111782e-02,-1.570265512758072272e-04,-8.824395930933606746e-03,5.962532758712768555e-01
3.096586382543358162e-01,-4.577580119895707789e-01,3.681338621412967305e-01,-1.357390347289266124e-03,-7.113114250803668007e-03,9.778173310033186003e-03,7.985403537750244141e-01
3.597693344356230893e-01,-4.291253900432754342e-01,3.643878549805690259e-01,9.201909614144904506e-03,-1.603136280589938234e-03,4.121334029908727339e-04,7.913798093795776367e-01
3.832964089292508758e-01,-3.743044756542264206e-01,3.841638733893844582e-01,6.762018383361263762e-02,2.040048257193510101e-02,-3.605431966211977701e-02,7.703783512115478516e-01
3.488007702423215894e-01,-3.610438904645190683e-01,3.452650763223797936e-01,2.249176143622811860e-02,-6.845474087582022193e-03,-2.809298741949249958e-02,7.109205126762390137e-01
3.259696191745727334e-01,-4.771602082803018119e-01,3.854944776136512430e-01,1.100755901128427873e-03,-1.566833879209276678e-02,-3.295442345898567157e-03,8.349488973617553711e-01
3.595568273970621842e-01,-4.148180673901400439e-01,3.636179813470128419e-01,2.298528678150512164e-02,-1.709622890051898728e-02,-3.787682235906946610e-02,7.807583212852478027e-01
3.229386949085409353e-01,-3.734735935280440455e-01,3.657616680137379395e-01,2.679307315623559102e-02,8.439576858269461426e-03,-5.041685860851768952e-03,7.204788923263549805e-01
3.722472237488150815e-01,-4.591417798607619893e-01,3.739260113322892543e-01,2.869236099311231122e-02,3.561226665831302568e-02,9.424990749815900185e-05,8.359908461570739746e-01
3.613187667635832656e-01,-4.594522794201578719e-01,3.643006107605938904e-01,-3.481207690583229975e-03,-1.817516803625518051e-03,-1.082184606141666731e-03,8.222963213920593262e-01
2.377056600813126086e-01,-4.496239621165410982e-01,4.039989722375386116e-01,9.624875842866660765e-04,-1.480361290024899759e-02,-4.573781421971491457e-03,7.842810750007629395e-01
3.670442123517496658e-01,-4.654252257701940731e-01,3.685799967350920081e-01,4.653153319996854685e-03,3.430690925092986718e-03,-8.763677766525456922e-03,8.334367871284484863e-01
3.459878358424266498e-01,-4.670149546774969851e-01,3.521419989432655329e-01,6.220368995786319279e-03,7.506844336118093791e-03,-8.935193060085140984e-03,8.164186477661132812e-01
3.661957277723790205e-01,-4.700591825303430671e-01,3.665889943748381619e-01,-1.985770804761723823e-03,-1.635337731562754113e-03,-4.235965911330249502e-03,8.364956378936767578e-01
3.172445643500462209e-01,-4.672198588856723012e-01,3.774207205284952904e-01,-6.283721102564930432e-03,2.605059214970441989e-02,-1.267544103237276676e-02,8.178312778472900391e-01
3.437987639946127327e-01,-4.693825901700658942e-01,3.734807909397987458e-01,9.389811706833601709e-03,1.919769294358673276e-03,-5.916956464960700275e-03,8.286509513854980469e-01
2.713748923698989235e-01,-4.746532451449306800e-01,3.253408642564610820e-01,3.156287799246906833e-02,1.487857865019116543e-01,-2.454713200246101332e-02,8.191083073616027832e-01
4.280353856447832728e-01,-4.603062275488510879e-01,2.180510020369323398e-01,1.232105040623644471e-03,-1.028875462049815524e-02,-9.002174240417538248e-03,8.045319318771362305e-01
3.672377220466797598e-01,-4.726046518127858809e-01,3.645875782445932578e-01,-2.374643319785545522e-05,-1.602748696895306413e-03,-4.922895519792121720e-03,8.385683894157409668e-01
4.449832433133344423e-01,-8.751753841206628692e-01,3.855232131726165079e-01,-2.569640140140527773e-02,3.010101099780103651e-01,-3.364284023621649106e-02,1.394652366638183594e+00
2.169139771326176469e-01,-5.468560596711045108e-01,4.625468860982506203e-01,-1.669630323490375878e-02,4.829511122405979106e-04,2.440209568597697613e-03,9.122182130813598633e-01
4.366440953244681289e-01,-4.627252000773707241e-01,2.263042831589350823e-01,-6.100998693712172613e-03,2.493389180616521240e-03,-1.992865163580423427e-02,8.156326413154602051e-01
4.269995907351660236e-01,-4.520791106000850990e-01,2.226781858000752568e-01,-4.986615836884617826e-03,-1.998170322206358623e-02,5.130079401206555020e-03,7.976611852645874023e-01
4.277520662117251793e-01,-4.533884295378092233e-01,1.987778116438542186e-01,4.321034830893647144e-04,-5.431394914278299749e-03,-7.341389069948001849e-04,7.919406294822692871e-01
4.465271198413510723e-01,-4.745265577245594280e-01,1.934489687841263461e-01,1.010694038756308755e-02,-3.573316897739319507e-03,-2.417800674851306592e-02,8.254625201225280762e-01
4.447971425737738405e-01,-4.477121748943085899e-01,1.749575722803226596e-01,2.076088262350669639e-03,-6.340560318809555437e-03,1.911906616351739070e-03,7.929037809371948242e-01
3.639984205298927855e-01,-4.668884207994106195e-01,3.637475337357555794e-01,5.194881236311538197e-03,3.223220440803856689e-03,4.379742802075547309e-03,8.308635354042053223e-01
3.681666854438848113e-01,-4.589531629649392652e-01,3.104943741275663083e-01,9.180614828983692591e-03,-6.238953733572917895e-03,-1.629211509275348222e-03,8.000806570053100586e-01
3.750395221124564471e-01,-4.528612289282279990e-01,3.601929299388916816e-01,-2.580610089639865518e-03,8.530249604194526172e-03,2.253708152827519403e-03,8.207326531410217285e-01
7.332707676951751019e-02,-8.719512098599481176e-01,6.861904564183691768e-01,4.421163970357522288e-02,1.708760397399353148e-02,7.421311292967244788e-02,1.368116140365600586e+00
4.171827679648330567e-01,-4.665881290014667337e-01,2.567228462505961595e-01,-3.063693462898662255e-03,9.466498930227964376e-03,1.826599543027773503e-03,8.156565427780151367e-01
3.358272599236589717e-01,-7.842990260060994645e-02,3.419971922335762748e-01,6.502298874929517136e-02,-1.389870165443230290e-02,-8.649136579686217408e-03,4.332330822944641113e-01
3.425561789085760922e-01,-3.354059325542552150e-01,3.385600585690990982e-01,3.754715216332964178e-03,-1.526860344136453038e-02,9.511641330018933554e-04,6.765233278274536133e-01
3.700363373557356561e-01,-4.657085494588115715e-01,3.302740140208014763e-01,-8.022100313294415475e-03,1.707591232704451858e-02,9.351490106027838048e-03,8.174041509628295898e-01
3.893386889820295016e-01,-4.698628346663631383e-01,3.260513779461372552e-01,-4.159878031419694637e-03,9.271427310570809141e-03,-3.938949791924056462e-03,8.295856118202209473e-01
3.973781377386937930e-01,-4.395685963810691543e-01,2.887814405688123309e-01,6.670555684232147391e-03,-4.454989680483256026e-03,-5.556826737865150356e-02,7.942543625831604004e-01
3.357389514949799536e-01,-2.767506455564421874e-01,3.470456786917873737e-01,4.817697480010324496e-02,-4.923700320374386347e-03,-5.104456895402176286e-02,6.301182508468627930e-01
3.559473901737687518e-01,-2.804987033996239609e-01,3.050647650021031110e-01,-8.579693254986153501e-04,7.213589682438186976e-03,-1.042492967952787508e-01,6.387727856636047363e-01
3.545415985345758414e-01,-4.726765417206197917e-01,3.620989003085303692e-01,-4.682405158840032000e-03,-1.856085871240092597e-03,-9.337488077533684025e-04,8.310699462890625000e-01
3.752372703676253307e-01,-4.655932355988173788e-01,3.640795182058137458e-01,6.239337636767985744e-04,3.035464669326506416e-03,5.617030474444644449e-03,8.353814482688903809e-01
3.656221777612402302e-01,-4.690631421010464930e-01,3.722807925152218367e-01,-3.077313750826453343e-04,7.924036495644659617e-03,-1.259523023066337220e-04,8.381470441818237305e-01
3.723929897015573198e-01,-4.224958875061947117e-01,3.227064745245701305e-01,2.122003918200963957e-02,3.597246521068936387e-02,-1.411827792084049786e-02,7.750178575515747070e-01
3.801526654137933892e-01,-4.508285636944060482e-01,2.507261590519180849e-01,1.224007775900425206e-02,5.803230966898151322e-02,-9.898868200044739357e-03,7.813940644264221191e-01
4.247593058885431594e-01,-4.790907800738105626e-01,2.649980868210605189e-01,-6.710941326357413965e-03,2.536721460688875357e-02,1.112047996218339108e-02,8.369618058204650879e-01
3.587339654196380900e-01,-4.584964586309236978e-01,3.817412241695921638e-01,-1.551373420214374570e-03,1.543191145138518572e-03,-2.088316638086465827e-03,8.289901018142700195e-01
3.347953693145881426e-01,-4.570298654218368783e-01,2.385193189846539774e-01,-6.270476812311728820e-03,-1.343254866180947082e-01,-1.204291170688679032e-02,7.840315699577331543e-01
3.618091569251997153e-01,-4.611484145096551579e-01,3.281287417841004528e-01,-1.095001093250780148e-02,-4.904200259376259238e-03,-4.817813287555943250e-03,8.069556951522827148e-01
3.515476357444060618e-01,-4.846352205393040791e-01,3.288255120644327234e-01,-2.397048331864422288e-02,-7.175097233497246263e-02,-3.350902585463799710e-02,8.374097943305969238e-01
2.475750086085450052e-01,-5.191603076776093451e-01,4.449577422031655294e-01,4.998648562581454145e-03,-8.956325106207296827e-02,-3.944927126650472210e-02,8.983271718025207520e-01
3.893304856668380332e-01,-4.643083629551919556e-01,2.646025058099487071e-01,-1.258408938721330972e-02,-9.567557224861972243e-02,-3.404537190195218530e-03,8.159381151199340820e-01
3.669685868147062324e-01,-4.666825443850495247e-01,3.675254908812470300e-01,5.055344693995055677e-03,-3.980755276717280050e-03,4.081372917776719851e-03,8.340341448783874512e-01
3.372636984053363762e-01,-4.601737182173193386e-01,3.509567962486572212e-01,-6.579878451557928144e-03,-1.253135665519703248e-02,-1.008723198917219240e-02,8.049345016479492188e-01
3.607668583081917735e-01,-4.726208029882493777e-01,3.632300476115284393e-01,-1.116495668928309346e-03,-1.343617122733483174e-03,-5.059537282000402276e-06,8.346274495124816895e-01
3.489262556758210287e-01,-4.656057034143155082e-01,3.508952287466183262e-01,-5.156938104925596657e-03,-9.101248366490639202e-03,-8.927065167625682085e-03,8.158659934997558594e-01
3.603481779554060793e-01,-4.272989497552103222e-01,3.548520788833495754e-01,7.653680494206374120e-03,1.831015159487297140e-03,1.193899178927797060e-03,7.850345969200134277e-01
3.134735997246967387e-01,-4.442610147591546932e-01,3.443463197439107781e-01,2.701031835383650064e-04,-7.753033331195221742e-03,-1.249245304001906070e-03,7.737528085708618164e-01
3.252075384061363650e-01,-4.863661785450413833e-01,4.234886687932742366e-01,3.050015275498319314e-02,-2.284962615018778370e-02,2.055902948660761828e-02,8.681581616401672363e-01
3.220288913471727188e-01,-4.544818590644986722e-01,3.523183729331559877e-01,4.289061602403444339e-04,-3.843018329830263057e-03,9.464091999424694909e-03,7.922878861427307129e-01
3.607756188516288431e-01,-4.409009431771789833e-01,3.699522026289798760e-01,-3.828892326787198836e-03,5.853931858706584723e-03,-5.520950015645976865e-03,8.064517378807067871e-01
3.220682846658725618e-01,-2.745726401428904007e-01,3.622248242091375969e-01,4.017959161771639254e-02,1.450971813132799493e-02,-9.800482637784001944e-03,6.223462820053100586e-01
3.264421716542146301e-01,-4.436114704089683114e-01,3.337386373539883988e-01,9.917220814782844087e-04,-3.188222185222047006e-03,2.463183022726478117e-03,7.737610340118408203e-01
3.768584641867337437e-01,-4.619938431524576172e-01,3.627959710187794173e-01,4.143204901353921346e-03,7.339694840559685129e-03,1.621734509850838307e-03,8.320430517196655273e-01
3.551927890156164058e-01,-3.704457959331946548e-01,3.620706131821016527e-01,-4.200056129265595378e-04,1.362595347687510158e-02,1.632690864837803985e-02,7.300319671630859375e-01
3.184439253125244118e-01,-2.432480162243864652e-01,3.733354152454780861e-01,3.864429698525940343e-02,9.208295219884043287e-03,6.588396665914225681e-02,6.058874726295471191e-01
3.655574755105686635e-01,-4.604150049978128489e-01,3.743544027892574122e-01,1.429628652116422772e-03,1.200876087796895822e-02,5.379028328250217697e-05,8.306700587272644043e-01
3.325080395633354668e-01,-2.003345268600314477e-01,3.159748503638860617e-01,8.639813530506271211e-02,3.612217740641680830e-03,-8.320506907134435359e-03,5.459173321723937988e-01
3.474363999615632803e-01,-3.168402621225797078e-01,3.772854569078086806e-01,3.236806185261852792e-02,-1.842203825059406108e-02,3.173710796164704029e-02,6.849564909934997559e-01
3.587474412851737737e-01,-3.083659975477633375e-01,3.441788355499257324e-01,2.276332299797233227e-02,9.694029000744281213e-03,8.414853568600859368e-02,6.772097349166870117e-01
3.411559645605120594e-01,-2.016861331197604135e-01,3.178702097370795232e-01,3.741070346405697689e-02,-5.553754714596686667e-03,8.439262593713559024e-02,5.551908016204833984e-01
3.504152334562242732e-01,-4.535154242053278661e-01,3.589873562201987833e-01,3.367661969305255944e-03,-1.576831754181667183e-02,-3.438281380676190720e-03,8.087550997734069824e-01
3.611285096051329302e-01,-3.530419269994107823e-01,3.499046260647056816e-01,3.044097479248048660e-02,6.057116038398506139e-03,1.383517005789917714e-03,7.106654644012451172e-01
3.661664325573654177e-01,-3.504907863025190640e-01,3.256632189434677249e-01,4.092314688888527147e-02,-1.253981821175520484e-02,4.400374538828460969e-02,7.053481340408325195e-01
3.926837123082743686e-01,-3.874428164295005139e-01,3.348182333663028976e-01,2.444972568055345588e-02,-3.499297262097168099e-02,3.557105974589743619e-02,7.589902877807617188e-01
3.676620871330553153e-01,-4.739828269887087497e-01,3.653162348387942182e-01,1.082243734303387476e-04,1.841823286087474268e-03,3.018668039752044497e-03,8.404967784881591797e-01
3.127624467526643470e-01,-4.720119567595917331e-01,3.743393376071964540e-01,-1.530986222278800032e-02,-1.215598036397990897e-02,-9.856519283383916377e-03,8.181836605072021484e-01
3.716020511642864066e-01,-4.410201712973534915e-01,3.578912219280163676e-01,1.715156950179593876e-03,8.426438156026189868e-03,5.243190937711661795e-03,8.060430884361267090e-01
3.761753305098180511e-01,-5.351882443815042523e-01,3.746415819041565287e-01,5.256597184238580994e-02,-2.511102716564236198e-02,1.579310838695996075e-02,9.165793061256408691e-01
3.337593640379660775e-01,-4.519820374388484607e-01,3.353649409810505189e-01,7.302235056054049876e-04,1.321407092448059111e-03,6.252795775327570386e-04,7.865505218505859375e-01
3.286818848172740615e-01,-4.083298512015953730e-01,3.433485988633843689e-01,-6.100267016576801926e-03,-1.066200594003606783e-01,5.194243534406167012e-02,7.723471522331237793e-01
3.584045421895242778e-01,-4.724432733914336602e-01,3.579151177894923097e-01,5.013324912084026787e-04,1.872725397833962494e-04,3.092704183968284556e-03,8.306210041046142578e-01
4.035310535081562677e-01,-4.829960853827949263e-01,2.851511724402572279e-01,-2.469107070474628809e-02,-2.542115684404595843e-02,-3.276055021959212166e-02,8.378452062606811523e-01
1.565026016499956596e-01,-6.094246544189858561e-01,5.078258822745926881e-01,-7.608899060679161046e-03,-4.793374488482501916e-02,9.024799954797366186e-03,9.932127594947814941e-01
3.805534154591687090e-01,-1.620156658590162779e-01,3.425101952468940780e-01,-3.689191777164578523e-02,-1.206673288535162203e-01,-1.503657673987436605e-02,5.688853859901428223e-01
4.109111216890297680e-01,-4.683361430626619137e-01,3.087689743730552827e-01,-7.376944032316212069e-03,2.068326636113797159e-03,3.476620083308715756e-04,8.329927921295166016e-01
3.264735869218827191e-01,-4.659204192062281757e-01,3.124067120943003761e-01,-1.106505643820372697e-02,-1.020108217683951546e-01,-2.418301700276236088e-02,8.063994050025939941e-01
3.545879078653082495e-01,-4.344331900518113576e-01,3.779736606524688458e-01,-2.447273584184111485e-03,7.381273663221395165e-03,3.649187491989916172e-03,8.011082410812377930e-01
2.942588842610514011e-01,-1.277442296782145825e-01,3.004784068872114466e-01,-2.546240123473716976e-02,9.737801164509243823e-03,-2.476286266864235683e-02,4.299058616161346436e-01
3.482459947235743702e-01,-5.101691039528700733e-01,3.650977500145682897e-01,2.329113426224326509e-03,-5.831623143679259824e-02,-1.521012784881717837e-02,8.732347488403320312e-01
1.471013575160690368e-01,-4.837270022333272079e-01,5.073909428929614940e-01,-5.426405120495280017e-03,-1.223417090774116603e-02,-7.797093581341845922e-03,8.693408966064453125e-01
3.381766315975659465e-01,-2.721818198793317656e-01,3.366129049321480160e-01,-5.697106900689723891e-02,1.562660079356728224e-02,-1.875384545666643546e-02,6.189590096473693848e-01
2.206349626592156443e-01,-4.772898580463014184e-01,4.568444549059368365e-01,-4.165588208386030583e-02,3.102057186855234489e-02,2.450535598151949712e-02,8.471390008926391602e-01
2.120599221255026201e-01,-5.661902748752544179e-01,4.781516694029128711e-01,2.134976936329760922e-03,3.872889307673250958e-02,1.674136498757872182e-02,9.428247213363647461e-01
3.135825182172341519e-01,-4.653164971696872598e-01,3.695550651757479876e-01,1.556200398944670256e-03,-1.941286613716455486e-02,-9.135327520866026035e-03,8.091982007026672363e-01
1.432231858251598045e-01,-4.955554123193193217e-01,4.677264013088016092e-01,3.559711377286336326e-02,1.561402376281603721e-02,-1.059811566344210851e-02,8.517605066299438477e-01
2.234596803579492474e-01,-4.722871380958457710e-01,4.236489459602052476e-01,-1.099187514115845549e-03,4.158505369240470505e-03,-4.969673808916038292e-03,8.145858049392700195e-01
3.582990990619057126e-01,-1.133161423916161925e-01,3.132716707562416825e-01,-6.967677233174517093e-02,-5.481662387041136113e-03,-2.756536145052950956e-02,4.691982865333557129e-01
3.277595582453105560e-01,-4.677886243301297986e-01,3.705982916347750900e-01,-4.179550445882001218e-03,-1.867505616277125718e-02,-1.033098213627986484e-02,8.186764717102050781e-01
3.693770881568698150e-01,-4.270270805615142828e-01,3.644337790825064038e-01,1.247928337874818633e-02,7.442903034241329235e-03,1.263232243144811300e-02,7.946441173553466797e-01
3.450968195507474467e-01,-3.220740863896708328e-01,3.529618736507108001e-01,-1.366508730819938552e-02,4.695000516665037531e-03,-1.244382180782202876e-02,6.719502210617065430e-01
3.242066544074620471e-01,-1.491637422494874743e-01,3.366245313059171296e-01,-5.751855871654813768e-02,1.030960473386986331e-03,-3.621054114168231058e-02,4.939371943473815918e-01
3.235155703168965391e-01,-3.449314090657856768e-01,3.619888982623198914e-01,-4.647253436172797680e-02,-4.393921668086033828e-03,-1.149658435013696349e-02,6.935073733329772949e-01
3.426557756931084553e-01,-5.107171952950777527e-01,3.733355712685550443e-01,5.750827493891164967e-03,-2.170624456391443552e-02,3.071883920863131487e-03,8.700051903724670410e-01
3.584234062762492456e-01,-4.449106539907303759e-01,3.729978497319348385e-01,2.112545594172361881e-03,8.731976043816949001e-03,2.152633650307312924e-03,8.108774423599243164e-01
3.644907983370965776e-01,-4.689194984140386824e-01,3.656156160453192250e-01,-3.337432769083793598e-03,-2.573281062371539970e-03,-3.553908537673491821e-03,8.340279459953308105e-01
4.003156628917259319e-01,-4.677979607072348944e-01,2.949207277027645624e-01,-6.756649627224476339e-03,4.934904851861450677e-03,1.411994102383495528e-02,8.210010528564453125e-01
3.725232346248479876e-01,-4.609154967774210521e-01,3.223350796955984920e-01,1.265721725496045218e-03,-1.767234616124525523e-02,1.355954352536297607e-03,8.100972175598144531e-01
2.871047219152063623e-01,-4.826089901702458329e-01,4.062471893528497580e-01,1.752278277215844546e-02,-2.774289373384811880e-02,1.427584252274691386e-02,8.379744887351989746e-01
3.437240792440742210e-01,-4.585548423717470401e-01,3.473029698949396948e-01,6.504184700102202434e-03,-9.470650370935332959e-04,9.195717266962678479e-03,8.043126463890075684e-01
3.753328536366858370e-01,-4.275128816109693419e-01,3.568833963157868605e-01,8.541291393061622647e-03,9.307728353468082416e-03,6.511331993196741406e-03,7.941634058952331543e-01
3.723080005425538075e-01,-4.491606655994135888e-01,3.597075648039926854e-01,-7.439723073816599183e-03,4.398099324429101571e-03,5.784610223860277463e-03,8.154404759407043457e-01
3.674018592409925565e-01,-4.648893101315595411e-01,3.395125352520127482e-01,-8.608539951296201656e-03,-2.164211495289395087e-03,2.742146930786838223e-03,8.188609480857849121e-01
3.087926226403869823e-01,-4.745161692888281157e-01,4.031998454324626224e-01,3.862430007267873833e-02,-6.398822213169114148e-02,-1.436796054433479158e-02,8.448749780654907227e-01
2.953642296642658982e-01,-4.038449712236971689e-01,3.829364965742923510e-01,5.764778751834290053e-03,-4.758007636600641854e-02,-1.151319090535048162e-02,7.517198324203491211e-01
3.384085284123502513e-01,-5.015864897877679862e-01,3.879251252643225456e-01,-3.113329753722375928e-03,-4.409277459922323825e-03,8.558456723026011334e-03,8.659932613372802734e-01
3.265533392862346451e-01,-4.450451933311527775e-01,3.335734187084781199e-01,1.294698895915198905e-04,-2.585061062730359578e-03,9.075774991346369572e-05,7.751454114913940430e-01
3.658788483732916541e-01,-4.510574360597836563e-01,3.961726354286422280e-01,-3.406485456678184920e-02,-4.736108608038619439e-02,-6.363405544823103228e-03,8.386790752410888672e-01
3.514682018602136582e-01,-4.533265235489799538e-01,3.324526263772413781e-01,1.379006404650588540e-02,-1.993684301566542999e-02,1.077748814172320956e-02,7.967834472656250000e-01
3.618651994763185109e-01,-4.684910657299656833e-01,3.661488124200906191e-01,1.469223823230493293e-03,2.501995816178944222e-03,6.438001311808767661e-03,8.325961828231811523e-01
3.330911115847832726e-01,-4.603496768071914103e-01,3.000728714845350975e-01,1.430805314367456817e-02,-4.873471016449663906e-02,5.886964849581108328e-03,7.824856638908386230e-01
2.377114579699178554e-01,-4.461026499444408211e-01,3.999569841549141525e-01,1.638279785262785867e-03,-1.562160679705658708e-02,-4.920731335219581497e-03,7.782569527626037598e-01
3.193000036666190367e-01,-4.738723218140944438e-01,3.483552649630087816e-01,2.547092415489065134e-02,-3.574875821186622449e-02,2.212722155543485336e-02,8.125647306442260742e-01
3.603254630558637706e-01,-4.422450608844712416e-01,3.846397639732153650e-01,4.562912352198525250e-03,-4.072719621461403858e-03,1.612099334751431953e-02,8.155466914176940918e-01
3.717412346081577779e-01,-4.427951482560530394e-01,3.732693028874590202e-01,1.180987808659563452e-02,-1.107771303181793315e-02,2.647668375994287077e-03,8.157966136932373047e-01
2.867124507709208903e-01,-4.757094741681331396e-01,3.949640188443644950e-01,1.733662871556390650e-02,-3.216168752031747791e-02,1.187744570510290872e-02,8.246011137962341309e-01
3.598354364668418515e-01,-1.775846516599235980e-01,3.584508806273538073e-01,-8.214100162572952890e-02,3.974812915591637540e-03,-3.630853306689763027e-02,5.588576793670654297e-01
3.451223604818924318e-01,-4.634494557088780775e-01,3.559467504736745780e-01,4.051279351531893950e-04,1.838548556538868988e-03,6.495870783152449084e-03,8.141222596168518066e-01
3.281637227007007107e-01,-3.047130152649423773e-01,3.537438040279031748e-01,-5.555496666687207569e-02,5.261535918139989727e-03,2.402117948442397330e-02,6.545605659484863281e-01
3.221862517910787371e-01,-2.662020837140008367e-01,3.930085488255876114e-01,-4.912746834771038879e-02,7.327901335785810127e-03,1.011849562881604950e-02,6.329268813133239746e-01
3.332973170813693931e-01,-4.719209832553443729e-01,3.861186611515893263e-01,-1.740317178727935829e-02,3.108845905357944528e-02,3.788701330291692482e-02,8.377432227134704590e-01
3.935662100876126113e-01,-4.536011430728406069e-01,3.242919971649599331e-01,-3.648723693130467936e-03,-1.055473244951485009e-03,8.693240099023589323e-03,8.149077296257019043e-01
3.682460570993981719e-01,-4.688175355968964286e-01,3.477195401140487085e-01,1.322060417337694253e-03,7.818942825715441414e-02,1.796937589724548201e-02,8.385878205299377441e-01
3.593191619855752306e-01,-3.763908731773451533e-01,3.519000844443578857e-01,-4.400902656492240023e-02,-9.251939437243070566e-03,4.277814751648521124e-02,7.398804426193237305e-01
3.659935491529527907e-01,-4.675109392517337037e-01,3.653730870549371512e-01,-1.215104672148661913e-02,-2.581371970728747658e-03,-5.811636026890305102e-04,8.334727883338928223e-01
3.681849612599595867e-01,-7.610298408083082666e-02,3.915623184851013128e-01,-6.142847983056106548e-02,1.332723037457969328e-01,4.019769295733031933e-02,5.270455479621887207e-01
3.201007775339808070e-01,-2.222836073958072700e-01,2.940155981841181543e-01,-3.971380247310291739e-02,1.127932758810913649e-01,4.622963799663247844e-03,5.689250230789184570e-01
3.388660913100552952e-01,-1.348269504395250284e-01,2.926067163058631571e-01,-8.143456601633443370e-02,8.392169997317920627e-02,7.462904170400613824e-02,5.121953487396240234e-01
3.560955306599024039e-01,-2.004769484744852170e-01,3.664334853817968751e-01,-3.899639601892364998e-02,3.848734224927485847e-02,4.404434753633709732e-02,5.748559236526489258e-01
3.707031905950353146e-01,-2.674316704370808817e-01,3.811598462794290043e-01,-3.271228707083904952e-02,1.832853919184678215e-01,9.273967139952703220e-03,7.198938131332397461e-01
4.171533900942018813e-01,-4.620145435535453204e-01,1.814617880350763435e-01,1.356988605646131107e-02,1.129239925824547797e-01,-1.819516676126034169e-02,8.130654096603393555e-01
3.515988272132027914e-01,-4.666085477566791484e-01,3.579645661283971103e-01,6.003852953069294986e-03,-2.021834164557100716e-03,7.609909999975157137e-03,8.215877413749694824e-01
3.658797338660567666e-01,-4.769693814600876047e-01,3.665281825921004599e-01,1.644037807562646577e-04,1.154650758366860316e-03,1.947328620405120629e-03,8.431826829910278320e-01
4.133264690355665794e-01,-5.168039027024148302e-01,2.778478742444934202e-01,1.553985769441693435e-02,2.797944170468311120e-02,-1.860625760358004116e-02,8.726945519447326660e-01
2.987969299379310550e-01,-4.808373942698149772e-01,3.797868042876735295e-01,-1.527427983846499013e-02,3.915229983548239312e-02,7.076651436829108251e-03,8.264262676239013672e-01
4.297924884702589710e-01,-4.887419343191187204e-01,2.418482474529582982e-01,-1.672980085671698378e-05,4.991321803720176475e-02,4.305241445323662076e-03,8.449407219886779785e-01
3.639980798927253125e-01,-4.780203529020720099e-01,3.666967495441008640e-01,-8.529091526316645794e-04,1.404228799701843361e-03,8.963001269246412012e-04,8.433772325515747070e-01
3.639556608408418548e-01,-4.680848336263166987e-01,3.649184415713205842e-01,4.045634517550378631e-03,1.327267625875166394e-03,6.403926738039382970e-03,8.326288461685180664e-01
4.222871012524243017e-01,-4.782933010337928614e-01,2.271403960136669786e-01,6.823348709877155235e-03,3.462857079263285953e-02,3.790383307465052583e-03,8.228986263275146484e-01
3.880447996882779860e-01,-4.564892723331236413e-01,2.484473936579256192e-01,5.187973610400865507e-03,5.718761746461593909e-02,-3.654878829236930284e-03,7.904192209243774414e-01
3.674071991918211877e-01,-4.482930020268747207e-01,2.871795170042891199e-01,-1.594609232073299250e-03,5.371921426640963171e-02,1.344530385959501802e-03,7.842397093772888184e-01
4.509502539283669620e-01,-5.584499974181403870e-01,2.380311502088021114e-01,-2.941453179564115219e-04,1.413390147791600548e-01,2.000108608993813111e-02,9.541662931442260742e-01
3.760567919025902262e-01,-4.631892061884892442e-01,3.612210774144926639e-01,1.675683226506910093e-03,1.704973326236557552e-03,-1.614928316066920966e-03,8.319423794746398926e-01
3.376733301257329734e-01,-4.709493322836181273e-01,3.800781319862973628e-01,8.122827245486463621e-03,6.283652015318972467e-03,-7.365332043536998267e-03,8.309256434440612793e-01
3.697695377783529747e-01,-4.697682652264265624e-01,3.721172902349403344e-01,7.922340503504616410e-03,7.915846819203582393e-03,-8.951661329188023708e-03,8.410807847976684570e-01
3.568712559003135443e-01,-4.636066481650097382e-01,4.113839186417616589e-01,5.245098105183575166e-02,6.626277903540804537e-02,-3.165379577603349981e-02,8.633154034614562988e-01
3.777888131030360808e-01,-4.677002648096306725e-01,3.622340237453176015e-01,-3.024811985249063837e-03,-2.060806293475987531e-03,-3.025411518325626763e-03,8.378603458404541016e-01
3.826100962409802464e-01,-4.639420567057374045e-01,3.481296548392610046e-01,-5.980178538493511990e-03,6.692370841077984606e-03,-3.459835164913445393e-02,8.321554660797119141e-01
3.767850584287071869e-01,-4.618591580588100598e-01,3.631874355498315721e-01,-2.724059730142767023e-03,-1.946603088458475229e-03,5.677758781303174481e-04,8.319495320320129395e-01
3.937257931136892708e-01,-2.367572146610115724e-01,3.983671027924872710e-01,-6.382839449870246484e-02,-1.561935758954089148e-01,3.067800788585638497e-03,6.970626711845397949e-01
3.800235379771984001e-01,-4.558685360068925885e-01,3.567042461973820577e-01,1.863936609255838770e-03,-2.554132602077679136e-03,-1.530324565755196821e-03,8.245022296905517578e-01
3.588015573572191363e-01,-4.718610455997624964e-01,3.624344944307328342e-01,4.261859977685708220e-03,-2.222189259592492316e-03,-4.218078659226048963e-04,8.325269818305969238e-01
3.145416635971582386e-01,-4.563631675448044378e-01,3.650773462483223875e-01,-2.366634158049323901e-03,2.954470927666671964e-02,1.522055291940177350e-02,7.994602918624877930e-01
3.799907270807396098e-01,-4.629363852702299553e-01,3.603780980816736479e-01,1.621610949949950072e-06,3.384546410898203912e-03,-3.033864414420418387e-03,8.333311080932617188e-01
2.390237518975806275e-01,-4.573674400329816869e-01,3.989651000802490466e-01,-1.421902702740816815e-02,5.473427287420118414e-02,4.225824744004253591e-03,7.947146296501159668e-01
3.679092855534663031e-01,-4.764010228684860682e-01,3.647579783978751600e-01,8.304132634692483776e-04,-1.872615215984720777e-03,-7.107123569946303173e-04,8.427474498748779297e-01
3.014213942819941039e-01,-4.720896957209068656e-01,3.278538766403393256e-01,9.640090895380344985e-03,9.424225285596524171e-02,-1.743054831354933149e-04,8.039823174476623535e-01
3.668322006590691298e-01,-4.735794113902940250e-01,3.666082520490742125e-01,2.300903832142723628e-03,-2.932950643632425275e-03,-1.792051448650407641e-03,8.403301835060119629e-01
3.427672785684084955e-01,-4.532231325692545054e-01,3.223284827918065920e-01,5.691922787037033069e-03,4.899226900012065324e-03,2.613917643591294080e-04,7.860780954360961914e-01
3.617802224680014556e-01,-4.618281234135770408e-01,3.672775612636917653e-01,2.459264075574061549e-05,-5.521763911621154278e-03,1.187888420137316872e-03,8.264286518096923828e-01
3.617290160844118252e-01,-4.590491335617783442e-01,3.605478408953612934e-01,-4.126371872591095072e-03,-9.335177693266581787e-04,4.934406749450577674e-03,8.202654719352722168e-01
3.824027171584714613e-01,-4.555009394180448146e-01,3.587747219005162913e-01,2.726416402592126472e-03,3.876344275485746511e-04,-7.577909538191999941e-04,8.263578414916992188e-01
3.746092614394517795e-01,-4.589867813849881628e-01,3.607913920810534303e-01,5.951892183602616043e-04,1.680411125941522546e-03,-1.588067674464273358e-03,8.267840743064880371e-01
3.657999125544345032e-01,-4.718911825855378606e-01,3.586651469180462959e-01,-6.208238895897617198e-04,1.382808491729757626e-04,5.266821367617919268e-03,8.341972231864929199e-01
3.745366049749921378e-01,-4.602362678174009014e-01,3.627731009840647336e-01,-1.780924442772583707e-03,5.113823022951330920e-03,-1.377288341397959982e-03,8.290101885795593262e-01
3.648864383759055641e-01,-4.691836927362135201e-01,3.675160211840833302e-01,1.097479594423751486e-03,-3.843003162584216273e-03,1.646653637447172179e-03,8.354215621948242188e-01
3.611030280034301376e-01,-4.684464832212773544e-01,3.649456308490347523e-01,-1.395597394813639404e-03,-1.967503400536818343e-03,9.964539096875437915e-03,8.316670656204223633e-01
3.300804176530961476e-01,-4.769409776526252198e-01,3.192558851389714625e-01,-3.521779134151250407e-02,8.435581433980018917e-02,2.222317465541322548e-02,8.180558085441589355e-01
3.450282304174830950e-01,-3.355953229104159385e-01,3.474247112307755625e-01,4.307133926625748149e-02,-1.324420443314087634e-02,-1.780659487624072085e-02,6.869702339172363281e-01
3.560653163208582495e-01,-4.248498743918609488e-01,3.681217732631870687e-01,-8.988839552645887590e-03,-1.079083586795487500e-02,1.146594420603048829e-02,7.876389622688293457e-01
3.611780902935705639e-01,-4.625032885443002284e-01,3.275551153538430738e-01,-1.391687899533732356e-02,1.664029658844012188e-02,4.739065476442612564e-03,8.083105683326721191e-01
3.584563495884847129e-01,-4.440297778534743056e-01,3.724674905142907333e-01,-2.005816438849431730e-03,8.356259463378749863e-03,-1.868104418690656136e-03,8.097259402275085449e-01
3.564481927904927794e-01,-4.319371036086601112e-01,3.696893611095252719e-01,6.951227533161361341e-03,-7.637385515311519157e-03,-3.103610635025313980e-02,7.971044778823852539e-01
3.560496875877446898e-01,-4.575443124207710932e-01,3.548727052672566717e-01,-7.998216504789681242e-03,1.549799817432220492e-02,1.914544217748832822e-02,8.142426609992980957e-01
3.465892573582453617e-01,-4.023672031456984044e-01,3.699084408100450916e-01,6.179735193159354399e-03,-8.641085352054487731e-03,-2.218400109989173558e-02,7.620758414268493652e-01
3.612233575003453989e-01,-4.626220553248542311e-01,3.752300424210499030e-01,2.118181931468249984e-03,-4.995916771720554199e-03,-1.941366641249308135e-03,8.309972286224365234e-01
3.381129924124101072e-01,-3.155788405832902765e-01,3.505376959486541377e-01,3.398924657793805319e-03,-7.844621948163162106e-03,-2.445879353824426117e-02,6.615158915519714355e-01
3.688088874932026195e-01,-3.533785565381546423e-01,3.603899065680452596e-01,8.213458312178088805e-03,2.777230221361513818e-02,-9.933935909507264628e-02,7.400450706481933594e-01
3.729125394348597466e-01,-4.679226812892963716e-01,3.643483059944038760e-01,-2.893091431680671548e-04,-2.234565414918858375e-03,-5.835017912295552322e-04,8.365957140922546387e-01
3.627131600952715473e-01,-4.715558322405678515e-01,3.662680002170620730e-01,-1.503455834501039130e-03,-1.029707078206182997e-03,-5.825641416965839786e-03,8.361189365386962891e-01
4.399250837794155267e-01,-4.557040177723612473e-01,2.979421265064051694e-01,2.587425309555115363e-02,2.051797228693842678e-02,-3.670764023535623422e-02,8.381290435791015625e-01
4.172964987614781740e-01,-4.741549835570457727e-01,2.890062509422423043e-01,-1.404336450171689808e-02,1.086276395707484570e-02,1.805639314948330465e-02,8.358847498893737793e-01
4.009931433228267617e-01,-4.461598422225150351e-01,2.394467250772764622e-01,4.464858860179146162e-03,1.299850682178778014e-02,2.922388985333263054e-03,7.794249057769775391e-01
4.173693606805372047e-01,-4.580594554200178026e-01,2.863255951318043890e-01,-2.062826119093732688e-02,1.350697720087205150e-02,1.327238394044359150e-02,8.192563652992248535e-01
3.015388455468848705e-01,-4.683368907198722786e-01,3.445103800241889336e-01,1.673011874169506169e-02,5.380002115830709308e-02,-1.550584819467284645e-02,7.986752986907958984e-01
3.785222460136052347e-01,-4.298087546834771233e-01,3.479066868216459940e-01,2.951530462749304539e-03,-8.704443055808792559e-03,-1.704674584007910164e-03,7.936314940452575684e-01
3.503388127705249211e-01,-3.657162026880152461e-01,3.575672556917786626e-01,-2.088719069562428726e-02,-1.892772934928342241e-02,1.462086598714102195e-02,7.217949032783508301e-01
4.171541116008627981e-01,-4.278520564442619412e-01,3.596451865954405913e-01,1.063636327819977292e-03,3.835667477246643836e-02,-7.843460318314618429e-02,8.316371440887451172e-01
4.125712212606875151e-01,-2.609297476083432543e-01,3.731291743526379268e-01,6.670433191410794771e-02,1.692870409052047581e-02,-8.027838466340524171e-02,6.798065900802612305e-01
3.572203344180662210e-01,-4.584466040805464937e-01,3.804786040981222861e-01,1.225820997139251455e-04,-3.333380933300576082e-03,-1.370566780328869375e-03,8.275648355484008789e-01
3.368042204137398077e-01,-2.519911097973745462e-01,3.098859049799971288e-01,1.716646015356756831e-04,5.431966579796084285e-03,4.498671664610291374e-03,5.759379267692565918e-01
3.611010466901776184e-01,-4.621971217304885471e-01,3.805325789398424363e-01,1.937612295914320840e-03,-1.556521802748779722e-03,-3.492211528760220344e-03,8.332169651985168457e-01
1.187641499733431139e-01,-5.007370722896995474e-01,5.095159311304522376e-01,-9.950180384788022067e-03,-7.730536341021836122e-02,3.679461333234515519e-02,8.948892951011657715e-01
3.916172016259744648e-01,-4.814770901581106877e-01,3.168243918712410068e-01,5.718647165861962499e-03,4.591614108338509109e-03,-1.760587636916767854e-02,8.388549685478210449e-01
3.823066333689087992e-01,-4.782839668821921020e-01,3.349963524030611373e-01,-1.114247662197579043e-02,2.469578534556216010e-02,1.523270836127569097e-02,8.396653532981872559e-01
3.737227204738379771e-01,-4.658373011093551730e-01,3.409757776310664568e-01,-9.580059309965159586e-03,4.813968141503791390e-03,-8.408574753063169371e-03,8.240129351615905762e-01
4.113510171980245822e-01,-4.718938171316574559e-01,2.833398112983256389e-01,-7.944209300743621666e-03,2.884918399170489228e-02,1.441943619826077834e-02,8.287056088447570801e-01
3.688149804312746971e-01,-4.658803327082433610e-01,3.705449919504752998e-01,2.219439209196155758e-03,-1.307713832116052036e-02,-1.460883354536278867e-03,8.358812928199768066e-01
4.464894381694226033e-01,-5.260084049034021714e-01,2.891507788238262822e-01,-3.031437323460818220e-02,7.373330584168098778e-02,1.111338588595307472e-02,9.148405194282531738e-01
3.984841910105195173e-01,-1.302455738950942798e-01,1.855732023190842239e-01,-3.675864559472407506e-02,3.782801396018996981e-02,3.055462928257327015e-02,4.727167189121246338e-01
4.182145441911114259e-01,-4.301186661643308096e-01,2.237312749480152019e-01,2.758749876730017328e-02,9.081439552197432055e-03,6.353119813873898784e-03,7.714648842811584473e-01
5.853825986901076694e-01,-6.834947544468118474e-01,1.078927848337601358e-01,-9.835502827403700549e-03,-5.325688983312311386e-02,-8.299558742688063762e-02,1.123224854469299316e+00
5.610179445172542856e-01,-5.589793560084587165e-01,1.579128069757176900e-02,-8.199911169605349562e-03,9.748444678560508336e-02,-7.045762895342586041e-02,9.922791123390197754e-01
3.691347796134351600e-01,-4.574009701215514534e-01,3.622696494900068953e-01,-5.275491816956254590e-03,-7.303506144105050349e-03,2.214957852234746352e-03,8.232815265655517578e-01
3.731591315429540479e-01,-4.463512202847903509e-01,3.608247508427751549e-01,3.930039513091650519e-03,-1.029058006426550667e-02,-6.302867518180931081e-04,8.136377930641174316e-01
3.624060358685096683e-01,-4.344106875297178982e-01,3.628315452300869270e-01,-3.439496897674084591e-03,1.289251476891941847e-02,-3.594769310209935693e-03,7.973889112472534180e-01
3.525539647152379774e-01,-4.685917350040231799e-01,3.487096810985595430e-01,2.748044008932775794e-03,4.672588958770585582e-03,-4.683554564804665206e-03,8.193242549896240234e-01
3.419079856547637131e-01,-3.841448855670041573e-01,3.681874626792611682e-01,-1.363334176600788689e-04,-6.184847644821096085e-03,1.865063191735957110e-02,7.403256297111511230e-01
3.644315184993774381e-01,-4.651987084188456967e-01,3.706285059104169610e-01,-5.315769583196492537e-03,-2.681594610291267861e-03,-1.443862592718090504e-03,8.328136205673217773e-01
6.600543157382200432e-01,-5.846236026189768342e-01,3.905318491768527966e-02,1.974132371773288860e-02,2.693218966927136276e-02,-7.599876228677943102e-02,1.087470293045043945e+00
3.484159650853481116e-01,-2.785565147063566727e-01,3.326024151219695302e-01,-9.797804993536076996e-04,2.731372477093080460e-03,6.132769464342693183e-02,6.282821297645568848e-01
3.719799606830933025e-01,-4.676446003778872429e-01,3.651846688497883964e-01,-2.768613140059774606e-03,1.564715217445535479e-03,-5.852475946166358148e-03,8.363271951675415039e-01
3.554811833375154384e-01,-4.549284939058405586e-01,3.832660491300396988e-01,-1.081413412060003775e-03,5.828027568859136393e-04,3.071554388449715205e-04,8.246561288833618164e-01
3.715817546807053673e-01,-4.693880913518175824e-01,3.652317736771070189e-01,5.406705350425328009e-03,7.136363188587195074e-04,4.588863741075537191e-03,8.379038572311401367e-01
3.583540222703702760e-01,-4.581131098968884707e-01,3.833641192867736081e-01,2.574058644750697004e-04,-6.714228285253386920e-04,-1.098704580882880685e-03,8.292582035064697266e-01
3.640609147498231057e-01,-4.218965187309334786e-01,3.614294042321163913e-01,4.171809122042367812e-03,-1.424144352291236912e-02,-5.068225593967788135e-03,7.851149439811706543e-01
3.895068233535268765e-01,-4.809192192951846634e-01,3.297976092545113480e-01,-4.464776733489968577e-03,3.534012719526139629e-03,-2.368686471010079519e-03,8.422281742095947266e-01
3.563505287502868324e-01,-4.617235304862122858e-01,3.459056238468905531e-01,1.422438433815773062e-02,1.278331733603677717e-02,-1.341758896066094948e-02,8.139083981513977051e-01
4.438656471924222191e-01,-4.683789135767493228e-01,2.854375400668440199e-01,-8.034502345716877658e-03,4.740534253078058924e-02,3.259126485410726581e-03,8.483700752258300781e-01
3.599515930986266765e-01,-4.624421770606447213e-01,3.816216442956580357e-01,-2.136514795847572687e-03,4.159529252610107662e-03,-1.466484012281048677e-03,8.334833383560180664e-01
4.178844166509231850e-01,-4.392823173189561170e-01,1.943980171549107849e-01,2.281659100065591694e-02,8.375319056215896341e-02,1.112749485674649919e-03,7.846815586090087891e-01
4.057866228377195461e-01,-4.707908349775007384e-01,3.312905511953959659e-01,1.321879089082738518e-02,1.559134762939847971e-02,1.066097041146529464e-02,8.427518010139465332e-01
4.014907429742653466e-01,-4.449070032560556998e-01,2.721954603419337038e-01,1.718379078552434089e-02,2.769814437073980090e-02,1.017380992884873124e-02,7.919400930404663086e-01
3.652249482125858870e-01,-4.728472997505103192e-01,3.770103526526247806e-01,-1.551979571995166281e-03,5.237166543987445931e-03,7.990578542017571151e-04,8.440808057785034180e-01
3.425349915655447885e-01,-4.459741104159369307e-01,3.778704806516692272e-01,4.378975222905687192e-03,-7.506194277298380846e-02,5.278146557031342112e-03,8.172524571418762207e-01
3.612120332945143453e-01,-4.678824323185983847e-01,3.701378494617322268e-01,-4.530911847508065885e-04,-8.054110182964364321e-04,5.872275317992883478e-03,8.336567878723144531e-01
3.292724406398946924e-01,-3.488279064133079643e-01,3.621226433060792949e-01,-2.324670695074980246e-03,6.679226113863737796e-03,-5.808533224446570976e-03,6.952885985374450684e-01
3.643302144204504933e-01,-3.827775812219604279e-01,3.485666583784405859e-01,3.369656378886918321e-03,-1.249584406507573200e-02,-1.523447296975369031e-03,7.396965026855468750e-01
3.642206640994136713e-01,-4.675683168634890974e-01,3.676879116392301472e-01,-1.455367257707456362e-02,1.917610781396770353e-03,3.814914462820167586e-03,8.339418768882751465e-01
3.622114852306138610e-01,-3.762713532179385867e-01,3.456867881541679788e-01,-3.137042368675335702e-02,5.417432167097614194e-03,-4.640661207163874515e-03,7.324832677841186523e-01
3.735854460534454025e-01,-4.444256643924070493e-01,3.647038864069614417e-01,-9.807297291482892920e-03,8.129260394564442882e-03,-4.737768660254995483e-03,8.139471411705017090e-01
2.440178130008361368e-01,-4.587095264617292445e-01,4.221399582840494880e-01,-3.557463448876359985e-02,-2.949565462370548619e-02,-1.146134796398462670e-02,8.108792901039123535e-01
3.596477038986105046e-01,-4.713069463621877286e-01,3.869676516122955157e-01,-1.326558543018725028e-02,1.361968085380850253e-03,-9.032827239369980651e-03,8.454063534736633301e-01
3.241785088934976966e-01,-4.641537884692407134e-01,3.743704486126702147e-01,3.953483594709247817e-03,-3.832685655226175138e-03,-1.333491659057551605e-02,8.149720430374145508e-01
3.503491925775343296e-01,-4.736444472810910078e-01,3.523848450269606025e-01,7.246590591791213058e-03,2.134107127978134705e-02,-1.519427870313920688e-02,8.263555169105529785e-01
3.634857988819534258e-01,-4.618519468942163808e-01,3.815897198373027766e-01,1.997747323330267746e-03,2.204170749524619107e-03,5.392329198801399347e-03,8.346051573753356934e-01
3.220468686671901226e-01,-4.498645716535993877e-01,3.570245954586745429e-01,3.515806667326002409e-03,2.534498594140798672e-02,-1.000572437267669562e-02,7.914132475852966309e-01
3.031114711714554821e-01,-4.683272209495615845e-01,3.858096306625415362e-01,1.438699909286889067e-02,5.075588356268663677e-03,-3.983746974093390833e-03,8.163939118385314941e-01
3.509369487466351134e-01,-4.680676500884310975e-01,3.650959259506400545e-01,4.037533975088521479e-03,2.101916933679624655e-05,-7.561223674332413422e-03,8.263084888458251953e-01
3.643787407011035429e-01,-4.716672872604048550e-01,3.645504600364551373e-01,6.070534967684095874e-05,-1.063835665905616627e-03,1.372689053028926427e-04,8.361339569091796875e-01
3.769400514254493961e-01,-4.696842124624377446e-01,3.643168164610727788e-01,2.186878022561385658e-03,-1.865174835838160228e-03,-2.582942409110596492e-03,8.404104113578796387e-01
3.643198438384983584e-01,-4.668239487160984469e-01,3.764332114466142354e-01,-1.305555492268711815e-03,2.049736239402705044e-03,2.425433603555022643e-03,8.372873067855834961e-01
3.476811161110834325e-01,-3.161898815470997604e-01,3.576013636378806426e-01,-7.863842471298579384e-02,4.274624737030308097e-02,1.347809001077584536e-02,6.870135068893432617e-01
3.644565611496247692e-01,-4.694266606714911916e-01,3.717154659357793656e-01,-7.102141521578436440e-04,2.319875747262264542e-03,1.398255482626173342e-03,8.375502824783325195e-01
3.321060390962246034e-01,-4.310565676926516598e-01,3.378165019913508815e-01,1.071107690975953673e-02,3.850461903061390412e-02,-1.470323572704318980e-02,7.695767283439636230e-01
3.106877480386177615e-01,-4.807777100697970818e-01,3.441975331724111409e-01,1.230000687051662281e-02,9.282030370826438448e-02,-4.621310245491463964e-03,8.248800635337829590e-01
3.695867634267165358e-01,-4.712302808281398914e-01,3.458363661334410422e-01,-1.146149413876635867e-02,-7.311340994733732390e-03,-1.171554846344578620e-02,8.297793865203857422e-01
3.815789581636076511e-01,-4.666635851376620403e-01,3.413344524925999712e-01,-6.314923291442614030e-03,9.903650327226615549e-03,-1.004288989260553391e-02,8.292854428291320801e-01
4.240226342112625169e-01,-4.877212924214784362e-01,2.533635275729089198e-01,-3.267341364266702192e-04,-7.279424796778169449e-02,-9.157482199341825807e-03,8.490895032882690430e-01
4.034516564384431070e-01,-4.526801813831707877e-01,2.671211907103355210e-01,1.929660797873423636e-02,7.373690851780308197e-02,7.972565233308132396e-03,8.077437877655029297e-01
3.503670650129915298e-01,-4.662137248248834354e-01,3.147659579655394668e-01,1.470254793152482933e-02,3.670597687214043753e-02,-2.241600189074555161e-02,8.032423853874206543e-01
3.412379138002801793e-01,-4.627247686947503214e-01,3.322975854277188668e-01,1.538701338279344771e-02,2.388454650844221150e-02,-9.149967898828546484e-03,8.011997938156127930e-01
4.107038880403575121e-01,-5.186259712063425731e-01,3.033103013501615153e-01,-3.653245908487641296e-03,4.859501070480871932e-02,-3.048336170117577071e-02,8.861690163612365723e-01
3.659360367929483937e-01,-4.744553841964829211e-01,3.665130529872225318e-01,-1.408895441934836235e-03,9.079583703502616850e-04,4.944990377420757643e-04,8.406855463981628418e-01
3.664278736345121246e-01,-4.740557042123082487e-01,3.709767217678850426e-01,-1.710127727074459104e-03,4.218189157775512933e-03,-7.205026935471010776e-04,8.428050279617309570e-01
3.649645001632135233e-01,-4.728218396947575508e-01,3.662951831967128924e-01,1.268996281357143196e-03,-4.791256703851637377e-03,-4.531058694619872172e-03,8.385331630706787109e-01
3.551705207888115057e-01,-4.578814323714111012e-01,2.906220991355653593e-01,6.475113173709860087e-03,3.634290764381387095e-02,-2.288028325403753532e-03,7.853932976722717285e-01
3.693096697588325594e-01,-3.972612006830148479e-01,3.485334612541274857e-01,-1.503122504158151389e-03,1.715982646815184670e-02,-4.273016613571547009e-03,7.570211887359619141e-01
3.666360453502914840e-01,-4.758417470687752449e-01,3.664932114094927029e-01,3.299484531989881227e-05,5.150324001011441759e-04,-2.038195591470112495e-03,8.424142599105834961e-01
3.612536053939783276e-01,-4.971169217878838031e-01,3.395351082056951020e-01,1.904330534224299085e-02,5.782619649957010388e-02,-7.808514549575299238e-03,8.543603420257568359e-01
3.608804615452650411e-01,-4.581798443517527408e-01,3.663755571607301142e-01,3.016540506011349313e-04,-4.301761805482958410e-03,5.898877351832322027e-04,8.218562006950378418e-01
3.704691166690037285e-01,-4.730144659687223196e-01,3.708177995536173222e-01,-5.170291472386660423e-04,9.517933347015887502e-03,-1.002927607349303474e-03,8.438212871551513672e-01
2.880781132109152542e-01,-4.670477967388190210e-01,3.791420932043271796e-01,1.459035786474955146e-02,4.495168430607869581e-02,-1.213778071993476364e-02,8.089593052864074707e-01
3.668776254110038826e-01,-4.762627569362816171e-01,3.651817463622847315e-01,-8.354912549745501004e-04,1.623776854878591479e-03,-1.236305807536255139e-03,8.423023819923400879e-01
3.344087148964354772e-01,-2.947479374296829713e-01,3.398358808059159797e-01,4.476315046126937147e-03,1.903596805825449531e-02,8.692221011050731486e-03,6.329739093780517578e-01
3.706230289571441072e-01,-4.370465588403168455e-01,3.643294438256468593e-01,-2.191289084394430157e-03,1.947156064363863431e-02,-7.501023621570772175e-04,8.052577972412109375e-01
3.643185478215313355e-01,-4.340425348979561893e-01,3.655083161540939596e-01,-2.834493984295482355e-03,1.587685835734328060e-02,-2.814659118065675463e-03,7.994596958160400391e-01
3.710221290549957640e-01,-4.700927316148830748e-01,3.652656477534564350e-01,2.191893151789910382e-03,-5.181784685639927689e-03,-2.584557376721237885e-03,8.383200168609619141e-01
3.668421279174645111e-01,-4.687714588122200432e-01,3.654360341398380507e-01,-4.292832859858310320e-03,5.786928461534482718e-03,-3.085797678040245410e-03,8.350217938423156738e-01
3.689956734385165804e-01,-4.133737573511122587e-01,3.522444881117642312e-01,1.207339623408496682e-02,1.115421442751602515e-02,-2.851814108802359742e-03,7.746688723564147949e-01
3.693155409058143102e-01,-4.683250180195093204e-01,3.668668880512376274e-01,-4.123358696225913438e-03,5.797810696756606000e-03,-3.127646393429078363e-03,8.365272283554077148e-01
3.726540590821486587e-01,-4.593395308533735344e-01,3.638522081622598270e-01,4.360542483001264222e-03,2.336822377256949756e-03,-6.964697401581809635e-04,8.276730179786682129e-01
3.722078289499529680e-01,-4.553402218004753976e-01,3.627192455356864076e-01,2.743419788894135760e-03,4.848662599311960412e-03,1.926158065798341899e-03,8.229081034660339355e-01
3.648864092277821491e-01,-4.773338662221601192e-01,3.632915654913236869e-01,-7.072803869486575686e-05,9.444840129539510548e-04,3.241953773757850761e-04,8.414257764816284180e-01
3.584562956089456520e-01,-4.663027204147992544e-01,3.722323322263459966e-01,2.743077032333086094e-04,5.438290934935975998e-03,1.316250127058818040e-03,8.317891955375671387e-01
3.717223069732899510e-01,-4.752225940237339019e-01,3.658664451931986084e-01,2.592527324800758624e-03,-1.802837390943227286e-03,-2.699334830740800651e-03,8.440628647804260254e-01
3.763240422489864123e-01,-4.679858451903825545e-01,3.646519371547332078e-01,2.295534381875577283e-03,2.130972348126335993e-03,-9.256394184906105655e-04,8.385538458824157715e-01
3.288917656536170520e-01,-4.441549514466492932e-01,3.162604038700931874e-01,3.576473231723870279e-03,-9.375066139892604053e-03,8.658742775202102468e-04,7.670074701309204102e-01
3.473770382889573849e-01,-4.721117801356715660e-01,3.670258798807440881e-01,8.401069675159371711e-03,-4.440784839121543655e-04,-9.240730631709897017e-03,8.297701478004455566e-01
3.336744902316932104e-01,-4.438488764666935760e-01,3.281950858714669517e-01,-3.778097893516465904e-03,-1.332551752113253149e-02,-1.892280910182520589e-03,7.751764655113220215e-01
3.397689751770086586e-01,2.888569906714164026e-02,3.452111665432617826e-01,1.231802700382539362e-02,-1.079534861120025595e-03,-3.012631028902745117e-02,3.186712861061096191e-01
3.265057419111997428e-01,-4.437954809959168134e-01,3.180543715892927836e-01,7.386243915509635351e-04,-8.336904182191297655e-03,-7.735004736436952187e-04,7.662488222122192383e-01
3.630185911669801535e-01,-4.473773392825646233e-01,3.691739379113387898e-01,8.678092326703861978e-03,-1.964846229693300098e-03,-4.627370830091911448e-03,8.136765360832214355e-01
3.323206025290230681e-01,-4.468397921570022024e-01,3.323609820773218981e-01,-1.785384898630768642e-03,-2.809887731310885283e-04,-1.959800010897421244e-03,7.791942954063415527e-01
3.587232463653474701e-01,-4.512623577672881803e-01,3.820280518623168087e-01,1.224277085843551629e-03,-6.711941816085848986e-03,-3.824556116417658722e-03,8.219974637031555176e-01
3.195210498805242105e-01,-4.447407362641806472e-01,3.294571258647182033e-01,2.216380458412640746e-04,-8.226004932338855727e-03,-1.164341252090303654e-03,7.694126367568969727e-01
3.536342309591412603e-01,-4.325962314071856163e-01,3.800480135859176101e-01,5.448192380744900157e-04,-1.600368427039140611e-03,-2.722214593468190533e-03,7.997838258743286133e-01
2.642119075178153143e-01,-4.633880312109838195e-01,4.046989465589940216e-01,-4.798779354191425733e-03,-5.255149977832647076e-03,-1.122979644474875671e-03,8.071631789207458496e-01
3.247683047307893811e-01,-4.480855077998976421e-01,3.338738952896611600e-01,3.064309667660131478e-03,-7.391976577365465956e-03,4.164901615151145667e-03,7.776035666465759277e-01
3.294909964373938238e-01,-4.529418538074629907e-01,3.352626989212476594e-01,9.302200833320691583e-04,-1.011415519163759609e-02,5.790340564377236508e-03,7.855956554412841797e-01
3.400171978671081008e-01,-4.486870980357436922e-01,3.328191176048296285e-01,6.832565200815697917e-03,-8.057767296950400435e-03,5.735431371236226691e-03,7.854060530662536621e-01
3.383991457890888066e-01,-4.578655435991847433e-01,3.348739693033491172e-01,4.126275994066304527e-03,-8.614682519190468638e-03,5.404779291797728522e-03,7.947353124618530273e-01
3.420423620069207304e-01,-4.577961259209325506e-01,3.343761095230184388e-01,5.344953344239520947e-03,-8.937819271273267363e-03,5.328281461997630940e-03,7.962908744812011719e-01
3.614662448541630657e-01,-4.692240932244020613e-01,3.629955418568650005e-01,-1.557664800715670905e-03,1.248499358016617791e-03,-2.976916724629971719e-04,8.314633965492248535e-01
3.697701437785679279e-01,-4.621207129463423824e-01,3.637274687666499640e-01,-1.758236637176837812e-03,8.228778874362211934e-03,-2.365134409479020209e-03,8.290242552757263184e-01
3.706043946890018037e-01,-4.685159495360848858e-01,3.639797013791083446e-01,1.912072296591244523e-03,2.124940668052945070e-03,-3.221753328529354272e-03,8.358609676361083984e-01
3.657788566951522546e-01,-4.665921024046960630e-01,3.653286542016767613e-01,3.412477094534685767e-03,3.497200076069261789e-03,-6.097294865449713261e-03,8.322560191154479980e-01
3.476563945897140351e-01,-4.666294316203265513e-01,3.677805599455535313e-01,-6.114281335096382122e-03,3.422656562186141872e-04,-5.957846121239450919e-03,8.246648907661437988e-01
3.455711258680558839e-01,-4.339908150321091229e-01,3.812748511490636205e-01,-4.030799274737489543e-03,2.689619739290833277e-03,-1.910015204428411849e-03,7.980640530586242676e-01
3.646172308373558657e-01,-4.690836916475273899e-01,3.658478808970632712e-01,1.839851106280798168e-03,1.863948984387960722e-03,-4.354681240011385769e-03,8.343633413314819336e-01
3.468954508610087029e-01,-4.330740156456082124e-01,3.808869520104229411e-01,5.927688315267684756e-04,-5.464260151627945740e-03,-2.725766541085513327e-03,7.975794672966003418e-01
3.526538856591387439e-01,-4.697206906411577343e-01,3.645110356956899333e-01,-4.355643307707205390e-03,2.124318338083145286e-03,-6.005384483979191688e-03,8.284746408462524414e-01
3.608539922588203663e-01,-4.695234054739648721e-01,3.633649943794722281e-01,3.976868067825210448e-03,1.475942603063191885e-03,-5.981712103177472782e-03,8.317327499389648438e-01
3.685703271679274806e-01,-4.697625357998828077e-01,3.654159020152504822e-01,-2.359427027789910876e-03,9.980838607151710975e-04,-2.580508386142104423e-03,8.367838263511657715e-01
3.521243176852146828e-01,-4.011785347259341217e-01,3.624457835776991876e-01,-4.492975286531491856e-03,1.495489797353005343e-02,-4.831040333649049348e-03,7.590444087982177734e-01
3.039660793971722397e-01,-2.150011932763249978e-01,3.292765185014166485e-01,6.537516605981286578e-04,-8.956250362817566590e-03,-1.505094646353417626e-03,5.323078632354736328e-01
3.652849225982180981e-01,-4.646538645055510175e-01,3.746259526106888726e-01,-2.530404097021165827e-03,1.122211369329269640e-02,-1.114031694945648255e-03,8.348885178565979004e-01
3.646486331918262214e-01,-4.744317331389598102e-01,3.645121592352478235e-01,-2.864980962924416463e-03,4.130295858599428941e-04,-3.062521141545691741e-03,8.390438556671142578e-01
3.702757365117427257e-01,-4.722037838802728427e-01,3.648097470784167906e-01,-2.296236975979904752e-04,2.917005813609627012e-03,-4.877220587038208878e-04,8.397755622863769531e-01
3.559379903608305140e-01,-4.436936774952729978e-01,3.791321656250735694e-01,-2.479666768685799636e-03,1.106735435135437762e-02,-1.006277982393200793e-05,8.117151260375976562e-01
3.658131394055229579e-01,-4.635282854059800117e-01,3.736794048774537136e-01,-5.674366740172010620e-03,-3.672801480073467802e-03,6.273035149977557656e-04,8.333853483200073242e-01
3.650793529253480441e-01,-4.758775114989391986e-01,3.661745526111364613e-01,7.660764969334274335e-04,-1.676154655857461234e-03,-1.605795144559269100e-04,8.415110707283020020e-01
3.660640617391521801e-01,-4.748395556011373309e-01,3.687140351334377564e-01,3.288172936698157637e-03,-4.366377249185668906e-03,-1.081306606776213588e-04,8.422849774360656738e-01
3.657701241916692658e-01,-4.728532544918226943e-01,3.690675991033851022e-01,1.309351643208427540e-03,-2.868411753462712759e-03,6.174094863043032202e-04,8.402953743934631348e-01
3.649909950645652268e-01,-4.285007971325074383e-01,3.577297095843675057e-01,2.104386593004816883e-03,-1.352180193933439755e-03,6.475378201804394759e-03,7.899776697158813477e-01
3.695414118478622112e-01,-4.683266039190464580e-01,3.655032000808903780e-01,-6.561055435558986763e-04,3.237308002849039953e-03,1.289568196172910866e-03,8.358787894248962402e-01
3.263551708482890223e-01,-4.440390296712264373e-01,3.343847403344257230e-01,8.050582063492869303e-05,-1.372941568792887491e-03,-2.934053495239729702e-03,7.744605541229248047e-01
3.588065771741124066e-01,-4.704197942612379224e-01,3.575898074906063706e-01,-6.621811352277737379e-03,-1.092876291006515113e-03,2.783336904009209691e-04,8.287003040313720703e-01
3.643317957209958324e-01,-4.739648189349098262e-01,3.638903111411981861e-01,2.448902287506459375e-03,5.649110571596101336e-04,-1.914514553962505181e-03,8.380938172340393066e-01
3.236208793973778253e-01,-2.507722248127207121e-01,3.276269254000155895e-01,2.450726109803524205e-02,-1.284693341860794480e-02,4.610154132020470065e-03,5.784507393836975098e-01
3.192072030830717111e-01,-1.944102816432898839e-01,3.172088411839832922e-01,4.118351812741297829e-02,-4.974935414671398555e-03,-3.015732732545298514e-02,5.202609300613403320e-01
3.529979157069804141e-01,-3.594065695738891120e-01,3.527640282611357869e-01,1.346181238690066610e-02,-1.678263335852986371e-02,-2.501339737648661243e-02,7.145762443542480469e-01
3.408993279317675817e-01,-3.421137771616596379e-01,3.519917817363794610e-01,-2.617291287960703781e-03,-1.721249053242174254e-02,-2.386614010740610928e-02,6.905246973037719727e-01
3.557016384135280873e-01,-3.564394028600121334e-01,3.394188040249971894e-01,2.282366401284343163e-02,-9.737643606274472285e-03,-1.175476664211320965e-02,7.057450413703918457e-01
3.516931034795326427e-01,-3.288924424977977545e-01,3.422242847090971041e-01,1.741474041439034989e-02,-1.183815091791920113e-02,-2.595981928222041574e-03,6.768991351127624512e-01
3.799117756248446831e-01,-4.586356457652520646e-01,3.638837517620034379e-01,4.272665751026533641e-03,-3.058883362312241928e-03,1.756530887086837434e-03,8.307048082351684570e-01
3.805905878141938037e-01,-4.579914430244006462e-01,3.598958104502843480e-01,-2.165295776092557647e-03,-2.861136940975248476e-03,3.523799868924934486e-04,8.284520506858825684e-01
3.697363200585636611e-01,-4.735107805085819743e-01,3.660215925545619586e-01,-1.653849764168590427e-04,-4.260968135641371793e-03,-1.543100619391982523e-03,8.414325714111328125e-01
3.508016496847972121e-01,-4.692656341054698421e-01,3.534368312963106495e-01,-3.619365343621820056e-03,-3.423919332672839023e-03,-3.389902503929903207e-03,8.214543461799621582e-01
3.822586496393797773e-01,-4.546334915981785629e-01,3.583805624716689953e-01,-2.167238635650127303e-03,-7.005169035551592812e-04,-1.266231715676432220e-03,8.252245783805847168e-01
3.796684092037840297e-01,-4.455081911018631269e-01,3.552959720953521305e-01,9.230733844963904047e-03,-3.513218092563245507e-03,-1.977773978899456013e-04,8.134443163871765137e-01
3.703645000812175181e-01,-4.713829038812089589e-01,3.645425945467346551e-01,6.508360811150687777e-04,-3.816935577132097787e-03,1.232924438338078767e-03,8.388811349868774414e-01
3.677243127161634595e-01,-4.120771123697984928e-01,3.594303168004682192e-01,1.378873176684476155e-02,-9.987767989685255449e-03,-3.713413896921122920e-03,7.762746810913085938e-01
3.372032727151339504e-01,-3.381276299618005687e-01,3.599331044604266450e-01,-5.353612765391185975e-03,-2.102022536977102372e-04,-4.507726526669341913e-03,6.870849132537841797e-01
3.893581495622893129e-01,-4.658365343284049942e-01,3.198859601863993096e-01,8.303055750890526998e-04,5.173623272029029968e-03,1.882107563629959596e-02,8.233572244644165039e-01
3.695326439293385445e-01,-4.558178674454536061e-01,3.653341336680785978e-01,2.758554431287479989e-03,-7.654003433926232988e-03,-5.962253683100203830e-03,8.234446644783020020e-01
3.663122587591558510e-01,-4.533662203571718896e-01,3.707235369652928103e-01,7.420324276729991196e-03,-1.163828359143444582e-02,-6.919043811045389424e-03,8.223279714584350586e-01
3.761945441533099954e-01,-4.688794753982545860e-01,3.664529857083829723e-01,7.753105358663741654e-03,-1.071816481272186948e-02,3.018098244809038367e-03,8.405742049217224121e-01
3.373745014892526872e-01,-3.486474377872800234e-01,3.565493237643619917e-01,-3.364486746408293111e-03,8.267608361222133009e-03,-5.158524718135895637e-03,6.960366368293762207e-01
3.603891822401517064e-01,-3.831039658576836926e-01,3.482032250143922147e-01,3.286626047763459377e-03,-1.526484913113332689e-02,-1.542080109700132151e-03,7.379762530326843262e-01
3.636395446795329112e-01,-4.613126537024579976e-01,3.675001004643220770e-01,1.401748759019076727e-03,-2.510975614680554645e-03,-1.881718772924001601e-03,8.269106745719909668e-01
3.398237828727490029e-01,-3.351877227376587887e-01,3.444931953815701942e-01,3.424162327603222887e-03,-1.324908569793189009e-02,1.841953432270726498e-03,6.777803301811218262e-01
2.563570656022371996e-01,-2.530596331399525001e-01,3.561216625624692433e-01,1.487308578076948773e-01,-8.411808213204674534e-02,3.801196408635310053e-02,6.420319080352783203e-01
3.162592131475339685e-01,-4.661135112744912989e-01,3.851943038079844728e-01,-7.060226663772232666e-03,-3.060971262607898105e-03,7.841937164119787418e-03,8.192400336265563965e-01
3.562265314163405305e-01,-4.096950570961068738e-01,3.643224839539459525e-01,-1.411719588473837363e-02,1.397583566045706646e-02,4.514459210229252589e-03,7.708095312118530273e-01
2.759559047790023367e-01,-4.579872210514809305e-01,3.982630333424668767e-01,-4.194359696738446386e-03,-1.101575599345209697e-02,9.080066876609569140e-03,8.025348782539367676e-01
2.773175771578679782e-01,-4.888212830212655957e-01,4.176201341027647729e-01,3.091245220046465875e-02,-8.648769849175542979e-03,1.077408722026287728e-02,8.471034169197082520e-01
3.586486516103704614e-01,-4.569958540990441964e-01,3.738953988056261113e-01,5.183494352036929417e-03,-5.283833373919796100e-03,2.623553096776842439e-03,8.234860897064208984e-01
2.627159730985030306e-01,-4.631690286468421736e-01,4.164214850983937177e-01,-4.785146836013461254e-03,-4.857713258076119985e-03,5.577603061270220222e-03,8.138425946235656738e-01
3.637963369556511672e-01,-4.607570643561050838e-01,3.693539840739987756e-01,1.940251420464714953e-03,-8.640783060222530058e-04,-9.427777713198207338e-04,8.273560404777526855e-01
3.631087463847420538e-01,-4.654299649820545781e-01,3.769165347889885109e-01,5.753671498717174895e-04,-3.636262585674975012e-03,-2.268852890551442073e-03,8.355617523193359375e-01
4.012733051623681435e-01,-2.404319259560908084e-01,4.316401841048262966e-01,5.380328468461498953e-02,1.129103149557200703e-01,-2.746212053561829236e-02,6.938208937644958496e-01
4.502231127376498110e-01,-4.649946257591784926e-01,1.938381194724742018e-01,-1.090390743500106209e-02,-4.014098580793317578e-02,-8.070458881404053014e-03,8.210327029228210449e-01
2.370814121936574426e-01,-4.561414064925011225e-01,4.099643730488473636e-01,-1.161559222776604831e-02,-1.306663494863099378e-02,-5.907720027377967066e-03,7.945529818534851074e-01
3.376807662742090654e-01,-4.649790981651500399e-01,3.652633956774074542e-01,-2.109356259295832366e-03,-1.832144633073798639e-03,9.712119626578084516e-03,8.169880509376525879e-01
3.756862744363329010e-01,-4.615255984234916120e-01,3.650599353368836342e-01,8.964550802115137497e-04,1.301323042349196782e-02,-1.424961757701381651e-03,8.322599530220031738e-01
4.115522632979334849e-01,-4.646558970740334304e-01,2.297958941290414725e-01,8.570289248906818799e-03,1.936206987532940876e-02,-2.325535322958010437e-02,8.027995824813842773e-01
3.932966433407076301e-01,-4.450982469241238082e-01,1.893007518072234163e-01,1.629200643814899402e-02,-9.798487604983460719e-02,-2.207038014830748317e-03,7.765985131263732910e-01
3.691188941068430651e-01,-3.114989821871035347e-01,3.428146667008427073e-01,3.244171671781963251e-02,-2.632948276545026434e-03,5.988281140459380397e-02,6.782075762748718262e-01
3.788683333341634207e-01,-4.553356839626493402e-01,2.606607637935360877e-01,7.181726273277866737e-03,-4.755108405144192751e-02,7.694061394508811338e-03,7.863687276840209961e-01
3.160018185167871030e-01,-3.774165732053929578e-01,3.698029757201367618e-01,-3.709227703055031217e-02,8.172208463816464652e-03,4.989270048192465286e-03,7.248675227165222168e-01
3.399190833605371109e-01,-4.411589790486776241e-01,3.658076556887881470e-01,1.642522240079547381e-03,4.963767309314450794e-03,-8.504729193888583075e-03,7.945269942283630371e-01
3.579953788822298755e-01,-4.622190492740598788e-01,3.368220682252437981e-01,1.408135022786617327e-02,1.320604551327642442e-02,-1.450450376978591922e-02,8.109146356582641602e-01
3.694930844541584603e-01,-4.695902930167492606e-01,3.653410311588534132e-01,-1.150758174906901668e-03,-5.670644912554312356e-03,-5.762632790033261204e-03,8.371345996856689453e-01
3.692087468838295417e-01,-4.641381288454643483e-01,3.646127179748305247e-01,-3.015640732120443250e-03,-6.471800050611068930e-03,-1.928102402636308740e-03,8.311570882797241211e-01
3.650325174497290326e-01,-4.297862019774048026e-01,3.592483546586671128e-01,-5.194527522341753183e-03,-8.902567494587869043e-03,1.223851199165308786e-03,7.921465039253234863e-01
3.504630704456310752e-01,-4.317015872523282116e-01,3.842063550702527475e-01,2.747237167523532142e-02,6.146530559035173064e-03,2.024717512806476979e-02,8.018231391906738281e-01
3.337796822081936510e-01,-2.276763391553857097e-01,3.320914475134555399e-01,5.551393326285295610e-02,7.192066055703041569e-03,7.504055152534917783e-02,5.835937261581420898e-01
3.682315693123275890e-01,-4.421043044206093287e-01,3.629716611649503877e-01,1.117568106065976001e-02,2.909301622819628758e-03,1.676146941664060632e-03,8.079715967178344727e-01
2.765569030017011598e-01,-4.463424157815714111e-01,3.673412947547215479e-01,1.319020371787350213e-03,-9.964941966081622415e-03,-4.552555487853795352e-03,7.725402712821960449e-01
3.747318064512193403e-01,-4.617728624688065553e-01,3.630340721116778191e-01,-1.838584285951411950e-03,5.041948773664227390e-03,-2.270266180704214130e-03,8.307788968086242676e-01
3.443167369865020588e-01,-3.273576977567845270e-01,3.464118180361692723e-01,7.804565269778286629e-02,-5.534938138899076800e-03,3.002703520388176270e-02,6.882065534591674805e-01
3.043820849708739340e-01,-4.332667018239566570e-01,4.091845393842729051e-01,3.385215006759141609e-02,-4.792768497080160395e-02,-7.827275577654812730e-03,8.018289208412170410e-01
3.477710588557596516e-01,-3.072122785159335234e-01,3.350118612271273388e-01,-2.315133574508985298e-02,1.052262295579388558e-02,-1.272411806752820826e-02,6.505649685859680176e-01
3.732225343989960531e-01,-4.682624082752394612e-01,3.644213810645660079e-01,2.712732366349063316e-03,5.477041673462869006e-03,-1.627823423780496619e-03,8.371907472610473633e-01
3.525793004218951143e-01,-3.198657997396464059e-01,3.317653092871595266e-01,3.592792365533229587e-02,-1.863734994712186108e-02,6.912791365195554427e-02,6.766608357429504395e-01
3.699876600228393930e-01,-4.534651993653381341e-01,2.907540974297019298e-01,-8.268859947302217503e-03,-8.462997237103704606e-03,9.349181462822983091e-04,7.871023416519165039e-01
3.601284709363483660e-01,-4.742867592786133013e-01,3.671961434347115749e-01,3.011132877805647312e-03,1.681006256392227841e-03,-3.526782871163519802e-03,8.380149602890014648e-01
3.763827936622147208e-01,-4.673984148593282040e-01,3.649864017311587050e-01,2.716464623934256289e-03,-4.494209686189713435e-03,-1.073657138612691200e-03,8.381925225257873535e-01
3.703996834625428169e-01,-3.021162870531653444e-01,3.416553295213432540e-01,5.607255442020196712e-03,1.372803968197562185e-03,3.550742940295831263e-02,6.615551710128784180e-01
3.248149849757233643e-01,-3.002123000221238458e-01,3.407813956733800054e-01,4.026024323656989673e-03,8.582605904413138226e-03,-3.119148611599917645e-02,6.356742978096008301e-01
3.791235145593769840e-01,-3.997129554111165106e-01,3.427613936833951436e-01,-2.644307949009160399e-02,1.108185788166883914e-02,-1.132852132210748416e-02,7.631772160530090332e-01
3.785008094210815521e-01,-4.323019298584500625e-01,3.531540241319560680e-01,-1.860705676065270214e-03,5.872212134987534957e-03,-2.354500901090687999e-03,7.985128164291381836e-01
3.739318922122683020e-01,-4.497242931512628328e-01,3.585952407080494342e-01,-6.049630896353977438e-03,-5.163250608760525801e-03,-1.464637517666565183e-03,8.162161707878112793e-01
3.096306973942319907e-01,-3.920225377165018621e-01,3.721965618431167799e-01,-2.273280633210099377e-02,1.166946207415332087e-02,6.654575009346695540e-03,7.363579273223876953e-01
3.197711982731942237e-01,-2.155867926854638239e-01,3.204477568289468836e-01,-2.495100932907657817e-02,1.411421031648989535e-02,-1.484855438338063098e-02,5.386070609092712402e-01
3.602524354451527855e-01,-4.729887636793947969e-01,3.669286827313761878e-01,-2.252342297606901855e-03,-6.077633793576935756e-03,-7.813890668634169284e-03,8.367840647697448730e-01
3.659602853934894040e-01,-4.697798542021639490e-01,3.534030333096698229e-01,5.939733915734515118e-03,-6.383413284160479109e-03,-3.002570144805539500e-03,8.296865820884704590e-01
3.830235875099536891e-01,-4.290649323217901046e-01,3.525961753241438901e-01,3.807206615446302039e-03,-2.692039081791073284e-03,-8.211071491031886284e-04,7.973525524139404297e-01
3.765949114263944519e-01,-4.416028180459401487e-01,3.574646435169780978e-01,-1.097807343784978559e-02,-3.165111560699946508e-03,-1.093396945266665024e-03,8.090465664863586426e-01
3.126466516967217890e-01,-1.931219959652754059e-01,3.257975491549962577e-01,3.753754227780092194e-04,-5.492620715931612095e-04,-8.531181977932587868e-02,5.333496332168579102e-01
3.574765508104235101e-01,-4.627889189331652053e-01,3.186953334521760994e-01,-1.074429697660579663e-02,2.345940733052792604e-02,7.042339696048494774e-03,8.029163479804992676e-01
3.229885891576874668e-01,-2.775655858601836501e-01,3.520862205316711013e-01,-1.137836265376893086e-02,1.745120955680050899e-03,-4.227270670408514452e-02,6.202782988548278809e-01
3.346690339261725322e-01,-2.361675962702401987e-01,3.158399480627314126e-01,4.306437199836801386e-03,-2.169050370652242463e-03,-4.520682642458817633e-04,5.617215037345886230e-01
3.419881629887713270e-01,-1.990839475824646709e-01,3.221028104628923527e-01,-5.283158268285981143e-04,-1.774012312396578816e-03,-8.887163287562289959e-02,5.532628893852233887e-01
3.764474542694837833e-01,-4.325483858448098129e-01,3.535905444079591176e-01,3.302485299571129591e-03,4.120660466546170568e-03,2.123690894678203610e-03,7.978739142417907715e-01
3.686570858205433510e-01,-2.924724338227570053e-01,3.283824852816953355e-01,-4.851446904691368578e-02,4.858692689322881286e-03,-7.116115603232492370e-02,6.590986847877502441e-01
4.708886691878371167e-01,-1.324289108681105387e-01,4.064016438152056043e-01,4.247657275573579055e-02,4.652075802154863327e-02,-3.035620589951974063e-02,5.864421129226684570e-01
3.683209192731441428e-01,-4.769864704699239288e-01,3.638468891205130507e-01,-2.276226205680278699e-04,1.573857474984050910e-03,6.271022360063606546e-04,8.430844545364379883e-01
3.467020727698035265e-01,-4.626731653811073652e-01,3.435790610308713244e-01,4.094291796378928851e-04,1.851098273654219317e-03,1.468191473111549921e-04,8.078249692916870117e-01
3.649740765439611900e-01,-4.615068070846536363e-01,3.644569135022728834e-01,1.040129722424817981e-03,-4.572988198437189476e-03,-1.540317836456457081e-03,8.262666463851928711e-01
3.137845551635878305e-01,-1.594311652437381821e-01,3.093471273248705744e-01,-1.551835019979999793e-02,-9.338139161584815481e-03,-2.163662565435915675e-02,4.735413789749145508e-01
3.409615693926287827e-01,-3.284213396906405791e-01,3.430723152882214078e-01,-4.975666277485378975e-04,1.659232357739139768e-02,-8.683606482694442973e-04,6.710586547851562500e-01
3.597288173725305960e-01,-4.680712806491027500e-01,3.585672394613313441e-01,-6.634781731017450751e-03,-4.259919093476598022e-04,4.929986611225773037e-03,8.273441195487976074e-01
3.028081443337007350e-01,-2.293041551990155913e-01,3.281492719670601188e-01,-3.530687901559140945e-03,-2.188571883526522176e-03,-5.802883680953311099e-03,5.453647971153259277e-01
3.582360548662226196e-01,-4.718411736363306019e-01,3.590915433871919027e-01,1.173742806938686388e-04,1.148981447718470028e-03,3.973821931345803207e-03,8.305362462997436523e-01
3.339541073570631013e-01,-4.650984274369563964e-01,3.690455640763860568e-01,3.714991127895269415e-03,1.368047864007783561e-03,7.475795086575344472e-03,8.172948956489562988e-01
3.691308743808187631e-01,-4.611277980340524607e-01,3.650706668700658963e-01,2.713034572718335882e-03,-7.464739390970080712e-03,-2.379947565223706259e-03,8.283605575561523438e-01
3.623425172584221476e-01,-4.743234841405643554e-01,3.640170733401654757e-01,-1.902064426905174807e-03,-2.748027972152176034e-04,1.272190616419316715e-03,8.375140428543090820e-01
3.554196028126234141e-01,-4.418922628744280656e-01,3.772032153691282641e-01,-3.046534922247585639e-03,-1.551658085590506414e-02,2.539912828788663812e-02,8.100830316543579102e-01
3.426044234968790292e-01,-3.457729919902602922e-01,3.513751623452780470e-01,-5.660199259023185152e-03,-6.124550269934424945e-03,2.854516909512073292e-02,6.947165727615356445e-01
3.575411510650676750e-01,-3.578456123117243481e-01,3.409699533445966768e-01,3.604773351161751072e-03,-3.248539378284866913e-03,-8.124441031853987588e-04,7.072980999946594238e-01
4.279319861846106465e-01,-3.765333840975307877e-01,3.005906802243213383e-01,-2.549394862065029570e-03,1.393220762981106295e-02,3.911224014608134097e-02,7.524159550666809082e-01
3.353088403945359008e-01,-3.286537057089050085e-01,3.453279573914319611e-01,-1.869756307345439008e-03,1.449197738484630030e-02,-4.558897768705963481e-04,6.695073843002319336e-01
3.320864417717646067e-01,-3.476507725809708238e-01,3.616621198239556856e-01,2.346160803354892504e-03,1.680312279785869597e-03,-6.319150217691705748e-03,6.951013207435607910e-01
2.871817397429421992e-01,-9.843252501108334940e-02,2.901394845835026937e-01,7.566718224568403641e-04,2.072879418465070015e-03,5.864805704705040694e-04,3.871218264102935791e-01
3.645868947196732046e-01,-3.538248511542043673e-01,3.267955235289158322e-01,2.425268614990180698e-03,8.969801487951708022e-03,-1.841613442443606249e-03,7.004734277725219727e-01
4.099495841988473055e-01,-3.748882829834849773e-01,3.611485430525375184e-01,-2.486272454698297552e-02,1.733945866115985460e-02,5.258942545830858767e-02,7.688332200050354004e-01
3.065303430022578435e-01,-3.363204376271401452e-01,3.929641799994571527e-01,-6.133850476774216354e-02,-1.179868630601530743e-01,2.513459643040151514e-02,7.288601994514465332e-01
3.394360549497410506e-01,-3.680810165623990549e-01,3.663574940008909042e-01,-7.745089738228490631e-03,-5.087545998362395100e-03,1.761429599479730906e-02,7.221779227256774902e-01
3.610546435560632039e-01,-3.977004925430285276e-01,3.510801994036951701e-01,-3.529530320652167919e-03,1.351876349068252200e-02,-3.893154218119066010e-03,7.542359232902526855e-01
3.645682863991248079e-01,-4.693125447681713025e-01,3.655105530339096132e-01,-4.411145428582359702e-03,-1.727580882863931095e-03,1.725558821707035831e-03,8.343980908393859863e-01
3.642646371354877899e-01,-4.734194369978315109e-01,3.639879951396502999e-01,-3.544332980326755835e-03,-3.233615061321437199e-04,3.161358041752860247e-03,8.375863432884216309e-01
3.654226924090490658e-01,-4.728379716129241794e-01,3.690645281892264151e-01,-1.253253562631491706e-03,-4.064889779321098455e-03,-5.162907242263831608e-04,8.401202559471130371e-01
2.100974682161234341e-01,-5.216590579568761710e-01,4.663785979335687837e-01,5.938772248487562966e-02,-1.139595336981578111e-01,-7.221580183100749853e-03,9.156312346458435059e-01
3.183376717418663349e-01,-4.725711699088227524e-01,2.658881881753227816e-01,1.081964491850366181e-02,-1.220371518069116867e-01,1.032279532986445265e-02,7.950817942619323730e-01
2.199174620098628685e-01,-4.528199049127388243e-01,4.165208217487445519e-01,-2.136942771645175196e-02,-4.831331458114590527e-02,9.003836263050990149e-03,7.950512766838073730e-01
1.680355403438592299e-01,-4.825733990713914068e-01,4.566802103265837909e-01,-1.468277987766829738e-02,-2.321647280552425335e-02,1.061134971902247606e-02,8.348677158355712891e-01
1.444430075686135295e-01,-5.702512495064104847e-01,5.449701547583893912e-01,-2.225877526025679676e-02,-6.544485127581273209e-02,7.655721788828614288e-03,9.858882427215576172e-01
3.794265302801951290e-01,-4.586721482703060015e-01,3.598159581398625018e-01,1.170836046421313160e-03,4.220915036002961460e-03,-1.625520825710433494e-03,8.285070061683654785e-01
1.969688654754171153e-01,-4.848730510680102634e-01,3.468927872569562698e-01,8.426584091095162821e-02,-2.492510021199205728e-01,7.074312118816136752e-02,9.012791514396667480e-01
3.271741934990287648e-01,-4.632495561061281686e-01,3.616707440756975478e-01,-9.308499146463694932e-03,-1.146414470903695318e-02,-1.214201487250448318e-02,8.089024424552917480e-01
3.370940085958649135e-01,-4.529162810602862521e-01,3.435634334378302457e-01,-8.703089032911219981e-04,-2.591869918702429027e-04,-5.518288709980528027e-03,7.933239340782165527e-01
1.887540287917471027e-01,-4.551786515765270380e-01,4.527269530659868146e-01,6.717358118969319735e-04,-9.319547853461185305e-02,-3.557339234311572389e-03,8.248680233955383301e-01
9.884536521132510078e-02,-6.607734997252384668e-01,5.056688680678447234e-01,9.487096789637615435e-02,-1.538117385829388672e-01,5.492948753333649903e-02,1.076375603675842285e+00
4.925468683692854621e-02,-5.990045425138446067e-01,5.813487759849998993e-01,-9.660501843221747098e-02,-1.146309936394233342e-01,1.738823191202673590e-02,1.056704521179199219e+00
3.756226898113251833e-01,-4.157747231684318923e-01,3.494285749925557516e-01,-1.006765648333309351e-02,1.054046622824893718e-02,3.087915090484330636e-03,7.790583968162536621e-01
3.205011032758992018e-01,-2.089851457403617552e-01,3.163576093563689184e-01,-6.055158017930928338e-02,-7.791977298240378158e-02,-2.016260658176282326e-03,5.544412136077880859e-01
3.603744618148160272e-01,-1.341156129911352801e-01,4.258960024632568730e-01,-1.792509531258939387e-02,-6.260407637986301760e-03,-4.107050523326211122e-02,5.360551476478576660e-01
3.424697257750109469e-01,-4.446395976917956183e-01,3.098381680000574789e-01,-2.173368621289641436e-03,-4.831816408071691951e-03,-1.318459513950925453e-04,7.713660597801208496e-01
3.789955609197992459e-01,-4.548237746664530734e-01,3.587294180374072661e-01,-2.038254788837080595e-04,1.498748781404812651e-03,-9.567103461242498601e-04,8.238790631294250488e-01
3.336871031966749945e-01,-4.500955745591598278e-01,3.103849170595786022e-01,3.117409620674427891e-03,-2.815126292339142910e-02,1.791648766219124892e-03,7.739577889442443848e-01
3.441006469864238415e-01,-4.689210588545980052e-01,3.671926499107515673e-01,7.819777471770122945e-03,1.242984005405522096e-03,-7.355983766280544192e-03,8.250225782394409180e-01
3.592941735215900989e-01,-3.395706363964392516e-01,3.518710730891823069e-01,-2.291290982621758607e-02,8.133964782817637573e-03,-1.879521280580760678e-02,6.972177624702453613e-01
3.510095741076502129e-01,-3.396120913433174349e-01,3.393270017241447611e-01,-2.596463738142587574e-02,1.294686483906370283e-02,3.336925591071549912e-03,6.867206692695617676e-01
3.642286717424421116e-01,-2.906762392887864976e-01,3.654820430684213584e-01,-4.626671995379568608e-02,-5.908195682229837493e-03,-7.108471786370325340e-02,6.718693971633911133e-01
3.527809695626785702e-01,-3.879695373535497760e-01,3.619208067035827314e-01,-2.229925543193014489e-02,1.633933490203857974e-02,-2.445674049163967106e-02,7.480990886688232422e-01
3.191308162923264247e-01,-2.156925501025069303e-01,3.627559556065910185e-01,-6.566406183491836634e-02,-8.510994182936546144e-04,-3.769094042860407501e-02,5.731232166290283203e-01
3.760675632175992100e-01,-4.659970859783214570e-01,3.643169001627576953e-01,-1.825464917261247592e-03,-4.322764795283813404e-03,-9.204606695574551675e-04,8.362922668457031250e-01
3.586314875427057958e-01,-4.646657387081536417e-01,3.665804557133701680e-01,-8.823630098448404652e-03,-3.046681544753190342e-03,-1.094214587986065907e-03,8.274605274200439453e-01
3.712185317598668544e-01,-4.742031305231703131e-01,3.655282187220036394e-01,-1.037658132244532929e-03,-2.450422917105431371e-03,1.540318157840057153e-03,8.426077365875244141e-01
3.717622801837724977e-01,-4.738382261147546792e-01,3.677466765414575955e-01,-8.655771318795798175e-04,-7.571021145850459141e-03,-9.457992001693627361e-04,8.437047004699707031e-01
3.229050375019209551e-01,-4.528161006107158659e-01,3.440125337466084510e-01,9.096920686163294462e-04,-6.167271509522502526e-03,5.797843506860134166e-03,7.866255640983581543e-01
4.172101633366877005e-01,-4.713313139578627631e-01,2.532480728158092997e-01,-1.917725322510855160e-02,3.716870285975973354e-02,3.090868938465278146e-02,8.239030838012695312e-01
3.613271398250658684e-01,-4.726989282298785788e-01,3.551420239809172097e-01,3.871590930450380754e-04,2.921115545340927967e-03,-5.330355753180706984e-04,8.309669494628906250e-01
3.676739062371320310e-01,-4.715091761010499205e-01,3.653251633061293524e-01,-3.895919934964799016e-03,-3.346404472302764275e-06,4.554491650171329890e-03,8.380754590034484863e-01
5.049270591320447199e-01,-4.185193513891133921e-01,7.668628563459849168e-02,-1.357619432630914960e-02,-1.261121984359958592e-01,9.001213794478087060e-02,8.445462584495544434e-01
4.089647381862213660e-01,-4.603195412337975911e-01,1.451586479207468416e-01,4.938228539580687138e-02,-2.038094169315880499e-01,8.084244524426094369e-02,8.645597100257873535e-01
4.824014989309619583e-01,-5.574016106541931359e-01,1.748099291457965165e-01,-6.228092454385811272e-04,-8.950513824703651422e-02,4.635380436112305352e-02,9.415142536163330078e-01
3.483081868278130599e-01,-2.712287679017970632e-01,3.345140389089081845e-01,3.931864175319207261e-03,4.338342899817054441e-03,-4.167621154359812258e-02,6.170768737792968750e-01
5.370235718090736743e-01,-5.077201002059604784e-01,1.463843996486339782e-01,2.004648690119261584e-02,-6.180488338335045351e-02,4.167250317037408253e-02,9.240375757217407227e-01
3.548794054062939241e-01,-3.058642798783987038e-01,3.332568797892896950e-01,3.272683458527794742e-02,-2.141712905515449558e-02,-3.402915318710082043e-02,6.563733220100402832e-01
3.599575655361160753e-01,-4.624556785602975673e-01,3.799087871091794133e-01,-1.298704687176582915e-03,-2.841651550699539081e-04,1.724328030044565592e-03,8.325766921043395996e-01
3.741170842809599661e-01,-4.694356310354259598e-01,3.637694582825005685e-01,-1.121097742126482165e-03,3.109073578973658471e-03,9.155910479416223477e-05,8.384463787078857422e-01
3.655940672253224499e-01,-4.764051059943693600e-01,3.666647922300484419e-01,-7.735911436045134941e-04,2.682726819744718147e-03,3.563061138988594603e-05,8.425489068031311035e-01
3.631522713448745998e-01,-4.755233890725950596e-01,3.636554413019429943e-01,-1.754471192943856707e-03,1.524491008578121771e-04,-2.105234854457647530e-03,8.389407992362976074e-01
3.683061996193420784e-01,-4.716005595396313144e-01,3.654404216638312275e-01,-2.768324728202465300e-03,4.641246759409501342e-03,-5.076451005191932875e-03,8.385758996009826660e-01
3.655001413887082884e-01,-4.746795579035880674e-01,3.674489694069041357e-01,5.290002846174491399e-04,3.654308785553513940e-03,1.067808484234645605e-03,8.411821722984313965e-01
3.651628125596095287e-01,-4.765301051969569324e-01,3.658023150627638942e-01,-4.196026672417562981e-04,-3.878928622993869837e-04,3.389773768873683842e-08,8.420134186744689941e-01
3.095557680057553496e-01,-4.544630301089593871e-01,3.652093771782234932e-01,-1.590291815413615939e-03,-6.911535054155516777e-03,9.966780851426377055e-03,7.935939431190490723e-01
3.607626041815314988e-01,-4.584616329716387773e-01,3.798152717897927411e-01,-2.934419557427937969e-04,8.198054137605643597e-05,-4.273679655004474116e-03,8.289480209350585938e-01
4.124863840329474063e-01,-4.494407588495165085e-01,1.942614478706831127e-01,1.037547893948664000e-02,4.906291222372086147e-02,-2.464399546789504229e-03,7.810308337211608887e-01
3.655428349229467577e-01,-4.767174249807550890e-01,3.632119471084276907e-01,-4.162749352206108122e-04,5.433516075543072879e-04,-1.509139396968695382e-03,8.411021232604980469e-01
2.954138368948635018e-01,-1.223189711286607473e-01,2.966271407678290339e-01,-1.068615851690874700e-03,2.439348697708587990e-03,-2.622236580442782825e-03,4.183908700942993164e-01
2.621722097067398227e-01,-4.598554148820983567e-01,4.042624598489124033e-01,-6.236295400334412528e-03,2.381928920767876828e-04,-5.603021474702824488e-03,8.026939630508422852e-01
3.775614517255015956e-01,-4.638562508505036375e-01,3.595980603056441738e-01,-3.568633642522030247e-03,-7.345516089460471867e-03,4.617890572687410660e-04,8.327018618583679199e-01
3.808885287844698264e-01,-4.590917848021237591e-01,3.606797695634735845e-01,2.545210027814811225e-03,-3.437381667514359529e-03,4.536470015491810329e-04,8.300938606262207031e-01
3.686147485875592711e-01,-4.639020544654777201e-01,3.642046937120119732e-01,4.848137025333511090e-03,-1.977344733056100000e-03,-1.664286894121864285e-03,8.303750753402709961e-01
4.057865334575104233e-01,-3.793490461044002338e-01,3.576485981979886097e-01,1.821840784126440432e-02,3.545061498500969195e-03,-6.375553204118937500e-02,7.708359360694885254e-01
3.757306579765745114e-01,-4.630634401412832002e-01,3.634586920384829667e-01,-3.835365362542705360e-03,-5.716297526007187851e-03,-1.181593051391007865e-03,8.328137993812561035e-01
3.697930348898338382e-01,-4.631118465841923548e-01,3.642229378040809373e-01,3.682012650205557062e-03,-9.562825411034620894e-04,-2.772300987842596463e-03,8.301739096641540527e-01
3.664752670943478563e-01,-4.732323813662793199e-01,3.695922032376894317e-01,1.254973765136809319e-02,-3.609989566219094261e-03,5.695525802859772481e-03,8.416322469711303711e-01
3.332579733332193261e-01,-2.473788963224533011e-01,3.034158820224063247e-01,-1.056988816123265211e-04,2.353523717149469743e-03,-6.187825990893854045e-03,5.664219260215759277e-01
3.607780045503536370e-01,-4.298842640119201475e-01,3.612628682613604481e-01,6.777358553461257547e-03,-2.836451229925546734e-03,4.487920092087508903e-03,7.910453677177429199e-01
3.794242254288779925e-01,-4.317706799532609052e-01,3.542155407305990211e-01,-2.461662420101146023e-03,-6.947877500110546597e-04,-3.609330848574756690e-04,7.989014387130737305e-01
3.382999036021625550e-01,-3.988644923707651557e-01,3.732249799467212692e-01,1.097580295917205406e-01,3.661042989086468746e-02,-5.579795561783255226e-02,7.873235344886779785e-01
3.274740059612826215e-01,-2.498113892852263929e-01,3.218092536712225393e-01,3.259808486325470323e-02,-6.302721910990051468e-03,-2.334357421005014283e-02,5.787591934204101562e-01
3.539795804808592572e-01,-3.598349752459974460e-01,3.549208174694918894e-01,2.146163771043316237e-02,-1.474953965558823549e-02,-1.830133818107152963e-02,7.164099812507629395e-01
3.579689497600708759e-01,-4.073719882168713724e-01,3.634227380463271873e-01,1.257945391974836340e-02,-1.718540423813192178e-02,4.940317814342486298e-03,7.690152525901794434e-01
3.369094143305780831e-01,-3.036176356964379042e-01,3.494395405815347022e-01,4.350118178999552200e-03,-7.783529235327369539e-03,-3.608116931906733826e-02,6.500783562660217285e-01
2.299834361613236067e-01,-4.494317000205169110e-01,4.021772492075285643e-01,-1.779250935398765296e-04,-1.215140794902567697e-02,-2.019249697961488389e-03,7.801935672760009766e-01
3.667477131469379925e-01,-4.676054173622307131e-01,3.584470327022848402e-01,5.156432508839006376e-03,-1.552893018800429598e-03,-3.856342797018826388e-03,8.303131461143493652e-01
3.648110191968670923e-01,-3.525721264194225379e-01,3.370786290058728207e-01,-4.477272670470333789e-03,8.578388703314487537e-03,-3.080424089479154564e-03,7.041465044021606445e-01
3.629736225188706644e-01,-4.737706910550980588e-01,3.645996741049151169e-01,2.291720717694220154e-03,-3.603535117098573617e-03,-4.537205155107740771e-03,8.376280665397644043e-01
3.714054692918001832e-01,-4.730417056926232711e-01,3.657345686945939200e-01,9.771698857745500164e-04,-3.981494915806343439e-03,-1.275440397141387999e-03,8.416588902473449707e-01
3.662070303174099761e-01,-4.761060832308147139e-01,3.647846162243693069e-01,2.225162813179286370e-04,-2.587335671786190981e-03,-1.159630143800021189e-03,8.416172266006469727e-01
3.644704320057571278e-01,-4.733477950199467266e-01,3.644777609997579826e-01,3.297369162266710133e-03,-1.914418109244478026e-04,-3.945919464474270666e-03,8.378692865371704102e-01
3.643904574705844057e-01,-4.674385094846101874e-01,3.664057435737104740e-01,5.189130056389880744e-03,3.891522714930484511e-04,-3.885273190172915028e-03,8.329144120216369629e-01
3.577738253535233115e-01,-4.655083680993881146e-01,3.394393244127357212e-01,8.428709723879764665e-03,5.996837038603191478e-03,1.290313409545033917e-03,8.144699335098266602e-01
3.536169423156946268e-01,-4.688147035395927587e-01,3.493350258031152067e-01,3.436323414281038536e-03,3.111645509732869318e-03,-3.244735673871260769e-03,8.203576207160949707e-01
3.686714838549119411e-01,-4.524037508433307320e-01,3.627731928415650065e-01,-3.492205528464224166e-03,8.203054801051172865e-03,-2.518656088587556321e-03,8.182993531227111816e-01
3.531032516048490111e-01,-4.685445998960113823e-01,3.496454764278449368e-01,2.088380910419185277e-03,3.943562861559894890e-03,-3.583085571937692261e-03,8.199843764305114746e-01
3.423250132240628352e-01,-4.653217598863506055e-01,3.796423024180652361e-01,9.461508450505562093e-03,1.410740819787871005e-03,5.624781491989932656e-04,8.271037340164184570e-01
3.505066867255566820e-01,-4.620314864414818423e-01,3.495715059887443688e-01,7.826994230958183446e-03,1.923766747788741016e-03,-5.846355485087371441e-03,8.122540712356567383e-01
3.592640526793078881e-01,-4.627489339787504985e-01,3.761069063121062483e-01,-3.685808634091331144e-03,-7.559305334740905671e-03,-6.872956343636568363e-03,8.307754993438720703e-01
3.695057868631849152e-01,-4.707169236951671554e-01,3.705115757334311866e-01,-2.127166057262557322e-03,-5.773078515064590868e-03,4.286738589607739619e-05,8.407936096191406250e-01
5.441271900581079457e-01,-1.319649348880377882e-01,3.792569140693157204e-01,-2.486160568133745710e-02,-6.327811891947273878e-04,2.656547358847725568e-02,6.138305664062500000e-01
3.998695824937005261e-01,-4.461194462987476683e-01,2.289600803167116116e-01,-3.497221514630256172e-04,1.282183862953390971e-02,2.179152349030231105e-03,7.751308083534240723e-01
3.641210571185871103e-01,-4.705173831764536407e-01,3.739159403828297146e-01,-2.152549666624954151e-03,-3.829088659535452750e-03,-9.117250409020475396e-04,8.396146893501281738e-01
3.647930328442889336e-01,-4.601552926332109772e-01,3.678342964352736000e-01,-6.450061686580504678e-04,-4.869955281839203698e-04,9.226958500778504116e-04,8.264758586883544922e-01
3.698094474285713584e-01,-4.430469497433910941e-01,2.685157710860283098e-01,-3.725345130279207693e-03,1.051131240603022862e-02,4.836550803084992611e-04,7.674845457077026367e-01
3.609505250226264228e-01,-4.666749152404944256e-01,3.594896612071581954e-01,7.405033534539313955e-03,-2.242363862729285728e-04,-4.758345566398042813e-03,8.270366191864013672e-01
5.791487915499436978e-01,-4.537620547795143677e-01,1.777359094200887668e-01,-7.137547869013386587e-03,-6.476984639382694919e-02,-1.319055734283012815e-01,9.372026920318603516e-01
3.606690188975872347e-01,-4.693754153879878821e-01,3.720326025686791493e-01,-4.712652065848473709e-03,1.475029509606617419e-03,4.556328089563493888e-03,8.358651995658874512e-01
3.627498160234907121e-01,-4.747657355964793879e-01,3.627988691142771116e-01,1.792102475371951933e-03,-4.034392657135626005e-04,-1.176915181712222041e-03,8.375486135482788086e-01
3.511045051232494774e-01,-4.676817961159323023e-01,3.609519511378827539e-01,4.138273495493461837e-03,-9.153018747288244050e-04,-5.042694530974622252e-03,8.238331675529479980e-01
2.970003342756386555e-01,-1.462998024408255771e-01,2.996675210870489159e-01,2.345231698319018634e-03,-2.375081283824714840e-03,1.157578806432596518e-03,4.446818232536315918e-01
4.214606629703692153e-01,-4.644700566232213834e-01,2.256927554844185280e-01,-9.840513585463520063e-04,4.674798659016669335e-03,2.769767602842751475e-02,8.075465559959411621e-01
3.613851907442365285e-01,-4.716795787936250983e-01,3.602572331595880750e-01,4.190361523150053528e-04,-2.156068069893511251e-03,-4.192798602264113765e-03,8.325417041778564453e-01
3.593942970697409089e-01,-4.722802377869825818e-01,3.591400164831644592e-01,1.122209485360716748e-04,-1.581992157395827221e-03,3.871103818263132035e-03,8.315789699554443359e-01
3.624155111788338046e-01,-4.635446124785859157e-01,3.775569785214006879e-01,1.863451903267260594e-03,-3.488767760660376957e-03,5.758938904381618543e-04,8.336627483367919922e-01
3.405055720078152270e-01,-4.605386485049099976e-01,3.449172322843045979e-01,3.489826509811334767e-03,2.163861715966624959e-03,-4.569198268159076551e-03,8.033295869827270508e-01
3.412461288895456968e-01,-4.491796064506505815e-01,3.360892858566784658e-01,8.135408209481191297e-03,7.778767164463280467e-03,-6.854686969321970372e-03,7.881905436515808105e-01
4.070167395194524418e-01,-4.490363965972918869e-01,2.284642030169317384e-01,2.074733820090875029e-03,1.455822562560178668e-02,1.481579030679443156e-03,7.826319932937622070e-01
3.295256377606016196e-01,-4.492792353911081449e-01,3.343259399698288448e-01,3.320774874602386469e-03,2.044704123576969890e-03,-4.294357433719547638e-03,7.812806963920593262e-01
3.985932680103881354e-01,-4.587007633946788010e-01,2.458966853068529357e-01,6.489966560348371660e-03,3.247935769529517597e-02,-1.342479832775993025e-02,7.944779396057128906e-01
3.664681847997088848e-01,-4.719796900945349982e-01,3.675385459703108260e-01,-1.152321600484794688e-03,-4.928269444050890555e-03,-6.226030135463470972e-04,8.390300273895263672e-01
3.425151956284666066e-01,-4.533419769926215759e-01,3.325301786286091188e-01,5.883513815072935298e-03,5.821277455154257735e-03,-8.262225761432628098e-04,7.910431623458862305e-01
3.623774891918824514e-01,-4.635234681377576882e-01,3.687632519922015573e-01,-9.766510686179960890e-04,1.499537965111399657e-03,3.079656619663888187e-04,8.291182518005371094e-01
2.984883468633275916e-01,-4.547343266734551470e-01,3.550006668981456337e-01,1.219211416132218867e-02,-1.224737666036206443e-02,1.020067229830575947e-02,7.837808728218078613e-01
3.168396115362769883e-01,-2.920510349541342587e-01,3.358994809489512234e-01,-1.455692934728810379e-03,-1.076343767585967275e-02,3.254336345226349278e-03,6.189524531364440918e-01
3.210212376822308977e-01,-4.595816542153022821e-01,3.561342643807998698e-01,8.195799348998240169e-03,-2.285264510440335878e-02,1.076701106994814618e-02,8.000620007514953613e-01
2.968958039042028929e-01,-4.576776233922219550e-01,3.819903757345370354e-01,-2.636509932971571515e-03,-1.213661417176454052e-02,7.733513871019054645e-03,8.009209632873535156e-01
3.124340706099232312e-01,-4.660298559218821746e-01,3.820375310348459452e-01,1.046695513870962713e-02,-5.959874685267124717e-03,7.908403380976232813e-03,8.158782720565795898e-01
3.253544961171569438e-01,-4.555473259938964681e-01,3.738145287197561228e-01,9.330722646521365585e-03,-2.453217139920514656e-02,2.930600791125866425e-03,8.075215220451354980e-01
3.067169912298673973e-01,-1.461901777839100247e-01,2.923249692540711431e-01,2.336358422457910852e-03,-1.008703294081311286e-03,1.158326217500600100e-03,4.459117054939270020e-01
3.410461958923493575e-01,-4.432528083858316981e-01,3.140183357165259870e-01,5.890585087027193226e-04,3.829659920124166977e-02,-2.896284795734611829e-04,7.739888429641723633e-01
3.305199615978648975e-01,-2.396838248360838031e-01,3.052279861110593351e-01,-3.990672985512333862e-03,-9.089694370943587204e-03,2.274784622401152499e-03,5.582666397094726562e-01
3.329166238414750234e-01,-2.909414615053966258e-01,3.375038785111926787e-01,-8.709629232976554263e-04,-1.429935682607644601e-02,1.369878039110805461e-03,6.266602277755737305e-01
2.528711451977641023e-01,-4.713669762756460546e-01,4.025408263468309156e-01,-7.343456794941430332e-03,-6.424367336100970938e-02,-2.087527025819198648e-02,8.180276155471801758e-01
3.458279724255344800e-01,-4.445192511819723302e-01,3.098834490215584547e-01,-4.050213567528498579e-03,-3.694356653250085304e-02,-2.274568190323327660e-03,7.756876349449157715e-01
2.624648295831139011e-01,-4.471051149228517652e-01,3.921991012895498785e-01,4.507692396136744710e-03,3.968716709389021047e-02,8.641675701997603848e-03,7.857393026351928711e-01
3.545099555555494830e-01,-4.637334873717964268e-01,3.477813023692569727e-01,3.738339002153109967e-04,2.500763718382387028e-03,5.123793741449263932e-04,8.149121999740600586e-01
4.133107272544306876e-01,-5.672548064153948300e-01,2.507497624731051533e-01,5.446747849629555993e-02,-1.140971934276772404e-01,1.935584309251876800e-02,9.368093609809875488e-01
3.737147402036247734e-01,-4.573786672162151179e-01,2.497224539915090802e-01,-6.028313725160555289e-03,-3.247746056134069581e-02,-5.174202714241470796e-03,7.787135839462280273e-01
3.182049548488576907e-01,-4.485859678921589877e-01,3.446775110534716635e-01,-8.649193243200388112e-03,-3.458525384733648900e-02,-1.033317265471588031e-02,7.830078005790710449e-01
3.416358931039819580e-01,-4.445861243492956749e-01,3.085749987835170183e-01,3.120467311958487547e-02,-3.393985718125890755e-02,2.215343057517948563e-02,7.753025889396667480e-01
2.413425127503000256e-01,-3.918969811894499888e-01,3.376509076340487581e-01,5.689098385417722115e-02,1.883970241183161587e-01,4.491461921922006162e-03,7.664883732795715332e-01
3.451008937321374814e-01,-4.528624746326174177e-01,3.041107665804043680e-01,7.068545171486240869e-03,-1.895866389537271754e-02,4.611611423986563575e-03,7.791078686714172363e-01
3.756912590291646703e-01,-4.317287233130008284e-01,3.506551447845859260e-01,7.561566293573027467e-03,7.280934078984693109e-03,7.025096239483732963e-03,7.954984307289123535e-01
3.576548122341952629e-01,-3.999674422423673548e-01,3.644435600459584590e-01,1.310015748819762064e-02,1.103008781777049807e-02,2.240809101448692012e-02,7.626054286956787109e-01
3.285312465682942440e-01,-4.441149279562410790e-01,3.268284953161584294e-01,4.775975375118880956e-04,1.370239496759543965e-03,-4.407329790813779781e-04,7.718006968498229980e-01
3.812092160624434567e-01,-4.558261797385348979e-01,3.592716304480890743e-01,-1.237003286856906909e-03,8.619253564028382707e-05,7.893867364636375722e-04,8.262889385223388672e-01
3.820707472623435796e-01,-4.600646326244108852e-01,3.645019055109278705e-01,-6.560450295722376930e-03,1.722276786291451235e-03,1.042826871025655201e-03,8.335745930671691895e-01
3.776473888111275823e-01,-4.427779198289916174e-01,3.557728271899782135e-01,2.170293503092962477e-03,1.088945172122183884e-02,4.326487826121683603e-03,8.099727034568786621e-01
3.710498259659704701e-01,-4.577258456684727417e-01,3.613943371514080627e-01,-1.129837301158739989e-02,3.921564513277703973e-03,-8.827365492302348404e-03,8.243924975395202637e-01
3.796544597978627200e-01,-4.611507132271481790e-01,3.592511352542979153e-01,-2.780865985617009869e-03,-9.683113311954195251e-04,1.428473384895764928e-04,8.308071494102478027e-01
3.781550118212710365e-01,-4.636434242847474740e-01,3.614521453991137445e-01,-2.393036380666384993e-03,2.166655623767442182e-03,1.110361661034344589e-04,8.335912823677062988e-01
3.600536906690766648e-01,-4.711334323645187672e-01,3.653437383443660091e-01,-1.689090085545939986e-03,7.996282220043007209e-04,6.131623883527312184e-03,8.339186310768127441e-01
3.805788327131153226e-01,-4.399738303746951740e-01,3.532802040027662183e-01,-1.354569134783190597e-02,3.304738047427895585e-03,6.103630368391414892e-04,8.076114654541015625e-01
4.156977372151970940e-01,-4.674812274569167814e-01,2.647516375674727751e-01,-5.678950194548030780e-03,1.001582645662336436e-02,-6.696995210919045108e-03,8.185411691665649414e-01
3.652566132504803109e-01,-4.749970537726503350e-01,3.651150451603871749e-01,1.341191038169431632e-03,-1.422594669057038186e-03,-1.302562180539315216e-03,8.401927351951599121e-01
3.632688940788615928e-01,-4.750984583589727972e-01,3.654197924263402619e-01,1.768501210376505726e-03,-1.086294759738241520e-03,-1.277035262702399263e-03,8.394554853439331055e-01
3.628633519644427485e-01,-4.751998736746541052e-01,3.635890638128351782e-01,2.092488875687676872e-03,2.276253150555282326e-04,-1.907683877520161431e-03,8.384407758712768555e-01
3.468305430335074657e-01,-4.305453810871925358e-01,3.791064640423652543e-01,2.071661061546003352e-03,-6.632955674810080485e-03,2.450716415823674457e-03,7.941086292266845703e-01
3.636409092728687953e-01,-4.751786700438763722e-01,3.630830838804488536e-01,1.971789695575194498e-03,4.097610024472575887e-04,-2.027956606859405639e-03,8.385553956031799316e-01
1.382810952900076495e-01,-4.805166967253000632e-01,5.190546225597205687e-01,-9.452769922628050103e-02,-2.312551360520311017e-03,5.124766428185283801e-02,8.934329748153686523e-01
3.655162479154946409e-01,-4.750761271189998247e-01,3.634951068383664996e-01,1.312388541173028752e-03,-9.319192964471593749e-04,-1.688875251020348659e-03,8.395933508872985840e-01
3.316196619246952193e-01,-4.475426320559847682e-01,3.336274543183361807e-01,1.717821572970601755e-03,-1.972218641103173128e-03,3.691079857605139136e-03,7.802074551582336426e-01
3.251406419497490097e-01,-4.435644142800900802e-01,3.296156729247969319e-01,3.466367099950276609e-04,1.588484722456129025e-03,-8.761460039879674644e-04,7.709589600563049316e-01
3.296698996943137616e-01,-4.480240128805518252e-01,3.270493046430811290e-01,-6.205815608051629823e-03,6.482712888756668804e-03,2.778792434158182043e-03,7.765574455261230469e-01
3.361821199473983834e-01,-4.519385282030466966e-01,3.336726704170883684e-01,8.851843310533114061e-04,7.559249974371559221e-04,4.645090778355042034e-04,7.868719100952148438e-01
3.305371276512767409e-01,-4.471883829517390163e-01,3.332175435049984369e-01,-2.327747502446290539e-03,9.293563389409511492e-04,2.670472504685975426e-03,7.790949940681457520e-01
3.681395427962837474e-01,-4.772606417056682870e-01,3.675587518723965608e-01,1.408308539346547284e-03,1.757517897619789368e-03,8.273278577837715189e-04,8.451201319694519043e-01
3.394570857002847108e-01,-3.561820768776661761e-01,3.600745810750272113e-01,2.863469388314696801e-03,1.193977680099108513e-02,3.575146448045107492e-03,7.065209746360778809e-01
3.299378726257127803e-01,-4.456021833539152155e-01,3.207920301831305165e-01,-2.739218539384224646e-03,1.004881896892205473e-02,5.281007612778998656e-04,7.712193727493286133e-01
5.326204437793433666e-01,-5.656269963271631784e-01,9.174908852491049649e-02,2.227224486011951041e-03,-1.482906749682808834e-01,8.469482126638602781e-03,9.912263154983520508e-01
5.090644921451963345e-01,-5.005523169988481680e-01,1.441177440272995158e-01,-7.667433670183087385e-03,-5.052716382867993017e-02,-1.430591441060835231e-02,8.902276158332824707e-01
3.730412860080504767e-01,-4.487990808446449265e-01,2.533125208178200194e-01,1.471606055667954403e-02,-3.989893336884312025e-02,1.588851121876183907e-03,7.725229263305664062e-01
4.179733799095145530e-01,-4.526452932787459194e-01,2.351191341151436243e-01,-1.110290562880442665e-03,-3.441273080964844799e-02,-1.357153925268692052e-02,7.976999282836914062e-01
3.761629903313834511e-01,-4.541340916994056620e-01,2.792767390443838260e-01,8.978427462001042220e-03,-3.227227833974950083e-02,-6.747877532887854501e-04,7.884817719459533691e-01
3.596386306639882680e-01,-4.620018888677036584e-01,3.826798843322323784e-01,8.661401746689279197e-04,-1.957028080112047184e-03,-6.963704988163084376e-04,8.334091901779174805e-01
3.434156348550185811e-01,-1.122490278068085101e-01,3.312943319292953603e-01,-5.420221297634934300e-03,1.091216332790186268e-02,3.878270427512926083e-02,4.552050232887268066e-01
3.646559124494407333e-01,-4.693345521370848594e-01,3.638851593046518174e-01,6.933197302262641450e-03,1.419081500392186009e-03,-2.980171145042681633e-03,8.337114453315734863e-01
3.859291054770755403e-01,-4.529227985609518559e-01,2.667327862861694765e-01,1.605697486820907918e-03,-1.631114952380561395e-02,-1.106015285053985964e-03,7.865759730339050293e-01
9.549560478700362676e-02,-4.786896104200776270e-01,5.031028941202184690e-01,-1.071922914402705790e-03,-1.261362971202880170e-02,-6.890799243870284613e-03,8.546915650367736816e-01
4.255110560172394307e-01,-4.686010349734307523e-01,2.010064185881562659e-01,5.119159099889355330e-03,-4.672888533611886663e-02,1.031678453869045928e-02,8.099722862243652344e-01
5.013191138193400231e-01,-5.262363430772679651e-01,1.112666135496352127e-01,-1.527991047539986949e-02,9.619768423415974920e-03,4.325753806737033663e-02,9.021099209785461426e-01
3.766500658325703244e-01,-4.361645399945238699e-01,3.583612459465508326e-01,-5.657858984815285729e-03,-6.573861671426714862e-03,1.716375556488900335e-03,8.039721250534057617e-01
4.552690438490035185e-01,-4.663248849034599131e-01,1.617159330754681101e-01,-1.797928722866236990e-03,-7.008806641171955176e-03,-2.203177614744178479e-03,8.155633807182312012e-01
2.580977365578658311e-01,-4.658713583763017807e-01,4.002057438520041366e-01,-2.189839137717079776e-02,-1.195802060793328681e-02,-1.462957063815785268e-02,8.060504794120788574e-01
4.463285276593811357e-01,-4.601552071860794957e-01,1.835957466022331563e-01,1.176125137170542373e-03,-1.005933884613159114e-02,1.289379551641027348e-02,8.083221912384033203e-01
4.485668337918284343e-01,-4.617606695690623653e-01,1.921380702458870826e-01,-3.088723537024978122e-03,-1.376864476173660437e-02,9.289122267917612058e-03,8.135563731193542480e-01
2.997670154999737546e-01,-1.358064354564853526e-01,2.973343190711024153e-01,-2.212415452358671483e-03,-4.719653389223848387e-05,1.414953796062399420e-03,4.343860447406768799e-01
3.291966501299473657e-01,-4.442634980962846258e-01,3.272912444460859271e-01,1.751944422081859931e-04,1.301095674021202292e-03,4.003330296179153291e-04,7.725128531455993652e-01
3.311722677605089538e-01,-4.460971138164502303e-01,3.317849626870287283e-01,3.815573020771591533e-03,1.345860525677294167e-02,-2.287338164314966452e-03,7.779633998870849609e-01
3.312680561281025615e-01,-4.491239016323413935e-01,3.341744400295872386e-01,2.113226264393215821e-03,1.208550749796965043e-03,-3.784041214087380776e-03,7.818880677223205566e-01
3.324972308952411360e-01,-4.458794078869311450e-01,3.197834913562711545e-01,4.310921834455327430e-03,1.009530207651961921e-02,-4.002773755451526907e-04,7.723326683044433594e-01
3.460681888788341709e-01,-4.623143230379037627e-01,3.462336344079454675e-01,6.141374903207647354e-03,7.149507080521536745e-03,-4.015471126360005416e-03,8.086599707603454590e-01
3.669794282673773389e-01,-4.479740707222154006e-01,3.643495438357669536e-01,-6.361940686473136104e-03,-1.027637857921214967e-02,-9.919738358705044827e-04,8.139128088951110840e-01
3.538600966528862579e-01,-4.684030483010270807e-01,3.549986732448608406e-01,2.360587743885122700e-03,4.945283549322031409e-04,-3.765644017460555854e-03,8.228694796562194824e-01
3.454522127148038635e-01,-4.639682208472822866e-01,3.502835003999858476e-01,-4.047159829800353649e-06,3.094332417119239308e-03,-5.303542382585536667e-03,8.119165301322937012e-01
3.590859463921192707e-01,-4.556802782976278055e-01,3.819972880441039886e-01,-9.236404418106759209e-04,-2.538138312423153135e-05,2.032396190999215691e-03,8.264691829681396484e-01
3.396957197641430892e-01,-4.604484291335638746e-01,3.498146152591182778e-01,3.255564516302461575e-03,6.487819373087852417e-04,-4.875792840564025822e-03,8.053160905838012695e-01
3.717057210292663005e-01,-4.654381980646780104e-01,3.423253338740389062e-01,4.486228415921383363e-03,-8.526933102154824959e-04,8.602094799892632399e-03,8.230201005935668945e-01
3.942399605373450022e-01,-4.653792551940602040e-01,2.869064778406379967e-01,4.226566698007719509e-03,1.390562097175787029e-04,1.845291860720451801e-02,8.119574785232543945e-01
3.748942934300924512e-01,-4.675147102044561187e-01,3.637442266891401932e-01,-2.547264367759335610e-03,-1.297848469662573039e-03,2.373070547416972990e-03,8.369144201278686523e-01
3.450598343063526752e-01,-4.452201748018496108e-01,3.126439965099386820e-01,-1.699219657490488563e-03,7.145851119752185537e-03,1.033932745656961517e-03,7.746875286102294922e-01
3.629517797904575627e-01,-4.616560573627730424e-01,3.764242201899996032e-01,2.575919760050187149e-03,-7.940072099873990430e-03,-4.988475579544197382e-03,8.315964937210083008e-01
3.616433159632626571e-01,-4.629597977621453531e-01,3.775427658364904349e-01,-4.625446765127623765e-04,-2.185828758506327962e-03,-2.150843984916106510e-03,8.326840400695800781e-01
3.636032824321394075e-01,-4.674689381908072594e-01,3.739985547166708169e-01,-8.092776183867562544e-04,-3.524496331958336046e-03,-1.325713660484778697e-03,8.363448977470397949e-01
3.601452465805193848e-01,-4.523544248491747632e-01,3.760017264640413415e-01,-1.599522405502857778e-03,-6.826109010790367207e-03,-7.407408390723108256e-03,8.207329511642456055e-01
3.629702775433182316e-01,-4.622916368024572176e-01,3.788523604981815507e-01,1.106705004943504085e-03,-1.868982550222994597e-04,2.922279708493526716e-03,8.333340883255004883e-01
3.585939150796715880e-01,-4.588205554393931518e-01,3.802470986568619038e-01,-5.356346209688465758e-05,-4.518192969128182954e-03,-4.786808092378404440e-03,8.285317420959472656e-01
3.620582214821792544e-01,-4.607876442063409961e-01,3.720934343820907486e-01,-2.316760396976833957e-03,-1.416564953707142704e-03,3.755108894402603252e-03,8.279479742050170898e-01
3.638592338927975622e-01,-4.687112795501976459e-01,3.708076422193760102e-01,3.051416215168290674e-03,1.956150449125714733e-03,-8.661090471574211407e-05,8.360899686813354492e-01
3.682689334510043655e-01,-4.391177707898471505e-01,3.669384250736315578e-01,1.863166720976978507e-03,1.780855614848815549e-02,1.801298138109177095e-03,8.073242306709289551e-01
3.640853809045421219e-01,-4.398187317541484287e-01,3.624645734765657434e-01,3.058819553378951984e-03,1.216949647212454272e-02,3.058142623343812136e-03,8.034064173698425293e-01
3.601805316233052112e-01,-4.605654657489415271e-01,3.787289975304114487e-01,1.709388412792830895e-04,9.556762545363088352e-04,-2.416149341175733746e-03,8.301879167556762695e-01
3.554615019246392116e-01,-4.434310687478063562e-01,3.792564187659356323e-01,-8.952180774449506597e-04,-3.674717437778429047e-03,-1.102914602666453699e-02,8.113032579421997070e-01
3.612893130462447311e-01,-4.362929359043840050e-01,3.579285669246685120e-01,6.965039888284552810e-03,-5.139307871332997150e-03,4.009963739273441144e-03,7.960786819458007812e-01
3.747423157969341223e-01,-4.463924248250359383e-01,3.576672805474543915e-01,7.305328336692578153e-03,-7.105789979089578018e-03,-1.823171995471185901e-03,8.129295706748962402e-01
3.369999912884927284e-01,-3.563354191997696874e-01,3.603651162973171562e-01,2.401854017433771582e-03,7.649316850911943091e-03,2.105402178967067002e-03,7.054544091224670410e-01
4.020004537667551947e-01,-4.828299876716366512e-01,2.953594242762548339e-01,5.776144568670396780e-03,-4.260474076452220454e-02,4.063826607725064266e-02,8.428748250007629395e-01
3.674320402696549248e-01,-4.718706762195302717e-01,3.677906359954114524e-01,9.531085996470380073e-03,-4.730179999653867651e-03,5.179355107620018002e-03,8.397322893142700195e-01
3.322075136559525799e-01,-4.358411173844136677e-01,3.686727285022317613e-01,7.504306895016164998e-03,1.548622206960335087e-03,1.110721340561175241e-03,7.870294451713562012e-01
3.752550278732431632e-01,-4.621124104220710738e-01,3.652646708794764496e-01,4.509681773114691816e-03,-5.691563501145600890e-03,-1.557434909065741205e-03,8.325166106224060059e-01
4.084761662789058168e-01,-2.873575512770273344e-01,1.857108498634274241e-01,3.730794491745439978e-02,1.230704519963672638e-01,1.092544602781773122e-01,6.813410520553588867e-01
3.773916655037491963e-01,-2.768434748891578367e-01,1.872827426104960447e-01,-3.556604023167926620e-02,1.293816160009658711e-01,1.095193151641527113e-01,6.555807590484619141e-01
3.442259997446043274e-01,-1.786059300461173005e-01,3.188997091327493427e-01,-9.528533494773802279e-03,-1.003483442192765022e-02,8.245809422674235667e-02,5.307784080505371094e-01
4.107235055281487912e-01,-4.779602826578948083e-01,3.628485910992986230e-01,-3.083311028505976784e-02,4.273843759212916232e-02,3.207325603239536554e-02,8.723090291023254395e-01
3.156803637089580228e-01,-4.677547776330625018e-01,3.915220484171580417e-01,-8.812033520408730364e-03,-3.265568544980297812e-03,2.515494449970344902e-03,8.241502046585083008e-01
3.437349000609757343e-01,-3.963005272910693488e-01,3.646415944857383518e-01,-3.839604060762542067e-03,-1.782865090582845535e-02,4.477672325941765147e-03,7.514114379882812500e-01
3.656298824637646550e-01,-4.597545226933273943e-01,3.689845924528780685e-01,-3.836564902684090443e-03,-1.121711522626622423e-02,4.673906756201080294e-03,8.273613452911376953e-01
3.687799047725079937e-01,-4.324525817831352814e-01,3.623844943828367637e-01,-4.749073235328063816e-03,-1.486209381533890733e-02,4.382318692201917811e-03,7.985475063323974609e-01
1.840864921813021027e-01,-4.722362788422365121e-01,4.704106782482995741e-01,-3.762861871145146975e-02,-5.026413367857224257e-02,-2.266337691599820594e-03,8.440999984741210938e-01
3.636901481823261451e-01,-4.609697273594783873e-01,3.694524428166204855e-01,2.185139819699282414e-03,7.540543872036533507e-03,1.580231869537209247e-03,8.276723027229309082e-01
3.613758612354814326e-01,-4.601535773390373896e-01,3.747525581325092947e-01,5.151849737425724879e-04,-1.312684957916116597e-03,-1.012802479551504773e-03,8.283042311668395996e-01
3.626351186548861238e-01,-4.679886762956608770e-01,3.638224343920470893e-01,-2.310754712965208452e-04,1.989107417564543864e-04,-2.257718904877172028e-03,8.312274813652038574e-01
3.659728360059821828e-01,-4.753366474161749844e-01,3.698001993977825808e-01,-2.936778303892806450e-03,4.978693381615544901e-03,5.295147477792103239e-04,8.432896137237548828e-01
3.619162580774671345e-01,-4.325968560858779455e-01,3.674641854626435333e-01,-4.783974064406767979e-03,-1.603760867997555337e-02,4.393013486042846028e-03,7.978646159172058105e-01
3.718480304968312944e-01,-4.365480412631059792e-01,3.584083337672933078e-01,-3.058223184359317847e-03,-8.884991713117575476e-03,4.064518305495467068e-03,8.019567728042602539e-01
3.214229449952971107e-01,-2.679039724698200065e-01,3.370524370544778492e-01,1.132389611216834541e-01,5.223575403401323897e-03,5.287292210519942831e-02,6.353731751441955566e-01
3.509668520572473693e-01,-4.638035773160701369e-01,3.456622386973811634e-01,4.234135122197131736e-03,-6.832137198628443616e-04,-2.387058991544846454e-04,8.121652007102966309e-01
3.631446811907737549e-01,-3.525477934434768645e-01,3.389831162087783012e-01,-3.350616853965069503e-03,-2.601020886052179439e-03,2.040817739803647704e-04,7.039611935615539551e-01
3.656961904411538122e-01,-4.757510293185965855e-01,3.667433045623469390e-01,-5.658313366251049989e-04,2.138876318582021499e-03,-6.702254718998882938e-04,8.419808149337768555e-01
3.669805691765392619e-01,-4.739977195188238568e-01,3.667690244634781438e-01,-1.554803748255644946e-03,4.544892484635080360e-03,-1.557460686858992954e-03,8.409180045127868652e-01
3.671468856386160828e-01,-4.738086992739891645e-01,3.670831051279780932e-01,-2.143800727066155504e-03,-4.868187557533284679e-03,1.183554786721241611e-03,8.409766554832458496e-01
3.666078506852078478e-01,-4.739428408000806447e-01,3.682220811146760808e-01,-1.551870961984082786e-03,-4.504886741310942799e-03,-1.374303654542853950e-04,8.413994908332824707e-01
3.535063946990317785e-01,-4.299363943709355596e-01,3.799521630822718099e-01,9.199033464880144594e-05,-1.711092460464192378e-03,1.928928331930600086e-03,7.970073223114013672e-01
3.608874375755894426e-01,-4.130306293611840651e-01,3.565191574559861687e-01,9.366828909353572263e-03,-1.256011560714535152e-02,-7.200604202847715176e-04,7.722212076187133789e-01
3.509764755672707404e-01,-3.955817606877370940e-01,3.668094527795749960e-01,-3.163347682883283721e-03,-1.173007744221289672e-02,4.742102267081862478e-03,7.549373507499694824e-01
3.652797553816492515e-01,-4.430395869841977641e-01,3.798475318358393582e-01,-6.144326227554838121e-03,6.392708757361814306e-03,-1.795532122660073102e-02,8.164379000663757324e-01
3.639781476348943334e-01,-4.511887335385548203e-01,3.654559718558816339e-01,6.072171944199029848e-04,3.403616815732462414e-03,-2.172196100339141012e-02,8.167957663536071777e-01
1.196032355444679868e-01,-6.300730609466099752e-01,6.327512466997915475e-01,1.901248322832069237e-02,-9.124221388293457524e-02,7.269693380135290595e-02,1.118903398513793945e+00
3.052624626838881805e-01,5.291363413735269972e-02,3.755231321281247703e-01,2.914954741438815014e-02,8.547171845668588216e-03,1.662495990422276472e-03,2.985351383686065674e-01
3.473792223187042727e-01,-1.290419183001123571e-02,3.358075674495945573e-01,-1.553300718001683969e-02,2.554317743391381398e-03,-2.070819080585931810e-02,3.574896454811096191e-01
2.041263043554509826e-01,-5.530256549468310912e-01,5.233681473106809312e-01,3.655933776900996413e-02,-6.263567958992667661e-03,6.341519641114088356e-03,9.597693085670471191e-01
3.451866792450640209e-01,-1.082801092256621689e-02,2.914674567649750414e-01,1.272989847036112019e-03,5.253624312894092374e-02,-8.300625567251359443e-03,3.449624776840209961e-01
3.656437939212796584e-01,-4.620454215745435356e-01,3.638545635721411320e-01,6.179885826848556182e-03,3.427168120983138840e-03,-2.465200517997802928e-03,8.268976807594299316e-01
3.220501548612373921e-01,-4.489451499015340019e-01,3.767055394962859349e-01,-8.792877417915538271e-03,2.694744862731534001e-03,-2.181128526949270303e-03,7.998924851417541504e-01
3.438293961194246462e-01,-4.650334970017573344e-01,3.748528843035566216e-01,-1.142781347315093357e-02,-1.860461429717635926e-03,-1.029820385946162396e-02,8.252488970756530762e-01
3.630991690224061319e-01,-4.666425610988148565e-01,3.692378823895071660e-01,5.692141779934340590e-03,2.910749348025005317e-03,-1.588147817465894061e-03,8.329061865806579590e-01
3.812004877423160187e-01,-4.553184573028404847e-01,3.587617200102598547e-01,-1.474162986669679334e-03,4.520484476515900917e-04,5.668145084815515806e-04,8.255332112312316895e-01
3.705141530452921717e-01,-4.679213101312640344e-01,3.631219975734717442e-01,-1.877963737063938600e-03,-4.633347833493921784e-03,2.562381314110428500e-03,8.348206281661987305e-01
3.252362674222773475e-01,-2.667805787084083780e-01,3.460027895696355937e-01,-9.132186842713012689e-03,1.232016127720000648e-03,4.665186996726440605e-02,6.082707047462463379e-01
3.197798931533568645e-01,-2.262176626676425384e-01,3.264015160111920499e-01,6.090369515617810592e-03,7.240516661283234777e-04,-5.411924700424249231e-03,5.495209693908691406e-01
3.105333491848860095e-01,-1.870916624981087129e-01,3.594861556914404344e-01,-2.011439256585439289e-02,2.719764864914829810e-03,6.414736815912763790e-02,5.366262793540954590e-01
3.549468935803114511e-01,-4.446731242970822784e-01,3.794113577250234348e-01,2.854475613104606128e-03,1.065476088739560415e-02,4.581677383704684924e-04,8.123537302017211914e-01
3.694288339705479873e-01,-4.651512639252167736e-01,3.584159569681638624e-01,8.295869761264966849e-04,6.050649760165583216e-03,-2.805387682437230756e-03,8.292102217674255371e-01
3.620331341700508965e-01,-4.684258837753573212e-01,3.503951207037585558e-01,7.379976449245343947e-03,-1.943666408526121062e-03,4.071474767008854273e-03,8.248376846313476562e-01
3.531669604059979317e-01,-2.287674622383645828e-01,3.600772299662843290e-01,-5.455506060199393631e-02,-8.385177201631179369e-03,6.149407841041928946e-02,6.026616096496582031e-01
3.283760171144195494e-01,-1.025128183231214241e-01,3.198784412930963938e-01,-3.696158133000177620e-02,1.998765307934219360e-02,4.199286863794853344e-03,4.329269826412200928e-01
3.674217373811154430e-01,-4.710576065714633387e-01,3.656818121511055675e-01,-1.433135364784246957e-03,4.637154715158278186e-03,1.308681951809252198e-03,8.376559615135192871e-01
3.128840615785913881e-01,-1.513298157284620471e-01,3.140922773033763549e-01,-5.952582688829450609e-03,4.865381317443377360e-03,4.685743823362623073e-02,4.720392227172851562e-01
3.809683512111025072e-01,-5.260701682587185513e-01,3.586669401724995598e-01,4.205983119761252942e-02,-9.757576734061071400e-02,2.448296687011860054e-02,9.157818555831909180e-01
3.441697267538302851e-01,-4.302002774603784774e-01,3.811730968679364895e-01,4.101967195904092194e-03,2.168592883775260875e-03,2.063875774253800133e-03,7.935677766799926758e-01
3.135063581731888371e-01,-4.740715507223534075e-01,3.670349713472579878e-01,2.566562231777973907e-02,-2.821256677061046575e-02,1.752105368394054133e-02,8.188939094543457031e-01
3.616363673729645623e-01,-4.974874044719794774e-01,3.401671258534212372e-01,2.132772106604620063e-02,-6.424505923356196857e-02,1.639521491479302776e-02,8.571249246597290039e-01
3.696672542337812728e-01,-4.466683322259997757e-01,2.759219395645590156e-01,2.908539147532413719e-03,-1.387680417432946359e-02,-8.544129547870265998e-06,7.741236686706542969e-01
3.526294396182680924e-01,-4.298086593982862746e-01,3.775578674911662103e-01,1.991836002224739791e-03,5.327882306584663837e-03,2.709235243294174245e-03,7.952702641487121582e-01
3.418619343624418883e-01,-4.593261785938838049e-01,3.414839422243742817e-01,6.007628384686717476e-03,-6.730032524915033690e-03,4.888532922788241773e-03,8.011963367462158203e-01
3.689459397977664090e-01,-4.527238153215732419e-01,2.894901355166092927e-01,1.141613109881486031e-02,-8.789800337367687996e-03,7.510258777313721761e-03,7.854679822921752930e-01
3.552920298834251756e-01,-4.535193721073526030e-01,2.974319463407730790e-01,1.547595402780616546e-02,-1.390820908603372999e-02,1.129561827230100499e-02,7.825646400451660156e-01
3.566358380793808180e-01,-4.436047061705788996e-01,3.741146995631674521e-01,-1.200599445156996445e-03,-1.213002970598898306e-02,3.832884272864219878e-03,8.094242215156555176e-01
2.120566839842202844e-01,-4.515432168685398207e-01,4.347436500081596766e-01,8.513618656850055824e-03,1.515594061195507745e-03,6.412255043590991445e-03,7.987972497940063477e-01
4.246244803690251146e-01,-4.626113739109118939e-01,2.450770303605035449e-01,8.861140777557547851e-03,5.081260769054595818e-03,6.828051901797202797e-03,8.127586841583251953e-01
3.553921469055832394e-01,-4.596699163812262290e-01,3.228831367676615050e-01,9.092164393002203499e-03,-9.794736362204183380e-03,4.776138281588463569e-03,7.996814250946044922e-01
3.631916344490906390e-01,-4.594069409675249904e-01,3.755937261172080932e-01,-3.391805340096277002e-03,-8.434611399071112806e-03,2.819086702193357007e-03,8.290331363677978516e-01
3.599427877992288360e-01,-4.626550799241225809e-01,3.811944164231327870e-01,2.037319543529879200e-03,4.321682233213279718e-03,1.431737202940612649e-03,8.334717154502868652e-01
3.292424477995877785e-01,-4.492405797853745719e-01,3.230642544308151010e-01,-5.029607089275585363e-03,1.190159297962863419e-02,3.415432837977120783e-03,7.757578492164611816e-01
3.301780852371231090e-01,-4.522471137488240922e-01,3.414813322534753781e-01,-4.835198026340621277e-03,1.454440394699506658e-02,6.854388226992019252e-03,7.886739373207092285e-01
3.604214768973438288e-01,-4.569573061897741484e-01,3.038433791526816141e-01,-1.104672597667863063e-02,8.703464572761028875e-03,7.012250100196596933e-03,7.910779118537902832e-01
3.289565498608694183e-01,-4.486025669375648395e-01,3.345170687644100083e-01,-4.791402764367102760e-03,1.861218005242724904e-02,4.751755870313162551e-03,7.811073064804077148e-01
3.727688442911265554e-01,-4.574863352711003861e-01,3.612417978408309360e-01,2.224944381997638349e-03,7.714833942501716797e-04,-1.965417101312789006e-03,8.245692253112792969e-01
3.777099584254452469e-01,-4.446535594100166078e-01,3.556282255430212036e-01,-9.095735538919685545e-03,-2.107456988670372740e-03,-2.308892124694001107e-03,8.117189407348632812e-01
3.647277124927113534e-01,-4.687565063164744750e-01,3.689345901168833430e-01,-2.356426456744870664e-03,-1.076239984696663503e-03,1.028268120434004066e-03,8.356095552444458008e-01
3.717608478805271566e-01,-4.574524436936950877e-01,3.629547331800823673e-01,2.678117134537099167e-03,3.213914132230750878e-04,-2.390776956669821325e-03,8.248690962791442871e-01
3.583926591761876779e-01,-4.430233379511006042e-01,3.794414077125416451e-01,-1.920960946916147475e-03,-7.451730681406977877e-03,2.188617836908867634e-03,8.122631907463073730e-01
3.709861936308599395e-01,-4.727795842124529191e-01,3.651122546642156519e-01,-1.623270541640353670e-03,-2.022190829199404984e-03,2.416170678568515216e-03,8.408666253089904785e-01
3.820992465222122769e-01,-4.539118702485767098e-01,3.592946783901709296e-01,2.456157753186520576e-03,1.400247051590765702e-04,3.372835570225390586e-04,8.248565196990966797e-01
2.938132627459909552e-01,-5.084264765028662092e-01,3.863440515209475290e-01,5.260600656833676683e-03,-1.345712983808722840e-01,1.558987508835884194e-03,8.836294412612915039e-01
3.615078051677024784e-01,-4.605388151252123308e-01,3.798364864682763353e-01,-2.357118309945505953e-03,-1.300574559069089938e-03,2.543926188662462996e-03,8.313872814178466797e-01
3.615918687144248911e-01,-4.742288872463683580e-01,3.632873917839683497e-01,-1.349919440657441298e-03,7.069282872736923611e-04,8.738669402944314541e-04,8.366753458976745605e-01
2.146910449440373736e-01,-7.572742969267327595e-01,5.247143952594595095e-01,2.393515386363515712e-02,-1.719937365089692083e-01,8.083533249020839750e-02,1.205085158348083496e+00
2.200119543033354774e-01,-4.655931902383578791e-01,4.273436876240250815e-01,-8.125896124261667436e-03,6.082239804243669626e-03,2.928004452502382029e-03,8.096439838409423828e-01
2.585926061981205226e-01,-5.439511820689267863e-01,3.410470952369540343e-01,-2.088589271552324794e-02,-2.198025658762474688e-01,7.948298816667026881e-03,9.292396306991577148e-01
3.198943327027673478e-01,-4.762495129079417078e-01,3.584441005463797070e-01,-2.660859914110337565e-02,-4.420712013741737167e-02,-1.309918460926105463e-02,8.212940096855163574e-01
3.386613702498347256e-01,-5.522410589568451655e-01,3.607568598343576238e-01,-2.860274994655237837e-03,-1.616741741597041704e-01,3.043949281157250220e-02,9.460973143577575684e-01
2.547563727329829053e-01,-4.570638756343956555e-01,3.842813647150343237e-01,-3.067754078898706589e-04,-8.143854725428420482e-02,-7.503312899682234791e-03,7.973262667655944824e-01
4.336686648414926903e-01,-4.657844661752875703e-01,3.345517409935088171e-01,1.324634817785702405e-02,1.162690377008728654e-02,6.394693607334853321e-03,8.548355102539062500e-01
4.120068476326128049e-01,-4.823066031193309344e-01,3.147127200143515768e-01,-6.624565759818377281e-03,1.134652994827733312e-03,-1.511203029347044785e-02,8.503363132476806641e-01
3.861225622703415294e-01,-4.620967894983279978e-01,3.370016978345427017e-01,-4.735191153903012436e-03,4.856378489282001804e-03,5.674867599476183209e-03,8.248989582061767578e-01
3.902861915990893937e-01,-4.687068729004344458e-01,3.274009717090572424e-01,-8.018689097907483188e-03,7.893198027919793788e-03,-1.229844889707132696e-02,8.298428654670715332e-01
3.720039861116629099e-01,-4.627846330076239578e-01,3.388470841863779337e-01,-2.485320515409993394e-03,-1.315926539754608661e-03,9.446925635763291085e-03,8.188918828964233398e-01
3.939124923045648208e-01,-4.594047143791252230e-01,2.858120738614863821e-01,8.139004125122634506e-03,-6.882305088614117800e-03,1.483800552416723179e-02,8.053529262542724609e-01
3.961643851798665183e-01,-4.709576840661234831e-01,2.875130569483403398e-01,-3.711766711204377098e-03,3.013208372786574905e-03,2.007464124756045548e-02,8.190051317214965820e-01
4.059102031882935169e-01,-4.647785692910033628e-01,2.894405514008006053e-01,2.399350169922570119e-03,-6.573929938157351341e-03,1.798090596093844529e-02,8.193730115890502930e-01
3.598956689117551178e-01,-4.655606925635072946e-01,3.378486782566381130e-01,4.252979200526792701e-03,-1.398735618041914430e-02,1.713600891525758618e-03,8.150554895401000977e-01
4.581983661896486537e-01,-4.984982937149464721e-01,2.776225510664459550e-01,9.603774637183591298e-03,-4.265390371581915391e-02,-4.765042919635260887e-02,8.875056505203247070e-01
3.475907041425157495e-01,-4.643215599359808987e-01,3.562878294985267758e-01,3.297625483930654872e-03,-2.143970035181790024e-02,1.055072457397253013e-02,8.173640966415405273e-01
4.043522205526540736e-01,-4.653732762903017850e-01,2.518568762077022516e-01,5.668836978548132295e-03,-3.095328758332023533e-02,1.361050785584719822e-03,8.062409758567810059e-01
4.061796417229754930e-01,-4.653515099831608826e-01,2.326565250132121843e-01,4.796424803220318035e-03,-1.578261962234438209e-02,2.310319664243017448e-02,8.005395531654357910e-01
4.003871364230042196e-01,-4.654425446150513013e-01,2.851996222069586029e-01,2.818975230057093207e-03,-5.155556224054789826e-05,1.766560342885852355e-02,8.149579763412475586e-01
4.261601158759931174e-01,-5.089755783957022883e-01,2.774924019044119339e-01,1.950295706925998448e-02,-6.601664453599930329e-03,1.026456909247660393e-02,8.712888956069946289e-01
3.649279860765438088e-01,-4.641787632225382598e-01,3.388949698837927516e-01,8.834717321421031028e-03,-1.113014135185629678e-03,-1.667141289878009205e-03,8.165524005889892578e-01
4.181012161750893852e-01,-4.624486465776446176e-01,2.302371223085561969e-01,1.229714437832940717e-02,-1.374164780182435611e-02,2.288373122523392617e-02,8.048778772354125977e-01
3.648450453294648232e-01,-4.749768216016753142e-01,3.680881944180834919e-01,1.477740216871234469e-03,5.789081553556964547e-04,-1.997162472127547803e-04,8.414527177810668945e-01
3.612259587899494528e-01,-4.658086606705363897e-01,3.720096114829041789e-01,-2.208424780530971951e-03,2.566354425642631214e-05,-2.445975191257034487e-03,8.324983716011047363e-01
3.555457330841731434e-01,-4.548340849463886615e-01,3.823342053408494423e-01,3.737097119102511370e-04,9.710892204862580073e-04,1.668538176389402442e-03,8.241077065467834473e-01
3.740044587815762323e-01,-4.662505990701054648e-01,3.444363386282496275e-01,-9.193042446144054219e-03,-2.091192700403850875e-04,-1.213537442972228417e-04,8.260216712951660156e-01
3.591286250929957569e-01,-4.621972517746497644e-01,3.819005704542866586e-01,-6.393351946141204905e-04,-4.744915200463207389e-04,2.765201895279075818e-03,8.329602479934692383e-01
3.583646950094871997e-01,-4.547749560554443793e-01,3.802241476981975121e-01,8.312443964819506495e-04,1.439362010209589704e-03,1.357519621273673739e-03,8.242951631546020508e-01
3.620174675673574760e-01,-4.668253300701757924e-01,3.786777758085899670e-01,1.866852087912903202e-05,3.694744452506497356e-03,3.093711574784296404e-03,8.373388648033142090e-01
3.541360455564936949e-01,-4.399262081102706112e-01,3.769827804990010245e-01,-1.875364028241384136e-04,1.465254726772381895e-03,4.819026049886430615e-03,8.057758808135986328e-01
3.594932697302668512e-01,-4.661222718444696378e-01,3.779954543236991871e-01,-8.700900122570422906e-04,6.042741236869118848e-03,4.657918253134836484e-03,8.351262807846069336e-01
3.571914054600590083e-01,-4.560248056298346064e-01,3.797274883283117131e-01,-1.323222632543489792e-03,-2.779296795356315207e-03,1.573435592892217074e-03,8.247369527816772461e-01
3.659986263058678246e-01,-4.656196261477891785e-01,3.755988710017670873e-01,-2.424835636233741223e-03,6.123875477785287874e-03,4.069257935431983345e-03,8.365671634674072266e-01
3.647687904463813857e-01,-4.653827831921449887e-01,3.713732350787462000e-01,-3.901957059445615699e-03,8.649040256127294921e-04,-3.191004490020270777e-03,8.335204720497131348e-01
3.638538186534915342e-01,-4.692668142987086455e-01,3.743004786389236282e-01,-1.232133876268470818e-03,3.731655542574680885e-03,9.069908603240796514e-04,8.384218811988830566e-01
3.624004822539960702e-01,-4.709414082014049541e-01,3.545315021958258539e-01,-6.745810579453752863e-03,-1.574565855944164063e-03,4.887775797422574606e-03,8.295653462409973145e-01
3.616441023480829187e-01,-4.609998502696018852e-01,3.740944448542307121e-01,-2.457936062429585348e-03,-5.021195776175260347e-03,1.688163148109510020e-03,8.290009498596191406e-01
3.523553931901788339e-01,-4.689987696721390487e-01,3.528102410896278851e-01,-4.709527346962213111e-03,2.193623953060450018e-03,3.222584954279627233e-03,8.216499090194702148e-01
3.654244458742580970e-01,-4.695130527328122971e-01,3.698973937979324056e-01,-2.445200734696317910e-03,-4.427040100003006885e-03,1.333599527575169514e-03,8.372319340705871582e-01
3.618249147237090346e-01,-4.727075024459623798e-01,3.611314316403824720e-01,-3.386862302633642137e-03,-2.306232581356225386e-03,2.532183161145831187e-04,8.342161774635314941e-01
3.546071454796400069e-01,-4.688021009392423499e-01,3.537146847341994804e-01,-4.070753078498215612e-03,2.574063133704960918e-05,2.929109017956117982e-03,8.230091929435729980e-01
3.175175715920849351e-01,-9.294247371115393896e-03,4.791330507901609970e-01,5.225938304433403250e-03,5.600451179914889277e-02,-1.924558009525263649e-03,4.418664276599884033e-01
3.529926104624746541e-01,-4.527637620495666981e-01,3.216514016101572615e-01,-5.718705350148604698e-03,6.146096567558160390e-03,9.734077520181678165e-04,7.906873822212219238e-01
3.710721648457597777e-01,-4.732300722529053649e-01,3.655420200007675202e-01,5.845943659990549771e-04,3.236762253310076706e-03,1.594349072322868727e-03,8.415746092796325684e-01
3.673655145390360977e-01,-4.680063632552176056e-01,3.648194239534341965e-01,3.332958976358003575e-03,4.366496961081834868e-03,6.605137583244612837e-03,8.342344760894775391e-01
3.644573568449119283e-01,-4.759121884684465176e-01,3.657909101360666271e-01,-2.537736689518794021e-04,1.748156916760759379e-04,-9.240782147718687854e-09,8.410372734069824219e-01
3.683726573833658868e-01,-4.735663991825408425e-01,3.648569998773195655e-01,-1.383082083947885640e-03,4.420806783125303535e-03,-4.613683790338536520e-04,8.402254581451416016e-01
3.698482481136513567e-01,-4.732173399205064079e-01,3.631458488009263186e-01,2.375525258995368847e-03,3.284644907655331729e-03,3.126955060578080585e-03,8.397812843322753906e-01
3.677813311688433728e-01,-4.737759307366437023e-01,3.665002782182125163e-01,1.182821273090451210e-03,4.414582845676946234e-03,4.521497008684442244e-03,8.409911990165710449e-01
3.506777033131433519e-01,-4.600417888049878057e-01,3.522566472042795716e-01,-5.544879604188137842e-03,4.084675906213394540e-03,5.094240236840113373e-03,8.116457462310791016e-01
3.436865121812824331e-01,-4.612185763006766415e-01,3.416504717099001498e-01,-5.565247599315110288e-03,9.221631496737347101e-04,4.164882186942409428e-03,8.039807677268981934e-01
3.525826737177635284e-01,-4.608134177896149319e-01,3.391491288802847559e-01,-5.570866663732706656e-03,3.577896559379275220e-04,4.020828703025241917e-03,8.068512082099914551e-01
3.629099370383720990e-01,-4.711572066506135581e-01,3.511228877392492675e-01,-6.756212063079299751e-03,1.045130285903191764e-03,4.933190441390599042e-03,8.283652663230895996e-01
3.526165889022482292e-01,-4.690192545578075745e-01,3.534556872761039359e-01,-3.016472790508888894e-03,3.482134351837248148e-03,4.722051917353805445e-03,8.221351504325866699e-01
3.417147704764256222e-01,-4.612177657159048927e-01,3.450026600700479285e-01,-4.386550109945605916e-03,1.670674337383222085e-03,5.322520123667644557e-03,8.046754002571105957e-01
2.802654223056479377e-01,-4.824526509527794493e-01,3.916364705083434927e-01,3.884295107803550917e-02,3.507668545058224840e-02,-1.088736191384314517e-02,8.292527794837951660e-01
3.719102447072902273e-01,-3.044575372501342470e-01,3.560390491489408005e-01,2.469399516725129858e-04,3.585554803104900462e-02,4.771253792958535245e-02,6.765183210372924805e-01
3.433288940567135183e-01,-4.765419161594910413e-01,3.706882578673414974e-01,-5.136991485406900912e-03,4.440350560691359687e-03,-1.136957086509109843e-02,8.342025876045227051e-01
3.671121121106222795e-01,-4.387759284298264895e-01,3.601025403816459081e-01,-2.485582760987902347e-05,-9.202709328072159606e-03,-3.164905404671880616e-03,8.025832176208496094e-01
2.953719215867550152e-01,-4.721083409522859320e-01,3.880599271429899244e-01,1.864335136941861967e-02,8.810560631139102456e-05,-7.196327830732544145e-03,8.185055255889892578e-01
3.380112746645864696e-01,-4.696561278186794919e-01,3.800579741124838207e-01,-1.073157080310210149e-02,-1.131506006956385559e-03,-1.109939996076397036e-03,8.297031521797180176e-01
3.421603804913857516e-01,-4.650565516011977429e-01,3.782181833656449998e-01,1.348444084881134314e-03,6.958726834226463230e-04,-2.366226134499906358e-03,8.258507847785949707e-01
3.638328002450975651e-01,-4.599298860069928052e-01,3.729863894787737166e-01,1.211899510293073428e-03,-1.036754282928735536e-03,-6.962877044876350811e-04,8.283829092979431152e-01
3.416355850669987593e-01,-4.531628350554085527e-01,3.681506370161071184e-01,2.922785490324854296e-03,-1.103642082645975731e-03,-2.949970810146842516e-03,8.084164261817932129e-01
3.451046705918902613e-01,-4.648352102986393897e-01,3.671842409368238358e-01,6.051436425296038285e-03,7.288660095101262993e-04,-5.247610904078475920e-03,8.213204741477966309e-01
4.526054400968920755e-01,-4.506652627503920927e-01,3.393818529384685645e-01,-1.620178534864063005e-02,-1.918093939618624108e-02,-9.152379917845750168e-02,8.680247664451599121e-01
3.164456049124663162e-01,-1.879374952682353328e-01,3.313863596418299418e-01,5.767570439704824276e-03,3.956937997544696800e-03,-8.445488626910692409e-02,5.326406359672546387e-01
2.749940679316805192e-01,-4.636237566303912372e-01,4.123546776770426470e-01,1.057626140102013029e-02,6.430097104437013794e-03,3.570026889796102266e-03,8.163204193115234375e-01
3.374889430987147443e-01,-3.290182618703310080e-01,3.542527389117714476e-01,7.234126496565022185e-03,4.246180510257982141e-03,-2.824608889636291698e-02,6.769716739654541016e-01
3.935872555706720899e-01,-2.778448343795832387e-01,3.379429875019372975e-01,-5.576210425064618420e-02,-3.750888713272979014e-02,-6.667804727791314112e-02,6.659150719642639160e-01
3.607914447071466357e-01,-3.858755335861320801e-01,3.613720213738207399e-01,1.832512394359024979e-02,5.546273181975318496e-03,-1.895906916734180214e-02,7.484139800071716309e-01
3.984697299750296073e-01,-4.602597656697083872e-01,2.530673775136932369e-01,-1.259623302916071733e-02,1.975423054788125188e-02,2.567443936468544186e-02,7.983239293098449707e-01
4.373653323083333544e-01,-5.488798527348239809e-01,2.858059693540454527e-01,1.092057634536877653e-02,5.391268021898233676e-02,-3.191337973904136149e-02,9.264491200447082520e-01
3.682965799884581060e-01,-4.676504432209284134e-01,3.044285685253831364e-01,-2.137863338194853895e-04,7.046368097755592586e-02,-1.783537998050254217e-02,8.156874775886535645e-01
3.855176716364419054e-01,-4.668015515751872124e-01,2.968371818153363595e-01,-8.212083424617881017e-03,4.907148926771911883e-03,1.472005501014623553e-02,8.121901154518127441e-01
3.600518348838403493e-01,-4.715777548684477738e-01,3.634195711678046559e-01,2.951237012161409792e-04,-1.151167273981808410e-03,-4.701549504872165088e-03,8.333609104156494141e-01
3.593540084125931289e-01,-4.456382709633008865e-01,3.780539321198361780e-01,-9.062708963259139168e-04,4.060218848226536739e-03,-7.815515963610446953e-03,8.146476149559020996e-01
3.815507785267829299e-01,-4.631375444669654229e-01,3.602466535628640054e-01,1.613495212244382172e-03,-4.670834056930482474e-03,-2.376413694734008132e-03,8.342943787574768066e-01
3.617936742831837083e-01,-4.633891119607075337e-01,3.778088217248963820e-01,4.647278580258151770e-04,3.309545525523192346e-03,-2.637181738878021861e-03,8.333384394645690918e-01
3.607116072604500401e-01,-4.575519934808355282e-01,3.797795863087102264e-01,8.125604752600945569e-04,3.611729326850393260e-03,1.536347525486365332e-03,8.279913663864135742e-01
3.652384293008162364e-01,-4.725396315824208493e-01,3.658126142388254398e-01,2.703868269599729590e-03,-1.587597095785296848e-03,-3.847267670347678434e-04,8.380831480026245117e-01
3.676534302256468933e-01,-4.762480585627273388e-01,3.677374434656429658e-01,1.169958391963250074e-03,-1.940429567273886310e-03,-1.190518012479305568e-03,8.439551591873168945e-01
3.586532731881174607e-01,-4.546983353293901908e-01,3.819114952653519524e-01,-4.871712569757546420e-05,2.126825415432904163e-04,1.862610451062102169e-03,8.252329826354980469e-01
3.347550308612196601e-01,-4.457100377442426709e-01,3.279868512851646378e-01,-2.168925609531871090e-03,-1.212992439376298082e-02,-3.534856809992476586e-03,7.774202227592468262e-01
3.343345963510017671e-01,-4.486795905250213767e-01,3.292838283975824121e-01,-3.756050780185003334e-03,-1.277998537388558287e-02,-4.175097456711848905e-03,7.808755040168762207e-01
3.193917410807911583e-01,-4.446828148020802729e-01,3.296558840563665882e-01,-4.038630779822801036e-04,-1.028375697281438787e-02,-3.651152056836963478e-03,7.694904804229736328e-01
3.322088861691745443e-01,-4.484218383358875570e-01,3.326259143698611087e-01,-2.937012093003940616e-03,-3.598998661881627585e-04,-2.859215038895780714e-03,7.808718681335449219e-01
3.713144885652858718e-01,-4.670500393848664444e-01,3.638800992040847060e-01,2.512985691576649378e-03,-6.919126082070669106e-03,5.455743835735425620e-04,8.347700834274291992e-01
3.681569586664445448e-01,-4.700550497360934665e-01,3.641606210518384956e-01,-2.372089756289940364e-03,-4.606476697680246014e-03,4.739711708112928287e-03,8.363094329833984375e-01
3.636039911704085914e-01,-4.674120847683994606e-01,3.706530362090865727e-01,3.710700904133315027e-03,-8.437772423342744174e-03,1.055194185513114657e-04,8.347156643867492676e-01
3.725066934447709976e-01,-4.683305143373693857e-01,3.642072223696030675e-01,1.276259381320292907e-03,-3.322152675085636789e-03,1.493207382619790970e-03,8.367450237274169922e-01
3.578047519979855595e-01,-4.465848432681666091e-01,3.751211873432058752e-01,-7.693990106919740366e-04,3.545490876752024380e-03,8.071381958590587852e-03,8.133305311203002930e-01
3.652802087110708640e-01,-4.702694806745969514e-01,3.646803848558684003e-01,-2.940504668033565999e-03,-1.797376489638072977e-03,4.797308302505717652e-03,8.353126049041748047e-01
3.668056769700906439e-01,-4.699872170759317180e-01,3.650726579977433550e-01,-3.466990445123146764e-03,-7.557479135858165623e-05,4.471569765171903160e-03,8.359851837158203125e-01
3.632757032647786488e-01,-4.747467453305257434e-01,3.634772950865743368e-01,1.433181847512074144e-03,3.875311817458217210e-04,-1.563273802637312089e-03,8.381316065788269043e-01
3.642940061634871718e-01,-4.689647501931929474e-01,3.706984639654978264e-01,2.845482885513663136e-03,-1.659206121751876685e-03,-1.096901586576573074e-03,8.365010023117065430e-01
3.649267595142146048e-01,-4.760667885663528720e-01,3.673981366458497488e-01,8.960769660107787381e-04,-1.789223125961813404e-03,-5.237086274865330104e-04,8.422395586967468262e-01
3.657098701243904904e-01,-4.771334982265013069e-01,3.674563191217441460e-01,1.393758477839345932e-03,-1.126953658984581512e-03,-9.795965941401139562e-04,8.437253832817077637e-01
3.646283237607768624e-01,-4.771948322908838858e-01,3.658050665261209367e-01,9.359190324511873352e-05,2.893232985754795746e-04,5.637715288149119847e-09,8.424122929573059082e-01
3.624103297881459684e-01,-4.751825236921697337e-01,3.637974872427273132e-01,6.810847356701907676e-04,6.803090743167172034e-04,-1.134352186660160999e-03,8.382912278175354004e-01
3.645130452733020832e-01,-4.745373431038393264e-01,3.639831138208902139e-01,2.601664704705979395e-03,7.816027702689147885e-04,-1.059261007105369388e-03,8.388007283210754395e-01
3.237306929146963608e-01,-4.508956624587658890e-01,3.944103380172208073e-01,-7.187755037314345723e-03,-1.238788812155964397e-02,9.167344137068381832e-03,8.128095865249633789e-01
3.641732578996828007e-01,-4.708919598364917913e-01,3.598728326421887225e-01,6.550653663770501269e-03,-7.833459564764650492e-04,1.960310926683555676e-03,8.330086469650268555e-01
3.463392700630175680e-01,-2.905978186506776861e-01,3.307216068683334065e-01,-1.445229774741043499e-02,-1.408387274089444377e-02,2.437174514034932613e-02,6.316556930541992188e-01
3.637358865799785734e-01,-4.750489594146971584e-01,3.608477609274330367e-01,1.666331636143715675e-03,-5.624871812340716921e-05,-5.368249560988056857e-04,8.373500108718872070e-01
3.749677815330226260e-01,-4.683815782374498582e-01,3.647852451345977021e-01,4.363346580953757908e-03,-3.835197757484483383e-03,3.425038000732847417e-03,8.383858203887939453e-01
4.229700211513360841e-01,-4.533900697572412763e-01,1.995110908186997767e-01,-2.974486968535187525e-03,-2.833275818157552674e-03,2.697435590384264677e-03,7.887856960296630859e-01
3.730444894470215100e-01,-4.612553873420400796e-01,3.640204518982411153e-01,5.575342779251268172e-03,-4.493076751214395738e-03,7.381828238215348489e-04,8.299183249473571777e-01
3.692200724964269654e-01,-4.649374538861826833e-01,3.653864016108008261e-01,-4.322718096827663642e-03,5.378126297686874825e-05,3.385003742272839258e-03,8.323016762733459473e-01
3.762492257894817227e-01,-4.641258968481308811e-01,3.618965927739736244e-01,1.867407028910219886e-03,-2.577760250507234435e-03,-2.001252398289063672e-05,8.333097696304321289e-01
3.058265797090146121e-01,-1.642600613023696421e-01,3.184816133765397406e-01,-9.639957248737305272e-04,-6.828242790287842104e-03,2.146720185623593111e-02,4.781377911567687988e-01
3.496643505219674264e-01,-4.632227692597594704e-01,3.546084971644893891e-01,-1.100140689749187122e-03,-3.549951905708435308e-03,2.046661055878087280e-04,8.153959512710571289e-01
3.631674631065345826e-01,-4.723897368162228716e-01,3.661264598459127440e-01,-2.019987002268078084e-03,-1.420895354527511659e-03,1.368947998085217471e-03,8.370549082756042480e-01
3.642985836434259883e-01,-4.685924273982937649e-01,3.720213132980187409e-01,-2.695484194554472520e-03,-4.036201519425738210e-03,1.029652163697128159e-03,8.368232250213623047e-01
3.598403544712984181e-01,-4.623371221881442672e-01,3.814662697253082269e-01,1.289807475591021845e-05,-1.085182673730525869e-03,1.162244075496263342e-04,8.332030773162841797e-01
3.302258477979967410e-01,-4.537331750076893933e-01,3.434891257141317600e-01,-9.451061469821000214e-04,-5.618165368764761400e-03,-1.064508484351609982e-02,7.909505963325500488e-01
3.636650264409638234e-01,-4.639819770638933250e-01,3.709582094992353585e-01,-4.351733944182035498e-03,-5.135954864336458175e-03,1.981990474137745872e-03,8.314064145088195801e-01
3.139566021882565505e-01,-4.436363416828535966e-01,3.400842630258137933e-01,4.577746886946803704e-04,-8.967391462094674928e-03,-3.289135012066909426e-03,7.711667418479919434e-01
3.711766836535983494e-01,-4.684390798193219796e-01,3.646296072722874371e-01,1.084318472734927723e-03,1.868659641999001215e-03,-7.708971909305091302e-04,8.363708853721618652e-01
2.547878750483162924e-01,-4.447827249944132921e-01,4.446507881844644072e-01,6.257077422613187279e-02,-1.872337169207560423e-02,-1.444310019858220662e-02,8.195683360099792480e-01
3.335115081677748616e-01,-4.523549660087429203e-01,3.435459992902967774e-01,-6.149724809344719141e-04,-5.053663470604108539e-03,3.140156180918058271e-04,7.909808158874511719e-01
3.649373774752544541e-01,-4.689050270695436229e-01,3.670170575418738590e-01,-3.714594312119357152e-03,6.480853368282466496e-05,2.389974094937938158e-03,8.349192738533020020e-01
3.396709643262215694e-01,-4.652628336403967779e-01,3.729774755486784943e-01,3.451082677219242337e-03,-1.754879801918184405e-04,-9.546114493698470635e-03,8.222812414169311523e-01
2.808397727485503204e-01,-4.464822609946365040e-01,3.681674608607788390e-01,-9.306031772576584286e-04,-1.158005080430945730e-02,5.174566167842970660e-03,7.749993801116943359e-01
3.245454018096606275e-01,-4.478249813346447672e-01,3.339482743185436253e-01,4.176813590421533419e-03,8.002298834388899690e-03,-5.768915289194988597e-03,7.773359417915344238e-01
3.300014956102685915e-01,-4.491691780584508020e-01,3.358420932198019071e-01,4.363043338175681511e-03,1.309637727046403938e-02,-5.081215689273643407e-03,7.825222015380859375e-01
3.287980230294954009e-01,-4.525720459766523485e-01,3.526748694244642435e-01,-8.167864347412099463e-04,-3.542089481048363471e-03,-4.896363027923386624e-03,7.936482429504394531e-01
3.302084034841527571e-01,-4.430944833907709546e-01,3.275687428756202113e-01,1.202496286746495202e-03,1.537452316098247146e-02,-1.443622906793526426e-03,7.724524736404418945e-01
3.184514822367641718e-01,-4.447908399386508727e-01,3.319041685518057117e-01,7.024354503164864172e-04,1.244242554960914640e-02,-3.833544623591747611e-03,7.703878879547119141e-01
3.648983730259709457e-01,-4.592866347691419993e-01,3.691345148244679630e-01,-1.458108778628974507e-03,-7.378395698013504034e-03,2.753528454554351069e-03,8.264276385307312012e-01
3.632825466006387449e-01,-4.595709136087062774e-01,3.753276591141689322e-01,-1.874098000282480568e-04,-5.872734718146855465e-03,3.893528180855027401e-03,8.290315270423889160e-01
3.648579498276694477e-01,-4.682837519092970524e-01,3.730919427559042933e-01,9.246470753780817184e-04,-4.318922709785854436e-03,1.485804880814541170e-03,8.373279571533203125e-01
3.459306852427798673e-01,-4.628438593415893365e-01,3.604147719533503103e-01,-8.321872279387034681e-04,-1.730055599188698532e-03,-5.373066858598362673e-03,8.161728382110595703e-01
3.473445345613138113e-01,-4.646321212716463256e-01,3.520030714201047295e-01,-1.141393397252118882e-03,-4.293336469216582282e-03,-1.098906484681459045e-02,8.145746588706970215e-01
3.600953876358584660e-01,-4.649136644503262250e-01,3.796250745514156977e-01,-1.822637752737144750e-03,6.768227051330672709e-04,3.448581460809158235e-03,8.349733948707580566e-01
3.099097778842282436e-01,-4.577295359943592823e-01,3.662668655472101631e-01,9.513847581781655375e-05,-6.584863559098281388e-03,-1.193991979460765421e-02,7.976627945899963379e-01
3.647550996531597756e-01,-4.679120132580794067e-01,3.667463254049391219e-01,4.470560180815803461e-03,-1.691439964367532755e-04,-1.983374078733698802e-03,8.337075710296630859e-01
3.804836406054155629e-01,-4.535439218186371191e-01,3.559758977299651850e-01,4.626488831540407493e-03,8.328910179955966494e-04,-6.833694286145654663e-04,8.220888972282409668e-01
3.793645124073216635e-01,-4.604178408010314305e-01,3.600910683579484073e-01,2.163362681421017539e-03,8.542374160096220283e-04,3.261388860480061926e-04,8.303233981132507324e-01
3.820849913020443189e-01,-4.541473060596110667e-01,3.584875639665270342e-01,5.238213580052010140e-03,4.380230205675066102e-03,2.102264635041760019e-03,8.247796893119812012e-01
3.716213315348668722e-01,-4.539340030195417874e-01,3.625439808898210381e-01,-8.049921116280199041e-04,6.764166655090328613e-04,-3.002177147571025466e-04,8.210564851760864258e-01
3.191721894453894981e-01,-4.433733378059767638e-01,3.325238608519068273e-01,5.864576616427438207e-04,-8.653295021119328592e-03,8.841407499575524957e-04,7.694564461708068848e-01
3.250823543195126564e-01,-4.483289260797528319e-01,3.316421386950004768e-01,2.786333830281193403e-03,-8.606860270830506490e-03,3.786714442989014013e-03,7.768976688385009766e-01
2.997081241855031886e-01,-4.509118729001402315e-01,3.458206721018220464e-01,3.729618257444649015e-03,-1.608693304996975867e-02,7.111120025366448813e-03,7.753319144248962402e-01
2.767980027526967257e-01,-5.334731690335136056e-01,3.614055939384632210e-01,-2.802098017948444209e-02,1.751732618771901506e-01,3.213374019966951101e-02,9.109133481979370117e-01
3.138137153283192538e-01,-4.446521824949665191e-01,3.184288759058713225e-01,-2.261385303301931618e-03,3.187521505787740267e-02,9.189186606768414822e-04,7.627963423728942871e-01
3.590284279586976601e-01,-4.656399673981462817e-01,3.481527129014719280e-01,-1.484609492233250096e-02,7.110479062960226720e-03,1.278361925209757326e-02,8.200796246528625488e-01
2.796338578182983037e-01,-4.859797020930225475e-01,3.700834832132151031e-01,-2.388247867827018606e-03,1.542483330495665328e-01,6.954750828221062473e-04,8.573161363601684570e-01
6.076339427897397005e-01,-5.103200566077554790e-01,8.879868575956789689e-02,4.316298243390301933e-06,6.729856515227625527e-03,1.177279829806140155e-01,9.902992844581604004e-01
2.500623087241514719e-01,-4.453452745461332629e-01,3.779786428902517925e-01,-6.248295744925699748e-04,2.636042329398882722e-02,-4.569492994142907404e-03,7.688021063804626465e-01
2.924036872982782587e-01,-4.443696994176417059e-01,3.457019078801958356e-01,-1.099383512455887838e-03,1.398114743482179248e-02,2.464407786808993014e-03,7.652141451835632324e-01
2.829852016738667597e-01,-4.455319047691967960e-01,3.655066517958313055e-01,2.962260170515237869e-04,-1.345799690213862754e-02,-5.930877644860606951e-03,7.735078334808349609e-01
3.652152738284409339e-01,-4.771708788734627671e-01,3.674521866937289771e-01,-1.102074442499323187e-03,9.834876879853879632e-04,-1.256553831189069275e-03,8.435135483741760254e-01
2.517151879166349415e-01,-4.490102523812258273e-01,3.795427081891810106e-01,-1.168296392124344154e-03,2.247439717912724788e-02,2.465678516237419793e-03,7.736055850982666016e-01
3.650695837412377132e-01,-4.643505800636372749e-01,3.635499458457545630e-01,3.979835943997811487e-03,4.326561210631743419e-03,2.868898920629118880e-03,8.287388682365417480e-01
3.654110487471647906e-01,-4.649317849326984886e-01,3.626484973827844294e-01,3.397543020870190389e-03,3.530408738286017895e-03,3.917009787816850760e-03,8.290362358093261719e-01
3.611631673537843978e-01,-4.686505938712864916e-01,3.481018955357779721e-01,7.287542461031837858e-03,-4.259883023230681166e-03,3.368719949414918698e-03,8.235113024711608887e-01
3.673245772226673700e-01,-4.629784473989371207e-01,3.692761448319392126e-01,1.087308104808403647e-03,9.082102353449923726e-03,2.359137171618867421e-03,8.314415216445922852e-01
3.631501866477497842e-01,-4.697123167581882530e-01,3.603271918019811393e-01,5.441402868980514847e-03,-9.712346138990083071e-04,9.094684596253578210e-03,8.316588997840881348e-01
3.673099464607101905e-01,-4.688523612844169852e-01,3.677393184786593716e-01,-1.577705036830027085e-03,7.133094192446844464e-03,-2.154840538764003343e-03,8.364810943603515625e-01
3.630898564270465534e-01,-4.747194720173849580e-01,3.682450684228845139e-01,-2.027754366411744363e-03,1.199617921893632007e-03,4.257326622224719636e-04,8.404090404510498047e-01
3.576896151057519790e-01,-4.711801743301946566e-01,3.630385746580381268e-01,-6.846291782080857549e-03,4.285198865590226277e-04,1.394992403104214351e-03,8.316455483436584473e-01
3.576711000956281916e-01,-4.620048425474153619e-01,3.846175299312672990e-01,1.086860203759884872e-03,-1.937903589081076822e-03,-4.804912524038962231e-04,8.334851861000061035e-01
3.667162534770518900e-01,-3.806771321310319922e-01,3.429244271615742856e-01,-4.226259682775092112e-03,-8.574648838982642726e-03,1.161422006965386446e-03,7.359750270843505859e-01
3.791435958808384576e-01,-4.592512955006756714e-01,3.662640918672993018e-01,2.280642557954790702e-03,-1.742763427254111035e-03,8.451825604382443013e-04,8.320460319519042969e-01
3.774365934086482133e-01,-4.422916287159472937e-01,3.571396423239729945e-01,6.685371354709875036e-03,-9.239975030646534887e-04,7.086055511436121493e-04,8.098558187484741211e-01
3.701228464488944270e-01,-4.615790370243764151e-01,3.648082766858996573e-01,-1.541467873003376111e-03,-9.777190526122506511e-04,3.627723793601295480e-04,8.290636539459228516e-01
3.795167564367309398e-01,-4.582589973459555432e-01,3.606542517700012107e-01,2.589929420504459741e-03,-3.214268421282786593e-03,5.635468466376477399e-04,8.285369873046875000e-01
3.609134237903978137e-01,-4.591291869614757548e-01,3.815503922171999407e-01,-1.641705835535423215e-03,1.179895221288749076e-03,-2.274066273486519390e-03,8.305701017379760742e-01
3.663499455719226305e-01,-4.741299042566696764e-01,3.722988869684270008e-01,-2.807509474699641707e-03,1.791790203902125789e-03,1.378143308571924382e-03,8.434931635856628418e-01
3.772309922271113170e-01,-4.416650917144615551e-01,3.558552284534471921e-01,7.401025386744613209e-03,-2.397132858979734299e-03,4.969731107302810102e-04,8.085329532623291016e-01
3.270454048090776222e-01,-4.430173592667742133e-01,3.311407799963053122e-01,1.140905187372255082e-03,-1.471425276100178994e-02,8.956885072657312175e-04,7.725431919097900391e-01
3.358791429968312481e-01,-4.480980790393658264e-01,3.257792398291964320e-01,3.919100162688498971e-03,-7.338082273486715157e-03,3.256948910953301902e-03,7.791300415992736816e-01
3.650058608256219750e-01,-4.326143963231424694e-01,3.600471909067992637e-01,-5.071120823358898563e-03,1.596665695660591869e-02,-4.302521710070934466e-03,7.957166433334350586e-01
3.273340437080586862e-01,-4.438661387542294223e-01,3.275855830406637637e-01,3.810213649439258242e-04,-1.609577734019471476e-02,-1.102074887014030564e-03,7.718322873115539551e-01
3.300477701099362449e-01,-4.479474616365761719e-01,3.333942661385064232e-01,2.874902365863447971e-03,-1.243324831435561970e-03,3.919079208341706526e-03,7.797222733497619629e-01
3.662838289247858370e-01,-4.706624050111632984e-01,3.611140064655597448e-01,-6.488487363135306794e-03,6.164116413644983800e-04,2.181362724007106929e-03,8.344582319259643555e-01
3.256630561851002192e-01,-3.494509068653089967e-01,3.635118370917503894e-01,4.138076530090008427e-03,8.740110921230271473e-03,-2.299966413052116024e-03,6.950252056121826172e-01
3.298401789170060661e-01,-4.448287371555303960e-01,3.192209284038627359e-01,2.517253570735524925e-03,-1.286208864509400668e-02,4.424693525759905606e-04,7.697494626045227051e-01
3.655907413953762841e-01,-4.762710655311931385e-01,3.672628174979725713e-01,-3.202653535709032656e-04,2.235121737248324959e-03,-4.034268953920860197e-04,8.427084684371948242e-01
3.656027957901714642e-01,-4.701825062633830932e-01,3.726938516733747653e-01,-7.516383707198021080e-05,8.455081187553392663e-03,-1.317600638476328816e-03,8.394841551780700684e-01
3.644782157581736293e-01,-4.684371433980106803e-01,3.771462312651213122e-01,-4.744126877869888313e-03,6.623344816303056160e-03,5.047419928381795089e-03,8.394852280616760254e-01
3.663925498412575199e-01,-4.696543900416011441e-01,3.668454195463003997e-01,1.018167074803573869e-03,5.398028371099661445e-03,2.473042591273671899e-04,8.363276720046997070e-01
3.616500342292585657e-01,-4.629420043805249074e-01,3.760054855541650753e-01,2.219188012133085745e-03,2.014892748125204913e-03,5.342047338231101705e-04,8.318793773651123047e-01
3.654585085088085661e-01,-4.738458273072320148e-01,3.657972856564604136e-01,-3.329638481270393545e-03,2.643388774986728858e-03,-2.734565008487043966e-03,8.395194411277770996e-01
3.651914767186864585e-01,-4.687365408385687493e-01,3.654373345991753785e-01,-3.501441245817981524e-03,-2.731900188270864607e-04,-1.877812130359130362e-03,8.340795040130615234e-01
1.966766308047937506e-01,-5.394928783710721820e-01,4.691565733432666585e-01,-6.738563254618018528e-02,-1.083022610845058853e-01,2.725099479701193622e-03,9.303843975067138672e-01
3.883222696163551868e-01,-4.721294641097814049e-01,3.206198505858005587e-01,6.662322508502281117e-03,-1.625229586789663644e-02,5.543253477235469615e-03,8.292912244796752930e-01
3.885165892452392966e-01,-4.587187067056957002e-01,2.904771869023860531e-01,6.790562961128526580e-03,-6.242183979324970183e-03,1.680631723908706382e-02,8.034049272537231445e-01
3.630724053968093501e-01,-4.766922551666432639e-01,3.655665710543480884e-01,-1.350767174347214080e-03,3.473914248644288574e-04,-3.437044712765113200e-04,8.410181999206542969e-01
3.671583936668365022e-01,-4.687769652786042407e-01,3.613502379440369783e-01,1.990849320321161353e-03,3.641399633908971997e-04,-3.713211747894540685e-03,8.330786824226379395e-01
3.696620187297047222e-01,-4.669550499249318642e-01,3.626051387388568581e-01,3.370102475855286418e-03,3.893662594611309834e-03,-5.886052337140358290e-03,8.332211375236511230e-01
9.741060974823075036e-02,-6.332928522326596310e-01,5.933189328629538961e-01,8.878083666927631679e-02,-7.914214419376262855e-02,2.986478032545395594e-02,1.089645266532897949e+00
3.671799407683983829e-01,-4.758861998761692025e-01,3.665731934113774515e-01,-1.641763020423351888e-04,-7.742881104853287146e-04,-1.686261636878476919e-03,8.427690863609313965e-01
3.619912186451353930e-01,-4.727417243114807599e-01,3.543962515517267708e-01,-1.112670719183315830e-03,-1.549526026708095226e-03,-4.896532215329794241e-03,8.310113549232482910e-01
3.654210292549840422e-01,-4.765552706017774920e-01,3.652268836285301745e-01,5.868490618815828644e-09,-8.277602798452487565e-05,-3.404532373281530079e-04,8.418794870376586914e-01
3.626011672192922530e-01,-4.672157014790706553e-01,3.507661057686354833e-01,7.512801836808387715e-03,1.198816106949061920e-03,-3.826011823574490545e-03,8.240950703620910645e-01
3.685260379107108131e-01,-4.666468177944017581e-01,3.651940610320317804e-01,-4.644803320345660888e-03,-5.283524027984977563e-03,-5.199144371648423135e-04,8.336014151573181152e-01
3.650672242810233392e-01,-4.685959279520609533e-01,3.657481550687208260e-01,3.575348108009124542e-03,-2.318862588591869348e-03,-5.393962509688044783e-03,8.340888023376464844e-01
3.671921382583515636e-01,-4.738633935782613493e-01,3.641860014311494309e-01,1.088526223702487151e-04,-1.105396687361134833e-03,-1.910434282097369686e-03,8.395652174949645996e-01
3.664032989427936648e-01,-4.759433036330894540e-01,3.647064476779330322e-01,1.675606580906007816e-03,-9.561133485056006517e-04,-3.123122929505608102e-04,8.415062427520751953e-01
1.901891998033679587e-01,-4.493651448297295570e-01,4.272286449639345340e-01,-9.381661604687035810e-04,-8.333012361395076076e-03,-9.404344755353081543e-04,7.855129837989807129e-01
1.023132338933492869e-01,-4.404172622900764944e-01,5.839485762325470342e-01,1.086089490780167560e-01,-1.168200205654964519e-01,-4.906038993684398719e-02,9.335290193557739258e-01
3.625535305250762730e-01,-4.717396527345368851e-01,3.640621933829673584e-01,-1.386330287587038673e-03,-2.241372837780029534e-03,-5.552730444378967296e-03,8.351163864135742188e-01
3.520523823406103148e-01,-4.634450097183290262e-01,3.466222549886121551e-01,5.023919761450436512e-03,7.046458756228626830e-04,3.286310563005937087e-04,8.128436207771301270e-01
5.807911114750118342e-01,-8.177742888542282040e-01,2.312664124763417206e-01,-4.815790272300066871e-02,2.343652051378670720e-01,1.074641274401260393e-01,1.340038776397705078e+00
3.616893699117686989e-01,-4.676549002714172065e-01,3.682501971872161883e-01,-7.082213043936711437e-03,8.729304772177495352e-04,-2.270779286519484901e-03,8.327450752258300781e-01
3.657446434507767852e-01,-4.765431092175304029e-01,3.653361221397751768e-01,-5.724522792730809932e-04,-1.485408039206724800e-03,-6.044264637460382370e-04,8.420887589454650879e-01
3.646261988641683605e-01,-4.681111234118305875e-01,3.646285200634246659e-01,6.220772429068674968e-03,-5.182097255476236612e-03,-1.093380779035366731e-03,8.328586816787719727e-01
3.634250341665644646e-01,-4.702073272036275675e-01,3.636055225941218771e-01,4.295730365663115446e-03,9.640664557787597538e-04,-7.156631425889645702e-04,8.337584137916564941e-01
3.750986402363806760e-01,-4.658321223439595427e-01,3.696728174270555445e-01,4.590642118315973151e-03,2.851643874822243352e-03,3.622486317950599291e-03,8.383067846298217773e-01
3.651410646102956070e-01,-4.738048364733767892e-01,3.649640090712698015e-01,6.169844321259080819e-04,-1.458161608604940235e-03,-1.043870402454296579e-03,8.388637900352478027e-01
3.517633883691257957e-01,-4.635048676269351020e-01,3.460593521438948272e-01,5.284622219485021408e-03,-1.149647406290209273e-04,4.593407316384856662e-04,8.124832510948181152e-01
3.673261359516095670e-01,-4.594368315770389621e-01,3.617113565663827579e-01,-4.065844872725198414e-03,-3.327235447203785723e-03,4.408254486297241530e-03,8.240555524826049805e-01
3.621146157493307371e-01,-4.710821159162470462e-01,3.639101598072524424e-01,2.400010115371507217e-03,9.891958047610841659e-04,-4.704034503311263493e-03,8.341478705406188965e-01
3.593856795379485880e-01,-4.718785765704371915e-01,3.600101244893358365e-01,-9.162642562224127202e-04,1.232554900799955966e-03,-2.280721239522321125e-03,8.315902948379516602e-01
3.958393186923706564e-01,-4.607586043033674583e-01,2.760560876858737522e-01,-3.081273883513770215e-03,-1.308298618873043884e-02,5.531327951788855141e-03,8.038256764411926270e-01
3.549127348781353497e-01,-4.684342281608357972e-01,3.540081730945099925e-01,3.529658506150515351e-03,5.157568956837527792e-04,-2.598422381621076291e-03,8.229305744171142578e-01
3.292089421982497544e-01,-4.438642317455774311e-01,3.244798864993849730e-01,6.527803415173762764e-04,-8.338355553295069902e-04,8.522747835932490768e-04,7.707231044769287109e-01
6.493156805106886642e-01,-8.178352912387352180e-01,9.329944104691773044e-02,-7.668081248768073011e-02,1.255049905911169092e-02,3.362623405950566913e-02,1.291290402412414551e+00
3.613639519722843252e-01,-4.722901056591388702e-01,3.545707686594893882e-01,3.314815738033653433e-04,-3.702455775625930999e-03,4.900586453481185073e-04,8.303037285804748535e-01
3.667536656284746122e-01,-4.714205015448402758e-01,3.702761399522281893e-01,-3.213207206634108304e-03,5.783728464952439530e-03,-3.011987533240344499e-03,8.400353193283081055e-01
3.128473220759394602e-01,-4.432596393750365404e-01,3.411400348624495926e-01,2.903048521545604750e-04,-4.105083088021030391e-02,2.036317945245574249e-03,7.739242315292358398e-01
3.671592219875030594e-01,-4.649058323000258008e-01,3.704526904856990654e-01,-4.276326992601962428e-04,-3.445774250602023046e-03,-7.545440956557401423e-05,8.337383866310119629e-01
1.843039803733286797e-01,-5.629610773085789166e-01,4.795765388641328730e-01,-4.418841547184326063e-02,-9.481047457322697158e-02,-3.160543635854667563e-03,9.482049942016601562e-01
3.635775809117380297e-01,-4.692384403571630003e-01,3.650079747639170535e-01,1.062817054162467235e-03,6.081609452268915000e-04,-5.135005206306471684e-03,8.335822820663452148e-01
2.470007776330723492e-01,-4.498173959542899336e-01,3.934991445610445671e-01,-1.515481412694572472e-03,-3.251012657290880403e-02,-3.643932450053682156e-03,7.825071811676025391e-01
2.995795419928195535e-01,-4.595419545369858749e-01,3.346753273250027694e-01,-1.456626803202841838e-02,-5.612918554225078405e-02,-1.456867899162080093e-02,7.841325402259826660e-01
3.396210580491441644e-01,-3.638032343513937228e-01,3.665604008081042586e-01,-1.437781472708444608e-03,-4.745587830595312910e-03,4.400507994124479468e-03,7.173653841018676758e-01
2.827586885733817113e-01,-4.494935219277085281e-01,3.489422155401755710e-01,8.455938699890447330e-03,-2.252604112367717626e-02,8.038242697392540548e-03,7.687439322471618652e-01
2.471718907546243960e-01,-4.478848102589827462e-01,3.851727853553732484e-01,-2.648571772829188403e-03,-3.558572921367474801e-02,-1.188339900374539224e-02,7.760865092277526855e-01
4.018724887111415622e-01,-4.606680680455671473e-01,2.718764393860181316e-01,-6.425513535213131511e-03,-4.204106230842486608e-03,6.238768988782165091e-03,8.056313991546630859e-01
3.701506849687177247e-01,-4.609461976487072565e-01,3.643969440374833502e-01,-7.178543808989374742e-04,9.904248099337339614e-03,-8.055200853710172207e-03,8.285310268402099609e-01
3.286694905426299496e-01,-4.435739718736902981e-01,3.339956666011165698e-01,-2.494999069894246989e-03,1.821708453663714936e-02,2.622192522350239637e-03,7.755877375602722168e-01
3.411591889923580312e-01,-4.559050356464615650e-01,3.398239035934431662e-01,-1.004994165909412276e-02,1.320935933353570638e-02,9.866084994777169284e-03,7.970993518829345703e-01
3.304115160490353476e-01,-4.482905748151867487e-01,3.337719344962677970e-01,-2.563453633130182655e-03,1.563759016471752850e-03,3.936886548043160017e-03,7.804348468780517578e-01
3.269696401940421771e-01,-4.441818194549186360e-01,3.291670482048218438e-01,5.483099223578683304e-04,7.855660921784288642e-04,4.258414763337303711e-04,7.722546458244323730e-01
4.267228572018326171e-01,-4.474605354514318289e-01,1.982449294829031483e-01,2.562009364224752863e-03,-3.096917116689185470e-03,2.427438784190620504e-03,7.853236794471740723e-01
3.167572812824890338e-01,-4.442078128190289910e-01,3.346354273579615346e-01,-1.457104633073354021e-03,8.732211588473853120e-03,2.736486740446970010e-03,7.702270746231079102e-01
3.290630782680047939e-01,-4.435071783136326218e-01,3.274162459663718105e-01,-1.148490417949149956e-03,2.609708778159712961e-03,-8.037553178925235212e-05,7.717639803886413574e-01
2.783631282782147442e-01,-4.655925034875749713e-01,4.017954716227369327e-01,6.822022884884480429e-03,5.521795482095760363e-03,3.089766382430578825e-03,8.128920197486877441e-01
3.500482445376504326e-01,-4.699754100888987596e-01,3.634971216732591492e-01,-4.997712432491511862e-03,-2.072492511800596692e-04,-7.488997467630382175e-03,8.269772529602050781e-01
3.645675507469097187e-01,-4.726375414674967024e-01,3.701386461363954661e-01,6.191075983075106657e-04,-5.644763988019482759e-03,-1.264071396163483386e-03,8.400649428367614746e-01
3.678866827793000338e-01,-4.751869679880244002e-01,3.648009273562693444e-01,1.283634756132804233e-03,-1.722966587403972072e-03,-8.861590536339971702e-04,8.415446281433105469e-01
3.649113738988117861e-01,-4.678085054703978729e-01,3.608648702909115769e-01,-5.723144916706866987e-03,6.464522691724502220e-04,2.106362621507385999e-03,8.307719230651855469e-01
3.595527266800252475e-01,-4.693265766897936064e-01,3.509661080337944106e-01,-7.883330905716714326e-03,-1.740127242228418480e-03,-6.289235239554604243e-03,8.248100280761718750e-01
3.631536128743027003e-01,-4.738118720452865196e-01,3.636301848279610560e-01,-3.274133600292862979e-03,1.809599928011983074e-03,1.197271812896942437e-03,8.372315168380737305e-01
3.429673790817206469e-01,-4.635992081774720219e-01,3.512780010943331033e-01,-6.466223896343558514e-03,-3.433828224602013084e-03,-7.103269265133257526e-04,8.108539581298828125e-01
3.651905478388914328e-01,-4.675668662990608571e-01,3.657364018080748180e-01,-5.301859387201571933e-03,3.800490453634419318e-05,-4.146196859362373359e-03,8.331120610237121582e-01
3.651914923815381409e-01,-4.654972859949200181e-01,3.705430429436432638e-01,-9.283231227926758708e-04,8.155772823174851568e-03,-2.206794525161444483e-03,8.335074782371520996e-01
3.387071961071600468e-01,-4.660275704802085972e-01,3.812134127921802951e-01,3.175011169428158288e-03,1.951568594466564395e-03,-5.398628585708297768e-03,8.268858194351196289e-01
3.622282502222471945e-01,-4.638129931167047637e-01,3.603705364288183333e-01,-3.322869340164773515e-03,1.029129502610259773e-03,1.502239763210662903e-03,8.251400589942932129e-01
3.530459017011440825e-01,-4.665406965888221347e-01,3.514693117680868228e-01,-3.713317089694009865e-03,-5.414036671145387204e-03,-3.943226371716576119e-03,8.189069032669067383e-01
3.589074351271553942e-01,-4.719726241915924714e-01,3.549252982029079684e-01,-2.220356218807454513e-04,1.203436593125674229e-03,1.767561229109068210e-04,8.288989067077636719e-01
3.658088443526569811e-01,-4.568298141745453789e-01,3.681554971247678054e-01,-6.244505077984280512e-03,-4.704750957513838781e-03,9.547101513681389637e-03,8.240917325019836426e-01
3.618369336304543271e-01,-4.384942558950144509e-01,3.693125530643985854e-01,2.192032964988112863e-03,-1.161680139331395731e-02,-2.638448542175564696e-03,8.043687343597412109e-01
3.556031848411747021e-01,-4.666036298876179433e-01,3.545543527925321126e-01,-3.072730286668927824e-03,-5.079570330467904175e-04,-4.314642532040684555e-03,8.217346072196960449e-01
2.824696415328804555e-01,-4.495265386073412639e-01,3.384211612601980557e-01,-4.102349368426786401e-03,5.528097990748870316e-02,5.317084714300883766e-03,7.675992250442504883e-01
3.582771046530012216e-01,-5.206757198832495659e-01,4.066068224134198883e-01,-2.591559739593164279e-03,9.067706552823176502e-02,1.856145126992101097e-03,9.176442027091979980e-01
3.635442447934441046e-01,-4.716477623087491633e-01,3.595030393313249917e-01,3.325811577412875891e-03,4.414644325045746082e-04,-2.672868394016455432e-03,8.332118988037109375e-01
3.154034285246531399e-01,-4.558797514978401022e-01,3.919162070020424937e-01,4.875688488239286224e-03,-6.593058587230428078e-03,-9.410163073131125322e-03,8.125345110893249512e-01
3.452142263682383416e-01,-4.586370041374943085e-01,3.420815446876318555e-01,5.265726423250631678e-03,5.081001997273320268e-03,-6.086916272260667511e-03,8.024588227272033691e-01
3.712767760135970985e-01,-4.580223941951340194e-01,3.632621994975094304e-01,4.934678348478212934e-03,5.236297452270301939e-03,9.949581537625896803e-04,8.254169225692749023e-01
2.964818945882726764e-01,-4.576599331618221855e-01,3.713546110731704708e-01,-2.039848165621856429e-03,7.888349428811168226e-03,-1.159745696369087788e-02,7.946087718009948730e-01
2.289250449413250954e-01,-4.451611019976071670e-01,4.035722960842211271e-01,-1.940323934964714682e-03,1.499064102972798643e-02,-6.888842958183150934e-03,7.768197655677795410e-01
3.556947979155272721e-01,-5.215510513208330146e-01,4.249273659646627954e-01,-1.288680234187167956e-02,3.171827670201798205e-02,5.169170070634749627e-03,9.157968759536743164e-01
2.940072848524541427e-01,-4.762985564456193588e-01,3.983506972681395419e-01,-4.172665882163161628e-04,1.688394477259602330e-02,1.398360832978357265e-03,8.279471993446350098e-01
3.444417532361001566e-01,-4.605181516860216151e-01,3.406473172311166309e-01,4.470119692515935918e-03,1.925595054418420722e-03,-3.679440844620887087e-03,8.031389713287353516e-01
3.699380235993259269e-01,-4.731877318929488263e-01,3.652743774740895844e-01,-6.543956459266393223e-04,3.578193024645862953e-03,1.294209210479291055e-03,8.408302068710327148e-01
3.673388324480668654e-01,-4.761626062024703065e-01,3.653608349323099747e-01,3.377122079752259030e-04,1.971737128024870968e-03,6.768177981996435560e-04,8.425221443176269531e-01
4.029126511892515139e-01,-4.685869407924232455e-01,3.255707694810302533e-01,-2.275140984055923539e-04,-1.868122851081402240e-03,6.837988961901466170e-03,8.356080055236816406e-01
3.811584518421057832e-01,-4.649319755871054172e-01,3.206295623871641687e-01,-7.949046395659456130e-03,4.831834735994811232e-04,8.513652361794880538e-03,8.177576661109924316e-01
3.672492269846842072e-01,-4.721953237213408761e-01,3.663335732164504921e-01,-1.628729906743941309e-04,3.705247501379959306e-03,1.456369136610928625e-03,8.390154838562011719e-01
3.261295391480597550e-01,-4.548813899309576136e-01,3.808408074527206422e-01,-1.523638501040580455e-03,-4.793535187381546721e-03,8.830725198247818541e-03,8.099452853202819824e-01
2.896520987029586602e-01,-4.687820599772961616e-01,3.950333359362377950e-01,1.785763697590504739e-02,-6.914776007942484426e-03,2.827605589659757616e-03,8.169311285018920898e-01
2.628132216481062766e-01,-4.819980859982591070e-01,4.168232871987503918e-01,3.455148063184333013e-02,-1.281850096543171724e-02,1.112391532299101052e-02,8.352347016334533691e-01
3.636020738731427504e-01,-4.546852526194917754e-01,3.700926547645654874e-01,3.912148154890150026e-03,7.621564758100990780e-03,4.291857925416361214e-03,8.217194676399230957e-01
3.339328157277599574e-01,-2.398973451552995351e-01,3.208531708453647990e-01,4.854020048391428921e-02,-8.351081347047741021e-03,-3.473787812208649350e-02,5.769267678260803223e-01
5.641500333323818950e-01,-4.090953599949241903e-01,2.120921702319702451e-01,-5.573491947931619866e-02,1.010927718094340455e-01,1.037690199810320513e-01,8.948715329170227051e-01
4.273514451966862748e-01,-2.368277602276637750e-01,3.191658439020646498e-01,-5.781804609515410476e-02,1.470906040684140659e-01,3.911053175874840832e-02,6.786075234413146973e-01
3.876055898753462681e-01,-4.629758512062686071e-01,2.902064498406633497e-01,6.447192630202316574e-03,-8.114606821996923555e-03,-4.781657771809802622e-03,8.065484166145324707e-01
2.836927560595594588e-01,-4.455698187413449363e-01,3.665147394840584383e-01,1.320350542237824169e-03,1.074492924713211367e-02,3.506691982241650577e-03,7.742550373077392578e-01
5.567740093816726521e-01,-7.365273927903036588e-01,2.024393956386666971e-01,-6.297811560231242334e-02,-2.903879251060785260e-01,-2.224872302140934732e-01,1.324120879173278809e+00
3.393434415671168214e-01,-4.795477584934341175e-01,4.356487015598561330e-01,-2.785364913596060157e-02,-2.868576853738900173e-02,-1.150373984267956569e-02,8.740218281745910645e-01
3.681124033330832601e-01,-4.664988173932068660e-01,3.715645650291041213e-01,-4.515859663084239098e-03,1.033103180276284845e-02,-4.561314461324452937e-03,8.366079330444335938e-01
2.963320234577322965e-01,-1.223242795717040532e-01,2.955873985579335894e-01,-1.188129449609988571e-03,2.369060146861570303e-03,-2.485019574563584847e-03,4.183318316936492920e-01
4.074814981010955184e-01,-4.662895994570710467e-01,1.783950559097373101e-01,-1.982958470759970185e-02,9.456189861459346480e-02,2.617325181457637318e-02,8.036466836929321289e-01
1.076594243336532197e-01,-4.141466230215963829e-01,5.094606053533151657e-01,-1.051672675731754429e-03,-5.940437079425704703e-02,1.909767822528100553e-02,8.093652725219726562e-01
4.490172500162600833e-01,-5.027268704775973429e-01,2.140440809082829188e-01,-8.698594120831631624e-03,6.196332024125496274e-02,3.572672325917976288e-02,8.677381277084350586e-01
4.414635500065005602e-01,-4.635891679880166372e-01,1.952770167166816284e-01,-2.748287252820783705e-03,-1.506936822987156935e-02,-1.779848926842868620e-02,8.115236759185791016e-01
3.679635518816051776e-01,-4.620343844868536332e-01,3.647741539770898989e-01,-4.937922864722494101e-04,1.770313139058723659e-03,1.304427985599047185e-02,8.287220001220703125e-01
3.386916162647742312e-01,-4.602950715273954607e-01,3.437063662575850498e-01,-5.017049403675683146e-03,-9.048160568834949166e-03,-4.571310933695598572e-03,8.017452359199523926e-01
4.360098317809361079e-01,-4.470910660878815168e-01,1.707899857441312619e-01,1.458774575686963299e-03,7.124447776499783641e-03,2.420833707601080433e-03,7.849643826484680176e-01
4.322498635024408231e-01,-4.642811729036435686e-01,2.273348719133336249e-01,-7.273472700527007506e-03,5.717762721927737574e-03,1.636198284502252479e-02,8.143128156661987305e-01
3.665103761945768257e-01,-4.671375776650333878e-01,3.399718619913167927e-01,-1.031207639467412486e-02,-2.275615188327298997e-03,2.585097875399369922e-03,8.209165930747985840e-01
2.836521137038061635e-01,-4.380354228385659465e-01,2.828086361696338091e-01,-2.500782274952623521e-02,-1.940629682783302501e-01,1.359346510826578078e-02,7.972682714462280273e-01
4.061672641046309429e-01,-4.557425058789297267e-01,2.168537721631952353e-01,-1.544254179625884071e-02,5.512448228465600952e-02,1.793207078915870153e-02,7.914247512817382812e-01
3.674688155866265848e-01,-4.560686563371210145e-01,3.078796526752782814e-01,-1.104618394153538720e-02,-7.445959948777223711e-03,-5.341740578533356191e-04,7.957538366317749023e-01
3.855950263386127563e-01,-4.559438429966452544e-01,2.913240353898396973e-01,-7.407332641585980502e-03,-6.445677890216779116e-03,5.086039567716638121e-03,7.988171577453613281e-01
4.128833702733736843e-01,-4.627506316043465961e-01,2.707990643032713862e-01,-1.359920294293972794e-03,-5.451548241627996708e-05,5.410200757270327600e-03,8.140039443969726562e-01
4.226230977869672722e-01,-4.572014715196315304e-01,2.232072230049970130e-01,-9.845377157255827058e-03,-1.472295043708473500e-02,-7.683902957347298925e-03,7.997031807899475098e-01
3.945042863318763415e-01,-4.807433267466303395e-01,2.933175102624181463e-01,5.828256405613092134e-03,1.550515179916965927e-02,1.831834798975591136e-02,8.303995728492736816e-01
3.002809947128025625e-01,-4.582569641344380607e-01,3.657497104764121931e-01,6.803367434992120717e-03,-1.383028253190258031e-02,-4.700690181329028605e-03,7.937918305397033691e-01
3.293603212377302913e-01,-4.534131387896211951e-01,3.513815491430737903e-01,-1.321098393543251523e-02,-2.308924750554366273e-02,-1.258841131264154881e-02,7.956476807594299316e-01
3.868677482795975786e-01,-4.462800704411946651e-01,2.588754645694594236e-01,-2.849380863157005821e-03,-6.217224203324329956e-02,-2.025814757982369492e-03,7.845467925071716309e-01
3.762864761155820803e-01,-4.503879748301284902e-01,2.938630861958749230e-01,7.104194378324393822e-03,-3.931046630978378420e-02,7.566382230257797173e-04,7.917297482490539551e-01
3.514877471314896140e-01,-4.658270092714181798e-01,3.422526971791866601e-01,-1.135663199552442923e-02,-4.178941504272993407e-03,1.619837921868330427e-04,8.130068778991699219e-01
3.077194486788881189e-01,-4.598378759174328589e-01,3.634698137154876996e-01,-9.797887721245592679e-03,-1.692219981536281087e-02,-8.485728663943774633e-03,7.977512478828430176e-01
3.531477289864540792e-01,-4.516310938165978284e-01,3.146415883291441284e-01,-5.890164529201266826e-03,-8.641289913244238827e-03,-1.134115026220795059e-03,7.864443659782409668e-01
3.447432278704293807e-01,-4.458008179684385119e-01,3.149107145357169513e-01,-2.686016411144269509e-03,-3.394731522839792084e-03,6.956861646470565612e-04,7.760950922966003418e-01
3.161977285088109491e-01,-2.289378112843890589e-01,3.278543280600981769e-01,9.440154679015263150e-04,8.424409757065111012e-04,-1.364666492417771979e-03,5.510657429695129395e-01
3.232965026564784683e-01,-4.608071821121229039e-01,3.524244544393477230e-01,-3.559649914933885398e-03,-1.067456695493682224e-02,-6.923383969312270174e-03,7.993935346603393555e-01
3.440398821317339761e-01,-4.591019990496105763e-01,3.610003398300056232e-01,-7.073921944337075059e-03,-7.862245724801248878e-03,-1.342896281137206591e-02,8.122947812080383301e-01
2.962034201818614099e-01,-4.541639994977639816e-01,3.552125974925280927e-01,-1.170170425478431891e-02,-1.386437562194056325e-02,-1.409274704973306064e-02,7.825568318367004395e-01
3.625425596661669969e-01,-4.734774629785110100e-01,3.612968665227296872e-01,-2.903578446414032017e-03,1.345212179160501465e-03,-4.124952632288145758e-03,8.354468345642089844e-01
3.662745560468255723e-01,-4.659473646930653024e-01,3.678600680610838447e-01,2.533915906901730661e-03,-2.076167248904289830e-03,-1.085493730177408429e-03,8.330372571945190430e-01
3.651049138616737078e-01,-4.732648434747307453e-01,3.676248074578148395e-01,2.039652128597537004e-03,-9.323913631755554633e-04,-9.825105804743396263e-04,8.396432399749755859e-01
3.704173779215884088e-01,-4.642456349446791863e-01,2.994376616367653288e-01,1.617006962479636961e-02,7.285346879238864537e-02,-1.307297805649884799e-02,8.122045993804931641e-01
3.649112168266882561e-01,-4.668643183573096822e-01,3.501525718772449114e-01,1.225225102792431263e-02,2.419443779486934488e-03,-5.982193729400135142e-03,8.248440623283386230e-01
3.630150298027825517e-01,-4.615418569676184024e-01,3.739504667263928162e-01,1.340309671538127004e-03,-5.218664626719688761e-03,3.244414547496255082e-03,8.301501274108886719e-01
3.331442846556608162e-01,-4.522884905536667111e-01,3.369917983054532828e-01,5.122190231434336312e-04,-1.922915067387525982e-03,-5.956602927082470982e-04,7.873718142509460449e-01
3.640440061787372228e-01,-4.687570918144859933e-01,3.734222026866142463e-01,2.975137652428341156e-04,-3.343932579488160563e-03,1.389248206309736701e-03,8.375532031059265137e-01
3.224087191541462616e-01,-4.591154157913264200e-01,3.664009240513459997e-01,-1.347658079432435298e-02,4.002011928292541557e-03,1.284208259395540341e-02,8.050987124443054199e-01
3.644938235366639301e-01,-4.713863256564789772e-01,3.719381002792904733e-01,2.819804450129532580e-03,-1.635974772705066273e-03,-5.417702274243856508e-04,8.396465778350830078e-01
3.611723857243092084e-01,-4.548944764414669661e-01,3.687948789725121190e-01,-1.744263968158786451e-03,-7.837006771663625887e-03,3.869132606880573960e-03,8.200500011444091797e-01
3.698542485641179711e-01,-4.566875664417285874e-01,3.613040406435543139e-01,-1.635519393495031256e-03,-1.050238579320096665e-03,1.074836393731656674e-03,8.223090767860412598e-01
3.766735968750097308e-01,-4.663434567664989094e-01,3.625100162784973823e-01,1.171923401702610473e-03,-3.867340786844700000e-03,1.607077295266308144e-04,8.360546231269836426e-01
3.896944896494934363e-01,-4.623382557382408331e-01,2.835172575206897916e-01,4.551263388286022962e-03,8.281440443060375869e-03,7.142925839364662466e-03,8.044798970222473145e-01
3.748988911335415786e-01,-4.678717475571200213e-01,3.629604924955951439e-01,-6.167937741228752060e-04,-3.999983510232953468e-03,6.524856656046691304e-05,8.368946909904479980e-01
3.686020474960546855e-01,-4.613084535612692605e-01,3.621770808461260427e-01,3.166478441848338213e-03,-1.707264895651619714e-03,-2.341546009169585569e-03,8.267501592636108398e-01
3.442019924776747453e-01,-4.534723833397178439e-01,3.287265690819025088e-01,6.180300953006429530e-03,1.988487589908590012e-03,-6.718050485039768049e-04,7.901312112808227539e-01
3.708522990723279733e-01,-4.612297394918418725e-01,3.654871799982845060e-01,2.546343615271329935e-03,-1.260943526414696602e-03,-2.510689966803998380e-03,8.294385075569152832e-01
5.611666593839320649e-01,-5.800320652322167314e-01,7.998722837734459357e-02,-3.579922864400475815e-03,-9.472975318280382750e-02,-4.355787731605186008e-02,1.008661627769470215e+00
4.182737555960446274e-01,-4.236579303602876490e-01,3.195602193688492632e-01,8.328743394656419954e-03,4.489415378271789832e-03,2.894526185560983983e-02,7.989150881767272949e-01
4.267937564009172680e-01,-4.358440599114772329e-01,3.020658832388262161e-01,2.805137678322606326e-02,9.058464946696967793e-04,5.965772602362773291e-02,8.155649900436401367e-01
3.654084781178285612e-01,-4.759485393641007533e-01,3.656101525689730569e-01,2.850065999187645967e-04,-1.489713536175948840e-03,4.507675343649846910e-04,8.414623141288757324e-01
3.651848155825425657e-01,-4.559644808268321636e-01,3.111269516160640181e-01,1.007772345831367024e-02,7.254989250217959082e-03,1.576714228368380740e-03,7.957944869995117188e-01
3.227453033357576273e-01,-3.568461834466699067e-01,3.675895030504075511e-01,6.192760974669936185e-03,3.195819093677767717e-03,5.626573195027720483e-04,7.031912803649902344e-01
3.984613450505982701e-01,-4.466428087890230714e-01,2.445145007371779811e-01,-2.397352839930655573e-03,-1.553003141140199550e-02,2.293373814327859077e-03,7.801000475883483887e-01
4.884208435332131892e-01,-5.040644349454315165e-01,3.144819309246421613e-01,-2.219339486878654094e-02,4.838421350625442263e-02,5.829353658831180375e-03,9.226335287094116211e-01
4.572226967465229941e-01,-4.832354740499895662e-01,2.653209918511551524e-01,9.355481915340680549e-03,-2.754738439930350113e-02,-7.672538215032595910e-05,8.621783256530761719e-01
3.677846618709521009e-01,-4.490008766923028194e-01,2.923034269020340359e-01,-6.625925391822435999e-03,7.611588966675965698e-03,-2.537814972541434320e-03,7.819903492927551270e-01
3.674601922106685015e-01,-4.726827370753247104e-01,3.671406389158388683e-01,1.099025315898132524e-03,4.187507324170462210e-03,-8.012254513936521933e-04,8.400177955627441406e-01
3.934892274589955052e-01,-4.599923521180628860e-01,2.909067035629787634e-01,-5.165545928384039469e-03,-3.540167741200694884e-03,3.679027954019661092e-03,8.071926236152648926e-01
4.894402239068953442e-01,-5.182459534505742260e-01,1.769183199455571232e-01,-6.857412670608185531e-03,-2.658336081060641565e-02,2.032955210344820560e-02,8.953649401664733887e-01
5.563417916089057336e-01,-5.773611973611276760e-01,5.853141483092300090e-02,-4.123390027559165755e-02,-4.760333302050964721e-02,-3.561601624492080620e-02,9.921859502792358398e-01
5.899264833887909454e-01,-6.990509266823902168e-01,1.041535508494183943e-01,-9.912784220094936205e-03,-1.221517492853124720e-01,1.379293299477502566e-01,1.171929717063903809e+00
3.648021374001697015e-01,-4.703896098443197671e-01,3.745533131033933483e-01,-1.817013064361755413e-05,4.677013297168086843e-03,1.676388061978513261e-03,8.401538729667663574e-01
5.063549773650153352e-01,-5.157761627573577146e-01,2.381829511267743726e-01,-1.316692558402185291e-02,-5.789389573886065399e-02,-2.233307612364368935e-02,9.244635105133056641e-01
3.460029286301352092e-01,-4.449109801432442612e-01,2.913955843843511473e-01,-3.476191519980575961e-03,-1.717585291188522198e-02,1.170868112022480957e-03,7.656777501106262207e-01
4.284791705588691380e-01,-4.564952689535095587e-01,1.990478860047951160e-01,-4.930989935966725770e-04,-6.846046905835413351e-03,-3.986450412320492742e-03,7.955920100212097168e-01
4.454170161311130638e-01,-3.484006361283999986e-01,1.381733081537103724e-01,-1.189466182996908733e-02,-7.159816579762164762e-03,1.220895604037187075e-02,6.940281391143798828e-01
5.472371196701306673e-01,-6.015745831437026014e-01,5.119605120153308125e-02,6.344536004364219328e-02,1.640316945123020398e-01,-9.470123179649056477e-02,1.056251525878906250e+00
3.752160607383310253e-01,-4.641656159599600873e-01,3.133182245235977548e-01,1.152856303980458359e-02,-4.923346312015007033e-03,1.019287969795460401e-02,8.106911778450012207e-01
3.312530371744384916e-01,-2.390062753489963221e-01,3.162559655674606618e-01,-3.995572906337786258e-03,-2.003891890476964133e-03,2.168798423896772277e-03,5.629764199256896973e-01
2.303338770287897408e-01,-4.509026476201828393e-01,4.043006767801435863e-01,-1.301764515323858415e-03,-1.383964614706017712e-02,2.234853971525446216e-03,7.832335829734802246e-01
4.177432261895831500e-01,-4.739769146104729769e-01,2.660847542259097143e-01,-1.444758725800679260e-02,3.065099627640979069e-02,1.147632160794698902e-02,8.287146687507629395e-01
3.060078425918503209e-01,-4.440676795544334921e-01,3.164173036479456247e-01,2.212345097030090236e-03,-4.164041477879978914e-02,6.508520818784711316e-03,7.588630318641662598e-01
5.215119126975759078e-01,-5.483687478162836415e-01,1.155903776902928864e-01,-3.004807678334657506e-05,-8.260080925073774033e-03,6.010917996316349904e-02,9.413678050041198730e-01
3.758157724517026121e-01,-4.477716077591239463e-01,3.197523054824826794e-01,1.388297911396630877e-02,-1.326459988502324064e-02,3.426840478351678154e-03,7.977514863014221191e-01
4.272441420277124369e-01,-4.577869589071930090e-01,2.239887983958531448e-01,-1.038158665493723026e-03,7.964442599960675287e-03,-2.888875342716914693e-02,8.046134114265441895e-01
3.638257033967567389e-01,-4.680556251649061750e-01,3.764871715888283843e-01,2.756433500073110065e-03,5.166473209373087863e-03,1.052688634585622089e-03,8.383471369743347168e-01
4.033739501130687577e-01,-4.470907870421999553e-01,2.343294849594901863e-01,3.442153210254095264e-03,-1.416481117744704948e-02,-2.151537388981742023e-03,7.802251577377319336e-01
5.195758967735195633e-01,-4.935499055159211501e-01,5.283055723381063773e-02,-3.349897032368008565e-02,3.494884286635317056e-02,2.678355351933793538e-02,8.835079073905944824e-01
3.327269899778905748e-01,-4.516374293033911247e-01,3.348656499040595924e-01,-5.289724168204462500e-03,-2.025543964343994724e-03,-9.856179202174198892e-04,7.854990363121032715e-01
1.912611016074611536e-01,-4.777731101220132892e-01,4.616350187602826782e-01,4.291200444294198009e-03,-7.098316891069253454e-02,1.413588247651558633e-02,8.469762802124023438e-01
3.371312524855095694e-01,-3.486588121264538875e-01,3.630090383670314669e-01,2.131157706526785216e-04,1.811846683192889617e-03,-1.991545118969995261e-03,6.991038918495178223e-01
2.273551332263237801e-01,-4.577229850296374858e-01,4.228048959697951470e-01,5.653599909689236737e-03,-7.083897521859781540e-03,2.446907276855526687e-03,8.010588884353637695e-01
2.075941748054999925e-01,-4.488598654719389014e-01,4.254100879378012734e-01,-1.080811266934756515e-03,-2.024172411969012500e-02,5.233964144607193211e-03,7.890986800193786621e-01
3.595079801691803412e-01,-4.631834667723181420e-01,3.407498320951881654e-01,-5.480942478493758437e-03,-4.157627336429182800e-03,1.684137072969545817e-04,8.135619163513183594e-01
3.459057234393136948e-01,-4.538322555098166511e-01,3.159774991678468981e-01,-1.115078250582162908e-02,-6.548502211892520339e-03,-7.286663980081669982e-04,7.855221629142761230e-01
2.252187105733730044e-01,-4.639367139992989220e-01,4.358150998389239694e-01,-7.691149520155727941e-03,2.181143047656341344e-02,-5.767971275207599974e-03,8.161643147468566895e-01
1.677899440692166566e-01,-4.603489688381214862e-01,4.434877040982750374e-01,-1.624962345763801899e-02,2.072428626353036568e-02,4.192997863294978429e-03,8.036651015281677246e-01
1.323239885488137202e-01,-7.403593707182318795e-01,5.647984133849054400e-01,7.678035193597033958e-02,-9.182042380113447644e-02,-1.880954644016139335e-02,1.170497179031372070e+00
1.929800231046263637e-01,-4.494825325145789252e-01,4.395266702894016775e-01,-1.223499717560345415e-03,1.196673197505080093e-03,1.629249380186497450e-03,7.949572801589965820e-01
1.947325196371060274e-01,-4.669319791385426743e-01,4.467590124045476840e-01,4.760109795460951664e-03,5.787064240916291874e-03,3.820334951061931349e-03,8.174878954887390137e-01
3.693019436728417482e-01,-4.673469774236506113e-01,3.673645025106053730e-01,-8.817462914915517999e-04,-9.956038748760416904e-03,2.232341408060725500e-03,8.358701467514038086e-01
3.693468544349829963e-01,-4.740177414877622120e-01,3.671858037853408807e-01,1.739815465351018595e-03,-4.532110390610548899e-03,-2.221897653199882063e-04,8.423281908035278320e-01
3.332246276352249792e-01,-4.447133977306889641e-01,3.257306610371167310e-01,6.779616546622227978e-04,4.465710956113038040e-03,3.420287590691874148e-04,7.742580175399780273e-01
3.645618026508003484e-01,-4.642327538877885074e-01,3.802230717752939082e-01,1.402287833708810820e-02,2.527401197238922977e-03,1.771787292710174169e-03,8.371046185493469238e-01
3.510707998803470620e-01,-4.675664765473634965e-01,3.593318530744070705e-01,2.332527092499090456e-03,6.068866298680749422e-03,-7.683687105576400729e-03,8.229835629463195801e-01
3.393387635220026510e-01,-4.700109447520253170e-01,3.823976013359914883e-01,1.392308712397504963e-02,9.689640163794546734e-03,-5.984830703595661779e-03,8.322988152503967285e-01
3.542225963811632128e-01,-4.694499163998794300e-01,3.544221945454717471e-01,3.443686905636228826e-03,-6.236762510936701446e-06,-3.351639147595827060e-03,8.238143920898437500e-01
3.536333851297367437e-01,-4.730023011835701174e-01,3.627337952140245458e-01,-9.144184063850255241e-04,-4.584036437428584340e-03,-1.096644339911271573e-03,8.312648534774780273e-01
3.447637855270501150e-01,-4.420226678315717361e-01,3.120563190716889590e-01,5.359939741998193986e-03,5.785057224573109808e-03,-7.407406519409989471e-04,7.710753083229064941e-01
4.948514164600211762e-01,-4.657171695308484072e-01,1.423623351055467445e-01,-1.914957340593750196e-02,-1.892994371328217754e-02,-3.784895768978563911e-03,8.429523706436157227e-01
3.634915333343004540e-01,-4.689763369488186839e-01,3.660507424173720659e-01,3.079101643246586525e-03,-1.633030122544686363e-03,-3.043854428545534480e-03,8.337889313697814941e-01
3.614356664582411560e-01,-4.717106361721188357e-01,3.617596765883138166e-01,4.183523213899562748e-03,-1.633547399180381842e-03,-4.641104091416320323e-04,8.333450555801391602e-01
3.631086277237698390e-01,-4.716254077399169020e-01,3.612328840773377792e-01,4.969495734074420162e-03,-1.880038623511904108e-03,-9.179354700807970278e-04,8.338500261306762695e-01
4.319115301819876351e-01,-4.561202884581865291e-01,2.037366687231975115e-01,1.696187564949357953e-03,2.700152290004914548e-03,-5.343759793572808170e-03,7.988453507423400879e-01
3.811930868151677254e-01,-4.375322862078039332e-01,3.604766867032506150e-01,2.074274240543814291e-02,-3.175401217495954845e-03,4.575260682168707745e-04,8.093830943107604980e-01
3.667465844658370222e-01,-4.655511181818779987e-01,3.818160189798481818e-01,1.241302494612476180e-02,-2.869785632267225252e-03,-1.124209047867836229e-02,8.404492139816284180e-01
3.698136203666210764e-01,-4.430122904682733953e-01,2.684968934445141064e-01,7.079470943451162714e-03,1.324872347037873294e-02,4.515890620259238012e-04,7.676429748535156250e-01
3.357840774327407463e-01,-4.480426051405995702e-01,3.392976345910569402e-01,-5.890921245760088847e-03,9.900583751305922983e-03,7.113800017680849824e-03,7.859393358230590820e-01
3.077866699617279878e-01,-4.573469373301174423e-01,4.016847900127500370e-01,1.117203609786974160e-03,-2.310844138969107842e-02,7.627925668485010212e-03,8.172338604927062988e-01
3.067851509020774747e-01,-4.741212427309007271e-01,3.985860986513992676e-01,1.810439067976839927e-02,-1.701516529073868883e-02,-6.815145829916884231e-03,8.318181037902832031e-01
3.747524295941444539e-01,-4.597530932618486554e-01,3.261813288622650853e-01,-1.366481233916245347e-02,2.832911487449087801e-02,-2.079917678237182266e-03,8.131460547447204590e-01
3.299918319728215588e-01,-2.517845477372566143e-01,3.201017494801876584e-01,1.551927679167034281e-03,7.490005940972202167e-03,2.218914364424558021e-03,5.770598053932189941e-01
4.235961894492681346e-01,-4.543760023060596787e-01,2.045118268941082396e-01,-2.113432626961865395e-03,2.415767717039744942e-03,-5.286871900419948950e-03,7.915793657302856445e-01
3.184499766804622101e-01,-3.810850789422297047e-01,3.951261618887311200e-01,4.348030005910032136e-02,-8.372431268393510165e-03,-2.249906845237075511e-03,7.448243498802185059e-01
3.412121714728204580e-01,-4.586252617757368144e-01,3.434515446970913266e-01,-1.716437260440913321e-03,-3.998647895175368432e-04,-4.558882565563204120e-03,8.010042309761047363e-01
3.362911028047677608e-01,-4.641389880900077536e-01,3.855088416038605081e-01,-8.653367174373894147e-03,1.758635631204325499e-03,-5.897312606875317401e-03,8.263439536094665527e-01
3.256452769790063595e-01,-4.492028405759277421e-01,3.884303321874422177e-01,-7.460405228690876814e-03,-4.516606329497803657e-04,-2.081665148417683256e-02,8.089796304702758789e-01
3.366925872016367505e-01,-1.779942337759352067e-01,3.472160478583332655e-01,5.845870427599383912e-02,8.175454968174282466e-03,4.770051141828716285e-02,5.363845229148864746e-01
3.359114003418296468e-01,-4.458911649194559068e-01,3.220821062063186080e-01,-1.346886124470324936e-03,-3.412537447986520485e-03,-4.725503017913506112e-04,7.750069499015808105e-01
3.648130896921866761e-01,-4.706067518745922218e-01,3.719689409823441761e-01,-1.776733928132612824e-03,2.075925861928911223e-03,6.031240538265871974e-04,8.390346765518188477e-01
3.124417503879496349e-01,-1.279172337285274796e-01,3.161323913977280853e-01,2.117594524897753114e-02,2.918316696340687161e-03,1.827759031503652098e-02,4.448908567428588867e-01
3.997322407487505225e-01,-4.612307737144022424e-01,2.656904041250922055e-01,-5.399804736786759443e-03,6.272144759622504118e-03,-5.689195816094240118e-03,8.025721311569213867e-01
3.311994247072907460e-01,-2.375973129821173924e-02,5.182426259992408690e-01,1.429678412125517245e-02,2.118129414042520600e-02,1.970266430245882355e-02,4.801016449928283691e-01
3.189874670068755247e-01,-2.083689159127194990e-01,3.158972152529357924e-01,1.990800084729858754e-02,3.424925850999828436e-03,4.144123630490841037e-02,5.318467020988464355e-01
3.854691629684644516e-01,-4.615473989632473684e-01,3.399870935848045006e-01,-5.013278842902043654e-03,-1.463730008305701939e-03,9.060445830816657095e-03,8.254148960113525391e-01
2.891055836534690560e-01,-1.360847675920968669e-01,3.017815011587125507e-01,2.333469876285577645e-04,-3.617148802068394925e-03,5.375792729827820471e-04,4.317145645618438721e-01
3.694910240637861998e-01,-4.464086551236006173e-01,2.778084642461673970e-01,-4.866293100508415660e-03,-1.212962726014972514e-02,7.774842776207803669e-04,7.744730114936828613e-01
3.641595235271166686e-01,-4.744080003761431685e-01,3.710750583286704374e-01,-2.547531726999561260e-03,4.049620169898018700e-03,3.240810375191365076e-06,8.420873880386352539e-01
3.322291725833750875e-01,-2.337132105933527604e-01,3.287746001284527209e-01,-3.133210959435486559e-04,8.196570750025189769e-03,2.345916794248591869e-02,5.658625960350036621e-01
3.244373972028543607e-01,-1.970950458696186236e-01,3.222719719653753812e-01,-2.482145568624302343e-02,1.137110804284218249e-02,-3.462860246742286655e-03,5.226314663887023926e-01
3.317787268777099285e-01,-2.983678443704260719e-01,3.388732013709778723e-01,2.126087245878681073e-02,6.995429350479014791e-03,3.335219042368904596e-02,6.375308632850646973e-01
3.154111630913804531e-01,-1.589364155070006057e-01,3.079236642321070416e-01,2.846623187151029605e-02,4.672040245734112446e-03,1.932833607968087800e-02,4.744757413864135742e-01
2.931575379112089652e-01,-2.968550293843648658e-01,3.406978605248794922e-01,4.888211154315564438e-02,1.062899367299248998e-01,-1.095786575419855496e-01,6.749131679534912109e-01
3.287897005648307558e-01,-4.458626169796623406e-01,3.297140012627190475e-01,-1.552413477301852439e-03,-2.877705606860320175e-03,-6.681209099922152820e-04,7.751364111900329590e-01
3.081780471368905094e-01,-4.457801704534102294e-01,3.450136768899513817e-01,9.310336458813065017e-04,-9.167056523759790562e-03,4.311701706427258085e-03,7.732353210449218750e-01
3.340595949522963681e-01,-4.434739277946654346e-01,3.237455442834100694e-01,3.552866816319445644e-03,-8.321089957638080209e-04,8.518462251787354287e-04,7.724553942680358887e-01
3.155787251921410297e-01,-1.594027347231298797e-01,3.081483424069980659e-01,2.966953868029512803e-02,3.950104334136430619e-03,1.928075234318362211e-02,4.753274619579315186e-01
4.552998393781405029e-01,-4.492206044788732422e-01,2.023249386802180028e-01,-4.696309776256279989e-02,-1.427522322368032504e-01,2.479843221532543329e-02,8.502520918846130371e-01
3.834629969829170260e-01,-1.722942919332114964e-01,2.501330849019126612e-01,-2.573229219159449063e-02,-9.672514612665662759e-02,-1.149193646362243471e-01,5.676416754722595215e-01
3.274612224086660972e-01,-2.828962998600796919e-01,3.395957362281287750e-01,-6.560375826964370480e-04,1.101049815153642975e-02,2.612159870034791789e-02,6.184673905372619629e-01
3.420377572040300684e-01,-4.441554576775521568e-01,3.099843250716319831e-01,-3.605466295289203125e-03,-5.883417575151244500e-03,1.055105922714719927e-03,7.707614302635192871e-01
3.521003559126463789e-01,-4.061044776653608412e-01,3.665258380914354630e-01,-2.111363564280329275e-03,7.488678854128317033e-03,-6.614245695794784136e-03,7.657238245010375977e-01
3.458170657006425230e-01,-3.366116615472168894e-01,3.509149793264285666e-01,-4.693713774212128834e-03,-1.216257535863809157e-03,-4.531355709051913816e-02,6.895247697830200195e-01
3.799220029474775218e-01,-4.628947121847131196e-01,3.608544267258323446e-01,-1.067627287657760197e-06,1.308536793762336793e-03,1.935048319460935112e-03,8.334563374519348145e-01
4.445920731787206259e-01,-2.889663676304605189e-01,9.420669235744626169e-02,-1.393687595731269747e-02,5.671521457198938979e-03,-7.014844588201483988e-02,6.475270986557006836e-01
4.405332152691155967e-01,-4.809736369873699458e-01,3.201981361586906938e-01,4.767947133611311929e-03,6.126817287917394467e-03,-3.698609867784508759e-02,8.700864911079406738e-01
3.490220900713050800e-01,-4.635891551379068831e-01,3.553176559905306120e-01,-3.306129908262065483e-04,4.036708680109457430e-03,-1.744610406480427613e-04,8.158074617385864258e-01
3.653932297591892531e-01,-4.739591499139501618e-01,3.705776995326851009e-01,-2.183210879236376079e-03,-1.555578689816386907e-03,2.296721941472079382e-03,8.419787883758544922e-01
4.445952206658095318e-01,-3.895207636517385441e-01,1.813832440797819578e-01,8.832330990237919656e-04,-9.604192144188938851e-02,4.230245733079984749e-02,7.606074213981628418e-01
3.296359726427163794e-01,-4.438019275894329319e-01,3.207425023929321162e-01,2.255935547971994260e-04,8.569687981625485201e-03,-1.166962811337594696e-04,7.691730856895446777e-01
4.032586695358663653e-01,-4.797356023028638283e-01,3.417869028687111066e-01,-9.329249390752431675e-03,-1.307749186291076379e-02,1.115140943151792484e-02,8.545909523963928223e-01
3.344773849261787335e-01,-4.440040135277659727e-01,3.798027687481556058e-01,6.398535539571922198e-03,9.526222481890117208e-03,7.666312927041820692e-03,8.024612069129943848e-01
3.575321910448880369e-01,-4.507363265133296215e-01,3.794103550647666134e-01,2.643471537801572041e-03,-4.593450140694010052e-03,-8.755632320493766246e-03,8.196184039115905762e-01
3.448439383416549431e-01,-4.608859404854412922e-01,3.348618563085253297e-01,-4.254261844823432198e-03,1.601269206427265168e-02,8.091440964500382430e-03,8.014220595359802246e-01
3.512830639551441370e-01,-4.059927848188199517e-01,3.685351174176123568e-01,1.177990021542753979e-02,-5.335718779038648406e-03,-1.184134305282382067e-02,7.666493654251098633e-01
3.597272181971023497e-01,-4.537827481730594137e-01,3.707907423893165855e-01,5.548415751686514583e-04,-5.946845499156078532e-03,-2.485135205445963922e-03,8.191744089126586914e-01
3.595352109810996954e-01,-4.635023505248758724e-01,3.470829948873903059e-01,-5.371237730366764523e-03,1.729944880669004054e-03,-4.544543195921827653e-04,8.169414997100830078e-01
4.890859033307687898e-01,-4.636908061681099813e-01,1.680267482189802264e-01,2.490531644648230625e-02,8.818876216497406606e-02,2.069888032693276494e-02,8.552442193031311035e-01
3.727539816305235898e-01,-4.629139443903137474e-01,3.077667738157927602e-01,-8.681228752323676481e-03,1.603877284239024759e-02,7.585333738069812391e-03,8.058702945709228516e-01
3.924092776532435711e-01,-4.606969710449402289e-01,2.665614600284300639e-01,-9.269739242314979644e-03,4.047522005922158175e-03,-5.472302054869719948e-03,7.979117631912231445e-01
3.577776991202553658e-01,-4.664333804451741283e-01,3.485999019762747730e-01,-7.656141900456949444e-03,4.457703939989238716e-03,7.503078118492012040e-03,8.199073672294616699e-01
3.394250832804016627e-01,-4.604513076977474473e-01,3.409044911167234959e-01,-4.781457366027795988e-03,1.100781780996069013e-02,4.251297987173557544e-03,8.009207844734191895e-01
5.523036298558211543e-01,-5.517894248854674499e-01,3.815531938062707157e-02,8.689968372511548255e-04,-8.830251971540645228e-02,2.250357736833427658e-02,9.698535203933715820e-01
4.356210661558156949e-01,-4.480047616895911355e-01,1.969887939902155716e-01,7.900523608414959697e-04,2.309257182270321035e-02,-7.193354373302367211e-03,7.928652167320251465e-01
2.988918545996381848e-01,-2.009740597312164589e-01,3.270134449752111205e-01,3.722695627112938442e-04,5.001369276178372139e-03,1.533301630043821953e-03,5.145835876464843750e-01
5.091101394095973176e-02,-4.994034090561462191e-01,5.252868491114507377e-01,1.340771055891460013e-02,-4.959940337897246476e-02,1.436207636038288292e-02,8.930132389068603516e-01
1.498220179028119381e-01,-5.298221836539185325e-01,4.416462222904100621e-01,3.086444899762007775e-03,-1.706492144328102256e-01,3.420748332681064485e-02,9.145035147666931152e-01
3.695921340267818156e-01,-4.450326450643995457e-01,2.756916068328781888e-01,3.770132328909298926e-03,-1.382508577445166684e-02,3.504493625221463270e-04,7.723687887191772461e-01
1.724299948156314821e-01,-4.351266922648383551e-01,4.806415365258335792e-01,8.183910681750362903e-02,-2.368224817915097202e-01,-4.655618065290286628e-02,9.199051260948181152e-01
1.498973123899187132e-01,-4.483617188003668486e-01,4.356757129285570018e-01,2.587972763389252001e-03,-5.881282326054496079e-02,-6.456386726627357832e-03,7.880828976631164551e-01
3.669056054539600320e-02,-4.970825985274268666e-01,5.840691538991800158e-01,3.847624810251777661e-02,-1.137021995372821392e-01,-5.432866280657681901e-02,9.637394547462463379e-01
2.372080402294155510e-01,-4.595215834185470971e-01,4.211198803661224122e-01,5.695181802587883854e-03,-5.199057983969930692e-03,-8.073275495520212952e-03,8.048394322395324707e-01
1.535363343356711263e-01,-4.638737068768065130e-01,4.290778614641863054e-01,1.597447777485746460e-03,-5.659193609115886758e-02,7.889502024098382638e-03,7.981495857238769531e-01
3.349846941869347727e-01,-3.107753396672258139e-01,3.346900150614774416e-01,3.160126353689199970e-03,1.076700127629023201e-02,4.256274728698147825e-03,6.459472775459289551e-01
3.090738058022106105e-01,-5.510429724475355284e-01,4.306054743569873167e-01,1.691210316830943361e-02,-1.179427247187758987e-01,3.134922514200814969e-02,9.511256814002990723e-01
1.538935490505767834e-01,-4.695086085637116824e-01,5.031070625579084910e-01,3.067567620624702448e-03,-2.123291967571974345e-02,3.073803640899214207e-02,8.558598160743713379e-01
1.500159919309273504e-01,-5.525872453332356660e-01,5.166524434110141284e-01,-3.384341258825618315e-02,-3.395729831005247362e-02,-3.518921519198135815e-03,9.447783231735229492e-01
4.429839969234003472e-01,-4.685674615933635989e-01,2.147893882322113313e-01,2.142582329066252192e-03,-6.260900317350832911e-03,1.048282796802135763e-02,8.218569159507751465e-01
1.301750169784462452e-01,-5.427737469828232131e-01,5.115820153377925728e-01,-6.209072164697113094e-02,-2.009648806610929081e-02,1.293413936103332378e-02,9.318143129348754883e-01
1.890171931306703634e-01,-5.414937702149190679e-01,5.045399384393391973e-01,4.801862802466655422e-02,-1.512003762798585019e-02,1.171610780654021126e-02,9.336534142494201660e-01
3.338600608735152742e-01,-4.476994530488503932e-01,3.298732665784468443e-01,3.380245978058175720e-03,-1.000078761203504040e-03,1.941993328336968222e-03,7.796049118041992188e-01
1.645278306121148726e-01,-9.582905471286501387e-01,7.037318186354257765e-01,-3.623036467216322887e-02,-1.992572676790776431e-01,3.116938974323937156e-03,1.509956121444702148e+00
2.091938948752320448e-01,-4.617128719129185432e-01,4.384287477782736753e-01,-3.901818743144971815e-03,3.170706446908514234e-03,4.766963034588121359e-03,8.103109002113342285e-01
1.788973151977529263e-01,-4.480709208485037509e-01,4.205872553717961426e-01,2.024831901856790576e-03,-4.680362673765743609e-02,4.143769127843315199e-03,7.808141112327575684e-01
4.405026832866472675e-01,-4.692223963366917161e-01,1.967987644360729704e-01,-2.374121136801832319e-03,2.083648814862288506e-02,1.781323762960134588e-02,8.170428872108459473e-01
4.133473559827878785e-01,-4.620423841809546683e-01,2.276250936482572818e-01,-1.338364248927424380e-02,-2.802354469687597105e-02,-1.309568832924637612e-02,8.010171055793762207e-01
4.809568016094276643e-01,-5.249950007242659700e-01,1.860985538389141325e-01,-5.458647997903271366e-04,-3.059244634074879260e-02,-3.655455729068934185e-04,8.972603678703308105e-01
4.787990710875008049e-01,-5.361056719736221332e-01,2.216727109046717770e-01,-5.490749366026238462e-03,-6.273506535088203828e-02,-2.717428928612738298e-02,9.215745925903320312e-01
3.442934218838336058e-01,-4.445584113879356147e-01,3.097325544168627598e-01,4.149242179103432640e-03,-7.634659759915505758e-03,7.946397214212894394e-04,7.722995877265930176e-01
1.816860819041263286e-01,-5.006848322315192723e-01,3.980686048945787370e-01,-6.831820605277243164e-02,-1.696729334638352460e-01,-3.482399040654765576e-02,8.741347789764404297e-01
3.848957569341335261e-01,-6.960673114179398713e-01,3.258173403658193301e-01,5.265709275275192586e-02,-3.229353597303106227e-01,1.294817562918942552e-03,1.195531249046325684e+00
4.691547739513556858e-01,-7.093600099917335422e-02,4.670028410398190388e-01,1.469368446208018687e-02,-5.081098528796808289e-02,-1.935340038848738439e-02,5.477746725082397461e-01
3.623437006818028272e-01,-4.757991218141871537e-01,3.656778412479435025e-01,-1.428981036388980328e-03,-5.700258617793392329e-04,4.029920333789818363e-04,8.398193717002868652e-01
3.819868592118499384e-01,-4.531261905258915368e-01,3.578756731775943889e-01,2.197369707429849741e-03,1.576338710741828283e-03,1.338577239909609839e-03,8.233388662338256836e-01
4.399253051624745225e-01,-4.824362489290396905e-01,2.532096574972539926e-01,-1.602141401080263428e-02,-1.497121707274466640e-02,-1.551270307922638508e-02,8.459069728851318359e-01
3.507732842957549391e-01,-4.638182255998472003e-01,3.428697575153430988e-01,-3.800088056471915220e-04,2.784657913320312886e-03,6.796555229462466520e-03,8.107687234878540039e-01
4.300631657547314135e-01,-4.579029094776340125e-01,2.135514470556597599e-01,-3.551928181098280238e-03,-1.926818043319136753e-02,-3.218479519687840289e-03,8.026759624481201172e-01
4.239384401470394081e-01,-4.625392934368584008e-01,2.172066852452355645e-01,3.961849338463371839e-03,-2.248761484823613710e-02,-3.618141305131467034e-03,8.043140769004821777e-01
4.640585006371660270e-01,-4.645140610347262555e-01,1.555011079880184721e-01,-8.513720198043838935e-03,-4.917583172852227347e-02,-1.505128135286909821e-02,8.240683078765869141e-01
3.640403773169104684e-01,-4.748921875600661258e-01,3.628522856867957835e-01,1.571814820355688482e-03,-3.327800280351128279e-04,2.488098357634013769e-03,8.383548259735107422e-01
3.634606143418496194e-01,-4.749822317386399595e-01,3.632198369863333109e-01,1.808430987697009660e-03,-1.469230204604218522e-04,2.327760045412122312e-03,8.383380770683288574e-01
3.442364557967115823e-01,-4.532486083829287971e-01,3.341352394818909444e-01,3.450263996229402212e-04,5.593540032399400147e-03,9.089786998875437098e-04,7.925437688827514648e-01
3.515362686071294429e-01,-4.682848073986850546e-01,3.525146256893554875e-01,2.746239596965496278e-03,-3.420896416773331651e-03,1.911597737298236042e-03,8.203525543212890625e-01
3.534589297137345487e-01,-4.679229454831440593e-01,3.554838606043007054e-01,2.555369706899932297e-03,-9.587575973443050650e-04,3.656559305306509872e-03,8.224341869354248047e-01
3.689178314402303815e-01,-4.623392921932092392e-01,3.630337315382720642e-01,3.530789804073833447e-03,-4.109406944918707425e-04,1.524150676063336027e-02,8.287741541862487793e-01
3.467669622790708339e-01,-3.849849532460491441e-01,3.656490007453533364e-01,-2.362795938784792524e-03,5.493894208035079649e-03,1.642592578889244537e-02,7.419912815093994141e-01
3.225805523808159547e-01,-4.673580017627314565e-01,3.927978098457655665e-01,8.959628439716135762e-03,-3.640084454370800561e-03,5.007628666135537868e-04,8.274551630020141602e-01
3.695227917262738360e-01,-4.529341031153568675e-01,2.926455098992460924e-01,-9.136422440382272261e-03,1.077965837067274869e-02,1.391675384028911522e-03,7.872242927551269531e-01
3.581588640803516910e-01,-4.471626996798666598e-01,3.755733009122960708e-01,-1.187056414582992204e-03,6.384629495253400094e-03,9.605135042452295907e-03,8.144161105155944824e-01
3.474585725803982506e-01,-4.690281950683866663e-01,3.733424937594898019e-01,-1.091289822266862386e-02,1.073579353580856113e-02,8.333813772828628161e-03,8.302806019783020020e-01
3.641826973577123039e-01,-4.689709435666677972e-01,3.781273532029245654e-01,-4.587114408111043866e-03,6.034221233120432015e-03,5.612914096806877716e-03,8.403715491294860840e-01
3.410094608141479577e-01,-3.385067305313703145e-01,3.455101780584721727e-01,-3.931141766799380044e-03,1.106242050815299353e-02,-1.223346109746768469e-03,6.820841431617736816e-01
4.489537889891595523e-01,-4.536877965784693600e-01,1.756984052426137366e-01,1.351966200242765313e-03,-7.847582036504489184e-03,1.444109701625135222e-03,8.018572926521301270e-01
3.445336695770823687e-01,-4.251041681133262973e-01,3.633896091432092246e-01,-3.082842075521831978e-03,5.996779941229504751e-03,6.342512227627668253e-03,7.794018387794494629e-01
3.609319421165200215e-01,-4.311919979702658612e-01,3.662300020123342992e-01,1.425620676962229168e-03,1.050702941565285174e-02,4.576866740051910233e-04,7.949987649917602539e-01
3.640134110951457336e-01,-4.629309552494065283e-01,3.755063344006749904e-01,-1.056415110146901990e-04,-1.668271936295823675e-03,-2.402814772471123170e-03,8.327657580375671387e-01
3.380730222348046210e-01,-4.589004509020369049e-01,3.700798994760561289e-01,7.867814657659403382e-03,-1.098740966749437191e-03,-4.218220736838392232e-04,8.135660290718078613e-01
4.037556662381819872e-01,-4.610314226078470190e-01,2.651523033880114344e-01,-5.670944636961930928e-03,5.807198087360647756e-03,-5.628551538162300180e-03,8.046725392341613770e-01
3.659199629277030685e-01,-4.662686094268260195e-01,3.673682187909840247e-01,-3.320949298514425975e-03,-2.910916741809013893e-03,-2.001752266353429635e-03,8.329559564590454102e-01
3.711740601100727566e-01,-4.594533339215144396e-01,3.656594196547971465e-01,5.156913982425182820e-03,-1.239463860427575869e-03,1.375777706052840662e-03,8.279382586479187012e-01
3.735883153977039850e-01,-4.604822519052232943e-01,3.656106015238152485e-01,4.277597180789544963e-03,1.100801156987730968e-03,1.484751438466386112e-03,8.301497101783752441e-01
4.817432170618153875e-01,-4.699813836202457740e-01,2.312213762288290453e-01,-1.422099238122112932e-02,3.068848481829339336e-03,4.489337143464135205e-02,8.583672642707824707e-01
4.029755966815306012e-01,-4.620639493642406670e-01,2.648142637732245896e-01,-1.937870135094973360e-03,-2.055141075957874885e-03,-8.470825448788322012e-03,8.050504326820373535e-01
3.807330199137736182e-01,-4.579410895785247515e-01,3.545279566755503708e-01,-6.177195896027406694e-03,-2.829828527545609138e-03,2.991287411130927288e-04,8.259674310684204102e-01
3.703437796672368054e-01,-4.239550489163450564e-01,3.604196361481019073e-01,-9.867943887841203882e-03,1.421672954466160835e-02,-1.212033797616495455e-02,7.902313470840454102e-01
3.783746983124211538e-01,-4.455910174581988459e-01,3.590670056082218009e-01,-1.053474209145289706e-02,-3.991637140808453575e-03,7.046605032704129391e-04,8.147181272506713867e-01
3.783386867784271357e-01,-4.399138961480943966e-01,3.522854121074349143e-01,-1.076948236541141850e-02,-2.959152946607603550e-03,9.106473351118419190e-04,8.057757616043090820e-01
3.793571348400847643e-01,-4.582392908637828999e-01,3.644393375500021848e-01,-6.796230041602650471e-03,-3.968241694649203566e-03,1.438250709003841823e-03,8.303536772727966309e-01
3.783765739947816398e-01,-4.425152918470496299e-01,3.540961736102484769e-01,-1.018497037120999829e-02,-2.909792843375428109e-03,1.066242925877175439e-05,8.092329502105712891e-01
2.887941679271270323e-01,-4.553852631690604724e-01,3.790540004290728904e-01,-5.212669868571974396e-03,-3.559901284993238768e-02,-3.656003535458463710e-03,7.956399321556091309e-01
2.716002238166781435e-01,-4.951757436270287638e-01,4.153337023144035856e-01,-3.040016750935308279e-02,-1.932114213475169887e-02,-2.013242160210362841e-02,8.508374691009521484e-01
2.471308421427811930e-01,-4.669233039195431756e-01,4.054868847493796613e-01,4.349518393755508368e-03,-2.257575725045516540e-02,-4.994305103482618406e-04,8.059846162796020508e-01
3.525595743005037197e-01,-4.261638964876803826e-01,3.572032548834274124e-01,7.372652622009904025e-03,-2.299787186536709441e-03,7.931551953470641209e-03,7.812910079956054688e-01
3.210454342657811933e-01,-4.441950674582049174e-01,3.969251413097569237e-01,-1.569291715260490161e-02,-1.768099815350746354e-02,-1.659370289242229849e-03,8.069088459014892578e-01
3.623072856961523369e-01,-4.664069407314627158e-01,3.622969762385417902e-01,1.169550201475583065e-03,2.381437062363892074e-04,4.004859542711350189e-03,8.287406563758850098e-01
3.832145761396754668e-01,-4.648658272322990781e-01,3.220521419617236036e-01,1.041858276911612410e-02,-2.742770160294138483e-03,-4.761536593653580528e-03,8.194673657417297363e-01
3.517328644956185801e-01,-5.051213024246755667e-01,3.791531791638929061e-01,-2.383561163460750851e-02,-8.189051817371111042e-02,-3.525725846590254883e-03,8.833492994308471680e-01
3.529593323301603580e-01,-4.628611642017426142e-01,3.241453279189701053e-01,8.297737022308961444e-03,-1.051232185549003280e-02,7.611398440811587875e-03,8.022456765174865723e-01
3.602185527507258400e-01,-4.678859362430883850e-01,3.592522055686593885e-01,7.233038387085928209e-03,2.304769032658925392e-03,6.278004358041616544e-03,8.277975916862487793e-01
3.740135145151890494e-01,-3.775601666289070124e-01,3.869538757200266521e-01,4.424098672843125579e-02,-2.942822913130646589e-02,-5.879082408688115352e-03,7.637602090835571289e-01
3.441916366067565569e-01,-4.529344134807055111e-01,3.340683395299818281e-01,5.957902749303686102e-03,-3.220176740502663578e-04,8.166562952904782898e-04,7.921816110610961914e-01
3.473232674546191667e-01,-4.311516638504073740e-01,3.783232189517607424e-01,8.023837149332912165e-04,7.137119256716152171e-04,-1.263130661571412044e-02,7.947320342063903809e-01
3.702343217577815371e-01,-4.648646373130613796e-01,3.651749458297111062e-01,1.102619832436811101e-03,-1.710860562142247493e-03,-9.847290086575961540e-03,8.327629566192626953e-01
3.519133951341464339e-01,-4.553735187156529030e-01,3.281149344311423133e-01,9.807805076047794099e-03,-2.008206939908732235e-03,2.708371311450037742e-04,7.958437204360961914e-01
2.878267426868442724e-01,-5.042015051509209922e-01,4.130280461988430352e-01,3.450806016350216332e-02,-1.810742360776899235e-02,-3.249978977055729013e-03,8.641381859779357910e-01
3.662023008749670239e-01,-4.751611706467527840e-01,3.569777972020412582e-01,1.414350473886161631e-03,9.803986018490575167e-04,1.103518915852790688e-03,8.367968201637268066e-01
3.599179117219341029e-01,-4.642201902901816890e-01,3.434555892674317490e-01,1.002500785161129088e-02,-1.110399187121313865e-04,-1.031054069459472677e-03,8.162181973457336426e-01
3.467704901424659703e-01,-3.781636614784121830e-01,3.669254435697530403e-01,-2.396956095801469622e-03,1.319772437208245174e-03,-1.740272285288783916e-02,7.358517646789550781e-01
3.824637446259570028e-01,-4.532624509412453984e-01,3.557545857743676931e-01,2.235806165349302731e-03,4.923668467605734917e-04,9.143878846830347414e-04,8.227079510688781738e-01
3.556851243424661302e-01,-4.560668496706954400e-01,3.798953257000859951e-01,7.407226537256546370e-04,1.760551483050664095e-03,-4.555049828227593529e-03,8.241682052612304688e-01
3.596152200118324371e-01,-4.685475124146957215e-01,3.522307649091971915e-01,-7.109620223128301081e-03,8.579029670077371363e-04,3.437549563978087568e-03,8.246101140975952148e-01
3.739312482740269616e-01,-4.645359119282641558e-01,3.633435532094762555e-01,4.713890550791600791e-03,-4.768830855122587267e-03,4.094166165808232373e-03,8.333348631858825684e-01
3.646252067076908854e-01,-4.735275794836574237e-01,3.655289546887568464e-01,-3.974454724856954502e-03,-2.080037181650862179e-03,2.373073192522438812e-03,8.386510610580444336e-01
3.694366347504359216e-01,-4.674139612015169032e-01,3.664220728217215117e-01,-2.127011360634258833e-03,-6.610417517018759778e-03,2.434434988135653673e-03,8.354446291923522949e-01
3.524209219011424921e-01,-4.306496645800305112e-01,3.774679580374786236e-01,-5.223084498679077649e-04,1.602311136988469539e-03,-1.260455692032276878e-02,7.961944937705993652e-01
3.943825274896550770e-01,-4.659335444512130442e-01,3.615956495048838759e-01,7.617096472574461617e-04,5.963955403226438301e-02,-1.539702847173717894e-02,8.511140942573547363e-01
3.788493891326336072e-01,-4.611885007977426509e-01,3.607816377772514183e-01,-3.125904907174370875e-03,6.510462002486386757e-05,3.062208404071112039e-04,8.311691284179687500e-01
3.411092425157891128e-01,-2.502171423055978283e-01,3.352072937151486243e-01,-3.443710880408356462e-03,-7.700073417591150014e-04,6.728283415413863211e-02,5.998583436012268066e-01
3.191699109693845737e-01,5.968490458110620178e-02,3.915884868960491927e-01,1.762585359733893561e-02,-1.500856512078974775e-02,3.217978248730250096e-02,3.099723458290100098e-01
3.660239937679669597e-01,-4.729703804595288830e-01,3.677138469952085376e-01,-1.625817569066744352e-03,-3.601673028777678705e-03,2.415595511946506003e-03,8.398788571357727051e-01
3.519314478714049566e-01,-1.333618983456499874e-02,3.255968798291503097e-01,-3.834163993879050741e-02,-4.268296270205592692e-03,2.700331613773385847e-02,3.621425628662109375e-01
3.436804816837297771e-01,-2.480576814165060262e-01,3.562207617233978940e-01,1.316269739561021267e-03,-3.429370497298716148e-04,6.635008451417521991e-02,6.090520620346069336e-01
3.681814217869691652e-01,-4.641237405280650430e-01,3.343883085842129788e-01,-7.853719327805356101e-03,4.039397505898744030e-03,-2.474210415196166635e-03,8.160882592201232910e-01
3.638546363996164046e-01,-4.731530365837395280e-01,3.667034478978273282e-01,-1.588603063524189228e-03,-1.214008799641332461e-03,-2.653568622179158917e-04,8.384429812431335449e-01
3.647759151127850097e-01,-1.825893213629786738e-02,4.269671120007126897e-01,8.628452218334329779e-03,-6.218199250572183090e-02,1.304783547892563421e-02,4.321327507495880127e-01
3.451418015169174236e-01,-2.352410960027848663e-01,3.540400093995554331e-01,5.462079464827743203e-02,1.171463210547126366e-03,5.210192453388921840e-02,5.993213653564453125e-01
3.464187655418202727e-01,-4.743566735469567641e-02,3.338448610155510532e-01,-2.616230893095176230e-02,3.126175016712466614e-02,-3.805837705279386390e-02,3.995719552040100098e-01
3.755083630533910810e-01,-4.665697765355244497e-01,3.333617428358652823e-01,-9.783029907556101828e-03,1.101595983584348001e-03,-5.981384611757667273e-03,8.220579624176025391e-01
3.642260285851967594e-01,-4.676673453306026129e-01,3.709350005640892900e-01,-7.138882359898349661e-04,-1.900540670487424304e-03,-1.419574736919134057e-03,8.352791070938110352e-01
3.568587750769424138e-01,-1.263297918709574974e-01,3.290249269699287993e-01,-3.208933236775731584e-02,9.903148042398623313e-03,6.047573008164842945e-02,4.849250018596649170e-01
3.657119853575506174e-01,-4.586157135907453775e-01,3.708073146773265827e-01,-2.793146727166075875e-03,8.792230616489864203e-04,5.545716524522055144e-03,8.269584774971008301e-01
3.675582333580744154e-01,-4.664927656254809207e-01,3.657286703213978862e-01,9.720969362007716216e-04,2.743328393012239678e-03,-3.134101213257479632e-03,8.331706523895263672e-01
3.599430877929373773e-01,-4.501918758133988119e-01,3.764771163625046935e-01,2.337951094942144564e-05,-4.875587148914578388e-03,-5.849216680093757316e-03,8.186334967613220215e-01
3.639649230956423787e-01,-4.306011262390230243e-01,3.618733306795300364e-01,-9.809364139922672945e-04,-9.938934890057783949e-04,-9.406144245954694075e-03,7.936932444572448730e-01
3.591345737031684804e-01,-4.554146826313845153e-01,3.811363905962890652e-01,1.748490933510420987e-03,-1.678660435806330915e-03,-5.365624720450433080e-03,8.258329629898071289e-01
3.629577992553171262e-01,-4.673363617573097484e-01,3.763071658932414798e-01,-2.999860186022328210e-03,-1.930644678321615480e-03,-2.958356185735321314e-03,8.370871543884277344e-01
3.411812836094453294e-01,-3.784242789281657693e-01,3.688662569673921143e-01,-1.081674564847482506e-03,-3.488755106781244938e-03,-1.918886400190842126e-02,7.346193194389343262e-01
3.558793929411295798e-01,-4.387532913260423495e-01,3.791430905486244396e-01,1.542831271933216546e-03,-6.734571517811968611e-03,2.552727290310422698e-03,8.066170811653137207e-01
3.810150683265025595e-01,-4.677715584937855997e-01,3.287878313836790634e-01,-6.458443346862189488e-03,1.088220095199528585e-03,-7.973616797461221400e-03,8.241092562675476074e-01
3.753566125106321816e-01,-4.652288314153278925e-01,3.649619500757829704e-01,-6.949929790983194397e-03,2.756414017326707343e-03,-9.854081687158183431e-03,8.357113003730773926e-01
3.688823956532101822e-01,-4.550435962380101618e-01,3.611283833087404194e-01,3.662079052483609848e-03,2.499670912251192832e-03,8.242976184090977871e-04,8.201136589050292969e-01
3.540561639975211561e-01,-4.429846994786958980e-01,3.782437706449864878e-01,-1.264001575467216091e-04,1.852510697949689283e-03,-9.185288399865472117e-03,8.095684647560119629e-01
3.376899422501740688e-01,-4.596737178370444710e-01,3.407674553157346020e-01,9.026218606206138154e-03,-1.004599360709205851e-02,7.894362639850209529e-03,7.993661761283874512e-01
3.477679224966039873e-01,-4.583690179564515743e-01,3.406244522666436736e-01,4.127527785802012628e-03,-5.225432182393925824e-03,5.347109085857003861e-03,8.027253746986389160e-01
3.633900678844331766e-01,-4.634040888195621877e-01,3.784748729033708958e-01,5.031285314423706179e-04,9.004427913526513727e-04,-2.974365958008825563e-03,8.344566226005554199e-01
3.656157600986121303e-01,-4.667039882373098525e-01,3.652250565107427738e-01,3.614432392069778441e-03,1.243564765278399199e-03,-1.815700913399758342e-03,8.321567177772521973e-01
3.547305963540100526e-01,-4.699331677034611632e-01,3.651145390535565638e-01,-3.242379856217381378e-03,-3.119581113322510840e-03,6.784409557521177371e-04,8.299418687820434570e-01
3.635356144697071135e-01,-4.715538608606590909e-01,3.652616716964613430e-01,7.544514064025656733e-03,1.130509910468500750e-03,1.069395569161078080e-04,8.360582590103149414e-01
3.478042925397883955e-01,-4.660698049891662809e-01,3.432236092446949716e-01,5.432053190079989997e-03,-1.063015690473642118e-02,3.127488590801296223e-03,8.118748664855957031e-01
3.633452670540548435e-01,-4.654946849224420591e-01,3.761651404871158011e-01,1.248156727152933835e-03,3.903943792165021076e-03,2.007338163182016948e-03,8.353610634803771973e-01
3.788000547085067504e-01,-4.627699408794192504e-01,3.636578320378315854e-01,-3.820166003087974160e-03,4.096655118573162591e-05,9.319069502876512270e-04,8.341298103332519531e-01
3.670850241504424183e-01,-4.648199438689876173e-01,3.387039011059360116e-01,9.658690362789663919e-03,-1.182028521461540079e-03,-1.645296884995137805e-03,8.182622790336608887e-01
3.604208397666405772e-01,-4.677592117394593352e-01,3.522219154587203360e-01,4.321181208314385166e-03,3.475763269797245945e-04,3.663539301408979317e-03,8.241698145866394043e-01
3.547140135267795036e-01,-4.678854072856273305e-01,3.536881871054951554e-01,3.785415640955165119e-03,-5.649541570683034577e-04,2.507076527573330951e-03,8.221251964569091797e-01
7.948239647107957495e-02,-4.405039667133938130e-01,4.969831374874916774e-01,-5.086453956996715708e-03,-9.726617444571471552e-03,-5.015959136052320190e-04,8.137257099151611328e-01
3.280470596868052535e-01,-4.421804491143926930e-01,3.687286329850202882e-01,-1.104158326083812562e-03,2.124997318744447500e-03,-3.082598293648647261e-03,7.913818359375000000e-01
2.867851655815419898e-01,-4.821362575192655875e-01,4.271649631164933791e-01,4.796922415990682170e-02,-3.633810851403757036e-02,3.166534556737026634e-02,8.560141921043395996e-01
3.657891179284330496e-01,-4.281173009947573105e-01,3.567245253460700760e-01,1.020228605414350183e-02,2.547106471921244206e-03,1.010655507462435631e-03,7.896251678466796875e-01
3.509137250842619404e-01,-4.638825998531138639e-01,3.446288627797334803e-01,5.309381649051193169e-03,2.107049412671127900e-04,-1.058258936296595015e-03,8.117263913154602051e-01
3.300511328159339008e-01,-4.945992307207269789e-01,4.071116371901235542e-01,3.490353251139244328e-02,5.509698871164208853e-03,2.055900057560219873e-02,8.686474561691284180e-01
3.620120351231711497e-01,-4.066692663906725791e-01,3.520325920712764622e-01,4.063642505249829076e-03,1.152319515411920695e-02,-1.501587728253221676e-02,7.644761800765991211e-01
3.766239738665367320e-01,-4.631452174035716185e-01,3.612966646577184249e-01,-2.511702325808305453e-03,3.078653183883638990e-03,-6.103636993647667793e-04,8.322405219078063965e-01
3.609642817895155620e-01,-4.537259663859339875e-01,3.871544829908087348e-01,3.563221209705664388e-03,7.873192182410298774e-05,1.484756088050070977e-02,8.285182714462280273e-01
4.323090373317708401e-01,-4.670138561646935971e-01,2.593548368270101045e-01,-1.200892273070602694e-02,9.406059952411005565e-03,4.881637717078537476e-03,8.269962072372436523e-01
3.650985605334757800e-01,-4.746934353461749190e-01,3.638735492939070282e-01,1.348716890816214651e-03,1.494799367517817175e-03,2.152941184739603185e-03,8.391956686973571777e-01
3.640613601908840868e-01,-4.761393926511277019e-01,3.663991198264931470e-01,3.423640690079138619e-04,3.590098938475740596e-04,1.676260729669622087e-04,8.413725495338439941e-01
3.537861533119931456e-01,-4.721217788379994396e-01,3.625782749466676669e-01,-4.564403086873167377e-03,1.416685955767911856e-03,1.058780006049652150e-03,8.303821682929992676e-01
3.423662420501567549e-01,-4.703534906624737832e-01,3.834617966895936259e-01,-1.867905373357776769e-03,6.605577244369461795e-03,9.375040862613575471e-03,8.342700004577636719e-01
3.671069392201153359e-01,-4.629590506315357512e-01,3.203303893727355023e-01,-1.428536765424898158e-02,5.870003043173888449e-03,1.243955622954024190e-02,8.084242343902587891e-01
3.626199544284149368e-01,-4.709655050728860370e-01,3.657886534868938222e-01,1.627498113593899270e-03,-9.129209517235955564e-04,6.189907361877688974e-03,8.352493643760681152e-01
3.742612103939562118e-01,-4.508905405592387172e-01,3.640250345425927181e-01,-2.945901446365226800e-03,-1.067272359682698568e-02,-4.413383160535572572e-03,8.203414082527160645e-01
3.632305130717253805e-01,-4.716076304188500101e-01,3.621869953398371145e-01,-1.503014121093050517e-03,-2.115452719052576033e-03,5.641157580513660522e-03,8.343861699104309082e-01
3.649053369099423683e-01,-4.764515765348324994e-01,3.630972884198841455e-01,-2.067195976703447582e-04,-2.808704629861067141e-04,1.753158093010872111e-03,8.404600620269775391e-01
3.628369220421033270e-01,-4.744036335684626016e-01,3.630630478643979697e-01,-1.766416136505167666e-03,-3.880760801259483051e-04,1.537688605986134915e-03,8.373637199401855469e-01
3.623558438999485154e-01,-4.687890702545919330e-01,3.612022494872350609e-01,9.909638619201659691e-04,-1.313813227288354634e-03,1.140146605838219737e-03,8.305759429931640625e-01
3.648522848481259295e-01,-4.762960413599829357e-01,3.673858649481222538e-01,-1.070465693058439676e-03,-9.954114734800866005e-04,8.726082172900544165e-04,8.424231410026550293e-01
3.596762257389983786e-01,-4.604922344536725998e-01,3.639167996573655639e-01,-1.787356835713417450e-03,-1.125630952410326463e-03,7.146725329419514709e-03,8.223982453346252441e-01
3.798024270501593747e-01,-4.505865539153275368e-01,3.977736779153548397e-01,2.947577977912270442e-02,5.071842254692952856e-02,-3.114449284423605191e-02,8.473638296127319336e-01
9.548660270123665583e-02,-1.037549027897795684e+00,7.277379775388819194e-01,-1.014852176967065422e-01,7.523081873307043907e-03,-2.923234850428872017e-02,1.559969902038574219e+00
3.715129590730853471e-01,-4.651145344901468359e-01,3.643466506706167785e-01,3.109574792592521494e-03,-8.681066159680145278e-03,2.672279511921719485e-03,8.332334160804748535e-01
3.625304870138328361e-01,-4.696383455834275411e-01,3.649503378875748605e-01,1.940316540582139038e-03,-7.252109476007207681e-04,5.943954694819734291e-03,8.334527015686035156e-01
3.644016530248248009e-01,-4.714508145507089187e-01,3.607470842236357167e-01,-3.810661886217612659e-03,-4.489702888622692069e-04,2.471851520826534089e-04,8.340577483177185059e-01
2.499093201752232152e-01,-5.693059575576188136e-01,5.029929285067600286e-01,1.493433798505624729e-02,-1.676297572956921694e-02,5.814730184750386589e-03,9.716524481773376465e-01
3.654416612163780553e-01,-4.674382486204236020e-01,3.701556167935014519e-01,-2.980188068948481841e-03,-6.789391859515788927e-03,3.207291702698371848e-03,8.353640437126159668e-01
3.630983553964516330e-01,-4.668191839971632673e-01,3.654079902650227418e-01,-8.116696064086001763e-03,3.012311111026601262e-03,-8.221142293830759062e-03,8.313319683074951172e-01
3.657424487484528530e-01,-4.717839818821840669e-01,3.643231840223616902e-01,-5.815135783919975730e-03,-9.657496108826818006e-04,-1.746465090725171079e-03,8.368854522705078125e-01
3.680519709138811990e-01,-4.740009206217553617e-01,3.658239974804021744e-01,1.871642319995291733e-03,3.395926188319461220e-03,5.870246738253481755e-04,8.409685492515563965e-01
3.517093549308306089e-01,-4.700389433539463591e-01,3.607421197869926655e-01,-5.295836470511847312e-03,-1.005825855129358288e-03,-6.945107704238199717e-03,8.264420032501220703e-01
4.137842690392442568e-01,-6.907877204515979752e-01,2.671223526198122089e-01,-1.374537179012269919e-02,2.551605080376471713e-01,-4.426923851364913259e-02,1.131970405578613281e+00
4.230377706216056355e-01,-4.661870215123867789e-01,2.206909176356763591e-01,-2.208320160561261930e-03,2.356240158945184168e-03,2.483795826680497421e-02,8.084647059440612793e-01
4.090221359083046071e-01,-4.622258407344976838e-01,2.806582982300940277e-01,7.398914902442488284e-03,-1.333406425292930561e-02,-8.721189425678524398e-03,8.152541518211364746e-01
3.785794937174626340e-01,-4.647159666587301619e-01,3.402604198281466985e-01,-6.461119548072194810e-03,1.699396011343314462e-03,5.917806618460038671e-03,8.249486088752746582e-01
3.638379902996427551e-01,-4.752770121374390033e-01,3.625560516117157794e-01,-1.276504139223279960e-03,1.716074918318618030e-04,-1.382615176762602184e-03,8.384811282157897949e-01
3.646039036655568943e-01,-4.762600097095457397e-01,3.688043593740363280e-01,-3.861051271059348471e-03,3.400140785912374522e-03,-4.337472211367465399e-03,8.430525660514831543e-01
3.658103170533936743e-01,-4.672200894447843256e-01,3.682620514332403672e-01,-4.264248017596313292e-03,-1.697975975402403790e-05,-4.393476753711041821e-03,8.343263864517211914e-01
3.617483655564298073e-01,-4.722299771070532781e-01,3.613580269182397053e-01,-4.327596150935141624e-04,2.271685613566305252e-03,-4.037390988299418941e-03,8.338221907615661621e-01
3.754266571415988962e-01,-4.653548950948479535e-01,3.667238501299446285e-01,1.934120611720182648e-03,-2.794906895687688728e-03,-4.646000551073213060e-03,8.365235328674316406e-01
2.944348329503592154e-01,-4.754392069118307251e-01,2.884606804983614881e-01,-2.227888096652497554e-02,-1.331563802076376479e-01,-2.418110885156076612e-02,8.028558492660522461e-01
3.574833627019242677e-01,-3.648098539514935124e-01,3.528821838031366842e-01,-2.383551146949695280e-03,-2.296026952903678330e-03,-4.673650424883613735e-02,7.245626449584960938e-01
3.620352693663770327e-01,-4.540348494733500440e-01,3.749460034811893383e-01,1.404695105295001309e-03,-1.023273064046257078e-02,1.903765266902500289e-03,8.228026032447814941e-01
3.519756730798627165e-01,-4.091562488544295828e-01,3.694120471965312014e-01,2.365098061707120690e-03,8.542376912996033772e-03,-1.779055226073728620e-03,7.701573967933654785e-01
3.652075923881422659e-01,-4.661184811319747379e-01,3.675666922860241770e-01,-1.072543819753102225e-03,3.280823998830685465e-04,-6.397877610128268819e-03,8.325841426849365234e-01
3.483707199451344660e-01,-4.608447056898781757e-01,2.223748684440449708e-01,-7.636336752138473544e-03,-1.278287252013663999e-01,-3.904476478535106980e-03,7.861221432685852051e-01
3.812555077201001397e-01,-4.546947072584459626e-01,2.675117106634725683e-01,-9.185515403309078841e-03,-2.458668885342051025e-02,-8.158574635178397760e-03,7.867226600646972656e-01
3.714422579471574060e-01,-4.687137129910500244e-01,3.647587319578755594e-01,5.679781727664704599e-03,-3.273008240746700347e-04,-1.266621367740849166e-03,8.368951082229614258e-01
3.599311837546469994e-01,-4.536608883612962551e-01,3.003651101921351874e-01,-8.161695298060029843e-03,-1.302903910506546248e-02,-8.769683754582969365e-03,7.861027717590332031e-01
3.847728336968175844e-01,-4.600720688691092297e-01,2.684640789382830572e-01,-8.755287379678632770e-03,-1.865000815449393071e-02,-1.472091156733986925e-02,7.943244576454162598e-01
3.737583879999382686e-01,-4.722533567375045704e-01,2.756558732946781110e-01,3.878445800104233197e-03,-3.554138403789301737e-02,-1.340515324933320464e-02,8.042001724243164062e-01
3.832516189352825897e-01,-3.758336013422283184e-01,3.265701190116321317e-01,1.135604219732856517e-02,4.796059410300464480e-04,2.933630596152231752e-04,7.326560616493225098e-01
1.821659637847169444e-01,-8.219787677107612822e-01,5.236677755308305482e-01,-7.247731260749122606e-02,-2.231372784775066398e-01,2.456045013248201597e-02,1.278587698936462402e+00
3.206130245743572527e-01,-4.535392353483710393e-01,3.542257731093381712e-01,1.054401023729424798e-02,-2.350153849662478533e-02,1.132809131592364855e-02,7.929933071136474609e-01
3.664923096261240576e-01,-4.780931498308206296e-01,3.632850779341271763e-01,2.358643598771447303e-04,1.487220111527214148e-03,-4.115967767250713265e-04,8.429907560348510742e-01
3.711669141729220800e-01,-4.739176328149860007e-01,3.656166083804362477e-01,6.935010639309960355e-04,3.087141479289174165e-03,2.040239202447588756e-03,8.423483371734619141e-01
3.641955070590312538e-01,-4.730698308005166774e-01,3.714247816666783608e-01,9.223629954402979289e-04,1.922499904674807546e-03,-6.065514570678937198e-04,8.409120440483093262e-01
3.679747620567925259e-01,-4.742003067481018741e-01,3.653055165523326764e-01,1.609507696308167413e-04,7.466143478975870856e-04,1.916023303768082942e-03,8.408511877059936523e-01
3.653920933137841387e-01,-4.734866804779683802e-01,3.650710275091655910e-01,2.287821903661230692e-03,7.828799270865314554e-04,3.306336488918359788e-04,8.387289643287658691e-01
3.640226067026200996e-01,-4.754030735586493028e-01,3.658511900189155841e-01,3.632487462208227528e-04,3.443562802925925021e-04,2.672375776919624934e-04,8.403420448303222656e-01
3.661089793631001621e-01,-4.733805798635616346e-01,3.656999645882174077e-01,2.918702532566604980e-03,1.883222979554755819e-03,1.492252433467608280e-03,8.393106460571289062e-01
3.708808064435560881e-01,-4.556460179238611685e-01,3.636320012243703936e-01,3.097050710617129873e-03,-3.921033642560414366e-04,1.886720405033021596e-03,8.229506015777587891e-01
3.665625796986266560e-01,-4.774709882855078247e-01,3.665116407410811683e-01,5.334010048080397876e-04,2.446243585069964764e-08,1.814822612356730216e-04,8.440086841583251953e-01
3.666264926827713100e-01,-4.751780239667653394e-01,3.661102090724721037e-01,2.912859511009436870e-03,5.689510473565067422e-03,3.452870941085249903e-03,8.416405320167541504e-01
4.303376261523265134e-01,-5.179151268544354147e-01,2.842426292983329938e-01,-1.455456105462341748e-02,-2.147734283467712946e-02,-2.362792513468240513e-02,8.863894343376159668e-01
4.062635478416573021e-01,-4.517290398077660196e-01,2.114695371225362441e-01,3.274378119691280856e-04,-1.014339695584238685e-02,-1.877541854591865261e-02,7.799555659294128418e-01
4.042957749898478115e-01,-4.730221594082251180e-01,2.497580038226878130e-01,1.166119165735787083e-02,-6.019963026917220239e-02,-8.214035130690055739e-03,8.182128667831420898e-01
4.150321907076748862e-01,-4.595633026832295354e-01,2.299507781561514197e-01,-1.182318438295520621e-02,-4.035301119171433304e-02,5.954960420845245399e-03,8.016931414604187012e-01
4.184561137498059580e-01,-4.647052562388938046e-01,2.312492170528959445e-01,2.997650585270577369e-03,-1.838957092311414507e-02,-7.255405221158403584e-03,8.067750334739685059e-01
3.883805948593485047e-01,-4.470862873320690101e-01,2.527212213600489865e-01,-3.332172856847472530e-04,-2.390464778023704967e-02,-2.941923838564564184e-04,7.776788473129272461e-01
3.616214679092413231e-01,-4.295477234243645359e-01,3.676511518504715359e-01,4.932082077653216282e-03,1.521154062799928708e-02,5.088288446594746266e-03,7.947328686714172363e-01
3.556732251037028059e-01,-4.726361326920871520e-01,3.610796345571943844e-01,-4.738002809058876048e-04,2.594517573164386356e-03,7.191046115819047261e-04,8.310392498970031738e-01
3.639620984206355936e-01,-4.528239375590726867e-01,3.675595035304058955e-01,-4.147303596741572468e-04,-1.601350142640868980e-04,2.532785044555253655e-03,8.186028003692626953e-01
3.593548945560314234e-01,-4.535964017558522521e-01,3.762203476288633053e-01,-1.049527603700359853e-03,6.469153571637161274e-03,6.380609680076936366e-03,8.216665983200073242e-01
3.553342610081993702e-01,-4.289956449364675795e-01,3.631459834386651653e-01,-4.791341416542615680e-03,2.457598944958630516e-03,2.985360908889835019e-02,7.900139689445495605e-01
3.676514523160168135e-01,-4.674600040417388191e-01,3.628906824710248502e-01,-5.841495291445093253e-03,3.777639807582375275e-03,1.573440674808008902e-03,8.328329324722290039e-01
3.644680525965116047e-01,-4.653822410435369816e-01,3.368558128166156962e-01,7.311406466462331763e-03,-8.401076075472128923e-03,2.344262314022366872e-03,8.166324496269226074e-01
3.688984237906047237e-01,-4.578966122263566918e-01,3.408558763061191876e-01,-8.988621464325932328e-03,2.847243609954077542e-04,-8.078582372898596500e-03,8.134060502052307129e-01
3.593437138072783643e-01,-4.473760647547342373e-01,3.777712329124899293e-01,3.655279717980427275e-03,2.916287478854164700e-03,6.299590207997659771e-03,8.162027001380920410e-01
3.658913940715188273e-01,-4.769625459375439469e-01,3.676494440234832073e-01,1.060968342425870669e-03,7.299445266761399320e-04,1.184151476200233800e-03,8.437398076057434082e-01
3.384310181515692850e-01,-4.578947969636414372e-01,3.420028352804188598e-01,-7.536485366849359803e-03,-1.370948881430546565e-02,-8.209079175375534609e-03,7.987041473388671875e-01
3.755651834204900563e-01,-4.576602219455538911e-01,3.635277678086824005e-01,2.220890467413779660e-03,9.414960889248766632e-03,3.078758178809433855e-03,8.274592161178588867e-01
1.409908002914621594e-01,-4.926850761720301675e-01,4.354630473270290070e-01,-1.563436586251269050e-02,-2.204132383553848995e-01,-9.497891225070029947e-03,9.064264297485351562e-01
3.115094219934463338e-01,-4.458098975175257550e-01,3.486496056198479798e-01,-5.464867643333085577e-03,-3.923713833171464660e-02,-2.542149690000275290e-03,7.795938253402709961e-01
3.634566189406198133e-01,-4.769558192582822320e-01,3.659518529258836139e-01,-1.401002575226384037e-04,1.220964923773437899e-03,2.904006846324387516e-04,8.416656851768493652e-01
1.427518083006977800e-01,-4.770143994748217153e-01,4.460676580883937703e-01,-1.027786592345800859e-02,-5.359038715845143575e-02,1.981559898500492682e-03,8.203901648521423340e-01
3.924360353878819652e-01,-4.560442302903562339e-01,2.590714907938919120e-01,-6.142533552748742111e-03,-6.449615628597049621e-02,-4.860350014585115494e-03,7.982549667358398438e-01
3.442105578835703006e-01,-4.503802738723242660e-01,3.018163712833600854e-01,6.694449147076429914e-03,-1.608391279485507641e-02,1.684027174830445093e-03,7.748579382896423340e-01
3.276011282552192538e-01,-4.481185883360185862e-01,3.340011606498114460e-01,3.647643437337460843e-03,-1.117303840018141897e-02,4.531122464951535013e-03,7.792449593544006348e-01
3.603804645376174620e-01,-4.523547948782815631e-01,3.738980342275977087e-01,1.572952695817802973e-03,6.051418726203582760e-03,-3.956353764688936431e-03,8.196778297424316406e-01
3.343163870433826235e-01,-4.444462512436437862e-01,3.169345441081792281e-01,-3.887332253520391599e-03,-8.320930645745299933e-03,-1.482893045610543005e-03,7.703873515129089355e-01
3.645751131573409798e-01,-4.709871874091066113e-01,3.757694565057730363e-01,2.936609171674266563e-03,1.746963824929517305e-03,2.995845533893783802e-03,8.412521481513977051e-01
3.657496746286371669e-01,-4.713261425210015787e-01,3.704377486393712893e-01,2.855787162786713185e-03,4.521619299991968058e-03,1.983687617759583108e-03,8.394877910614013672e-01
3.465367059803093341e-01,-4.454855568904272367e-01,2.895642039347881003e-01,3.715876308516288373e-03,-2.118063602389741798e-02,4.056667544682326281e-04,7.660348415374755859e-01
3.263014262566797941e-01,-4.501747909377864509e-01,3.255175089654156473e-01,7.941148816962211726e-03,-1.220099824291539722e-02,9.977242702314830305e-03,7.766863107681274414e-01
3.413278093938421076e-01,-4.492869650599853326e-01,3.229917904820197583e-01,7.053721382524659293e-03,-6.495145240575818726e-03,3.543401832162632482e-03,7.818086147308349609e-01
3.627456858917495475e-01,-4.474968954549823907e-01,3.787119849149275241e-01,2.980762282673682720e-03,-1.456814265202647021e-03,1.674023625225323428e-02,8.188762068748474121e-01
3.708336293465263056e-01,-4.546374882537428386e-01,3.350712341882086109e-01,-5.065198666497232110e-04,1.947832614098069740e-03,-8.632470524628481010e-03,8.083294034004211426e-01
3.654842580798119966e-01,-4.735570510774910202e-01,3.670902292282676727e-01,2.661250758087858968e-03,1.996337223641834156e-03,7.716599684948124028e-04,8.398662805557250977e-01
3.441823261263941003e-01,-4.636973929080787649e-01,3.496043201402282419e-01,-2.782120097257081526e-04,2.321652529657648907e-03,3.765977665441603401e-04,8.106147050857543945e-01
3.651576390390182114e-01,-4.514101329479108804e-01,3.640495258427540737e-01,4.350546755000419229e-03,-6.424394417443476642e-04,2.170570368840604898e-03,8.160585165023803711e-01
3.594353133867182470e-01,-4.674985652073255782e-01,3.482316238405947506e-01,6.364995190198383980e-03,6.581683793136545654e-03,-2.374287539070826705e-03,8.215526938438415527e-01
3.476316946484073744e-01,-4.676345751727341016e-01,3.596314922109787870e-01,4.772926399985563152e-03,3.250151717705799040e-03,-7.673170657227872810e-03,8.215003013610839844e-01
2.977460442993977718e-01,-4.608574947210170025e-01,3.792532869844774668e-01,-1.807825250625825966e-03,-1.610084632762268098e-02,4.937917675620204748e-03,8.030037879943847656e-01
3.487535529283709024e-01,-4.719902147435858231e-01,3.675557398281478760e-01,8.764452887950066606e-03,1.682751858708965171e-03,-8.352124685338128962e-03,8.305743932723999023e-01
3.741101344932502570e-01,-4.484588032152483361e-01,3.162697499024741954e-01,1.181846931328842110e-02,-4.340879705118289023e-03,8.439667644264925786e-03,7.956611514091491699e-01
3.679031590448913480e-01,-4.651483840704975226e-01,3.645475997873053875e-01,-4.806900326644563196e-03,-3.024643041547077013e-03,-4.432648549584305986e-03,8.314724564552307129e-01
3.675390494605422220e-01,-4.671524969711526865e-01,3.649516357911885001e-01,5.507368437840901021e-03,-3.466362268897808276e-04,-4.439093062449044058e-03,8.334911465644836426e-01
3.655882082025443403e-01,-4.638229661441576335e-01,3.664975549489927209e-01,-1.757621943528638693e-03,-6.205463239287754146e-03,3.742667305332219013e-03,8.299667239189147949e-01
3.636432106493219796e-01,-4.622256314129931098e-01,3.663059977079114460e-01,1.615462421167552674e-03,-4.873552754944064473e-03,-2.512880645147606666e-03,8.272626996040344238e-01
3.664940955477912210e-01,-4.775466759286183249e-01,3.627593817531328257e-01,-3.053148046295857225e-04,-1.491988886536361331e-03,-1.143015790614637813e-06,8.421837687492370605e-01
3.698986764780143321e-01,-5.911007680939432962e-01,3.419363144578701497e-01,1.012088459179074675e-02,1.567127966572704756e-01,-2.807116670987850043e-03,9.856153726577758789e-01
2.729768590812738926e-01,-4.527457970384024533e-01,3.778457118739390053e-01,-2.109587725050441134e-03,5.041844186521078630e-02,1.298920517029205322e-02,7.886204123497009277e-01
2.712921785719450973e-01,-4.540874569843087460e-01,3.605602381319806260e-01,1.517434185214380088e-02,7.720557587611273642e-02,7.759461139831239519e-04,7.857940793037414551e-01
3.411368056427942497e-01,-4.757036037220595537e-01,3.190328778011961020e-01,2.214869885022302531e-02,4.761700336390564670e-02,-2.395445729836943524e-02,8.121925592422485352e-01
3.922034718760694094e-01,-4.661547788505699952e-01,2.668015519504448596e-01,7.644183815553028463e-03,5.607314470777914617e-02,-1.891023620918874312e-02,8.096576333045959473e-01
3.810260296614672026e-01,-5.136478620526903072e-01,3.863747803329020680e-01,1.165455659505969417e-02,5.685819974446280900e-02,-5.726523073725482173e-03,9.030281305313110352e-01
3.645137503638593013e-01,-4.574349501258261341e-01,3.788615296336751981e-01,-2.841126044137737110e-03,3.149007574972635150e-03,-6.025518413201051172e-03,8.293138742446899414e-01
3.657019309899894877e-01,-4.652469152523999174e-01,3.715924543206567954e-01,2.042227132223680981e-03,2.731284856293072529e-03,-5.550602581692566477e-03,8.339860439300537109e-01
3.618364007704743535e-01,-4.635219366601579516e-01,3.761871889158784343e-01,1.846014611266207778e-03,1.372522068464617374e-03,-1.946899105227505511e-03,8.326428532600402832e-01
3.784569112065412355e-01,-2.781691153142988870e-01,3.299581916429454309e-01,4.799908134516237684e-02,-4.744905733744038401e-03,-6.103523968198412697e-02,6.479347944259643555e-01
3.553549264628623749e-01,-4.301319002414916159e-01,3.669026530637541916e-01,7.749448617777966513e-04,6.452893478930948196e-03,-1.477326347514788460e-02,7.918174862861633301e-01
3.656743799122603167e-01,-4.592041113561166066e-01,3.808590191650929047e-01,-1.514019143402869135e-03,-4.606927007172505672e-04,-4.888459987322748244e-03,8.326222300529479980e-01
3.294783391290043162e-01,-4.445182007788747169e-01,3.209483690827881208e-01,4.511523468438920605e-04,7.594463247448883514e-03,8.806323155003808198e-04,7.698813080787658691e-01
3.389548906593876643e-01,-3.767276298672428414e-01,3.695392855843831481e-01,-2.591691644826281480e-03,2.287700480593229859e-03,-1.544455888157731348e-02,7.319679260253906250e-01
3.614098187095393655e-01,-4.643027767783303172e-01,3.805639460280268449e-01,2.442723765409327008e-03,2.929772910148678404e-03,-6.003218163338955478e-03,8.355451822280883789e-01
3.590727335810028342e-01,-4.656095791746425183e-01,3.777690464382632562e-01,3.509634275022952086e-04,6.492299154628282387e-03,-3.716844675314360819e-03,8.342884778976440430e-01
3.595835859214122632e-01,-4.606322973060466008e-01,3.800238324314860749e-01,-1.162883467467871757e-04,1.751750787447732167e-05,-2.323702564479549881e-03,8.306344151496887207e-01
3.757093532384951362e-01,-4.628575579625124892e-01,3.609294640928621956e-01,1.220844704076440171e-03,-1.887849221629888958e-03,1.885277768231365114e-03,8.312910795211791992e-01
3.481339230132678431e-01,-4.116063757547407942e-01,3.741434507187598735e-01,-7.133202787009831382e-03,8.481933635127395649e-03,-1.130693311363684464e-02,7.735595107078552246e-01
3.626946723475118484e-01,-4.721721457000450650e-01,3.646301830689551160e-01,-2.565831045552578824e-03,-5.598886477534445547e-04,1.571420427423428270e-03,8.358530402183532715e-01
3.441205688591059131e-01,-3.530093588921017211e-01,3.504007538398673516e-01,3.171126036540929810e-03,1.764682656224029339e-02,-2.134446169386427020e-02,7.019535899162292480e-01
3.731583684972023529e-01,-4.654164125517028516e-01,3.063149221564528402e-01,-1.019510435913036431e-02,-1.419271501906063312e-02,-1.298704377248504835e-02,8.081117272377014160e-01
3.838982591567604574e-01,-3.587917906693181003e-01,3.272596900322195523e-01,8.103730658421430186e-03,-2.539327651764738611e-03,5.624777357697335195e-02,7.227996587753295898e-01
3.732384326223378013e-01,-4.667274774284050354e-01,3.457530192345429354e-01,-1.120228915412415337e-02,4.856828453900932999e-04,-6.862190913923047267e-03,8.268795609474182129e-01
3.990894541599354639e-01,-4.471930077789286750e-01,2.401487502042773392e-01,-2.830947615749505528e-03,-1.234403585144806109e-02,8.836122129634267153e-04,7.793785333633422852e-01
3.699971673994886801e-01,-4.542873195216907689e-01,2.854810335847088876e-01,-9.365431998541213707e-03,-7.728972651596699092e-03,-6.445118438958738830e-03,7.858049869537353516e-01
3.595882252300613424e-01,-4.627020521846756385e-01,3.794331405244443789e-01,-1.986276670257367764e-03,-1.531242182302963890e-03,-3.722874700897694632e-03,8.324264883995056152e-01
3.410924989956771181e-01,-4.575737714244685339e-01,3.383738702870356385e-01,5.141367069554507105e-03,-6.156627734130183313e-03,4.952320427822167088e-03,7.974776029586791992e-01
3.629614761789998756e-01,-4.473929733936301556e-01,3.861473553097595213e-01,1.725574860964679269e-02,1.476668551312985272e-04,-6.962984298494747336e-03,8.228241205215454102e-01
3.407295323744183313e-01,-4.548314985627389673e-01,2.997639011162671063e-01,9.008604175264911876e-03,-5.011890263012362678e-02,7.161207590307498358e-03,7.809852361679077148e-01
3.453176285044098348e-01,-4.304258886210771129e-01,3.810684682249909638e-01,-3.806754332256539423e-03,-2.375433593379006232e-03,1.799073314652889673e-03,7.942667603492736816e-01
3.296589589951265942e-01,-4.555707569537015278e-01,2.896614881040090461e-01,1.048001222828204987e-02,-8.257602522792444055e-02,1.003425014643644954e-02,7.796577811241149902e-01
3.846300870312542308e-01,-2.154579610202946305e-01,1.967903915071998466e-01,3.188378182092669461e-02,-1.146557020376696434e-01,5.064290672969296025e-02,5.769321322441101074e-01
2.054861780585878761e-01,-4.533293138636337316e-01,4.242959538065457781e-01,3.272062073319298610e-03,-4.659102663449984916e-02,2.201082592084790956e-02,7.962841987609863281e-01
3.150264943243814009e-01,-4.497499845149922626e-01,3.446675523837407495e-01,8.724168045712486774e-03,-7.443261623549001990e-03,8.423869204272602801e-03,7.804087996482849121e-01
3.492866744819634328e-01,-4.615107775683724434e-01,3.488219224057939605e-01,8.027463434540107329e-03,-5.314730559071710082e-03,6.235715080068544858e-03,8.108085989952087402e-01
3.518892750072219466e-01,-4.620017265414436691e-01,3.452971813806175461e-01,5.457115443804560172e-03,5.775363419866244574e-03,-7.489296467321610550e-03,8.108356595039367676e-01
2.968391041138643272e-01,-4.459718208988255883e-01,3.527515532199467230e-01,7.671685061845135594e-05,-2.129931292774032980e-02,2.318350762488419897e-03,7.731776833534240723e-01
4.169887517328458304e-01,-4.568138205783089933e-01,3.086172898149134869e-01,4.799016616974065286e-03,5.112885914606971061e-02,-2.527841867964476623e-03,8.297654986381530762e-01
3.428993606615225453e-01,-4.624004519538380542e-01,3.602548753441972562e-01,-4.482010716181349932e-04,2.282716113559356101e-03,-5.391139435256066953e-03,8.141798377037048340e-01
3.797760211696370458e-01,-4.292276354035123864e-01,3.512621244511820451e-01,-2.712486393105180416e-03,-1.673467585666939955e-03,-1.893945035913755003e-03,7.951561808586120605e-01
3.680392421886671817e-01,-4.048955760399890469e-01,3.491365879098673464e-01,1.306251794460354387e-02,-1.070710220311551011e-02,1.627800364468072903e-03,7.642242908477783203e-01
3.677887211023602720e-01,-4.553484094881748989e-01,3.085199029495775402e-01,-8.555798851360273821e-03,6.958844910285503713e-03,-1.276413817934287254e-03,7.953935861587524414e-01
3.726689672000913500e-01,-4.590433437538699035e-01,3.610651731399520115e-01,-2.522501052954705201e-03,-1.876635239451602839e-03,4.143368904834730283e-03,8.260206580162048340e-01
3.649195220402232653e-01,-3.682674236452703198e-01,3.450495236000638011e-01,2.090217852158900158e-02,-8.063707742296422499e-04,-9.811224176950795496e-04,7.243652343750000000e-01
3.601438980424898073e-01,-4.315838927965973681e-01,3.657922679225449891e-01,1.347602961375909958e-02,-8.197467008760049058e-04,-6.765024961073675194e-03,7.949973940849304199e-01
3.378527329923081135e-01,-4.600619591871496494e-01,3.624373153381203472e-01,-1.375668796382856912e-02,7.663672625085691387e-03,1.711119879945765393e-02,8.114868998527526855e-01
2.661760575831078612e-01,-4.356627080949269093e-01,4.603459228894623556e-01,1.318428608719606210e-01,2.039996613798325531e-02,-1.442291559338313919e-02,8.488672971725463867e-01
3.659142018299171850e-01,-4.753564156723653067e-01,3.666596803912421376e-01,-2.034811296586050509e-03,-8.648705665930732454e-04,2.145420670220020366e-04,8.416523933410644531e-01
3.653288880117356863e-01,-4.737610333260171558e-01,3.717741517045078936e-01,-2.876344233396725420e-03,-2.488591271486821806e-03,-1.228905375096589828e-03,8.423594832420349121e-01
3.514523607578727837e-01,-4.586038583592151330e-01,3.409093670690515054e-01,-3.354714759774670655e-03,4.890189469388848617e-03,5.067077260201943885e-03,8.049498796463012695e-01
3.649827708379366209e-01,-4.682481082513343384e-01,3.688127154166302990e-01,-1.740923643700969820e-03,4.904211285607601271e-03,2.772355374420123163e-03,8.352148532867431641e-01
3.500029428975613421e-01,-4.590198685533473100e-01,3.407272129038885766e-01,-4.108742560058030631e-03,-1.027947098197400056e-03,1.780219526950344022e-03,8.044643998146057129e-01
3.815898529253388127e-01,-4.600995092487140115e-01,3.553790190787157188e-01,4.258650393312512876e-03,-3.065201776045236789e-03,-1.056194095655096574e-03,8.289466500282287598e-01
3.725619649781773957e-01,-4.599157128516406789e-01,3.650045723601642589e-01,-4.232259063151150476e-03,-2.056202140694136709e-04,1.881493043194757591e-03,8.287637233734130859e-01
3.690602237570274613e-01,-4.633643450156597066e-01,3.662510844597758330e-01,-4.844539720216194979e-03,-1.685818321783584105e-03,-1.397979485924102537e-03,8.310745954513549805e-01
3.501903475670560262e-01,-4.674957342327435983e-01,3.600472453750714896e-01,4.622871182119607340e-03,1.137333844567788889e-03,-7.361532362731099122e-03,8.227989673614501953e-01
3.543946748934789781e-01,-4.687987974851215434e-01,3.548739993168348317e-01,-2.784840861152957335e-03,6.371685586963271803e-04,4.222344210952721708e-03,8.234806060791015625e-01
3.702313518172758999e-01,-4.721605041703390571e-01,3.660183011880096537e-01,-3.313505120753444146e-03,-2.731796596378442167e-03,2.844051781696217956e-03,8.403406143188476562e-01
3.650033547082091601e-01,-4.617602498411074174e-01,3.351876769447824644e-01,-1.068208531285465800e-02,3.445080482849191723e-03,-3.706353058510758643e-03,8.125242590904235840e-01
3.637941030106497386e-01,-4.593857435911787856e-01,3.701413043935316560e-01,-3.519089010591405775e-03,-8.643282169869906731e-03,3.034508293655541721e-03,8.265464901924133301e-01
3.707084687608709350e-01,-4.745842092117594779e-01,3.661829937892072118e-01,-1.279184520581421987e-03,-4.254166977881241457e-03,4.871842622901097382e-03,8.431164026260375977e-01
3.763410305383130816e-01,-4.595388360586725174e-01,3.593685560129754597e-01,3.011552294285879759e-03,-7.067403594674868256e-03,2.016790767590917119e-03,8.276385068893432617e-01
3.710348942066621913e-01,-4.602506756548252476e-01,3.634259059758552790e-01,-8.366977259986162208e-04,-1.254463645484462904e-03,2.429225780651520557e-03,8.275221586227416992e-01
3.666146996058178842e-01,-4.749512576659243868e-01,3.609518500503662297e-01,-7.996920274841120592e-04,1.589085067741920318e-04,4.089008465173031917e-03,8.387799859046936035e-01
3.603529004466833885e-01,-4.712826078772505145e-01,3.519917860877477267e-01,-7.091985622848085043e-03,9.154954863925897270e-04,4.771891790226095824e-03,8.276205658912658691e-01
3.673741652496523846e-01,-4.779225868272209965e-01,3.668555061365316172e-01,-6.934503872322668645e-05,-1.398457846002181589e-03,5.957210540407724105e-04,8.450416326522827148e-01
3.661791654747660330e-01,-4.744813939997960528e-01,3.652263871219215141e-01,3.723160464508043889e-04,-1.440787697773244364e-03,5.737972523936369371e-04,8.401890993118286133e-01
3.144259402582578744e-01,-4.623400859633211013e-01,3.704336747811584618e-01,5.841574984627418646e-04,1.622958735765286237e-02,1.051118395446361958e-02,8.069261908531188965e-01
3.760216679110612303e-01,-4.329292943556178885e-01,3.630914147403593306e-01,1.021058735391769563e-02,-6.654143820405498261e-03,-4.404742425542867122e-03,8.028777837753295898e-01
3.926411515328914748e-01,-5.407559076446996071e-01,3.255343975150943314e-01,-2.136247977839264220e-02,1.513462115212496073e-01,4.139464477980320245e-02,9.425087571144104004e-01
3.546717892109838566e-01,-4.383262854746603487e-01,3.784220377305528293e-01,-3.386391603450702482e-03,-1.019510591580186781e-02,4.946968852855820192e-03,8.053964972496032715e-01
4.175273238771482487e-01,-4.794676424256891778e-01,2.643177170644959162e-01,-1.751286912771727114e-02,1.641638606853714766e-01,-5.864046856387726547e-02,8.847205638885498047e-01
3.713195770372363924e-01,-4.759491744443272720e-01,3.667608370132058870e-01,1.739372364325823188e-04,-3.647111250030408459e-03,1.796959021786746335e-03,8.450279831886291504e-01
3.445025284660929166e-01,-4.662592751851367678e-01,3.605297791978482880e-01,-4.654189426509654725e-04,1.363632113985839469e-03,9.788753332155586753e-03,8.190723657608032227e-01
3.650467763695099399e-01,-4.711188886526018749e-01,3.624003062527215158e-01,-6.792372326779201434e-03,-5.495023557335938389e-04,-1.360645624497632596e-03,8.349323272705078125e-01
3.683114958830149277e-01,-4.668504258400856255e-01,3.370309147296971508e-01,-1.674601730083586856e-02,1.282805322202746484e-02,1.580404153461966235e-02,8.212391734123229980e-01
4.136417518346583444e-01,-4.246688187194986863e-01,2.438596436717328786e-01,-4.605295653669268588e-03,1.664109456159100220e-01,-5.065411199993476860e-02,8.246814012527465820e-01
3.667945150664289611e-01,-4.749352851181557478e-01,3.710059948266540286e-01,-2.403440649493128294e-03,-4.357508213417228722e-03,1.320921444654464798e-03,8.438905477523803711e-01
3.669736853445957347e-01,-3.921411372826144603e-01,3.496126406180151136e-01,4.566834434352484186e-03,1.283936547154542265e-02,3.582650956439826367e-03,7.509815692901611328e-01
2.442905562908112560e-01,-3.923540274475589285e-01,3.172718200786922016e-01,5.708885500136924585e-02,1.863564963217903547e-01,5.036520509467300871e-03,7.557416558265686035e-01
3.692687810859089370e-01,-4.579302036721922819e-01,3.666044255269545471e-01,3.953425021345410677e-03,1.156155853286681620e-02,3.723645985140946937e-03,8.261663317680358887e-01
3.424755202339536120e-01,-4.446572910273028922e-01,3.098343917268810976e-01,3.636656949484591041e-03,-7.157478830386046487e-03,-1.187515140923300959e-04,7.714557647705078125e-01
3.660229261465952622e-01,-4.644803296513433377e-01,3.700323266287228186e-01,5.439813015049660893e-04,8.838647157845238439e-03,2.222962070055592172e-03,8.326653838157653809e-01
3.287656926978357319e-01,-4.432069283066606413e-01,3.269059989909594011e-01,6.100369663306770421e-04,-7.914431028103428856e-04,-8.495763423274527333e-04,7.710478305816650391e-01
3.437843820740160705e-01,-4.571838252316999807e-01,3.417430919367692721e-01,4.948426499658441051e-03,-1.066697318622467734e-03,4.572525467306671684e-03,8.000367879867553711e-01
3.424937518075341636e-01,-4.492738356834686808e-01,3.209665526806585456e-01,6.060019420574071919e-03,-2.283717623819324360e-02,5.555099428138676396e-03,7.823567986488342285e-01
3.417391183699372004e-01,-4.572664239627847182e-01,3.434328969278688248e-01,3.975107025693602053e-03,-7.908487547942425443e-04,5.506267261219333943e-03,7.999414205551147461e-01
3.504072838303389226e-01,-4.713756037924836662e-01,3.499657759764158715e-01,-3.937865580324481640e-02,-8.860164948147669639e-02,-1.419801806641188963e-02,8.389112353324890137e-01
3.560489182248507412e-01,-4.551448671667721602e-01,2.965922322949277046e-01,1.399008478359119872e-02,-1.348734824498815793e-02,1.042171976611182618e-02,7.840907573699951172e-01
2.898241770521561289e-01,-4.448924140426087082e-01,3.506780395637245640e-01,4.802886916807473931e-04,2.101885528827372729e-02,-4.002749191268338731e-03,7.678516507148742676e-01
3.390754826367414210e-01,-4.717403741325451039e-01,3.491247349116034515e-01,1.267762150580000607e-02,4.335810203777202415e-02,-1.781124193803583153e-02,8.202103972434997559e-01
3.263063714799587789e-01,-4.530925504112836011e-01,3.536015894008991411e-01,-4.984433191220296894e-05,6.062672377325365250e-03,-6.135092544815517329e-03,7.935394048690795898e-01
3.451236810610865957e-01,-4.497126526646489930e-01,3.112557736504719674e-01,1.220026603362145412e-02,3.850933011479688167e-02,-2.999489879705687784e-03,7.816104292869567871e-01
3.684434930125319863e-01,-4.650745860084593009e-01,3.674420682221089529e-01,-3.182882309485552796e-03,-1.791152244920568050e-03,-1.097613471043477201e-02,8.332587480545043945e-01
3.537408991832818317e-01,-4.324890445270735961e-01,3.802983655282947684e-01,-3.680894612298794225e-04,1.143403194391415809e-03,2.253241221384524005e-03,7.998516559600830078e-01
3.413469866425902222e-01,-4.510563487122442039e-01,3.405760508932775821e-01,8.935734527009112430e-03,1.078538599453779043e-02,-8.556263993209750271e-03,7.925281524658203125e-01
3.655229893944124120e-01,-4.681557181907450849e-01,3.582755226924366765e-01,1.328614206502076733e-02,2.148870568641081912e-03,1.213123723449016297e-02,8.306717872619628906e-01
3.952245146673408205e-01,-4.683098535358918291e-01,3.213743416248938667e-01,6.984523055654708566e-03,-1.527835401982649381e-03,-8.618800839360358373e-03,8.293066620826721191e-01
3.217331434214827368e-01,-4.521115186449291556e-01,3.435385786491699789e-01,5.828848678762169055e-03,1.037527556586037916e-02,-8.493649734948422250e-03,7.853829264640808105e-01
3.462153575715060105e-01,-4.331716822646800580e-01,3.793566275977702240e-01,-3.735928859758710745e-04,6.691356068903218934e-03,2.260957605965400758e-03,7.965691685676574707e-01
3.733670490643695716e-01,-4.714678646286665220e-01,2.917000571511805251e-01,2.381577093310575238e-02,4.959261346441337648e-02,-5.135970497487199991e-03,8.127603530883789062e-01
3.430648097884897996e-01,-4.507935308806868546e-01,3.274239331320139001e-01,7.579412520451747452e-03,1.266801092452821131e-02,-2.865181148705363192e-03,7.865859866142272949e-01
3.807203693930159560e-01,-4.397566376183610348e-01,3.561174503440280303e-01,-1.248281725204205932e-02,1.286650666769205680e-03,-3.751081910548903064e-04,8.087487816810607910e-01
3.526939326059806423e-01,-4.301181667650370022e-01,3.774877607271912572e-01,-1.786099043577401213e-03,-4.850019710265209179e-03,2.550076614659787556e-03,7.955614924430847168e-01
2.029776684877634407e-01,-2.600318643286107512e-01,5.465589948067424153e-01,-1.054121616985275465e-04,8.530060759291850647e-02,-1.098110084165151643e-02,7.167271375656127930e-01
3.380703915399089210e-01,-3.600821700473990084e-01,3.680492573732335737e-01,2.288162039293831912e-03,4.009576544678315410e-03,5.087253690675416946e-03,7.137136459350585938e-01
3.046230230886003421e-01,-4.532216722451235524e-01,3.500060381377017582e-01,2.334234098375386098e-03,1.838139230347179270e-02,-7.192294614889543913e-03,7.822829484939575195e-01
3.607109460872581219e-01,-4.366243277841825865e-01,3.673500218180543175e-01,-3.889194825620657242e-03,-1.123437457715192531e-02,-4.285687652423109291e-03,8.009746074676513672e-01
8.757261263080509672e-02,-4.143249143515856936e-01,6.715871342389885257e-01,1.725644288424809658e-01,-6.630683442989095122e-02,2.844558617739522538e-02,9.955110549926757812e-01
3.657794191762133718e-01,-4.683869219371032955e-01,3.702978519266720836e-01,1.237790450441883180e-04,-4.174940444153260426e-03,-1.932793198606776348e-03,8.364726901054382324e-01
3.708688047602470284e-01,-4.714517910464618433e-01,3.637383786313056477e-01,1.895282359294964743e-03,-2.270731066411987246e-03,-2.058185057858224424e-03,8.388013243675231934e-01
3.409871448281340811e-01,-4.673430300894956257e-01,3.706954425495754268e-01,-9.272609241435882804e-03,-5.494161229580406128e-04,4.633720500912132112e-03,8.237825036048889160e-01
3.500457588204622938e-01,-3.895205883454139206e-01,3.619574704571291712e-01,-3.620701360782690656e-03,-1.481405423095839835e-02,3.805468453663575674e-03,7.460904121398925781e-01
3.790314711601420194e-01,-4.612608190170223166e-01,3.595660921958466205e-01,2.059074610493582050e-03,-5.712342768655883979e-04,-2.426471852935588909e-06,8.307389020919799805e-01
3.631182190949749367e-01,-4.559952708208159233e-01,3.795043396560378590e-01,1.536227849296742561e-03,-3.546634741397735636e-03,-6.262344046962626046e-03,8.275263905525207520e-01
3.686454959688321709e-01,-4.556032715546541878e-01,3.372883165093609747e-01,-6.205214381346122778e-03,-5.813195511789971735e-06,6.078437534935369341e-03,8.091659545898437500e-01
3.723619968910995004e-01,-4.578441399651408394e-01,3.369790386658811365e-01,-4.326103107161530063e-03,9.515216516900633359e-04,5.390284958270096481e-03,8.131820559501647949e-01
3.588932146857724548e-01,-4.424652094490111320e-01,3.699208293454987473e-01,2.626190274537133513e-03,-7.211613711484592126e-03,-4.352208639906812206e-03,8.070734143257141113e-01
1.776674367625165063e-01,-4.659161523800824378e-01,4.562453537495747558e-01,-1.713222538065239942e-02,-2.778555487899028297e-03,-4.390894620527993793e-03,8.197897076606750488e-01
3.646714026223288330e-01,-4.718008482058766440e-01,3.639122126828207571e-01,-4.899624540978014982e-04,-1.685120560515851636e-03,5.448466139788509660e-03,8.361517190933227539e-01
3.811724422877534879e-01,-4.636963689598634364e-01,2.719154645012371585e-01,-5.012036832461182548e-03,1.730033664340035332e-02,1.597169985043123824e-02,7.969762682914733887e-01
3.631391869000707984e-01,-4.618431762085739578e-01,3.711014989428583766e-01,-1.436474536537832910e-03,-3.866371577881736778e-03,1.019303096258712205e-03,8.290248513221740723e-01
3.450788523156164689e-01,-3.894819983427516563e-01,3.674388483246726622e-01,-4.190149867091670817e-03,-1.514131985665346028e-02,3.158651638701294277e-03,7.465083599090576172e-01
4.151520890283729726e-01,-4.367698441723053548e-01,1.319147413459618445e-01,2.856555099114557392e-02,-2.127565568163018450e-01,8.113829804083659558e-02,8.501132726669311523e-01
3.698570332032145025e-01,-4.676984031860548230e-01,3.446290074113082524e-01,-8.035442293090715171e-03,8.603293987027738760e-04,4.476859191054961482e-03,8.253858089447021484e-01
3.639236747745991929e-01,-4.748611236052762141e-01,3.647780334882752551e-01,-1.480513269889717270e-03,9.211858632162555661e-04,3.404705234931595069e-03,8.392384648323059082e-01
3.600882831826520691e-01,-4.486024730711107855e-01,3.744287626716950035e-01,5.645020008609611013e-03,-8.352012969821714927e-03,4.685861884324066598e-03,8.161826729774475098e-01
3.654759309810399204e-01,-4.419730786259189470e-01,3.641429793095709022e-01,6.582381715953660936e-03,-1.123250860204320911e-02,4.458387730305982642e-03,8.071354031562805176e-01
3.424836599598108933e-01,-4.487213779650902623e-01,3.193184781065234734e-01,6.306407110590305995e-03,5.154721190097057149e-03,-1.988867130192366068e-03,7.800157070159912109e-01
3.593541463636480970e-01,-4.167619111196536608e-01,3.647828478094712890e-01,1.388586807410527486e-02,-1.314957912847482258e-02,-5.541325367438780514e-03,7.796077132225036621e-01
3.476684019956937655e-01,-3.352941839772936583e-01,3.587427433686148914e-01,4.226526654758674950e-02,-5.698623039922504421e-03,-1.932119020356184991e-02,6.933255195617675781e-01
3.785575949863236866e-01,-4.347057728020853329e-01,3.543680906560620070e-01,2.594905712792123717e-03,7.167784395953150436e-03,-2.531284596667379531e-03,8.015632033348083496e-01
2.847045312679424289e-01,-4.589195981295022264e-01,3.913217569265643458e-01,-2.428226708877695428e-02,1.158589311386364843e-03,2.201420229352634046e-03,8.033770322799682617e-01
2.752147565306957144e-01,-4.635454841080911548e-01,4.133315318048813025e-01,1.082774170852908793e-02,-9.632285972292840403e-04,-5.711081914409450733e-03,8.169029951095581055e-01
3.099739178998872635e-01,-5.627955866442350130e-01,4.123716745661764049e-01,3.722770620464702779e-02,4.057998367560073510e-02,1.902849286323355163e-02,9.336839318275451660e-01
3.711739513781542876e-01,-4.688010022728479331e-01,3.648321456951518216e-01,-1.213202047857023279e-03,1.922548885990946026e-03,1.092242245082231849e-03,8.368334770202636719e-01
3.587045457880302934e-01,-4.319056351349283007e-01,3.631777730434616047e-01,-9.792000272553171361e-03,2.221489338242202578e-03,4.822993356414550896e-03,7.930909395217895508e-01
2.594151909826374336e-01,-4.632675712842461158e-01,4.058150371957369162e-01,-1.437160674379841033e-02,2.661223139685651995e-02,8.588186954922635147e-03,8.077558279037475586e-01
3.326277692591077528e-01,-2.367986072383345686e-01,3.071379659250368932e-01,3.907351303373219654e-03,-8.622561672351407996e-03,-1.731394448079613593e-03,5.573682785034179688e-01
2.291615280094616847e-01,-5.457028561948293888e-01,4.345354603348642875e-01,-1.320882288541555885e-02,4.891773174680477676e-02,5.543032536286000671e-03,8.997358679771423340e-01
2.460815439510808111e-01,-4.631567120145492211e-01,4.058907113356591823e-01,-1.321560041996710025e-02,1.085068182525402922e-02,6.358090019761044633e-03,8.018099069595336914e-01
3.024892230754343547e-01,-4.647543123566567624e-01,3.872110678303354869e-01,-1.126889533507557592e-02,5.852495563354069216e-03,8.029883072649894593e-03,8.133386969566345215e-01
3.117453041408760339e-01,-4.581598684577502523e-01,3.724258505939864738e-01,3.444285433672811259e-03,-2.114385251188222875e-02,1.610122675300270506e-02,8.033112287521362305e-01
3.805544932671965919e-01,-4.617100249215051466e-01,3.611668722387867403e-01,-7.385612759035015129e-03,-4.085466639313947539e-03,-2.503735139703798865e-03,8.328796029090881348e-01
3.509708858618925120e-01,-3.964981979120379973e-01,3.694089019353604120e-01,2.961172748890112880e-03,1.279980317369606990e-02,4.392742050364636767e-03,7.572367787361145020e-01
3.748205524550848322e-01,-4.636802673592916868e-01,3.615906873277088818e-01,-4.553927831068238058e-05,-1.547858856386961825e-03,-2.062932570054402514e-03,8.319767713546752930e-01
3.381465118609896514e-01,-2.995169846539238456e-01,3.493690213265017164e-01,-1.339794877410169054e-02,1.125749104866610902e-02,-3.170110694467110496e-02,6.463980674743652344e-01
3.651934778856661401e-01,-4.664956582770539706e-01,3.653347066004355437e-01,-2.778991133194931833e-03,-1.102589749977649818e-03,-3.090502403804370763e-03,8.317931294441223145e-01
3.712754686842087426e-01,-4.704263086961631979e-01,3.655361046276381920e-01,2.409784411959710586e-03,6.738905764433134743e-03,2.988912725059666205e-03,8.389543890953063965e-01
6.560010983506470161e-01,-6.514040609727633768e-01,1.515026427882029680e-01,-7.948391482584240761e-03,5.797113629137932295e-03,-1.124600429040856914e-01,1.158652305603027344e+00
3.406751128395825168e-01,-4.616960162915874077e-01,3.785072992536392400e-01,6.267039072987172152e-03,1.148038364463260233e-03,-2.634766967994242245e-03,8.220272064208984375e-01
3.399937759518003588e-01,-4.637166303716118154e-01,3.779570207119689051e-01,3.979133984974942903e-03,1.129754068995294678e-03,2.127460776707726202e-03,8.233880996704101562e-01
3.745567497813521718e-01,-4.451482815230246581e-01,3.574409653805907805e-01,-6.927996447615484242e-03,-7.254534811880835113e-03,3.474476891194081853e-03,8.114908933639526367e-01
3.436806220630174713e-01,-4.698543361896193593e-01,3.703480072846717652e-01,8.535120945735058182e-03,2.021952806554173205e-04,-7.403325917516800914e-03,8.274226188659667969e-01
3.752537003887908562e-01,-4.690095734858218401e-01,3.643812309851410247e-01,-7.460926049301623434e-04,-1.877884218976905422e-03,-7.468222281096453894e-04,8.388881683349609375e-01
4.231798514280852852e-01,-2.733403611403823485e-01,2.274167283173831877e-01,-1.741094965693925148e-02,-1.398481052170855166e-02,-2.834971239944772056e-02,6.253142356872558594e-01
3.375575549726236302e-01,-3.547373098814953218e-01,3.637975270048007248e-01,-2.061627792611880113e-03,-8.500930448985448071e-03,5.936787279519589559e-03,7.060182690620422363e-01
3.632459044920453572e-01,-4.570079480323464560e-01,3.722981784761456026e-01,2.855452179818965893e-04,1.002881186044118651e-03,2.369906727063485988e-03,8.248294591903686523e-01
3.511585111164196027e-01,-3.235205275444131834e-01,3.451598294004967760e-01,-1.976417913035881727e-02,1.519573717987952530e-02,-1.516764596549556240e-02,6.735988259315490723e-01
3.777624274132544424e-01,-4.693969855873149077e-01,3.236508384204006550e-01,5.643210498770807708e-03,-4.449323483185584245e-03,-7.196134431394606533e-03,8.216302394866943359e-01
3.591420650140023652e-01,-4.465477120919965071e-01,3.782433004615079475e-01,-9.483955933627530180e-04,2.920632380594237812e-03,-9.513747499230713542e-03,8.155920505523681641e-01
3.228482298107799853e-01,-3.554116163125677907e-01,3.691813392806759242e-01,1.577034444123362271e-04,-2.621724927850540513e-03,6.525263507345835379e-03,7.026787996292114258e-01
2.977956012805410557e-01,-1.741337311107873931e-01,3.098294362513475120e-01,3.964136558674740199e-04,1.004717964867011181e-03,-5.182046290973990610e-03,4.781477749347686768e-01
3.482420258428974291e-01,-3.966721033203882696e-01,3.719523843711072808e-01,-1.270809322224680446e-02,1.030920620930805658e-02,-1.813642189023533663e-02,7.582291960716247559e-01
3.690890257675349950e-01,-4.649802047249753656e-01,3.433444765122634634e-01,1.004375271362810233e-02,-1.051316562808666481e-03,7.877920437257730085e-03,8.217990398406982422e-01
3.234020144669430552e-01,-4.648240195398442021e-01,3.944143781992269226e-01,8.934284959336988990e-03,3.504158196827044519e-03,1.150087756280770155e-03,8.261943459510803223e-01
3.800020884236446905e-01,-4.625139078948922178e-01,3.591339165605535455e-01,4.114441091163758765e-03,1.201694245231944239e-03,-2.170850696218251663e-03,8.323197364807128906e-01
3.647248070980562140e-01,-4.652483508026825643e-01,3.703228666626837695e-01,3.085790067720775316e-03,9.940488288284090972e-04,4.476510843857394936e-03,8.328413367271423340e-01
3.507319916781923563e-01,-2.850206202426324165e-01,3.288737723075112473e-01,-4.302460140538048178e-02,-5.004047580693813529e-03,1.764042243496674383e-03,6.296035051345825195e-01
2.975083398939522006e-01,-1.331074531914498427e-01,2.973409889055357302e-01,-4.667738429869535202e-03,-3.650722629156311592e-03,6.536617155324281640e-04,4.306559562683105469e-01
3.693026247119287619e-01,-3.944014472742896071e-01,3.512571560178918695e-01,1.432310687408410756e-02,-6.764184265426844908e-03,-1.439125738332983594e-03,7.553456425666809082e-01
3.674122682957354780e-01,-4.691069669976390966e-01,3.640309718802732797e-01,7.261850418404617626e-03,2.850648830524488489e-03,-2.838792288814016677e-03,8.349575400352478027e-01
2.526558599243623471e-01,-4.549418746278904857e-01,3.794371942953650989e-01,-4.426225344546698241e-03,1.917454391193387439e-02,-9.738670694482204002e-04,7.795144915580749512e-01
3.676093656900865092e-01,-4.559792775489970307e-01,3.356935144316732789e-01,6.070638149748964693e-03,4.275192128759421062e-02,1.221635045307511470e-02,8.118329644203186035e-01
2.296046981319328217e-01,-4.997568573140241943e-01,4.356059182871968583e-01,-9.380104352257119527e-03,4.959318683516553139e-02,-5.081907459502282886e-05,8.557432889938354492e-01
3.701403122976851257e-01,-4.710487750645735439e-01,3.641083665977425943e-01,-1.661460515231301437e-03,-3.385857527922340321e-03,4.825168478260018733e-03,8.382565379142761230e-01
7.322440365609070301e-02,-6.842730959925349410e-01,7.282565279017368942e-01,1.212191523011233729e-01,4.000391644782251566e-02,3.162315349562505595e-02,1.245366573333740234e+00
3.765101520874192809e-01,-4.683111362955874046e-01,3.665682081226269706e-01,-1.287283693801226066e-03,-1.235252902986564913e-02,3.363553262737962492e-03,8.401900529861450195e-01
2.217072850974242115e-01,-4.702400950629961329e-01,4.329494528915452389e-01,-1.044928348202849673e-03,3.978319994296789647e-02,6.132992660077773994e-03,8.212472796440124512e-01
3.867990095501849801e-01,-4.686630916065103181e-01,2.426845247848813947e-01,-4.916596020092334554e-03,4.765143328528174960e-02,-2.339068925515086581e-03,7.976219654083251953e-01
3.808637203492374335e-01,-4.532481676516387781e-01,3.553845940159353622e-01,8.956820332331876314e-03,4.381643295238447575e-03,5.044815730348494592e-03,8.218966126441955566e-01
3.774851628179634599e-01,-4.627061013859201655e-01,3.609762234283876992e-01,2.007327353478536094e-03,-3.364747409241392907e-03,8.652856768510888827e-04,8.320886492729187012e-01
2.266367349967061129e-01,-4.641372456383523470e-01,4.082267885779093386e-01,3.487086378361960171e-03,3.815092310822433552e-02,3.687639986259279041e-03,8.000156879425048828e-01
2.375438407514347539e-01,-4.559203090517969237e-01,4.081478168899591030e-01,-1.328740280529992768e-02,1.589762040118319550e-02,5.883232086858009892e-03,7.935349345207214355e-01
2.561647608254651320e-01,-4.597994640768096053e-01,3.998309197936371073e-01,-1.564057559382538848e-02,9.048186166479624953e-03,1.317600907206433261e-02,7.985016703605651855e-01
3.299870424486602283e-01,-4.533528789572027762e-01,3.386137115060027791e-01,9.835323733508247179e-04,1.117834021191590338e-02,-6.397219792292557945e-03,7.880063652992248535e-01
3.606912345131859099e-01,-4.715895244186485424e-01,3.523893371550370079e-01,8.694189764588352437e-03,4.037397865851150404e-04,-6.349559990529916181e-03,8.283712267875671387e-01
3.535511763581166145e-01,-4.627669103101784698e-01,3.352221138596542249e-01,8.027650509444943586e-03,3.569201201090384072e-03,-5.762708515344979431e-03,8.075147271156311035e-01
3.748601660038362038e-01,-4.621153577043548566e-01,3.618153047579423243e-01,1.754144479765063413e-03,5.334988912517479691e-03,2.532075510123875384e-03,8.305984735488891602e-01
3.451635203039336020e-01,-4.500114284092503469e-01,3.181916641678058655e-01,8.480811882128338683e-03,4.234989715048098624e-03,-4.626679296136543967e-03,7.822512984275817871e-01
3.407763531785393263e-01,-4.590013826175942668e-01,3.413036986721638688e-01,6.879571485953943875e-03,4.230589178839079707e-03,-8.607376424808223236e-03,8.003026843070983887e-01
3.493893664366409801e-01,-4.502810965810715160e-01,3.088474536406587423e-01,6.413827013184067970e-03,7.688320394263011351e-03,-2.582130059215920117e-03,7.803954482078552246e-01
3.758371284531621948e-01,-4.636066218056725807e-01,3.642049625763515430e-01,-2.514464997738188618e-03,1.844551896732589489e-03,-4.884575764863445443e-05,8.337060213088989258e-01
3.488950216573294960e-01,-4.627570623618169066e-01,3.304297662753131748e-01,1.432743886532337162e-02,9.482958800423180526e-03,-1.392338697138106873e-02,8.034923076629638672e-01
3.573183279939707857e-01,-4.686677818555605723e-01,3.507892748195968191e-01,7.376690603481675206e-03,6.989587104871256007e-03,-9.373144704691423190e-03,8.230894207954406738e-01
3.419843686578691311e-01,-4.493569033227308163e-01,2.811711265622214295e-01,4.867330935675365754e-03,6.255666184799929530e-02,-7.214217395683866080e-03,7.705598473548889160e-01
3.420920731660473391e-01,-4.589468242597004588e-01,3.409365283176367667e-01,7.825101858968709634e-03,7.968074778180688628e-03,-8.640543396061135806e-03,8.008353114128112793e-01
2.654028912489905245e-01,-4.499837459818517571e-01,3.764227212453282734e-01,5.867843387330252264e-03,2.409012920179887107e-02,-6.666918195736631740e-03,7.781408429145812988e-01
3.360781228500016593e-01,-4.586668045475856825e-01,3.512120796687963620e-01,6.781756709353387556e-03,3.123429777064087171e-03,-8.745969146228063651e-03,8.026661276817321777e-01
3.247879310860548596e-01,-4.591547197285277271e-01,3.545975593579704932e-01,5.408989576930916567e-03,8.457075768396431215e-03,-7.335763981505117985e-03,7.995545864105224609e-01
3.633308713434945103e-01,-4.677827606529871840e-01,3.711181088150558582e-01,4.381999824201634162e-03,4.148374100106532250e-03,1.513604154637091046e-04,8.350999355316162109e-01
3.028492744084164134e-01,-4.482065554680363384e-01,3.485671633189062479e-01,3.657360754260007875e-03,1.158782614747116968e-02,-3.775537781600912714e-03,7.752402424812316895e-01
3.725258586318709875e-01,-4.646012842707125667e-01,3.637639554940149123e-01,-1.721974509526207498e-03,5.384886544329644913e-03,-3.955526817712684898e-03,8.328664898872375488e-01
3.741471501232762620e-01,-4.407952547015083766e-01,3.553353742656815695e-01,3.929582681939928178e-03,1.249027137281078989e-02,7.675394601221793150e-04,8.060214519500732422e-01
3.633713357462384774e-01,-4.717457902791389879e-01,3.693994052296512565e-01,-2.023721403145277171e-03,4.315144334243414988e-03,-4.738866701976923203e-03,8.382282853126525879e-01
3.111779268323863201e-01,-2.025073085784439009e-01,3.240547851902996213e-01,-2.137945806010295869e-03,-1.022703413304120422e-02,1.065880285280022865e-03,5.205610990524291992e-01
3.662072185895141052e-01,-4.741449328875526614e-01,3.633341363329294915e-01,-1.739528731588141147e-03,7.864484616337114303e-04,-2.032602332446433770e-03,8.389332294464111328e-01
3.318782123054285771e-01,-2.506089830924547179e-01,3.141004678879065759e-01,2.177900914176123231e-03,6.028000615730869441e-03,8.782932514928172823e-04,5.739142894744873047e-01
3.727435584334840568e-01,-4.710387396033387519e-01,3.655168072118981648e-01,2.411917610717664775e-03,7.210602206958734856e-03,1.530797800297320141e-03,8.402996063232421875e-01
2.671062372078664704e-01,-4.821385785355439824e-01,4.245199324170986777e-01,3.511867255980070240e-02,7.226457802717814894e-05,8.561160674350596148e-03,8.414321541786193848e-01
3.102154990746665009e-01,-2.016062654220449057e-01,5.477319951023380540e-01,6.038058247091601313e-04,-8.447909523362177875e-02,-5.732496274279829523e-02,6.864483952522277832e-01
3.147142877337528732e-01,-1.729163036176351587e-01,3.163135213507540233e-01,-4.934438473674477438e-03,2.707099357037346006e-03,-2.953411180032012705e-03,4.885562360286712646e-01
2.995742088884675858e-01,-1.563132271269260243e-01,3.107342650496924819e-01,3.996329901414611210e-03,2.420855910929679855e-04,-2.956614564992017524e-02,4.644525647163391113e-01
3.220629167961658879e-01,-2.681392437232798520e-01,3.312718313890088973e-01,-3.241496478240114831e-02,1.512579748498065965e-02,4.875539648486386032e-03,5.981374382972717285e-01
3.345155250795861512e-01,-2.957213897567683158e-01,3.372510459279466355e-01,2.183976457263679411e-03,1.272628149539183420e-02,6.818721055110039389e-04,6.320060491561889648e-01
3.278348168984663857e-01,-3.273143038272425809e-01,3.584449917335127411e-01,-4.627149056638934534e-03,1.788561491699031895e-03,-2.281509488017469112e-02,6.721956729888916016e-01
3.011915613296984318e-01,-1.734967782413890935e-01,3.189479391880312154e-01,2.422044961247311282e-03,9.046024786186273800e-03,-2.070798272511197198e-03,4.840960800647735596e-01
3.413510933592557306e-01,-1.943203618715816372e-01,3.179511849015989045e-01,4.587425100395814176e-04,-2.842859052111251393e-04,-7.274538478991340873e-02,5.392896533012390137e-01
3.190210778501996747e-01,-1.725876368631727442e-01,3.759184275302898115e-01,2.174160534813750559e-02,-6.189947103721674809e-03,-5.078033656628955922e-02,5.311841964721679688e-01
2.995247356067470834e-01,-1.643764649414413137e-01,3.102254670988909835e-01,8.853623683788759691e-03,1.339366703248702148e-03,-3.396214637730780861e-02,4.732691943645477295e-01
3.237338492258972633e-01,-4.673634435864034709e-01,3.956850358359774167e-01,1.080658682042671091e-02,1.267967791770616571e-03,7.350077342660079130e-03,8.297286033630371094e-01
3.176192524609039447e-01,-2.100013475136411345e-01,3.206059549880859727e-01,-2.281818308436494788e-02,1.493606522692346450e-02,-3.269141235960393993e-02,5.342337489128112793e-01
3.954479924699099147e-01,-4.643281522373343684e-01,3.187042417566046115e-01,2.897264275578375205e-04,4.123779273290208332e-03,8.421421178375260858e-03,8.242488503456115723e-01
3.649245380086566515e-01,-4.646518314936646243e-01,3.778794096871387898e-01,6.179657094760865462e-04,2.164909052244140888e-03,3.777414240323994851e-03,8.361637592315673828e-01
3.340417521942569690e-01,-2.470394097065293781e-01,3.043555658078869186e-01,-1.024730128262426026e-03,-1.186336933323716347e-03,3.346636437563449504e-03,5.668575167655944824e-01
3.597165740283710389e-01,-3.589356960070561042e-01,3.376199174076783827e-01,9.003978573362212898e-03,-3.958411054349918017e-03,-1.267243786955936022e-02,7.084077596664428711e-01
3.714334087128387529e-01,-4.572460385408181338e-01,3.669007710388484944e-01,-1.607960220745690682e-03,-7.941810465130216563e-04,8.460524232487441273e-04,8.264296054840087891e-01
3.788770694248603799e-01,-4.601751975885739476e-01,3.634623870450059413e-01,3.478354091268807957e-03,-5.379857445802274912e-04,-1.478764257459774020e-03,8.314784169197082520e-01
3.798118959661697103e-01,-4.639378807989332776e-01,3.606242938030672640e-01,4.149855335854821421e-03,-1.312176741329842532e-03,2.029296470077638585e-03,8.343629240989685059e-01
3.791075996748510812e-01,-4.426005936460774004e-01,3.529594216996275735e-01,-6.999382562462252945e-04,-9.358417348956774018e-03,3.066917577736822092e-03,8.091318607330322266e-01
3.602107331426591674e-01,-4.301671343586160878e-01,3.635052377876722973e-01,6.429358268627090658e-03,-1.811762528927175243e-03,-3.863048128624645226e-03,7.921429872512817383e-01
3.607995387768935247e-01,-3.885244996864166134e-01,3.478200887801403685e-01,-2.903828421614866508e-03,-1.376956332679028436e-02,3.017530686586716773e-03,7.433374524116516113e-01
2.962716663154111862e-01,-1.000941961135551339e-01,2.960090382761020877e-01,-6.791563782952230420e-03,-1.628000865320305534e-03,-2.266615904923073924e-02,3.983584642410278320e-01
3.170109654956273504e-01,-4.540050135056541425e-01,3.519482303655054323e-01,9.625516991762649195e-04,-9.150137140096483920e-03,-8.656756112586752247e-03,7.893682122230529785e-01
3.696593927323517659e-01,-3.793195587662056001e-01,3.472957071396057249e-01,1.934850640269912894e-02,3.418845161314543429e-04,7.622786200160576149e-04,7.388131618499755859e-01
3.076925747794841959e-01,-2.519817804563341257e-01,3.309283653756258659e-01,2.466243373635520434e-03,-2.122842842355988566e-03,-4.427479905788321742e-03,5.717257261276245117e-01
3.676877893996305380e-01,-3.883477215859629794e-01,3.432893989084043751e-01,-1.255315714052919560e-03,-1.526786884114238879e-02,3.975122527188595933e-03,7.446411252021789551e-01
3.161077403193212620e-01,-1.358997379435842312e-01,3.062511718331012434e-01,1.422399134988587728e-02,5.187719182731411090e-03,1.767870490069459524e-02,4.489743709564208984e-01
3.690939154482643647e-01,-3.791839008907334496e-01,3.416080624787125042e-01,1.993654169875889656e-02,-3.336500901305760984e-03,5.979472152955042294e-04,7.357546687126159668e-01
3.739008682354303947e-01,-4.426560333034252892e-01,3.574619455304581805e-01,-2.048077443314011079e-03,-8.897633154379986503e-03,1.951882143005232275e-03,8.086245059967041016e-01
3.543350655658288884e-01,-3.337087220291001244e-01,3.257036311793143901e-01,2.880580441240562090e-02,-1.167420700863846953e-03,2.866009737820487523e-03,6.760491132736206055e-01
3.731501856006818607e-01,-4.582196974361866237e-01,3.630950643386230969e-01,2.633485592664462725e-03,-1.139003311290705213e-03,-8.849939513466024499e-04,8.264045715332031250e-01
3.802733337112466083e-01,-4.418761898412573164e-01,3.568261803998503123e-01,1.053150567178658820e-02,5.291543592060154056e-04,-6.918308289677045338e-04,8.108869194984436035e-01
3.795732658697172912e-01,-4.598066499364038551e-01,3.608814881642427030e-01,-2.211543379220781355e-03,-3.030500143208873787e-03,3.970413672407122280e-04,8.302175998687744141e-01
3.137801179716003253e-01,-4.443645041831529863e-01,3.183830503325559280e-01,8.026328412304438746e-04,-3.262830443032083139e-02,5.098134476247505450e-04,7.625553607940673828e-01
3.675922159731680461e-01,-4.438596917898040006e-01,2.772210201217928383e-01,5.297732681911371429e-03,1.237450947120452907e-02,1.482699880580434608e-03,7.706097960472106934e-01
3.125715278482209536e-01,-4.432437549745538163e-01,3.415248575468577408e-01,5.279220601765598122e-04,-4.807193970089224631e-03,9.931204151832290564e-04,7.707473635673522949e-01
2.653329106212838351e-01,-4.523002924029614347e-01,3.689145580001042535e-01,6.435257503199291913e-03,-2.625717418620941018e-02,1.046508998999879855e-02,7.762610912322998047e-01
3.644619419846094055e-01,-4.721692882870406338e-01,3.711625107558273462e-01,1.237934550868653857e-03,-1.593331594050693099e-03,-4.184472457275053604e-04,8.400091528892517090e-01
2.941587273616195763e-01,-4.446845914451869053e-01,3.459222326317726304e-01,-7.746759552037929672e-04,-1.776904862496738596e-02,2.715138758987197930e-03,7.666714787483215332e-01
4.459849255791514255e-01,-5.665609261822305287e-01,2.488365322348211894e-01,-2.207080123279071479e-02,1.449014295614030889e-01,2.576828038952148556e-03,9.638285040855407715e-01
3.833219484604867833e-01,-4.551679583774859150e-01,3.552740815691627363e-01,1.594402642194662437e-03,-1.645674176166844315e-03,-5.851538688558508049e-04,8.248338699340820312e-01
3.828661366849024361e-01,-4.545870549345992773e-01,3.581003511168308062e-01,2.188608053848751286e-03,-3.163482752675694136e-04,3.823415049215907755e-04,8.253581523895263672e-01
3.199788312800067036e-01,-4.506791084098974443e-01,3.448083945331131273e-01,-1.836912727548966826e-03,-3.739609464063921480e-03,-7.247854867804273508e-03,7.835017442703247070e-01
2.921429529910509748e-01,-4.451833822746249503e-01,3.509143955570896423e-01,6.978098205318564087e-04,-1.513359960659738795e-02,-3.746088790317486216e-03,7.688748836517333984e-01
3.249428782558817508e-01,-4.499950241249919269e-01,3.415540155259856880e-01,-3.576021662745416246e-03,-6.765441289161889388e-03,-5.941716260223186413e-03,7.835552692413330078e-01
3.502400097738997409e-01,-2.671233973010725404e-01,3.149951831376558431e-01,-3.857461036459663983e-02,-1.167631746878130660e-03,2.827314013722628978e-03,6.042457818984985352e-01
3.281066763500801176e-01,-1.209946113672417667e-01,5.323789284650026765e-01,3.766988420298623269e-02,-6.157646594376874061e-02,-1.217767294240287672e-02,5.926508307456970215e-01
3.284581998836404448e-01,-4.645474080131107852e-01,3.303675275231225950e-01,1.479746011038597306e-02,-7.152532524447149931e-02,1.719429166448393706e-02,8.045291304588317871e-01
3.355802726907198275e-01,-4.463191234602097435e-01,3.172823172809485226e-01,-2.401677807929265222e-03,-8.181482638218004824e-03,-2.453726102196124217e-03,7.730656266212463379e-01
3.418891943374174902e-01,-4.786272870563597071e-01,3.388952967711873487e-01,-1.954695248772073471e-02,-4.496348148918735688e-02,-1.997712680865594212e-02,8.241409659385681152e-01
3.146365638510284501e-01,-1.902445092547570549e-01,3.231440995897119639e-01,3.450778726251742951e-02,9.812191227311094915e-03,2.227740187394712176e-02,5.144148468971252441e-01
3.311816395423268777e-01,-2.503773064307006635e-01,3.187036977597420551e-01,2.180187930900908538e-03,3.665494412898231275e-03,9.460484911190806308e-04,5.754712224006652832e-01
2.896314599542094137e-01,-3.233697436671348902e-01,2.788174488032005849e-01,7.560021621081877696e-02,-1.906468690987909165e-01,4.225529661611977794e-02,7.076721191406250000e-01
3.050311570099960012e-01,-1.078211917186828184e-01,3.431279766215163951e-01,5.916475807750776021e-03,-2.051849923009454579e-03,5.908367788835880430e-02,4.452157616615295410e-01
1.936961121350336545e-01,-2.732432300772596467e-01,3.980125020663742297e-01,-9.235566592556407328e-02,-1.071789898145355802e-01,8.313330057556552258e-03,6.445455551147460938e-01
2.965924172354811317e-01,-4.547454009427011057e-01,3.672242343672568743e-01,-1.206814095070165779e-03,9.121860553489862314e-03,-1.090813212400196935e-02,7.894154191017150879e-01
2.321565460476995579e-01,-8.739678054304783617e-02,3.514407887359953242e-01,-7.340938427032234204e-02,-4.407821622282509511e-02,4.660372679822326336e-03,4.201444685459136963e-01
3.349205551639488632e-01,-8.240393574729776294e-02,3.187740731595547494e-01,6.330301127526058447e-02,-2.407406444007410828e-02,-1.896705150255604405e-02,4.272257685661315918e-01
3.124403355315196196e-01,-1.522503046016239758e-01,4.672504716710773609e-01,-4.633236604176468182e-02,-9.702467202019909864e-02,-8.430057614348408779e-02,6.065011024475097656e-01
3.079790384325207242e-01,-1.311395654722839477e-01,3.137926608781756999e-01,1.008180637919391283e-02,-1.901376792743065072e-04,2.104929969322482178e-02,4.438987076282501221e-01
3.571970716144849955e-01,-2.203433526505002571e-01,3.652397431619706092e-01,6.836044175967100067e-02,8.062692193723654949e-03,6.122961456221410331e-02,6.030955910682678223e-01
3.586494697868662929e-01,-4.670263671914544057e-01,3.554937382163089743e-01,-9.631006544597876459e-03,-5.078780518097463989e-03,-6.049680754459247668e-03,8.243848681449890137e-01
3.592590545452520323e-01,-3.432769323008428297e-01,3.256933033457833915e-01,-2.638441412230673692e-03,1.564092094690701460e-03,-1.125405650954724047e-03,6.863922476768493652e-01
3.617681574605585149e-01,-4.698281254938195817e-01,3.618702141489330559e-01,-7.804751484984375105e-03,4.455227784224485236e-04,-3.181341742269813613e-03,8.317757844924926758e-01
3.657910680506896162e-01,-4.498392024149199253e-01,3.561800428421593168e-01,-7.064578364032293202e-03,1.962151669302798925e-04,3.873971994086606793e-03,8.109876513481140137e-01
3.160390087256716996e-01,-1.771676664398733059e-01,3.080603806136414935e-01,-2.987125163112120535e-02,8.564891555808824136e-03,-1.531828629761471279e-02,4.929323196411132812e-01
3.669738349521157739e-01,-4.654562048176480449e-01,3.685009551983480791e-01,-2.186446815201647381e-03,1.413302780904872845e-03,-4.853919393999477083e-03,8.332492709159851074e-01
3.661399001548790721e-01,-4.689157592725766710e-01,3.671103807934879004e-01,6.775340269650326729e-04,-5.542867310710040962e-03,-8.208263101197175353e-04,8.355985283851623535e-01
3.662285725248450863e-01,-4.667659372681856045e-01,3.467487989920084446e-01,-8.664205023054502228e-03,-2.142801116089615085e-03,-7.409082112006483943e-03,8.236725330352783203e-01
5.178897058410829590e-01,-5.784856628749995844e-02,4.439534283961222849e-01,-6.274863747229766225e-03,-1.052590048949631450e-02,1.104259569443573515e-02,5.433134436607360840e-01
3.793373785872116155e-01,-4.419201118730711197e-01,3.530722947755081664e-01,9.437840243926302192e-03,-3.051648221718110572e-03,-1.213137381012673434e-03,8.086302876472473145e-01
3.653843381065117191e-01,-4.578706833128692866e-01,3.605220557428879813e-01,-3.042318792883106846e-03,5.049618771154186156e-03,5.981193432263157876e-04,8.208988308906555176e-01
3.634808082609676805e-01,-4.513903173273089431e-01,3.675012571429851493e-01,5.106143725866618167e-03,6.401910071310298184e-03,-7.471862947590963066e-04,8.170129060745239258e-01
3.642498877577928784e-01,-4.716704774752542573e-01,3.723255444132360648e-01,-4.312104955430419440e-03,-4.961517696231318615e-03,-1.438619176639350855e-04,8.400645256042480469e-01
4.526476287447339097e-01,-5.094488600221447339e-01,2.497996230361995695e-01,3.147631094186071395e-03,-3.237727762636832818e-02,5.056820088573753952e-02,8.845697641372680664e-01
3.355415597621983492e-01,-4.592279699680562599e-01,3.837820904652581855e-01,-9.542912934720391982e-03,-2.242509286056687079e-04,5.831655951527518061e-03,8.201836347579956055e-01
3.026717300562900004e-01,-4.694149971440836344e-01,3.768722017405870539e-01,1.688638489698408851e-02,1.168373385040797907e-01,1.690027952732872651e-02,8.376025557518005371e-01
3.807865838256923041e-01,-4.336281207914109981e-01,3.482807402197402036e-01,-1.100399778699235036e-03,-3.274715026851034508e-03,2.004111097311388374e-03,7.986879944801330566e-01
3.770307837101753434e-01,-4.712135945165472073e-01,3.649112582705570929e-01,4.909299898717888085e-03,-6.426659466318630776e-03,2.829000699089759957e-03,8.423807621002197266e-01
3.403370380464799116e-01,-4.499129005778836898e-01,3.382657458521116656e-01,-9.942759854267907080e-04,3.471761477938535567e-02,7.525399175079205798e-03,7.916130423545837402e-01
3.668577978917362814e-01,-4.662584901181868746e-01,3.750386671130334637e-01,6.652394866168712118e-03,3.987343473550607545e-03,3.427107404482700030e-04,8.373446464538574219e-01
3.732635902293781061e-01,-4.580432245762791066e-01,3.630798087236166705e-01,-2.376980176804763430e-03,-6.059801821793706512e-04,-1.933881636910841483e-03,8.262796998023986816e-01
3.497639072800325932e-01,-4.715289697996319918e-01,3.632169572978943273e-01,-6.077746588677291999e-03,3.148441703480353050e-03,8.218934631436157490e-03,8.283085823059082031e-01
3.978220385818074800e-01,-5.250588278505642359e-01,3.016611148731296321e-01,-2.397098894564660479e-02,-1.216692531737171845e-01,-3.036119519368912778e-02,9.061514139175415039e-01
2.972739612067254455e-01,-1.597652244753486883e-01,3.139808879691340371e-01,-7.901133879264390751e-04,4.446661503270890430e-03,3.510743323737299665e-02,4.696364998817443848e-01
3.721323868324373785e-01,-4.440013014894408361e-01,3.586801365747654957e-01,2.238579876651990239e-03,-8.372917226003643437e-03,-2.244143893737933146e-03,8.096399307250976562e-01
3.619119259087462681e-01,-4.661736145826500533e-01,3.669643445580509367e-01,-3.999275017331747092e-04,-4.570672130390307508e-03,5.225628017825279838e-03,8.307105898857116699e-01
3.766790536531823830e-01,-4.696897744560986077e-01,3.653605076412775876e-01,2.295564899013268281e-03,-5.542931773405784801e-03,-3.691662166310880934e-03,8.408552408218383789e-01
3.677573035749055474e-01,-4.729310807388749094e-01,3.666631174021939277e-01,-3.230301696911172093e-03,4.984259741454589998e-03,-2.623050536750335185e-03,8.402171134948730469e-01
3.650051667517400511e-01,-4.668307070580164364e-01,3.689538995086514284e-01,-2.058373450732296599e-03,3.706830017491565855e-03,2.938475251316926759e-03,8.338651061058044434e-01
4.460578955888819808e-01,-5.417996581672483991e-01,3.119529608413265098e-01,3.282345252811910002e-02,-7.356594573326717679e-02,-2.642413257280263814e-02,9.396450519561767578e-01
3.174192511459941746e-01,-4.476181072949947382e-01,3.447080051776366671e-01,4.648934274235230410e-03,4.339541082168224193e-03,-4.794308376264822848e-03,7.791624069213867188e-01
3.734331155149628878e-01,-4.669369275311475720e-01,3.297589547745685690e-01,-5.282393349321913220e-03,-1.495261848353622233e-02,2.105432207476654743e-03,8.198747038841247559e-01
3.438608322087507441e-01,-4.682057412616712488e-01,3.790864358253017707e-01,9.791416058606533523e-03,6.920521474638661715e-04,-4.148339060138993631e-03,8.304451704025268555e-01
3.655335756866497365e-01,-4.410925625621227031e-01,3.654832935244390346e-01,-3.847818667426829761e-03,1.299124114362760346e-02,4.564940699433696694e-03,8.069810271263122559e-01
3.617765856671520952e-01,-4.518025480364177282e-01,3.755970564768649766e-01,-2.964326143310436201e-04,5.716664864097449616e-03,1.072173506502547072e-02,8.208466768264770508e-01
3.171571420563693566e-01,-4.558840826176251415e-01,3.468335598529076469e-01,-4.521740396163292236e-02,-1.201828918803486967e-01,-8.624767550231008523e-03,8.192089200019836426e-01
3.499763332095895407e-01,-2.793924227239550362e-01,3.199913165485649968e-01,-3.357510859423915722e-02,5.113473535167106267e-03,1.478431738471951661e-03,6.177372932434082031e-01
3.647267116150933464e-01,-4.676024031301052597e-01,3.668232438925403960e-01,9.416146595530229969e-04,5.192609549625631406e-03,5.731130724539425713e-04,8.334300518035888672e-01
3.291575068464840381e-01,-2.116351335882079021e-01,2.980538437850708267e-01,1.116936224811826504e-03,-1.467279826808919226e-03,3.218549141436660905e-04,5.259410738945007324e-01
3.632542667480395115e-01,-4.476325713989546262e-01,3.668927924516627304e-01,2.646625279393744357e-03,8.251393642006785503e-03,6.988280371509282898e-03,8.129408955574035645e-01
3.592427682705476299e-01,-4.565080878219338612e-01,3.789972683823169541e-01,7.740158266219592832e-03,4.489772553133762698e-04,3.096265230222050146e-03,8.259319067001342773e-01
2.965281140241786684e-01,-1.456536470312899123e-01,2.953857135051188298e-01,3.591136630459662322e-03,-1.552667152393147343e-03,-1.550103785609498186e-03,4.416718184947967529e-01
3.559318477358427990e-01,-3.732999705610080543e-01,3.522210584094176422e-01,-1.794697031517147531e-02,1.461423626451353874e-02,-1.916960282398394791e-02,7.292435765266418457e-01
3.473152289014356797e-01,-3.697776081509391299e-01,3.669840984298551323e-01,-2.501912350106374680e-03,-6.578344102964096309e-04,2.231663794097321629e-02,7.281672954559326172e-01
3.594723721359937008e-01,-4.582672797862297198e-01,3.747535618945804226e-01,-8.620365738846382138e-04,-6.030398831244545167e-04,8.786190717365248946e-04,8.254897594451904297e-01
3.564421807597930592e-01,-4.498171718630825655e-01,3.783065875044187010e-01,-4.431222205477278707e-03,-4.140744447291977567e-04,3.313384190526763584e-03,8.174673914909362793e-01
3.674521333148246804e-01,-3.969062861153987987e-01,3.492272884381553699e-01,1.272795569442625608e-03,-1.591483162789697481e-02,-3.347201822107201928e-03,7.559391260147094727e-01
3.542320771472631247e-01,-4.199614795016641811e-01,3.753493882481089838e-01,8.021114713780783806e-03,2.806052504611851288e-03,1.112207078315755569e-02,7.853395342826843262e-01
3.643557773699224178e-01,-4.634356283608492832e-01,3.748469731394070692e-01,-4.660979665162321914e-03,1.180963494019271476e-02,1.122640444708890815e-02,8.336035609245300293e-01
3.389437034060963638e-01,-3.692468238960028293e-01,3.653947456321552933e-01,-2.052755205491222420e-03,4.508324284986504199e-03,2.193731195065623182e-02,7.228299975395202637e-01
3.443479541811502176e-01,-3.914419029216903989e-01,3.656009229319755471e-01,5.748157557243904064e-03,4.036820591003737260e-03,8.969606661648871736e-04,7.467439770698547363e-01
3.632638531167817209e-01,-4.631735734161183116e-01,3.811411947832075708e-01,1.410919523291042721e-03,-7.568005855881181076e-04,3.073388004940434107e-05,8.355241417884826660e-01
3.339114448467583873e-01,-2.799867137820767904e-01,3.302599373713862585e-01,6.163502813638900568e-03,-1.085365543040407374e-02,1.529515426424547971e-02,6.130349040031433105e-01
3.193775242491379007e-01,-4.666995203119367330e-01,3.867822567147488066e-01,4.184877924572072590e-03,2.595082927256444228e-03,-5.229788351985511401e-05,8.218993544578552246e-01
3.533873874446236130e-01,-4.507842657155745059e-01,3.180502288861136173e-01,-1.041265558500791520e-02,-2.739581953367511286e-02,-1.100146897652824231e-02,7.889636158943176270e-01
2.850858426978747362e-01,-4.901057682776855939e-01,4.698137736344809579e-01,4.812629843012070779e-02,-1.616645141024584953e-02,3.335548494406162089e-03,8.865730762481689453e-01
3.207156407936972986e-01,-2.045062192010240198e-01,3.222254648799601773e-01,-1.419685720026894055e-02,-8.943898460549598931e-03,3.693606777329065671e-02,5.306512117385864258e-01
3.652882325412736275e-01,-4.661073631622677516e-01,3.654615632337170905e-01,-5.053047807983611188e-03,2.134253596564751718e-04,5.673992501238338260e-03,8.315864801406860352e-01
3.010696490320962093e-01,-1.454818002745214556e-01,2.946239603426425990e-01,2.476614998822884890e-03,-3.733450375425017599e-03,-1.654258583874412391e-03,4.434409141540527344e-01
4.899645854950919199e-01,-4.660545153100648097e-02,5.224889534533094793e-01,-1.806679517410394661e-02,-3.369969185937107120e-02,-8.318886465414078099e-03,5.576833486557006836e-01
3.397036342191710467e-01,-3.382461803631493513e-01,3.505982946260138844e-01,-4.018360038135934849e-03,1.834500963711381896e-02,-2.941427920795332274e-03,6.842548251152038574e-01
3.668081402059599760e-01,-4.705787965220853408e-01,3.703190243789554192e-01,-5.276671532224786083e-03,-6.208929990468416236e-04,-7.327888204218295336e-03,8.392943143844604492e-01
3.688264636827131571e-01,-4.640939973380718842e-01,3.433601362755568931e-01,-9.689623844922504864e-03,-7.628514692403377123e-03,-8.032429987128199278e-03,8.208796381950378418e-01
2.646013775712260374e-01,-5.011503782128318152e-01,4.607530848811985380e-01,2.391958086605358580e-02,4.621143099534155696e-02,-3.231426714546933865e-02,8.867413997650146484e-01
3.002784869376501353e-01,-2.123443269369847952e-01,2.817602293334708352e-01,8.210331647717605819e-02,1.495866638967566775e-01,-1.021086539117406836e-02,5.842057466506958008e-01
3.012397184807281136e-01,-1.285975763686059148e-02,5.249530263515777007e-01,8.372430451045152766e-03,-1.981672444614792500e-02,-2.301599869506366566e-02,4.711177945137023926e-01
1.645971161088230772e-01,-4.971864962305456714e-01,4.667465992391281460e-01,-3.264857773994486734e-02,5.563662002623274982e-02,6.767379197985378542e-03,8.612960577011108398e-01
3.646978248883683271e-01,-4.100384102230578698e-01,3.588459027631831777e-01,-4.901846683019735022e-03,1.357561979658582912e-02,1.021119046837795988e-02,7.724341750144958496e-01
3.646682106047829941e-01,-4.525129750101144488e-01,3.629958407552357769e-01,-2.651972792682437321e-04,5.741315067718525539e-03,-4.228969369384006846e-03,8.164398670196533203e-01
3.650531020513874125e-01,-4.464468392822670273e-01,3.628906788074120482e-01,6.671059005644396425e-03,8.067928663373547318e-03,6.324003758586533132e-04,8.106244802474975586e-01
3.914547045870709341e-01,-4.647195372060806129e-01,3.170714539537338172e-01,-5.202182937022741156e-03,-1.607778715079161494e-04,1.252683296667795633e-02,8.218480348587036133e-01
3.750600492774849859e-01,-4.625223152098553170e-01,3.639371614015980416e-01,2.024442112111309814e-03,1.809491535538162305e-03,3.600989624046013727e-04,8.320901989936828613e-01
3.602379738167524881e-01,-3.431703067266811402e-01,3.262675009375899382e-01,-1.423545593536827344e-03,7.719773957759835936e-03,2.528865824683165439e-03,6.872016787528991699e-01
3.701870869058120350e-01,-4.646928202589227785e-01,3.649012524856021789e-01,-4.756733450829572427e-03,-8.030970991225764108e-07,-3.633305135055733392e-03,8.323141336441040039e-01
3.677988733952765599e-01,-4.711880261680173598e-01,3.655007247055789277e-01,-4.089013640088645131e-03,2.087000008232898726e-04,-4.425539337555101961e-03,8.379052877426147461e-01
3.651453994364555755e-01,-4.690210772884612078e-01,3.662252984269503409e-01,2.560290556073130039e-03,1.054309074442435741e-03,-5.797589011038017416e-03,8.347811102867126465e-01
3.403182326557849802e-01,-4.663313598063800747e-01,3.673235145374190158e-01,-2.688897796239448929e-03,9.760745612952940499e-04,-9.044304828402063498e-03,8.206501007080078125e-01
3.278120181991905913e-01,-4.608618574257163925e-01,3.546695028711056574e-01,-8.836104965676352258e-03,-1.165054383230555712e-02,-1.031885383892701749e-02,8.030382990837097168e-01
3.669462182801603300e-01,-4.670438082783100464e-01,3.669309486639051321e-01,4.498918434962445589e-03,1.930323051535401662e-03,-1.219969289834896969e-03,8.340281844139099121e-01
3.753716185354071810e-01,-4.482475726694165052e-01,3.573810922259335610e-01,-3.998634502215214770e-03,1.158549302310123499e-02,-7.793427034168153890e-04,8.150505423545837402e-01
3.594450784160611034e-01,-4.687580688630252901e-01,3.656139998989914042e-01,5.241676952215806005e-03,2.136997587705690826e-03,-5.620266394281705873e-03,8.314195871353149414e-01
3.583460287453089088e-01,-4.682357367459439867e-01,3.733354125535730539e-01,5.166121806460911153e-03,2.854329470311804326e-04,-5.441698386637830280e-03,8.342788219451904297e-01
3.463771549641949665e-01,-4.683641964092890575e-01,3.672352073549570162e-01,-7.869801859660902413e-03,-2.211916509111674662e-03,-8.055726515349253755e-03,8.256074190139770508e-01
3.716119583635105195e-01,-4.627326518771379682e-01,3.656768264266462842e-01,-2.380623833372679139e-03,1.857301047411753347e-03,-1.052514345775106734e-03,8.314113616943359375e-01
3.639063380888344357e-01,-4.759951920515503865e-01,3.665210540793212290e-01,1.443697154700700300e-04,-1.080878430151835335e-03,3.795834129961755759e-04,8.412142992019653320e-01
3.649018135898166038e-01,-4.748402859843182666e-01,3.678927313197459803e-01,5.006222368059843730e-04,-1.646503018216348684e-03,-1.343411463200503428e-03,8.412500619888305664e-01
3.431514929171570749e-01,-3.275572969539017887e-01,3.432780518262558145e-01,3.792595889758700045e-03,-1.688835250982183289e-02,-3.456547823332725266e-03,6.714684367179870605e-01
3.675576448551702291e-01,-4.686705209752307644e-01,3.651902336113349024e-01,-2.999616186576113588e-03,-4.613069852639244822e-03,-1.565502197300076750e-03,8.351057767868041992e-01
3.640391607463266954e-01,-4.708994347162633876e-01,3.598919627963517720e-01,6.308099149531107286e-03,-7.960763895127425348e-04,1.919818173952264487e-03,8.329522013664245605e-01
3.762699582487374350e-01,-4.634801029933944827e-01,3.613749803945250916e-01,8.481675739854120828e-04,-1.919396407525265566e-03,-2.439737285016202895e-03,8.324211835861206055e-01
3.607159769775568625e-01,-4.622166168587346080e-01,3.616467479263971163e-01,-2.796506697623518667e-03,1.390992539074086334e-03,-9.294456778120311957e-06,8.234161734580993652e-01
3.501218854672335512e-01,-4.665452802238357899e-01,3.691415262841586942e-01,-4.406424417186585556e-03,-1.652659641212034757e-03,-4.912619511857851257e-03,8.264251947402954102e-01
3.666172879497350823e-01,-3.914601478537119150e-01,3.461142762667480111e-01,1.394178961432359677e-02,8.976002532803733711e-03,8.923667961048252842e-03,7.487473487854003906e-01
3.635322948558652456e-01,-4.188416701668973285e-01,3.594073364678865845e-01,5.888469590696061851e-03,1.122231759265582968e-02,1.320320508363026155e-02,7.809632420539855957e-01
3.548412718494918239e-01,-4.645156148715728905e-01,3.753573474476981642e-01,-2.721282130805960896e-03,1.705134084026638588e-04,-1.618938103002131614e-04,8.298186659812927246e-01
3.822477014611089241e-01,-4.872577173560626029e-01,3.946596762037380968e-01,7.852128368486650800e-02,-3.722399705010072390e-02,2.708463011381171195e-02,8.898541331291198730e-01
3.426213154474364586e-01,-4.647124496116660231e-01,3.962716280960033588e-01,1.803521052162185626e-02,-3.983725085241277691e-02,2.433522960652963890e-02,8.399364948272705078e-01
2.333632015510281044e-01,-4.594148167735929711e-01,4.201171137957113721e-01,1.551218009792910447e-02,-1.963909099954192633e-02,1.017055983249916078e-02,8.039817810058593750e-01
2.942589685622104545e-01,-4.619881249777409993e-01,3.980822287460600850e-01,-3.692648956639807065e-03,-9.467703794203788381e-02,1.381744556570066625e-02,8.298854827880859375e-01
3.002660193237611796e-01,-5.541902520165686852e-01,4.135330707315039156e-01,2.274928649757933588e-02,-9.966069539972982616e-02,2.146777690727208823e-02,9.340442419052124023e-01
3.642345033230017792e-01,-4.686191667458019516e-01,3.749205609322599497e-01,5.933979191227947573e-04,-1.606505051278792669e-03,1.550950968190949013e-03,8.382573127746582031e-01
2.708230589661141385e-01,-4.604241366850697625e-01,3.804755309161164112e-01,1.166939891569595406e-02,-2.440550143818469991e-02,3.237859111617356900e-03,7.931935787200927734e-01
3.118679859928821796e-01,-2.462927652724114513e-01,3.114369631985895448e-01,-8.313096134925072878e-02,1.065620995713540686e-01,1.141347519860600318e-01,6.365390419960021973e-01
3.216183779301368117e-01,-1.453187606000901910e-01,3.379530174085809691e-01,5.693990154886394151e-02,-1.468680320170613748e-03,1.083010765790631998e-02,4.858077466487884521e-01
4.852900304114824981e-01,-2.855455171403764592e-02,5.015540976670158635e-01,2.494982125505872117e-02,-1.296182686237660683e-02,-2.524660989186207002e-02,5.262524485588073730e-01
3.605784182371886137e-01,-3.760606099496054400e-01,3.608025025250157780e-01,2.269145547583528016e-02,5.422416732780491883e-03,4.489029128974544869e-03,7.378994226455688477e-01
3.274819872509975305e-01,-6.759558165693912990e-02,3.286547211552428016e-01,-6.110848788501889450e-02,1.545064629543251369e-02,4.719477863178494353e-02,4.185115694999694824e-01
3.499834361097611257e-01,-4.022291296701294705e-01,3.659862014956511422e-01,5.054742498653569047e-03,-1.471254213641143629e-02,-4.176767988140344355e-03,7.608519196510314941e-01
3.623620795262297301e-01,-4.387650324341728636e-01,3.654058866988589283e-01,2.686926232937687006e-03,-1.283125843126635759e-02,-1.732281796244954748e-03,8.029800653457641602e-01
3.467209549805227442e-01,-4.902365604103564589e-01,3.502015892889085991e-01,2.476670576496246487e-02,5.759711849547914653e-02,-7.364438997458058050e-03,8.458003997802734375e-01
3.555735949096375248e-01,-3.648764783733999262e-01,3.477442063789841220e-01,6.560742287260288956e-03,-1.287208460385126305e-02,7.413100141025159157e-03,7.171192169189453125e-01
3.414264372508103440e-01,-3.391668912589721474e-01,3.353579963278024989e-01,-3.888634818246908351e-03,1.722586479093145967e-02,-1.928602305597539859e-03,6.782777309417724609e-01
3.477457766137639905e-01,-3.901252701259607658e-01,3.655704416271476909e-01,1.982352214804600048e-03,-1.119894310109469798e-02,2.166258264870169620e-02,7.481440901756286621e-01
3.644760246643120039e-01,-3.982481274684095407e-01,3.518326228953237989e-01,-4.637027192212010360e-03,1.187389354395053734e-02,-2.785209360786394979e-03,7.568191885948181152e-01
3.744111995637146584e-01,-4.587000372845537743e-01,3.540275389590585298e-01,1.022406510666579778e-03,1.519501674773592395e-02,2.267138394526452272e-02,8.244669437408447266e-01
3.437675398485871558e-01,-2.867775134741455956e-01,3.274032318816783027e-01,-2.258922491696149087e-02,-1.387019842406413128e-02,3.090583249010850353e-02,6.265060901641845703e-01
3.474525070134986682e-01,-2.995414568553378953e-01,3.303089105570876094e-01,-9.623527572300359656e-03,-1.634969185821980725e-02,1.919496030188438604e-02,6.403033733367919922e-01
3.407755698217270757e-01,-3.491534547712099035e-01,3.771554546611819991e-01,-3.974412441479194952e-02,-5.586733530063944103e-03,7.403112289289479064e-02,7.236707210540771484e-01
3.634645554200651718e-01,-4.719728294219780462e-01,3.623768669307588230e-01,-4.104888520805681680e-03,4.264051924357314472e-04,1.393419455643415700e-03,8.349281549453735352e-01
3.509425145420327352e-01,-3.055043844259917041e-01,3.237041801500607496e-01,-3.616079452803394600e-02,1.982422063810243551e-02,3.496951863737630256e-02,6.500418186187744141e-01
3.742556634415907246e-01,-4.620232791255328708e-01,3.620587869176857820e-01,-1.914382942582027684e-03,4.808156173839285043e-03,-2.298530453206858344e-03,8.303056359291076660e-01
3.524414447452910437e-01,-3.760847688460260962e-01,3.550021932149805548e-01,-3.794007387921048691e-02,-2.082505501913649304e-02,-2.614134721552817658e-03,7.336637377738952637e-01
3.753122174731656768e-01,-4.500726615461870805e-01,3.619814404085532344e-01,-2.794701570825859367e-03,1.411686748108370582e-02,-3.267234131330209665e-03,8.191997408866882324e-01
2.894997740199486413e-01,-3.827709982384034371e-01,3.835472839691637104e-01,1.275703588047645727e-02,2.161009585066258135e-02,8.647952599776593391e-03,7.253494858741760254e-01
3.622328776549376128e-01,-3.741544390237360185e-01,3.437557002133008188e-01,-4.911457947216768712e-03,1.143945490153951486e-02,1.099971149596275753e-02,7.278937101364135742e-01
3.697969245223191592e-01,-4.598000777899241553e-01,3.655548227749670920e-01,-3.862878122141033543e-03,1.120796287382654771e-02,-3.097318798204109960e-03,8.277562260627746582e-01
3.700355929846848579e-01,-4.733898541853827080e-01,3.650067372017685718e-01,5.292874017536999993e-04,3.572711408635404276e-03,-1.157854938480014232e-03,8.409479856491088867e-01
3.757067780581102578e-01,-4.313791686278104498e-01,3.584026894353442572e-01,-1.200916779962882437e-02,1.427020683124407933e-03,-4.750833455643339344e-03,7.988916039466857910e-01
3.752353022066434729e-01,-3.994284767508369249e-01,3.511820834164731675e-01,-2.480486559657012549e-02,8.487965939278885666e-03,-1.286932788708512222e-02,7.645967602729797363e-01
3.746490423120899527e-01,-4.537381325894471740e-01,3.596716823787852735e-01,-1.580473968283663310e-03,6.511553037431172530e-03,1.585395325871379654e-03,8.210875988006591797e-01
3.704976793137979563e-01,-4.702165548110769366e-01,3.651122577282933657e-01,1.391197511226529258e-03,-1.266193752957295781e-03,-3.537081405298392149e-03,8.380632400512695312e-01
3.636185782318946402e-01,-4.714559408928555850e-01,3.596525384714437945e-01,5.289588551310775259e-03,-2.590025529364390570e-03,-5.638885181775974212e-03,8.332182765007019043e-01
3.579881864087406385e-01,-2.971131009144026280e-01,3.573659186561976009e-01,3.355443107598162639e-02,-2.298766449925350279e-05,5.511498009014262345e-02,6.642598509788513184e-01
3.166242907132200135e-01,-1.217874044727291216e-01,3.795240294078169319e-01,5.148795340133827808e-02,8.661005618741500142e-03,-1.986358578787983040e-02,4.828031957149505615e-01
3.544236445796722923e-01,-4.722614342660680364e-01,3.618959914198582317e-01,-4.851604211208651184e-04,-3.442972968310530589e-03,-3.265309685848006411e-04,8.304684758186340332e-01
3.666583793139198688e-01,-4.696215012661059118e-01,3.655307864621575309e-01,6.022502901036669212e-04,-8.450069396485836940e-04,-3.265160529547329188e-03,8.357377052307128906e-01
3.329467415894925564e-01,-2.336121846647181144e-01,3.437793445444662366e-01,1.674323370042396855e-02,-1.463027558466775679e-02,7.254157319770146439e-02,5.869528651237487793e-01
3.171328397128613807e-01,-1.929949824127850100e-01,3.492117896304279823e-01,3.490111075973029858e-02,1.366734130790965562e-02,5.083829944206871149e-02,5.381376147270202637e-01
3.674035519651711601e-01,-4.663486613777475531e-01,3.672839465895197941e-01,-4.883025437630119682e-03,1.486948599164203747e-04,-4.294585075419560748e-04,8.337357044219970703e-01
3.134893969037678696e-01,-7.630687672920621889e-02,3.287364985166739695e-01,3.988134440212016268e-02,-1.064682483254066926e-02,-1.299389133987939246e-02,4.046418368816375732e-01
3.560908763909340635e-01,-4.473697646496214153e-01,3.805884255210973399e-01,8.841196457011405016e-04,-2.860346249817845819e-03,1.761510418557215782e-02,8.165719509124755859e-01
3.581576553408569175e-01,-4.687621049327043155e-01,3.457924115462345238e-01,9.051008458094625744e-03,3.838244662566759474e-03,-4.913304203722357842e-03,8.210276961326599121e-01
3.658675897347394290e-01,-4.711733724278395208e-01,3.596879895140192573e-01,7.314198440088855169e-03,-1.459612376473979484e-03,2.089744505963395463e-03,8.340762257575988770e-01
3.652790669605865959e-01,-4.361776617093477970e-01,3.624778810745937219e-01,-2.182483773077840278e-03,-1.059589287068958031e-02,1.957766812483406182e-03,8.002864122390747070e-01
3.559753368625025449e-01,-4.376822742866404159e-01,3.782493996019580251e-01,2.945735610494462815e-03,-8.405084285551136722e-03,9.765865300895034892e-03,8.053512573242187500e-01
3.866497927598795403e-01,-4.568365769298574630e-01,3.329520772749557933e-01,-2.186621371285816899e-03,1.710053149800453733e-03,-7.362241489949549085e-03,8.180740475654602051e-01
5.521971695306414629e-01,-2.471330515821124618e-01,9.518243749021271238e-02,-5.865452664734618904e-02,7.576696990602291293e-02,9.685619468956485623e-02,7.336019873619079590e-01
3.581523598097791639e-01,-4.494084496519354932e-01,3.751689053107457594e-01,-2.865179385638484070e-03,-7.482776855379142528e-03,8.949757722930214848e-03,8.164672851562500000e-01
3.580016421929935189e-01,-3.721531841988587330e-01,3.651888172548855005e-01,1.354313916652507763e-02,2.989506941185266289e-03,2.890707460191119932e-02,7.358732223510742188e-01
3.606248329995848656e-01,-4.586159920787298283e-01,3.778029336664045501e-01,2.977298262146962308e-03,-1.264241271607764207e-03,-3.405096922275426853e-03,8.280035257339477539e-01
3.605611290614441633e-01,-4.528049167873446912e-01,3.727451485798238817e-01,1.920833798675249896e-03,-6.643089947133126727e-03,3.869172023477233761e-03,8.196409344673156738e-01
3.390640768404453165e-01,-3.630461117606552102e-01,3.620823753009045909e-01,1.621208475969690378e-03,-8.876947739292623263e-03,-1.396469208643793007e-03,7.140728831291198730e-01
3.438388115039243687e-01,-4.125453339860463142e-01,3.758670073488702412e-01,1.217228693802436558e-04,-1.999907192998868610e-03,-3.064965613335296404e-03,7.729221582412719727e-01
3.534481606261333786e-01,-4.021625596682123494e-01,3.633723451590774589e-01,4.238054377084284584e-03,-1.525692811664921059e-02,-4.740202722500856669e-03,7.611599564552307129e-01
3.619721748173972409e-01,-4.638324164084991486e-01,3.744996186449160436e-01,1.906790688340816425e-03,-1.188557597159705607e-03,5.335484218828597100e-04,8.321486711502075195e-01
3.581269145598424131e-01,-4.238152459759721991e-01,3.458907592959650223e-01,-2.498688247678190234e-04,7.486202775270135376e-03,-1.393842600706241518e-02,7.763803601264953613e-01
3.642265116731652763e-01,-4.586122371754739468e-01,3.795187749401878197e-01,2.072655865008544897e-03,-4.991059569333665229e-03,-3.257380890332015836e-03,8.306623697280883789e-01
3.499136411698431370e-01,-4.554773445554236577e-01,2.979983757710065184e-01,-9.492919292489482991e-03,1.053281038972396222e-01,-7.715900121662493810e-03,8.020403385162353516e-01
3.770439081632787071e-01,-4.337885147865229163e-01,3.555957966363623157e-01,3.699272412679011166e-03,-7.795434644632734736e-03,2.526067886836128300e-03,8.004754185676574707e-01
3.636650919867621679e-01,-4.416905010708664925e-01,3.632090236477069634e-01,-7.881551235450172041e-03,8.437491687353377429e-03,-5.474309258587490516e-04,8.053765296936035156e-01
3.666320515144222414e-01,-4.106394318374689822e-01,3.567461145251999977e-01,-1.532685386751603610e-02,9.652370219451851183e-03,-1.156355904306884336e-03,7.730154395103454590e-01
3.666073904280146567e-01,-4.765700641338456167e-01,3.641347894368587301e-01,-6.031941701045287008e-04,-9.956863327268943974e-04,-6.672765669336601325e-04,8.419470787048339844e-01
3.735825443775666610e-01,-4.692745864543912404e-01,3.646835984286867505e-01,-6.474324765939496124e-04,4.147785244464277134e-03,-2.451737863152712773e-03,8.384853601455688477e-01
6.580911219802307865e-01,-5.912537118648354406e-01,1.137431159782278656e-01,5.500921133866912283e-02,-2.822259845521586652e-02,1.707574247661721167e-01,1.129619717597961426e+00
3.668713493491588262e-01,-4.610712002843990742e-01,3.802272412644480681e-01,-7.594991699617367016e-04,-4.044513630737421941e-03,4.683627049302255957e-03,8.347705006599426270e-01
3.598876651710813945e-01,-4.596615339011133061e-01,3.761410315081855638e-01,-1.662330022307999689e-03,5.447931588463395675e-03,-2.219717768365590729e-03,8.278632760047912598e-01
3.544267851864190688e-01,-4.581183915229859460e-01,3.214170895812755724e-01,-1.113385378230645831e-02,-1.078422218373359040e-02,-5.409711697307530501e-03,7.970608472824096680e-01
3.615154680260908027e-01,-4.627656531478255841e-01,3.776179144498286178e-01,1.064228330691695344e-03,-3.527603656871557830e-03,1.172705305126153525e-03,8.324760794639587402e-01
3.551656955056680109e-01,-4.415176773973077395e-01,3.776299519190322584e-01,9.809628493838954029e-04,-2.455864224225434971e-03,6.218226063791298074e-03,8.082344532012939453e-01
3.518128706888916657e-01,-4.296027004940055072e-01,3.662095094254095295e-01,-3.718393459037665043e-03,-2.244520601734940478e-04,3.785026030063592603e-03,7.887660861015319824e-01
3.550789552162664786e-01,-4.674296158416505476e-01,3.545308034585195611e-01,-6.722108828516469917e-03,2.910804495424505582e-04,-6.050275260855092659e-03,8.223839998245239258e-01
3.681423665589754202e-01,-4.627385268225541193e-01,3.697501230180228471e-01,-4.190976542162056472e-03,1.270975488874117112e-02,-4.505337695643681431e-03,8.320454955101013184e-01
3.762706511670082521e-01,-4.594566659200794989e-01,3.632057824159568571e-01,-2.046652091533170733e-03,8.457755477749675718e-03,-2.672678956506022337e-03,8.294219374656677246e-01
3.661377798591888832e-01,-4.633695614290108677e-01,3.641935838516546231e-01,5.240634547441305052e-03,-2.935688071830371178e-04,6.886905912367413847e-03,8.286727070808410645e-01
3.769136519625138071e-01,-4.632325546605527977e-01,3.629836815840623565e-01,7.711772848309184601e-04,7.271558810924791741e-03,-2.633209562197043330e-03,8.333773016929626465e-01
3.088059370350170751e-01,-2.364143907317077242e-01,3.386545073605486955e-01,1.029482252458150879e-02,7.600475584113818017e-02,-5.377310629451639845e-02,5.837404727935791016e-01
2.667708556632049088e-01,-2.178980228591417267e-01,3.895188349546515605e-01,2.909686499605898882e-02,2.343267089391173896e-02,2.770632297409699948e-02,5.620971322059631348e-01
3.669714955359836828e-01,-4.765207305572096708e-01,3.662934972018854762e-01,-3.043545763177087321e-04,2.146410510291110220e-03,-3.120036189008640304e-04,8.431619405746459961e-01
3.624519390164672172e-01,-4.720350379336650803e-01,3.595804467993383158e-01,-4.861450399077238286e-04,-6.359040855306572794e-04,-6.539829622942905200e-03,8.331331014633178711e-01
3.246882464476056329e-01,-9.899897348674374653e-02,3.286054160672841062e-01,-2.189197441342161966e-04,4.328935199233360093e-02,-8.463044091655236301e-02,4.563933014869689941e-01
2.662328395116763113e-01,5.909147940526160436e-03,5.140883564732505739e-01,-1.200652374218891087e-02,-3.966000209601899112e-02,-6.156401039753091331e-02,4.585248529911041260e-01
3.649926646674271913e-01,-4.698282872136949617e-01,3.706500987587870721e-01,-1.938304616960249017e-03,2.738295935434992994e-04,-4.179070962613998068e-03,8.377021551132202148e-01
3.709660171352988089e-01,-4.736330214376500702e-01,3.654870629364166956e-01,9.197633954976714874e-04,-3.233504129199917150e-03,-2.264899453756824988e-03,8.419021964073181152e-01
3.236224336738848795e-01,-2.147848046679917133e-01,3.517589075537362886e-01,6.640556198440117353e-03,-9.463725924774483642e-03,-1.965684545048391324e-02,5.544213652610778809e-01
3.744257828986338743e-01,-4.141801970509074726e-01,3.483642434625017215e-01,1.008816324995978793e-02,4.847783382496705790e-03,1.904076765897818810e-02,7.768460512161254883e-01
3.656828795995842873e-01,-4.728639940305212619e-01,3.720034402702986354e-01,2.034903997251880266e-03,-4.240552186378696194e-03,-9.776643060158136510e-04,8.417660593986511230e-01
3.487231462349419941e-01,-4.214880370191567138e-01,3.733608681554923536e-01,3.541806677073330856e-02,2.897012236011483818e-03,-2.557790421804236047e-02,7.864856719970703125e-01
3.596537296190647770e-01,-4.724160171449773848e-01,3.607159785804441299e-01,3.125188566171071061e-03,-2.735272779188748643e-03,1.503301712730834060e-03,8.326365351676940918e-01
3.675918908840888899e-01,-4.739017161762698604e-01,3.655319648549303913e-01,9.231637025897521760e-04,-1.009650757959104942e-03,-2.268059049892989700e-03,8.404780626296997070e-01
3.382401868372694187e-01,-4.631913603501124355e-01,3.707512804891052727e-01,-9.278902670741663930e-03,-3.053623148781869955e-04,-1.126531393007791952e-03,8.183320164680480957e-01
3.725995687279969326e-01,-4.593406420543455493e-01,3.655664401156439314e-01,-4.082245805979512268e-03,7.797416199369846688e-05,-3.397874689748028171e-03,8.284971117973327637e-01
3.673150562833650823e-01,-4.668557308331853228e-01,3.673686179146545272e-01,4.694581623994979573e-03,-8.027330659606730402e-04,-1.635096586342105456e-03,8.342431783676147461e-01
3.364888044941999334e-01,-2.853403989822953513e-01,3.480679490399929410e-01,1.092212468344229276e-01,-5.547660869082902914e-04,-2.418948627606699008e-03,6.556006669998168945e-01
3.773850120515500617e-01,-4.621457196953010493e-01,3.648474974323620557e-01,-2.603128621397702842e-04,4.520177993831994354e-03,-9.429246409959944966e-04,8.333712220191955566e-01
3.496435796554970832e-01,-3.010416772003504104e-01,3.405805915161493891e-01,-3.309613486519234760e-02,-7.898001413715350152e-03,2.173423413653096433e-03,6.488941907882690430e-01
3.691969298574709346e-01,-4.739698758968345915e-01,3.629084990998327487e-01,-1.814345181623615647e-03,3.889075122994024337e-03,-2.377894582548499211e-03,8.400832414627075195e-01
3.741429909445607160e-01,-4.647528626831233245e-01,3.394714121087419878e-01,4.908688068533660978e-03,2.115525228165513329e-04,-7.312866352560159350e-03,8.222501873970031738e-01
3.298449932505478355e-01,-1.056098426185515526e-01,2.900435738280189857e-01,7.255897842994045444e-02,1.034360756789272917e-01,-4.746230233337751098e-02,4.780406355857849121e-01
3.642723083024858588e-01,-4.709395672269053312e-01,3.775936679839331234e-01,2.822490329418642085e-03,-5.253166114715952968e-03,-6.183701203755871331e-04,8.420156240463256836e-01
3.476143168166407893e-01,-4.663550364587660813e-01,3.720303306575825086e-01,-5.815836711054602794e-03,-1.516443540518173753e-03,-6.534964502052703107e-03,8.265909552574157715e-01
3.657584898642761151e-01,-4.601092347095750990e-01,3.692488348788999231e-01,1.252821233168560514e-03,-2.094408012917665929e-03,-3.484150697623091333e-04,8.276294469833374023e-01
2.907106902349078092e-01,-4.575523652725858037e-01,3.787852213579332994e-01,-3.122812640699108334e-03,8.077103103561533021e-03,-1.023706027940057654e-02,7.963020801544189453e-01
2.878414003756963879e-01,-4.700756175522772251e-01,3.816926845350555597e-01,3.573288832182564163e-03,5.101471596736395497e-02,-4.407632683588796549e-03,8.138070106506347656e-01
3.572640220634700214e-01,-4.413084304531624813e-01,3.762038027618830327e-01,3.292393452802847096e-03,-1.114218566476709096e-02,-2.807700299076605274e-03,8.084739446640014648e-01
3.606632568106044046e-01,-4.620949480850428115e-01,3.825589560180174264e-01,2.686749924338155057e-03,-5.302987239374637625e-03,-1.279116717059072556e-03,8.339881896972656250e-01
3.460044613279635861e-01,-2.777499550092521474e-01,3.189957214661355289e-01,3.283687279832822603e-02,9.271116666014281305e-04,-1.552107551776236299e-03,6.133488416671752930e-01
3.639024363753856628e-01,-4.739158992778559343e-01,3.646754233858319760e-01,-1.388923884003059796e-03,-4.373295041969994454e-04,9.630793391527493275e-04,8.382105231285095215e-01
3.600430609636492973e-01,-4.651867657447138482e-01,3.607265888722325786e-01,7.980218595475108807e-05,2.292160832380031555e-04,2.310707997025097417e-03,8.255816102027893066e-01
3.195193301790949514e-01,-4.446377817617364059e-01,3.319125146729309805e-01,2.307136929348839092e-05,8.887030850613186414e-03,1.057458385492276824e-03,7.705844044685363770e-01
3.176826026606293096e-01,-4.437302174346846595e-01,3.327588011805509005e-01,-8.977957363810517904e-04,8.911595099156104788e-03,-4.884169421803063153e-06,7.692182064056396484e-01
3.367471282004935174e-01,-4.470141322072139767e-01,3.291683134708177638e-01,-2.833532130489485688e-03,1.345293232162030408e-02,2.418750705245138657e-03,7.803741097450256348e-01
3.797983013820041553e-01,-4.626936978918954058e-01,3.388702902817707363e-01,1.007166472873228732e-02,4.384334834244646602e-03,-1.923555793642182975e-03,8.230184912681579590e-01
3.496009644011963124e-01,-4.551952606271372215e-01,3.361886472205334320e-01,6.734986281043249534e-03,1.512226618088834476e-02,-1.203869381420568166e-02,7.989615797996520996e-01
3.659508538861858673e-01,-4.666464573549562456e-01,3.709273798766875574e-01,-2.534985441182494633e-03,6.851838506956175676e-03,8.978515063606722166e-04,8.351939916610717773e-01
3.517122336974136676e-01,-4.365632660763920647e-01,3.750812955150880645e-01,-8.471628180905952038e-05,1.115145874830954578e-02,-3.397621618780392351e-03,8.004707098007202148e-01
3.460731956286138278e-01,-4.479793128689506521e-01,3.161530071412881338e-01,-4.010857642492931738e-03,3.459779308323335939e-02,1.991393236087534227e-03,7.818616032600402832e-01
3.709072122329133414e-01,-4.677349406837548740e-01,3.658220494945859103e-01,-1.228823623804712944e-03,-8.332731894668841954e-03,-2.997094374888373443e-03,8.362545371055603027e-01
3.698945808497138277e-01,-4.686173640211931390e-01,3.453332525945752574e-01,-6.268765203507714948e-03,6.949938207281125113e-04,2.986972186149555687e-04,8.265773653984069824e-01
3.632756485580555528e-01,-4.748153576366866968e-01,3.660624834836623820e-01,-2.144582227633650556e-03,1.032161077784613142e-03,-3.481670968592043020e-03,8.395196795463562012e-01
2.822545490847401251e-01,-5.214337162845045226e-01,4.103829593505515239e-01,3.117250194869853469e-02,4.191034482185806986e-02,8.262429426983204823e-04,8.794848918914794922e-01
3.063802459514404219e-01,-4.436710214611809810e-01,3.453442503257599383e-01,-1.719183948420845761e-03,3.116012327566333728e-02,2.420653353217636604e-03,7.721783518791198730e-01
3.714874235454203033e-01,-4.662651493528311430e-01,3.569300007575206268e-01,6.235559324671372796e-04,7.707379823399959640e-03,2.867435086210287816e-03,8.306923508644104004e-01
3.563737450564269382e-01,-4.360061771565945099e-01,3.773165140402629514e-01,-1.291694889332587089e-03,6.612989358523602840e-03,-2.686237604569047775e-03,8.031544089317321777e-01
3.645147069959331909e-01,-4.624189665657486570e-01,3.772338800639313816e-01,-4.193169300323409433e-03,1.013641784246489125e-02,-4.492741805551217493e-03,8.336189389228820801e-01
3.661559227239205017e-01,-4.705796152631893658e-01,3.711838044681613491e-01,-3.093016031269751626e-03,7.028205468635280798e-03,-3.358068132134405057e-03,8.393862843513488770e-01
3.523350435826401728e-01,-4.476445454623255715e-01,3.111155321684382358e-01,-5.053249749359812158e-03,2.853178582291469867e-02,2.341712694556287618e-03,7.818099856376647949e-01
3.425737887858829045e-01,-4.446083877123905292e-01,2.855340848765542394e-01,5.542412660350263870e-04,2.133187635665714441e-02,-6.771743823355289103e-04,7.611675858497619629e-01
3.614459682373549754e-01,-4.457668131327472416e-01,4.500369922090296515e-01,-6.750168948988785611e-02,1.725845329354697422e-01,7.650358841056741077e-02,9.227874875068664551e-01
3.666153293206463881e-01,-4.753957230645213805e-01,3.676675659625281978e-01,-1.089529578528378737e-03,3.076533667230157629e-03,-1.602597830607811139e-03,8.425611853599548340e-01
3.658378975563816304e-01,-4.762702602518056327e-01,3.681114905506484569e-01,-1.357025509629857180e-03,1.201862837541016081e-03,4.236336901700345410e-04,8.432534337043762207e-01
5.936012413702856927e-01,-3.581908893864096943e-01,1.029189737922928394e-01,3.601601400015479789e-03,-7.751540000145691958e-03,1.191448548607296348e-01,8.499737977981567383e-01
5.049255826695723259e-01,-3.883995162765996323e-02,5.032545707866109552e-01,2.889147497147328408e-02,3.713413929951163428e-02,3.184333228368408080e-03,5.490414500236511230e-01
3.282817283964584165e-01,-4.434735179883557699e-01,3.281402466260580075e-01,2.588362758384509031e-04,1.536285412536861350e-02,-1.636344598031714290e-03,7.721484899520874023e-01
3.279545436487489862e-01,-4.432633911715794239e-01,3.310044276706276545e-01,-1.340897945838048690e-03,1.364673484527786224e-02,9.572309641170464062e-06,7.731122970581054688e-01
3.642628828393195684e-01,-4.714007930164583193e-01,3.616260393711175358e-01,7.457409033010907289e-03,-1.982492414833158037e-03,-4.158331962188546965e-04,8.344557285308837891e-01
3.652411743638319108e-01,-4.685514061789218809e-01,3.694947144938557360e-01,3.120899521863682805e-03,-2.093764312585066900e-03,-6.194241067937043431e-04,8.359534740447998047e-01
3.574581356747025818e-01,-4.520840812458616353e-01,3.027485533383460492e-01,1.174853286594937894e-02,2.442344879471874258e-02,-1.333729040210892766e-02,7.853657007217407227e-01
3.605669487458659783e-01,-4.643036640725178854e-01,3.412213482083010230e-01,9.582718385196833250e-03,-1.070352369034097660e-03,2.344411413008272134e-04,8.155410885810852051e-01
3.102436254495663515e-01,-4.436244036038190508e-01,3.421966231950715476e-01,-1.383222154832086908e-04,4.257551879052356991e-03,1.506579412899562275e-03,7.703814506530761719e-01
4.269947420187272247e-01,-3.994574053205903752e-01,3.194702476478665787e-01,6.486599501944710633e-03,1.822377280090254834e-02,2.497699011356985591e-02,7.802018523216247559e-01
3.621563000296119106e-01,-4.721633266029195974e-01,3.591334989009433154e-01,5.677951040105222620e-04,1.329788213943299208e-03,-7.524130877063221930e-03,8.329180479049682617e-01
3.604893524032225516e-01,-4.724816212345096522e-01,3.627536865529004673e-01,4.583740565879674384e-04,5.253567272816611535e-04,4.691045033808258734e-04,8.341067433357238770e-01
2.548643936536992838e-01,-4.549741205014046219e-01,3.879692823556813996e-01,1.711839483613239801e-02,3.177763928905289609e-02,-1.392871101897371483e-02,7.877570986747741699e-01
3.261832068679537122e-01,-4.434616438047089826e-01,3.291703704553366472e-01,1.111786266598070657e-04,3.900930586957070123e-03,-2.420382351714918910e-03,7.711837887763977051e-01
3.223457187004434843e-01,-4.487285761427471931e-01,3.411776666017223847e-01,-5.111729469740220431e-03,6.311809197679662392e-03,7.146095673368793762e-03,7.808855175971984863e-01
3.292332909987879530e-01,-4.443053641011445176e-01,3.270768358599079884e-01,3.442648972495939005e-04,1.461493030613442677e-03,2.539330406319169082e-04,7.724671959877014160e-01
3.518014782302497645e-01,-4.480623034801293203e-01,3.042110068113293431e-01,-5.007914749600075183e-03,8.804620697860624304e-03,3.105662905239284493e-03,7.773787975311279297e-01
3.034442432325882288e-01,-4.438134158572905053e-01,3.454236835380778969e-01,8.933181942908543886e-04,8.375619407695100715e-03,-1.945361191759370154e-03,7.692528367042541504e-01
2.928527637070024725e-01,-4.485669500536841880e-01,3.471079231959808276e-01,-1.112987755290654633e-03,1.401727432249201197e-02,9.739191304130952100e-04,7.703691720962524414e-01
3.418540881325180525e-01,-4.653670274879376789e-01,3.596802509766935940e-01,-9.991489615550305271e-04,1.435243692285020651e-03,-1.004089080119040071e-02,8.164710402488708496e-01
3.521977308313376520e-01,-4.121370809298693372e-01,3.727041346093313834e-01,2.831500556483752991e-03,-5.358061278958398815e-03,-2.352647384534811790e-03,7.748733758926391602e-01
4.810618520480661742e-01,-5.181458120470702200e-01,1.979110419282629207e-01,1.893251510373741842e-02,7.095042581327554165e-02,-7.548724649470954376e-04,9.010232090950012207e-01
3.263453564184252143e-01,-4.442296186940589697e-01,3.337066284002790928e-01,4.852384707942442249e-04,2.073390993527057975e-03,2.912276140032377721e-03,7.743070721626281738e-01
3.000878122537099513e-01,-4.496759839678310389e-01,3.461410412264072090e-01,-4.266364679739778273e-03,1.448844161004185505e-02,7.630007451986626360e-03,7.743737697601318359e-01
3.197561976025968811e-01,-6.845880682445822929e-01,3.404047978607659952e-01,6.376602534968633940e-02,2.646004851593503071e-01,-5.073034564662944751e-02,1.122422099113464355e+00
3.705347987734644022e-01,-5.268536943906488856e-01,3.811974056815262690e-01,-1.437024499485388754e-02,-1.229402110733135156e-01,-1.070703800384918518e-02,9.280595779418945312e-01
3.255295917197544853e-01,-4.503423656253765506e-01,3.297693486980849964e-01,6.146011710955035998e-03,9.608651542036987514e-03,-3.876410353721204075e-03,7.782802581787109375e-01
2.937898030632353219e-01,-4.646359674403133244e-01,3.489756218929693787e-01,-1.921713057988011161e-02,6.775685043776204231e-02,1.638007665623270395e-02,7.973676919937133789e-01
5.567150145969487207e-01,-3.788758265426380722e-01,1.467441182348367679e-01,2.168071482523518598e-02,8.682063305630292188e-03,-4.108864428021191673e-02,8.164204955101013184e-01
3.319099563875720915e-01,-4.485443482042346108e-01,3.308294320583114456e-01,-3.964636858885662793e-03,6.219687070340169238e-04,2.378618765607890765e-03,7.799564599990844727e-01
3.723761831627350194e-01,-4.632498635312572999e-01,3.101387057800981117e-01,1.406435548054649383e-02,-1.194323068874469235e-02,2.018637946817430223e-02,8.077010512351989746e-01
3.834775221563144765e-01,-4.656149772981377222e-01,3.617132598699257517e-01,-1.401611660499190587e-03,6.412554664548141339e-03,-1.394455027434475698e-02,8.388471007347106934e-01
3.243120278905934351e-01,-4.486472037968879389e-01,3.340690539074006038e-01,-2.981915308877270028e-03,9.067240146217682775e-03,4.355444750772961143e-03,7.780959010124206543e-01
3.645701286571269018e-01,-4.701260488477745358e-01,3.763831656484246668e-01,-1.968634189691750511e-03,-5.315917364182961430e-03,-4.298283773098438964e-04,8.407226204872131348e-01
3.939024505641134377e-01,-4.680817564221676497e-01,2.870547194493240362e-01,1.899271950167859269e-02,-3.271445109171912391e-02,3.624361301336354729e-02,8.188808560371398926e-01
4.001161021120809291e-01,-4.610034592978949908e-01,2.692521418908135344e-01,7.541426498350466308e-03,2.206776051986815423e-02,-1.122227944894958751e-02,8.049671649932861328e-01
3.859035760696116202e-01,-4.645667107830622200e-01,3.036677283167751318e-01,1.536262699225624494e-02,-4.974402004598588167e-03,1.682271000903553040e-02,8.134829998016357422e-01
3.629447766494264260e-01,-4.315804233993556505e-01,3.619249189738427130e-01,-1.124421459485179086e-03,1.663726129471721892e-03,-8.306166978228711820e-03,7.941536903381347656e-01
3.644123962927403038e-01,-4.632020067524690310e-01,3.697028205768085884e-01,-1.884829861635250754e-03,-5.405546488631150955e-03,-6.797107249224838398e-04,8.303322792053222656e-01
3.648466145627500268e-01,-4.715118303894505480e-01,3.642861275196619952e-01,-4.164769764014744288e-03,-1.271957809814591679e-03,2.297480609369379357e-03,8.361218571662902832e-01
3.658660216772087193e-01,-4.784102072834721664e-01,3.707876511423102706e-01,-1.105363106211117857e-03,-4.765377325101041034e-03,-3.973598131739785808e-03,8.468181490898132324e-01
3.946013334236088688e-01,-4.652846560814349886e-01,2.888830334531282684e-01,1.082022664149799585e-02,-1.062252537079286588e-02,1.240956053114126816e-02,8.129122257232666016e-01
3.308340020511248980e-01,-4.663003983548190678e-01,3.844582699595496256e-01,3.988410910204949131e-03,-9.484292105433002676e-03,-2.954965798839210862e-03,8.254625201225280762e-01
3.712300302997683099e-01,-4.647808738224289415e-01,3.663850520140099487e-01,2.444650185653046356e-03,7.582476571513731192e-04,2.505667368406853251e-03,8.336220383644104004e-01
3.430453668494118924e-01,-4.643873222509355969e-01,3.498455298081060150e-01,-6.504594693228792773e-03,1.730087768528824291e-03,3.403032781586782444e-04,8.109381794929504395e-01
3.634343363912029279e-01,-4.761698584340822160e-01,3.629631496419201131e-01,-1.227233655599708952e-03,2.894517558295517010e-04,1.794282999670098562e-03,8.393772840499877930e-01
3.694782150819579947e-01,-4.697913491945477915e-01,3.653499344613921895e-01,2.336902187354206011e-03,1.925780325196699196e-03,2.886276896734826271e-03,8.372443914413452148e-01
3.599621744141128232e-01,-4.634791804580971064e-01,3.459819770814912543e-01,-5.370712868158164857e-03,1.780215515114367750e-03,9.563816619231278173e-04,8.166015148162841797e-01
4.086067547163499403e-01,-4.382712414928648936e-01,2.652579663187975001e-01,-7.366121493470928483e-02,-1.455896530482685969e-01,-5.808022382754373519e-02,8.404398560523986816e-01
3.649048144479105082e-01,-4.767050442993484571e-01,3.670025722370433563e-01,-7.747379620590246277e-04,-1.337787094047928954e-03,6.585134101547796080e-04,8.426657319068908691e-01
3.934505693629124501e-01,-4.631710750816431243e-01,2.716321833254298213e-01,-6.006008673285743744e-04,-5.469381936703428260e-02,1.957029183549399351e-02,8.089575767517089844e-01
3.620781731064323106e-01,-4.752481154375712835e-01,3.621161502963539669e-01,-3.825149875688908449e-03,-7.761315876035508859e-04,4.120442426860429150e-03,8.374029994010925293e-01
3.712686812432822170e-01,-4.717627004095577004e-01,3.710071689190606592e-01,-7.894551797071037947e-04,-1.070617173644517611e-02,9.712369133658145092e-04,8.431074023246765137e-01
3.542017167390779098e-01,-4.732451018796683950e-01,3.617021649275022344e-01,-4.605016298287197864e-03,5.590042949753345125e-04,8.631680598771456544e-04,8.312625885009765625e-01
3.569173281874343795e-01,-4.645617426010449913e-01,3.393436749127878294e-01,-8.251942974826759203e-03,6.330393098575019806e-03,-2.608598063321406011e-03,8.130468726158142090e-01
3.437771333878140156e-01,-4.125768868271451062e-01,3.755636961716357081e-01,1.992768628154327828e-03,4.834987052901438230e-03,-3.802600274795990380e-03,7.728189229965209961e-01
3.649699489724094748e-01,-4.711465435529454959e-01,3.640524955339957680e-01,6.231484074239632479e-03,-1.701331094818874044e-03,1.712201145798496324e-03,8.357383012771606445e-01
3.509734371294234156e-01,-4.627274702843697796e-01,3.336753000543313252e-01,-1.417977549367288766e-02,1.972821269052914273e-02,9.467474669440674798e-03,8.064568042755126953e-01
3.374057988688009546e-01,-4.605224010725316175e-01,3.423171851878502037e-01,-8.861387258076740617e-03,4.428015793145774308e-03,4.670428627384383934e-03,8.006199598312377930e-01
3.647655994781811017e-01,-4.703632292156387784e-01,3.640077029404706899e-01,-5.430557968894473252e-03,-4.338518899577147557e-03,2.076383674259129654e-03,8.348447084426879883e-01
3.379795648737893288e-01,-4.627435202959191418e-01,3.261432642543709015e-01,-1.574698202503499803e-02,2.139257328239648620e-02,1.739675488102125286e-02,7.967714667320251465e-01
2.704582697436759275e-01,-9.325592069137755846e-02,3.902092918459509341e-01,-6.522745341646110639e-02,-2.646101040471533078e-02,-8.555686216819069490e-03,4.530645310878753662e-01
3.559551191158984995e-01,-4.708165807631119470e-01,3.533223688637510129e-01,-8.099670754709110965e-03,5.606794681206376044e-03,9.295754787069756414e-03,8.257917761802673340e-01
3.655632464508403179e-01,-4.742041791099900205e-01,3.697667983511390699e-01,2.240599563847624209e-03,-1.001197439056041635e-03,-1.190098438587718120e-03,8.418903350830078125e-01
3.421123867686698405e-01,-6.693184470732350677e-01,3.125397126876888199e-01,-1.396679146377234337e-01,-2.831482617074777552e-01,-1.566908655901798619e-01,1.169039130210876465e+00
3.587334342747128257e-01,-4.548752067169985480e-01,3.806501843864237289e-01,-1.080200490302397117e-03,1.003988493963851305e-03,3.074516906462682921e-04,8.247895836830139160e-01
3.652785047259262674e-01,-4.678937406893944884e-01,3.695321370027726537e-01,4.419400975691244356e-03,-2.722456126998071615e-03,-2.694921087482854589e-03,8.353686332702636719e-01
6.465968188441021391e-01,-7.336057002023225193e-01,1.091502285714274212e-01,-7.574385162399219218e-02,1.964946462916618009e-01,2.024503403719473960e-01,1.306913495063781738e+00
3.531362282074052006e-01,-4.336396888020890295e-01,3.780336045171007742e-01,-1.848620661166647293e-03,5.514323213873569690e-03,-2.579887303846631775e-03,7.995913624763488770e-01
3.759659006586851815e-01,-4.659724349006373334e-01,3.706385082071436132e-01,4.278866453819656426e-03,2.081103668582315758e-03,5.112025101357376561e-03,8.393744826316833496e-01
3.621606236274991231e-01,-4.684695338925822794e-01,3.507534712450571246e-01,-7.182494956116194235e-03,2.414634171234031758e-04,3.395973516084060950e-03,8.251006007194519043e-01
3.094435238315477177e-01,-4.583511299006554074e-01,3.423275723847456486e-01,1.633286424183606755e-02,-4.443883991879898215e-02,1.512858355109694165e-02,7.894615530967712402e-01
3.168610614239735779e-01,-4.540400950592520246e-01,3.522315484573420585e-01,-5.904868589864635401e-04,-9.161441545917895293e-03,9.064698004406455609e-03,7.894974350929260254e-01
3.376000703394667068e-01,-4.610261154231898306e-01,3.517112024414971727e-01,5.810790392607398554e-03,-3.173979589318171035e-03,8.074866739839385923e-03,8.059774041175842285e-01
3.662843661541442253e-01,-4.671308804096120371e-01,3.617223706200696220e-01,-1.741808924227043927e-03,2.284766124595119085e-03,-3.516735598735518087e-04,8.311587572097778320e-01
2.931914554326805478e-01,-4.679981191255832007e-01,3.812115234710429235e-01,7.338836595985623323e-03,-1.735404969220790891e-02,8.204580174695514511e-03,8.095826506614685059e-01
3.304960859377118476e-01,-4.471332617919532293e-01,3.284864055684816320e-01,1.712207064276442987e-03,1.092079845857461991e-02,-5.203792947604239487e-03,7.769147157669067383e-01
3.165609078922694275e-01,-4.514232472563807219e-01,3.486563347748582453e-01,1.963391361499220301e-04,3.033297142160712445e-02,8.576820564271508615e-03,7.864220142364501953e-01
3.892016847699926729e-01,-4.051342663239204667e-01,2.543570741507058530e-01,2.505356375214800799e-02,9.584563828906481064e-02,-5.134096141384166673e-02,7.611771225929260254e-01
3.644470541999044189e-01,-4.641166965477765416e-01,3.718631390394335212e-01,-9.405581230367296517e-04,-1.283861228236425275e-03,5.764825815034380595e-03,8.323610424995422363e-01
3.595757090105567433e-01,-4.654611458614750230e-01,3.418610088095056510e-01,1.385649858802461692e-02,-1.002020700660941066e-02,1.144763680452893541e-02,8.171014189720153809e-01
3.235173989272592809e-01,-4.618599088404243824e-01,3.526127761075621980e-01,4.766721916274330520e-03,-9.995507354433903063e-03,8.039414046830119578e-03,8.006726503372192383e-01
3.660794073849220620e-01,-4.557202349721046764e-01,3.108009048014088171e-01,1.080492432319461217e-02,5.832114502354471611e-03,1.643153492735895983e-03,7.958912849426269531e-01
3.369364520177757782e-01,-4.532658664393278691e-01,3.304204773365134740e-01,6.136665560848112225e-03,-9.695145350477775772e-03,8.456706950893543191e-04,7.872168421745300293e-01
3.596364964580524570e-01,-4.693005068136226754e-01,3.596708849619901227e-01,4.822342878361458515e-03,8.067353270587310568e-04,6.865529724113203849e-03,8.290827274322509766e-01
3.230301911913403545e-01,-4.497525167285991721e-01,3.435183427778248921e-01,2.875383069589412810e-03,-2.774876309710209987e-02,7.143102044488066141e-03,7.848144173622131348e-01
3.474921137563160012e-01,-4.604529573161291189e-01,3.502939675568200184e-01,5.371833346439239612e-03,-2.072380108505698752e-03,8.041267283438874314e-03,8.095309138298034668e-01
3.529785796828572297e-01,-4.526894944947850163e-01,3.220139360985657673e-01,-5.071954464304601756e-03,6.097906372840463524e-03,-7.904935707531429582e-04,7.907611727714538574e-01
3.469300484308743826e-01,-4.439137487881675836e-01,3.021092641525454092e-01,-1.193445321410868632e-03,1.046109969955513752e-02,8.979625529713446911e-04,7.696307897567749023e-01
3.467523327250585652e-01,-4.647563818662359125e-01,3.610356279314287931e-01,8.122600136030697776e-03,-8.929147959007309454e-03,1.224296210726792851e-02,8.192852139472961426e-01
3.463793654358267027e-01,-4.605582899467995928e-01,3.497154741367314301e-01,3.239403014405100017e-03,-1.492616174794913347e-02,8.114638852011340359e-03,8.091655969619750977e-01
3.614809883350884601e-01,-4.669482725837710291e-01,3.233166024732715416e-01,1.307246041260599033e-02,-4.816464748591697646e-03,1.454270869704981511e-02,8.107723593711853027e-01
3.573244356625425722e-01,-4.655985216365777779e-01,3.776544101995641944e-01,-9.136100320457274729e-03,-3.384569853414890655e-04,4.396152447206972368e-03,8.334591984748840332e-01
4.264825954134520702e-01,-4.460719789132595592e-01,2.040317808973726998e-01,5.324209784572059116e-04,2.871530149259540060e-02,1.680451679734142794e-03,7.869043350219726562e-01
3.774940843015151537e-01,-4.691088161532546152e-01,2.973183557945080491e-01,-7.281340378718817452e-03,4.836614707446228179e-02,1.890072818274038391e-02,8.145773410797119141e-01
3.920657613545224240e-01,-4.525133458519831064e-01,2.616812531682783938e-01,-1.112445265440613860e-02,2.729924484655440325e-02,9.915323447714377916e-03,7.893642187118530273e-01
3.504538328821209525e-01,-4.716331861512106371e-01,3.605366529755786309e-01,-6.251523401061699625e-03,2.011184138758879449e-03,8.229293420807489920e-03,8.273755311965942383e-01
3.847051463332455956e-01,-4.326972206177894797e-01,3.435043054768717741e-01,3.297413840372797299e-03,2.922794035810885767e-03,2.132391810727216237e-03,7.976455092430114746e-01
4.190173030232590690e-01,-4.537029598938491226e-01,2.228680049177735323e-01,-3.116451339803396692e-06,1.558640711373764434e-02,-6.179098539604916361e-03,7.935836911201477051e-01
3.600445044253627325e-01,-4.661931160835119936e-01,3.821877637850947251e-01,-2.413073860271371454e-03,-4.159626542723553200e-03,2.631620686526541983e-05,8.375702500343322754e-01
4.267156895921630499e-01,-4.592394604684948423e-01,2.256864356010468975e-01,-7.483307389369172127e-03,4.861153807316012654e-03,1.746391713246642566e-02,8.052206039428710938e-01
3.643978026876881771e-01,-4.724978279279602456e-01,3.613023644289034553e-01,-3.975981078759816337e-03,-9.078308330010360829e-04,-4.336210002410706193e-05,8.353821039199829102e-01
4.144326382825696542e-01,-4.780845769126205180e-01,2.657380024155580056e-01,7.365252271935931322e-03,5.950303688699920546e-02,-1.655809433600994099e-02,8.352195024490356445e-01
3.256308533895634350e-01,-4.563300969364617599e-01,3.312626261507454206e-01,1.579378727840208274e-02,3.243993552585586887e-02,-1.270347180202360989e-02,7.875836491584777832e-01
3.833308012294872613e-01,-4.669819285055279989e-01,2.701187181851215646e-01,-6.628103376347708846e-03,6.073395655752880651e-02,1.397249988147125643e-02,8.070726990699768066e-01
3.701434742318833182e-01,-4.343757155726626351e-01,3.374600301326962648e-01,-5.407554389286132156e-03,-2.411243384042501686e-02,-4.982242088594501968e-03,7.898932099342346191e-01
3.591317623689643801e-01,-4.722353714870789476e-01,3.619762105623857140e-01,-6.722236783489203560e-03,5.794586550578153172e-04,-1.821215248080836687e-04,8.328750729560852051e-01
5.897090259211837382e-02,-5.039058377162383140e-01,6.008798315402956725e-01,4.993269096675145152e-02,-8.670211002163767666e-02,6.922486120633240814e-02,9.797608256340026855e-01
3.669784735535258635e-01,-4.724601096640391740e-01,3.668112747621428693e-01,-2.242871011836217784e-03,-5.064286028230377545e-03,2.400959374269585628e-03,8.394201397895812988e-01
3.626859350770222368e-01,-4.731268197484636007e-01,3.544073149936657896e-01,-5.133198751261471493e-04,-3.559104110759238153e-03,-6.299355065860149229e-05,8.317276835441589355e-01
3.633991262725425053e-01,-4.681606668684676897e-01,3.762417328545488715e-01,-1.801362903809956275e-03,-3.576763066673920022e-03,1.650802183248868595e-03,8.380885124206542969e-01
3.742582430414465589e-01,-4.615787457723087295e-01,3.277941539560831341e-01,-7.373832440233038694e-03,-6.625970400862200545e-05,-1.046318041777787901e-02,8.139026761054992676e-01
-1.932971801286306746e-02,-5.357995562353644603e-01,5.629113485665558914e-01,2.691102750601871707e-02,4.416310903232347623e-02,-8.338294293965336015e-03,9.563932418823242188e-01
2.587910025227346811e-01,-4.550212293119968443e-01,3.978417667692392135e-01,1.601762830746021604e-02,-1.074688767521316153e-02,5.030514543355977218e-03,7.932913899421691895e-01
3.229708858310061936e-01,-3.392302979823914044e-01,3.582943145277139863e-01,-1.640379020686236981e-03,-1.018091688952976227e-02,-3.676392152192142684e-03,6.808149218559265137e-01
3.255632615860937773e-01,-3.176650366188634722e-01,3.638426337057235616e-01,-2.782241382921248930e-03,5.977741476938729787e-03,1.694941512671241379e-02,6.639447212219238281e-01
3.634570847528750259e-01,-4.642822419417214075e-01,3.386628519508922408e-01,1.003664359790228458e-02,1.865738682792052530e-03,3.265440877466775985e-03,8.158361315727233887e-01
2.649139759618783785e-01,-4.565699496618566000e-01,3.783034475421171994e-01,9.171419584241842504e-03,-2.793096864923685918e-02,-2.731609667042831854e-04,7.860012054443359375e-01
3.679458463622617970e-01,-4.675726168180807107e-01,3.385594194684947711e-01,1.070112723062277039e-02,1.983232116020009275e-03,3.180729794845447468e-03,8.214544653892517090e-01
2.926972237103567798e-01,-4.630993729832602046e-01,3.636949696947115451e-01,-6.394425815312524547e-03,-6.968383900244388973e-02,-1.754117231118015180e-02,8.034564852714538574e-01
3.083160119360318641e-01,-4.679830649576636192e-01,3.834994087700872578e-01,1.673410280561243163e-02,1.734070692058314878e-02,-8.667685013748677170e-03,8.176950216293334961e-01
3.495130436936791929e-01,-4.642943756332322813e-01,3.512886818252937138e-01,3.862541170166681245e-03,4.241493435454699035e-03,-3.581893231397590815e-03,8.147808909416198730e-01
3.640762323217953678e-01,-4.648526413410007940e-01,3.751876082521131139e-01,6.664457070946085528e-04,-4.060342183066966738e-03,-1.463963317073240476e-03,8.345743417739868164e-01
3.617960284082410993e-01,-4.545888746805879510e-01,3.803678741373283101e-01,5.820975677694985133e-03,-1.704167637197496078e-03,-3.119673661619970072e-04,8.258944749832153320e-01
2.461087910660103850e-01,-4.455562208374747035e-01,3.809421846710552839e-01,-1.445013101697284258e-03,-2.955596342986541863e-02,4.636101847741880277e-03,7.697606682777404785e-01
3.291460208342146254e-01,-4.673470928469087848e-01,2.702892772238010832e-01,5.608898395447007787e-03,1.235878001240973134e-01,-7.189697415324589926e-03,7.981589436531066895e-01
2.331116762647862939e-01,-4.572654055484531854e-01,4.097141016337706443e-01,8.228494450890667944e-03,-2.050842292566664241e-02,5.404309588626037171e-03,7.945336699485778809e-01
2.060834062090569074e-01,-4.496759987621026244e-01,4.212761686598428534e-01,-9.131177202293104013e-04,-1.766523772705643619e-02,-2.800634544151972376e-03,7.863874435424804688e-01
3.267407850756346432e-01,-4.745324579699808920e-01,4.785520255174255388e-01,7.365653556551388093e-02,-1.957214222881741850e-01,7.331027791603691827e-03,9.581677913665771484e-01
3.780073562387125663e-01,-4.551577630732112079e-01,3.599828425852116820e-01,-9.877177177137382025e-04,2.441624292439248910e-03,8.438907153396546165e-04,8.243145942687988281e-01
2.175982449586977008e-01,-4.496398005497501682e-01,4.240347615775292844e-01,3.021099443627937951e-03,-2.029696224078239228e-02,-1.864357227841642334e-03,7.917314171791076660e-01
2.074744196312036937e-01,-4.499791101836094764e-01,4.252128726425381533e-01,-4.546952949640512866e-03,6.802195766211573819e-03,-2.096555307698631711e-03,7.893174886703491211e-01
3.776499810587304884e-01,-4.350818578765814904e-01,3.537113547129788760e-01,-1.611953463704393283e-02,-2.199181939585398773e-03,-5.312346887502961655e-03,8.015791177749633789e-01
3.669603214761014143e-01,-4.698211700508707622e-01,3.643927371013153671e-01,4.242472687090855302e-03,-2.929836958963911650e-03,3.417969424649273946e-03,8.355693817138671875e-01
3.715754924781989321e-01,-4.561394495589466969e-01,3.664139122831482909e-01,4.281909150384098812e-03,1.548314116940705670e-03,3.420469599777567222e-03,8.252052068710327148e-01
4.404099589665281256e-01,-5.157990951904469767e-01,2.607029070238860990e-01,-1.334545259979898722e-02,-1.010379835891148381e-01,5.671417418864854038e-03,8.978027105331420898e-01
3.906773184092459106e-01,-4.639877049724606684e-01,2.865052132882842661e-01,3.956644724197017071e-03,8.646598335492626866e-03,4.430137927787037959e-03,8.078378438949584961e-01
3.078570083594195372e-01,-3.576910316960588698e-01,3.798289636498136668e-01,-3.818070294646893487e-02,-4.049940828142516505e-03,-1.515299046373874171e-02,7.079168558120727539e-01
3.395481928535366012e-01,-4.575380328729383717e-01,2.942180270165696276e-01,1.306159810175052142e-03,6.815744026408679379e-02,-2.440797016406857575e-02,7.854921221733093262e-01
3.293953878737940766e-01,-2.710358884847297589e-01,3.562912020905588117e-01,-5.264968688071109543e-02,4.257632132559910007e-03,-1.590639412680528450e-03,6.211023330688476562e-01
3.674948688416571074e-01,-4.458233693621747040e-01,3.603186437747524229e-01,-1.019314048406105670e-02,5.642571872943836012e-03,4.424128045523269444e-03,8.100416064262390137e-01
3.595392167587978527e-01,-4.632088989784365340e-01,3.440896122069971308e-01,-4.722130624487569026e-03,-3.319645768418970355e-03,-8.368705706386522997e-04,8.151957392692565918e-01
3.753051284571285451e-01,-4.237825407329804950e-01,3.528776808494437645e-01,9.301641516352468844e-03,5.929908235805778777e-03,-1.310373104600087799e-03,7.883481383323669434e-01
3.976292748512611497e-01,-4.471140090377033749e-01,2.435175131899521561e-01,-1.808513207011171534e-03,1.069291858705947139e-02,-2.114274098267342802e-03,7.794376015663146973e-01
3.776639084315278616e-01,-4.564258252019833817e-01,3.656453639813722623e-01,-1.201235662288416099e-03,1.165347596545341508e-03,3.156947866245551210e-03,8.281689882278442383e-01
3.667439497282519167e-01,-4.688126531316398893e-01,3.686098031100041861e-01,-2.710537042029818704e-03,-2.706243235888559657e-03,1.862981071433160701e-03,8.365235924720764160e-01
3.791440619697044601e-01,-4.714014331340451447e-01,3.093476082535510097e-01,5.974181814868629453e-03,5.065606624923420231e-02,-2.658330550434092124e-02,8.239291906356811523e-01
3.825735776013016731e-01,-4.583504371002249389e-01,2.680916590238004993e-01,-8.786479736058127460e-03,3.348833539347474686e-02,1.809660776993685582e-03,7.922086715698242188e-01
3.668642471966668817e-01,-4.739427177463721996e-01,3.675163143770783236e-01,-4.376900936656266845e-03,-5.360953679866446026e-03,3.142028220841216676e-03,8.412361741065979004e-01
3.643959947068415306e-01,-4.569608087502380345e-01,3.705498767137302973e-01,1.496526247196895308e-03,-4.040051466523160830e-04,4.363574026897160986e-03,8.244900107383728027e-01
3.542991391634083831e-01,-4.424289463804668143e-01,3.783295896952333370e-01,1.914785417877132905e-05,-1.277699925018090966e-03,-8.955844990100589320e-03,8.091627359390258789e-01
9.513822494893206527e-02,-5.221081345208758995e-01,5.089851638010957080e-01,1.056442782674429579e-02,-9.758138731761112350e-02,-8.183597636860188637e-03,9.147731661796569824e-01
3.675970346128751842e-01,-4.631847745098944813e-01,3.350564653807487359e-01,-1.000565786957471545e-02,3.305365832204889415e-03,-3.635363852481985139e-03,8.152275681495666504e-01
1.876553448064379181e-01,-4.971656625502307580e-01,4.813516994436816132e-01,-4.132948951745512439e-02,9.194283963490024886e-03,5.935915108346487105e-03,8.728404641151428223e-01
4.404433048988951049e-01,-5.846611588651964286e-01,1.915989259073837547e-01,3.173333376223807373e-02,2.131850229617773262e-01,-5.161852355827908218e-02,1.002511501312255859e+00
3.660230075437563846e-01,-4.716714349802323403e-01,3.623533876657273889e-01,-6.551230265546898607e-03,-8.056710365135521558e-04,-1.220455137559405337e-03,8.359465003013610840e-01
4.365813811010906265e-01,-4.693505729592041265e-01,2.827446230440845976e-01,-1.052781570943204549e-02,-3.080283432398495808e-02,3.507112417875873911e-02,8.437308073043823242e-01
1.581204988503573106e-01,-4.012837974924587381e-01,4.470701306183754720e-01,4.747623318204626658e-02,-8.212965782376910329e-02,-1.895413305548577371e-02,7.655979990959167480e-01
1.687197114002564335e-01,-3.289037947900911862e-01,4.374720004013086250e-01,1.235953081065555882e-02,7.717300925366965547e-02,-4.311408916260919127e-02,6.910109519958496094e-01
2.513891606175982507e-01,-4.875168699858484223e-01,4.499752121018647522e-01,3.989486885962510720e-02,2.337272623400447891e-02,3.428206623297886876e-03,8.594206571578979492e-01
2.876498488156490896e-01,-4.658821003320702259e-01,3.982713578948735567e-01,-1.266889829373866669e-02,1.187959630886861045e-02,4.436407994100384326e-03,8.150879144668579102e-01
3.555076130466743312e-01,-4.544235149000318552e-01,3.822816642903864581e-01,-5.627412985864171588e-04,-1.046908278010894781e-04,1.693246894220439697e-03,8.236504197120666504e-01
1.753688929355382564e-01,-5.045440624653987349e-01,4.511584745852340594e-01,5.203426150377636616e-02,2.052587866352221374e-02,-4.898403585529034938e-03,8.575039505958557129e-01
2.148460611243351859e-01,-4.653893875538734903e-01,4.158226504836752269e-01,2.464838564285982969e-02,-6.713060206886205944e-03,-1.702764850566655577e-03,8.011178374290466309e-01
2.779097553882685645e-01,-4.666638342330018396e-01,4.033874043277777544e-01,-7.673534051146168981e-03,1.457128614500222824e-02,1.571995911758252958e-03,8.150968551635742188e-01
3.586098234711821986e-01,-4.477608802546390043e-01,3.724476118650816847e-01,-1.681082332482574000e-03,-4.878553908468046332e-03,-4.417457735419543473e-03,8.134629726409912109e-01
3.326793639323993856e-01,-4.652664465423720364e-01,3.873396646365864227e-01,-8.953947913359809954e-03,2.934040583699301652e-02,-9.059413458320106360e-03,8.284869194030761719e-01
2.860675269648584873e-01,-4.458636517093068630e-01,3.899526225364269849e-01,-8.225585861945210187e-03,6.260308611330067316e-03,-6.534202034369968048e-03,7.893039584159851074e-01
2.937292547224434891e-01,-4.651466921782553277e-01,4.001236673011956402e-01,-4.934997616905425176e-03,-3.543716636228485400e-03,-3.081903661844818520e-03,8.173688650131225586e-01
3.724506792799240906e-01,-4.654466192517467960e-01,3.492886334903088641e-01,-9.263439941029879068e-03,1.670700955694637800e-03,1.487686524185529054e-02,8.271219730377197266e-01
6.130201003920719982e-01,-6.301637986040775630e-01,1.461495144688758629e-01,4.294891728530570579e-02,-1.247869209810849311e-01,-1.215504396195314779e-01,1.131212234497070312e+00
3.625375083697920942e-01,-4.721755974863007799e-01,3.658042913670837559e-01,-2.595267810935603017e-03,-1.504064407347728300e-03,4.062006036719095054e-04,8.363677263259887695e-01
3.446651494316844699e-01,-4.693843463707559893e-01,3.672070671979256740e-01,6.754842132739168233e-03,-2.162313406427071160e-03,9.491188559639911898e-03,8.258063197135925293e-01
3.701753319709023549e-01,-4.695877725864145980e-01,3.661711273079119033e-01,1.250377986485665940e-04,6.652246658219878456e-03,1.319191997945493760e-03,8.378505706787109375e-01
3.649328518784024644e-01,-4.650348203046494877e-01,3.703507181019251582e-01,-2.816450435335763822e-03,8.161165941007839097e-03,-2.396792965715161504e-03,8.328344225883483887e-01
3.463167489166621427e-01,-4.693913444634125742e-01,3.629034751558947725e-01,7.357673109075486828e-03,-2.798557682150030167e-03,8.415883224996475315e-03,8.243682980537414551e-01
3.480176957770535484e-01,-4.015106794302569782e-01,3.622190410351863732e-01,-5.517674755000715782e-03,1.217698742120854744e-02,-5.026466444923368380e-03,7.571332454681396484e-01
3.644362353225370499e-01,-4.735617479286740039e-01,3.640390607616935115e-01,1.905736752337376530e-03,-3.473107699485823013e-04,3.186789164351837463e-03,8.378243446350097656e-01
3.682797896881266908e-01,-4.538296212797697793e-01,3.636031722825797119e-01,-4.538118411665095948e-03,6.481282290892138170e-03,-3.818617525767848374e-03,8.199223279953002930e-01
3.758926202255155058e-01,-4.647918279193644642e-01,3.286941372928507965e-01,4.381841856175020672e-03,3.380676031681790865e-03,8.067192159652580158e-03,8.182824254035949707e-01
4.590062565622299307e-01,-4.559007084380379826e-01,1.922036725822356407e-01,3.724043653682141547e-02,7.390417642786384356e-02,3.730169573998287462e-03,8.274821043014526367e-01
3.607863890034224141e-01,-4.661940833288144015e-01,3.631565227320729394e-01,1.185985056021364274e-03,1.680765706073852027e-03,3.278468278034080228e-03,8.281952142715454102e-01
4.849076711952547969e-01,-3.331603891633069248e-01,1.267670569784099255e-01,-3.706642679987471461e-02,-6.709021490491152984e-02,5.442220382210347790e-02,7.287160158157348633e-01
3.727842034601276944e-01,-4.557152053121246160e-01,3.507117365235266071e-01,-4.799441719673340663e-03,-5.610629949772082820e-03,4.435716994488297406e-03,8.178226947784423828e-01
3.693534217773129513e-01,-4.630962003022315310e-01,3.652311452829891114e-01,-3.295652026289365259e-03,2.511546311224065967e-03,3.073930325270313180e-03,8.304442167282104492e-01
3.457519363413077973e-01,-4.659517451897398077e-01,3.792119008599406649e-01,1.437827568805256223e-02,-3.825908467384937436e-03,6.298132521273138926e-03,8.294125199317932129e-01
2.544883782676855000e-01,-9.310271137502441618e-01,6.003575498047364345e-01,4.041237254671943557e-02,2.285011748625684347e-01,-7.428834785375379793e-03,1.448036313056945801e+00
3.968776766025777225e-01,-4.364738030291490656e-01,3.419867871764258327e-01,3.620912390382681478e-02,-3.807922452865553087e-02,4.623552047054740877e-02,8.163582682609558105e-01
3.347207627035596045e-01,-1.530438600515275360e-01,2.876597108992304253e-01,4.049213687027314323e-02,-5.100538324560181802e-02,8.798280073578286509e-02,5.031110644340515137e-01
3.165512546248303583e-01,-4.437877770483266149e-01,3.327970013562796536e-01,2.859907399687751286e-04,1.059791231902645556e-02,-2.662946360372990366e-03,7.688238620758056641e-01
2.552022760920456546e-01,-4.643792954134824402e-01,3.996311925549443922e-01,8.400903139338489894e-03,8.851494968439375249e-03,-1.139792179720645372e-02,8.021360635757446289e-01
3.292956902566917532e-01,-2.426203023354379651e-01,3.434516941700107018e-01,9.936977312808877374e-03,-2.465143787891846752e-03,8.337489947239276611e-02,5.971205234527587891e-01
3.920831037196277347e-01,-3.491271820415228766e-01,3.960289558851833869e-01,-1.503126712631274939e-02,3.340775806147058824e-02,5.216695341019860627e-02,7.513476014137268066e-01
4.775436397347824768e-01,-4.740561469409895201e-01,3.160866029851679970e-01,-4.439080024868702345e-03,-3.007436961709680778e-02,3.159325082397487772e-02,8.852880597114562988e-01
3.522220187927468382e-01,-4.600271282174762666e-01,3.352649884508575040e-01,-9.105069336961169393e-03,2.761255085300665622e-03,4.511671969690087859e-03,8.041116595268249512e-01
3.672408690551332566e-01,-4.679337263156490012e-01,3.454707817417730364e-01,-9.316099192546906799e-03,3.164014039638726045e-03,6.993513986829653396e-03,8.247701525688171387e-01
3.743701485155573883e-01,-4.666040584684347792e-01,3.336855094309379988e-01,-7.190580948046328309e-03,1.036643709681622349e-03,-4.822436875005382644e-03,8.215267658233642578e-01
3.753107618970926707e-01,-4.635136301119389124e-01,3.074630892657788106e-01,-1.102006724864944276e-02,1.064383318217258616e-02,1.419563738503976970e-02,8.078528046607971191e-01
3.830887728945577830e-01,-4.746704338500031817e-01,2.990744540858861766e-01,1.785737724115740808e-03,-7.650942666654279856e-02,-8.395945998294204390e-03,8.297754526138305664e-01
3.903751811815626138e-01,-4.546839263426669664e-01,2.726998075866343130e-01,-1.219285130331197384e-02,-6.080617937760411651e-02,-8.629319063802789319e-03,8.001820445060729980e-01
3.802140583216236380e-01,-4.752320066546216193e-01,3.028758747333422097e-01,-1.224562995608701084e-02,1.005579861165171174e-01,-3.632568416005326623e-02,8.404491543769836426e-01
3.891351719217211458e-01,-4.582004619604689299e-01,2.966458435941442540e-01,-9.346688017254623643e-03,5.968478758237144230e-03,-6.542125374774058338e-03,8.053941726684570312e-01
3.676644127632159864e-01,-4.556211670417152915e-01,3.728074771814462451e-01,-5.033902886772825130e-03,-1.329422879765607135e-02,-7.913603244427285660e-03,8.263497352600097656e-01
3.710897846840003345e-01,-4.453088372317863808e-01,2.685369826022728779e-01,-1.921796315604231472e-03,-1.523723340739838172e-02,-2.174930917565705973e-03,7.707279920578002930e-01
3.908319806943541530e-01,-4.547506774390015494e-01,2.959330924133561358e-01,-6.514143917331734895e-03,5.056639804015669939e-03,-7.626582576170247603e-03,8.025892376899719238e-01
2.694639935902485850e-01,-4.547549021235475220e-01,3.725878063766113191e-01,-1.611540152881428545e-02,6.515879546139895229e-02,8.454498236960483748e-03,7.896469235420227051e-01
3.850756039125450836e-01,-4.677318163467949486e-01,3.224493732773832111e-01,1.053135459221972436e-02,-2.571360317488390577e-03,-6.931654287155857019e-03,8.235843181610107422e-01
3.641974926815537694e-01,-4.626606517910494265e-01,3.752585654687100036e-01,1.471556123526793994e-03,-2.566449383651999653e-03,-1.774174446802491379e-03,8.324652314186096191e-01
3.666830982657728888e-01,-4.707133722303763479e-01,3.656562867351988433e-01,-4.997656844543435679e-03,-2.642300400084464027e-03,-5.538548647513058705e-03,8.369957804679870605e-01
3.645700726540010428e-01,-4.268046444122075567e-01,3.611899817932365808e-01,-6.000228372092729703e-03,-1.463372319423043681e-03,-9.371917403908826966e-03,7.899293303489685059e-01
3.524087064103497147e-01,-4.530532046843213090e-01,3.076685992447353302e-01,-9.946441857911639609e-03,1.124529431410667760e-02,7.330850542834511799e-04,7.844819426536560059e-01
3.619499152023443189e-01,-4.616234230743285760e-01,3.739332955949003501e-01,7.532728711493187103e-03,-4.965834342491641518e-03,-7.956593990833669972e-03,8.298915624618530273e-01
3.398385471844292405e-01,-3.343479809775772305e-01,3.548991442055717815e-01,4.768114165145010026e-03,-4.710175160756334932e-03,-4.520846988592481380e-02,6.864212751388549805e-01
3.651666991911707294e-01,-4.657252406214505980e-01,3.709081377126441925e-01,-9.032219404649298412e-04,-8.662363437529562241e-03,3.046466485629641379e-03,8.339306116104125977e-01
3.617040731869154424e-01,-4.502180121523869927e-01,3.444596032651516260e-01,-5.064062760702823900e-03,1.606029943856914985e-02,1.278279806973049021e-02,8.042727112770080566e-01
3.682926014329154785e-01,-4.567854472987629144e-01,3.669233307121448351e-01,-6.689380114127454861e-03,-4.128866566869630363e-03,6.554113604025304900e-03,8.245848417282104492e-01
3.786664030452616125e-01,-4.702192020475195466e-01,3.457960692957621207e-01,-5.239032429719774325e-04,2.336870545925592065e-04,-1.081593603651162007e-02,8.331482410430908203e-01
3.520555146139009439e-01,-4.137300251085358482e-01,3.722552783713814484e-01,-2.491734530366050346e-03,-1.224173205186878180e-02,-2.099924241904778041e-02,7.772356867790222168e-01
3.756545372067378596e-01,-4.640587140784683262e-01,3.610425686328749828e-01,7.889348050258891904e-04,7.496457939060068628e-04,1.249726300240379916e-02,8.327869176864624023e-01
2.150249239812395130e-01,-4.746033670778952995e-01,4.519580256667621865e-01,9.979509812264798947e-04,-1.121205591568515125e-02,-4.477902786601569221e-03,8.340027332305908203e-01
3.606439990228768600e-01,-4.583733555109872349e-01,3.703603700946244137e-01,3.427695623550498262e-03,-2.512203004941467336e-04,-2.931709165640423043e-03,8.239556550979614258e-01
3.918392028282754458e-01,-2.690208966937393531e-01,2.310630856185960647e-01,-3.423143044197477641e-02,9.645223896129864749e-02,-6.253523925648178661e-02,6.320529580116271973e-01
3.487483092987686550e-01,-3.943369777976012402e-01,3.648980338396199397e-01,9.118789018881587674e-03,8.706690888727466188e-03,1.358947783554752438e-02,7.519761323928833008e-01
3.823198111915880881e-01,-4.791978196447629346e-01,3.542019731941210559e-01,8.343475549903519792e-03,1.567544830004350895e-02,-1.673779568947074761e-02,8.488613963127136230e-01
3.719232177075373347e-01,-4.616109077546405315e-01,3.196224609779187986e-01,-9.524181337849827594e-03,2.311107605277150367e-02,3.849867468489527426e-03,8.098388910293579102e-01
3.662681586835207503e-01,-4.635603440427067401e-01,3.621928994947498093e-01,-4.046669028041770429e-03,1.710496332784694484e-03,1.242907290583990763e-02,8.281132578849792480e-01
3.791620737718396361e-01,-5.424388487144067295e-01,3.419605648995190927e-01,1.889820773150708427e-02,1.198636626252516935e-01,-4.254288329713296068e-02,9.306182265281677246e-01
3.458399921191127602e-01,-4.653629378137937866e-01,3.764120659480326148e-01,4.341493207324058183e-03,-1.888532507835699332e-03,-2.705288838887947959e-03,8.269668817520141602e-01
3.830980843960323790e-01,-4.656507438763182183e-01,3.183670125876654211e-01,-1.483832130883286663e-03,-9.853544136557950816e-04,9.232098526821139878e-03,8.184677362442016602e-01
3.445886719973029755e-01,-4.489501307800383145e-01,3.664125770169936458e-01,2.987252800688192534e-03,-6.644832097870591444e-04,3.145796943524631871e-03,8.047086596488952637e-01
4.349212854708467968e-01,-4.552182293516606748e-01,1.930190404239418567e-01,-1.702820079723725956e-03,2.240796335435557129e-03,-2.625176663485657372e-03,7.972344160079956055e-01
3.752617726816118160e-01,-4.574382463270902921e-01,3.596705024158316499e-01,2.060031319646577364e-03,-6.049185028612588319e-03,4.206985606489653529e-04,8.250894546508789062e-01
3.567485302849073836e-01,-4.555416493646049503e-01,3.164110980413419316e-01,-8.998876344120504064e-03,1.022551627075200462e-02,-1.489885322000806265e-03,7.932465076446533203e-01
3.893287350276400938e-01,-5.555713469508389846e-01,2.890423604728492579e-01,1.708260885587961631e-02,-1.483041829402152179e-01,-6.210899231381201285e-03,9.354712367057800293e-01
4.048020350903684950e-01,-4.665580208418621533e-01,2.660570112611621019e-01,-1.422279296356844915e-03,6.477180441280930984e-03,7.225470166034082646e-03,8.111166357994079590e-01
3.722384806007136282e-01,-4.555438080246528854e-01,3.624028113624490621e-01,7.806923522057596272e-03,-4.525712879431233009e-03,4.981750181956963669e-05,8.230569362640380859e-01
3.607374952821484904e-01,-4.539754022509481235e-01,3.749912214388985143e-01,-1.313938876665653220e-03,5.477967413505896443e-03,7.478967186986111917e-03,8.220924139022827148e-01
3.613449390880104639e-01,-4.648042343260090359e-01,3.660688553292774650e-01,-2.159476860537403939e-03,-1.298578231722708832e-03,8.436673443399274330e-03,8.286615610122680664e-01
3.829036801059144124e-01,-4.698670812016070286e-01,3.187822384843094214e-01,-6.150179680269911124e-03,-2.849278728209775693e-03,-1.025261973748584771e-02,8.228619694709777832e-01
5.141438799985160735e-01,-3.781565322470078483e-01,2.657492593388530167e-01,-3.436867810425450406e-04,-1.285270327693908698e-01,-8.282615054060998849e-02,8.404735326766967773e-01
3.755415279759041214e-01,-4.651609128412400596e-01,3.362937348643210145e-01,-4.281106038816328424e-03,-2.442383994194596147e-02,-9.636642942838398451e-04,8.229050040245056152e-01
3.666092385993537373e-01,-4.691991794909828872e-01,3.663832865010972495e-01,5.512295902144250317e-03,-1.398611647340460007e-03,1.053235532439273899e-03,8.357555270195007324e-01
2.248596722229696254e-01,-4.705504641325906068e-01,4.452699531712946412e-01,1.576969866237843548e-02,8.932962058532507854e-03,-7.829227798144690331e-03,8.286258578300476074e-01
9.390702466893496858e-02,-6.810822794922057888e-01,6.040469527018522689e-01,1.047413971687732315e-01,-7.231003486054751739e-02,4.818288719253082525e-02,1.145324110984802246e+00
1.974925916988872765e-01,-5.145351547619677612e-01,4.726709697202222116e-01,-1.353558872442655638e-02,5.782429967556473871e-02,-3.223103688017941310e-02,8.901339173316955566e-01
2.506289571103931246e-01,-4.470028516652539974e-01,3.801703930933849618e-01,2.278338496243302396e-04,-3.309777320634407077e-02,-6.512615307742404720e-03,7.728241086006164551e-01
5.079327638070404438e-01,-5.912198734535351052e-01,1.028822784614414343e-01,2.716835434045540565e-02,1.729942314940618731e-01,-2.140487539450440860e-02,1.010128736495971680e+00
8.512363299164085739e-02,-5.488460839945086267e-01,5.500730732149929914e-01,5.888439305118258436e-03,-2.604314737903967465e-03,2.102158742338531075e-02,9.561953544616699219e-01
3.550893361546499927e-01,-4.077800518595509072e-01,3.395796866891528376e-01,1.675689490122645592e-02,-3.692308445917977244e-02,-1.597374938118345522e-02,7.589968442916870117e-01
3.337149904530453681e-01,-4.533087491700730221e-01,3.405528126688011636e-01,-1.847302660895399436e-04,-5.767061298365776939e-03,-4.142465642042750251e-03,7.905605435371398926e-01
1.165589280318806292e-01,-5.400255787829498777e-01,5.258394579964295046e-01,2.891646251436972431e-02,8.257052784409525670e-02,1.785815491361133350e-02,9.440656304359436035e-01
3.826977305290941711e-01,-1.513242272257516730e-01,1.958692542095545608e-01,-7.096529532478433600e-03,5.172428784511412525e-02,-6.454043798654179875e-02,4.909047782421112061e-01
3.272548419029547295e-01,-2.190462880068794194e-01,2.613416358773556492e-01,-3.784370044747110105e-03,1.141712481814149138e-01,-2.216395494300734542e-02,5.544393062591552734e-01
4.226343246201855197e-01,-4.590961278419674052e-01,2.502632631935611252e-01,7.148509371744023741e-04,3.617745263665282001e-04,-7.355903632967609324e-03,8.095306158065795898e-01
3.450458839722829740e-01,-4.476570549631768703e-01,3.187207769156482073e-01,5.492439716570580652e-03,3.329231990096084143e-02,-5.338292405201810163e-03,7.821151614189147949e-01
3.301398023097167900e-01,-4.475723135621784143e-01,3.328519949742011486e-01,4.803390037818376299e-03,1.363964852187613680e-02,-5.786883037681570148e-03,7.795386910438537598e-01
3.625794916195302919e-01,-4.604908797175697455e-01,3.787092156082944583e-01,7.887162037145952842e-04,-6.695828475463314576e-04,-3.296035907966261749e-03,8.312741518020629883e-01
3.613296939546754571e-01,-4.593683160815814626e-01,3.744498547201478567e-01,2.148937533717996951e-03,4.924590704965083228e-03,2.525310550577900340e-03,8.274000287055969238e-01
3.756445769382869004e-01,-4.659882376454208552e-01,3.666379975421875104e-01,4.318425163577979805e-04,-2.400749266052117168e-03,-6.232434613846998643e-03,8.372461199760437012e-01
3.881736678707934374e-01,-4.631378417063504171e-01,2.898204312052971021e-01,-2.323799656842664117e-03,-1.312883772997545245e-02,-4.805067341205079487e-03,8.070179224014282227e-01
3.411860971704885892e-01,-4.600103990666603027e-01,3.502697627593351903e-01,4.377600919720539031e-03,4.226277243201690195e-03,-4.252688589227953016e-03,8.058792948722839355e-01
3.651864241936465527e-01,-4.682397320987282674e-01,3.526572817429585172e-01,8.368513737721430118e-03,-1.590072886969368278e-03,6.929306126070340459e-03,8.274513483047485352e-01
3.368799810986133902e-01,-4.522583816671199575e-01,3.337590595980935992e-01,6.283546535384441955e-04,-1.565974565516473418e-03,-4.787771065649656195e-04,7.875884175300598145e-01
2.945179538612228698e-01,-4.460315350635528642e-01,3.466519686619894403e-01,1.208481924958448774e-03,1.618631920772563987e-02,3.301940600526227874e-03,7.684805989265441895e-01
3.562548772022734456e-01,-4.253199455606322399e-01,3.566063169551885736e-01,1.690929643499180027e-03,-5.757036744743955839e-03,6.145178813822619809e-03,7.818921208381652832e-01
3.691820588555259630e-01,-4.668105134523824473e-01,3.673512180242782810e-01,3.978984148425853719e-03,-4.581055568194273425e-03,4.819189685450394993e-03,8.351864814758300781e-01
4.591002962696426604e-01,-3.786008119650177695e-01,1.751822398414881188e-01,1.660403554914591240e-03,5.400750826844856467e-02,1.531350391988874626e-01,7.896986007690429688e-01
3.793876158632084050e-01,-4.642351303867732204e-01,3.556613055455621342e-01,-7.017129926769456738e-03,-9.651821417984995238e-03,1.028712810115269514e-02,8.324607610702514648e-01
3.620187496130872207e-01,-4.627431531169323708e-01,3.759101989370216002e-01,-2.513848152199054959e-03,1.745670049386286674e-03,1.272257136800663678e-04,8.318115472793579102e-01
3.518203391620343123e-01,-4.985268904587196737e-01,3.573979222575463521e-01,4.471734564457830949e-03,2.498100189056519371e-02,-1.132571674637544192e-02,8.545064926147460938e-01
3.588940060614361216e-01,-4.667642082183453001e-01,3.502362135484795580e-01,-9.666826217516634803e-03,-2.139460243256957692e-03,-8.468797410037422549e-03,8.216734528541564941e-01
3.985092281947034132e-01,-4.901602006155929558e-01,3.432171584358099103e-01,-2.394950240188874202e-02,-8.709616517589061774e-03,-1.352498971826456703e-02,8.638004660606384277e-01
3.682185700517093263e-01,-4.597538330757814373e-01,3.406705909005022237e-01,7.499645508818298355e-03,1.285188374031133365e-03,-5.634158529803382810e-03,8.147129416465759277e-01
3.564672107213960328e-01,-4.450606345668848274e-01,3.740998970521829947e-01,-3.194846491945258285e-03,-7.062682401779084643e-03,3.924051610509076901e-03,8.106277585029602051e-01
2.764627639945330673e-01,-4.451835305957618782e-01,3.667609910942402074e-01,1.522798098038596675e-03,-9.877350922735811389e-03,-4.868479253511572187e-03,7.710131406784057617e-01
3.803167625395797447e-01,-4.468817143758850863e-01,3.554986678882034457e-01,-1.429836832744269893e-03,1.055883919281992364e-02,-3.452900693295183916e-03,8.153036832809448242e-01
3.493485703456839508e-01,-3.876476641804193490e-01,3.679237748973407385e-01,-2.399986694678578336e-03,-8.102483645584045158e-03,1.801432179857694743e-02,7.472524046897888184e-01
4.241290299676116482e-01,-4.474795278866565695e-01,1.983892746281100961e-01,-3.807811591943378350e-03,-5.360226042563004389e-03,3.908861825215305397e-03,7.836317420005798340e-01
3.547683712330297334e-01,-4.387495699847945296e-01,3.807070585801661244e-01,-3.199801099836367853e-03,-7.019708121092605932e-03,-3.496147229977184662e-03,8.069334626197814941e-01
3.654822786757970787e-01,-4.585237993033168813e-01,3.600629182275368878e-01,5.236647771997966078e-03,-5.131169024217490521e-03,-1.516355292717699735e-03,8.214121460914611816e-01
3.610551436636584843e-01,-4.289925530727179970e-01,3.647660346762108263e-01,2.322596328712624625e-04,-9.638267928508486085e-03,4.231592804947140359e-03,7.921196222305297852e-01
3.689212607145924694e-01,-4.622247627953534055e-01,3.632600654953836439e-01,7.405608500342845220e-04,1.339270694728611488e-03,-2.013586157695399208e-03,8.283415436744689941e-01
3.648624535139994851e-01,-4.645872130317062476e-01,3.383746528701421230e-01,-9.541529710333470846e-03,-3.044577583194070861e-03,1.842604123497616287e-03,8.167185187339782715e-01
1.524588807986072270e-01,-3.040896998493583525e-01,3.771624147234048374e-01,8.620999255149557061e-02,-1.193066220030896962e-01,4.887353614582800460e-02,6.585445404052734375e-01
3.636047696804687868e-01,-4.589652028163241360e-01,3.684093909946307144e-01,6.073238427293191615e-04,7.356076220543710052e-04,6.405332361110078164e-03,8.250589966773986816e-01
3.675435511806386391e-01,-4.603388384232715014e-01,3.708336315683077311e-01,3.321541441861937567e-03,3.290326000756425839e-03,3.261595548562259798e-03,8.295910954475402832e-01
3.572594996434126369e-01,-4.364191633081513366e-01,3.784243303969970218e-01,-1.022224195769011641e-03,9.231156692444793255e-03,3.544228365215752567e-03,8.046541810035705566e-01
4.322731177963128335e-01,-4.603531310009167932e-01,1.993156679097006778e-01,4.398685498597463064e-03,-1.085007725744030135e-02,1.027389362631171352e-02,8.023931384086608887e-01
4.029650580130040849e-01,-5.522086509156109990e-01,2.742381382830731962e-01,-3.613896263668185671e-02,-9.993388874920125509e-02,-4.570818296786351154e-02,9.198461771011352539e-01
3.617899566189206051e-01,-4.591766648103746684e-01,3.713372161228780111e-01,1.108102088657737750e-03,1.982337064540515108e-03,2.164502130998606066e-03,8.257995247840881348e-01
2.244396214170290560e-01,-3.749303013498093140e-01,3.776496735818508643e-01,1.459252180298785950e-01,1.438665695786224274e-01,-1.185968783536331811e-01,8.016970157623291016e-01
5.163510710050520647e-01,-5.130682205681063035e-01,1.585134836044181650e-02,7.733907468618890155e-03,1.300962249304926655e-01,-4.600830714414469447e-02,9.231927394866943359e-01
3.554166655274819675e-01,-4.424909025530893159e-01,3.779356793751530996e-01,6.404965431664157638e-04,3.146727547436807895e-03,-7.747990896155827235e-03,8.095324039459228516e-01
3.657170204195144825e-01,-4.751675654234414070e-01,3.660172515844968832e-01,-2.779397413981047433e-04,2.722650525770312774e-03,-2.363456401433806876e-04,8.410481810569763184e-01
4.742429153915574402e-01,-5.230506613716386921e-01,3.147620785615444783e-01,-4.596482349380480448e-02,-2.074933263130245842e-01,-5.934585164190651213e-02,1.003515839576721191e+00
3.606867839805050768e-01,-4.589645195245983800e-01,3.799947309177750809e-01,2.148110984137614234e-03,1.673054716275142271e-03,2.519043179521191205e-03,8.294987082481384277e-01
3.683957936426196511e-01,-4.658850768563971290e-01,3.673159020848781875e-01,2.090040709755119300e-03,1.481542731085172624e-03,-4.811848374503525060e-03,8.337948918342590332e-01
3.495230151480614444e-01,-3.812541086652715405e-01,3.683686920824385536e-01,1.062385875472221302e-03,-6.242403358364219043e-03,-2.149270713616297304e-02,7.413963079452514648e-01
3.589896511479562236e-01,-4.551008692563975888e-01,3.819240166403890524e-01,-5.897932672411781031e-04,1.889520726699487696e-04,2.199780750339565792e-03,8.258060812950134277e-01
5.281046902134882703e-01,-4.377767802931335495e-01,2.959162983599100682e-02,5.913315967846256849e-02,-2.310900157085581108e-02,-2.493340965337882340e-02,8.449230790138244629e-01
4.200010956544306118e-01,-4.564921667812393835e-01,2.251312712502942515e-01,8.692399314613494937e-03,-2.696795171339763219e-03,-2.185092993161802388e-03,7.972925305366516113e-01
4.098258560542831774e-01,-4.581589040207256769e-01,1.980651851506382566e-01,7.335443352355867225e-03,-1.158546521594371395e-02,2.097505765467157918e-02,7.850598692893981934e-01
4.089525944005607538e-01,-4.769064062510599555e-01,1.340454291669803677e-01,3.667157148297468111e-02,1.929462275979540453e-01,-6.673206665443155716e-02,8.636375069618225098e-01
3.617884770543052797e-01,-4.636725250533572096e-01,3.768234294318696942e-01,-6.226492631663910985e-04,3.132175998988227274e-03,-2.093272754067956702e-03,8.331065177917480469e-01
3.752573705605132814e-01,-4.663151187129934705e-01,3.648936817527128618e-01,4.176797940056058492e-03,-1.198880377013428764e-03,-6.345137356475594528e-03,8.365448713302612305e-01
3.900761211879055224e-01,-4.681974064152188975e-01,3.183068562450527272e-01,-1.618956908845138858e-03,-1.426809172637135293e-03,-9.409188854752255707e-03,8.249037265777587891e-01
3.594188238255149326e-01,-4.606400784308670726e-01,3.785840114939419965e-01,-1.743246919834384116e-04,4.296725526434363052e-04,-2.653365242185574523e-03,8.298206329345703125e-01
3.635760626715407451e-01,-4.235881572502351311e-01,3.621986477222071676e-01,9.932887754742320344e-03,1.569596721276449863e-02,-9.995863699283871924e-04,7.871360778808593750e-01
3.368490387343410220e-01,-2.927171670695937200e-01,3.507503988179893062e-01,1.761261189163603608e-02,-5.633156502174824221e-02,5.901446851173590413e-02,6.528377532958984375e-01
3.656690770311430971e-01,-4.668369577916547941e-01,3.662275401917667872e-01,-1.271796612634643704e-03,-1.634982943334140505e-03,-6.357195887139627764e-03,8.328659534454345703e-01
3.651747543016121700e-01,-4.600660971606229666e-01,3.797610440019841271e-01,1.921186288640132052e-03,2.650422565258314482e-03,-3.060049439671497576e-03,8.326659798622131348e-01
3.550150979529521633e-01,-3.634443688782411641e-01,3.549630721414165357e-01,-1.305727884046926392e-03,2.031265208028869949e-05,3.864344322796752634e-02,7.215481400489807129e-01
3.727250599805098097e-01,-4.685672390342496829e-01,3.587405530591279978e-01,5.674050866300657005e-03,8.199169542614009992e-06,-6.129819402118751384e-03,8.345133662223815918e-01
2.732456596058688847e-01,-4.501524175659790128e-01,3.423714434919423732e-01,9.495359701182950335e-03,6.573138316305147943e-02,-9.477098410537980119e-03,7.691491246223449707e-01
3.473409228891252698e-01,-4.234260331307020397e-01,3.812378884736441487e-01,-2.001340952204025316e-04,4.651407374518102059e-03,1.320142428434232726e-02,7.886350154876708984e-01
3.633242720884503618e-01,-4.705688941765432398e-01,3.635197759440864651e-01,-1.781900467037095736e-03,7.401870931804421013e-04,-8.875602865635380014e-04,8.339990377426147461e-01
3.671924797738453372e-01,-4.733443993253667603e-01,3.609064350327015336e-01,-2.863816169881889737e-03,2.635191443936366670e-03,-4.164344206325970577e-03,8.374697566032409668e-01
2.333738644043089616e-01,-2.785582052482221127e-01,3.624928651568901650e-01,2.834165670745609350e-02,-1.040281357164158094e-01,4.410951765741904368e-02,6.209336519241333008e-01
3.729072367073021366e-01,-4.606124371510752491e-01,3.637593826667701591e-01,4.349596015329885643e-03,-4.727177350587107247e-04,1.639572195407497206e-03,8.290231227874755859e-01
3.741013636503003337e-01,-4.063754221870015115e-01,3.415795758453735176e-01,-6.037151399740755403e-03,-4.830790300003648396e-03,3.780655828556251773e-03,7.648800015449523926e-01
3.393169449037782837e-01,-4.436993858518464284e-01,3.835225961083878476e-01,2.020434221613614731e-02,1.716760727993698124e-02,3.617913875788596537e-03,8.073602318763732910e-01
3.658706798744782995e-01,-4.751336568857841280e-01,3.723942774910061759e-01,-2.963230646348037015e-03,2.443973096541768829e-03,5.450320035278731793e-04,8.443117737770080566e-01
3.706372913731578733e-01,-3.850194651573998206e-01,3.398506769525397875e-01,-1.600258416625501001e-02,5.175074257139202286e-03,-2.646637284685005465e-03,7.413302063941955566e-01
4.006038879423731713e-01,-4.466109005559666389e-01,2.398793455531028906e-01,-1.640156437776690802e-03,-1.189911831161129252e-02,9.986570936616817259e-04,7.796620130538940430e-01
3.700799441054454797e-01,-3.786458294921036805e-01,3.450704070300630311e-01,-1.701897611177776229e-02,-1.173345385798205565e-03,1.117131149345699159e-03,7.371345162391662598e-01
3.355619936328441133e-01,-4.611360186172369646e-01,3.522057373692999982e-01,-9.108325717589163886e-03,-3.832926614392630910e-03,-9.952551540560936744e-03,8.055152893066406250e-01
4.132362474862273927e-01,-4.585013895042665544e-01,2.405825836939573803e-01,1.046938552987263047e-03,-1.002893460095639552e-02,-4.579038122607258666e-04,7.997078895568847656e-01
3.827838162477583128e-01,-4.567381447820531015e-01,3.582344810121576573e-01,-8.167370344985051128e-03,1.364975198927658243e-03,-1.643471705304406106e-03,8.276495933532714844e-01
3.503108387936053059e-01,-4.642719752646329301e-01,3.455070930064514378e-01,-1.040553738277924870e-02,-5.739353252198532013e-03,-9.518353311346766958e-04,8.124540448188781738e-01
3.629339075471815224e-01,-4.644520679533701291e-01,3.677214898520573816e-01,-1.566591801456072852e-02,1.743360273910205070e-03,-1.084248662769853435e-03,8.302412629127502441e-01
5.054382510777666315e-01,-1.491027978943750831e-01,2.712618102677591403e-01,2.359091324416941540e-02,-9.258594736599211339e-02,6.545160699413356264e-02,6.084589362144470215e-01
3.669526991036715646e-01,-4.636200403183354801e-01,3.379495916778705311e-01,-7.859582106235083604e-03,-2.563724025617422977e-03,1.985864735705891553e-03,8.165904283523559570e-01
3.786120802566487198e-01,-4.640828501361795588e-01,3.651703452179859699e-01,-3.142320744228530895e-03,2.900769897289364428e-03,2.683526953682769788e-03,8.361008167266845703e-01
3.714204632992088584e-01,-4.746889260212735495e-01,3.648911665868206922e-01,2.418966729580326967e-03,2.135702097287816431e-03,-4.394944783800996567e-04,8.428825736045837402e-01
3.475863800203013998e-01,-1.775773293969616917e-01,5.215270330983263758e-01,-8.004526611871603387e-03,-6.910250214890276133e-02,5.744051628964490751e-03,6.418849229812622070e-01
3.457603405992871193e-01,-4.557887300945265840e-01,3.234759657880737493e-01,-1.079526334988095172e-02,6.610852566686540102e-03,-6.439725226140298854e-04,7.909471988677978516e-01
3.753226415165956675e-01,-4.256258334844371660e-01,3.533867989079687022e-01,-8.325629704360400923e-03,-6.541924259900935151e-03,3.247412100049482889e-03,7.904417514801025391e-01
3.407944335734535146e-01,-4.578455222075726860e-01,3.694771118365797191e-01,5.944819921537699940e-03,-1.186426004995184578e-03,-3.823117791640071646e-03,8.134554028511047363e-01
3.820833644008029828e-01,-4.516533001950260307e-01,3.708880027006633551e-01,1.386731902320258430e-03,-6.244545126912591504e-02,5.513494383138482779e-02,8.406734466552734375e-01
4.196443356311762574e-01,-4.543984449232406631e-01,2.248849296498807437e-01,-1.252806646341587645e-03,-2.267096544282056619e-03,-2.233418763546339472e-03,7.947886586189270020e-01
3.696058555645825860e-01,-4.572421625253433319e-01,2.913697332255948402e-01,-1.056337312074304320e-02,-8.184558407747729442e-03,1.858774731464540083e-03,7.909837365150451660e-01
3.820510570996628052e-01,-4.583834338930972141e-01,3.572983532371482029e-01,-6.503736223692149418e-03,4.680645242564797880e-03,-1.556909393176529729e-03,8.284562230110168457e-01
3.764736657644472961e-01,-4.487075562650473248e-01,3.594585168013634813e-01,-7.142886067994826116e-03,5.192986924649409253e-03,-2.955638233425460942e-04,8.169499635696411133e-01
3.777043971870657768e-01,-4.602112540549053721e-01,3.609361146238574403e-01,-1.721760854859247757e-03,5.113842130179370275e-03,1.249409680050595417e-03,8.297140598297119141e-01
3.802909452111751243e-01,-4.636112774086144084e-01,3.597288768042181117e-01,-3.948698183876562032e-03,1.380403815568125719e-03,2.127289793426648690e-03,8.338509798049926758e-01
3.411146516544896756e-01,-4.641612510251625912e-01,3.770759664316162829e-01,8.143185723498373024e-03,-1.548673319810827537e-03,3.841491823685567499e-03,8.239973783493041992e-01
3.273271379879448828e-01,-4.663120738803617771e-01,3.833817347757190186e-01,-5.044503632542004547e-03,1.839426618643931347e-04,5.703793751002332775e-03,8.232049942016601562e-01
3.205134853550259955e-01,-4.561431695743117798e-01,3.555247507288885056e-01,1.233714139640204686e-03,-9.840258496041537004e-03,-8.273165115015418056e-03,7.950556278228759766e-01
3.694864207138393031e-01,-4.527734446312186023e-01,2.857244386791112367e-01,1.518916963802084729e-03,-1.124272097278573856e-02,-1.207584225844217504e-03,7.839921712875366211e-01
3.337057726405781022e-01,-4.442622417532149370e-01,3.256969678635124321e-01,2.477333278278897287e-03,-2.609594881130512974e-03,4.211977619666495520e-04,7.740201354026794434e-01
3.794543550741765192e-01,-4.608576500054930580e-01,3.629546768614655416e-01,-3.586918361119737549e-03,7.510068104034694006e-04,-1.058681204090950855e-03,8.322110772132873535e-01
3.976345105766614929e-01,-4.541948094235347400e-01,2.569707326857135765e-01,9.677149451731524923e-03,-9.493777965027757476e-03,-1.076085267012614989e-03,7.912855148315429688e-01
3.681938054563495544e-01,-4.523191104793732320e-01,3.686059638571573260e-01,5.173978034237874772e-03,-1.218805085737056926e-02,-8.105159175983584277e-03,8.211594223976135254e-01
3.161184161944620707e-01,-1.707610454965658997e-01,3.155999985953675813e-01,1.703403393640821883e-02,-1.142703042628603373e-02,-2.255286124371841394e-02,4.894768297672271729e-01
3.628124107789600372e-01,-4.713560233863250959e-01,3.663460194849425533e-01,-6.709754732562988200e-04,8.058736637674029403e-04,5.925415799452538740e-03,8.360058069229125977e-01
3.661952665550091135e-01,-1.268496717287170283e-01,2.808316747335220520e-01,-6.235508276118512452e-03,-4.359043509623367757e-02,-9.687141868671103606e-02,4.922005832195281982e-01
3.648348352037468212e-01,-4.684500065459958895e-01,3.765322738233803368e-01,8.556667584760579374e-04,1.371892101324176036e-03,-1.949935953352349618e-03,8.392061591148376465e-01
2.317105098305161925e-01,-5.970448777874177715e-01,4.453096326240820191e-01,-1.318333628695695925e-01,-1.240336024784990665e-01,-4.434143005949001126e-02,1.006813287734985352e+00
3.231766245040683105e-01,-6.442479038450094064e-02,3.935134419922148297e-01,-9.948263314026525861e-03,2.646456377904943258e-02,4.983906082501323581e-02,4.385140836238861084e-01
3.669565711071916536e-01,-4.736279595422711042e-01,3.661694684540831579e-01,1.174644815042456781e-03,4.167597090147072414e-03,7.057142903942646239e-05,8.402247428894042969e-01
3.640454709855614479e-01,-4.657572727592138584e-01,3.426781712903809174e-01,9.825047088722683661e-03,-1.009666814696240367e-03,-3.091637304381984405e-03,8.195241689682006836e-01
3.647545103064400718e-01,-4.657823240691596478e-01,3.680326723547340251e-01,-5.364348432286674025e-03,-2.423229265906226993e-03,-6.250749530970971073e-03,8.323136568069458008e-01
3.669614780258169673e-01,-4.674265024163931637e-01,3.593302086876214441e-01,3.175262309786719157e-03,-4.704080963217143439e-04,-6.030030030429365216e-03,8.306829333305358887e-01
3.320054458103535167e-01,-2.503222002243077893e-01,3.958281939833243612e-01,-3.823466440181001735e-02,-4.345645902899933355e-02,2.533198302195995358e-02,6.263551712036132812e-01
3.654976873503639201e-01,-4.670402662890807965e-01,3.654578460728029055e-01,-1.693328328461683871e-03,5.283896774350367413e-03,-1.174128086044073319e-03,8.325759768486022949e-01
3.642116855363544126e-01,-4.708228112664740728e-01,3.634605313030654372e-01,5.279951791728422147e-03,1.744326760975897350e-03,-8.993780227355205456e-04,8.347162008285522461e-01
3.373688989523708770e-01,-3.453361991515483953e-01,3.598796809937359065e-01,9.041075997218605415e-03,6.874768529884500712e-03,-1.742973279900090350e-02,6.951687335968017578e-01
3.704559663355716514e-01,-4.750124912147719591e-01,3.657932881171416239e-01,1.572098536396754776e-03,1.568931144817488268e-03,1.977477828765754862e-03,8.431625366210937500e-01
3.867197088220475365e-01,-2.511817313222722281e-01,3.247850018580107911e-01,1.004658256496064259e-02,2.217473380884463913e-02,-3.767478970527227133e-02,6.142328977584838867e-01
3.416495015896853227e-01,-1.103969917264190914e-01,3.510082468246203957e-01,-1.168442596942132969e-02,-1.164259625097519707e-03,-5.527892432550143148e-02,4.671671390533447266e-01
3.632354337911699593e-01,-4.731184389607977492e-01,3.638367756002894304e-01,-2.542431286969787287e-03,-7.495233991881432474e-04,-4.680499609324558982e-03,8.367065787315368652e-01
3.643502170827923048e-01,-4.678184505335921672e-01,3.615650760457814750e-01,-5.071550436902340885e-03,7.449411138272571311e-04,1.996281577889834867e-03,8.308342099189758301e-01
3.647888425749693520e-01,-4.718383928624459989e-01,3.569965908879695893e-01,-4.096050838658240462e-03,9.065683802023957825e-04,-2.201655464355157361e-04,8.327902555465698242e-01
3.658335554263401068e-01,-4.695630868581593953e-01,3.616312410296347313e-01,-5.185674365573144165e-03,7.086290223786032103e-04,2.039964835580180148e-03,8.333602547645568848e-01
4.995093286480009054e-01,-6.674726218557742730e-01,2.835896891709629442e-01,-9.628625824954852030e-02,-2.504716182637390376e-01,-1.522534657927763768e-01,1.200857400894165039e+00
3.661828511182290691e-01,-4.703131755495258970e-01,3.652420463284706820e-01,-4.432239510828931382e-03,1.933842142118357733e-03,-2.164234871744259801e-03,8.360763788223266602e-01
3.440917402328532715e-01,-4.682411863317568201e-01,3.671674152713719774e-01,-8.059238315680162384e-03,-2.100269744320850708e-03,-8.627287989673099525e-03,8.243747949600219727e-01
2.752798597310137652e-01,-4.540480935424846543e-01,3.796979426769711563e-01,1.013501068644424158e-02,-4.713973391628693832e-02,1.178188788525552470e-02,7.914344668388366699e-01
3.264849206384131119e-01,-5.522684224069946968e-01,4.211094460977504728e-01,2.330971999214273647e-03,-7.484174068639007360e-02,3.264349865085152107e-03,9.387038946151733398e-01
3.007219397674214534e-01,-4.551674990886312999e-01,3.844678471130350550e-01,1.131071469399387922e-02,-1.175731090129832346e-01,-3.688441248690134226e-03,8.267888426780700684e-01
2.401687858011783694e-01,-4.060119424704946023e-01,3.805601698509358255e-01,-9.885467776322802436e-02,-1.496592091675237879e-01,-1.069393882807269935e-01,8.116624951362609863e-01
3.467355493468212146e-01,-4.609058346597298961e-01,3.514506083746047338e-01,-7.343520309707646763e-03,-7.764476752372037258e-03,-1.005448148663013949e-02,8.104078173637390137e-01
3.894056879411743610e-01,-6.022998908330349233e-01,3.218893301360485903e-01,-1.428135416813858249e-02,-2.651674067981317773e-01,-2.903698843525709741e-02,1.065441012382507324e+00
3.239204862135630636e-01,-4.433789922833240027e-01,3.287219888091805764e-01,-6.153364378096382037e-03,-1.471277888187902741e-02,2.241181312320843742e-03,7.702167034149169922e-01
3.501023885888532305e-01,-4.635636863944183617e-01,3.434098611428588743e-01,-8.724176690093579005e-04,1.972296786160808880e-03,-7.846718738361520881e-05,8.103491663932800293e-01
3.070822262427090887e-01,-4.555990009243939820e-01,3.018665548484021910e-01,2.791249515948456689e-02,-2.350735577378393337e-01,-2.989391492803924327e-02,8.651756644248962402e-01
2.667965336045821645e-01,-4.635922698559828969e-01,4.049383565216411740e-01,-3.741004017185467490e-03,-9.003547019707947713e-03,1.547506282508429986e-03,8.085422515869140625e-01
3.154997703370674422e-01,-4.509368991669215898e-01,3.493715847719697232e-01,-7.908154226315407959e-03,-3.267341373334859550e-02,-7.455102295992470894e-03,7.861870527267456055e-01
4.203681052069290769e-01,-4.632693249862137597e-01,2.349146726174931032e-01,-6.118477254613520142e-03,-2.041819333023051249e-03,-1.456842816350572070e-02,8.075246214866638184e-01
3.806608602409574105e-01,-4.327419379708631331e-01,3.455653455725709033e-01,-1.590489128872991540e-03,2.329924906112735335e-03,-4.154763129358834961e-03,7.964826822280883789e-01
3.579962443680390072e-01,-4.647563844841551273e-01,3.531622073205473722e-01,8.242483072815130762e-03,-1.687324762109007874e-03,4.529916572774874556e-03,8.205132484436035156e-01
3.678841897536511141e-01,-3.088428394163890145e-01,3.593005403031631628e-01,5.442677189034102886e-02,-1.933391225861644594e-02,4.689592842668727918e-02,6.847118139266967773e-01
3.670389085060526413e-01,-4.538697689420957415e-01,3.033704362905041974e-01,8.730217884960157423e-03,-6.436113704171303115e-03,-4.167629165039204910e-04,7.912219762802124023e-01
3.528973573460655322e-01,-4.685923623820394956e-01,3.534489699162403076e-01,2.586254854895332547e-03,-1.550154809026154431e-03,3.334831540692831126e-03,8.218025565147399902e-01
3.645454959610313628e-01,-4.729668013356594924e-01,3.655215290758911384e-01,2.835292139211257646e-03,8.618149797244175053e-04,1.639354302832988488e-03,8.380212783813476562e-01
3.636852246283583945e-01,-4.710645120389170826e-01,3.608990586275454548e-01,5.436916133231981842e-03,3.813443467140443209e-03,-1.055178277649645177e-03,8.334415555000305176e-01
3.470628915388507263e-01,-4.671492259689991045e-01,3.666578120375444949e-01,-5.656714968964105320e-03,9.351240912471555158e-04,9.471790647396591961e-03,8.244073987007141113e-01
3.659011178059052294e-01,-4.742943488366597737e-01,3.673807329767784235e-01,-2.362126551945349217e-03,-2.308089584452009072e-03,4.247120889552154221e-03,8.409878611564636230e-01
3.684699924552904959e-01,-4.468949619157632780e-01,2.849889970765337455e-01,4.190018620205872985e-03,-1.122270938443930763e-02,-1.354297524496508691e-03,7.772758007049560547e-01
3.665644307764738818e-01,-4.714803365558949411e-01,3.671368154759778180e-01,-1.176323925606062018e-04,-4.624641097965851225e-03,4.648099599526565916e-04,8.383697867393493652e-01
3.481490416873437299e-01,-4.663410556466432988e-01,3.653395369775372381e-01,-6.609778109134063079e-03,1.726972247903196464e-03,8.964226640295657259e-03,8.234513998031616211e-01
3.676873788740563920e-01,-4.747230436654505947e-01,3.674866943026962596e-01,-1.781364297612384080e-03,-5.405479891023082933e-03,4.371781002995985335e-03,8.424018025398254395e-01
3.709878419322149012e-01,-4.728280057342733045e-01,3.656877554170858136e-01,-9.830657546387843034e-05,-1.203429726396822034e-03,2.516542512343181853e-03,8.411922454833984375e-01
3.767735626555349659e-01,-4.723113408731208773e-01,3.661803875271161801e-01,-1.059578766249487944e-03,-5.385356621906626888e-03,2.726404734562782109e-03,8.439049720764160156e-01
3.643640596056718639e-01,-4.687363965628806861e-01,3.735220902798843112e-01,4.660191547816495993e-04,3.691289934305412059e-03,-1.562811615041758946e-03,8.377462029457092285e-01
3.807816531748529076e-01,-4.534341660855901734e-01,3.554279783015648619e-01,5.399408354859079259e-03,4.353864074680998189e-03,2.895022243574574272e-03,8.219354748725891113e-01
3.652718656604299063e-01,-4.757728074485001457e-01,3.675503452670952353e-01,7.655550375296957255e-04,1.472279645342275661e-03,4.325245472079713126e-04,8.421914577484130859e-01
3.648949925854745313e-01,-4.596700877270065710e-01,3.245106344073178106e-01,-1.052438804191473468e-02,1.452937208281584666e-02,2.689005856185082421e-03,8.057457804679870605e-01
2.209622390646981405e-01,-4.881639008869191887e-01,4.390307446709441064e-01,3.519935215303484494e-02,-5.682246499139355367e-02,1.425677158142237173e-02,8.479769825935363770e-01
3.470151947006516191e-01,-5.164489932307479991e-01,4.385446403277979410e-01,-1.728286786779497514e-02,-8.338994472430738547e-02,2.093131799006073789e-03,9.245276451110839844e-01
3.511910842712844261e-01,-5.124574888931681116e-01,3.970807594883776770e-01,-3.001845573781865284e-02,-5.865954466627607000e-02,7.455176277616538255e-03,8.948855400085449219e-01
3.631900945752711829e-01,-4.685762383334911574e-01,3.658962221701365092e-01,-6.193112529426421722e-03,4.088967665545598443e-03,-4.827941098441926142e-03,8.332638144493103027e-01
3.039035796421848401e-01,-4.578867859840987098e-01,3.849855774399081887e-01,-1.367860787325493599e-02,-7.695236829828948008e-03,-1.625566648754168259e-02,8.063485622406005859e-01
3.359131190450396764e-01,-4.523568218896387716e-01,3.444317309732353727e-01,-5.857356103805903521e-04,1.163358705372279870e-03,6.448608294978937748e-03,7.926455140113830566e-01
3.659548137159074899e-01,-4.765910389473844155e-01,3.656852456907248583e-01,-1.161657755355065139e-03,2.734395398321791057e-03,3.507030081370261071e-04,8.424270153045654297e-01
3.300146195187090292e-01,-4.667785274067398626e-01,3.793968818793139741e-01,6.252834469166192524e-03,-5.398222666047901123e-03,-2.064638727804967485e-03,8.227289319038391113e-01
3.561071701626321584e-01,-3.589647331385750761e-01,3.539338910653090364e-01,2.661241854114686570e-02,1.513395126450334943e-02,1.761793527335178688e-02,7.166041135787963867e-01
4.230274296477065654e-01,-8.079405467244664685e-01,3.417295548709178843e-01,7.066657702684572828e-02,3.207830685764462841e-01,-6.204336208692807358e-02,1.325538039207458496e+00
3.448574092012204328e-01,-4.639925323674298774e-01,3.474445298193330478e-01,-6.161164110832091992e-03,-1.413121738615397398e-03,-8.767355762056625165e-04,8.102220296859741211e-01
3.034174160093745520e-01,-4.639898386685222809e-01,4.062252846104733583e-01,1.677098644560616122e-02,-1.013699577683450925e-02,-1.298360775085972973e-02,8.246433734893798828e-01
3.547130821296988201e-01,-4.672227676779980854e-01,3.536775916770364958e-01,-4.024250661085511035e-03,7.953519949765897479e-04,-3.227227786273770532e-03,8.214683532714843750e-01
3.244790430502655365e-01,-3.871608603890172029e-01,3.885892774264447236e-01,3.879489935935623302e-02,1.000081632098823343e-02,-4.645217588061674452e-02,7.532950639724731445e-01
3.601505067099545765e-01,-4.330382414376182654e-01,3.658286568440249908e-01,1.279094863659599934e-03,9.041475388538718766e-03,-3.991249152915696263e-03,7.962301373481750488e-01
3.630975940636678723e-01,-4.375066225429091737e-01,3.647530208848330791e-01,3.542216573421987785e-03,1.093434109615367897e-02,-6.590663212887194061e-03,8.017616868019104004e-01
3.597676075569820608e-01,-4.395454063982597859e-01,3.653392179493140102e-01,-8.622430524057543826e-04,1.488154395405302029e-03,-5.958806748514909428e-03,8.021852374076843262e-01
3.641171807721782505e-01,-4.676035704810603821e-01,3.703504836997941196e-01,2.316004201250720929e-04,4.065572806271648340e-03,-3.360973079676944034e-03,8.349049687385559082e-01
3.634142117448624365e-01,-4.433109706683183715e-01,3.650732078910891576e-01,-3.108982268972111229e-03,8.126445699907107467e-03,-8.372898676197233769e-03,8.078267574310302734e-01
3.676125437515395111e-01,-4.689557428409246720e-01,3.725616285595785282e-01,1.392441837006394871e-03,1.137626210236762289e-02,-6.864598302067500754e-03,8.393728137016296387e-01
3.448489949238544572e-01,-4.468187540608569153e-01,3.098410434291544724e-01,3.775634034232041181e-03,-6.574868291269176518e-03,-6.355719175903226572e-04,7.748692631721496582e-01
4.404599632505816764e-01,-2.734694958178553459e-01,1.184350730318528139e-01,-1.746164076874655649e-02,-5.046909770895209590e-02,-1.065293702379015855e-01,6.527586579322814941e-01
3.577321720988012599e-01,-4.639179805944176893e-01,3.355574185004909227e-01,1.241468733628669661e-03,-1.504981021408451081e-02,-1.576579655151781178e-03,8.112165927886962891e-01
3.717137776167007690e-01,-4.577336375264001722e-01,3.417524792343534790e-01,-8.400758926362472331e-03,-1.977958893139764984e-03,-8.500914047638200716e-03,8.151500821113586426e-01
3.942045588494753616e-01,-3.934385690725382689e-01,2.870454367613452518e-01,-3.202939799174504831e-02,-1.601934191220880654e-01,-9.467810108097032828e-02,8.089603781700134277e-01
3.637239680444730450e-01,-4.699397041292850963e-01,3.661730618531183201e-01,-3.767309275562551879e-03,3.713414114755740451e-03,8.740391602665539134e-03,8.350784182548522949e-01
3.911659780977042034e-01,-4.658826970704189607e-01,3.640290018438976927e-01,2.736510716396732459e-03,-5.738631003816619877e-03,-3.104265058996578952e-02,8.455905318260192871e-01
3.609302090278970754e-01,-4.662978130470811777e-01,3.438889086813104456e-01,-9.086079751925740799e-03,-9.341443935212925820e-03,-5.122892617060465642e-03,8.191994428634643555e-01
3.050285007366776435e-01,-3.622275536686310193e-01,3.631157638343003868e-01,4.635399908141692865e-02,1.539474135604739641e-02,-3.105600139506350943e-03,7.032423615455627441e-01
3.444010658614182763e-01,-4.461202954277101451e-01,3.161430182076035988e-01,-1.524571664151482030e-03,-4.065630492029508047e-03,8.065262493637134983e-04,7.768155932426452637e-01
3.403601647340530056e-01,-2.785659197992420011e-01,2.416693746698829748e-01,-6.467297911751021533e-02,-1.093554729114055435e-01,-9.423778310682640047e-02,6.378032565116882324e-01
4.002887672858927437e-01,-4.766999215516245503e-01,3.018759292438114583e-01,6.794644245173529773e-03,-1.302524839026078865e-02,2.114140850614810996e-02,8.333520293235778809e-01
3.221083741374461962e-01,-2.668798312480114010e-01,3.453694219431530099e-01,-8.854087534110407012e-03,-1.451392740328247190e-03,4.651225817493011283e-02,6.065313816070556641e-01
3.350455388502711629e-01,-4.478890444850449626e-01,3.300168528892503117e-01,3.873623820031275172e-03,-1.238576283204669698e-02,3.857110415874560883e-03,7.807846069335937500e-01
2.390340371606991809e-01,-4.647415143924029657e-01,4.211020568218873383e-01,-1.843372899139048351e-02,2.296572596645421460e-02,5.067910441631687073e-03,8.119498491287231445e-01
3.643493577776941161e-01,-4.675760536892891173e-01,3.762800110095734230e-01,4.476514233813225739e-03,-5.797988815502785540e-03,6.901394991134701586e-04,8.380513191223144531e-01
3.522572036729770262e-01,-4.186448635524284700e-01,3.787551449804660852e-01,-2.923446896316066190e-03,-5.957971449786220045e-04,1.680534231226704991e-02,7.850435972213745117e-01
3.422128175595819943e-01,-3.359654835151948959e-01,3.577187879177882168e-01,3.997771637771769214e-03,-1.090082625256594273e-02,-2.542989770159832449e-03,6.863715648651123047e-01
3.599816195155665088e-01,-4.585501792968385004e-01,3.807294291145910115e-01,2.221647751848159456e-03,-3.322564386790410537e-03,3.963977860834256781e-03,8.291577696800231934e-01
3.604337727264409486e-01,-4.573555658451718964e-01,3.753797905434577697e-01,1.263601813390878353e-03,-6.802617639660718876e-03,3.406068580636793797e-03,8.254719376564025879e-01
3.653838683511820284e-01,-4.776482349386325099e-01,3.636219436031630781e-01,-8.319053004166915348e-06,-8.589740945492258493e-04,4.227039052647579799e-04,8.421541452407836914e-01
3.637126439709377768e-01,-4.776450684014973413e-01,3.653324567593701500e-01,-6.919413696630635682e-04,-8.325741031322527255e-04,-2.610165489944936737e-04,8.421710133552551270e-01
3.321522353964104779e-01,-4.527692606431108491e-01,3.416132432310184375e-01,5.412108868273634741e-04,-2.707395060600020255e-03,5.257305723973862074e-03,7.897614836692810059e-01
3.602423466362026372e-01,-4.648711724889194041e-01,3.486113797948965920e-01,6.984284742282369576e-03,-3.271002360832817903e-03,3.352171453432702120e-03,8.194894194602966309e-01
3.647294688765028714e-01,-4.722941180705959585e-01,3.693791721388358096e-01,2.236037354383141936e-03,-3.629907987908833657e-03,8.243970675624505493e-05,8.393905758857727051e-01
3.643196718958430780e-01,-4.719308327646418721e-01,3.720441666561700722e-01,2.279902122452116039e-03,-3.638298817356593745e-03,-1.588386178593122937e-03,8.401768207550048828e-01
3.649196464654687611e-01,-4.688371021053810983e-01,3.640966398734366005e-01,2.925142010342913958e-03,-2.420140347920362103e-03,-4.101680865163885971e-04,8.333718180656433105e-01
3.653256674060921805e-01,-4.680049228036474718e-01,3.692118355453387624e-01,4.346168011635039366e-03,-7.083181019889476376e-03,-2.074104413166136512e-03,8.354122042655944824e-01
3.715739109059841283e-01,-4.603179222967391793e-01,3.618038350656936353e-01,4.518720141899541971e-03,1.683086967334395615e-03,1.102075253311734972e-03,8.270944356918334961e-01
3.674841130874992867e-01,-4.770255962902901770e-01,3.652694626477565043e-01,1.060593384319494280e-03,1.258125544701855581e-03,1.185121432164967792e-03,8.434118628501892090e-01
3.638789440994817936e-01,-4.730766112493783870e-01,3.644375255267680025e-01,3.998216451820132272e-03,-3.066952109699638330e-04,2.791691825558875826e-03,8.372777700424194336e-01
3.662816200608589035e-01,-4.764803940864855702e-01,3.662110165804834949e-01,7.760680476944466829e-04,-1.497974150465969479e-07,-7.638466845008658104e-04,8.427288532257080078e-01
3.644499258827353372e-01,-4.712224049507671708e-01,3.582054439527487255e-01,6.865512514041634609e-03,2.483612451491917696e-03,3.443317034296987334e-04,8.326638936996459961e-01
3.689150366313954654e-01,-4.683602420684824796e-01,3.628483838933047045e-01,-2.278536085262362985e-03,-4.758967924546552396e-03,-2.032222877476384283e-03,8.343159556388854980e-01
3.357663871472537087e-01,-4.576138740682514916e-01,3.428140681497635622e-01,-1.832880288752978745e-02,-1.463648653155218832e-02,-1.740508401391838850e-02,7.985315918922424316e-01
3.543178537140033169e-01,-4.684694497460091256e-01,3.594939757115212520e-01,3.427234384182987429e-03,8.779729795905827795e-04,-9.211188828416407015e-03,8.255644440650939941e-01
3.084810203952159657e-01,-4.644089753820720423e-01,3.775149101969031418e-01,1.729661767015952187e-02,1.372196853326022523e-02,-1.266519649130973084e-02,8.108167648315429688e-01
3.660222154091256064e-01,-4.742105078417676589e-01,3.657905799900768029e-01,-9.250756816796948715e-05,-1.553141264832161479e-03,-2.819136343982110455e-03,8.401354551315307617e-01
3.465350529073393249e-01,-1.668653913120689558e-01,3.061155069837846465e-01,5.059428177478201769e-03,-3.428105116895895609e-03,-1.036606707713104772e-02,4.948704540729522705e-01
3.389748617456367352e-01,-4.094949303460420076e-01,3.654979360439403746e-01,-1.790583915934016931e-02,6.510427084166359049e-04,-4.348728837998836936e-04,7.627096176147460938e-01
3.313561731977554548e-01,-4.484155059625187789e-01,3.343682812894903100e-01,-2.170801272175423239e-03,-9.141768221676504179e-04,-3.609509513295339287e-03,7.813177704811096191e-01
3.548721931894139314e-01,-4.724745796030199729e-01,3.584458083402327633e-01,-4.532694939180371800e-03,5.206670391963531342e-04,-2.493472926125043457e-04,8.291771411895751953e-01
3.626141082173814367e-01,-4.715225382031784651e-01,3.572394234909236355e-01,2.112018567949947067e-04,-3.293098405143377559e-03,-4.252440981035533535e-04,8.314822912216186523e-01
3.623662045981294044e-01,-4.769164032651455054e-01,3.651557709604454360e-01,-1.571727734055172743e-03,4.288226242342666351e-04,1.477015067336339500e-04,8.406856656074523926e-01
3.466954158774157024e-01,-9.367706041944851014e-02,3.034370625747476735e-01,-6.792018178291593655e-02,-1.074561852938655040e-02,-1.766378220879551500e-02,4.380311667919158936e-01
3.814983443980384248e-01,-4.548471962840954230e-01,3.559468568802691135e-01,-7.870844802929573844e-04,1.314021912244083727e-03,-2.852804598210320597e-04,8.238714337348937988e-01
3.586220882934564314e-01,-4.718276322294914227e-01,3.615865740848170362e-01,-3.125784243932659332e-05,1.730705164545883780e-03,-3.968610206274659699e-03,8.319697380065917969e-01
3.150439498968068408e-01,-1.441370288852700798e-01,3.024087994690524139e-01,-4.562559706371689672e-02,5.946166232946298660e-03,-1.945250099224220264e-02,4.611847400665283203e-01
3.294003038987182719e-01,-4.462680429272808391e-01,3.285032537407685527e-01,-1.715260181913877760e-03,-2.917660396216789284e-03,-7.406766579317042428e-04,7.752434611320495605e-01
3.004743009753529925e-01,6.541922422699936179e-03,3.348098974014170892e-01,1.944718658473393660e-02,8.371874072071367606e-03,-1.181886520512022594e-02,3.153274953365325928e-01
2.764412860404010797e-01,-4.128259874064957313e-02,3.487918200479813713e-01,-4.443396688923528792e-02,1.138637641893115379e-02,3.166812074279722056e-02,3.721441328525543213e-01
3.317766221410757832e-01,-4.512113652737111957e-01,3.389447768616060119e-01,-6.443371839302365275e-03,-3.835550936431303230e-03,-8.726826844262275569e-04,7.867052555084228516e-01
3.059851744197177870e-01,-1.284796746078749052e-01,3.500063190663654789e-01,-9.058054116910953246e-02,-4.860079293995607508e-02,4.667063331319792722e-03,4.915172159671783447e-01
3.420226443948010120e-01,-4.542599514412274386e-01,4.186641162677589567e-01,1.209754475587165173e-02,1.925113762892685654e-02,-3.272879813969407914e-02,8.400788903236389160e-01
3.334850612778784695e-01,-4.520600802617150693e-01,3.437058055806540557e-01,9.325121723853024630e-04,-4.432028363625191772e-03,-2.191320580495752126e-04,7.907440662384033203e-01
3.322794730849102374e-01,-4.446001078938386364e-01,3.278425334965217042e-01,7.885105491368211636e-04,-2.995935922592008784e-03,-7.715193154897933853e-04,7.746903896331787109e-01
5.159162781766941652e-01,-5.406514820406796984e-01,4.193084515969702775e-02,-8.630421588617757933e-04,1.304766121565430204e-01,-1.952885499898921948e-02,9.446791410446166992e-01
1.604871285316533669e-01,-3.264081349420264733e-01,4.541209188235908467e-01,1.791145198685681686e-02,3.326495573147706525e-02,3.404472180644238510e-02,6.884881854057312012e-01
7.470054093849244625e-02,-4.962610550567976286e-01,6.397683405577587745e-01,9.407221334579744451e-03,9.586070475730298912e-02,-2.315531481506490769e-02,9.986854195594787598e-01
3.599173659480968679e-01,-4.694787996564662169e-01,3.637379128966725661e-01,-1.579695157938907713e-04,6.876631840028713492e-04,-7.613747832038026721e-03,8.314185142517089844e-01
1.796347941256470904e-01,-3.359833386228159857e-01,4.369289321808337290e-01,1.626013811207266679e-01,7.477529644538156994e-02,9.664587714660624607e-03,7.490658760070800781e-01
3.398446686124249050e-01,-4.771099603563943026e-01,4.396673112073629097e-01,4.526480416946441349e-02,3.653205524722064057e-02,-2.119369403533589297e-02,8.777402639389038086e-01
3.732686633461967940e-01,-4.693423450877461933e-01,3.647835155945213237e-01,1.300889174502066448e-04,5.181070418240281243e-03,2.753669304412470313e-03,8.384622335433959961e-01
3.293985708570913995e-01,-4.442899384128488061e-01,3.263007668790976479e-01,7.772556372334069085e-05,-1.855037129039762735e-03,3.945861019695547003e-04,7.721512913703918457e-01
3.287896144010498123e-01,-4.523331321006062167e-01,3.520023255503429982e-01,5.487359782353995420e-04,-3.426473282120312547e-03,5.209988173292313257e-03,7.930580973625183105e-01
3.641490395013094461e-01,-4.718549041099152630e-01,3.677551823077680471e-01,3.253718748743308301e-03,2.387504778096541120e-03,5.173902037024298746e-03,8.378899097442626953e-01
3.673427288442587813e-01,-4.713511285464986322e-01,3.657340532394243171e-01,4.442885260038023816e-03,2.510489567747361248e-04,4.775670972847007034e-03,8.379669785499572754e-01
3.481525513762911972e-01,-4.638123641187195112e-01,3.520954537715859090e-01,1.561788789753819893e-04,1.250716714577511986e-03,5.672309433970324465e-03,8.140057325363159180e-01
3.738889038741251558e-01,-4.686281606887766626e-01,3.642209856998091522e-01,-1.458142979403935719e-03,4.106422297804640520e-03,7.322400023866674655e-04,8.377599120140075684e-01
3.721980411847404246e-01,-4.693310365791738548e-01,3.661746999132761693e-01,-6.460109259402020384e-04,7.563574921599584833e-03,2.555610566970838160e-03,8.386483788490295410e-01
3.494818899158753656e-01,-4.611336262716990708e-01,3.514821424361231905e-01,-5.223589281994328766e-03,5.682658501249576721e-03,8.853232677769299827e-03,8.118724226951599121e-01
3.520489127604346513e-01,-4.536213222026753700e-01,3.226358859694870018e-01,1.072432530604150967e-02,-2.419521882718803432e-03,5.004874118345918003e-04,7.916033267974853516e-01
3.369139567192299678e-01,-4.618731661323164372e-01,3.528815950764743747e-01,-5.713988236889531135e-03,2.809332822482610986e-03,8.827151336997867206e-03,8.071096539497375488e-01
3.684957050318009020e-01,-4.719032453042775188e-01,3.636071823614408505e-01,-2.051469116663191903e-03,-4.301073082423702287e-03,3.459407027378643903e-03,8.380274772644042969e-01
3.658727767368302186e-01,-4.761391296523518335e-01,3.627669575482579400e-01,1.501290422850475460e-04,8.617002225150182586e-05,1.118447601519861759e-03,8.404656052589416504e-01
3.502679808491892532e-01,-4.677548080174654954e-01,3.593466455289114903e-01,-2.646965662248366644e-03,2.073880321762319647e-03,3.685363524505712828e-03,8.226450681686401367e-01
3.275053899609374763e-01,-4.597274892050946526e-01,3.514715140516325165e-01,-1.012814675825054675e-02,9.016832552093411585e-03,8.888368990400616343e-03,7.999784946441650391e-01
3.607826542540232828e-01,-4.712953585250897470e-01,3.633355379523606765e-01,1.252017089004933866e-03,-4.272358472391764132e-03,5.433353805725090087e-03,8.334462046623229980e-01
3.715232851460715247e-01,-4.570998129845736946e-01,3.606363534555946382e-01,-3.197626352866546600e-03,2.045460352174545415e-03,-3.090399603086977352e-04,8.232600688934326172e-01
3.798976909872777141e-01,-4.408825852429102410e-01,3.529930434327536171e-01,1.161128885036179052e-02,3.052897370226927837e-03,-9.715939034037086993e-04,8.079335093498229980e-01
3.775124515958557803e-01,-4.625895868580157666e-01,3.606691056562371100e-01,2.091189707623449662e-03,2.381820589227652985e-03,4.523154270744671082e-04,8.318267464637756348e-01
3.815554396520683400e-01,-4.578115831100603161e-01,3.642077836239835387e-01,5.857437570059370428e-03,-2.102967047510326585e-04,-3.399773637154503668e-03,8.309119343757629395e-01
3.577179339960447346e-01,-4.717594889380569700e-01,3.634145599501563129e-01,-2.285660469593668760e-04,9.279019892099922041e-04,-4.557637204747251071e-03,8.323794603347778320e-01
3.427360800959275422e-01,-4.592952600274686770e-01,3.437695310034686313e-01,-4.812745977697336502e-03,-9.156128551484445707e-04,-4.179722074943994017e-03,8.026260733604431152e-01
3.668117167583238580e-01,-4.735817762903087313e-01,3.675582484790405613e-01,-1.741577973122148196e-03,4.914353700008095537e-03,-2.127726832376257253e-03,8.408235907554626465e-01
4.631372320834084011e-01,-5.736303253757905063e-01,1.279290026587968365e-01,9.408354967364055896e-04,-2.090475873169614363e-01,-8.851144767001510941e-03,9.854232072830200195e-01
5.931658921580738042e-01,-5.836775333866224269e-01,9.605314306948037339e-02,1.247579773196194966e-02,-1.998818447114142360e-01,-2.417221672952992936e-02,1.081265807151794434e+00
3.524584804835463325e-01,-4.513575375959726355e-01,3.158279768545964039e-01,-6.172845998327561833e-03,-9.727175461360945338e-03,-8.761302180713433476e-04,7.863957285881042480e-01
4.498533089792094986e-01,-4.857770306149310491e-01,1.417966706059863857e-01,-2.035941942911273506e-02,-7.833591324577619808e-02,-2.518465251637718935e-02,8.388276100158691406e-01
3.465033491019732237e-01,-4.638471674469587525e-01,3.512467303416880737e-01,7.224491605430907650e-04,-5.963460760046632690e-04,-5.778396781977202488e-03,8.127958178520202637e-01
4.480103638558450285e-01,-4.582196034148198205e-01,1.713534744035728197e-01,-1.168105952300182646e-02,-2.041655310567183981e-02,-1.893354788904969693e-02,8.061093688011169434e-01
3.683609209695701825e-01,-4.662547448231768588e-01,3.684149481406581161e-01,1.178931370764108033e-02,1.456893112499531295e-03,-1.376511975676544949e-03,8.348996639251708984e-01
3.115489727031723888e-01,-4.444646104058457281e-01,3.450257098122029298e-01,-5.616318808311248799e-04,-5.969863941315309286e-03,-5.002663780721964583e-03,7.734138965606689453e-01
3.444671407681289543e-01,-4.525504867639237316e-01,3.373950737081182205e-01,-1.466858295869642509e-04,-3.809523655233250893e-03,-8.639631277641147532e-04,7.935341000556945801e-01
5.223270091208211952e-01,-5.292839799896735808e-01,1.507383902174699031e-01,-7.657757408457398392e-03,7.609583313471648958e-02,3.119098231058496304e-02,9.346995949745178223e-01
3.137302203546288304e-01,-4.442068786199029340e-01,3.447524319649133417e-01,1.170954747077646637e-04,-6.327315554164134742e-03,1.812133222695214976e-03,7.739986181259155273e-01
3.527475665433539853e-01,-4.697720294748889414e-01,3.602020792330650756e-01,3.915817039598423754e-03,-6.121767046329241405e-04,6.977559064000995841e-03,8.263889551162719727e-01
3.794463245050416766e-01,-4.561076026159025520e-01,3.576330408489619139e-01,-1.357229370784987510e-03,-2.163240073399949181e-03,6.787071307971144236e-04,8.248763084411621094e-01
3.561923711557077876e-01,-4.469463694845581259e-01,3.756546433491812498e-01,5.177990091873468405e-04,3.529409486327637728e-03,1.797298257715578169e-03,8.130740523338317871e-01
3.160514753714365743e-01,-4.582918386142368350e-01,3.668093772255293095e-01,1.722878027551103279e-03,-5.061483088488006286e-03,-1.070491438801522699e-02,8.011975288391113281e-01
2.424813745566020140e-01,-4.643026133893649599e-01,4.185257896660674048e-01,-1.281293179745413187e-02,-1.274696539996933095e-02,3.846560599071529966e-03,8.099290132522583008e-01
3.384340202370349493e-01,-4.531290056093321139e-01,3.341139425765390358e-01,-8.076730616846761017e-04,2.444527489797145275e-03,-2.066504959528542328e-04,7.894245386123657227e-01
3.497131032024415331e-01,-6.847668584806410053e-02,2.557186037402667256e-01,2.112993172798262320e-02,-2.314424752392744977e-02,7.228585722206309905e-02,4.037725329399108887e-01
3.162050694021217856e-01,-4.559570444176229698e-01,3.630310357383986775e-01,1.763562187748218867e-03,-5.001534354559879908e-03,-9.902831886645905093e-03,7.968455553054809570e-01
3.364735144511923348e-01,-4.514085477574720784e-01,3.309277624784650595e-01,-6.289616679276775063e-03,-1.141069475175014031e-02,-8.140482601069498093e-04,7.854493856430053711e-01
2.047201015787472045e-01,-4.609023031588992403e-01,4.025454879110128559e-01,-1.024936921238818119e-02,-1.349096980415213920e-01,-3.542347350414813863e-03,8.178139925003051758e-01
1.372627108467107115e-01,-5.939494916119669732e-01,5.138166776611753361e-01,-1.661409534315057279e-01,-7.846905101452149311e-02,6.142123127468403221e-03,1.026254773139953613e+00
3.310349211639955214e-01,-4.471575735818553721e-01,3.265244369015051773e-01,5.489036998925254235e-03,-8.454410714422221779e-03,4.448667658948972543e-03,7.761816978454589844e-01
1.453445294264899545e-01,-4.768287681284305579e-01,4.703578956785035015e-01,2.702162044177292693e-02,-2.749679525702604377e-02,1.007413570872753815e-02,8.364873528480529785e-01
2.382722074107493093e-01,-7.377458200733401084e-01,5.577583508550603142e-01,4.809475534627246501e-02,-2.351293967919723116e-01,4.746885057785145412e-02,1.243407964706420898e+00
2.556275365498777985e-01,-5.744180705413327592e-01,4.864794234585247401e-01,1.064435326216901789e-02,-3.267255524837243963e-02,-3.649442659128432527e-03,9.682294130325317383e-01
3.280388595923638961e-01,-4.445548948070860984e-01,3.190482353654270353e-01,-1.523792311519476931e-04,-1.111371753932407190e-02,7.160699089012107551e-04,7.683801054954528809e-01
1.713611822781055394e-01,-4.997889840914567783e-01,5.218757026904872198e-01,-9.158542731115321134e-02,-1.386540060600593982e-01,-7.114208033166330436e-02,9.521412253379821777e-01
1.327195041783926222e-01,-5.359470463239577320e-01,4.964040278193967426e-01,4.134475809466225948e-02,-7.379393803380632222e-02,3.331188942661914704e-02,9.205210208892822266e-01
3.560630057174994922e-01,-4.634381412957365720e-01,3.479344308655013540e-01,6.353326321127457377e-03,5.827960621457898248e-04,4.243498376982761150e-04,8.155424594879150391e-01
1.901743571273026290e-01,-4.495400875333031010e-01,4.276437863708825726e-01,-4.924731659154896798e-04,-4.282984705559950839e-03,4.295657828701755256e-03,7.859071493148803711e-01
3.300994242244037480e-01,-4.537495501618308280e-01,3.439625500248931766e-01,7.849464823364655976e-04,-5.806399165841906462e-03,1.045877793106278833e-02,7.911441922187805176e-01
3.264209223088149203e-01,-4.489850275987133932e-01,3.298089983304383632e-01,-2.855589355553687144e-03,-8.234753516356833197e-03,-4.090674047068099291e-03,7.772844433784484863e-01
3.462072191598667414e-01,-3.852748525789051470e-01,3.634972516284536992e-01,-2.738171652226645703e-03,8.463487571314522173e-03,1.691932641162346637e-02,7.410185337066650391e-01
3.707302138368759881e-01,-4.633102493084021445e-01,3.651934773503135445e-01,4.647446748689788507e-03,-2.854270533292181146e-03,1.366756095046800512e-02,8.316766023635864258e-01
3.656590974403181038e-01,-4.678429717871500637e-01,3.683428788439747636e-01,-3.688361856520137611e-03,3.155272047414962346e-03,-3.674195586362156637e-03,8.349137902259826660e-01
3.335724254037872316e-01,-4.479391645705693703e-01,3.307536946921211807e-01,3.640814673750312081e-03,-1.829564807377213800e-03,3.075896195063402769e-03,7.801561355590820312e-01
3.574429270090484501e-01,-4.667308026644462204e-01,3.580452105488536874e-01,3.462990382615809687e-03,-5.028466919391530454e-03,7.848274176006680286e-03,8.246548771858215332e-01
3.639859128690863255e-01,-4.667424633541540357e-01,3.766621003307125126e-01,4.043074409943867904e-05,4.619783481848452333e-03,-1.405166736811333961e-03,8.371802568435668945e-01
3.778470384627733436e-01,-4.546617774533995293e-01,2.481456422200732648e-01,-2.279765617725846173e-03,-4.051555844767074088e-02,6.660246125143173476e-03,7.790949940681457520e-01
3.491123086681801047e-01,-4.643392871704637992e-01,3.434534681505841958e-01,4.946038417235585098e-04,-1.469430818088454920e-03,6.417552614117268302e-03,8.107176423072814941e-01
4.350762651755955557e-01,-4.628442770967721165e-01,1.994616937317948424e-01,-2.116007491867951361e-03,3.336751888718013370e-02,1.675647696038810169e-02,8.089550733566284180e-01
3.601263805021677200e-01,-4.589029602539912434e-01,3.715075094938040112e-01,-2.988415413452047680e-03,3.471773265417480141e-04,-3.610231002835151588e-03,8.248189687728881836e-01
3.560340593324150538e-01,-4.684341764542164777e-01,3.537227305682735801e-01,3.617138051826451327e-03,-1.440379026229142434e-03,2.497679964448657267e-03,8.233540058135986328e-01
3.487747213938812152e-01,-4.648631432251099094e-01,3.512032693250634052e-01,5.196549073483180438e-04,-3.971172734528953530e-03,1.106508754116244768e-02,8.151097297668457031e-01
3.629214910473924083e-01,-4.746903234873621757e-01,3.629443528611645542e-01,9.855768812036579465e-04,5.902810355852135499e-05,1.147358735885300844e-03,8.376273512840270996e-01
1.772380800428160763e-01,-2.663113695452017371e-01,5.684864259363354710e-01,-1.067443784513276706e-01,-9.714118782833833232e-02,-6.232475161054991386e-02,7.729778885841369629e-01
3.628619653194680161e-01,-4.701892969726302329e-01,3.789845754751127171e-01,-3.414146576582005512e-03,2.957710517019892724e-03,5.005686755034237032e-03,8.413094878196716309e-01
3.600500348684568808e-01,-4.649732288852634898e-01,3.789476878541571114e-01,-1.195123651203679497e-03,1.171607302894645203e-03,2.849143144263375713e-03,8.346521854400634766e-01
3.658414547480317025e-01,-4.704337260970736789e-01,3.709571643843189714e-01,3.790096877346556259e-03,6.753458499995805553e-03,4.352415128829460224e-03,8.389858603477478027e-01
3.607739242347617892e-01,-4.657658474133387072e-01,3.833167559172642180e-01,-1.436244850540450632e-02,-1.107196857914709287e-03,-1.632775891504896807e-04,8.384100198745727539e-01
3.672172034058389101e-01,-4.704879665841760206e-01,3.650213959378229012e-01,3.051020988715754984e-04,3.818964357769434950e-03,6.476721500873690350e-04,8.366364836692810059e-01
3.630207963365116863e-01,-4.713392740231279188e-01,3.560438396053393073e-01,-6.982359648924395604e-03,4.162792454388419480e-03,-6.223725302857950788e-03,8.310827612876892090e-01
3.695429046278477236e-01,-4.747352217021175713e-01,3.661856861693036924e-01,2.258951043449943224e-03,3.913443013728290162e-03,-9.795213074147252562e-05,8.426408767700195312e-01
3.610233308089590420e-01,-4.718937442845303476e-01,3.582816879169494206e-01,-6.286956311833146772e-04,2.323374357568416294e-03,-3.374295902740142433e-03,8.315806388854980469e-01
3.659529248473961105e-01,-4.678133696712757361e-01,3.655284635096646695e-01,1.507157867622885066e-04,4.589441028925663607e-03,8.857975780976940806e-04,8.335934877395629883e-01
3.631470692393304889e-01,-4.549167284720383453e-01,3.691170534623352539e-01,-2.812949879674118189e-03,6.625946537131497879e-03,-2.899302966885885895e-03,8.211750984191894531e-01
3.595663983621353310e-01,-4.591105760758930066e-01,3.591497030307665983e-01,-4.025729455729037975e-04,-8.257384942511789526e-04,1.902153756901981373e-03,8.184768557548522949e-01
3.891702773548532113e-01,-4.651575616482623854e-01,3.231533897180446369e-01,-9.034455337397677768e-03,-3.997890239996100721e-03,1.267793670809432352e-02,8.237774372100830078e-01
3.501118975621522744e-01,-4.492426154652445769e-01,3.623549934362824687e-01,6.422756090829391702e-03,-1.194305299931206280e-03,-4.426128435455306022e-03,8.056617975234985352e-01
3.710109282081751614e-01,-4.471446503516214310e-01,2.688184205309337438e-01,-2.985849009669488355e-03,-1.515652333152942358e-02,-1.804284664724094527e-03,7.726177573204040527e-01
3.274371667855339174e-01,-4.713047424010827768e-01,3.781333698431871837e-01,7.466990872045799893e-03,-4.385350727215095099e-03,-5.914080540934037525e-03,8.254585266113281250e-01
3.642251126880836076e-01,-4.744390244278766655e-01,3.640943991673782354e-01,-4.194540810990765936e-03,1.007057718531255766e-03,-3.122234825931016929e-03,8.386495113372802734e-01
3.003130994668813392e-01,-4.740314253442915460e-01,3.357029872154973504e-01,-2.137347137188114199e-02,-5.465785684333450412e-02,-6.718763607005193497e-03,7.992084622383117676e-01
3.598475803778641846e-01,-4.639277304687696724e-01,3.406137630053666099e-01,-7.466211505905587763e-03,-2.992758413817188726e-03,1.794512897003965523e-03,8.144538998603820801e-01
3.360656208421928803e-01,-4.684485604357081501e-01,3.683324498130888802e-01,1.722597467861168401e-03,-1.643052302130191406e-03,-9.715738663212665147e-03,8.213059902191162109e-01
3.363493928040439118e-01,-4.461819307793862821e-01,3.230681678577523863e-01,-5.979321825130564467e-04,-4.395847674692057033e-03,2.516463805174248502e-07,7.760140299797058105e-01
3.260783082286281553e-01,-4.559674059180597316e-01,3.528919046374257018e-01,7.497128752671188001e-04,-4.293093938635540383e-03,-9.275387911459763088e-03,7.959893345832824707e-01
3.520558096191612196e-01,-1.401402561559929594e-01,5.150352471527612774e-01,6.282913093484467776e-03,4.407999199726045370e-02,-1.192346434194710252e-02,5.961636900901794434e-01
3.645490712579563808e-01,-4.612220253773474665e-01,3.752216154901966694e-01,1.090315632568314040e-03,-4.505244714034175799e-03,-5.767756389012867677e-04,8.311981558799743652e-01
3.350657621737256342e-01,-4.605888737926739918e-01,3.523603844002289875e-01,-8.661101585670870351e-03,-3.562980672332845961e-03,-1.080603105327115031e-02,8.048225641250610352e-01
3.632917445978851578e-01,-4.705544537680678152e-01,3.514431987966474269e-01,-7.801564862437623468e-03,1.206141323504921837e-03,-4.959752268467182944e-03,8.281429409980773926e-01
3.718847455056204510e-01,-4.506087620452899900e-01,3.596051787462150040e-01,2.204185476320828264e-03,4.525703032711373384e-03,-1.352784336213132743e-03,8.164728879928588867e-01
3.369919863155839135e-01,-4.896036978286818497e-01,3.663484172283810181e-01,2.926647015046916940e-03,-1.046271887366117814e-01,3.695058223663302138e-02,8.633368015289306641e-01
3.653050516376268320e-01,-4.618035177523323043e-01,3.686726640532201893e-01,1.251669640145346195e-03,-1.280198652556135616e-03,-4.246626997635081190e-03,8.288359642028808594e-01
3.406828188657357592e-01,-4.633857618278290902e-01,3.777066291587663494e-01,-6.118765767188044831e-03,-1.603860085668999593e-03,-2.036141862116894793e-03,8.232856392860412598e-01
3.367712842691286679e-01,-3.050708374292879776e-01,3.457313825716953337e-01,-3.019948838405741090e-02,-4.872201245268117063e-03,5.542196035953449174e-02,6.556024551391601562e-01
3.499263848793610632e-01,-4.681884882423967831e-01,3.592467044092563788e-01,-5.536328232731466993e-03,-1.808296725285615456e-03,-8.020622843053902551e-03,8.229936957359313965e-01
3.090875247011648508e-01,-4.458119197168353143e-01,3.458778316728451929e-01,2.005425110982114202e-04,5.949415986460320979e-03,5.556579006851952024e-03,7.740792036056518555e-01
3.404739171871634662e-01,-4.433347069098341198e-01,3.129413584437600315e-01,1.825784819024715128e-04,4.100331147621026975e-03,-2.998866044178433252e-04,7.704443931579589844e-01
3.612685356159253125e-01,-4.361947793813153451e-01,3.643317219545234575e-01,1.662196764388966519e-02,3.557943402485793001e-03,5.076579635152495820e-05,7.995415925979614258e-01
3.665539561584195138e-01,-3.942719022710730048e-01,3.512194389694052177e-01,1.489378587869747556e-02,7.108009437102750031e-03,2.062385852319991407e-03,7.538262605667114258e-01
3.658276516821430957e-01,-4.723600823589939601e-01,3.794099767821652036e-01,7.902457154626611746e-03,-3.001102032029749796e-03,-6.159051252193444535e-03,8.452548980712890625e-01
3.455353084240347927e-01,-4.646958607877842429e-01,3.593182361606722108e-01,6.284185551152454913e-04,-1.272017405865096809e-03,-9.708128187361886319e-03,8.173865079879760742e-01
3.776105066826625500e-01,-4.281256675951365942e-01,3.527730866471431304e-01,9.585330367201353938e-03,1.691449150504375273e-04,1.734817636887171733e-03,7.937883734703063965e-01
2.863142243268281817e-01,-4.659032984590197879e-01,3.728157448449018752e-01,2.318961126158393653e-03,5.685282874793029517e-02,1.715220477526049458e-03,8.050486445426940918e-01
2.664492955221988701e-01,-5.175388695674173478e-01,4.334183966411490618e-01,1.170647109081025296e-02,1.353597645581435249e-01,-7.050500066881038377e-03,9.104641675949096680e-01
4.017442303994773756e-01,-4.600957445263126333e-01,2.700052795604956923e-01,-6.360808579365169468e-03,-2.548331955083062584e-03,7.536772801693857743e-03,8.042988777160644531e-01
2.916465671341159083e-01,-4.621678677109234412e-01,3.930918020599265539e-01,-1.538285366631521670e-02,-1.068190945983044180e-03,3.965467328614333091e-03,8.097892999649047852e-01
2.984413061976471937e-01,-4.514246233638982142e-01,3.548092617421034212e-01,9.005082755663904037e-03,-1.094791734861894419e-02,1.188755549861292803e-02,7.802380919456481934e-01
3.392745556033882615e-01,-4.628117756755886214e-01,3.852300343723465970e-01,-6.080709589409672225e-03,1.353282965951976098e-03,-5.080104762521556964e-04,8.260943293571472168e-01
3.778632075252577605e-01,-4.425053610608700172e-01,3.547408067393109654e-01,6.990850819861504049e-03,6.463149480545609012e-04,3.256050682855419587e-04,8.091467618942260742e-01
3.493449800782671977e-01,-4.694218261790474855e-01,3.625922914128085206e-01,-5.637546109030115021e-03,1.253154617250618486e-03,8.633904368096899720e-03,8.256662487983703613e-01
2.872960969558208677e-01,-5.439051134163591650e-01,4.109927884416753607e-01,3.258237558173700602e-03,1.045481081780701982e-01,1.711628387479970440e-02,9.179950356483459473e-01
3.534165209154053744e-01,-4.694426361407150194e-01,3.638715790090878421e-01,3.194455274655835526e-03,2.298930542556266651e-03,6.245755645986516419e-03,8.282349109649658203e-01
3.473512567631216741e-01,-4.633138588710595807e-01,3.599370692850230591e-01,2.810486104106395657e-04,-1.404021937477231349e-03,5.402208659296950724e-03,8.170880675315856934e-01
3.506820601637898882e-01,-4.640884987957344388e-01,3.439224779666884557e-01,6.605663642778348242e-03,-2.052919509388610991e-03,-1.122697652413032210e-03,8.115026950836181641e-01
3.509262539898048150e-01,-4.590807326244372710e-01,3.366600821338153748e-01,9.588840679939767200e-03,-3.500893315303745500e-03,5.234072657399994888e-03,8.032147288322448730e-01
3.373562223775552482e-01,-4.645212091494319573e-01,3.672627550016883125e-01,-3.422975563164238309e-03,-2.242075492215393935e-03,9.187197311646737308e-03,8.174268603324890137e-01
3.697551760492114314e-01,-4.660895201448991276e-01,3.478460495397623919e-01,5.655595177985950871e-03,-2.313896454847987581e-03,9.719374484231057404e-03,8.253479003906250000e-01
2.320893502177331924e-01,-4.569250017649865159e-01,3.901600150684022550e-01,-1.019236952527550165e-02,4.690061965435456115e-02,5.031176906477388862e-03,7.846187949180603027e-01
3.642274256862412796e-01,-4.746228754555473772e-01,3.625065566658398075e-01,1.508748743454052521e-03,-1.635327200226767679e-04,7.544677134441156192e-04,8.379963040351867676e-01
3.101532733934712072e-01,-4.677506255781809230e-01,3.747136592348254136e-01,-1.663409857550130280e-02,1.249834652788153061e-02,1.119302188668446461e-02,8.131413459777832031e-01
3.306834389383132566e-01,-4.615142358037513937e-01,3.528416536187029551e-01,-1.576861487608720303e-02,2.098241998753865370e-02,1.857656310979301229e-02,8.054339289665222168e-01
3.552821146037443700e-01,-4.661421781383898733e-01,3.503152419510768278e-01,-4.323236060081881577e-03,2.065884286429754951e-03,6.628030352652583383e-03,8.190746307373046875e-01
3.754739756838395559e-01,-4.686789983255059688e-01,3.646473414810164626e-01,2.540069110641666669e-03,1.860403438186118089e-03,2.800741234285732996e-03,8.388237953186035156e-01
3.695252718946759884e-01,-4.690549066109255261e-01,3.659922840286258250e-01,1.758578090198944892e-03,4.930810681654102835e-03,2.733668291614956870e-03,8.368818163871765137e-01
3.620463630221779083e-01,-4.719693352534667374e-01,3.592705072747934825e-01,4.585593977631467558e-06,-3.958195934381019895e-04,6.732608695272356350e-03,8.327131867408752441e-01
2.993116406569661381e-01,-4.527417778537133897e-01,3.547058999895230103e-01,-8.995447572999306154e-03,9.869201121584316588e-03,1.075586810217428989e-02,7.817891836166381836e-01
3.607807513712730230e-01,-4.602146123513448650e-01,3.802751314263677629e-01,1.032083757917208206e-03,-3.530155699708257579e-03,-1.564069859892307061e-03,8.309429287910461426e-01
2.948534004285993659e-01,-4.505391152065902904e-01,3.371825699899234086e-01,-9.249664069434386515e-03,5.225706891711583146e-02,6.557206467206007708e-03,7.730017304420471191e-01
2.942011225139127273e-01,-3.301413100002353329e-01,5.353912990141602712e-01,1.061207927961906466e-01,-9.793058234088392044e-02,6.411025095474595648e-02,8.206387162208557129e-01
3.359830618873879127e-01,-4.649680479933925303e-01,3.650194549079716078e-01,1.648283439326078941e-03,-1.713208493962261204e-03,-9.792518107754451251e-03,8.160436153411865234e-01
3.770094506839999915e-01,-4.674653330575060384e-01,3.232448274882013806e-01,5.628724289034838478e-03,-4.347246961299429738e-03,-5.212531710810200912e-03,8.190596103668212891e-01
3.374621761192903024e-01,-4.525523011086624026e-01,3.334490497844923573e-01,-5.056489014350327733e-04,-1.751447341181592253e-03,3.041225705242892562e-04,7.880221009254455566e-01
4.182095334476098047e-01,-9.396986660709311101e-02,4.990515603970429037e-01,-3.547666576964592089e-03,-3.914373383539424683e-02,4.027502029949124596e-02,5.654816627502441406e-01
3.156673615296612945e-01,-2.586396465616676021e-01,3.419339762931349336e-01,-4.128796550027841183e-02,-1.130489557100243904e-03,-2.034966051490674603e-03,5.922279357910156250e-01
3.675362365695771794e-01,-4.691463810474699736e-01,3.662733055031030527e-01,6.946216637934112502e-03,-2.336125133415022396e-04,4.195413035228235527e-03,8.361700773239135742e-01
3.709772034788880735e-01,-4.574781957733462523e-01,3.640814342556913941e-01,-1.626345313250342943e-03,1.201329091036771332e-03,1.034660820761778600e-03,8.250384926795959473e-01
3.222587721675917449e-01,-4.868490167274402980e-01,3.791744760391089208e-01,9.384551062165227050e-04,-3.666204938421865206e-02,-1.195847569985892048e-02,8.416708111763000488e-01
2.997480942040702256e-01,-8.718050245343739180e-02,3.256111013370909246e-01,1.280247661052453904e-02,-6.410746759804982972e-03,7.920000300795894399e-02,4.240550696849822998e-01
1.838557301794040977e-01,-4.483494413040181037e-01,4.286348420895462197e-01,2.892264877065510789e-03,1.779169610257113981e-04,3.658572416848782181e-03,7.838470339775085449e-01
3.448189499052786156e-01,-4.526214606130462004e-01,3.227466687562393632e-01,-1.021123421370070082e-02,6.174272487338285792e-03,9.829762258476665120e-04,7.869098782539367676e-01
3.639033470005011428e-01,-4.690334790263626097e-01,3.713985694117937775e-01,2.568648780460197102e-03,-2.931925117056219041e-03,3.981123203524358431e-03,8.367652893066406250e-01
3.624770733102853359e-01,-2.676867916819077875e-01,3.234987984733003197e-01,-4.200718136480286607e-02,-5.486268403861136247e-03,3.493004424426326970e-02,6.189568042755126953e-01
3.420022524616036508e-01,-4.647234145444236741e-01,3.595769686825952549e-01,-2.592340646340835723e-03,-2.886599936135560672e-03,7.918922428618774267e-03,8.157980442047119141e-01
4.896987714692680460e-01,-4.416518812258929394e-01,2.483200554101191171e-01,1.063534610094774707e-01,2.091023873592126048e-01,-6.665327076140226126e-02,9.377110600471496582e-01
2.199371262014934159e-01,-3.593808394218311886e-01,5.503861956150841728e-01,1.069047653990709834e-01,1.079591540605069067e-01,-2.398915153397237349e-02,8.409630656242370605e-01
3.453417683168858998e-01,-2.650131266961986420e-01,3.793608661532923421e-01,-8.597817897359794070e-02,7.336862201998995206e-03,3.783687021573544501e-02,6.489123702049255371e-01
5.393655258239522521e-01,-5.260950714576417830e-01,6.055500654234077795e-02,-2.571185581859682795e-02,1.240884765982474408e-02,1.600791902853099247e-02,9.260269999504089355e-01
4.781704547423450968e-01,-5.000444123000011842e-01,1.877518067754738451e-01,6.716953682631842011e-03,6.115626036492634310e-03,-5.418928509962265411e-02,8.753356337547302246e-01
1.167988927012258704e-01,-5.176165182864750358e-01,6.219355315348141788e-01,1.287822864518518018e-01,-3.266360298925145324e-03,-2.982336246713050004e-02,1.015168666839599609e+00
4.302619325456332744e-01,-4.484856791980390556e-01,1.977878777319551917e-01,-8.365601617061674180e-04,-4.903669865678768509e-03,3.836041840729662207e-03,7.887166142463684082e-01
3.091129368606158612e-01,-4.535420497923600136e-01,3.682152181501648913e-01,-5.404513640808584042e-04,-6.007544099831499049e-03,8.854061410001366067e-03,7.940747141838073730e-01
4.188379906860810187e-01,-4.759987446930221688e-01,2.623495137061555016e-01,5.919074677445373966e-03,-5.873302866785666196e-03,8.582075763985294939e-03,8.280213475227355957e-01
4.768576356048143117e-01,-4.899989762648022662e-01,1.097884933718692863e-01,-1.962991205410579039e-03,-1.299454806623882019e-01,6.184611894113163644e-02,8.813580870628356934e-01
3.695265021094190638e-01,-4.730259143701291968e-01,3.643476259891778590e-01,9.408701575323067615e-04,-3.480072551736997089e-03,9.845338854836543918e-04,8.399999141693115234e-01
3.619818948520985846e-01,-4.629808769449750283e-01,3.745532225821716077e-01,2.116284343741025187e-03,-1.728733684160020830e-03,1.646834993318330653e-04,8.313332796096801758e-01
4.800970918273923527e-01,-5.183890441003345950e-01,1.608823954306135284e-01,-3.225707693484704264e-02,-1.058529513028622637e-01,3.610416843468399264e-03,9.038342237472534180e-01
2.889887886786421944e-01,-4.737935991198977126e-01,4.040663280484522168e-01,-1.601514072599611455e-02,-3.942535865855099908e-03,-4.080032819507222429e-03,8.268766403198242188e-01
2.824850136022701852e-01,-4.445033982448521881e-01,3.657462512309440084e-01,-1.141327311265498325e-03,-1.236899279610800470e-02,4.986154470464871508e-03,7.723419070243835449e-01
2.131827991993089921e-01,-4.671687217836820727e-01,4.318963937602002812e-01,-1.587553451499686130e-02,-8.262145285848686987e-03,-4.915833897760791583e-03,8.127418756484985352e-01
2.357511254590202165e-01,-4.659843191484870362e-01,4.234382011440922522e-01,-2.004010613478135472e-02,-1.643012543733113687e-02,-1.501922004845064954e-02,8.136689662933349609e-01
2.247861305748539151e-01,-4.670548433009152900e-01,4.234808777735349916e-01,-1.749812018929552265e-02,-5.352014433339278079e-03,-6.819815995458326785e-03,8.103904724121093750e-01
2.198733333888018282e-01,-5.138101971461868089e-01,4.862415490021891329e-01,1.871299503407077014e-02,-7.096617203702111631e-02,3.609431724541301706e-02,9.081525206565856934e-01
3.644108985560200464e-01,-4.681619938241636802e-01,3.750107798830002448e-01,6.837699543921952434e-04,-2.215733283451164562e-03,1.361561898202167872e-03,8.379360437393188477e-01
3.064665670516408813e-01,-4.650925573172348670e-01,3.828534062185305897e-01,1.820417523790419240e-02,-1.235671622470250336e-02,-3.096345730947610946e-03,8.133611679077148438e-01
2.841987732337077355e-01,-4.588643387287949515e-01,3.927572625125767547e-01,-2.416031488776871836e-02,7.809661016798641331e-03,-2.007345510607011323e-03,8.040769696235656738e-01
3.693248361253984591e-01,-4.648405087318419060e-01,3.423097666339396383e-01,-4.429991596634334262e-03,-3.882456709753102919e-03,-5.281290761528269380e-03,8.211055994033813477e-01
4.660010517279797315e-01,-5.164044034183513654e-01,2.831570854052661845e-01,1.382455413945231533e-02,5.410786758890683001e-02,-1.031489916575173416e-02,9.102752208709716797e-01
2.851250092741833830e-01,-4.603764404315524583e-01,3.946468486571898526e-01,-1.260179675205948605e-03,-4.829485461482827327e-03,7.638005203058355515e-03,8.060185313224792480e-01
2.277228947162583395e-01,-4.488922698192645555e-01,4.040750967926423631e-01,-1.573511046608579936e-03,-1.162458409185179384e-02,4.510514532393191355e-03,7.801952362060546875e-01
4.237608052879608955e-01,-2.397913717582536575e-01,1.445661462297392896e-01,3.068416015866053115e-02,-2.262525066870301263e-02,-7.063498894009694051e-02,5.935647487640380859e-01
3.628676901476768912e-01,-4.702006093886894611e-01,3.646230228364312764e-01,-9.591993892409250710e-04,3.604675253920474167e-04,6.255407334775898130e-03,8.340196013450622559e-01
3.340323184084370012e-01,-2.979909250308444002e-01,3.491327426046695326e-01,-1.092319536820709645e-03,5.482680849411015675e-03,-2.485835561153394366e-02,6.412275433540344238e-01
3.749887375083627017e-01,-4.519565649108522321e-01,3.614695391863508855e-01,1.749190124504268950e-03,1.034322294754268408e-02,-1.828873727564099202e-03,8.204765915870666504e-01
3.705914639436364566e-01,-4.662373775610375581e-01,3.659108125087796037e-01,1.289682660987189139e-03,8.939948044898270510e-03,-1.043949407177615805e-03,8.346469402313232422e-01
3.808260693086168436e-01,-4.616293769999065821e-01,3.617394391435268530e-01,2.833242432054766235e-03,1.424429139567629649e-03,2.393699107811418213e-03,8.331045508384704590e-01
3.631548977743996875e-01,-4.309423908616039078e-01,3.760672760129122327e-01,-4.983600810911184911e-03,-4.723832179881027682e-04,-1.326734974110523393e-02,8.010082244873046875e-01
3.810661385393394607e-01,-4.497808599974143506e-01,3.561955813583657093e-01,-1.109346235887413712e-02,4.713562071959420327e-03,-3.722813499090944951e-03,8.189865946769714355e-01
3.638039433578507120e-01,-4.590818136679658545e-01,3.693971386632989851e-01,3.384704473627287227e-03,-9.824583778101829510e-04,-2.065169982775912679e-03,8.257268667221069336e-01
3.261313500159828127e-01,-4.680175748416224302e-01,3.843973759720313299e-01,6.968874852168465903e-03,-3.004899575721742093e-03,-1.109915466124755494e-02,8.251555562019348145e-01
3.408296214247829026e-01,-4.611070209038860002e-01,3.714568766455549342e-01,-6.407823620512809529e-03,9.543607865398664580e-04,-3.178271948319200926e-04,8.177577257156372070e-01
3.747324030388552996e-01,-4.359350592152267945e-01,3.535399033437967020e-01,1.322488463108342782e-02,-1.050049182957674132e-02,2.641353259447286068e-03,8.008290529251098633e-01
3.589221803916154419e-01,-4.460170919566653902e-01,3.778680896588916815e-01,-1.142251774661728154e-03,-3.157449559024126141e-03,7.237251991235636207e-03,8.146947026252746582e-01
3.567786761905988313e-01,-4.292124866169945152e-01,3.639297803827442057e-01,1.804900938688268688e-02,-8.150714070449642523e-03,-2.744522022039948533e-03,7.903500199317932129e-01
3.375593431310058845e-01,-4.651454512798609553e-01,3.651859897933404375e-01,-6.250825816746680705e-08,2.687454973912923543e-03,1.024144492433390514e-02,8.170744180679321289e-01
3.647052655710759650e-01,-4.151139022591919803e-01,3.527117152779698506e-01,1.888376017093717010e-02,-1.040753782175795304e-02,-2.132212850654545151e-03,7.748014926910400391e-01
4.210747933138728194e-01,-4.671377483018708254e-01,3.017563892021733474e-01,-1.179404769968286741e-02,6.205355142928496368e-03,-1.613450966699618572e-02,8.357583880424499512e-01
3.225986223769276018e-01,-3.714884189158096928e-01,3.542303848085899265e-01,2.728338289738479333e-02,1.561083573601822205e-02,3.625991078937123181e-04,7.125146985054016113e-01
3.691771987626517593e-01,-4.742558055941694661e-01,3.659876478637431596e-01,1.092924925061892214e-03,5.780380292354749677e-03,8.875489591481060389e-04,8.419058322906494141e-01
3.661039191830309236e-01,-4.764692936783746502e-01,3.655184344916295736e-01,1.556478900720880288e-03,1.218918287456991845e-03,2.895694545920230335e-04,8.422877192497253418e-01
2.859360986567299201e-01,-3.110184720771158595e-02,5.427374867160550398e-01,3.416587985598087962e-02,7.681428738115364530e-02,-9.942009386671579740e-02,5.465638637542724609e-01
3.782310638073518305e-01,-4.431681622604112247e-01,3.546958847483898669e-01,7.856527811615859891e-03,1.671845889172757053e-03,-7.410092479883726682e-05,8.100076317787170410e-01
3.656083176006484359e-01,-4.768220725521393755e-01,3.654909146577348666e-01,1.501163190283147494e-04,8.609799868560032176e-05,2.691365875899278823e-09,8.423717617988586426e-01
3.654844844268400617e-01,-4.764124745295641450e-01,3.668425267516070565e-01,9.837701716327346309e-04,1.691389616899573699e-03,-2.831467560503751540e-04,8.425837755203247070e-01
3.133582640621572768e-01,-1.526818525237175761e-01,5.264856820928647263e-01,3.982283440918290424e-02,6.843919795503776438e-02,-5.369071007827651287e-02,6.240192651748657227e-01
1.194602972360688242e-01,-5.185905698135855335e-01,4.508199960389291938e-01,-1.525068906852596572e-04,-1.902669748029772179e-01,-9.280792598478821570e-03,9.149839282035827637e-01
2.660009488205086203e-01,-4.627972030013972615e-01,4.175442172696283705e-01,9.063045924188403366e-03,-4.563484616192754403e-03,-1.297607041868195426e-03,8.153958916664123535e-01
3.237052161029757014e-01,-4.637639552082534200e-01,3.799955103673131607e-01,9.764101045023225456e-03,-8.850667595920176482e-04,5.648252705975327984e-03,8.173048496246337891e-01
2.703230937051398497e-01,-4.593072454746965905e-01,3.913153054436989686e-01,1.521923855191612517e-03,-9.966651631718743271e-03,-6.811580333220685658e-03,7.973225712776184082e-01
3.829624485979946091e-01,-3.444152021962467169e-01,2.435419920754145484e-01,4.504323695911055525e-03,1.044376060360760194e-01,-1.315542537231010889e-01,7.292510271072387695e-01
3.287819022235005662e-01,-4.453563790203777240e-01,3.264520583026766509e-01,-2.138110052924058722e-03,3.183485881026491132e-03,2.449086427515150509e-04,7.730046510696411133e-01
3.667089098848828055e-01,-4.758644504885936044e-01,3.654005722084717189e-01,1.541329108533515319e-04,2.410637167406201511e-03,1.121024015362215602e-03,8.419325947761535645e-01
3.635075271635675453e-01,-4.746436089374668210e-01,3.629583189089579109e-01,1.443795659642285777e-03,-3.433468676494190160e-04,6.888129912773484180e-04,8.378814458847045898e-01
3.170831811263483124e-01,-2.434271065932713807e-01,3.314769945086138980e-01,3.026780085176519752e-02,6.713454707772497504e-03,2.905954989214517073e-02,5.725939869880676270e-01
3.272019202738119525e-01,-3.156980875113753471e-01,3.446413733500687249e-01,-3.234278107854735712e-03,1.241834088113103265e-02,-3.013297540618506409e-03,6.521944999694824219e-01
4.111944237737267249e-01,-8.712223773481688749e-01,4.136742061836898854e-01,-1.133585960642235525e-02,-3.100060580398509291e-01,-1.633424028970538282e-03,1.391576051712036133e+00
2.972158386083799675e-01,-1.522307430356031888e-01,3.166153591859771632e-01,-8.008433321472572381e-05,2.825329859348260208e-03,4.593866297812921468e-02,4.663182199001312256e-01
3.369098365468126133e-01,-1.325201498912956799e-01,3.085510874667137804e-01,1.660561912286324243e-02,7.536754073119664513e-03,2.745658842231330291e-02,4.594731032848358154e-01
3.707021104842662118e-01,-2.343600086840313956e-01,3.577384167985947494e-01,-4.564793256774071772e-02,1.252507006091610432e-03,7.446242696859894927e-02,6.175065040588378906e-01
3.107830071266304284e-01,-1.308775750608469624e-01,3.267794222589693875e-01,9.991543597531890586e-03,7.338546912673552663e-03,2.010751117233641402e-02,4.517288208007812500e-01
3.653545210822726208e-01,-4.659595545438242059e-01,3.740671113920935320e-01,-5.550353368850948106e-03,2.924773760018335896e-03,-1.170407938856545286e-03,8.357775211334228516e-01
3.733584670819565798e-01,-4.695198155545773355e-01,3.651911964392507981e-01,1.506140264024973321e-03,-4.404233432279327370e-03,-8.503267688487110322e-04,8.388645052909851074e-01
3.432891160341930981e-01,-4.498853434302843013e-01,3.222200990138264221e-01,8.118515029264234892e-03,8.256744427392806798e-03,-4.809216288192779375e-03,7.831537723541259766e-01
3.420388266844918701e-01,-4.691091077503204421e-01,3.757922636755514634e-01,-8.530921165472217862e-03,2.573700025952997943e-03,5.735322717781098610e-03,8.287437558174133301e-01
4.025788696785465581e-01,-4.521785987518347483e-01,2.447846001052838560e-01,-3.129966878412733262e-03,-1.462656833625100919e-02,1.034532585925168526e-03,7.882308959960937500e-01
3.802307413034984318e-01,-4.289729534530518640e-01,3.460038969634675055e-01,1.841181332011528407e-03,-3.610066045216280689e-03,-2.728811137725870896e-03,7.926898598670959473e-01
3.632461286987583304e-01,-4.387992887229485994e-01,3.631340079872051874e-01,5.525545962130409827e-03,-5.726601857880317782e-04,4.308807941069755544e-03,8.020818233489990234e-01
3.709977207563132651e-01,-4.648851137892956453e-01,3.655620120370597359e-01,3.015884564473634861e-03,-1.393596531814713865e-02,-2.314030623579298347e-03,8.335538506507873535e-01
3.386264546983067669e-01,-4.580814117940813501e-01,3.692581001586343614e-01,-6.950633466274693667e-03,-6.067259262011571270e-04,5.269079268624882184e-03,8.125979900360107422e-01
3.806668308155727876e-01,-4.549928512306669059e-01,3.553880494533400158e-01,1.840878423249992782e-03,2.930156793315782590e-03,7.894922038035968653e-04,8.233343362808227539e-01
3.788648006853724826e-01,-4.401774806552599673e-01,3.581709065036854378e-01,2.420943339770328245e-03,7.508672533678985642e-03,1.777979184587228810e-03,8.090151548385620117e-01
2.066711421455180164e-01,-5.421699888740837414e-01,4.608147234012807680e-01,4.489209741439966622e-02,-8.408050424040750676e-03,7.149546182145687968e-03,9.066843390464782715e-01
2.123577986925022087e-01,-4.640223071356146534e-01,4.266309092765522282e-01,-6.162478220043310709e-03,5.917905233576277457e-03,-2.598758798407642141e-03,8.053398728370666504e-01
3.165959401181119848e-01,-2.512586812187876939e-01,3.344387908593333680e-01,2.636577360311394627e-03,-9.598077755070729897e-03,-4.493639243054921469e-03,5.772929787635803223e-01
2.137995347540225799e-01,-4.484524457286335197e-01,4.251972373864366661e-01,-3.003331950559981131e-03,1.009972367189261588e-02,-2.416606298307454222e-03,7.896934747695922852e-01
2.229294844542288045e-01,-4.658117981280990305e-01,4.354722000173660845e-01,2.048739711389857901e-02,1.337337711737127469e-02,-3.993749000099200593e-03,8.171716332435607910e-01
2.213103166320744830e-01,-4.708975012500520307e-01,4.431279362010559497e-01,-1.323259122175599739e-02,-1.577775210109968324e-02,9.826236789914507413e-03,8.267166614532470703e-01
3.657282949905611980e-01,-4.674688409998610794e-01,3.715736405034263945e-01,-3.470868777047104829e-03,2.716803854267868523e-03,2.496258527793246505e-03,8.361811637878417969e-01
3.738393155735207918e-01,-4.580386363687551921e-01,3.595224590304960666e-01,3.261379245969398943e-03,-1.933889072090053053e-04,-1.469719768296398480e-03,8.248360753059387207e-01
4.151600870268023491e-01,-4.614350194324989829e-01,2.632047710264407980e-01,5.185524646988443238e-04,2.737316823202189196e-04,-7.643848037815228341e-03,8.114693164825439453e-01
3.616186719441812913e-01,-4.544891926281184880e-01,3.607342059414367919e-01,-4.566674435518884578e-03,-1.435992120317863829e-03,6.130214840969779207e-03,8.157772421836853027e-01
1.301368423970096222e-01,-4.615369682636598636e-01,4.581897732410021296e-01,1.124479543869279230e-02,-1.552966741897402955e-02,3.296254309739424411e-03,8.080423474311828613e-01
3.244704167848643239e-01,-4.715647395531628039e-01,3.832017935016961974e-01,-1.649852122360509488e-02,5.496362030185112518e-03,-4.635838901778109415e-03,8.275538086891174316e-01
3.943679683013341375e-01,-4.585564724896307176e-01,2.503901905342586498e-01,6.089916369691012951e-03,5.093549809035873011e-02,-1.046117485869748481e-02,7.960090041160583496e-01
3.305616996155618104e-01,-4.677177374194926296e-01,3.798085551757482969e-01,1.034990351368728426e-02,-3.274614503090180102e-03,2.303809943609356429e-03,8.242314457893371582e-01
3.720888493522614970e-01,-4.075496911521578891e-01,3.524653960635854566e-01,-3.578206393430980597e-02,-1.302844342598020316e-02,-3.407022607213377238e-03,7.728565335273742676e-01
3.523530259594783720e-01,-3.722567029318394338e-01,3.600604618830622328e-01,-2.038182617924298376e-02,-1.488769663304618379e-02,2.395767447692194116e-02,7.309833168983459473e-01
2.899538703735110579e-01,-4.540508940129127646e-01,3.680786208736679388e-01,1.196959971492591972e-02,-9.068296491608642679e-03,1.278876655090456504e-02,7.867267131805419922e-01
3.533450377955386079e-01,-3.306717682522641866e-01,3.437582641015003437e-01,-3.322219888551444181e-03,-2.151255420905611934e-02,1.809978872006927364e-02,6.810415983200073242e-01
3.285838349494851762e-01,-4.697714281126551539e-01,3.975299819815933944e-01,1.041752294488747059e-02,-2.512403828648503840e-03,-6.272724657059044681e-03,8.352429270744323730e-01
2.751729602085344339e-01,-5.699158873252113677e-01,4.107758404677142039e-01,-2.664114710613677342e-02,-1.057080854694685823e-01,2.456638318655793296e-02,9.405435323715209961e-01
3.413131560936529252e-01,-4.492708610483042708e-01,3.137793473233678188e-01,-6.008285041603147504e-03,7.170430250440567796e-03,1.045605035417905603e-03,7.773540019989013672e-01
1.620761865558069392e-02,-4.491249454469706803e-01,5.248408434584624915e-01,8.785160042782214074e-02,-1.335372588552546230e-02,-2.718894569817608547e-02,8.589715361595153809e-01
3.250891425946467184e-01,-1.564714149290376000e-01,4.126861475671820823e-01,-8.340096770447181715e-03,6.755823051315572314e-02,-2.941057412864044734e-02,5.461254715919494629e-01
3.174476065432252914e-01,-4.549995773622481643e-01,3.521745305013738725e-01,6.294883773516940419e-04,8.643459756588372719e-03,8.546978011992244217e-03,7.906641364097595215e-01
2.624735152089356927e-01,-4.515524327364839330e-01,3.788267777267861347e-01,1.475064577108262456e-02,-1.932335314174721264e-02,1.691989634225061351e-02,7.804371714591979980e-01
2.985509929237442073e-01,-4.753097341349455940e-01,3.931546071909176043e-01,2.002900397966460647e-02,-2.558678189537043346e-02,1.475492522472329759e-02,8.275511860847473145e-01
2.439265784958019878e-01,-4.784591998227566423e-01,3.981847367504763313e-01,5.265007379163653099e-03,-1.011127398688304591e-01,1.853632528248343181e-02,8.299735188484191895e-01
2.392659937263517944e-01,-4.647687648792873105e-01,4.104419829814916487e-01,6.936016492712764395e-03,-8.875451046702275207e-03,9.142496490679202954e-04,8.036561012268066406e-01
2.322534588786938636e-01,-4.526476836029003081e-01,4.081691303799015458e-01,1.085711553174333911e-02,-2.126772683563441305e-02,1.206342065681560716e-02,7.890930771827697754e-01
3.644242076022317089e-01,-4.653435262989055188e-01,3.354688591366202788e-01,1.074611419934069258e-02,3.787895166079771787e-03,2.375626882219770367e-03,8.159247040748596191e-01
3.662267017752229292e-01,-4.727277181354954116e-01,3.660765992124237478e-01,2.141535047851353488e-03,5.166055539980114568e-03,2.049953118759603038e-03,8.389428257942199707e-01
3.439835770777856516e-01,-4.530598012190850676e-01,3.356101996845571311e-01,6.057499788606049429e-03,1.135798636368838413e-03,-9.033321928023508706e-04,7.929632663726806641e-01
3.265518947165262920e-01,-4.666458737269230106e-01,3.795288682994220064e-01,-7.454597667684563327e-03,1.549760443413122262e-05,6.748240355079804936e-03,8.211539387702941895e-01
3.653753971099689135e-01,-4.684430277769489059e-01,3.687609448496182440e-01,3.127948856970922797e-03,2.576819124103833271e-03,2.796022685389840372e-03,8.355598449707031250e-01
1.897611935098509339e-01,-4.499827102282409896e-01,4.315267097331633717e-01,-7.037748091901264730e-04,-5.980393656815642320e-03,2.295136560700513934e-03,7.889964580535888672e-01
2.886450439579164029e-01,-4.662515989102683500e-01,3.882371742046314966e-01,-3.818477171299926743e-03,7.404657835698604321e-03,-4.885449235655533323e-03,8.094745874404907227e-01
3.508297286693908834e-01,-4.659063113407917456e-01,3.773161958828999407e-01,9.973205556727808563e-03,6.190564078698480854e-03,4.495658924211450025e-03,8.305815458297729492e-01
3.644845558080812564e-01,-4.680898888495559351e-01,3.661588986483991226e-01,3.613473574808194391e-03,-1.148862403837495785e-04,2.458166520656300535e-03,8.334472775459289551e-01
3.648535732834187750e-01,-4.734081193160417644e-01,3.695538183622719131e-01,1.705796370200718046e-03,3.221945375591779397e-03,-1.833100784087480595e-04,8.406454324722290039e-01
3.700855254262442329e-01,-4.741254112779061947e-01,3.600270964678496943e-01,5.627212547016959866e-03,2.570578726769048167e-03,-7.781142680542390243e-03,8.394035100936889648e-01
3.785094559536043568e-01,-4.242442331919383802e-01,3.428530537958597302e-01,1.821748648647171552e-03,6.392544722827785478e-03,-3.065418191643618385e-03,7.856349349021911621e-01
3.579993639254561710e-01,-3.685704349249389611e-01,3.560470674025745241e-01,-4.843822876623499717e-03,3.213565023661693956e-03,-4.508929062907935520e-02,7.298558354377746582e-01
3.366313566225951348e-01,-3.749064226850566395e-01,3.669303015107375221e-01,-4.589550591770152899e-02,-2.305998446738576069e-02,-5.401366876412439476e-03,7.326424121856689453e-01
3.741105097727730477e-01,-4.617270907165386129e-01,3.667498292435281138e-01,-1.292428011458827269e-02,-2.356195291712992902e-03,1.486269440218327634e-03,8.324967026710510254e-01
2.688055535304150201e-01,-4.663565495114707637e-01,4.176071064499050634e-01,-4.080279275559921259e-03,1.889386415807463825e-03,2.949112244756897953e-04,8.197922706604003906e-01
3.004138943527546179e-01,-4.655387433635606032e-01,3.978227127492751092e-01,-7.529985858247490761e-03,2.453219024085328864e-04,1.405579850602498493e-03,8.191206455230712891e-01
3.806525745981995668e-01,-4.551621351183889885e-01,3.580054516012363131e-01,1.179889856860895977e-03,-1.686637200341161574e-03,-1.013318896872732796e-03,8.247339725494384766e-01
4.089868362389776357e-01,-4.764959116884633916e-01,2.891143113842141177e-01,1.026479267654822414e-03,-9.894905204469327600e-03,9.671980518982777053e-03,8.323950767517089844e-01
3.052172370005446500e-01,-4.708915964667720333e-01,3.056062546050496431e-01,4.169591811939782171e-03,-1.107585626511385923e-01,-2.052884727123937495e-03,7.996963262557983398e-01
3.025491586742519168e-01,-4.690960609716775531e-01,3.875249181325347014e-01,1.573873391205191444e-02,-4.829484461343109755e-03,1.302563323412068812e-02,8.182606101036071777e-01
4.079149422528001723e-01,-4.505174253455563882e-01,2.434641820578787863e-01,1.006984120185752674e-02,-4.067865233959900434e-02,7.074200783600085966e-03,7.925900220870971680e-01
3.224794832319279880e-01,-4.531346049952370558e-01,3.451201295087202303e-01,1.200430331286670782e-03,4.064977040973439919e-03,6.344715312433398501e-03,7.872895598411560059e-01
3.767248966900250684e-01,-4.287411998544761182e-01,3.523854361878807073e-01,2.477428537906601041e-03,-5.482729622420116737e-03,-1.299601885408124260e-03,7.936479449272155762e-01
4.680828975306606798e-01,-6.980310491289787311e-02,3.698978881455483592e-01,-3.293987204129673191e-03,5.699670036171387844e-02,1.126150162690808636e-02,5.062689185142517090e-01
3.937903946540745603e-01,-4.676604524774395921e-01,2.910769615405380262e-01,8.891447448339665979e-03,-7.996063318211824381e-03,1.343556664194068238e-02,8.155584335327148438e-01
3.230732606603224921e-01,-4.950591194885459734e-01,4.648636820079804499e-01,3.256505441454089766e-02,-1.134400082543986568e-02,4.258393078926545061e-03,8.994833827018737793e-01
3.774682749254923420e-01,-4.324602132274646404e-01,3.476460574851160668e-01,-3.309907626013143620e-03,-6.277444350178257998e-03,-2.356594971135722669e-03,7.955421805381774902e-01
5.230697460281102940e-01,-3.003891555037582761e-01,3.282492994475537662e-01,2.274139254214348899e-02,7.148920471664124698e-02,-4.519410240488798414e-02,7.606734633445739746e-01
4.566916634615812431e-01,-4.635392795013045797e-01,2.005394014894231469e-01,-1.206653599045902749e-03,-6.152549097249837562e-02,-7.239047106551068506e-03,8.296008110046386719e-01
4.184770199325059670e-01,-4.738434765570554985e-01,2.768571541899649269e-01,4.824167120341924658e-03,-6.008355188704310804e-03,1.284001624109633137e-02,8.310201168060302734e-01
3.737652718607745728e-01,-4.521033716199995833e-01,3.631040713552267651e-01,1.797962474018868426e-02,-2.272697667238807347e-03,-2.168127771194211517e-02,8.220483064651489258e-01
4.253583657771360382e-01,-4.594115380912265900e-01,2.421932774106124175e-01,-5.232962241650406139e-03,1.799482583243407208e-02,-5.892041556266224694e-03,8.096085786819458008e-01
3.660031063360600911e-01,-4.661635165795391389e-01,3.745325104181726483e-01,7.423337613028080893e-03,-2.484824139403807568e-03,-1.867168623845821785e-03,8.365800976753234863e-01
3.370859898864898563e-01,-4.641493149846585009e-01,3.676050749082550029e-01,2.172686821486643040e-04,1.866944347146439788e-03,8.360338183061380435e-03,8.170573115348815918e-01
3.645767285767359533e-01,-4.693448109745957941e-01,3.666763639962937193e-01,2.576807018830042529e-03,-1.586760013300057229e-03,6.725130592638943298e-03,8.350710272789001465e-01
4.144805574179232788e-01,-4.559787419521390550e-01,2.400718634852161693e-01,6.872981603380876742e-03,-1.105384923032146777e-02,-6.540116347878200970e-04,7.980048060417175293e-01
4.225868099155898894e-01,-4.610258105866742451e-01,1.978845039939285955e-01,8.989674535411268722e-03,-2.018536696807667757e-02,1.630456028166904492e-02,7.968531250953674316e-01
3.671486277046457913e-01,-4.520967247760292462e-01,3.646758414260508618e-01,4.668380475134834874e-03,-1.059337462587588846e-02,-6.282655064716684973e-03,8.183298110961914062e-01
4.518437042962952788e-01,-4.021041202005995463e-01,2.159740257643080474e-01,-5.624972946004489632e-02,-1.097425361136012203e-02,7.698728837139837654e-03,7.703714966773986816e-01
3.638480610032541751e-01,-4.694173446492740931e-01,3.664181191418084405e-01,2.102938254157290209e-03,-2.584997138464521435e-03,5.774522507380868037e-03,8.346332907676696777e-01
3.310336176054271551e-01,-4.631116583400955999e-01,3.819064379402746789e-01,5.265794869845834107e-03,-3.689359111960029049e-04,5.937807797704489944e-03,8.208803534507751465e-01
2.108251392918224498e-01,-4.480990602629911779e-01,4.071212483595450515e-01,-6.009638505897556791e-04,1.176381353666443308e-02,1.762900310356932182e-03,7.761978507041931152e-01
4.827071377392460061e-01,-5.694216138167675911e-01,2.071054176633979615e-01,-1.407825994394651392e-03,-7.333221028496154925e-02,-5.423179277111257746e-02,9.580839276313781738e-01
3.531047436121850236e-01,-4.556695087666575716e-01,3.278475110804977000e-01,9.868367830341562286e-03,1.980786299719361314e-03,-6.732556590127335887e-04,7.966377139091491699e-01
3.149621428304327786e-01,-4.659801010511758212e-01,3.730367203021772715e-01,9.049856349845192965e-03,-6.345163706454035046e-03,1.127139593088225845e-02,8.119999766349792480e-01
3.656196265637813303e-01,-4.671563112573718923e-01,3.351904932563881667e-01,-1.091430304997338500e-02,4.237820622530984009e-03,-2.329241318521827961e-03,8.182472586631774902e-01
3.263633629391158308e-01,-5.760283976449126486e-02,3.636835239268034758e-01,-1.930900521320380245e-02,-8.130736916534233444e-03,2.819237275355816405e-02,4.084773957729339600e-01
3.406076339037252820e-01,-4.441419661436600830e-01,3.129446587017770121e-01,1.899953157559913699e-03,5.801362112229379447e-03,-7.365490732156163749e-04,7.713637948036193848e-01
3.215956794869240243e-01,-8.267349695596143411e-02,3.013099719633695606e-01,5.940965085795486128e-02,1.358038494215779712e-02,3.413958090327333210e-03,4.084372222423553467e-01
1.849549647318756151e-01,-5.052397973339010084e-01,4.790885744041449290e-01,5.415248284055906858e-02,-7.542385788141023339e-03,-3.142952548828981466e-03,8.802787065505981445e-01
3.250659943652637329e-01,-5.789163048593199967e-01,2.710414130531236809e-01,-1.677567435362967152e-02,2.443961814377083042e-01,3.983992157492846631e-02,9.777830839157104492e-01
3.222200577348516282e-01,-1.443539090523184298e-01,3.029870345829093203e-01,1.970575338073211197e-02,1.333658217456290323e-03,-9.231680717068610140e-03,4.588175117969512939e-01
2.001184514396931458e-01,-4.487265986114524763e-01,4.334230700528053926e-01,-2.594022343138193722e-03,5.949210763012425726e-03,-1.987229000243774264e-03,7.918003201484680176e-01
3.255069666025032782e-01,-1.773765059385342124e-01,3.035368677422023986e-01,3.113003662209543748e-02,3.857166690011825001e-04,1.172443002828153519e-03,4.952149987220764160e-01
2.111801329314338393e-01,-4.489488772210441514e-01,4.052777622898551813e-01,-4.105052376003864964e-04,1.116069471348486372e-02,3.310582494730432250e-03,7.758741974830627441e-01
2.949929356527114521e-01,-4.544443867517287128e-01,3.466267800807517618e-01,1.021742953083370348e-02,4.821208027871222435e-02,-7.987308749875030381e-03,7.813427448272705078e-01
3.784661395534826278e-01,-4.437293236382171546e-01,3.557067449868154263e-01,9.654905794665018552e-04,-1.057160473773729840e-02,-2.695553431705190097e-03,8.112771511077880859e-01
2.959714981228326325e-01,-1.024499868296617211e-01,3.021925666522919940e-01,1.937551529583160861e-02,2.396082805951039313e-03,-9.074798443560421271e-03,4.032957851886749268e-01
3.683274193382343187e-01,-4.664619032736198045e-01,3.649395637659149649e-01,-5.910385105580313360e-03,1.056035247526592249e-04,1.620741639636562011e-03,8.331682085990905762e-01
2.982884989260917719e-01,-4.639564033627463502e-01,4.129940753683264409e-01,-7.731850290367688408e-03,7.331816978989007597e-03,-7.819790810138170165e-03,8.259131312370300293e-01
3.550469854261328329e-01,-4.632020517990540487e-01,3.471880638929645824e-01,6.000718095665159325e-03,-1.492177159047232762e-03,-4.831548599643699675e-04,8.144188523292541504e-01
3.644563267668245454e-01,-4.309392794241462266e-01,3.624164494774486101e-01,-1.156649272523350112e-02,-1.710676183879173123e-03,-1.063804158687215503e-03,7.946378588676452637e-01
3.387252626089665153e-01,-4.612386316520336038e-01,3.363905807925375302e-01,4.237418872906922873e-02,6.879137662129027053e-02,-4.102275672558489822e-02,8.140712976455688477e-01
1.433485680282124142e-01,-4.666496097456152015e-01,4.506991134274527799e-01,2.046956814383880593e-02,4.926351597108251379e-02,-9.954399076541541394e-03,8.141746520996093750e-01
1.190694597494687257e-01,-5.116037719381513194e-01,4.735233926487945055e-01,4.663238743646563877e-02,1.342011274759031259e-01,-4.497165557659246748e-02,9.019711017608642578e-01
3.355945701143074889e-01,-1.667961853783889725e-01,2.653466914123722153e-01,-9.138554781884125275e-03,7.405388245528161939e-02,-4.776879378551251998e-02,4.955677390098571777e-01
3.635722297859150798e-01,-3.229748974625439306e-01,3.521193341404755817e-01,-2.951052825139437868e-02,-1.261655346869532818e-02,9.196334798230446084e-02,7.014820575714111328e-01
3.418407661582489876e-01,-1.531538759307356501e-01,3.121462782160374649e-01,-1.968302147141092959e-02,-3.518755747362140203e-03,2.066680434912822328e-02,4.834083318710327148e-01
3.769861678465840082e-01,-4.634786920891909023e-01,3.618176087083382342e-01,-1.876628764398232405e-03,-3.494768907551709658e-03,3.935561281814028132e-04,8.330127596855163574e-01
3.433492655800477467e-01,3.623823785888141691e-02,3.260839774416268710e-01,2.127970368729794129e-02,-1.015903101473558667e-02,1.749703207367745220e-02,3.031492233276367188e-01
3.198694810114133258e-01,-1.489338213282738743e-01,3.124193911701740878e-01,-2.718295038724610237e-03,7.847970011071792040e-02,6.711862521378837709e-02,4.983507692813873291e-01
3.704380750907675379e-01,-4.692427243024250849e-01,3.663608917650075236e-01,-8.565814730484981902e-04,-5.037309475435906153e-03,-8.931608187823650898e-04,8.376978039741516113e-01
4.909832132696322349e-01,-1.189300549010809949e-01,3.005289269637537175e-01,-6.988329481007342359e-02,7.470428593601727285e-02,5.731066766015757707e-02,5.773674845695495605e-01
3.664632635769224378e-01,-3.533105469448050706e-01,3.252082362448823760e-01,-2.740435846664138805e-03,-9.219525954146722685e-03,-4.781826668318079135e-03,7.003057599067687988e-01
4.236643555290983687e-01,-3.196596770577452840e-01,3.613589597958014044e-01,2.672836267274012953e-02,-2.327897772863472825e-02,5.262730210408696901e-02,7.226184010505676270e-01
3.202439566474338806e-01,-1.958349554212148735e-01,3.265869945693176124e-01,9.208182079903270284e-03,5.951636849554635574e-04,6.926013006906706071e-02,5.331955552101135254e-01
3.410808152889047706e-01,-5.215730326631853875e-02,2.754375386050345598e-01,4.607462340673242063e-02,8.874687230456807310e-03,3.147624730897621154e-02,3.777684271335601807e-01
3.462557400141831332e-01,-3.459764063529087164e-01,3.593100951235262963e-01,1.375446655733135286e-02,3.300625932089695964e-03,3.789932718076489959e-02,7.023544311523437500e-01
5.382314358978088631e-01,-4.332929539625561821e-01,2.418145199644130272e-01,1.463872781009025424e-03,1.431794581469023886e-01,-6.490917644411409171e-02,9.043745994567871094e-01
3.735956824896171091e-01,-4.732581626669675190e-01,3.652894032092645626e-01,-1.516010279465946188e-03,-2.170544087972955255e-03,-2.893919813269195916e-03,8.427587747573852539e-01
3.766093514110626650e-01,-4.611695610266834944e-01,3.613178071735194674e-01,-2.576497484672193947e-03,-4.949350327808206725e-03,-2.227084178518088601e-03,8.303039669990539551e-01
3.340285463639103836e-01,-3.008848332960311067e-01,3.525752431200798176e-01,4.305343109489376437e-03,-3.395916409775944639e-03,1.963607627982615414e-02,6.453537344932556152e-01
3.520292618723481759e-01,-3.960132793802712547e-01,1.817171533561805497e-01,-1.016257362861394259e-01,2.309057227133460843e-01,1.034603857142041422e-01,8.271765708923339844e-01
3.223704278453492500e-01,-4.257624443151322158e-01,3.962459578484323064e-01,-6.547508541984670138e-02,2.379103667230074715e-01,9.216032219168958373e-02,9.102607965469360352e-01
2.138570250900539427e-01,-4.223211856925828123e-01,4.024451798560039761e-01,-4.510629501427036031e-02,1.765737617786361791e-01,8.809710090945702121e-02,8.265505433082580566e-01
3.541340034713873486e-01,-3.976236557491691359e-01,3.547680633065987132e-01,2.057375939066725251e-02,8.179916307312518498e-04,-1.108661792619127125e-02,7.531648278236389160e-01
4.057385584973874915e-01,-4.571013045477475556e-01,2.246651222745663368e-01,-9.245549549839200687e-03,1.032742921153384855e-02,-1.109505410630673775e-02,7.886624932289123535e-01
4.522048498895967494e-01,-4.903880055810491134e-01,1.656579239112495605e-01,1.013454353567623534e-02,5.097677791777051326e-02,-2.281773653152926670e-02,8.427094817161560059e-01
3.282212987773616142e-01,-4.530180789089638393e-01,3.531279747249818635e-01,-1.192685500358836581e-03,3.038521059446203793e-03,4.906793258462505310e-03,7.940513491630554199e-01
5.363350059707374662e-01,-7.555073066274337057e-01,2.506076295371360008e-01,5.287433673030095954e-02,2.560150602560644639e-01,-7.292714952446083254e-02,1.265841722488403320e+00
2.131204736827951862e-01,-4.511928024824073402e-01,4.223927834084149069e-01,-1.757833358345759194e-03,-5.921328619284323483e-03,-1.663413738715631071e-03,7.900962829589843750e-01
3.676754133083186549e-01,-4.655740958115924810e-01,3.643340006326230007e-01,-3.377316448890988615e-03,-1.927560659998869830e-03,4.169666443039445232e-03,8.316424489021301270e-01
3.031064810637738027e-01,-1.363106868695311835e-01,3.130215014096204840e-01,-1.546094058964205681e-02,1.146155578911240737e-02,-1.072924766976613917e-02,4.460932314395904541e-01
2.118098637229747783e-01,-5.995871622382955568e-01,3.397934177974975545e-01,5.831715045325153862e-02,2.685702165302527034e-01,-4.787934640303893874e-02,1.006012082099914551e+00
4.327466640696318034e-01,-5.940090461311975378e-01,1.370236255597823138e-01,-3.227520487756255219e-02,2.435682064348433373e-01,9.518931830169738428e-02,1.022902011871337891e+00
4.258280130567779764e-01,-8.009130781674220767e-01,2.591940796079771903e-01,-1.587968948227485577e-01,2.452030420373658148e-01,1.063498725906677628e-01,1.272083997726440430e+00
3.753177107794291589e-01,-4.528234414204663771e-01,2.535921236722393779e-01,1.238900980263790870e-02,4.825591013551333575e-02,-1.380616794076260437e-02,7.796455025672912598e-01
3.317741228216419258e-01,-4.496972249185351433e-01,3.246645664693432742e-01,4.318379049868011424e-03,1.015816912281783044e-02,-2.754030779214058922e-03,7.781904339790344238e-01
4.603547360696496060e-01,-5.521182299628359935e-01,2.346533549633724458e-01,2.827980096910440513e-03,-1.213263385060096566e-01,-2.556725371290627727e-02,9.453419446945190430e-01
3.771966989399234138e-01,-4.567514839644530866e-01,3.041976819793249520e-01,-9.770324104353115061e-03,-1.509827360634246468e-02,-1.013404976437087650e-02,8.007492423057556152e-01
4.083450835300212467e-01,-4.631494578327283174e-01,2.296432307250173832e-01,-6.697436703814633498e-03,-1.067622150086825102e-02,-2.185782303182977337e-02,7.985043525695800781e-01
4.157987735359512937e-01,-2.722893178693232552e-01,3.041866899220062592e-01,-3.883692587809547958e-02,1.031814034272834392e-02,-6.419221446381942475e-02,6.529393196105957031e-01
3.791982541715294142e-01,-4.254484895994811167e-01,3.501931932215353038e-01,3.015234395098117300e-03,-2.331808509643389007e-03,1.271406509325536055e-03,7.905740141868591309e-01
3.859319260781836070e-01,-4.682441962878199915e-01,3.048787454904115513e-01,-5.254835269950012232e-03,-2.488484849576311653e-03,-6.884704654538023778e-03,8.168209195137023926e-01
3.274183553331626584e-01,-4.630746167775712241e-01,3.559857974373509260e-01,-2.410966401796685830e-03,1.151704292814407365e-02,-8.641453880121396230e-03,8.055538535118103027e-01
2.867526665356859850e-01,-4.569825567378963393e-01,3.924717438474915610e-01,-3.890067767867068198e-03,7.443169177164171701e-03,-1.231114967254537743e-02,8.022542595863342285e-01
4.006018157583698391e-01,-4.600058767122051639e-01,2.723180689014914613e-01,-3.265910303858678577e-03,-8.827487077847319050e-03,6.908231548189021007e-03,8.044310212135314941e-01
3.780875454832773874e-01,-4.591542688567661346e-01,3.360060816422550389e-01,5.448099161970819219e-03,-1.789372326555050807e-03,8.542070611146545395e-03,8.172085881233215332e-01
3.473125793976852838e-01,-1.378495872272131328e-01,3.790851582267138475e-01,3.873240750767825008e-02,1.135098624920318627e-02,-2.198157389885127197e-02,5.080780982971191406e-01
3.040740026731879042e-01,-1.030072086563319500e-01,4.730297279149862644e-01,5.769116643455805132e-02,-4.162770283330743948e-03,-5.468546441297809403e-03,5.226532220840454102e-01
3.523300857825814036e-01,-9.921933980403524478e-02,4.829776470870704164e-01,-3.508576612836299125e-02,-4.889533170884825808e-02,8.330517595213289203e-03,5.394747257232666016e-01
3.394114741320904960e-01,-4.657713603058537544e-01,3.735110313116098979e-01,-2.488465474141934083e-03,2.359131273632270043e-03,-3.715183080621614793e-03,8.228093385696411133e-01
3.384116590308916539e-01,-4.654658732437857438e-01,3.808308814484551164e-01,-2.481809659656124181e-03,2.317198187560097142e-03,-7.842836726206085449e-03,8.260372281074523926e-01
3.172554818423876100e-01,-4.629022671039738634e-01,3.691356318999277075e-01,-3.596863834551829175e-03,6.072796651248116295e-03,-1.078126437719314178e-02,8.076574206352233887e-01
3.588284002947250695e-01,-1.290607594450349227e-01,3.690698727855246664e-01,5.566994500243984539e-02,1.885475581355035637e-02,2.271112705286877989e-03,5.035045742988586426e-01
3.623539265516401153e-01,-4.720940602834471367e-01,3.614041500767316006e-01,1.302033380227950437e-04,1.734651422641585172e-03,1.038553336698447771e-03,8.339808583259582520e-01
3.264902189316336578e-01,-1.114073803031400134e-01,3.319366179915054227e-01,7.876574958877186061e-02,3.158865532136389490e-03,-9.983888343118189901e-03,4.616384208202362061e-01
3.709592560117926374e-01,-4.568297995550213431e-01,3.614235620411954120e-01,9.400821017712661376e-03,-6.277543863408223401e-03,1.776953479745903980e-03,8.233012557029724121e-01
5.181592427229002595e-01,1.719428180387572169e-02,3.772527382536127738e-01,6.978635606667701885e-02,1.114941615846898049e-01,1.744917818740074344e-03,5.021391510963439941e-01
2.577970719867062055e-01,-5.368149998503251030e-01,4.517011437106968064e-01,7.493007607626432989e-03,8.119956289853060005e-02,2.403792483881424247e-02,9.191124439239501953e-01
2.857586683954628781e-01,-8.593594608901375942e-01,4.601173896690435861e-01,-1.325660442057596637e-02,2.450368790630809146e-01,2.039161787654463626e-02,1.312730669975280762e+00
3.452246309160348914e-01,-2.273851342568027345e-01,3.484817411492426298e-01,8.682831290366564356e-03,1.029518006957766754e-02,-4.347405273218980792e-02,5.796306729316711426e-01
3.188205917855967964e-01,-5.202068005432815001e-01,3.809382659941390470e-01,-5.619060369071774558e-02,1.508400095938353114e-01,9.153800663624211270e-03,9.153828024864196777e-01
3.019013940581057875e-01,-4.641755513262417754e-01,3.654738319257949120e-01,-3.821018983570856949e-03,4.151494678738803373e-02,5.447551008929206462e-03,8.030691146850585938e-01
3.570730311525906475e-01,-4.719376417647969113e-01,3.586985192298919878e-01,-2.020198150913474493e-04,1.324507904931396035e-03,6.904428952109289627e-03,8.299140334129333496e-01
3.942255954056062550e-01,-4.659038183885699791e-01,3.275547547884939958e-01,7.563746101522269422e-03,-4.371163304011065412e-03,-7.897035860450409006e-03,8.290585875511169434e-01
3.075054256005119724e-01,-4.724420190379922113e-01,3.955837244063510894e-01,-2.379816326739741736e-02,9.656082282378425363e-02,4.257820657395741670e-02,8.484585881233215332e-01
1.431717299748412886e-01,-4.695395955318154568e-01,4.164665951383163534e-01,5.474224338258273578e-03,1.253633177746257821e-01,7.832591813387841315e-03,8.154618144035339355e-01
3.111458597032046303e-01,-4.583116256108992204e-01,3.645546406599430855e-01,-5.480211746323178330e-05,6.786478226448813128e-03,1.229075065766244146e-02,7.978749871253967285e-01
3.933535236754567843e-01,-4.581414549216972221e-01,2.343051191752497930e-01,9.562640709895183291e-03,-4.815359366883587011e-02,2.256691027095413492e-03,7.887693643569946289e-01
3.377594264625204401e-01,-4.532273264073003460e-01,3.291223819635392678e-01,-5.669532059984128472e-03,8.172225603043970638e-03,1.027850636334611597e-03,7.868943810462951660e-01
3.619656145063880892e-01,-4.668637682976873871e-01,3.713278916141413144e-01,3.067914290095125583e-03,4.079847864501080258e-03,3.516942303963356336e-04,8.335970640182495117e-01
2.562254896785208791e-01,-5.091986660860280400e-01,3.514337389627848474e-01,-3.564464359038371777e-02,1.537852469161806457e-01,4.179658834737332018e-02,8.647633194923400879e-01
3.621205774604123739e-01,-4.560557100527967700e-01,3.750665838980510314e-01,2.500522146067231909e-04,5.951844003260764460e-03,-7.358909313687374103e-03,8.248885273933410645e-01
3.639298800707015946e-01,-4.647465095933678292e-01,3.719058955714318326e-01,1.910154177685162869e-03,6.998873796914901330e-03,-1.452903015346070949e-03,8.327916860580444336e-01
3.642042917305907124e-01,-4.684958134670569319e-01,3.730621262353351897e-01,1.442071565443437146e-03,4.078624132709652607e-03,-1.261848121117012346e-03,8.372005820274353027e-01
3.222472521474787355e-01,-4.534322852173182650e-01,3.449451703514328504e-01,1.394578455112410048e-03,4.722573786293694093e-03,-5.543166337996083791e-03,7.873786687850952148e-01
3.431376446289615134e-01,-4.609402951347257860e-01,3.366724205323465835e-01,4.038989745030235196e-03,6.766912035909681405e-03,-2.567265191468844684e-03,8.009935617446899414e-01
4.421444212704402910e-01,-4.651711914700903394e-01,2.187621018884648716e-01,3.648527586986483658e-03,-3.190272095616863458e-03,2.227215234646960987e-02,8.197570443153381348e-01
3.441983796391823169e-01,-4.834499515572733275e-01,3.479940029184722117e-01,-5.087418817928515517e-03,-4.313161994767020224e-02,2.871011776549937944e-02,8.344393968582153320e-01
4.512334970910117371e-01,-5.400547657910330646e-01,2.884853739348953727e-01,-4.374104337559896888e-03,-3.436323192977935176e-02,-2.174908691947431694e-02,9.234868884086608887e-01
2.808473705424073819e-01,-4.459203666044667669e-01,3.663308779080720057e-01,1.983973921277189993e-04,1.119083367661794642e-02,-4.084316409670937960e-03,7.733377814292907715e-01
3.314866950010292301e-01,-4.434101821229068374e-01,3.205435187511156414e-01,1.168517514504693400e-03,9.158199745832578537e-03,1.893785186407612262e-04,7.696498632431030273e-01
4.798916575586378852e-01,-4.896186992265273430e-01,1.994281320043051198e-01,-9.754211904016128060e-03,1.701057625181985958e-02,2.261483416794754422e-03,8.647928833961486816e-01
3.503836569874556051e-01,-4.564837114487041436e-01,3.170136224557822402e-01,8.279881256271350715e-03,1.114065152591827909e-02,9.396006213389993108e-04,7.910777330398559570e-01
3.543650871434714800e-01,-4.683301403321296075e-01,3.540270681165605948e-01,-3.000446860668930151e-03,-7.574054515329148481e-04,1.599347728857768505e-03,8.225483894348144531e-01
4.078319370745748240e-01,-4.554327164734045530e-01,2.304834255174093016e-01,1.077120906659544738e-03,1.360994520364693441e-02,-8.218096857947199000e-04,7.900258302688598633e-01
3.655017086121720715e-01,-4.736611401673491706e-01,3.627446037206700225e-01,-3.881505386160699275e-03,-1.005183416112788311e-03,2.627968383754992251e-03,8.378288745880126953e-01
3.647999091807907490e-01,-4.702804387768758643e-01,3.668138945390616579e-01,4.082512199818185382e-03,-2.986835489607628930e-03,-6.104762381353468458e-03,8.362019062042236328e-01
3.647406384431177151e-01,-4.754532292627909884e-01,3.672714240922682616e-01,-3.298672666157228444e-04,-1.536593249570708877e-03,5.867180489292304207e-04,8.414671421051025391e-01
3.666224129949577359e-01,-4.749584070456939200e-01,3.655005868781920908e-01,-2.813912711176652951e-04,-2.272994820354287508e-03,1.606460215877031892e-04,8.410298824310302734e-01
3.675957719769190057e-01,-4.576414732150340114e-01,3.664099073192056411e-01,2.660900049388481483e-03,-8.474422375644091038e-03,1.051578601855130031e-03,8.247904777526855469e-01
3.325823297694732172e-01,-5.051400889630401903e-01,3.906295788039760852e-01,2.415895490606819601e-02,1.809341074615325798e-02,-1.214282731593501787e-02,8.700294494628906250e-01
3.570412124244826124e-01,-4.626037247924731366e-01,3.317980923325449805e-01,6.895364351280508335e-03,2.179122769751181549e-03,-4.465657998897447009e-03,8.074536323547363281e-01
3.650694966962931276e-01,-4.759006939329902819e-01,3.653238474451014905e-01,2.691818097556836500e-08,4.026801546446473349e-04,3.209659655076954284e-04,8.410978913307189941e-01
3.654672187908519221e-01,-4.763741830554341083e-01,3.618309216023476993e-01,-2.576674538452685369e-03,-1.142775461745302321e-03,3.754842449213111576e-03,8.400685191154479980e-01
3.668225009134352677e-01,-4.762872379621676533e-01,3.655293756415409212e-01,-1.271596983759888926e-03,-9.194013723697483462e-04,1.059489372666153192e-03,8.424702882766723633e-01
3.102056164709508512e-01,-1.330230989785849416e-01,3.075788640118763961e-01,-1.181075328922758828e-02,1.289860744176908776e-03,2.594759970748330632e-02,4.446770250797271729e-01
3.128123898954952575e-01,-9.147579360958940642e-02,3.065333440688114974e-01,-6.513711332372119911e-02,-8.963898793019653075e-03,2.593564198464550288e-02,4.194488823413848877e-01
3.370688874482948849e-01,-1.589170664645520037e-01,3.171329909785807200e-01,8.161862673532558482e-03,-5.425405081027990205e-03,-2.455110185484475627e-02,4.884751737117767334e-01
3.158145894878316984e-01,-9.232255265465433292e-02,3.059471600152062210e-01,-4.245427953399914800e-02,-6.048551481914568248e-03,7.156285223715791455e-02,4.284000396728515625e-01
3.294255990853988125e-01,-4.975717363471739985e-01,4.164562571550673442e-01,8.562213704742775364e-03,1.152469229983450619e-03,4.282866531771679398e-03,8.739290833473205566e-01
3.611638751423144056e-01,-4.719338336388393396e-01,3.549476773500555571e-01,-3.788310178867595568e-04,1.802205383663095517e-03,4.500433729896998608e-03,8.300498127937316895e-01
3.684899320876955375e-01,-4.731839397236992095e-01,3.634278243609879167e-01,6.956045605796730164e-04,-1.800194800645767753e-03,1.474715197337730715e-03,8.391647934913635254e-01
3.571140297036942690e-01,-4.684580818459646023e-01,3.554817573930785790e-01,-3.154993061416684272e-03,3.389977352827745066e-03,1.449922714290543353e-03,8.248000144958496094e-01
3.380011240728143518e-01,-4.635160667228720444e-01,3.600277600443832493e-01,-1.942079388183446309e-04,4.966971420539824898e-03,5.819477272691900294e-03,8.128625154495239258e-01
3.561804420443487329e-01,-4.715595304395219234e-01,3.648463621367183940e-01,-2.003581749129817850e-04,1.319785146418244685e-03,3.325063278143552958e-03,8.321298956871032715e-01
3.715724512152541736e-01,-4.706593184080882786e-01,3.644969526485357658e-01,4.246241592309348695e-03,-6.661618033840993602e-03,-3.335452344820620876e-03,8.388478755950927734e-01
3.631230185761141760e-01,-4.645720674554852936e-01,3.744336767450645587e-01,-6.636908564704469557e-04,-3.400599646016387763e-03,4.596552388033581129e-04,8.334299921989440918e-01
3.575060909549663268e-01,-4.675611261320079537e-01,3.623419238120808017e-01,-5.422926229580920902e-03,1.422730623184675393e-03,6.372333517422713173e-03,8.276262879371643066e-01
3.630135564415966076e-01,-4.745234402804674456e-01,3.658994814209213242e-01,-2.550031761686152431e-03,-2.091602666912697507e-03,2.369750165362333964e-03,8.390131592750549316e-01
3.642243163108377368e-01,-4.692618161171212554e-01,3.716466345363591550e-01,-4.522265242259875494e-03,-4.893640699091612173e-03,2.770749888470213935e-04,8.373016715049743652e-01
3.456141665679078878e-01,-4.635921286981186107e-01,3.513127642687727259e-01,1.653697014560764466e-04,1.885988041870675230e-03,6.108184535355450952e-03,8.121461272239685059e-01
3.438668781705123689e-01,-4.644329463575229688e-01,3.493575279992804372e-01,-5.859407490628528760e-03,1.596653063334736288e-03,5.121855895581363220e-04,8.111277818679809570e-01
3.155875629266224891e-01,-4.518559193908974203e-01,3.543141070510636981e-01,-9.432908224429223734e-03,2.602127848749560129e-02,1.086042032904690341e-02,7.892032861709594727e-01
3.510846767689131953e-01,-4.643620902655124505e-01,3.483624779061816334e-01,-1.050619225269373326e-02,4.188509439890209310e-03,-3.712132212942659097e-04,8.143250346183776855e-01
3.383593280422063643e-01,-4.605295727345428691e-01,3.415129176905068453e-01,-8.634848189289787493e-03,1.132937901669919464e-02,8.098716684971685870e-03,8.009733557701110840e-01
3.288957226749085749e-01,-4.479142960301786269e-01,3.298330346641515920e-01,-6.222012604252286951e-03,1.604183236377124122e-02,3.173222831496105324e-03,7.778696417808532715e-01
3.296678749866459590e-01,-4.547442159827508323e-01,3.444348481389804539e-01,-1.494514982174533716e-03,5.620179906450577245e-03,1.068889008277883711e-02,7.921792864799499512e-01
3.378910660244608954e-01,-4.590966618891754170e-01,3.428856604076206960e-01,-3.715047432839423559e-03,4.786043071647453837e-03,4.991901850690282950e-03,7.996123433113098145e-01
3.352632347031114790e-01,-4.537857965901370694e-01,3.335931175121465975e-01,-9.204242907170260635e-04,2.650807012784986861e-03,5.375981846314673886e-03,7.882852554321289062e-01
3.520217088720837828e-01,-4.498493869726493122e-01,2.852404594104251956e-01,-7.952061008719838939e-03,1.671138826298877375e-02,8.069329732770559593e-03,7.714466452598571777e-01
3.317689550659184139e-01,-4.534903780920023220e-01,3.420098285112416203e-01,-9.556799690128445430e-04,2.202890045853206531e-03,5.417132602702354888e-03,7.904961705207824707e-01
3.643036330393155664e-01,-4.643117774518276120e-01,3.697937333486304712e-01,1.586406461022648933e-03,-7.731913420310919730e-03,3.998258623510823895e-03,8.315153121948242188e-01
3.249570079324656247e-01,-4.444584470614006966e-01,3.297842236112885073e-01,-2.105174142910642813e-04,2.803933851693784715e-03,1.568507659528650027e-03,7.718605399131774902e-01
3.543916674411017875e-01,-4.391211650166598757e-01,3.762738837102322376e-01,7.896395983633485273e-04,-1.094500585316622934e-02,7.232709521552724979e-03,8.049990534782409668e-01
3.126425070363046399e-01,-4.453168181777407142e-01,3.421313820094992186e-01,2.709085519892325228e-04,6.959003622767780117e-03,4.234848708895940471e-03,7.732545733451843262e-01
3.506019508976763177e-01,-3.928206783212024877e-01,3.733358991691787532e-01,-2.190233081413272154e-03,-8.512076190144192422e-03,2.176431082107595227e-02,7.561400532722473145e-01
3.251912227277173884e-01,-4.442954999688107920e-01,3.341538710244587596e-01,3.492427871596954321e-04,2.650310091661169012e-03,-3.079288546292491182e-03,7.740392088890075684e-01
3.089960324468062902e-01,-4.455147820116844848e-01,3.455828711593696423e-01,1.146915906198890103e-03,5.383300106441578359e-03,-3.754956851724962959e-03,7.735396027565002441e-01
3.092908009304007888e-01,-4.447115678162218977e-01,3.425140124006765818e-01,1.365784820639025579e-03,6.237792016693426839e-03,-2.487823973452762960e-03,7.712422609329223633e-01
4.044838974969870993e-01,-4.750242156044770514e-01,3.366900956111428256e-01,1.305574226933555945e-02,3.125884902621743622e-02,6.161301439686087122e-03,8.497422337532043457e-01
3.249770659299000553e-01,-4.484686502083943260e-01,3.215152537578749303e-01,3.588009182184199227e-03,2.487539313302925686e-02,-4.586988078861332571e-03,7.729882597923278809e-01
3.354716749924389063e-01,-4.526628779793895330e-01,3.443932989336796480e-01,8.458660194788951902e-04,1.400626314513068234e-03,-6.108919026693024508e-03,7.927086949348449707e-01
3.547789535177838793e-01,-4.149815873739911565e-01,3.667008028888773530e-01,3.025250757854328933e-03,-1.151197459494408826e-02,1.348351939746814110e-02,7.764154076576232910e-01
3.580475471627111439e-01,-4.245395689526179073e-01,3.665587522079349347e-01,-1.370611173628820921e-02,-9.264279300843650602e-03,1.830848019388890691e-02,7.880370616912841797e-01
3.389624369892770828e-01,-4.588505747944653379e-01,3.419644854973821757e-01,4.028028631394084055e-03,-4.676950653056347745e-03,5.359634266362052479e-03,7.994436621665954590e-01
3.213132078019252935e-01,-4.541315603588924610e-01,3.525858552406732627e-01,1.143897136690726936e-03,2.556219123359082697e-03,-9.367489500830489604e-03,7.917256951332092285e-01
3.443716694160145475e-01,-4.584543464921351230e-01,3.424007397767900307e-01,5.126096182338237515e-03,-1.509449446918448377e-03,3.711613824526843394e-03,8.019215464591979980e-01
3.472630251702190085e-01,-4.635089143064464734e-01,3.551532694970095383e-01,3.907825752488527297e-04,-1.177180886970141975e-03,-5.772862289626765411e-03,8.148099184036254883e-01
3.673332116318807072e-01,-4.678986570963795666e-01,3.641617916734155580e-01,2.197015650606370506e-03,-4.474962717601030544e-03,-1.054640218559704627e-02,8.338955044746398926e-01
3.438162848640128333e-01,-4.640333023038656357e-01,3.509546228865113027e-01,2.464811620011844471e-05,1.418893760733404719e-03,-5.239955978902237181e-03,8.114967942237854004e-01
3.599206671171991112e-01,-4.679353220626034648e-01,3.541204394930550503e-01,4.603021181217855501e-03,1.011288484300582003e-03,2.942470264318119890e-03,8.250272870063781738e-01
3.519860660961464660e-01,-4.697365079967106283e-01,3.614522039303299517e-01,3.864905427462652591e-03,-2.664392353239555681e-04,7.073874194328454330e-03,8.266143202781677246e-01
3.473625816226647012e-01,-4.631238227304168564e-01,3.547720031734211688e-01,5.592412660431508691e-04,-3.279729055296654733e-03,-4.663812473176387322e-04,8.142371773719787598e-01
3.534180326599385413e-01,-4.685526065375353877e-01,3.547821490278434409e-01,2.669881778416589684e-03,-3.892971448773304387e-04,3.444944074222493300e-03,8.226884603500366211e-01
3.227448753387456293e-01,-2.137844799554304287e-01,3.240770300799445947e-01,-4.047934610807259193e-02,-7.516827770100367387e-03,1.964934651541446267e-02,5.429767966270446777e-01
3.702061201008872704e-01,-4.718759975987938393e-01,3.760070756933460712e-01,3.499912135391785445e-03,-1.225389515955822156e-02,-1.142443280809540135e-02,8.455173373222351074e-01
3.526935302802287064e-01,-3.572171124382788610e-01,3.458386150552419380e-01,-1.524672563747131969e-02,-1.623407154663391444e-02,-2.993273498193113787e-03,7.075794339179992676e-01
3.635097156759610759e-01,-4.721326450553873233e-01,3.606407223140804530e-01,4.522520039283899410e-03,-8.486538602901249392e-04,-4.276115681268948085e-04,8.342499732971191406e-01
3.575492698079744680e-01,-4.733511379440263900e-01,3.648875937757019572e-01,-2.501445831197507234e-03,-5.143666487930112193e-04,-7.077686137467438174e-03,8.346955180168151855e-01
3.669408647041305649e-01,-4.587201116493941910e-01,3.649120042475771930e-01,2.905673030583525406e-03,7.332822379263730789e-03,-5.115388135437271867e-03,8.248091340065002441e-01
3.727553250949499630e-01,-4.513789288911490560e-01,3.607688112715129458e-01,-1.141024527066124457e-02,-9.256250166873876417e-03,-3.608536898695952153e-03,8.186263442039489746e-01
4.109374092150548941e-01,-5.605538915521830479e-01,1.421656890264331730e-01,-1.080490353674153602e-02,-2.335679330839167678e-01,-5.846201711814312009e-03,9.586651921272277832e-01
2.607803930673412984e-01,-4.627514409338143730e-01,4.187218974353961176e-01,-6.206324012762752702e-03,1.551317561758974273e-04,9.779021322640793577e-04,8.141486644744873047e-01
3.293262766976691180e-01,-4.665468013729718866e-01,3.600429587642552387e-01,8.296184139372546340e-03,-1.728759497852173227e-02,9.875774598185130260e-03,8.125267624855041504e-01
2.766199681522147347e-01,-8.548283037676801532e-02,4.945657970800455550e-01,-3.506000301980896627e-02,3.146177440199969533e-02,2.302612984461515147e-02,5.155437588691711426e-01
3.654062714446053017e-01,-3.540401081857315613e-01,3.229852113895765875e-01,4.205120458056764952e-03,-1.459523936736282623e-03,3.156259649506830064e-03,6.992655396461486816e-01
2.082998733628716459e-01,-4.501371783078764732e-01,4.231363739934387858e-01,3.753926505812356287e-03,-6.457555415935189308e-03,-3.609392559707837699e-03,7.882618904113769531e-01
3.662576018042825732e-01,-4.678800421808764209e-01,3.653565341105560749e-01,1.386229650504112272e-03,4.364017947468362864e-03,1.174632589586174477e-03,8.337276577949523926e-01
3.275266278753636295e-01,-2.773818514311480188e-01,3.438182405420032173e-01,-5.401489578366418937e-02,1.187255430527558997e-02,2.180694938008413686e-02,6.218013763427734375e-01
4.676345669899300006e-01,-3.185666065011177883e-02,3.189881099228077943e-01,2.238015123718593846e-02,7.952227358922171752e-02,6.451944978081143589e-02,4.798978269100189209e-01
3.352952527121343396e-01,-2.639971853332079288e-02,5.024698939986467217e-01,-1.254664112262528740e-02,-6.204284109355552579e-02,-1.694487083136064082e-02,4.817866981029510498e-01
4.387471140288626836e-01,-4.743938289100119166e-01,2.173632118684150627e-01,1.523511066268177757e-03,-3.171048607688834245e-03,-3.172989133198031442e-02,8.268857002258300781e-01
4.959696056250637586e-01,-4.972148895460574147e-01,9.081438065064162402e-02,2.615483162719166310e-02,-9.527837937748162567e-02,-1.158981658466575193e-01,9.042984247207641602e-01
3.672176496388975808e-01,-3.781157332816620920e-01,3.467925441445851575e-01,-6.111731327126775776e-03,-1.320658559100341273e-02,5.790175591033171025e-03,7.358338236808776855e-01
3.648585766922703977e-01,-4.678813295552221030e-01,3.671850666734106650e-01,9.038682065146101544e-04,-6.113842379321911963e-03,-1.609215110179887344e-03,8.339789509773254395e-01
4.157533910134670885e-01,-4.657063186703750413e-01,2.690507068486679421e-01,-1.543762404979658488e-03,2.595098509114788198e-03,5.555045399065328300e-03,8.181077837944030762e-01
3.099003377061633202e-01,-4.567337920982640354e-01,3.658599397571286049e-01,1.095348274199504793e-04,-6.761549016488838451e-03,1.191829638985018695e-02,7.964441180229187012e-01
1.671557794317334866e-01,-5.588207363857665699e-01,6.047650988069107614e-01,1.252362944456941185e-01,-6.661257177716770062e-02,3.896007714036763686e-02,1.049359679222106934e+00
7.861106206361258286e-02,-5.466877305176004453e-01,4.938116698795593784e-01,8.930809465949393622e-02,1.304399370021631921e-01,-7.958468117531290048e-03,9.477215409278869629e-01
3.209874003657561814e-01,-1.768544013886930721e-01,5.583657783342965697e-01,-1.245843355334452784e-02,-1.777508791748968336e-02,3.312003385504445896e-02,6.535106301307678223e-01
3.553864572627858376e-01,-3.588159854839199081e-01,3.490472346660831726e-01,1.288836989064894717e-02,-1.643058723145562894e-02,-2.441477776258356783e-02,7.132281064987182617e-01
3.611991406519248216e-01,-4.369141555140682032e-01,3.894692536976061548e-01,-3.158221516782860894e-02,-1.397342216725141941e-03,-9.361205286172055717e-03,8.146212697029113770e-01
3.000354323241106735e-01,-1.031795389630841830e-01,3.777439342899556185e-01,-2.542198294368867503e-02,-6.524866340995957859e-02,-5.788877466680588529e-02,4.740447998046875000e-01
2.108596275485577487e-01,-5.345023902563602602e-01,4.838328776608685766e-01,7.787038756986853875e-03,6.299750545489946063e-02,-1.390593151107840861e-02,9.198972582817077637e-01
3.581669409652292746e-01,-4.025391056687727120e-02,5.447486466968711749e-01,-5.292319778379642181e-02,3.573278054474375576e-02,-1.225034267436077295e-02,5.296916365623474121e-01
1.830350264693065832e-01,-4.492833638611141156e-01,4.365003579990521798e-01,3.184396232075967746e-03,2.525138143099938705e-03,-3.774270813422072788e-04,7.901847958564758301e-01
3.597918374113403539e-01,-4.334983471625921680e-01,4.246210180817055480e-01,5.230715383771226273e-02,1.736919686237763938e-01,-7.054510236469392626e-02,8.936359286308288574e-01
3.655041743373534380e-01,-3.947962498750866578e-01,3.465417971670047281e-01,-6.722973661842032711e-03,-1.697910967756872253e-02,6.549906940907818977e-03,7.517502307891845703e-01
3.647727266426451509e-01,-3.534141058417119563e-01,3.253551535475933676e-01,-3.942547988239413284e-03,1.182668055265001777e-03,1.372030831817340046e-03,6.993520855903625488e-01
3.670138105994038558e-01,-4.703695539859386043e-01,3.671858527372843239e-01,1.054137987643802375e-03,-5.160808241701325856e-03,1.623057405800712276e-03,8.375238180160522461e-01
2.756911327074422768e-01,-1.108266590691405762e-01,3.684758376593403328e-01,-9.223725896914360817e-03,6.656848416175149830e-02,7.024764470805229533e-02,4.714037179946899414e-01
2.929370730102783815e-01,-1.215180360116629443e-01,5.390828706606280996e-01,-7.549713247950855244e-02,-4.786916642359079210e-02,-2.924721309916708187e-02,6.007638573646545410e-01
4.199522626254699187e-01,-4.636277466317554330e-01,2.637575885598730796e-01,8.683300763787876395e-03,3.877908601857054001e-03,6.899514455476297124e-03,8.170153498649597168e-01
3.728377041838404904e-01,-4.559674752195620462e-01,3.471707046936746699e-01,3.251446965087661112e-03,1.350230179779255205e-02,-5.413629258116027130e-04,8.166292905807495117e-01
3.606217073874327106e-01,-4.657225786844078064e-01,3.816956499771052558e-01,-7.723569978905610658e-04,2.994839869620006222e-03,4.537684999600610780e-03,8.371343016624450684e-01
2.616066673262468778e-01,-6.072939039501773495e-01,5.390643458851049896e-01,1.295565955683846970e-01,1.911815145711114883e-01,-9.463677531032506363e-02,1.122465252876281738e+00
3.141893042047411155e-01,-1.728247176796566253e-01,2.982628524133394965e-01,3.064837577934791807e-02,4.604788844017521088e-03,-3.984160777884061463e-03,4.822956621646881104e-01
3.698602422780283283e-01,-4.668807223876365597e-01,3.411434068043507351e-01,1.746914264811269936e-03,6.931855075851698841e-03,-2.247462127875758577e-03,8.228608965873718262e-01
3.580977492258731187e-01,-4.565980500837086842e-01,3.831716676413151612e-01,-5.545604237679936264e-04,-7.456463075101562102e-04,-1.036550588057558175e-03,8.275212049484252930e-01
1.897555648960179975e-01,-4.499572724106867261e-01,4.315287526544481223e-01,-7.119419862999037344e-04,-6.696932333255335712e-03,-3.092821110090293157e-03,7.889974713325500488e-01
3.591720497725347516e-01,-4.622208779493591768e-01,3.815804095183779610e-01,-6.048751962942961911e-05,-2.910392154994947576e-04,2.186995844486772783e-03,8.328320384025573730e-01
3.809762154742813434e-01,-4.598150841082626616e-01,3.590298495693783898e-01,-8.858093856790330784e-04,-4.474075038980836888e-03,1.861245947672922861e-03,8.300796151161193848e-01
3.345592274589107573e-01,-2.581842132149961833e-01,3.238547367195957483e-01,-3.271468904237390118e-02,-1.633701671737800357e-03,-1.392252458521626123e-02,5.906899571418762207e-01
4.646578785442890824e-01,-5.209843107577835086e-01,1.884723076692466914e-01,1.959650064276088205e-02,1.906293408817215373e-02,-6.572663846843455893e-02,8.892418742179870605e-01
1.122906835153264088e-01,-5.200636839191876692e-01,5.070714675043898056e-01,1.075986283541399864e-02,7.987943509488332205e-02,3.176995324576820101e-02,9.098806381225585938e-01
3.630021472475736255e-01,-4.623522268190806139e-01,3.810959907144086389e-01,1.926516073479938793e-03,-3.568063143896801816e-04,2.191097017270092397e-03,8.345639705657958984e-01
3.587009726715703617e-01,-4.555292381216027309e-01,3.772270021504739446e-01,-9.384144183291502281e-04,-1.075240474586864909e-03,-3.633707088754744782e-03,8.236772418022155762e-01
3.539119498317988555e-01,-4.329919988501946815e-01,3.800717538812148355e-01,6.311610155686199443e-04,1.166039979204362351e-04,-4.315276611737096576e-03,8.003402352333068848e-01
3.601732438209281906e-01,-4.666410801343635617e-01,3.827460784117436843e-01,-2.302306395689293454e-03,2.216722958942308769e-03,5.411652852591216679e-03,8.383993506431579590e-01
2.530966877323003184e-01,-2.066965077518103100e-01,4.622271149926615585e-01,-6.257145872016151023e-02,1.266191806484875428e-02,3.510208096550761214e-02,6.059910058975219727e-01
3.405053695234765421e-01,-2.616399280383090442e-01,4.022854386955860839e-01,8.612624380431291304e-02,1.802263924762238234e-01,-4.932762508377945554e-02,7.284187078475952148e-01
3.644857523885766670e-01,-4.693312148311424847e-01,3.692796894460581014e-01,-4.296141573172980281e-03,2.676341326481981257e-03,-3.096519829030702862e-03,8.362873792648315430e-01
1.312164404042942545e-01,-3.996166090604460486e-01,4.620443277138594484e-01,7.107432313278048974e-02,-1.093484138787549076e-01,-2.530367676602315874e-02,7.872686386108398438e-01
3.523579653232032927e-01,-4.117777067373589173e-01,4.158978004170673093e-01,-9.329805418984001009e-02,1.588233177718367459e-02,2.320358546373223543e-02,8.154625892639160156e-01
2.181768347580155532e-01,-4.522311745270166661e-01,4.519300144208689418e-01,-1.730076564091903232e-02,1.472819574261265141e-02,-6.983685754206589436e-03,8.139364123344421387e-01
3.657382900399360204e-01,-4.673465105777108164e-01,3.663431025084832870e-01,-7.518301237453161104e-03,2.653899022959194803e-03,3.186087665877976229e-03,8.335200548171997070e-01
2.214411437385677417e-01,-4.409082253625544734e-01,4.152887042024223652e-01,4.133806456206682439e-02,-1.673757378128369888e-01,6.088881022034239865e-02,8.396255970001220703e-01
3.627025866171053048e-01,-4.507220586777114235e-01,3.729002976242906664e-01,3.402596298899718263e-03,9.752019205363468210e-03,-2.572594061346732044e-03,8.187787532806396484e-01
3.659466803518049982e-01,-4.311075360744136553e-01,3.567647542695823182e-01,7.563352582661269675e-03,-4.827052201274310882e-04,2.606864173381437215e-03,7.926247119903564453e-01
4.178827499247025345e-01,-4.350127756058681516e-01,3.622597732705302720e-01,1.287047301392738822e-03,-9.027957978706493969e-03,4.666203575513411250e-02,8.305814862251281738e-01
3.597175021493830283e-01,-9.874340760179267651e-02,2.629480515919427330e-01,7.451331747789138177e-03,4.095345445650089983e-02,9.079452012292771323e-02,4.528959989547729492e-01
5.209624254587583714e-01,-5.856028255401142246e-01,1.505540027859530450e-01,-4.859322155231386720e-02,-2.089404821051719097e-01,-2.444605071478407957e-02,1.044821977615356445e+00
3.277263107142190934e-01,-4.895905038928926034e-01,4.721200188281091670e-01,-1.525297970932181640e-02,9.065546899975148072e-04,-2.804131662159206877e-03,8.986632823944091797e-01
3.200533013538494065e-01,-3.019166730508921481e-01,2.137838124826917929e-01,-6.244823241050648233e-02,-1.890821244802383394e-01,-9.869499423178325348e-02,6.929798126220703125e-01
3.476910961632316277e-01,-4.586539277251096003e-01,3.188001457037612507e-01,-1.572638132561354762e-02,-1.499149076206904296e-02,-1.236963359036650535e-02,7.934772372245788574e-01
3.601233470703949502e-01,-3.522823247025889115e-01,3.359508113729012813e-01,3.910702534030974231e-03,9.573234344762022660e-03,3.731752390238938025e-03,7.008909583091735840e-01
3.654605117780433954e-01,-4.687999002880625099e-01,3.718634454826644786e-01,-7.752877433114749176e-04,6.066911901298674067e-03,-2.856817117749638375e-03,8.375618457794189453e-01
3.502647437428403343e-01,-4.678345943838624343e-01,3.595920129734442305e-01,2.609238058246825601e-03,-1.469667730201086684e-03,4.312873211264763550e-03,8.228529095649719238e-01
3.496511320238908649e-01,-1.313581057725419221e-01,3.169399441216087521e-01,-5.320213739361558114e-02,2.875566389037271381e-02,2.875499573636274443e-03,4.771817326545715332e-01
1.626940896299741701e-01,-4.611833984354697380e-01,4.583194276795678479e-01,-6.528629549179930901e-03,6.556230760401982050e-02,-1.598071924730748786e-02,8.214868903160095215e-01
2.408934640953565576e-01,-1.346053635162133832e-01,3.940206113116873632e-01,-7.553074492970511533e-02,2.670148285670744664e-02,-2.833758588998011932e-02,4.935676157474517822e-01
3.760986899986051846e-01,-3.142216871710442061e-01,3.470571269538402781e-01,-3.202171437124994718e-02,-2.004513262216290649e-04,-6.301891912757337511e-02,6.872612833976745605e-01
5.099550235313257129e-01,-3.007099080678049541e-02,4.717323354923139145e-01,-2.353851949314029329e-02,-2.124655343134303122e-03,-2.521461261125814909e-02,5.253863930702209473e-01
3.633487177500556720e-01,-4.595951046184538757e-01,3.732533123367481886e-01,4.155855327378053451e-03,-1.305554239427313482e-02,-3.373346248614161099e-03,8.283011913299560547e-01
3.561098809088196759e-01,-4.301912488993098194e-01,3.646299909379185356e-01,-1.265507137855563166e-02,-1.015937470536836234e-03,-1.001881566684853161e-03,7.909032702445983887e-01
3.184508360823158357e-01,-4.812829289134595845e-02,3.204041187864687390e-01,-9.458894900518668991e-03,2.836332421963650569e-02,-5.876524828964207331e-02,3.848922252655029297e-01
4.825971262595026845e-01,-5.433917367349611061e-02,4.747441615450402885e-01,7.376092119941984188e-03,1.199193524746799272e-02,-2.792774627704540033e-02,5.357986688613891602e-01
3.647492672034763905e-01,-4.639170682561937209e-01,3.710281983153077001e-01,-4.227226823494008821e-03,2.163282852547731509e-04,3.409186895165635441e-03,8.318768143653869629e-01
5.160328323532336059e-01,-1.465312956972258940e-02,5.145898524378189620e-01,-9.582439946233204525e-03,-1.158061904044720147e-02,2.203467684545830710e-02,5.319758057594299316e-01
2.074352585090972756e-01,-4.519077048702700994e-01,4.323725140651182297e-01,3.154789253360287902e-03,-3.300492431671949410e-03,7.104398680685122466e-04,7.960557341575622559e-01
3.660022498572018113e-01,-4.556102607952540184e-01,3.102829437069385410e-01,9.814200149038504115e-03,-6.014511225789904297e-03,-2.000987149991807247e-03,7.954756617546081543e-01
4.908690110425297237e-01,-1.827856514151648959e-02,3.814775294521967619e-01,-4.132878873361641239e-03,-7.305164083503067063e-02,-3.650228788757513970e-02,4.853446781635284424e-01
4.201986255048066332e-01,-4.308924800995237447e-01,2.525841775052097282e-01,-9.796810420666803021e-03,-5.506688824575920599e-03,3.208913551682676668e-02,7.831114530563354492e-01
3.651295640956227495e-01,-3.986219858022592710e-01,3.451485309454672690e-01,2.201177598805870248e-03,1.231341299692144745e-02,4.020136068392647991e-03,7.543029785156250000e-01
4.996678390475364218e-01,-1.439839561383882138e-02,5.075870952780656697e-01,4.886705102489181940e-03,-3.742657183380071473e-02,2.142482099457464553e-02,5.234966874122619629e-01
3.569789287226995955e-01,-4.455837298210466590e-01,3.766838727662178421e-01,1.096564109030803529e-02,-1.257175218861076443e-02,-1.010465608514793563e-02,8.132961988449096680e-01
3.517722280871197205e-01,-3.975502798882686317e-01,3.561261286076048416e-01,5.393146338600548345e-03,-4.347873487216418614e-03,-2.488536697860864455e-02,7.528396248817443848e-01
3.351162436744994366e-01,-1.791463083703412340e-02,3.367184108370759321e-01,2.688337970322362061e-02,8.037419456742916565e-04,1.816339665620524471e-02,3.582719564437866211e-01
3.789353069014029241e-01,-4.625404866817155458e-01,3.011123071141145746e-01,-8.793171844056627343e-03,-3.998504114963971623e-02,-1.425182110137514051e-02,8.088816404342651367e-01
3.785535552609758381e-01,-5.348362452339983086e-01,2.859005600201049990e-01,-1.171115818805612552e-01,-2.473042443001098878e-01,-1.070242655730359455e-01,1.008574843406677246e+00
3.461340084336314016e-01,-4.632244016134641207e-01,3.669457125640223638e-01,-1.355040067666845108e-02,-3.250668170624569121e-03,-6.494298513179464112e-03,8.203946352005004883e-01
3.167433272676457578e-01,-1.904122255271917807e-01,3.058691530369608280e-01,-3.410580551524677179e-02,9.131690461262075009e-03,1.767700404971181026e-03,5.055286884307861328e-01
3.700758341410745333e-01,-4.444053492784499904e-01,2.774383199963195157e-01,-3.428998240411667078e-03,-1.190330639204843430e-02,1.169602060177140019e-03,7.726410627365112305e-01
3.324877741669539644e-01,-4.449640454145018520e-01,3.290592289233366663e-01,9.862553173653092805e-04,-2.544387605874778250e-03,-6.151856172288915590e-04,7.757583856582641602e-01
1.678280948902322045e-01,-5.374814896311206347e-01,4.470253709314143120e-01,-4.046634075787820112e-02,-1.869284895523410928e-01,-3.596184080390275872e-02,9.412504434585571289e-01
3.284263397520779115e-01,-4.482708720109737088e-01,3.244200432411155077e-01,4.086000882777681906e-03,-8.546886538278782725e-03,2.865711045581228848e-03,7.748914957046508789e-01
6.624284171433564294e-01,-7.176530155234203123e-01,1.274410991031802998e-01,-2.840902655940022751e-04,-2.968044458401695312e-02,-7.328975980992361028e-02,1.212958097457885742e+00
3.505985955323013825e-01,-4.694030121857571958e-01,3.715056338405747227e-01,5.412605835700958976e-03,4.758906201780130178e-03,7.590593697179586277e-03,8.308503031730651855e-01
3.572567517848144192e-01,-1.308771314349166937e-01,3.522276087308756631e-01,-7.246361770114725931e-02,-7.939248282907257828e-03,-1.799059767233634338e-02,5.027505159378051758e-01
2.766133183278012275e-01,-7.263606647008369332e-03,3.475022585079468040e-01,6.008582738657219750e-03,-2.581599678443837614e-02,2.162701426987136827e-02,3.305237889289855957e-01
3.468704255455110630e-01,-8.919600231503876930e-02,3.496439639894408646e-01,-1.884219833278428374e-02,5.015024112991752110e-03,-1.755205428861952160e-02,4.398134052753448486e-01
3.444589010447220989e-01,-3.857134970719481304e-01,4.031986397936002109e-01,-9.006579080841516094e-02,8.654543447901778819e-03,2.917055324673787156e-02,7.788486480712890625e-01
6.861329435124872145e-01,-7.956069419449889324e-01,1.136724119932207011e-01,-2.512141779084364757e-02,-6.907172402981812120e-02,-1.432459853830600482e-01,1.323930025100708008e+00
3.669770270875286067e-01,-4.624426599403097526e-01,3.641390126893075396e-01,3.068162120501571107e-03,2.073114157002160871e-03,3.278879341638873176e-03,8.280486464500427246e-01
3.689249950676369849e-01,-4.529723035630491834e-01,3.072274778539123563e-01,-8.538923104672219155e-03,-6.934879166119428673e-03,1.042725188792440762e-04,7.930799126625061035e-01
2.994976414742970272e-01,-7.844552039425151113e-02,3.513208691130552119e-01,-2.152917765928279159e-02,1.172474521636009646e-02,-1.356652145016216948e-02,4.092285335063934326e-01
2.805613429182096663e-01,-5.387598063666111381e-01,4.666370765162202727e-01,-8.466103372719338896e-03,-5.160114577160047900e-02,-1.087694952805023409e-03,9.308994412422180176e-01
3.723104826409076584e-01,-4.653856624744933113e-01,3.327061388185852397e-01,1.059589241455023527e-02,-9.708019099593260745e-03,-4.712540094084963866e-04,8.189915418624877930e-01
3.682771936990544837e-01,-4.523657877335731659e-01,3.722371128147435870e-01,8.336271028774591349e-03,-1.156011473150663155e-03,4.182136599428636081e-02,8.259418010711669922e-01
2.530455307608630022e-01,-4.959905022769877103e-01,4.098036023993635868e-01,-2.211153069379787756e-02,-5.406310262489173735e-02,-1.695483763458649831e-02,8.450698852539062500e-01
4.082096688237706328e-01,-1.021635276637623546e-01,3.275677656716615704e-01,-1.740732202383286908e-02,-9.274510638581832944e-02,-7.455827215472814011e-04,5.025357007980346680e-01
3.775178337106300797e-01,-4.431831932546325126e-01,3.549401559764194802e-01,-6.560566496625452881e-03,1.119069686166842843e-03,6.061669788785354089e-04,8.097310662269592285e-01
3.714415982302625152e-01,-4.539100094829544574e-01,3.603719231348115337e-01,-1.874331523771598869e-04,2.124329502810669724e-03,-8.384205158813531379e-04,8.198824524879455566e-01
2.641433072881795296e-01,-4.623786228646997731e-01,4.029537634967407800e-01,7.453789574817938635e-03,-3.271820415420401140e-03,-7.176129090713939673e-03,8.051736354827880859e-01
2.626754764783620910e-01,-4.641563757302760163e-01,4.166981753994705162e-01,6.899364954829139210e-03,4.133461414526514409e-04,-3.747505274217292036e-04,8.149232268333435059e-01
3.212915033555254762e-01,-2.221002620985971232e-01,3.276151121691968648e-01,1.774844983079888749e-02,-1.158257480980555074e-02,-1.749759709366864591e-02,5.486499667167663574e-01
3.066593532064075811e-01,-4.563467581675081375e-01,3.724601434240404352e-01,-1.556340785653112513e-02,-1.038043373503621560e-02,-1.505647177487318307e-02,7.990272045135498047e-01
2.479568748796934230e-01,-7.373923379320246330e-01,5.345451925054399700e-01,8.280873937600788381e-02,-2.116911281272730316e-01,4.199846017039950835e-02,1.223003864288330078e+00
2.736115295681426085e-01,-4.683203620159825942e-01,4.010656738348656880e-01,-4.870611827913922526e-02,-4.878117565324102678e-02,-2.284733425678586727e-02,8.228556513786315918e-01
3.623671261045448011e-01,-4.558155394031198071e-01,3.726254607116508133e-01,-5.819615873065868070e-04,-4.948323222493518532e-03,5.059001168110326477e-03,8.234516382217407227e-01
3.909517973935664470e-01,-5.029746427902070938e-01,3.682869623034805695e-01,-4.151922372243420714e-03,-6.107040966270119164e-02,-5.826941295479052228e-03,8.892130255699157715e-01
4.800955808611842013e-01,-4.846059259652786277e-01,1.540786223508852637e-01,7.792984792937752980e-03,1.155800119954300542e-01,-6.939224334415856031e-03,8.734013438224792480e-01
2.523864359419030756e-01,-4.674082741820131393e-01,4.153341561484269473e-01,-3.154907705123850131e-02,-1.380607721682733033e-02,1.809170126641533767e-03,8.157897591590881348e-01
3.022724677552651174e-01,-2.297691555028689159e-01,3.270819746313948229e-01,3.460589886830882627e-03,9.657692231267474628e-03,-1.744877966874002016e-03,5.451682209968566895e-01
5.501040906410095133e-01,-2.366962379992173515e-01,2.422903189982983652e-01,-4.726139014367158192e-02,6.142741816833373683e-03,8.269898578747979234e-02,7.063621878623962402e-01
3.700745102791341279e-01,-4.511101837351204624e-01,2.850672695556785152e-01,-1.319058361980727200e-02,-9.253711829772462080e-03,-1.220285342160980918e-02,7.829364538192749023e-01
2.994048068969710208e-01,-3.517670359780044609e-01,3.964345956655909164e-01,1.023173918726519999e-01,-1.406460766854871480e-01,2.507464553852196271e-02,7.676323056221008301e-01
4.075474742349173840e-01,-4.539025908196894221e-01,2.305190693057485585e-01,-6.401942802873519280e-03,1.495610700224686562e-02,-1.633354709490051401e-03,7.885024547576904297e-01
3.280161213774892004e-01,-8.183643067706661833e-01,4.883579772929930174e-01,-1.358817052579036067e-01,-2.706251561668258088e-01,-5.156414895043293090e-02,1.344169735908508301e+00
3.219359687535238157e-01,-4.578602446766667500e-01,3.935330865019341373e-01,1.577914487225526990e-02,-2.835680044960101759e-02,-1.783399181478016390e-02,8.204589486122131348e-01
1.167603746881580723e-01,-6.549503980361297550e-01,6.689810030231249094e-01,1.845851393144068153e-01,9.135643964744713519e-02,-1.740567534637311314e-02,1.206151604652404785e+00
3.492573989529333400e-01,-3.401339221768598930e-01,3.402980403382325769e-01,4.042281397344273108e-02,5.103082330674612796e-03,3.877541728785982057e-03,6.886141300201416016e-01
3.850928611544937041e-01,-4.670767215947217998e-01,3.278304823493204401e-01,8.152083809028268929e-03,5.701268907279065032e-03,7.446584431838643853e-03,8.253108263015747070e-01
3.607398397330601192e-01,-2.411975258389397192e-01,3.409228205976085890e-01,-5.789783143480243394e-02,-7.740802983467390611e-03,2.350450962249694617e-02,6.022344231605529785e-01
3.642672454954314354e-01,-4.446281632465619582e-01,3.632490230941864962e-01,-5.065755103872608342e-03,7.210551539541252761e-03,-3.525080986566452110e-03,8.085539340972900391e-01
3.321693722982742569e-01,-4.648222322666515360e-01,3.751336060362178704e-01,5.012212386186710479e-03,1.444185437300037067e-03,1.061642964004352700e-02,8.195751309394836426e-01
1.883373957120233200e-01,-4.586908379015010029e-01,4.373680574784932773e-01,9.296990553678939270e-03,2.990492463367332328e-03,1.097811125338017061e-03,8.012998104095458984e-01
2.298761855538988541e-01,-4.488640818000300126e-01,4.000763012981504163e-01,-2.648117220422215815e-03,1.601776423192840387e-02,-2.817860924995355641e-03,7.784553170204162598e-01
4.250256448082951888e-01,-4.615817895745808475e-01,2.228372147586500929e-01,-4.614398480233245121e-03,2.865861836345759417e-02,-7.446362983171821506e-03,8.064646720886230469e-01
2.479640483233762072e-01,-5.769453129669627200e-01,5.595720395673395853e-01,1.408743468074373228e-01,1.772761757591040932e-01,-2.581859460755464575e-02,1.091073036193847656e+00
1.919251204582620440e-01,-5.505101482462571028e-01,5.084658830411357133e-01,-3.105249040337984545e-02,4.763860887348455968e-03,-1.024016369188479429e-02,9.432362914085388184e-01
3.310606456201057313e-01,-4.712390023406970441e-01,3.912276018987793091e-01,-5.726945276489965250e-03,2.438025618436936992e-03,5.641262654898608619e-03,8.341393470764160156e-01
4.434092169903593450e-01,-4.708214280284966913e-01,2.183319539324109215e-01,3.701241476087946056e-03,-1.652357967679876291e-02,-1.417730515740680750e-02,8.259346485137939453e-01
4.396769823646294317e-01,-2.082000077161585971e-01,3.688391345791720566e-01,2.246243970051808522e-02,-9.873273291584014344e-02,-8.646197500469443228e-04,6.400224566459655762e-01
4.082297404656892170e-01,-4.605511085111332337e-01,2.321916235056151467e-01,-8.218392015410979495e-03,-1.962376981494072178e-02,-1.101009400773732966e-02,7.965881228446960449e-01
4.506037692238935022e-01,-4.662123634162603780e-01,1.990240672781130038e-01,-9.567394903596534300e-03,2.838689913592953862e-02,1.365801120263572359e-02,8.224618434906005859e-01
4.926013592155908949e-01,-4.745807035244902217e-01,1.758491150414456805e-01,-1.141678091531910877e-03,-5.675476601190483292e-03,-1.311623630744183748e-02,8.544195294380187988e-01
5.171243184457013919e-01,-5.355794226541411573e-01,1.029371443716793344e-01,7.356656824180055412e-03,-3.611044759018886691e-02,-3.434000864708365575e-02,9.226763844490051270e-01
3.675334893959886218e-01,-3.946384965348830320e-01,3.450960084278857920e-01,1.483626202673360255e-02,6.026769914863651378e-03,2.444525736094054109e-03,7.517284154891967773e-01
1.069873930810766871e-01,-8.640491969486765456e-01,7.199239145129103790e-01,7.513432433583013687e-03,-6.854482531260579214e-02,5.147450398068256772e-03,1.388571619987487793e+00
2.276068031967401761e-01,-4.454863096763241881e-01,4.011961892245930472e-01,-1.326817248268302935e-03,-1.142715380857615287e-02,4.247306371422819755e-03,7.749068140983581543e-01
4.572919667468798299e-01,-4.831945889190029098e-01,1.355966035581713247e-01,-6.050939319138059699e-03,5.795087704865049816e-02,1.855221068502849180e-02,8.346676230430603027e-01
3.488795450199928538e-01,-6.634924994764551665e-02,2.982233502201880881e-01,1.372110977625710243e-02,4.990373907070266325e-03,3.870700124979346672e-03,3.932321965694427490e-01
2.699922386473579405e-01,-4.608537255555128498e-01,4.018629221117457351e-01,-5.682020149492120371e-03,-2.832888274903887400e-03,6.150299439497618550e-03,8.050697445869445801e-01
3.209226744599876779e-01,-2.140707472499998043e-01,3.145442557885986812e-01,-2.526226446718251445e-02,-3.418347103128222507e-03,1.894945329688257907e-02,5.346710085868835449e-01
2.011319017389011365e-01,-4.497137965927826553e-01,4.260440710592245939e-01,-2.688352433388301130e-03,7.062780071449562685e-03,2.822009725408878254e-03,7.878857254981994629e-01
2.988456410318733880e-01,-4.696619838037109362e-01,3.896064509470485437e-01,-1.450414850123492826e-02,4.347920498747997672e-03,8.471670594420254927e-03,8.182267546653747559e-01
3.190659752377579261e-01,-4.543700822778221626e-01,3.913749272260911849e-01,-2.579811958967887300e-02,-1.069093132672030433e-02,4.771105922747430859e-03,8.134900331497192383e-01
3.677015698125016829e-01,-4.532400371927485239e-01,3.031886882536811711e-01,9.439005672262315572e-03,-6.611099838143766685e-03,-5.301666121152849923e-04,7.909139990806579590e-01
2.662699482370062820e-01,-4.625438681195420676e-01,4.210370847870333888e-01,9.694886897993878691e-03,1.797559023948416129e-02,4.156794291765008968e-03,8.180599212646484375e-01
2.067513275104337911e-01,-4.608162212906261601e-01,4.386345376458313239e-01,4.364979599505525686e-03,1.659955092135504545e-02,-3.672824000851267288e-03,8.094061017036437988e-01
5.117437301094965862e-01,-5.561152471844290623e-01,1.315074927052108100e-01,-5.251563221710236345e-02,-1.494032858528394209e-02,-1.901963167803568527e-02,9.428108334541320801e-01
2.915871544499301082e-01,-4.463686522733418816e-01,3.465874863892263180e-01,6.158472231064837958e-04,1.651863762732092011e-02,-3.226780133279143637e-03,7.674911022186279297e-01
2.804079522061718732e-01,-4.443392664184230290e-01,3.679177105007156445e-01,5.421733641951741959e-04,1.067198137546984671e-02,-5.844478739309654468e-03,7.725179195404052734e-01
3.722553336957928338e-01,-4.500205927095609626e-01,3.597230403326975856e-01,2.638861805597949185e-03,2.996922531394123970e-03,-1.306142867230477363e-04,8.161112666130065918e-01
2.966878711769785903e-01,-1.348338380112020229e-01,3.041917766768532649e-01,2.824698902305117394e-04,7.345410951765379967e-04,7.015736797896849784e-04,4.353260099887847900e-01
3.040086312895732279e-01,-7.447905054815338044e-01,4.773028611584515524e-01,1.019158527558138988e-01,2.737981641993681436e-01,-5.857539274494351356e-02,1.256229043006896973e+00
3.703037387677225456e-01,-4.488159976934167350e-01,2.692851080725094937e-01,4.140228666277578386e-03,1.339322118022309022e-02,1.975337955990880395e-03,7.739617824554443359e-01
3.130682365716854765e-01,-1.950785052905694705e-01,3.091998415031524394e-01,1.696132875140362109e-02,5.753530010516454650e-03,1.399506276125693678e-02,5.077522397041320801e-01
2.634628233475686532e-01,-4.537275985456666882e-01,3.706753018388136978e-01,-7.757666022300257862e-03,2.599052557258546559e-02,1.151110686004552450e-02,7.780443429946899414e-01
3.390942588589757611e-01,-1.893675462113761920e-01,3.531607777017647942e-01,5.087403032786473080e-03,-8.643959315337620269e-04,4.947914558419339026e-02,5.425198674201965332e-01
3.049129011732170103e-01,-7.563700564632958034e-02,2.975510738332864946e-01,1.205224246372205328e-02,3.303731311257516144e-03,3.169562606701196994e-02,3.815144002437591553e-01
3.793632747319943266e-01,-4.627793105628490444e-01,3.628445672362231589e-01,1.994403801157515824e-03,5.722886038402702187e-04,-4.516521581406029127e-04,8.340140581130981445e-01
6.301412758229769651e-01,-8.003658782587216303e-01,2.141061431352522526e-01,4.896885694494137325e-02,2.153932483136030696e-01,-1.192932614346501469e-01,1.346611976623535156e+00
1.820249510576102681e-01,-8.190727488770470632e-01,5.353151384768234378e-01,-1.496254245976200506e-02,2.521837462990835776e-01,2.954884543985905263e-02,1.294128894805908203e+00
4.332182957260001799e-01,-4.531260228806598400e-01,2.201801675087521892e-01,-2.732454176878320196e-03,1.959612526030212604e-02,-5.864033983683015518e-03,8.021495938301086426e-01
4.697657054131466614e-01,-5.416539495024130790e-01,1.545628877102682430e-01,-3.209547310652004649e-03,5.034045653407358267e-02,2.065880098856181027e-02,9.013511538505554199e-01
3.729664109345414702e-01,-4.401115156957813301e-01,3.552466564600691434e-01,4.766477132400549592e-03,-1.127330378852630169e-02,-1.950552467449015188e-03,8.046508431434631348e-01
3.415750254574488887e-01,-9.326902637738498925e-03,3.834857018224632208e-01,1.547601750881969634e-02,3.839891804608980969e-02,-4.401127321161517336e-02,3.880053162574768066e-01
3.628743362818749874e-01,-4.664663051079515066e-01,3.760557493898664116e-01,-2.413845386981763874e-03,-1.969313214547005041e-03,2.791695353986635105e-05,8.360267281532287598e-01
3.660419249241358974e-01,-4.645490640195739651e-01,3.630200404783603396e-01,-4.435813819014121535e-03,-5.307776180086140605e-03,6.264166631307320487e-04,8.291714787483215332e-01
3.782040710930213989e-01,-4.641835171071246879e-01,3.406848519307177359e-01,3.936986631468863268e-03,-9.746629081968179349e-04,1.055556901780759990e-02,8.245013356208801270e-01
3.794579700897033891e-01,-4.604603993968545694e-01,3.594847780869757647e-01,2.042396938043919592e-03,6.454401416273919433e-04,1.324088362707698198e-04,8.301203250885009766e-01
5.064786882803378187e-01,-1.763721610449259791e-01,3.311553652091543398e-01,8.381387456423895765e-03,-7.408298836700412393e-02,-7.292166150911338907e-02,6.402594447135925293e-01
3.577133252339167457e-01,-4.052409456786298936e-01,3.573983683221986229e-01,2.429617316489762584e-03,8.733427023650841038e-04,-2.419835787443770647e-02,7.639605402946472168e-01
3.015878446823573311e-01,-2.032496979010660620e-01,3.199377841798362043e-01,4.868073697451791250e-05,-2.159678839193119888e-03,-2.417346819822406724e-05,5.142717361450195312e-01
4.346813907860472281e-01,-4.545937731998052067e-01,2.063635692879215999e-01,-1.841403180561415566e-03,-1.586003341373122197e-02,-2.562023112863038871e-03,8.004289269447326660e-01
3.376640769142985055e-01,-1.167790072819464009e-01,3.208188659022923050e-01,-3.961584147465967848e-02,-3.105055346010855005e-02,-3.227714371340497518e-02,4.581191837787628174e-01
3.929387392289967473e-01,-4.561565742719021488e-01,2.578440411017925982e-01,5.952312199061635632e-03,-1.110914286951854291e-02,-1.534806306583691047e-03,7.905622720718383789e-01
3.884437671992335694e-01,-2.801898466797633214e-01,4.460864079917938319e-01,-1.648470337892588011e-02,-1.097162822484586409e-01,-2.720950833423428292e-02,7.266943454742431641e-01
2.190261255488743508e-01,-4.660126543935481092e-01,4.170940838156198538e-01,-2.351639439722929062e-02,2.905958122614046672e-03,3.885130828211362866e-03,8.036932945251464844e-01
3.435816061329601823e-01,-3.753019480721538348e-01,3.657531365633242548e-01,5.692784710628703664e-03,-9.499441199487059645e-03,6.912299431529457354e-03,7.305718064308166504e-01
3.397799299238146720e-01,-2.960110748256923330e-01,3.275233564251567309e-01,1.233975275726137237e-03,1.548453731579402248e-02,-1.370120855793972641e-03,6.303310990333557129e-01
2.930594213693334948e-01,-1.331994824754416107e-01,2.997510461976650720e-01,-4.666414615425083963e-03,-2.481310698321634485e-03,6.603914619456382898e-04,4.297428429126739502e-01
3.086659237663820776e-01,-1.528926380556920317e-01,3.136227906423089684e-01,-2.181752161940295545e-02,3.428532410159449567e-03,-2.141493243901945384e-02,4.671058058738708496e-01
3.234689379898753048e-01,-2.874643154506429932e-01,3.710227591089982346e-01,-4.638531918237011331e-02,-1.032305374749593625e-03,-7.572871627727149890e-02,6.543818116188049316e-01
4.773480919179881043e-01,-6.991461842774597812e-01,2.601814938939603916e-01,1.029772716618542611e-02,-2.501542440479508356e-01,-3.864584185879060829e-02,1.169758439064025879e+00
2.721781135384940264e-01,-4.491899500513073518e-01,3.681476470152628688e-01,7.470418344370833436e-03,-1.567407235369043181e-02,8.602088082209543782e-03,7.745565176010131836e-01
3.656164251229115369e-01,-4.607009271803456096e-01,3.721458696308922454e-01,-5.590112490937743095e-03,1.087408675319539476e-02,-1.252674677792093997e-03,8.298744559288024902e-01
3.930899970643437769e-01,-4.554647786254236719e-01,2.820859527270349609e-01,1.021070763663543997e-02,8.774977105041560296e-03,7.754199579557420098e-03,7.993111014366149902e-01
2.377316078687159717e-01,-4.669983242605820761e-01,4.092636218200711440e-01,-1.866291020215756283e-02,-1.758072303964959213e-02,-5.454949493106941300e-03,8.056132197380065918e-01
3.184649582496234532e-01,-1.997572611503294349e-01,3.176761054359803493e-01,1.595297188061777643e-02,-1.239309627575335346e-02,-3.099196171346691939e-02,5.217775702476501465e-01
3.613783602141631413e-01,-4.389699619601581393e-01,3.637589557516584526e-01,1.581979049713513972e-03,-7.689912743066877263e-03,2.303971225700381271e-04,8.016567230224609375e-01
3.286633182796817598e-01,-2.109160449840963847e-01,3.114710082843810124e-01,1.227160567567570559e-03,-9.103818364243145694e-03,-1.948521633721744502e-03,5.314408540725708008e-01
3.632912922155050461e-01,-1.647804473503504119e-01,5.049133574923641010e-01,1.584193898933143260e-02,7.385048013787373633e-02,1.334343503610172996e-02,6.255812644958496094e-01
3.147399654284768200e-01,-1.705440864316378202e-01,3.184053807491520338e-01,1.703628342781882132e-02,-1.173453065370912325e-02,-2.316407785605040237e-02,4.900881052017211914e-01
3.226193375875282543e-01,-2.526837391847781555e-01,3.279008738804748413e-01,1.547772754806234566e-02,-1.349456998642316677e-02,4.548220267960163994e-03,5.791088342666625977e-01
4.764683061342189219e-01,-1.591362190241214503e-01,3.919772364544709120e-01,-2.297312839672805904e-02,-5.875023123741955622e-02,3.183530072304215086e-03,6.077807545661926270e-01
3.687273955296825334e-01,-3.675946963898052977e-01,3.362701147002445379e-01,1.759550463474828658e-02,-2.594399922873801955e-03,5.830147739736410081e-03,7.213706970214843750e-01
4.156145892600326408e-01,-4.284970967421730670e-01,3.353767971461213415e-01,7.765405505772133773e-03,9.163770837711337700e-03,-1.962278129877166773e-03,8.072653412818908691e-01
2.422787321928591697e-01,-5.149380705049033669e-01,3.946895915033834523e-01,-4.267362049215164821e-02,8.267917732003589315e-02,3.098684816892421229e-02,8.607355356216430664e-01
3.237504001312367929e-01,-2.987749965831458243e-01,3.502798029470428620e-01,4.001671925859546196e-03,8.468756996204734183e-03,-2.758927897477242430e-02,6.382034420967102051e-01
3.005715118730359903e-01,-4.668133432561699658e-01,3.980311681509177690e-01,-7.407090989071708938e-03,1.860893189403130515e-03,-6.378481533025381726e-03,8.206485509872436523e-01
3.671685041931734284e-01,-4.540077704071266984e-01,3.656082357330931454e-01,3.716544125046856994e-03,-1.120748540945876864e-02,-3.271171492804752536e-03,8.206716775894165039e-01
2.881519296412704545e-01,-4.730706172148755329e-01,4.016946723190571444e-01,2.263104889603083716e-02,9.358154382054450181e-04,4.595129384301864517e-03,8.248548507690429688e-01
2.854611801925995840e-01,-4.568618815650015152e-01,3.880259768212442895e-01,-2.068601955803505560e-03,-6.452650501158056773e-03,9.455213425388043005e-03,7.988148927688598633e-01
3.281917160026341929e-01,-4.661293926047824776e-01,3.765625645708904901e-01,-5.128462565971615358e-03,-9.031331743452411260e-04,9.398315003259362366e-03,8.197890520095825195e-01
3.626236774443331590e-01,-3.927504172779685554e-01,3.459677162976568243e-01,4.420086818090959713e-03,1.801210218096840551e-02,3.727021056172525465e-03,7.479034662246704102e-01
3.208161488781277604e-01,-1.828067841209823907e-01,3.090529077552229831e-01,-7.286626565270588884e-02,-3.136979303732448507e-04,4.996434874183977061e-03,5.136670470237731934e-01
4.388720065796720138e-01,-4.698711171783850338e-01,1.796596133270551010e-01,-2.341441718595874740e-03,6.331899883759643799e-03,1.633247674927338494e-02,8.114090561866760254e-01
4.559676343162644141e-01,-4.744335002490724928e-01,1.850038652515543225e-01,1.671319893756269617e-03,-1.222304732572391389e-02,-9.458292464876784725e-03,8.292692899703979492e-01
4.337531051915813896e-01,-4.798799379538349896e-01,2.157925816742878311e-01,-1.015939661185789357e-02,5.801616770411416324e-02,1.764057951033951542e-03,8.327741622924804688e-01
4.975615986351131781e-01,-5.713148519776346523e-01,1.967071041829882572e-01,2.006105014468306542e-03,9.809577581132675195e-02,4.575352388129234026e-03,9.697304964065551758e-01
4.965727958855598034e-01,-4.658124280317651467e-01,9.047481613211555418e-02,-4.324327117274930077e-02,1.182911632262549917e-01,1.180190322523480412e-01,8.886236548423767090e-01
2.382849218843334227e-01,-4.475984675763767795e-01,3.993844033367621726e-01,-9.201375430184340542e-04,1.342527358718107258e-02,-3.650149375719315137e-03,7.794021964073181152e-01
1.903782155485293226e-01,-4.464494535384782026e-01,4.319739676002008477e-01,3.639523328373124676e-04,8.532056083403634361e-03,4.127331429200461338e-03,7.861569523811340332e-01
2.980966194229750510e-01,-1.521962562605378988e-01,3.104168357258457744e-01,8.949188166103602508e-04,-3.333552286585306744e-03,-3.233970598789343009e-02,4.600396454334259033e-01
4.689957359253078550e-01,-4.788203467752385478e-01,1.787929485421962117e-01,-6.125476416278236415e-04,-3.484218521150429793e-02,-4.554613568708920993e-03,8.433382511138916016e-01
4.451198062589721838e-01,-4.774979614687397955e-01,1.560421770551314036e-01,6.300758789741569936e-03,3.895490582280657088e-02,-1.733127495993346673e-02,8.207642436027526855e-01
4.703534046589589179e-01,-5.503251397027352221e-01,1.399592701899833314e-01,2.595384679019439519e-02,2.012373977999947772e-01,-1.887615540253718277e-02,9.686578512191772461e-01
3.705761865535380783e-01,-4.752110253490631209e-01,3.659946403001484994e-01,-1.439357997611418437e-03,1.544502116419235477e-03,-1.706662830648814988e-03,8.435188531875610352e-01
2.960769535363274585e-01,-1.266287465224543718e-01,2.939828964796614708e-01,-5.694068854034207224e-05,2.719527294123930301e-03,-8.084817242398160140e-04,4.216912090778350830e-01
3.682330252582651231e-01,-4.650920537729132942e-01,3.643986996181262095e-01,-4.020424814062860397e-03,2.168834410636242150e-03,-4.089091148330693641e-03,8.314823508262634277e-01
3.291160120837919312e-01,-3.608001428799803567e-01,3.672386392295297064e-01,2.742869949156373933e-03,1.021043720802265915e-02,5.005250303039934442e-03,7.100349068641662598e-01
3.532914026585015632e-01,-4.158420345429060250e-01,3.714845621136987908e-01,2.502406267038099954e-03,1.185083650118107582e-02,-1.473442265745165437e-02,7.790902256965637207e-01
2.999207441509661454e-01,-1.464075114060652827e-01,3.003015880432578499e-01,-1.447568725177609920e-02,-2.845057567258980902e-03,8.268103777033212901e-04,4.472516179084777832e-01
3.759724946342463681e-01,-4.587072486777030722e-01,3.010078439585364141e-01,-4.188520549268411400e-03,1.034951048420964560e-02,-5.274037133055103042e-03,8.001224398612976074e-01
3.199771041671931604e-01,-2.311933981030018237e-01,3.445993304712242633e-01,1.367731797578526122e-02,-5.980062134000025884e-03,-7.435065141839473923e-02,5.789808034896850586e-01
3.165365869868389526e-01,-1.567887210492885930e-01,3.104039300115008504e-01,4.147047069217782433e-02,2.540174694749328891e-03,2.368339659712028183e-03,4.757807254791259766e-01
4.782513513888553280e-01,-5.590079257457708506e-02,5.032225834889413330e-01,-7.332594621426075966e-03,-1.921977763563784136e-02,-2.408043332141294665e-02,5.498086810111999512e-01
3.518940474867480739e-01,-3.283406110670381017e-01,3.533888083728486951e-01,7.158884575136854889e-02,2.722190726698462890e-03,2.859048358895463840e-02,6.939651370048522949e-01
3.857316565639732908e-01,-4.096164315110978338e-02,3.018901056115971815e-01,4.457365431107419146e-02,4.642179948558300406e-02,-1.144732084639988462e-02,4.076032936573028564e-01
4.741686027341500131e-01,-1.844046850716494212e-01,3.299523563604740972e-01,2.128732522806113525e-02,1.195759823876700045e-01,-6.230495744319789614e-02,6.445468068122863770e-01
3.055974156476340964e-01,-1.129042533729388564e-01,3.409704889226783386e-01,5.950812027569181081e-03,2.426093574453234980e-02,2.840088864408438869e-04,4.393982887268066406e-01
3.674747343843599579e-01,-4.664486829078128283e-01,3.648107628349169795e-01,5.521763017292808523e-03,-9.841353974763800659e-04,1.900550832458662099e-03,8.326578140258789062e-01
2.063851765384243642e-01,-4.668247187867856640e-01,4.314545619876960503e-01,-1.262760699688877594e-02,3.586006722158267823e-02,5.300253526496013882e-03,8.122851848602294922e-01
3.547170583513020725e-01,-3.192470606774479580e-01,3.264065653876597195e-01,2.763206739906374707e-02,3.043859339138226504e-03,9.951725467595581853e-03,6.622419357299804688e-01
3.237936324463618343e-01,-4.658423423821007603e-01,3.839921352522538411e-01,4.923786384393696869e-03,2.419642553380504241e-03,8.674913847116844795e-03,8.215836882591247559e-01
3.000790601895468868e-01,-1.582991794546276254e-01,3.105324905484290743e-01,-1.568500265211672171e-02,-4.787074145342745321e-03,-3.406991202965532761e-02,4.682954251766204834e-01
3.024496131734045745e-01,-1.742649186625387925e-01,3.023742069260419996e-01,1.212526043084969848e-03,2.640213612050784815e-03,-3.779221056366591225e-03,4.767483472824096680e-01
3.442351719163690982e-01,-3.701417270858285979e-01,3.640739936655100206e-01,-3.690550678814547882e-03,1.163272067283400990e-02,-6.665359624106186043e-03,7.249003052711486816e-01
3.420207304078733968e-01,-3.560370019798299590e-01,3.606400210440277032e-01,-1.197824174689667703e-02,1.314803516770482808e-02,1.185631087039017411e-03,7.082244753837585449e-01
3.523821292725266008e-01,-3.231266672049248334e-01,3.584947854702663639e-01,2.722485078005681958e-02,-1.446478771787205932e-03,6.143665130171783485e-03,6.803100109100341797e-01
3.404241013255228099e-01,-3.597161302792408755e-01,3.612840120905778107e-01,1.887650527195320477e-02,1.242742304515086563e-02,2.592214907192257056e-02,7.132913470268249512e-01
3.640423124556955159e-01,-3.733669527544685729e-01,3.567677955565399239e-01,3.567045059485449143e-02,-3.849983423359830230e-03,2.306300391325463023e-02,7.375082373619079590e-01
2.720145948321827101e-01,-4.464533116630069465e-01,3.710163883096539439e-01,-3.525197372558985603e-04,1.100908389475396126e-02,5.389781511324343716e-03,7.730318307876586914e-01
2.956174994047711668e-01,-5.376996545415807516e-01,3.352487953332543569e-01,-2.562457403879253928e-02,1.076352136063619402e-01,2.054560188440431728e-02,8.757886886596679688e-01
3.664277990207394642e-01,-5.434567301473645085e-01,3.950980492447446202e-01,-1.527627187099828490e-02,1.019618825548102015e-01,-2.563781074715798178e-02,9.426871538162231445e-01
1.467029706544137890e-01,-3.628159502636427725e-01,5.251703307468008619e-01,9.199482879431770954e-02,1.266278652804140592e-01,1.173557274805430220e-02,8.182845115661621094e-01
3.515328486174822964e-01,-2.785435893538130703e-01,3.305090607052548757e-01,5.644625256022303000e-02,2.539491329007208687e-03,1.111419988571251197e-02,6.278058290481567383e-01
5.642012452409174150e-01,-4.058306839667981114e-01,2.206276506500782775e-01,4.896441395739373897e-02,1.191755764348845226e-01,-1.162965978483089385e-01,9.033842682838439941e-01
3.106668036020863721e-01,-1.596531334510375433e-01,3.237429647900599838e-01,4.992953604450183630e-02,2.963951747588221622e-03,4.949044639410290353e-02,4.923159182071685791e-01
3.581533783359138190e-01,-4.374742008435839047e-01,3.692655404902984717e-01,1.191837082356475737e-02,1.634031880912973494e-02,2.720388074719287674e-02,8.033897876739501953e-01
3.376012549380745797e-01,-1.186187057076215079e-01,3.245756622335262964e-01,-3.453396886670766913e-02,-1.129492091474346670e-02,-5.930379027782324564e-02,4.656985104084014893e-01
3.793268817592308495e-01,-4.536569454788769162e-01,3.587555959108154058e-01,3.633117249160057547e-03,-4.765344054454623886e-04,-7.138086553552139919e-05,8.229155540466308594e-01
3.443542338453814411e-01,-4.926635882637261377e-01,2.776087662076310858e-01,-4.360230320356699857e-02,1.924242855155092746e-01,-1.781767613265904798e-02,8.757418990135192871e-01
3.671170925688654885e-01,-4.466220744375904994e-01,2.833918229872993688e-01,-4.853562567075118267e-03,1.160660279524033597e-02,-2.270050211785457463e-04,7.755809426307678223e-01
3.866345782968593214e-01,-3.091370978096463773e-02,4.087993053466334459e-01,-1.868158606630455909e-02,-1.449203631533615422e-01,-4.196496462196075763e-03,4.981949925422668457e-01
2.939138203414006778e-01,-1.112943581907875901e-01,2.969805352911853991e-01,1.509507548121460756e-03,-3.770630280342268138e-03,1.813211968067859892e-02,4.080215096473693848e-01
3.812891946886955985e-01,-4.329092401595774353e-01,3.515957002336208559e-01,2.047234519662759558e-02,-1.130950271023727907e-03,-2.205678706782209181e-04,8.005533814430236816e-01
3.863923630429657030e-01,-4.689889099283253149e-01,3.272984940935628195e-01,-4.631619727218601323e-03,2.663583011967015669e-03,-1.207360326332136517e-02,8.277344703674316406e-01
3.445832164182889290e-01,-3.508566248164291523e-01,3.677549739806438289e-01,3.161154010817943116e-02,1.814466069915922700e-02,-1.076253133472464124e-01,7.341820001602172852e-01
3.564873923204359141e-01,-3.858531366989015887e-01,3.642042077243728970e-01,7.079983556808083778e-03,-9.921342985696603861e-03,-2.120388979890190304e-02,7.474302649497985840e-01
3.675822112102960504e-01,-4.587874326336741637e-01,3.090621335394944103e-01,-1.054749059799085613e-02,6.998369933473377533e-03,-1.150173332126187007e-03,7.990224361419677734e-01
3.714338960239726428e-01,-4.687516724915468114e-01,3.663505427349001975e-01,-2.805104625416031568e-03,-8.846959043982584661e-03,3.646767677115479115e-03,8.378335237503051758e-01
3.745903409236853721e-01,-4.653011773581040567e-01,3.635103213094055263e-01,-1.460813866961233531e-03,-2.787264054113336442e-03,9.458036082437805891e-04,8.344261050224304199e-01
3.046116742821237677e-01,-1.253965741995725081e-01,3.094772115521812750e-01,-2.996790296765352093e-02,-6.580471797420248820e-03,8.615014203895304118e-03,4.359699189662933350e-01
3.372712671763007930e-01,-2.216725068386757314e-02,3.109329207034496334e-01,-4.864257688983161104e-02,-2.775122663470328682e-02,-1.719028088749979463e-02,3.615493774414062500e-01
4.606389195988772611e-01,-1.618028658995662727e-01,2.798070308878032320e-01,-2.660151212287596018e-02,-5.379124739625572305e-02,-6.893922680817954340e-02,5.767476558685302734e-01
3.458831533323067919e-01,-4.792408888499949393e-02,3.425552320902157111e-01,1.312447340337267142e-02,3.579525090204912184e-03,2.987815333900247991e-02,3.962549269199371338e-01
5.483188430241477951e-01,2.601428890394252846e-02,4.742576928230984867e-01,5.169426265391251912e-02,4.237007218270354841e-02,6.988471302655954731e-02,5.173575282096862793e-01
5.772596128980409524e-01,-3.984681956147254622e-01,2.052316866837279041e-01,-8.565374833961431761e-03,5.693327440334965128e-02,-1.190343902385548464e-01,8.831213712692260742e-01
3.505667107869612220e-01,4.639743294473741564e-02,5.543717021190648353e-01,8.372839891862372125e-03,-3.610244828931117450e-02,-5.546430954286122976e-03,4.475035369396209717e-01
3.207201283808739367e-01,-1.133478753927194549e-02,3.599602347628760857e-01,-2.081914512675805268e-02,1.184775284501947065e-02,-7.037891623832100152e-02,3.760466873645782471e-01
3.508865834449998444e-01,-4.362963928505092515e-01,3.685666630929039789e-01,-3.057623739792276682e-03,-2.615920072380172740e-02,1.913286978411725056e-02,7.981643080711364746e-01
5.268364146867152709e-01,-7.234577731905389442e-03,3.232005474587977267e-01,5.409971982530345676e-03,1.687305520016416094e-02,4.333573881318221813e-03,4.679119884967803955e-01
2.874350539237289781e-01,-6.264184649331643318e-01,4.982124366720731556e-01,-1.344671009811061468e-01,-2.041730106463418570e-01,-6.940657646931115698e-02,1.125135898590087891e+00
2.396140193610823976e-01,-4.732587874046084719e-01,4.394147245433730475e-01,7.247439626116191280e-04,2.559918896203525196e-02,-3.899585411223235702e-03,8.321980834007263184e-01
3.656364515863991804e-01,-4.295994545917346530e-01,3.630020126131679459e-01,5.024294612100202451e-03,1.562940770693196924e-02,5.214008649398645980e-03,7.944823503494262695e-01
3.743441544897269657e-01,-4.670557734048483844e-01,3.452966348786125073e-01,8.800063198846659954e-03,-1.593434638557965095e-03,7.396310035514778308e-03,8.275029063224792480e-01
3.627054198278393260e-01,-4.716313505441174225e-01,3.629442689268087552e-01,-7.085009822862855513e-04,2.506944375110747684e-03,6.006730141493847076e-03,8.345332741737365723e-01
3.667665465246098822e-01,-4.697561906251561670e-01,3.663303955583314120e-01,-3.045629653329834027e-03,1.152067273935457542e-03,6.567623412399909225e-03,8.364011049270629883e-01
3.665983491787269122e-01,-4.676086514668181815e-01,3.426165679488292204e-01,1.021205806902495024e-02,-1.308545275219136911e-03,-2.880122080708779220e-03,8.226867914199829102e-01
3.635218962956149880e-01,-4.612099869598181856e-01,3.760329422249539255e-01,3.319226885634003841e-03,8.553785992092624579e-03,3.411666976653139269e-03,8.312309980392456055e-01
3.096216390098366356e-01,-1.154929527871281225e-01,3.025181243691263955e-01,-1.512802207919947475e-02,-8.253371087868570724e-03,4.315285870548245771e-03,4.227290749549865723e-01
2.990440594791194950e-01,-1.066008408322924317e-01,2.968352423974405241e-01,-3.659706498311278509e-03,-2.046449048524287551e-03,1.658757534289526450e-02,4.056289494037628174e-01
2.683182908134077449e-01,-4.019850773517618103e-01,2.861679693413352599e-01,-6.411516219784374471e-02,-1.889428361741684048e-01,-3.639956012838810318e-02,7.648497819900512695e-01
3.438874061135439031e-01,-4.532542221739193078e-01,3.236919863889166082e-01,6.437345235372631674e-03,-4.748580875529287600e-03,6.792424436349205064e-04,7.873610258102416992e-01
3.928506501791636518e-01,-4.329191701372308021e-01,3.885860796860830524e-01,-6.704390280974745209e-02,-1.739366419965715505e-01,-5.693802488278765228e-02,8.901487588882446289e-01
3.743282262597177334e-01,-4.640630578677394924e-01,3.645844923205072696e-01,1.752242472569513244e-03,-1.516591947597300399e-03,2.010675103574278999e-04,8.335718512535095215e-01
5.544266970773097380e-01,-1.952672927798289604e-01,2.807456399324398388e-01,1.333621911752445009e-02,-4.695284688814957419e-02,1.571205979580825654e-02,6.630635261535644531e-01
3.541973614754443944e-01,-3.287628463401883194e-01,3.216504566642269247e-01,-5.948628566870846346e-03,-1.249000247755418722e-02,-3.038411895486094541e-02,6.697831153869628906e-01
3.329494359980865736e-01,-3.701508301215281627e-01,3.732170640208523071e-01,-4.595999486701895370e-02,-1.515821332531648927e-02,6.331555912393150611e-03,7.289925813674926758e-01
2.893928291926535223e-01,-4.720725868716733054e-01,4.059164206768910987e-01,-3.002474331989156420e-03,3.754536515403710320e-03,-5.007596423500880641e-03,8.260027766227722168e-01
3.613370047290239140e-01,-4.718031618384841419e-01,3.643180845889581465e-01,4.270673814584185455e-05,1.045192760081600650e-03,3.878366837762108662e-03,8.346636891365051270e-01
3.457109006020515074e-01,-3.832077212504164110e-01,3.677828424596258916e-01,-1.430558120213945225e-02,1.036422510317036409e-02,-1.525799609333686364e-02,7.413048148155212402e-01
3.579359401616123426e-01,-1.090030006646420802e-01,3.003551898334019810e-01,-2.846069329489239047e-02,-2.102760227758906312e-03,2.660722007694961335e-03,4.437627196311950684e-01
3.027230856754498101e-01,-1.650163895132090719e-01,3.182263232364852534e-01,-7.404690113405079828e-03,-3.117853711122557832e-03,3.477158414498467826e-02,4.796799719333648682e-01
2.178907182054856118e-01,-2.653159903826664001e-01,4.093216970319534243e-01,-7.068990014305846781e-02,-7.207322132938651094e-02,1.841271320717665153e-02,6.278751492500305176e-01
3.391735827367360345e-01,-7.736966820055646288e-02,2.964502742244181088e-01,-2.260535556198877208e-02,-3.570094652852567191e-02,3.902677878150518503e-02,4.092229306697845459e-01
1.816711963731300339e-01,-3.331711912586522994e-01,4.370368477284170550e-01,-2.892271956601021043e-02,-5.353221106052570566e-02,2.336270913266135993e-02,6.888334155082702637e-01
2.483519039700843867e-01,-4.509162706663629727e-01,3.877985735170408343e-01,-3.100433291922735212e-03,-3.442853721473085327e-02,1.066724940354399354e-02,7.809341549873352051e-01
5.513936094362563711e-01,-2.096315424845341391e-01,2.890450785576573756e-01,4.977646014326125162e-02,-6.261627728415425712e-03,-6.371387177263729273e-02,6.841500401496887207e-01
3.676131377134201905e-01,-4.665314722016186133e-01,3.188304361960603295e-01,1.446041206776979560e-02,-4.368184231920777504e-03,1.484731773870881164e-02,8.116840720176696777e-01
1.102028922391162513e-01,-5.043657796496471279e-01,6.138022732361612110e-01,-2.055607045329306201e-02,-7.066027337204144887e-02,-2.537692517054020505e-02,9.792760610580444336e-01
3.287701621367168370e-01,-3.016240495479076689e-01,3.387246599285386184e-01,-1.848306084706061864e-02,-1.025441130836864632e-02,-5.071904557393628991e-03,6.365443468093872070e-01
1.185612864195107197e-01,-2.735360258214143969e-01,5.162192103557743383e-01,-1.083709501769539452e-01,-2.433563091333413100e-02,-6.968518052637963367e-02,7.206735014915466309e-01
1.696525212402658633e-01,-5.645686412743627924e-01,5.969751842456693103e-01,-1.290696690565844573e-01,-1.624953132143029388e-01,-1.171226382916928516e-01,1.098079681396484375e+00
2.342412654796160176e-01,-3.158574798358166347e-01,3.508455362467235994e-01,-6.776641534233895925e-02,-1.251371189107035042e-01,-6.501266343712196194e-02,6.736347079277038574e-01
5.974110558245689928e-01,-5.486828749054826204e-01,2.049980161878461604e-01,-1.394429504223135621e-02,1.838613562519805233e-01,1.131788227947997244e-01,1.076198697090148926e+00
5.400912987394121956e-01,-1.789687049515691908e-01,3.118702274945900355e-01,-5.467757444480898787e-02,1.678983285229192560e-02,2.242680637702673327e-02,6.452526450157165527e-01
3.141322730319147105e-01,-4.438713201335329206e-01,3.414111128664535366e-01,5.291454696248608464e-06,-7.283072680447954736e-03,3.494393873069183507e-03,7.721313238143920898e-01
3.771596200575610403e-01,-4.579315283655218671e-01,3.621015795426508754e-01,-1.090184145423868031e-02,1.148271500829966055e-02,5.526045183545217482e-03,8.281744122505187988e-01
4.813226023834340506e-01,-1.591199613431615312e-02,3.163637350282811900e-01,7.884111017794653842e-03,4.759176400971430743e-02,1.566155349970158039e-02,4.473786652088165283e-01
3.664315611091618075e-01,-4.677421230270273345e-01,3.674555460527293982e-01,-4.072957382797640254e-03,4.464980736948340146e-04,1.907267102739451312e-03,8.347228765487670898e-01
3.158192656771062201e-01,-4.646718373744499475e-01,3.949332422967984368e-01,-9.775176514486299054e-03,-9.910522287272953423e-03,3.952066081038720612e-03,8.232868909835815430e-01
1.147628920270163944e-01,-8.844204212648125729e-01,7.330996473783654155e-01,-4.731548505194312082e-02,-7.163527646127955395e-02,-3.213261326253105676e-02,1.422585010528564453e+00
2.571279684291157275e-01,-2.328932736252879443e-01,3.669787582487310518e-01,-1.296187912477137494e-01,6.919672205623104977e-02,1.406851099777324358e-02,6.094084382057189941e-01
1.909424135856155891e-01,-3.225991949701486616e-01,5.572848455324510564e-01,-2.220604381647428224e-02,-1.074845212184650234e-01,5.915859297899844424e-03,7.888643145561218262e-01
2.181724780824769727e-01,-5.023628178552151935e-01,4.303363159023460560e-01,-2.018179109956888539e-02,-5.439133126286387065e-02,-1.892150838616738981e-02,8.533623814582824707e-01
3.203643252525093521e-01,-1.301668875285938443e-01,3.319281427751353819e-01,-2.476072833159340472e-02,1.810377788757968481e-02,5.920087295891551804e-02,4.708064496517181396e-01
7.048403158617605468e-01,-7.973521449515756920e-01,1.011229450977041561e-01,-3.286481415809947709e-02,7.175580717729658498e-02,-2.900968060026705084e-02,1.317333936691284180e+00
6.445814260415595465e-01,-7.168511132930519558e-01,1.454778993667989739e-01,2.981798039126084404e-02,1.612710136401993011e-01,-1.022421702273368649e-01,1.239015698432922363e+00
6.298078274918188502e-01,-7.405522921818984416e-01,1.400153375815745560e-01,-5.888902875255582967e-03,-1.794576551570356560e-01,-2.003205940802625651e-01,1.289843320846557617e+00
3.954339925805633871e-01,-4.667096455281600775e-01,3.267789120580383289e-01,2.063599889304839567e-03,-2.131531984901308390e-03,-7.966846676909798697e-03,8.300791978836059570e-01
5.027135425044020334e-01,-5.687682896465068305e-01,2.274353458205511380e-01,-3.062903923986117286e-02,1.884921858445541554e-02,8.675665469289078890e-02,9.774232506752014160e-01
1.134927718700466381e-01,-4.686589672361604064e-01,6.258818572878003250e-01,-1.658351190078736492e-01,8.151313245233085883e-05,-2.049612642187747732e-02,9.917134642601013184e-01
5.680694704752667912e-01,-5.512102105482170611e-01,1.943293486926823965e-02,-1.772280749933275411e-03,-4.383130003263872171e-02,4.357653494503654912e-02,9.752851128578186035e-01
4.890688182901057335e-01,-8.708123083630359140e-01,3.251192858246325645e-01,-1.566166875308092066e-02,2.988517178878603575e-01,3.310192579000068025e-02,1.387502908706665039e+00
2.991623778064080863e-01,-4.567028279014300196e-01,3.429146161005479643e-01,1.337224920800135150e-02,5.166419488515981706e-02,-1.263554428159622406e-02,7.844362854957580566e-01
4.359119873257806255e-01,-4.824255076566966727e-01,2.543216708283247418e-01,3.979720775157353195e-03,2.117161742646393729e-02,-1.283305175132750872e-02,8.434713482856750488e-01
3.997321139106532750e-01,-4.479588429196094124e-01,2.398592245042247273e-01,2.745301618482164259e-03,1.268891118365650730e-02,2.634119351688039672e-03,7.804760932922363281e-01
4.503336561032837970e-01,-5.019728058002582705e-01,2.467017151925691154e-01,-7.889625604164195172e-03,3.750304211305936081e-02,2.532586953609169272e-02,8.722178339958190918e-01
4.025652776341515082e-01,-4.717305200740055104e-01,2.857041632742040038e-01,1.657402921007575637e-03,2.165976957381501172e-02,-2.339120840652643765e-02,8.239755034446716309e-01
4.567870099718794319e-01,-6.144146831677451681e-01,3.242557188088943665e-01,1.042083484666038173e-01,2.762377109633312178e-01,-1.401842744802731522e-01,1.159105181694030762e+00
4.920959320414961535e-01,-8.188903349313828572e-01,3.218286986568892893e-01,3.940384271647972420e-02,3.194180961250902007e-01,-4.590031399729091466e-02,1.357026219367980957e+00
3.683402690141375779e-01,-4.667649859383777855e-01,3.648628059064918938e-01,7.742915237384548170e-03,-4.698665460610062985e-04,2.005077143136658850e-03,8.334875106811523438e-01
4.417818594675384514e-01,-4.702631012954990863e-01,2.108323404335023521e-01,-1.395196129491513672e-03,9.098996348630936440e-03,-1.568491578168215023e-02,8.219000101089477539e-01
4.369887848228705129e-01,-4.642143998394056004e-01,2.115475583943803861e-01,4.705391550519838657e-03,8.950809222913925708e-03,-1.143525208231693617e-02,8.127248287200927734e-01
2.191038437339341560e-01,-4.697845404983920226e-01,4.315387787133327935e-01,-1.079417985849348040e-02,-3.277142105121266108e-02,-1.814212437861314337e-02,8.189008831977844238e-01
5.398859599794688657e-01,-5.359307519371205863e-01,2.466574107192681109e-01,2.690819545634903429e-02,1.892172238525815509e-01,-1.526416439660601976e-01,1.052323341369628906e+00
9.779045945921212291e-02,-8.538371905467987411e-01,7.230739131306914702e-01,9.767142272417622673e-03,8.093959136822159728e-02,-1.229483126058847353e-03,1.382590293884277344e+00
3.940034715015275912e-01,-4.556045890980361390e-01,2.848715972035713584e-01,1.039847256863877037e-02,8.381601090999760487e-03,4.074628885221750346e-03,8.010051250457763672e-01
4.358037964915317253e-01,-4.490299321328391491e-01,1.813422343667313585e-01,3.718400089102052303e-03,3.077749256079815622e-03,1.297782062116579170e-03,7.890501618385314941e-01
6.315483196696493051e-01,-5.140459261397987145e-01,5.529573750671193388e-02,-6.871053198105461779e-02,-1.453578418317586773e-01,-3.837422603623641404e-02,1.032603263854980469e+00
4.177397778727958699e-01,-4.613503133844398807e-01,2.251839594691665003e-01,1.279062163465961507e-02,1.276453703253613639e-02,-2.248657552435329512e-02,8.019350171089172363e-01
4.517822158438115077e-01,-5.408441807850502547e-01,2.037966210625173913e-01,2.978820315177873115e-02,1.072647086679884287e-01,-2.039099586333886771e-02,9.160095453262329102e-01
4.018226944028858161e-01,-4.552214342466078811e-01,2.441417011161446937e-01,-3.931517995177303236e-03,9.812857517326816284e-03,-1.085951289216162343e-04,7.903060317039489746e-01
4.924224722102714669e-01,-5.205608035589676108e-01,1.834779654361486101e-01,4.559702479562278456e-03,-2.503930329366677032e-02,9.475882761198399160e-03,9.004659056663513184e-01
1.113049406527810425e-01,-4.254624541566764395e-01,4.950464632190045844e-01,1.879088442345958759e-02,-1.815851638902777829e-02,-2.186942560726751542e-02,8.030193448066711426e-01
3.945165194393726593e-01,-4.597581128768847281e-01,2.829087979942097042e-01,-7.376272339814933694e-03,-4.784174093454001894e-03,3.256961736644244359e-03,8.044635057449340820e-01
3.336238420797280058e-01,-1.121600434723936668e-01,3.398077058683791063e-01,1.017246728964260258e-02,5.192705736483850185e-03,6.481594436185751651e-02,4.631552994251251221e-01
6.269743829014539083e-01,-8.853448238254834068e-01,2.223240096609370720e-01,4.751451225515971460e-02,2.648159235542666967e-01,-5.070470954603570335e-02,1.436578869819641113e+00
3.133752719493124728e-01,-1.489317433616922925e-01,3.129782977703961522e-01,1.336155757553076848e-02,8.852832175479457503e-04,-8.856145384208785609e-03,4.629445374011993408e-01
3.037176528782017382e-01,-8.491818417201840719e-02,3.029357547352011792e-01,-1.373501265065089905e-02,4.687416531854342490e-03,3.096811501330100792e-03,3.890953361988067627e-01
2.991552185791484519e-01,-1.314931448152187321e-01,2.970677462078524789e-01,-7.059928730580464218e-03,-1.775880314334147766e-03,-5.290803860728740191e-03,4.298911094665527344e-01
4.162755307047171227e-01,-4.718087766943709349e-01,2.304544048545488499e-01,3.808487508820838918e-03,2.401725754380353017e-02,-1.698890622417135315e-02,8.129196166992187500e-01
4.593163043761137598e-01,-4.749862320946536265e-01,1.562567598934614943e-01,1.575002257387651599e-03,2.258947722217968107e-02,-1.454839001166387778e-02,8.269160985946655273e-01
4.461980442276119452e-01,-4.703274756201681894e-01,2.262623640550058546e-01,2.118784767352190328e-03,1.428895907374963525e-02,-1.644450539692855068e-02,8.296091556549072266e-01
4.608053963654248908e-01,-5.009620629059409191e-01,1.525568371819483460e-01,-1.265850486554980468e-02,6.257010880508011297e-02,2.551254259722920970e-02,8.589113950729370117e-01
1.588009456811757536e-01,-5.204858793063947831e-01,4.747711597831699715e-01,1.423040258909158418e-02,-9.016384385996739637e-02,4.504092431514675199e-02,8.983230590820312500e-01
3.195717287883901858e-01,-4.793589711499397499e-01,4.068020649518531151e-01,1.177321875272756453e-02,-4.518206021900756687e-03,-1.190385322636050114e-04,8.462077379226684570e-01
4.865320253370435388e-01,-5.251264828058663792e-01,1.784845264167418122e-01,-1.343425829263483751e-02,9.315282253738429996e-02,1.916126533781763522e-02,9.134454131126403809e-01
4.215447208493409703e-01,-4.561147884505450945e-01,2.211723129240680819e-01,8.022535828713891690e-03,6.155156556476765184e-02,-5.217391550653646855e-03,8.038762807846069336e-01
4.540571027766693302e-01,-4.686539667418118116e-01,1.405122924026454556e-01,1.378067202542394170e-04,1.509230709633198678e-02,-4.224589595915066373e-03,8.131000995635986328e-01
4.605460807478557461e-01,-4.778927312765135493e-01,1.477038870076526622e-01,-8.782011332747628653e-04,2.700853093622818807e-02,4.676379854130100454e-03,8.289816975593566895e-01
3.508983623556828357e-01,-4.688459608218358277e-01,3.525374497906731408e-01,3.173180831210231125e-03,3.324057742312572575e-03,-2.787912524125181653e-03,8.206179141998291016e-01
4.550330222224749366e-01,-4.664406033477666025e-01,2.233872795868663830e-01,-2.156475607709864347e-03,-6.581050604788141190e-03,1.670962671409245920e-03,8.303434252738952637e-01
6.339714638395481661e-01,-8.951132713491557480e-01,2.262416518627075046e-01,7.575998651356143955e-03,2.590567944668253908e-01,-8.336256415124214739e-03,1.443122386932373047e+00
3.796122592457634171e-01,-4.536314428461162285e-01,2.642362092697013720e-01,1.047027365611407496e-02,-2.415696390140388561e-02,1.322325085354643728e-02,7.836290001869201660e-01
4.375730903151470175e-01,-4.628014778798180684e-01,1.863094870234584532e-01,-9.896758384324304443e-04,1.806743311895134697e-03,6.484704386631113399e-03,8.048076033592224121e-01
3.234019709437772061e-01,-2.893774921559023605e-01,3.536084530672181647e-01,-3.941137936274816296e-03,1.029636095529136985e-01,6.188733593237870367e-02,6.620137691497802734e-01
4.609906874180133562e-01,-5.214337505761271752e-01,2.017752500369920654e-01,1.957268198255145142e-02,-3.510464567132492303e-02,-6.252795816862995876e-03,8.846775889396667480e-01
4.376836147309561276e-01,-4.698469986191916581e-01,2.272980503465020230e-01,-2.336707264625054008e-03,1.590952495706876926e-02,-1.475513059035830042e-02,8.236330747604370117e-01
4.289519771216168675e-01,-4.704500019564293867e-01,2.168194033965555878e-01,1.434688683407384221e-03,2.570896328793879308e-03,-1.191971609150882169e-02,8.146066069602966309e-01
3.940556099033625248e-01,-4.668913020680524051e-01,3.194830171461834345e-01,1.484982513711451298e-02,-2.129349703675965585e-02,-3.787998847838615173e-03,8.274372816085815430e-01
4.363127643175572778e-01,-4.598485240834778720e-01,2.161336979229649402e-01,-2.610849894645663263e-03,-3.514979995575465491e-03,-1.166876227614311624e-02,8.091562986373901367e-01
4.286196272549761543e-01,-4.645129958178032537e-01,1.761364814748381802e-01,-8.419887315233981744e-04,-3.386456375801197294e-02,1.208806863212689466e-02,7.998834848403930664e-01
4.805168582892122009e-01,-4.720254259139737840e-01,1.566074037955363651e-01,-8.908061356395673494e-03,2.036202666182861890e-03,-1.153462925093273403e-02,8.392653465270996094e-01
2.449730931705709214e-01,-5.153966599827850548e-01,3.846138660589396019e-01,3.101333917748297364e-02,-1.081105049214787783e-01,-1.166954176486677090e-02,8.615091443061828613e-01
3.673517877570456891e-01,-4.754198332645931391e-01,3.677919514894463782e-01,1.963553035795422442e-03,-3.438807623591980459e-03,-2.498824608710949885e-03,8.430308103561401367e-01
2.504480881131841974e-01,-4.654964261567106076e-01,3.415773582196187097e-01,8.694868111264410573e-03,-1.080607741954706102e-01,8.296169292753232186e-03,7.884093523025512695e-01
3.477035425881515041e-01,-4.466066089548231810e-01,3.118514242893499766e-01,3.023178277785895478e-03,-3.583901910913193933e-02,4.361623197429704657e-04,7.794982790946960449e-01
3.831797425723360573e-01,-4.562882777832822923e-01,2.411152991371257048e-01,-1.168049406226066497e-02,-3.698798269672497890e-02,-1.516144245384462227e-02,7.815583944320678711e-01
3.566543527929627033e-01,-4.494034134198602315e-01,2.818132912984392391e-01,-5.946335929923951069e-04,-5.516201885236386715e-02,-6.907209404328204690e-03,7.773524522781372070e-01
3.319830766181762760e-01,-2.703066985428693725e-01,2.959608143458354323e-01,9.277943262664850588e-02,1.227065748687964641e-01,-3.560083722943119255e-02,6.458728909492492676e-01
3.423709807778752001e-01,-3.204697973596348226e-01,3.526870125901685471e-01,4.002815679709215840e-02,1.359704822990307968e-02,-3.555820534074859759e-03,6.720874309539794922e-01
3.279476623256414869e-01,-4.479028989261670812e-01,3.081472265051952153e-01,2.054047781050943357e-03,-8.907913308282876252e-02,-5.736154727302791162e-03,7.815949320793151855e-01
3.565241695374096742e-01,-4.499101609795037593e-01,2.569658234194904245e-01,-8.553027157838201866e-04,-3.567390165775851524e-02,-3.246711752791509573e-04,7.640558481216430664e-01
3.483645517687656845e-01,-4.476093506189047222e-01,2.892027424207238573e-01,2.849702006117995831e-04,-1.702531453377784110e-02,2.062226776216524553e-03,7.686780095100402832e-01
5.619675119407778752e-01,-5.319477010660257355e-01,2.129716657536838698e-01,5.198144140188618728e-02,-1.872899797575775516e-01,1.485980713303530765e-01,1.056531906127929688e+00
3.641793492791681741e-01,-4.151842370946400296e-01,3.651535059684316020e-01,-1.471563588226276580e-02,3.646394182720406364e-03,3.050173045380677808e-02,7.820795178413391113e-01
3.279993936447457292e-01,-3.175290637368330393e-02,3.169440668045417353e-01,2.853978338288013644e-02,3.697992417563054218e-03,-2.182743634944796229e-02,3.598341941833496094e-01
6.723011949850387081e-01,-5.418516423113128866e-01,2.771178752958403102e-02,2.559362059097892647e-02,3.792405944337213369e-02,6.361429770866330879e-02,1.060873508453369141e+00
4.003034299266372553e-01,-4.591387289525189486e-01,2.510970197284405625e-01,5.324635308390372572e-03,-6.272172284059876479e-02,-1.609283950418212211e-03,8.028473854064941406e-01
3.596279990433226548e-01,-3.497352753750541110e-01,3.542996343094972911e-01,-2.260048510727478630e-02,-4.353155870225285107e-03,1.994649479740587955e-02,7.086802124977111816e-01
6.530501244239589331e-01,-8.692716414835478522e-01,7.254958073293077403e-02,-4.351778215426266826e-03,-7.302191002992329538e-02,5.446209214077378513e-02,1.340032696723937988e+00
5.109955414898943449e-01,-2.033066413239132952e-01,2.070077771288786062e-01,5.287174000577726796e-02,-9.678123678195285629e-02,6.560157871959444720e-02,6.594648361206054688e-01
7.355067021042200892e-01,-8.437313666300861881e-01,1.051965181217230649e-01,3.822853972157073260e-02,3.625802509770326143e-02,6.741618973601856690e-02,1.384859919548034668e+00
3.178812614286250504e-01,-2.621298972336814637e-01,2.496459026207975551e-01,3.808897606652170142e-02,-1.332682966151408077e-01,6.327074362697610033e-02,6.092084646224975586e-01
4.654594095809986842e-01,-5.260514355803923570e-01,2.875658537996224062e-01,6.945283548660444173e-02,-1.962648179648966984e-01,9.921580971477908517e-02,9.989587068557739258e-01
3.132440834936049412e-01,-3.411858011743162944e-02,4.791195889145042353e-01,1.996713825444799972e-03,-2.387804029233654007e-02,1.503068274616240971e-02,4.562835395336151123e-01
3.749856968524737932e-01,-1.620093844167542763e-01,1.868294780327382498e-01,2.461867228952349662e-02,-3.787198376242269932e-02,7.424011963137694403e-02,4.953618943691253662e-01
3.821370581100969610e-01,-4.651824571969854771e-01,3.298655966139273366e-01,-5.818002686706871124e-03,5.822263026912578333e-04,7.023653533575878287e-03,8.225829005241394043e-01
3.370832848342762977e-01,-1.782079121577404002e-01,3.262814552610853736e-01,5.840567377541812377e-02,1.328443898629625558e-02,4.819823592075157814e-02,5.270748734474182129e-01
3.512385317718176303e-01,-3.335946581269110256e-01,3.432123718440558968e-01,-1.811980376972668894e-02,-2.013047071769709373e-02,5.577461263026842198e-02,6.892731189727783203e-01
6.524115352290189573e-01,-8.524271726377763425e-01,1.490625303651036404e-01,6.983774351482752163e-02,-2.123660962879855285e-01,1.656401602275386076e-01,1.411623477935791016e+00
3.419328438638928880e-01,-8.414185731944401336e-02,2.828550576481045353e-01,2.955746176003241563e-02,8.628245196226501726e-03,7.119124811582668022e-02,4.217903912067413330e-01
3.590446784484719878e-01,-4.671605886944201202e-01,3.668153607865821120e-01,4.838172041736039930e-03,-1.458171754939276751e-03,-2.499481810208568650e-03,8.301753401756286621e-01
2.801583789007752179e-01,-5.235338452903128825e-01,4.229303428740960880e-01,-6.933427898622621099e-02,-2.318569883463429959e-01,-1.538637414238748502e-02,9.784961342811584473e-01
1.698091997130750930e-01,-5.281497193720833261e-01,4.497526984997997634e-01,1.501787408172919856e-02,-1.959826524195332764e-01,1.282176413242626205e-02,9.366437196731567383e-01
2.569690647938723815e-01,-3.395193213121462383e-01,2.795534696360731930e-01,1.156564625196970786e-01,-2.150072765063408275e-01,5.362616609129652878e-02,7.464721798896789551e-01
3.384772383389854644e-01,-3.151406971532186296e-01,3.462189759835124780e-01,9.187279113021678406e-03,6.513582299366809519e-03,7.068584677530660720e-02,6.691086888313293457e-01
4.540340479088789682e-01,-8.495790777245959546e-02,4.870777105673419483e-01,-1.937229502002053849e-02,4.483004599313997196e-02,3.110362946736704506e-02,5.652183890342712402e-01
4.211024149371775938e-01,-7.504326437678796591e-01,3.390491196077856095e-01,-1.139644240684910964e-01,3.198864224622813834e-01,1.808407493735608995e-01,1.314212560653686523e+00
3.724530041844945072e-01,-4.368553484262980291e-01,3.539767961214782543e-01,-4.287749340125590440e-03,-1.222155742859235353e-02,3.141723959599236355e-03,8.005630970001220703e-01
3.628430820220389652e-01,-3.669744830591522011e-01,3.836297286549453234e-01,4.626199054227914803e-02,5.051333783351978635e-03,6.207410767288458475e-02,7.525243163108825684e-01
4.802242357221896962e-01,-2.169324621355503968e-01,3.677241600494479679e-01,-3.268859209083441880e-02,8.446314336638793829e-02,1.562246939846807618e-02,6.675278544425964355e-01
3.581110829191267442e-01,-4.529102369905989578e-01,3.148253294724441265e-01,-7.952566904931823374e-03,-2.455647333588424630e-02,-9.224312653698902437e-03,7.916929125785827637e-01
3.478563955453409240e-01,-4.517577447054266226e-01,3.704956787150518460e-01,2.764254591583511361e-02,-1.501633504580057038e-02,4.301210235714518493e-02,8.164048790931701660e-01
3.793965266278480630e-01,-4.612194019395964295e-01,3.596907422766054685e-01,2.849170345502846646e-03,-9.385450854426824908e-04,-1.026608889021925555e-03,8.309564590454101562e-01
3.789783486296131598e-01,-4.352070669397014591e-01,3.543909231034915175e-01,-8.378928144992326202e-03,6.723701694795285871e-03,6.334236252244212096e-04,8.023908734321594238e-01
4.173454401644792755e-01,-4.602213511373085542e-01,2.402165157842823251e-01,-3.667888125908190782e-03,-2.010533177713609999e-03,-1.286087807789093769e-02,8.041171431541442871e-01
5.037181778926498321e-01,-4.883993700809159400e-01,2.285414532259328335e-01,3.737509555943696604e-02,-1.643166716271531047e-02,5.231398075563389177e-02,8.945516943931579590e-01
5.084688645174615385e-01,-4.883497296920740194e-01,8.622633654682171356e-02,1.186383642358628671e-02,-4.451185750605997360e-02,2.852192035059205460e-02,8.716900348663330078e-01
3.821518860171387311e-01,-4.531526738713163027e-01,3.575128090372613476e-01,-1.966721046237433421e-03,-4.113079356812721250e-04,-5.114137795534728307e-04,8.232694268226623535e-01
3.860741567982474698e-01,-4.617840306055729371e-01,3.315050253717204409e-01,-3.262359190409776753e-04,1.384199171768310695e-04,-3.767261542066730525e-03,8.219594955444335938e-01
3.529640655033254304e-01,-3.498205789957755107e-01,3.597346700358262650e-01,4.539389407506887880e-02,1.876090922118310491e-03,-2.004514542599644678e-03,7.105735540390014648e-01
4.645678325196678782e-01,-2.266616293313020170e-01,3.481384336344873764e-01,1.362551123591974195e-02,-1.478404061266037628e-01,-4.963872072185508688e-02,6.959841251373291016e-01
5.396142894748607866e-01,-1.626527111946654558e-01,3.606516227547272857e-01,-1.497765705564598968e-02,-4.481940681157403628e-02,6.620882926755129044e-03,6.374620199203491211e-01
3.479154361469926071e-01,-3.701056205336408778e-01,3.638343448133206648e-01,1.035352087812043895e-02,-1.151800358734646548e-02,4.852730435853097081e-03,7.266553640365600586e-01
3.623573774650299395e-01,-4.648636714868740194e-01,3.628253518178141124e-01,-4.372262331712062355e-03,2.328983436337021058e-04,-1.990371946849723954e-03,8.274970650672912598e-01
3.429227425034453991e-01,-4.533219886893979922e-01,3.290303177600731876e-01,5.991027669441843437e-03,-2.016539459268757925e-03,2.689345542394864694e-04,7.894662618637084961e-01
4.056571611494630414e-01,-4.953668694236944559e-01,3.349361160002923832e-01,3.276361961270150380e-04,-2.069250560436073152e-02,5.364690585618755829e-03,8.686170578002929688e-01
3.660149670316402148e-01,-4.595405379428539883e-01,3.622115253431704152e-01,6.412350130551535549e-03,1.568722008448129174e-03,1.506048710634118890e-03,8.237438797950744629e-01
3.085320226832967139e-01,-1.242811642022530472e-01,4.684516908089823017e-01,-5.936731390346610543e-02,-8.561318695382254262e-02,-3.373383033882919324e-02,5.639974474906921387e-01
4.242543363795241995e-01,-4.602008238411979812e-01,2.279556802135865867e-01,7.564244693634531239e-03,-6.879454339886958980e-03,1.555757727431445261e-02,8.051189184188842773e-01
2.880809891019601721e-01,-4.034227161011429419e-01,3.914033085032606607e-01,-3.637549040679177725e-02,1.206072582075729330e-02,1.554740286689223344e-02,7.519519329071044922e-01
5.050542782307700929e-01,-3.694528700913286001e-01,1.597903575886577554e-01,1.863965146997766109e-02,2.065257049072650730e-01,1.047948124832073363e-01,8.625432848930358887e-01
3.691497662159349824e-01,-4.262878433192125449e-01,3.594636634997213642e-01,-1.405988699528644588e-02,-1.230179371726922849e-02,1.120159323102578458e-02,7.915387749671936035e-01
3.763525187508165448e-01,-4.552267869991472038e-01,3.607998891812823072e-01,5.477291320159461893e-03,6.849921708302907780e-03,-1.349960922242884366e-03,8.240564465522766113e-01
3.734717715685617057e-01,-4.605054578441979407e-01,3.603467747621058037e-01,-4.151324837891389591e-03,-1.851631771155813318e-04,6.347727181006240218e-04,8.275248408317565918e-01
3.480661917629366275e-01,-2.236489329549261607e-01,2.262973556650907936e-01,-1.161965387062020849e-02,-1.168336531663253519e-01,6.966178758256931502e-02,5.726974606513977051e-01
3.793951801677781788e-01,-4.535977090554564883e-01,3.548519483779767891e-01,-1.544008259453562076e-03,3.168415449251425937e-03,-9.221858583120765311e-04,8.210207223892211914e-01
3.565980406529318802e-01,-4.080383676984917773e-01,3.637988486376043662e-01,-1.073305445882192025e-02,-1.278734473924222209e-02,-4.303449259331597852e-03,7.688422203063964844e-01
3.769646632236649531e-01,-5.959438491007074123e-01,2.465683411654309432e-01,1.346925730314548278e-02,2.525828575711615565e-01,-3.412786233637672695e-02,1.015934586524963379e+00
5.092964821064249747e-01,-1.213243509985040824e-01,4.103232604234450798e-01,-2.369900715078828921e-02,-4.268907611790042494e-02,-1.530291350044242146e-02,5.940692424774169922e-01
3.686169622738476037e-01,-3.727772583958532948e-01,3.368251162590812919e-01,2.116339894588152581e-02,4.573194462819962954e-03,5.161053208291174971e-04,7.269890308380126953e-01
3.799181286343024100e-01,-4.410304857490320307e-01,3.537778877296359759e-01,-2.431702438604702900e-03,7.296627352534307276e-03,3.547148405578904196e-03,8.083287477493286133e-01
2.282429210713549095e-01,-4.591806591713748498e-01,4.225335890033155017e-01,-1.036479767445928207e-02,-4.004541408861378264e-03,-4.312545159848109669e-03,8.026744127273559570e-01
5.000858673269421573e-01,-5.958053591787493275e-01,9.089737521190645320e-02,-2.427551725572314398e-02,2.154662907397624227e-01,7.933020358753856138e-02,1.039188027381896973e+00
3.176775408392701894e-01,-2.719669211994708014e-01,3.460483048245637239e-01,1.916922212633666474e-03,-6.357876262151567967e-03,3.970307361596393109e-02,6.083382964134216309e-01
3.646022718429959841e-01,-4.715377049576715551e-01,3.642271499194428830e-01,5.732280384326207331e-03,1.506126753124729239e-03,-2.541151629863459740e-03,8.360270857810974121e-01
3.649668162497685664e-01,-4.658714744225432858e-01,3.710037744092493650e-01,-8.845958163608061680e-04,1.962368306616025527e-06,3.787440626634546326e-03,8.339003920555114746e-01
5.007914965006571295e-01,-4.986522810013849227e-02,5.221710240725252472e-01,-1.478354412613331823e-02,-2.076953998858199410e-02,9.241990252096094274e-03,5.636122226715087891e-01
4.374985240540225084e-01,-3.472686382589396104e-01,2.643241300010585881e-01,2.714142534685779623e-02,-1.782676781495533269e-01,7.233698389626824765e-02,7.894259095191955566e-01
1.431429037554328709e-01,-4.673564085291123105e-01,4.596755828851661341e-01,-1.790566540562200243e-02,-7.561084489486533805e-03,-2.249122275623681531e-03,8.168805837631225586e-01
2.712768511269623151e-01,-5.442097402047325616e-01,4.569515874965939806e-01,3.308650122076466082e-02,4.370743494953201191e-02,-7.041349063469173192e-03,9.274010062217712402e-01
2.003605592947432235e-01,-4.472154106623361658e-01,4.375047514808695914e-01,-9.507319912663285573e-05,1.818430195806297611e-02,1.013178211984832840e-04,7.938217520713806152e-01
1.313941985326034234e-01,-4.680921919812802701e-01,4.634582713604047388e-01,8.149135559712392812e-03,-9.046795836925993622e-03,7.411508785699426338e-03,8.181246519088745117e-01
3.782196804918037669e-01,-4.486002524968465410e-01,2.655332864339846610e-01,2.115381993281602313e-03,1.173208453462434853e-02,3.607504574518381312e-03,7.769320607185363770e-01
3.484882578239385520e-01,-6.171512472342188804e-01,4.207798871388602202e-01,-8.473140422142801109e-02,2.471529433752689964e-01,4.335675862014015669e-02,1.103596329689025879e+00
3.021440536486452721e-01,-4.649382771476178178e-01,3.860191863039742488e-01,1.939480250250759374e-02,5.172671527284553039e-03,-1.122823435862382174e-02,8.132505416870117188e-01
2.150261423457995313e-01,-4.632364814744808212e-01,4.260445178352074147e-01,-2.182967035629791719e-02,4.750339113916039920e-03,9.053599502724826026e-03,8.058771491050720215e-01
1.629982091956390100e-01,-5.385251079023672949e-01,4.652975194717610674e-01,-3.247726994928930994e-02,4.280152176820091470e-02,1.939771084352986952e-02,8.974290490150451660e-01
2.094935546480392041e-01,-4.583746446077816561e-01,4.396771307197294143e-01,2.365368283655577830e-03,-8.130196096191340607e-03,1.338502889307135405e-03,8.080749511718750000e-01
3.621174396439062471e-01,-4.743373726658558498e-01,3.617119773277711614e-01,-1.372047347595006100e-03,9.258788914461787978e-04,1.084021534886763470e-03,8.362591862678527832e-01
3.670906359823738474e-01,-4.496051139988566092e-01,3.622690951132951920e-01,-4.274736123933824475e-03,9.062465671893914221e-03,-2.792600338173419940e-03,8.144949674606323242e-01
1.810116326623861238e-01,-4.625594374580048740e-01,4.330461648115085382e-01,-3.729371611913097351e-02,1.118686089104583004e-01,-1.135509560380335882e-02,8.258391618728637695e-01
4.099190128894359963e-01,-5.185349624709627570e-01,3.246350394599775147e-01,-1.825625708055627142e-02,4.042849031759317147e-02,-2.961988436001115454e-03,8.922149538993835449e-01
3.825221157557833207e-01,-9.969125149650062134e-01,4.843483705981497245e-01,-4.534022101968573915e-02,3.498886203943546436e-01,7.545437282706621285e-02,1.563388824462890625e+00
2.116745175624806519e-01,-5.753831695996134421e-01,4.592407915662954920e-01,-2.030034404504620776e-02,2.416329952263085445e-01,-3.379978986361972804e-02,1.027336835861206055e+00
1.637439907163832920e-01,-4.606723916989006185e-01,4.454792716650400886e-01,-4.050725997970543169e-02,5.819386669504710008e-02,-1.369099292397358419e-03,8.125751614570617676e-01
1.694211257031678908e-01,-4.557851789696725220e-01,4.441981913028419382e-01,5.678891773839809219e-03,3.050215637366333193e-02,-3.554963638259080530e-03,8.006893992424011230e-01
3.243605546382573035e-01,-4.494285011652595641e-01,3.369421546351907826e-01,3.689940733795998417e-03,7.551913964779406047e-03,-5.062189182732247661e-03,7.803410291671752930e-01
2.718201994761843543e-01,-1.278836773449144038e-01,3.802589179136305342e-01,-8.669457002141842117e-02,1.660822583370410305e-02,-5.854866173772717806e-03,4.882045686244964600e-01
6.412873268559790008e-01,-8.747293121150575557e-01,1.939801022319658785e-01,8.904684180958760686e-02,2.514932030545900532e-01,-1.771793819376539514e-01,1.458758711814880371e+00
7.414921204365877427e-01,-9.556299789622076934e-01,1.151657058899843988e-01,-6.017219182043957032e-02,1.517263354141946408e-01,1.549147951712021576e-01,1.536709547042846680e+00
3.704656958823479007e-01,-4.675058751145932945e-01,3.658227739787257016e-01,2.196474432664237680e-03,8.804738638105940804e-03,2.384849674569811985e-03,8.358178138732910156e-01
4.794780284559359007e-01,-9.078864421350753000e-01,3.738189639398709629e-01,2.542589603466897594e-02,3.173279889979386814e-01,-6.123343713222982598e-02,1.450736165046691895e+00
3.987970447729598522e-01,-1.219238710182118934e-01,2.664871075874787332e-01,-1.123971860711656286e-02,1.498684865598751484e-02,1.009646334179413463e-01,5.013920664787292480e-01
5.109178133777492192e-01,-4.164812323109677861e-01,2.571624802261008869e-01,1.010360028886579317e-02,1.644750360337443873e-01,1.280243984583216976e-01,9.054067730903625488e-01
1.708795777546928685e-01,-2.799916922502454497e-01,5.064548026192207120e-01,-6.483311131851825226e-02,6.546899156846472390e-02,8.115358950453425979e-02,7.158373594284057617e-01
3.971351784101461169e-01,-4.642458420886206305e-01,3.156059327132101355e-01,7.405521822916590752e-03,1.870876970615361571e-04,7.097956152295878916e-03,8.238399624824523926e-01
2.853711234334042057e-01,-1.274646142598957477e-01,3.781511589228918613e-01,-3.900349512158011317e-02,3.229047709606888694e-02,-4.028006811968131567e-02,4.794827401638031006e-01
3.127007741093421611e-01,-2.764372878604691164e-01,3.929307651708097704e-01,-4.948354545467471138e-02,-2.108111287198912841e-04,2.704596129096473178e-02,6.405680775642395020e-01
3.960963373823786493e-01,-3.878516479366367342e-01,3.751495445101767912e-01,-6.450723332390295717e-02,-2.163986197591316954e-02,-3.035686036498473628e-03,7.826289534568786621e-01
4.377148147581112481e-01,-4.848694458164063414e-01,1.777594699464073169e-01,7.814498677513461800e-04,8.583681571568174684e-02,-3.769586733741632674e-03,8.372909426689147949e-01
3.702386532506090622e-01,-4.611142550549387487e-01,3.689190254204429142e-01,-3.815890362862573056e-03,2.603170664559690834e-03,-2.768416923895684889e-03,8.307462334632873535e-01
1.503576762864274885e-01,-6.227187699854586089e-01,4.690018981333855530e-01,-1.000398205378054545e-01,-1.911200322475801738e-01,-4.111915992934081499e-02,1.044123768806457520e+00
3.634781278840352736e-01,-4.278924740534735260e-01,3.558514100615854936e-01,-1.013992440871185584e-02,-5.136065735784314974e-03,7.618118463431749468e-04,7.878320813179016113e-01
3.829174169532704730e-01,-4.547902576356324111e-01,3.579396125765694769e-01,2.345089419691112446e-03,-5.417435660854253007e-04,5.817545574241679953e-04,8.255133628845214844e-01
3.793520364992322702e-01,-4.611930833470853086e-01,3.590403005981651630e-01,-2.740738706145710857e-03,-5.852538463498108611e-04,8.377176335964874802e-05,8.305897116661071777e-01
3.791231639329135095e-01,-4.632000924620893745e-01,3.630584958918326999e-01,-2.981773849641519529e-03,-1.074682026872870446e-03,-1.017616003414722114e-03,8.344268202781677246e-01
6.777156928784972001e-01,-6.244208188281653582e-01,1.068814311695145125e-01,-4.940253089335615300e-02,2.140387916856410083e-02,1.899358304480668336e-01,1.181113958358764648e+00
3.380944020470201261e-01,-4.666432112938193599e-01,3.833763816797311486e-01,-6.039116359632370513e-03,1.430297743227836125e-03,6.180130369313990672e-04,8.283778429031372070e-01
3.674105239189698335e-01,-4.322750423560232091e-01,3.618989900340723875e-01,-5.252476996340223712e-03,1.316169091131287258e-02,-4.143749909992240806e-03,7.973542809486389160e-01
3.106070339497459809e-01,-4.857605143258431069e-01,4.586328223074548904e-01,1.630490052010339676e-03,-3.758016921597500531e-02,2.250524236670941453e-02,8.830402493476867676e-01
3.643659498417236020e-01,-4.651430351705692079e-01,3.685604865594787616e-01,5.004074929967689510e-03,2.523558776970807535e-03,3.000670184332023590e-03,8.316870927810668945e-01
3.659589916564441325e-01,-4.650223205463767107e-01,3.686249082193069904e-01,3.748582057945624296e-03,1.435782868604441875e-03,4.232375112500403984e-03,8.323788046836853027e-01
3.593882411766805007e-01,-4.540317511136074957e-01,3.757146639816558720e-01,1.014306395949901747e-03,6.496022046896039737e-03,-6.191905147888691896e-03,8.218537569046020508e-01
3.626735866490857219e-01,-4.654456944517353367e-01,3.720775986966059490e-01,2.473990754375035225e-03,1.760076503380229168e-03,4.505999673253689893e-03,8.329142928123474121e-01
3.988447868025463694e-01,-4.502873310620139069e-01,3.249844782410756805e-01,-1.036743863172736452e-02,-6.724686586488381199e-04,-1.821222198481472847e-04,8.149155974388122559e-01
3.249865333416848134e-01,-4.499507175006894899e-01,3.298982789796198745e-01,3.448232536589822348e-03,9.610668850789981163e-03,-5.223211956981796932e-03,7.776585221290588379e-01
3.492492416910188968e-01,-5.151775881095801424e-01,4.143591480400247162e-01,9.843353031861183655e-02,-1.822464271345813347e-01,5.553342095822848962e-02,9.724795222282409668e-01
3.237858925755430217e-01,-5.340939149255281571e-01,3.036186743204297711e-01,-1.806087904607002123e-02,-1.699026305015659266e-01,8.964529322159261668e-03,8.982670903205871582e-01
4.178400146260858317e-01,-9.252577410843144667e-01,4.347066339732344464e-01,5.244573328339557222e-02,-3.244895571772637988e-01,2.142595791723405502e-02,1.467092037200927734e+00
1.463868468584453297e-01,-6.488838216738601616e-01,6.714523509829031234e-01,1.329637502012827044e-01,-1.800153688140946340e-01,1.238809649588427236e-02,1.215085744857788086e+00
2.592700389119446669e-01,-5.481209459999526468e-01,4.491772252659576026e-01,-9.350182342734832119e-03,-2.195274028129263338e-02,1.501823382537139338e-02,9.185091257095336914e-01
3.598964817559261453e-01,-4.582895157474249359e-01,3.617893444150843130e-01,1.417217495656164462e-03,1.222943661769098495e-03,-5.098138400837065251e-03,8.191880583763122559e-01
3.587142238108025349e-01,-4.581809617420432579e-01,3.167933250246205978e-01,-1.124942942855901816e-02,-2.334736784455891667e-02,-1.027453039681008179e-02,7.982241511344909668e-01
3.449609778906921331e-01,-4.927103398716667915e-01,4.257923171922061711e-01,-3.173122169804180881e-02,-1.059623820662811827e-02,3.292711490998613544e-03,8.827949762344360352e-01
4.769739319074560724e-01,-5.674671101056238953e-01,2.401476741723035935e-01,1.314834085602636406e-02,-7.827619836682866983e-02,6.645978820976980450e-02,9.652686119079589844e-01
3.125984858883125161e-01,-4.681818015705986324e-01,3.316635183921499697e-01,-1.660672000244293317e-02,-8.241182094191655538e-02,-2.354605471472185838e-02,8.048183917999267578e-01
1.707036902845102400e-01,-3.356263113906426954e-01,5.663088361208488131e-01,-9.277624210225715595e-02,-7.945785908183010393e-02,-5.711361607072636126e-02,8.171468973159790039e-01
3.449069281045540891e-01,-3.480503065724309120e-01,3.856635107152235897e-01,-6.187078184385795543e-02,-4.141943586260960625e-02,-1.597262927626313944e-02,7.262846827507019043e-01
2.036506113063892565e-01,-5.546858978686168840e-01,4.715914493795080875e-01,-1.042028656585676331e-02,5.662109870906346931e-02,-1.295027464599762985e-02,9.276328086853027344e-01
2.659227551031331793e-01,-2.322538844041587835e-01,3.626867739012895608e-01,-6.472901790160452348e-03,-1.172817506311718827e-01,-5.463744337521063421e-02,5.967372059822082520e-01
2.228623584582095085e-01,-4.672911558220474992e-01,4.272048983962430380e-01,-2.596985298277192794e-02,5.671945199464900611e-03,7.371731958054835408e-03,8.132516741752624512e-01
3.436126549782958506e-01,-4.493178183320107877e-01,3.197662723285516484e-01,7.785792285412517118e-03,-3.768313399458420900e-03,3.226768766909548104e-03,7.814438939094543457e-01
2.207683620370409772e-01,-2.220857188283550387e-01,3.740017831545744409e-01,-3.779114189723863787e-02,-7.059885073396990340e-02,1.018847301784158929e-02,5.540837049484252930e-01
3.536101221579254772e-01,-4.582773653046429141e-01,3.191290777677882051e-01,-1.474002829210947947e-02,-2.355809693380301467e-02,-1.245938407674088491e-02,7.969554662704467773e-01
2.502823652252846864e-01,-4.524669896523806356e-01,3.904856267829630578e-01,2.497944846320971409e-03,-3.519943031734266981e-02,2.528153573240859726e-03,7.847268581390380859e-01
3.178304877429081188e-01,-4.745849397340027309e-01,4.088753062177332698e-01,-8.230848656792758011e-03,3.052025704611293667e-03,-6.613112156161235836e-03,8.418545722961425781e-01
2.565395979456965292e-01,-4.542506784979836176e-01,4.009544068003835227e-01,-2.654397142494482106e-03,1.846565369023281215e-03,-5.642851631331304886e-03,7.930031418800354004e-01
3.637898930552308507e-01,-4.684997300704265566e-01,3.710872141977334948e-01,2.632941986652071430e-03,1.552141788482571273e-03,1.791597931702166235e-04,8.359789848327636719e-01
3.293109833442096068e-01,-4.527372989390351377e-01,3.834882876762522597e-01,-1.760340602193767590e-02,-2.146169129637495732e-02,5.255512461487806680e-03,8.119718432426452637e-01
3.048708173844236202e-01,-5.688391809832973878e-02,3.070061809374136641e-01,3.878393252667518970e-02,-8.818478501285002477e-03,-4.327959003486614442e-02,3.768405020236968994e-01
3.356304460371371534e-01,-2.523424616152665223e-01,3.353843662916473622e-01,2.812029209021973952e-02,2.170683518411483520e-03,-2.104603134976084852e-02,5.910014510154724121e-01
3.344096901582666037e-01,-4.639279786157713970e-01,3.715411623718145040e-01,-7.620344099280473849e-03,1.227764185045753312e-02,1.295576255039185970e-02,8.182268738746643066e-01
2.422675181273675760e-01,-4.466964090657290498e-01,2.999389340173818086e-01,1.291453287631962391e-02,-2.084005766192343345e-01,6.103129281795317655e-03,8.053789734840393066e-01
6.891975110924052073e-02,-8.238194539783003645e-01,7.755166206975335763e-01,9.295402922654158462e-02,-5.607013363511414994e-02,-5.153255301708436695e-03,1.400893211364746094e+00
3.197250214580849570e-01,-1.726010796867185060e-01,3.155381628287483586e-01,2.057077089700049682e-02,-3.787669861997161602e-03,-1.339101266003683323e-02,4.921297430992126465e-01
3.339434430086969385e-01,-2.750291431917971652e-01,3.260533475146293325e-01,5.104379500600132041e-02,1.271944715220479916e-02,-5.581113726996301400e-02,6.194767355918884277e-01
2.533939844298009891e-01,-4.477643339797560129e-01,3.805781496431214772e-01,-7.557985452802620406e-04,2.009918640543741433e-02,-3.404649380759875929e-03,7.734490633010864258e-01
2.682789441554919163e-01,-4.668073262706325943e-01,3.740182556592888119e-01,-2.134262483174292901e-02,-3.228280504636503456e-02,-1.279730328756319667e-02,7.963947057723999023e-01
3.174073489964116535e-01,-1.979329524397904772e-01,3.106781292843615594e-01,2.020146510152550159e-02,-7.949693810392557611e-03,-2.724544321303764421e-02,5.155520439147949219e-01
7.759424699958498983e-02,-4.463116607998965923e-01,4.930215913784481430e-01,1.058423631808424852e-02,-1.067306834237055357e-01,-3.011196478890128259e-02,8.378142714500427246e-01
3.162177054328605408e-01,-1.913036892542335221e-01,3.166582772343539132e-01,3.612551923886432592e-02,-1.407835891035292501e-03,-1.742747816138881869e-02,5.124782919883728027e-01
3.750647663624924188e-01,-4.681664977677196804e-01,3.636766948993384596e-01,2.564360596042848661e-03,-1.880678121470265914e-03,2.858115520716508588e-03,8.376280069351196289e-01
3.644697882191257898e-01,-4.731458200466348574e-01,3.639696925560233498e-01,-3.853186133989945205e-03,-1.643032110793250008e-04,4.808553308565158800e-03,8.374337553977966309e-01
3.777900525455667458e-01,-4.313183273579116461e-01,3.554385681055685087e-01,2.868162745745011372e-03,-8.136069718087517513e-03,4.157366196791638553e-03,7.983397245407104492e-01
2.586074938532693102e-01,-8.542609900126785227e-01,5.380267290205532627e-01,-1.439661839017536242e-02,2.564126039500558840e-01,7.389188850484663257e-03,1.351124048233032227e+00
2.909520039405527614e-01,-4.436848974667835233e-01,3.403585660714180672e-01,4.757989732346565130e-03,-2.603817855402457832e-02,-1.348391507814145768e-03,7.619288563728332520e-01
5.908324680395449918e-02,-4.820871276302041153e-01,5.478257103294671415e-01,-2.034317358843202878e-03,-2.080941863861050789e-02,-1.804936112435805845e-02,8.935974240303039551e-01
3.339066616445542368e-01,-4.621499595103732982e-01,3.537800923227539807e-01,-4.133647134730291002e-03,1.146067184541482535e-03,8.712140317788682684e-03,8.063524961471557617e-01
4.476705251393506280e-01,-8.591842793084554231e-01,3.520891049412385176e-01,-1.103074677256527525e-01,3.321558694466938411e-01,1.462246635811171036e-01,1.422576904296875000e+00
3.609480072921562033e-01,-5.412998407399099987e-01,2.121889674814418647e-01,-4.601756466890929813e-03,2.658479195377912996e-01,-4.689572338072552950e-03,9.560950398445129395e-01
3.278769669695243971e-01,-4.596258025125803393e-01,3.574715608648080800e-01,1.152041113849559643e-02,2.201711043010351823e-02,-1.469335383111374481e-02,8.042651414871215820e-01
3.642322356367660996e-01,-4.668535791455284967e-01,3.521968510802339636e-01,-7.859613389810667788e-03,-7.114794661230688499e-04,1.833520230331830807e-03,8.252532482147216797e-01
3.433134388464715858e-01,-4.618652849936947247e-01,3.586792205848564619e-01,-1.273957910434016759e-02,3.352696809257506988e-02,2.438103225305891103e-02,8.164333701133728027e-01
4.237988327881324624e-01,-5.343608856154148379e-01,2.329347117316382387e-01,-2.079430848878892693e-02,-6.580233958510504910e-02,-3.409471618787759256e-02,8.884791731834411621e-01
3.825575781147119714e-01,-5.233148675139972505e-01,3.783636062484456164e-01,1.135152497412268147e-01,2.335148857276583834e-01,-4.094414277228711208e-02,1.011976957321166992e+00
5.260597184536641713e-01,-5.491915332232083502e-01,1.072970313025266575e-01,-9.429072511619764063e-04,-1.876658327303350540e-02,5.699970935587954368e-02,9.444884657859802246e-01
3.573528905845729797e-01,-4.714143679431737066e-01,3.644975103551171824e-01,6.372527124145202157e-04,2.088080170248793766e-03,7.207997521107240534e-03,8.324647545814514160e-01
2.815957745754802954e-01,-8.995351765567993763e-02,2.993730991802707742e-01,-8.265727098859791677e-02,-8.052706800950869270e-02,-2.634966332314849294e-02,4.324389994144439697e-01
2.073052453300304188e-01,-4.598693789778789953e-01,3.345807923918170390e-01,5.745509645553485006e-02,2.037357450821448146e-01,-3.829686633585265010e-02,8.276859521865844727e-01
5.893520357362572737e-01,-5.130743904809039746e-01,8.890346579915574254e-02,5.087250758685130103e-02,-1.291707146087846814e-01,3.574415682617862466e-02,9.877941608428955078e-01
3.701040779761648469e-01,-4.737490053155792857e-01,3.657644829077651982e-01,-2.106945765957683769e-04,4.213832872402339426e-03,2.574658055782361871e-03,8.417351841926574707e-01
2.785174962931010745e-01,-8.379500031621434086e-01,5.224263565133853149e-01,-1.456285579915331252e-01,2.523841187630748162e-01,8.626496069967654057e-02,1.362111806869506836e+00
1.342858911446855319e-01,-3.700058321024061181e-01,4.827560007347107551e-01,-1.361297466740052364e-01,-6.297385945163260987e-03,7.314551402557422158e-03,7.793237566947937012e-01
4.339029417001623035e-01,-4.713134534720019309e-01,2.430457560079675172e-01,-1.129597920443464699e-03,-5.850088010413377615e-02,-3.749499477917847979e-04,8.326748609542846680e-01
4.215364758647691668e-01,-4.591370025568838886e-01,1.590875393858908193e-01,-3.176484983766639583e-03,-6.804471476101983662e-02,-6.373864722077984130e-03,7.920705676078796387e-01
4.477683565382179487e-01,-5.144559930296069838e-01,1.382284992773064047e-01,5.234400766941402910e-02,-1.809738394399071915e-01,6.391704840861092696e-02,9.179184436798095703e-01
3.692096347027158387e-01,-4.300975217408375961e-01,3.610306965217982000e-01,-3.973474262860122834e-04,-1.742468451053762885e-02,-3.875983399984289559e-03,7.958503365516662598e-01
5.698552283195738866e-02,-8.123815954308264420e-01,7.657702367719582126e-01,3.135277645199500973e-02,-8.301535302559603924e-02,-1.873824563694850495e-02,1.378058791160583496e+00
3.728421824034235388e-01,-4.079008808369131156e-01,3.315965611993229034e-01,1.112239390325172814e-02,5.451601649207290720e-03,2.799861604723088981e-02,7.628045082092285156e-01
5.600499529493675466e-01,-3.974544434448575858e-01,1.389962564650996379e-01,1.129404812264490389e-02,2.589760832657417994e-02,5.468299852396324781e-03,8.327211737632751465e-01
3.281629442772638905e-01,-4.505265838486964824e-01,2.783681500426249400e-01,-7.333057998944497897e-04,-7.001470575551099751e-02,2.098599927556805706e-03,7.647112011909484863e-01
3.307457018555319261e-01,-2.739625404271694986e-01,3.299107815757147399e-01,-3.078782101749315530e-03,1.298750908600166537e-02,2.414542401504303493e-02,6.061776280403137207e-01
3.678701296475368476e-01,-4.667292419380320023e-01,3.564697797180312322e-01,2.479532834289932715e-03,6.034918907867264449e-04,5.494077714420834112e-03,8.290243744850158691e-01
3.458337416856325230e-01,-4.718068175932150776e-01,3.699969416059135652e-01,4.449102843459375178e-03,2.221638254841062487e-03,-3.543794828406531157e-03,8.300533890724182129e-01
2.841771252614173071e-01,-4.510793305860980595e-01,3.727880250453842192e-01,4.088416890152005156e-03,-4.734886940721144688e-02,1.110595273666274523e-02,7.878779172897338867e-01
3.745833825195312716e-01,-4.568130704330949365e-01,3.615446082774013137e-01,-6.505749947409014862e-03,-4.741593376620311870e-03,1.467706548115346342e-03,8.250761032104492188e-01
3.698555513297677733e-01,-4.615371598615461979e-01,3.640430440273032531e-01,2.939704242093318931e-03,3.642901727305289600e-04,-2.955522917227028628e-03,8.285334706306457520e-01
3.328346787386348704e-01,-2.343065419336561317e-01,3.148669544878583415e-01,-2.889828766177280142e-02,-2.623401507653365557e-03,7.996352032161639645e-03,5.608026385307312012e-01
4.444408812153468058e-01,-7.054348888221340097e-02,4.959963835035450797e-01,-3.146849959329144769e-02,3.357515531863099201e-02,1.960461610821737088e-02,5.494750738143920898e-01
3.715660485733722762e-01,-4.563509231672638888e-01,2.945369132970817594e-01,8.455870865663657823e-03,1.646903555329068750e-02,3.401342722240648271e-03,7.928866147994995117e-01
3.795377941156435342e-01,-4.567309342822650775e-01,2.784202450575163912e-01,1.206688975040428463e-02,4.050126302693305563e-02,-8.233663078498387050e-03,7.940843701362609863e-01
4.036565929968635169e-01,-5.056862878542164319e-01,3.213040202141186907e-01,-9.940426945181540797e-02,2.422031383580676156e-01,1.393660985456215140e-01,1.011285901069641113e+00
3.646136218134151674e-01,-4.680442273211923299e-01,3.651479675190323904e-01,6.176264796667371715e-03,-1.629743835837799484e-03,-3.027934963187999765e-03,8.330151438713073730e-01
6.380694918352300959e-01,-7.514519327862877462e-01,1.947460554573416935e-01,-6.947362687845815010e-02,2.236100163950426878e-01,2.108254616979510221e-01,1.345036864280700684e+00
3.891454310628261193e-01,-4.680278387210855540e-01,3.739763913656973249e-01,-3.018130111036169787e-03,-3.008375158895461657e-03,7.406988223668319743e-03,8.498191833496093750e-01
3.555906628848838902e-01,-3.881126769463487669e-01,3.561646583618972572e-01,-5.476420249023019292e-03,-1.234089153140294909e-02,7.094443396323583950e-03,7.444593310356140137e-01
3.669703195673187368e-01,-4.424882689038573957e-01,3.801260639210841674e-01,-2.378387435354789234e-02,-9.016872757316130374e-03,-2.897134384107217034e-02,8.188432455062866211e-01
3.950353320909112398e-01,-4.679386995538292737e-01,3.169317109510777497e-01,1.603250377666434875e-03,3.495594198096384870e-04,-9.971472211158348073e-03,8.268792629241943359e-01
5.119510278731178587e-01,-1.421154445993055848e-03,5.536632884601424553e-01,-3.439515425029727319e-02,-3.323088232435594293e-03,-2.462987979492448076e-02,5.404691696166992188e-01
3.514637466861545434e-01,-3.845238710406586047e-01,3.525907704940943743e-01,7.469013917857815618e-04,1.040628986834896304e-02,-4.742572789972601460e-04,7.367738485336303711e-01
3.545036015951560371e-01,-4.434662298006277759e-01,3.780459202290141763e-01,-5.763058610256026424e-04,-7.869399376434699830e-04,-8.289017640153847552e-03,8.101266026496887207e-01
7.384942752707571723e-01,-8.593569351552541313e-01,8.527135205940583607e-02,-2.372017537470463844e-02,6.165003123784559488e-03,4.033732976804460524e-02,1.393828868865966797e+00
4.096228947780737317e-01,-4.630317320575548790e-01,2.336288292589416560e-01,-7.512115928039889493e-03,2.032500709349334758e-02,1.658174021049519525e-02,8.007193207740783691e-01
3.880838139234016881e-01,-4.672574151511784679e-01,3.016773065901218187e-01,1.341510278749904507e-02,-3.803375169496515246e-03,1.758972846860812692e-02,8.165042400360107422e-01
6.324445654109078774e-01,-4.960819755547186682e-01,4.779943152449167565e-02,-7.101016358769869641e-02,5.306179016368793577e-02,-6.841617102749383839e-02,9.965996146202087402e-01
4.311229731061066439e-01,-4.790735083232704472e-01,2.559701914622743990e-01,-5.641599839067224301e-03,1.808578981170699124e-02,9.196757542885880196e-03,8.372832536697387695e-01
4.715579556664049043e-01,-5.075093520553304316e-01,2.540887244803181066e-01,-2.437308039324692817e-03,-2.572777079613917505e-03,4.881092268618989621e-02,8.945019841194152832e-01
5.424636383027409137e-01,-9.230719113749810134e-01,1.985208246163154833e-01,-3.474083346409641976e-02,-2.242889958354171709e-01,1.592855769443062841e-01,1.411624550819396973e+00
5.815476573979830865e-01,-3.956661873242819372e-01,9.133728248450651011e-02,-4.383986644071724559e-02,-4.730067103153294539e-02,-3.992715964772564768e-02,8.564304709434509277e-01
3.824131133779690717e-01,-4.665764096612147194e-01,3.291997851634743677e-01,-1.200997349362922578e-03,3.349921919483411781e-03,-1.139637686418993288e-02,8.239325881004333496e-01
4.114549245747992079e-01,-4.674633463373896181e-01,2.846507646224027965e-01,-3.775421101397076658e-03,1.967207263386081505e-03,1.572368207728992023e-02,8.233603239059448242e-01
5.449389463195097871e-01,-8.978637158230022841e-01,2.800494383766258810e-01,-9.393158609862170549e-02,-2.981743489453224649e-01,-9.246418864551518568e-02,1.445165991783142090e+00
4.596425497988062547e-01,-4.971610640404314774e-01,1.639513403074428499e-01,-8.276277141557744632e-02,-1.783786314269288631e-01,-6.797758212531571087e-02,9.218767285346984863e-01
3.238948054978485480e-01,-4.595380752730657825e-01,3.520041924605756822e-01,7.206430078326612337e-03,-1.194075753533550485e-02,1.027983752018585620e-02,7.984231710433959961e-01
4.931536417952040452e-01,-4.445140463467525116e-01,1.148981742781456511e-01,5.462371349950684990e-02,-4.530087176670015425e-02,-2.078479796153982415e-02,8.270573019981384277e-01
4.179873868543004800e-01,-5.466180981328447874e-01,2.714493273151919461e-01,9.121758417694365850e-02,-2.747939799995837151e-01,5.243924405628277302e-02,1.034568786621093750e+00
3.876110405245513646e-01,-4.566595485849902492e-01,2.833416199864132734e-01,-9.583192632940605235e-03,-6.480945583314931188e-03,3.972736704476748787e-03,7.975476384162902832e-01
3.667196218940040886e-01,-4.406951343003938648e-01,3.631872310387935787e-01,2.257724203057120613e-03,1.184180588024469696e-02,-3.114890632822789763e-03,8.059429526329040527e-01
3.525968575723851806e-01,-4.356247428115864739e-01,3.598567729464325904e-01,-2.301022558580033146e-03,2.652957342913714409e-04,-5.579756893996764590e-03,7.919456362724304199e-01
3.952769533232560195e-01,-4.639844717738557112e-01,2.825306511279013222e-01,-2.861891360695546001e-03,-5.585067800304442664e-02,1.848889776395611475e-03,8.145895004272460938e-01
3.557617091934506814e-01,-3.887416329927574354e-01,3.569053310969346748e-01,5.086276571464682685e-03,1.354923724581197017e-02,6.705192951986065943e-03,7.455878257751464844e-01
4.221140302683768497e-01,-4.469535330644347493e-01,2.131973753313734510e-01,2.353037297431220809e-03,-2.478375638149588750e-02,-1.347181478520117007e-03,7.869095802307128906e-01
3.709865861649078167e-01,-4.724065142011792950e-01,3.652484700152444086e-01,-1.217912946898063245e-03,1.194965828527211772e-03,1.940927352634406761e-03,8.405506610870361328e-01
3.764497893117632055e-01,-4.750156114444947786e-01,3.610566504867702697e-01,-2.623687808036428981e-03,-1.998561030824462167e-04,-2.028658513674764261e-04,8.438864946365356445e-01
3.863919038286730556e-01,-4.468507024415313555e-01,2.557936714148256740e-01,2.010494863207475807e-03,-1.842789025563721511e-02,-7.830291090225752291e-04,7.768924236297607422e-01
3.893859850753424445e-01,-4.752322243906458299e-01,3.723174532514085810e-01,-1.119221684497403134e-02,1.290544186987231548e-04,3.522341459888906484e-02,8.586012721061706543e-01
4.206174057181421566e-01,-3.238379558760297594e-01,3.731405332440582701e-01,4.505445921527085479e-02,-1.401729288578773547e-01,4.574944331490022470e-02,7.696996331214904785e-01
3.904768924515283346e-01,-5.757492159091293082e-01,2.838922930859663074e-01,-1.387863132519417432e-02,-1.536234953570371209e-01,-2.112283183187917829e-02,9.563918113708496094e-01
3.678409854951556479e-01,-4.571855475968028548e-01,3.690040581267317599e-01,-1.646563879954360005e-03,-1.831591946073073650e-03,-7.588802283096442733e-04,8.256207704544067383e-01
2.838641116085686145e-01,-4.561017866852570268e-01,4.302273682819791611e-01,-2.545164156956540233e-02,-5.752983583656583189e-02,-1.787358651364892928e-02,8.307263851165771484e-01
3.777978995785545302e-01,-4.529589756078418183e-01,2.664980383091394844e-01,5.040584135913087939e-03,-2.521659174089077582e-02,7.085271681250371843e-03,7.824423313140869141e-01
4.248147771560246144e-01,-4.682500245250765802e-01,2.320686839756573860e-01,1.243578342346693920e-03,-2.641541392505459412e-02,1.710462880064095217e-03,8.152838945388793945e-01
4.036826349674839109e-01,-4.503306392121171342e-01,2.361601804331363019e-01,6.725342914250547269e-03,-1.712518592874998774e-02,-1.647256076684315736e-03,7.844486832618713379e-01
3.301100990387660916e-01,-2.526355843882571173e-01,3.307525614142976522e-01,-4.873595941419930216e-02,-1.071157992451115745e-02,-2.169703241058917442e-03,5.894499421119689941e-01
3.460510052974044015e-01,-3.953033583611893498e-01,3.753157397755881863e-01,1.231421735503205467e-02,9.546449685786648209e-03,2.005349844169204351e-02,7.576892375946044922e-01
2.236437565301992447e-01,-4.967636960498206244e-01,4.535175263826058956e-01,2.182079084156631280e-02,-7.421211533345004052e-02,-1.658765967672242228e-02,8.696020841598510742e-01
4.851309409732098565e-01,-4.779780542126497167e-01,1.728717457868813590e-01,-7.994161801924658250e-03,-3.003388351479420459e-02,8.401538195503058248e-03,8.529095649719238281e-01
2.955167894644671334e-01,-6.029188000711652728e-01,4.701591844426877831e-01,1.624804119407892711e-01,-2.599551346341866798e-01,8.047342053048286981e-02,1.138397574424743652e+00
6.580639123296786464e-01,-7.959407532380283756e-01,1.502937115120667189e-01,2.934823789218259441e-02,-1.836714935384612390e-01,1.327356707869903896e-01,1.338023066520690918e+00
1.674166238939029383e-01,-4.081344485950209044e-01,4.469063221635129479e-01,3.483538211260756023e-02,-1.651092536740642047e-01,9.415250864472632375e-02,8.259854316711425781e-01
4.214420386200241619e-01,-4.717327336975908336e-01,1.647373217493572906e-01,9.007072801800112063e-03,-6.865177631382739232e-02,1.350035793419239460e-02,8.057950735092163086e-01
2.645633664684870490e-01,-4.464656559070790953e-01,3.730407984862507131e-01,-7.254367720016771312e-03,-6.394800896999976170e-02,-2.984096661730905199e-03,7.790461182594299316e-01
3.530547196982669611e-01,-4.732103313882847218e-01,3.600764392922539137e-01,-1.458500275182142945e-02,-1.345316952522810153e-02,-9.312480328948838371e-03,8.306661844253540039e-01
4.099408559387216489e-01,-4.569713063575034928e-01,2.325970269855004158e-01,4.552725175810829958e-03,-2.741242047066450027e-02,3.990739797057543323e-03,7.947391271591186523e-01
1.287583884264268952e-01,-6.850460733578804806e-01,6.330197881277925820e-01,8.756548818121770439e-02,-1.138135252638324546e-01,2.088059466974531361e-02,1.179024696350097656e+00
4.074642923013934714e-01,-4.577587426528086922e-01,2.095747767747358214e-01,-5.804056484851792541e-03,-9.531430248501543412e-02,-3.230853162655657716e-03,8.024583458900451660e-01
3.540415047709241647e-01,-2.252028231640789691e-01,3.457742796475084535e-01,-4.643652619082826866e-02,-1.131310052840677968e-02,-2.096300307336515338e-03,5.810936093330383301e-01
3.267353941979492804e-01,-2.253291204027911832e-01,3.475237411551607147e-01,2.066781465919129146e-02,8.023927225644565675e-02,1.798240537657073285e-02,5.815930366516113281e-01
3.553357973272716075e-01,-3.913210674456215621e-01,3.650514470378233289e-01,-8.995756165508388136e-02,9.129830398118458576e-03,1.781340161039876580e-02,7.683256268501281738e-01
6.802521584238537811e-01,-9.357302241415751398e-01,1.825239894460931045e-01,-3.903901731920442642e-04,-1.853993992502564470e-01,-2.287452182091131644e-02,1.469524264335632324e+00
3.634276360232669978e-01,-2.888820785223449317e-01,3.911501587381910339e-01,-3.652719518576142549e-02,1.430803349527256033e-02,2.947185881865045654e-02,6.719990968704223633e-01
4.671233739890441328e-01,-7.633823895226122813e-01,2.259167083225995243e-01,-5.117740861427697019e-02,2.487899369894377433e-01,2.187179803905273667e-01,1.269873261451721191e+00
3.707989379152623610e-01,-4.726868131650774352e-01,3.781273829350070836e-01,-8.853481902877487902e-03,7.024377934212271829e-03,-7.802538529159786657e-03,8.475075960159301758e-01
3.531508245605593510e-01,-3.827172034287167346e-01,3.616735644163422969e-01,-6.867884329853696235e-02,-3.281169489373656628e-03,1.487858050535885955e-02,7.501285076141357422e-01
4.030708232294405446e-01,-4.530860899002919773e-01,2.345409060029491621e-01,8.352734155781908754e-03,1.699461574285554555e-02,-3.499612621683673326e-03,7.862769365310668945e-01
4.222246562094378874e-01,-4.533732870086768507e-01,2.048091253251622668e-01,-5.238812351110272610e-03,-2.184865146277154349e-02,-7.880170426512123072e-03,7.907422780990600586e-01
2.738795870412218947e-01,-1.286451223596507543e-01,5.204693696343482001e-01,-5.928949323411854266e-02,-6.297733687031149830e-02,-2.942322755095125655e-02,5.891795158386230469e-01
2.809560483986259793e-01,-1.862019849239090474e-01,4.509280402160473766e-01,-1.291658483011152471e-02,6.197353573484076783e-02,2.239205461502798145e-02,5.831447243690490723e-01
7.078544346343181859e-01,-9.604172845112320944e-01,1.560238834710586109e-01,-3.559850605760571385e-02,1.886187078608028145e-01,1.687716923446320322e-02,1.509447455406188965e+00
2.707039617942340604e-01,-2.592388273722329162e-01,4.095339703797011843e-01,6.919370053268543430e-02,2.929240777253560440e-02,-5.765365088648809894e-02,6.329252719879150391e-01
2.341622106613840959e-01,-2.392213500964622819e-01,3.909363793376712803e-01,-3.644723066775217013e-02,6.369604549875126920e-02,-2.261677633073877133e-02,5.835887193679809570e-01
1.750765585701416771e-01,-4.687899797823118497e-01,4.439523684897764277e-01,-3.742432362816776326e-02,-2.757459529793150621e-02,-8.878536986100691794e-03,8.165156245231628418e-01
1.829931167428463790e-01,-6.002597095990079845e-01,5.415170727281441998e-01,7.481757823852755451e-02,-1.070156783795888841e-02,1.635237968710536588e-02,1.020185351371765137e+00
3.559960618068391813e-01,-4.478843809413064481e-01,3.799894017764783305e-01,-1.742002487788356455e-04,2.250882248065813607e-04,1.115199619645252174e-02,8.163703680038452148e-01
3.696593845644887133e-01,-3.931077687870206949e-01,3.441817969822307255e-01,1.408004413537053932e-02,-5.142706099776874623e-03,7.289159516796344675e-05,7.508018612861633301e-01
2.150237990336597016e-01,-2.683033555788230662e-01,5.745716566082399446e-01,5.762729499430434277e-02,1.620501228724880935e-02,-1.844524257372535253e-02,7.405607700347900391e-01
3.638897933926217854e-01,-4.667469795393131005e-01,3.494701389250087775e-01,-9.421102482162203168e-03,-3.679479644944740231e-03,-6.011401625368988783e-03,8.237737417221069336e-01
3.377247711351796799e-01,-4.587355195240246930e-01,3.509111615429054698e-01,-5.993913098903924999e-03,1.711934560792861826e-02,9.505506747753533076e-03,8.039175271987915039e-01
3.496006400026229755e-01,-4.640964233371190906e-01,3.485209695205519487e-01,-4.945376936542171531e-03,-1.124696402797094839e-03,-2.304100635393428254e-04,8.132053017616271973e-01
3.413380882408378891e-01,-4.723947098935850075e-01,4.153576083806126973e-01,-2.123237313760355238e-02,6.528270256615960332e-02,4.214476995071696902e-03,8.614309430122375488e-01
3.263918839685210349e-01,-2.538072907680986035e-01,4.951840976109465053e-01,2.669995076974003220e-02,-8.558655827199410093e-02,-6.973117855249618552e-03,6.980792880058288574e-01
3.645834431816758481e-01,-4.638987012286053258e-01,3.699078671117723704e-01,-1.819734763966089110e-03,-5.324457630435922538e-03,-2.692669959919583890e-03,8.312273621559143066e-01
1.724650082738536927e-01,-2.773831636878675289e-01,6.353794058006051459e-01,5.092438391970834088e-02,-6.996617497839707767e-02,2.714479848657003896e-02,8.059593439102172852e-01
3.229162789192702721e-01,-2.736802869894956469e-01,3.453003608600686003e-01,8.859817937193698381e-03,2.433509340495004520e-03,3.589870401304363912e-02,6.114754080772399902e-01
3.647286383964231105e-01,-4.755754460507950476e-01,3.661200612615523875e-01,-8.191713000303234423e-04,-2.227459495581705657e-03,-1.625885865220876210e-05,8.410106897354125977e-01
3.675979706613132225e-01,-4.651224123826057655e-01,3.437789285956360241e-01,-6.638846840853126173e-03,-4.787086243849187663e-04,7.084517941781247850e-03,8.212426304817199707e-01
3.733437581612372158e-01,-4.584930334970532817e-01,3.396621837472699745e-01,4.591193419215365903e-03,-6.172692618145170923e-03,-1.143272062234005661e-02,8.158670067787170410e-01
3.284335087253605900e-01,-2.465629600551640377e-01,3.181738682662806905e-01,-1.928356483991355234e-03,-6.120109531856158386e-03,5.276287413510417912e-04,5.700449943542480469e-01
3.676746394074317248e-01,-4.753408769211724394e-01,3.679651675934337285e-01,9.233802682135783127e-04,-5.371412020885673287e-03,-6.298131831492240944e-04,8.432143926620483398e-01
3.349293359066348730e-01,-7.957642509463203062e-02,3.213479351264137973e-01,-3.254019164915286644e-03,-4.213627391284466804e-03,7.939200806949149591e-02,4.305394589900970459e-01
3.794031374334995155e-01,-8.270733533134598803e-01,4.095307152418729002e-01,-1.150996062548803461e-01,-3.403405773858499961e-01,-1.494595142908917706e-01,1.395383358001708984e+00
2.210396635150256861e-01,-4.792121858178199911e-01,4.148461175892725339e-01,-3.398083433030704703e-02,-8.167840140988899544e-02,-2.205752391594733783e-02,8.297979831695556641e-01
3.652668675877708826e-01,-4.696536571663247894e-01,3.659762161949813852e-01,-4.752509371971440875e-03,-2.254675220960543520e-03,-2.649577841634069911e-03,8.353376984596252441e-01
3.204349828374787323e-01,-1.491210591677865627e-01,3.173868506607660511e-01,-1.994937691633329527e-02,1.582735454372212426e-03,2.595731950072664371e-02,4.714697301387786865e-01
3.454624487761491780e-01,-4.533771690539336596e-01,3.171028386386496312e-01,-1.119621320560061292e-02,-7.767484626087523686e-03,-5.198850769358824564e-04,7.853993177413940430e-01
3.466454498958649877e-01,-2.780888065491303740e-01,3.204381079858292236e-01,3.375625038227422076e-02,2.753163281193269935e-03,-1.394411562688341799e-03,6.148610711097717285e-01
4.475659298061278601e-01,-5.118715446117916290e-01,2.671612464686429211e-01,8.295935642319495710e-04,9.653739841792283172e-03,-4.186928255192130105e-02,8.862955570220947266e-01
4.373392579696058213e-01,-4.812398426751272051e-01,2.951611822427471221e-01,-2.426314619502577610e-02,6.210795581101827972e-03,6.779747040081514353e-02,8.654892444610595703e-01
3.849011585158077509e-01,-4.204362580712240893e-01,3.351787173476484805e-01,-2.661148326098657091e-02,-1.280844642907901648e-02,7.383696339575790586e-03,7.834395766258239746e-01
4.477721478255199394e-01,-4.987320454402951464e-01,2.166656330863149515e-01,-9.393256725427963361e-03,-3.950310846231714496e-02,-3.930375555241220203e-02,8.603008985519409180e-01
3.119805080065652936e-01,-4.444284411226948617e-01,3.418041879382153758e-01,-6.025389360194046817e-04,-6.901522306316900876e-03,-3.233885500014692556e-03,7.718666791915893555e-01
3.735781832816819081e-01,-4.172582836107073812e-01,3.604736905901533839e-01,9.686513551793389087e-04,-1.765827989499972953e-02,-2.206439380700693769e-03,7.849735021591186523e-01
3.770559526918259019e-01,-4.517419824989399313e-01,2.890046032974213919e-01,-1.265518971954490354e-02,-5.384120523879253051e-02,-2.454571783276971939e-03,7.942779660224914551e-01
4.526553498984599577e-01,-7.637488756998740413e-01,3.414890098457724066e-01,8.201530550058483415e-02,-2.732837116012430956e-01,8.654678700820521431e-02,1.274157166481018066e+00
3.477353687260501536e-01,-4.638358975257625971e-01,3.501093174071033820e-01,2.520735121071086284e-04,-1.617672627418920324e-03,-4.812348205163663115e-03,8.128085136413574219e-01
4.768905221612316225e-01,-5.858907721792810941e-01,2.804759842160596817e-01,-3.070542320305568590e-02,5.639045016732097126e-02,-1.092191120874696185e-02,9.859325885772705078e-01
5.713336340721862916e-01,-6.848970596126326971e-01,1.969316789589408145e-01,1.118718483375314224e-02,2.131682889080739884e-01,9.332970990887320961e-02,1.187765121459960938e+00
7.193362506529938916e-01,-8.017564358902836696e-01,1.078187307289764363e-01,2.648449945831201149e-02,1.051914272131402317e-01,2.199567052301226733e-02,1.339497327804565430e+00
5.629915413259676260e-01,-5.970825494375894271e-01,1.557782354036924277e-01,-3.435712090452983092e-02,1.077266133950378624e-01,1.235188886125487828e-01,1.059869766235351562e+00
3.878770054818931334e-01,-4.415629579247219993e-01,3.299172463952016465e-01,2.243332968907854608e-02,1.374454626126473886e-02,-3.417747833176766614e-02,8.055039644241333008e-01
2.857282182246048685e-01,-4.862375208960137973e-01,3.655081884170540141e-01,9.390984841284678863e-03,1.512646230521843826e-01,4.429852580212089927e-03,8.560664653778076172e-01
4.802326457973993823e-01,-5.139121422288577268e-01,2.677353632663429517e-01,1.019839968202605578e-02,2.548070724527379954e-02,3.556151976452606028e-02,9.100986719131469727e-01
3.065112395094850006e-01,-4.635239917157788492e-01,3.673747222019066450e-01,-1.211313055401037030e-02,1.280975224813133209e-02,1.081415270272329844e-02,8.029999732971191406e-01
4.063070727268002780e-01,-6.342408395592922243e-01,3.274603970434597500e-01,-1.204878696174113695e-02,2.989883920656997152e-01,-7.541854402339334684e-02,1.136923313140869141e+00
8.459489091818292450e-02,-9.089210615879848021e-01,6.622966833066809000e-01,-3.721661982648325363e-03,-1.164076280729599566e-01,-3.369595796324966440e-03,1.391221404075622559e+00
3.173965637215256375e-01,-1.596786481132351221e-01,3.168273537554237018e-01,-1.443988100013677417e-02,-9.060116978805753465e-03,2.697872773167661609e-02,4.799842238426208496e-01
2.361492427943066852e-01,-6.400454888544065968e-01,5.090117387109148739e-01,9.108699470207912152e-02,2.071986330518876818e-01,-6.905045060765305220e-02,1.117694139480590820e+00
1.785969053590396594e-01,-4.454274797240939110e-01,5.846660759631578941e-01,8.170907441611043043e-02,8.114963119974409611e-02,3.534965425227554713e-03,9.206074476242065430e-01
3.296158594190780056e-01,-3.145500663665803942e-01,3.495817295914261935e-01,-1.778776971890986408e-02,-4.639498714514944319e-03,2.991538482188688466e-02,6.571972966194152832e-01
1.115515071620075682e-01,-9.407029640800211867e-01,7.338512430063073300e-01,-9.416966730586416590e-02,1.506426383809291447e-01,1.943655498565997897e-02,1.498376011848449707e+00
3.846727874332658281e-01,-5.963326790171693537e-01,2.988008250130528287e-01,-6.288651453603397168e-03,1.632987610380624843e-01,3.945507481685661677e-02,9.850345253944396973e-01
3.433260211923736538e-01,-3.410344716334256510e-01,3.573182720598449547e-01,3.744767838586608982e-03,-1.650928592051690430e-02,3.914270271412714081e-02,6.953970193862915039e-01
3.582054773864635222e-01,-4.659356146668958143e-01,3.658161793965084563e-01,-2.628701658744780727e-03,3.991638459751496899e-03,6.202226799662920002e-03,8.280837535858154297e-01
1.008441503755401480e-01,-5.750771189619235946e-01,6.470946183683349284e-01,1.137739633651231597e-02,6.474635596042220553e-02,-7.463211341235502505e-03,1.066589474678039551e+00
3.461138329604600550e-01,-2.774187901271569223e-01,3.197326665476834529e-01,3.320579144510081571e-02,3.779464893512546027e-04,-2.050347205847657169e-03,6.134821176528930664e-01
3.496080841517632543e-01,-3.769867737671682706e-01,3.626868730257292173e-01,-1.092746811632373805e-02,-1.472678414512163664e-02,-4.077167585079526091e-03,7.339433431625366211e-01
3.806782471039681370e-01,-4.395056076929451105e-01,3.452519519003018900e-01,6.373457281539025507e-03,-5.929414162798319135e-03,-2.518671683644636838e-02,8.043823242187500000e-01
3.706057960425544473e-01,-4.684728530517660028e-01,3.643315722769607801e-01,1.727188318418698687e-03,-1.726584547103314233e-03,8.613293048125288207e-04,8.359712362289428711e-01
1.278913161077502858e-01,-3.668566680595556351e-01,6.523799881561580527e-01,1.193101016543033216e-01,-5.686345801778761033e-02,9.968791897304981470e-03,9.121714830398559570e-01
3.597808802843660003e-01,-4.717468302636693700e-01,3.615155342694874596e-01,-3.731688641616767461e-03,-1.656635359894372602e-03,2.915642757611386035e-04,8.324266076087951660e-01
3.174715429104854603e-02,-8.946788843086295184e-01,8.129913887356197133e-01,1.575934900735647404e-01,-7.530200082401045103e-02,4.756820079461739417e-03,1.511277198791503906e+00
3.622795097540389420e-01,-4.431476999468590972e-01,3.733987776622049726e-01,-9.358549128918997734e-03,1.059061480611940033e-02,-6.494397671344573526e-03,8.114913105964660645e-01
3.711749813308586332e-01,-4.728406126875279725e-01,3.650302477109382271e-01,2.291284215973398222e-03,-1.710225149536085884e-03,2.794967923255388138e-03,8.409885764122009277e-01
2.281777373004146570e-01,-4.760325396648702467e-01,4.543791425182828747e-01,-3.484337915799097692e-03,-8.088364841623418844e-02,2.697833170876073536e-02,8.533574342727661133e-01
3.662801297771040576e-01,-4.761358837166851377e-01,3.657018180712258149e-01,5.378554118076512994e-04,-2.878968307194751386e-03,7.639030044968616717e-04,8.421432971954345703e-01
2.913048176588591831e-01,-4.666204374773099683e-01,3.865326724862353514e-01,1.814002861556564608e-02,5.442928344330202894e-03,-1.212759590994057050e-02,8.106861114501953125e-01
8.116903611234660421e-02,-3.735995707336495775e-01,4.981361437030850103e-01,-9.574519364719048797e-02,-3.070552857218308840e-02,3.135053555707775774e-02,7.769028544425964355e-01
1.435652786298039496e-01,-2.980540369583608573e-01,4.268270140217346187e-01,-1.049560331576056688e-01,2.329764375747967690e-03,3.194308279668987838e-02,6.606688499450683594e-01
2.130613965411172761e-01,-4.759902532143535092e-01,4.473320739088975095e-01,-7.230945696126508775e-03,9.449060944202922890e-03,-2.047795442564510470e-03,8.315868973731994629e-01
3.559998758144649056e-01,-1.995377434672254147e-01,4.697742461429816330e-01,-8.801329261167133156e-03,-9.218416491085290598e-02,-2.416650736577298508e-02,6.420676112174987793e-01
3.598140983496115330e-01,-4.529113284004455675e-01,2.879325061256232665e-01,-1.037254534511276166e-02,3.212410094039163527e-02,4.979920411797622570e-03,7.815130352973937988e-01
7.312490816290703743e-02,-9.888560891830072697e-01,8.018433368571231679e-01,-4.091272741399003959e-02,-8.203196544389521061e-02,-4.068300226819921567e-02,1.569360971450805664e+00
7.704681126437465388e-02,-1.046091778990644983e+00,8.549701728612931761e-01,-8.095673429690536382e-02,-4.499571492225674929e-02,-4.358217910651269317e-02,1.664858818054199219e+00
3.176370483031514258e-01,-2.785545932709050376e-01,3.449246510277248490e-01,1.680893179351391630e-04,-6.452403685569443881e-03,5.194440810447797929e-02,6.169905662536621094e-01
3.679690150581961250e-01,-4.720981604699654444e-01,3.644928725426819227e-01,-1.276559180991382065e-03,-6.428608311943466436e-03,3.604404140946313069e-03,8.384346365928649902e-01
9.309040486621183996e-02,-8.531641175091516649e-01,7.469712111955210121e-01,-6.642406568077175583e-03,9.267616129271274983e-02,3.665813020922977644e-02,1.404145956039428711e+00
2.169366579937288542e-01,-4.498345938673363742e-01,4.185746674229766096e-01,-3.900838042543681907e-03,1.837668085684864352e-02,-4.834116973316345987e-04,7.878754138946533203e-01
3.676980523442963666e-01,-4.721513761854716495e-01,3.676003939392004094e-01,-1.771134278746353853e-03,-5.649537349757739746e-03,4.923135698575050161e-04,8.398636579513549805e-01
3.656463199628764982e-01,-4.720990256532945351e-01,3.640170790376857646e-01,-2.609540888296042662e-03,-1.468466647727251911e-03,3.466467222686769618e-03,8.369694948196411133e-01
1.008938780013690362e-01,-4.549764887819931491e-01,6.382155259572837025e-01,-6.601414261195495681e-02,2.399187425025335607e-02,-5.984587239737962361e-02,9.601732492446899414e-01
3.685763699117153291e-01,-4.759357816326064139e-01,3.659109005514188939e-01,1.359460446312352579e-03,-1.199642795474861225e-03,1.585473702739588096e-03,8.431928753852844238e-01
3.437762041817618575e-01,-4.682862504791940328e-01,3.971685638896450543e-01,-3.904322237981322496e-02,-7.526500771150723690e-02,-1.425620651123602443e-02,8.531303405761718750e-01
3.095208908335094766e-01,-2.153979231063347100e-01,5.295873423663682855e-01,-3.274390367043342881e-02,-5.838472521902365875e-02,-2.588525374683842140e-02,6.744916439056396484e-01
2.252005194261709198e-01,-6.229319989587253081e-01,5.553877716256057084e-01,-1.065669717833948316e-01,-1.922261586602327932e-01,8.508317583177955196e-03,1.119613528251647949e+00
3.424942007889543727e-01,-4.467813137504076382e-01,3.133434711098521119e-01,-3.434365713836590953e-03,-3.287201406322909358e-02,-4.580592657469204597e-03,7.772629261016845703e-01
3.273032222717568995e-01,-2.349670498366116522e-01,3.624700443855845555e-01,-4.416495454717188351e-02,-6.011557632385186589e-03,6.100366879976810291e-02,5.952160954475402832e-01
1.777367587806525095e-01,-4.998085967070695634e-01,4.158917847626344977e-01,-2.291021349327524922e-02,-1.816783107820917897e-01,-3.550779120343081074e-02,8.840386867523193359e-01
2.307751102285686695e-01,-4.651372757562887150e-01,4.091568299964197797e-01,1.163265138469353954e-03,-3.609068071427452840e-02,5.187387994203973389e-03,8.026484251022338867e-01
4.268635334452375307e-01,-4.467512442235117565e-01,1.968885981006103791e-01,9.973220945136675175e-03,-1.636071495634074460e-02,2.370058979429861840e-03,7.850477695465087891e-01
3.645098920048878699e-01,-3.982004752690015970e-01,3.512661132867452296e-01,2.152346314040670498e-03,1.583007436436987408e-02,2.436230945678240743e-03,7.566933631896972656e-01
3.359070029853200579e-01,-4.698448159289089210e-01,3.804492150215075807e-01,-6.154898898664897498e-03,2.006542551637418952e-04,-6.322646327682379837e-03,8.290619254112243652e-01
4.659245445488569559e-01,-4.702479387483233797e-01,3.490098450982787037e-01,8.542199258122586125e-03,4.782958047937901393e-03,-8.785123087530623959e-03,8.838295936584472656e-01
3.146597808024478304e-01,-4.657271152951395488e-01,3.972558608290147064e-01,-1.027335950360027013e-02,-1.625641958370266978e-03,3.234878311654826571e-03,8.250082731246948242e-01
3.526709918887118711e-01,-4.559729341038866179e-01,3.173950876527670273e-01,8.314721694062898044e-03,-8.735070565325575576e-03,-1.231092485014883111e-03,7.918741106986999512e-01
5.155992918042729967e-01,-3.261155486019023941e-02,4.768001102492177568e-01,-1.554736942745989919e-02,2.071350082069804699e-02,-5.099191365756637964e-03,5.318464636802673340e-01
2.149548588740549659e-01,-5.031765223984966395e-01,4.642965166762882401e-01,-2.120042755964575074e-02,-6.734374439349974373e-02,-2.512385814616154359e-02,8.796542286872863770e-01
3.079437764129967503e-01,-1.849132217776238707e-01,3.196273384877448276e-01,-1.424947149002677793e-03,-1.048365254900591494e-02,-4.185668728676743972e-02,5.043754577636718750e-01
5.187951495971457883e-01,1.254986080663461623e-02,5.621444957232960560e-01,1.661855915588828642e-02,-1.853285197276376313e-03,5.217498375810146992e-03,5.301220417022705078e-01
2.972143896034862287e-01,-1.088952432875295862e-01,2.902664277444140239e-01,2.359166353491136403e-02,-8.855541064822112715e-04,1.204933579566994919e-03,4.047568142414093018e-01
2.875900691690609356e-01,-1.104124588028620457e-01,2.970285223047942624e-01,1.512131401006867361e-03,-1.041911950098274543e-03,2.424432741517977899e-02,4.050001204013824463e-01
3.955728243909663044e-01,-2.669795254667609030e-01,4.192362433582952352e-01,-4.320659828816678094e-02,1.416937999316907892e-01,1.530347387156114070e-02,7.223214507102966309e-01
3.907813535406551853e-01,-4.584949743934007005e-01,2.898949248252189470e-01,1.595141673911485000e-03,1.478482102089158021e-02,1.476030119578750771e-02,8.044158816337585449e-01
2.701073763736795419e-01,-4.563137212756075423e-01,3.891528127156763661e-01,-1.286119087172645122e-02,1.780310278430228058e-02,1.490489936018846336e-02,7.940088510513305664e-01
3.468842822654952252e-01,-2.787733430707844962e-01,3.207854647608834875e-01,-4.115283358070040420e-02,-1.007272387227251507e-02,1.478624213870680278e-03,6.174069046974182129e-01
4.511348594585439242e-01,-5.190590651323609972e-01,2.063798701826795590e-01,2.533458509353368401e-02,-8.851944712643722291e-03,-8.208552354578359548e-04,8.751479983329772949e-01
3.130278348119384102e-01,-2.146822079351152213e-01,3.258630913703874366e-01,-2.890913054154597419e-04,-5.587307954718904318e-03,-1.222036463426573504e-03,5.343353748321533203e-01
4.929459796328323207e-01,-5.723603065451032812e-01,2.350086225637814108e-01,2.502799912657929435e-02,3.201025543800530004e-02,-6.195598335445172584e-03,9.652435779571533203e-01
3.086800970099846664e-01,-1.792849248044395827e-01,3.039298713869242330e-01,3.019366391744031375e-02,-8.852591370154064276e-02,8.433647993082249439e-02,5.323513150215148926e-01
4.935559368779424139e-01,-3.074279751561143081e-02,5.549823596962581984e-01,-9.285250977625690572e-03,-9.242478067974116071e-03,-3.113214513564491887e-02,5.606163740158081055e-01
3.504027845289043319e-01,-4.484631409523169854e-01,3.192263044737549960e-01,-5.398686107304351799e-04,-3.685170040899795468e-02,-1.115014945652712496e-02,7.865754365921020508e-01
3.028689153201407080e-01,-1.885947951053898453e-01,3.135425463415160707e-01,2.501209308201109063e-03,-5.011511772993425089e-03,2.217236577091281219e-02,4.984627962112426758e-01
1.916228011702406642e-01,-4.548727398274341471e-01,4.291405893709265840e-01,-1.648446136330794509e-02,-2.735320008151352622e-02,-3.202391419452386197e-03,7.943651080131530762e-01
1.648107683861750883e-01,-7.540397778972663945e-01,5.518602700156763907e-01,5.059091968546817336e-02,-2.144774824997052742e-01,6.791163291886516407e-02,1.228515505790710449e+00
3.207806539567304993e-01,-4.743848508727239732e-01,3.924882309287372473e-01,-1.092339511948330066e-02,2.078332278413664962e-03,6.564562256943472923e-03,8.336364626884460449e-01
1.040708020588812094e-01,-6.392360677445027006e-01,5.445718944620956403e-01,1.660819273759617416e-03,-4.495370129792547464e-02,3.897085412120555870e-02,1.041441679000854492e+00
5.403182603193084077e-01,-5.832615153764297844e-02,4.003367692999517669e-01,-2.962900164700518757e-02,8.490105550282405975e-03,-2.765005284786573037e-02,5.470961928367614746e-01
3.335918660942231995e-01,-3.118315241925335157e-01,3.525565790578785164e-01,-2.162901339339917683e-02,5.936265736020558334e-03,-2.981685928611042206e-03,6.562827825546264648e-01
3.394996458792012839e-01,-3.398776697228355070e-01,3.605055156033640795e-01,-2.420146271263352508e-02,-7.390023478495377773e-03,4.054789475405427834e-02,6.950676441192626953e-01
1.595780454271714388e-01,-4.781411868448298685e-01,6.031702926143287513e-01,-4.590325362180360663e-02,7.582234486371562665e-02,6.679044547023268996e-03,9.539651274681091309e-01
3.788459555552866065e-01,-4.568310383892660864e-01,3.603769638394488939e-01,-3.561282137305421189e-03,3.274035387029649224e-04,-1.929969818064547005e-03,8.266272544860839844e-01
1.699076346687778405e-01,-4.640753123829679527e-01,4.479856977598430934e-01,1.931342542726971825e-02,-1.271321255715844936e-02,4.908201848493293912e-03,8.107001185417175293e-01
3.640489224099163756e-01,-4.466670985194404198e-01,3.636161730431395900e-01,-5.842683038409197255e-03,-7.891562371095964257e-03,-1.071637159070104595e-02,8.108906149864196777e-01
3.583072516989602163e-01,-3.529431293786368107e-01,3.285056463304385499e-01,4.648782503574104032e-03,3.744218480023971639e-03,5.772054845586862236e-03,6.969761252403259277e-01
3.608179369160314787e-01,-4.696682700421318524e-01,3.681670360422492627e-01,-4.609077828910563938e-03,2.933630651332288890e-03,4.193752873292179266e-03,8.342703580856323242e-01
2.765192159559837215e-01,-2.824558705363440225e-01,5.549746914101845174e-01,-3.911335163629522244e-02,7.239742744488562864e-02,1.788742827169110053e-02,7.529368400573730469e-01
3.268941030653610413e-01,-2.926693748519730853e-01,3.459402662882753998e-01,-1.323368971194009355e-02,7.717924972695820729e-03,-3.547004676392026545e-02,6.328510046005249023e-01
3.811265040273942306e-01,-2.145175872634649816e-01,4.190830425642365631e-01,-3.574485806384485737e-02,1.240354399030830779e-01,-1.218411350989341557e-02,6.551900506019592285e-01
3.636217102088117326e-01,-4.415484308406824043e-01,3.586478139581437685e-01,-9.460296843269317205e-03,-1.380449001793927159e-03,7.448438242993264333e-03,8.029691576957702637e-01
3.683923859793622468e-01,-4.601043882320833278e-01,3.671970958122415807e-01,1.988559971003396164e-03,1.504460497782331846e-03,-5.671544415726742028e-04,8.279116153717041016e-01
4.076194938875769558e-01,-7.542193624866277979e-02,5.420060148920241572e-01,1.213324906399564085e-02,5.780725597632468266e-03,2.226307180960597053e-03,5.629029870033264160e-01
2.272643960392912721e-01,-5.491888282909176411e-01,4.849794032413908274e-01,-1.289808146619612211e-02,-3.965605340584548583e-02,1.226490352441208902e-02,9.354509115219116211e-01
2.538529462512251200e-01,-7.101934296158862736e-01,5.446030527020688794e-01,-7.337397352049206123e-02,-1.872342630836447697e-01,-4.742449415342921137e-02,1.192596316337585449e+00
9.968281039318641068e-02,-6.836699835041853968e-01,5.269451275147213343e-01,-1.073621003315912564e-01,1.873719722551840383e-01,1.119056218261443858e-02,1.127462744712829590e+00
2.210701499560431271e-01,-5.231250806647231855e-01,4.699098553490564378e-01,6.567607208040712741e-02,1.190368924688946506e-01,-2.330162443795228203e-02,9.262890219688415527e-01
2.325826350548118315e-01,-4.884510559367185589e-01,4.247765460881835486e-01,-4.611351735390969986e-02,1.439715223423231050e-02,4.077567217267744418e-03,8.381273746490478516e-01
8.632380695934185888e-02,-7.140277798434391254e-01,6.321584028874182026e-01,1.225168666813808427e-01,-1.547603894994676321e-01,-1.134955130319687255e-01,1.237289309501647949e+00
2.020787796613301435e-01,-4.541082204501258879e-01,4.261825800871899550e-01,1.020115506416080162e-02,1.014957014408690572e-01,-8.891002146674084616e-03,8.119798898696899414e-01
8.460843807145485007e-02,-8.485813339959623613e-01,6.344594515848702709e-01,4.037228049527920998e-02,9.618533365981849284e-03,-9.079094240790216985e-02,1.310034751892089844e+00
2.396099560552219232e-01,-5.191090798394311090e-01,4.321007234412035380e-01,-5.616885025964643563e-02,-1.877843767663416874e-01,-6.828856881386929922e-02,9.423361420631408691e-01
3.260706320041829587e-01,-5.484890161086379834e-01,3.340058035671139569e-01,-2.371861360064339216e-02,-1.924661958051474553e-01,-3.697367412781689486e-03,9.405933022499084473e-01
2.174498917189157110e-01,-4.731098261678763350e-01,4.163157713083552314e-01,-3.087958966199954702e-03,5.694784048488577000e-02,7.775905678525290915e-04,8.145604729652404785e-01
3.609895172544153041e-01,-4.719669365939914707e-01,3.645692134743973023e-01,-2.257268284112982047e-03,1.022072425982951558e-03,-2.596860506944139758e-03,8.347752094268798828e-01
3.691630359067469280e-01,-4.667631459583951870e-01,3.211970206307739328e-01,-1.377789721039263636e-02,-4.559570294327474488e-03,-1.245540498833201497e-02,8.136796355247497559e-01
7.133107496119733826e-02,-5.633202383045657902e-01,5.029554717360096294e-01,-8.658233362775558106e-02,1.803465840133555709e-01,2.890289335594921002e-02,9.927654266357421875e-01
2.639671037661824871e-01,-4.535427790521729952e-01,3.953996797796016094e-01,1.430696045337458838e-02,7.142890970517082327e-03,-1.198394904441419002e-02,7.922102808952331543e-01
3.197841839729937408e-01,-4.663095555463854236e-01,3.872821955311582798e-01,1.280303520490367296e-02,-9.160222981979171571e-04,3.494197403791661667e-03,8.222469091415405273e-01
4.937338010332940064e-01,-5.879308217540707426e-01,2.821562163775730436e-01,3.385159147655861234e-02,-2.001829837198487172e-01,1.328228057041903609e-01,1.078188538551330566e+00
2.462307206324208519e-01,-4.678211764359083702e-01,4.297074069001256547e-01,-7.560277459827090263e-04,3.850701420555847215e-02,-1.710607623032375443e-02,8.245444893836975098e-01
3.495150105014053210e-01,-4.121587671249139495e-01,3.751170322429235870e-01,-4.386746199785284848e-04,1.403224053590365877e-03,-3.661115980358994448e-03,7.748222351074218750e-01
3.713505261556803161e-01,-4.502180421468280347e-01,3.793192636523428085e-01,-1.710981349745677865e-02,-1.930213238997820029e-04,-1.576077043727096283e-02,8.265644907951354980e-01
3.792932735768057562e-01,-4.633894685940816993e-01,3.433228219538762005e-01,-4.747091766991797489e-03,1.937517406553549218e-03,6.332268909942338764e-04,8.253341317176818848e-01
3.792582473351522876e-01,-4.906625659024272945e-01,3.438282758737197797e-01,5.845578025741550096e-03,2.674842323544117384e-02,-1.416448719908391073e-02,8.544279336929321289e-01
3.639863273849128222e-01,-4.743019491598766679e-01,3.663624622300754030e-01,-1.881751531901378277e-03,-1.193925460449501421e-03,4.364144346490733109e-05,8.394877314567565918e-01
6.224749148223568396e-01,-7.115645419275390404e-01,1.523418012311177072e-01,4.200775259539236972e-02,-1.373130802306067599e-01,1.501924522311204879e-01,1.225986242294311523e+00
5.263895661131319237e-01,-8.240709047781545893e-01,1.978139766247301035e-01,-8.639344810848925693e-02,-2.215402818357742332e-01,-3.468922785952005539e-02,1.288882851600646973e+00
2.982531624407077642e-01,-4.780861149736878035e-01,4.000126160494301697e-01,2.140237421070786961e-02,7.915884511114728433e-03,-7.938729519895694475e-03,8.329518437385559082e-01
3.028278538468112124e-01,-4.482489155477900056e-01,3.497337215874029570e-01,4.642863839713083467e-03,1.757096834416601097e-02,-3.780837563780000115e-03,7.762603759765625000e-01
3.297944074721277374e-01,-4.439099171213314321e-01,3.192876386413533440e-01,-1.877571208467620524e-03,1.218170534152935788e-02,2.862815406574110316e-04,7.688014507293701172e-01
3.471338775262347021e-01,-5.149788837966634558e-01,4.220616007985045215e-01,-1.060312010246839964e-01,-2.246029829985628501e-01,-6.031299595702006161e-02,1.004703402519226074e+00
4.482481884838535047e-01,-7.101009507684595823e-01,2.764396302459282140e-01,-2.230056331680277670e-01,-3.492274117522337074e-01,-1.444150593838184893e-01,1.322844505310058594e+00
3.361238042809065463e-01,-4.453135456082141230e-01,3.262758074175383660e-01,3.606479374669613151e-03,2.394080017454698964e-03,9.981842883158975740e-05,7.765964269638061523e-01
3.620448202781805236e-01,-4.641483389127890602e-01,3.697957744982940942e-01,-6.522377458869253568e-03,1.409660890933478981e-03,1.465043377355872319e-03,8.301801085472106934e-01
4.267866024486222654e-01,-5.447607917669878841e-01,2.925857736711838797e-01,-1.463097698244385514e-01,-2.952304830248063672e-01,-4.778728524149555845e-02,1.078927874565124512e+00
3.597723128613475319e-01,-4.699388792775091028e-01,3.660928016772618809e-01,-1.641726443723509144e-03,8.450912997923724218e-04,7.172055355726385945e-03,8.329882025718688965e-01
3.623439334254877631e-01,-4.640627287824108382e-01,3.218283841822128233e-01,1.376779826195928015e-02,-7.584833057820736940e-03,1.229105188883196191e-02,8.076519370079040527e-01
5.803750077110219063e-01,-9.549054412870400244e-01,2.795413485774868589e-01,-2.487569690589171503e-02,-3.030568479562535944e-01,-3.330953935012524042e-02,1.505469441413879395e+00
3.107546776089126772e-01,-4.526324102591257059e-01,3.503081313511355321e-01,2.888410358723606051e-03,3.506627631914115834e-02,-5.426517723095225683e-03,7.863340377807617188e-01
3.255866403027862788e-01,-4.441115978594928348e-01,3.341876012131721474e-01,9.074738043325979522e-05,4.010787122854147027e-03,1.113510778743071360e-05,7.740657329559326172e-01
5.200247549063204966e-01,-9.552706121535223804e-01,3.577115364945567255e-01,-9.436196778436774235e-03,-3.167077273561695883e-01,-4.337527087209137183e-02,1.506719827651977539e+00
2.538287337131670540e-01,-5.798862662750754460e-01,3.486047526839456401e-01,-1.080738776590940350e-03,-2.707430038511073334e-01,2.467122252530659296e-02,1.002404212951660156e+00
3.289988199714394823e-01,-4.440475444616884815e-01,3.305537284740837078e-01,9.878626409761482935e-05,1.529359803403070386e-02,8.686796203774576524e-04,7.742797136306762695e-01
6.565761198681572264e-01,-8.603127724804069398e-01,1.835008075927433424e-01,-2.270536132612974503e-02,-1.901070861991038807e-01,-3.182288307232847280e-02,1.385697007179260254e+00
3.487896139223123915e-01,-4.924029765315230955e-01,3.200376102485512630e-01,1.976946170102583319e-02,-5.558077626346498434e-02,1.177942167322040129e-02,8.337278366088867188e-01
4.156958833565900235e-01,-7.885245571275554255e-01,3.924173134336246815e-01,-7.831713382860759631e-02,-3.216011556590975262e-01,-6.946892704302173871e-02,1.328840374946594238e+00
3.665224849301900734e-01,-4.563583737885962277e-01,3.175557376132553955e-01,-9.836146104799190631e-03,-6.778323176649338547e-03,-1.210287149552468147e-02,8.000652194023132324e-01
5.998343113219581912e-01,-8.433587356507310506e-01,2.095965104351411312e-01,-1.546780422683510445e-02,-2.772887761965883158e-01,5.384446989140816847e-02,1.382745742797851562e+00
3.444973100143828293e-01,-4.452245920539712465e-01,2.976113465815596326e-01,-4.096502237475896716e-03,-2.133768782614308204e-02,-2.846668151416438964e-03,7.682920098304748535e-01
3.653666085041391565e-01,-4.670824619244591247e-01,3.649014609504151463e-01,5.266605920885201152e-03,-1.723317484343532709e-04,5.240593283104338571e-03,8.323161602020263672e-01
3.613005298733854009e-01,-4.548076277323928052e-01,3.424851483807535013e-01,-1.441299684144958966e-02,-1.999703125501117035e-02,-1.424072941933079983e-02,8.083702325820922852e-01
1.020924279648914579e-01,-5.188867133036432211e-01,4.968558611607438724e-01,-4.068319725782019308e-02,-1.001836285235498669e-01,1.011872295764558796e-02,9.066289067268371582e-01
3.770447910503237909e-01,-4.718776635888446425e-01,3.656131117977815537e-01,-4.312350428700725369e-04,5.472580823007906076e-03,2.094479314360028679e-03,8.433261513710021973e-01
4.324824575936418447e-01,-4.807840305897395083e-01,2.931811796147252291e-01,7.085875641339589234e-03,-6.289025857019726884e-02,2.773785535813208178e-02,8.605612516403198242e-01
3.505935477815175783e-01,-4.749934295640738657e-01,3.620465506051318005e-01,1.749403668904991882e-02,-3.339449520001338406e-02,1.991828794898574742e-02,8.346462845802307129e-01
2.824299776654972671e-01,-4.727332643514620125e-01,4.034890573012294701e-01,2.464003840025221631e-02,-2.098839656628617711e-03,8.886473024731816189e-03,8.236611485481262207e-01
1.813871485154939789e-01,-9.612036480800699723e-01,6.513810059329774305e-01,-3.727349233604183854e-02,-2.036710948308738667e-01,2.129008253288034586e-03,1.480555891990661621e+00
2.037735558922846857e-01,-7.277465934502939104e-01,5.236147878249990395e-01,-1.341102883596806128e-01,-2.558714422028453561e-01,-8.444962329430140413e-02,1.240858316421508789e+00
2.134954939742779723e-01,-4.728722867904623373e-01,3.941340252945850220e-01,7.696748582478022196e-03,-1.211420409865822945e-01,-1.744734627792262488e-02,8.202637434005737305e-01
3.740138693337180520e-01,-4.543626783408903913e-01,2.747937378097957684e-01,-1.636258803112646334e-02,-3.948586578156747934e-02,-1.108589553138769092e-02,7.872166037559509277e-01
2.189913210071387506e-01,-4.650162851710060163e-01,3.381543114494657831e-01,1.166908612917235376e-02,-1.329383383178059652e-01,1.330434903152339157e-02,7.858319878578186035e-01
3.569193172602672104e-01,-4.563992929119219388e-01,3.242304701040104042e-01,-7.141163307984960303e-03,-1.449411413196481993e-02,-6.828482980976074111e-03,7.980553507804870605e-01
4.357309652478275619e-01,-5.449908153170393010e-01,2.377808745276201174e-01,4.673335485892536958e-03,-1.360618332697381139e-01,3.204415687605675477e-03,9.287089109420776367e-01
2.938589326684709624e-01,-1.098074761603338723e-01,2.963301192505817805e-01,1.432865547026308112e-03,1.155965588857900601e-04,-2.490416426449697934e-02,4.072064161300659180e-01
4.738299454965290147e-01,-4.465547458838203809e-02,5.445661415503448843e-01,3.326836675071848104e-02,2.366509235838629849e-02,-1.410999623627236417e-02,5.622314214706420898e-01
2.922571172421358776e-01,-1.263241264148659004e-01,3.045548930417181221e-01,5.511221112970304294e-04,-1.139873614797197758e-03,1.202740938836302856e-03,4.248743951320648193e-01
3.423600607606042123e-01,-3.380277178796258220e-01,3.560569861961988547e-01,2.881577697189592700e-03,-1.211591999328836058e-02,-4.494853657409402133e-03,6.877210736274719238e-01
4.439699060457399926e-01,-4.921952344992001072e-01,1.740896028658271977e-01,1.280216935623559784e-03,4.460145615465799240e-02,-5.668648624866332031e-02,8.439199328422546387e-01
3.659554000847810573e-01,-4.695831465750144318e-01,3.696577388565148725e-01,-4.449635393865488688e-04,3.943023460458346292e-03,1.760592248941122333e-03,8.374295830726623535e-01
3.617192777327483677e-01,-4.719844147996015149e-01,3.646473396829614244e-01,-8.545586065205437222e-05,-8.687609429622528742e-04,7.031833231988539844e-03,8.352617621421813965e-01
3.661043426192239769e-01,-4.763664064493999817e-01,3.663928927330946661e-01,-1.826015839895086266e-03,-6.425477152851271755e-04,-4.851699955578623615e-04,8.426221609115600586e-01
3.628873656094935285e-01,-4.590144771835353854e-01,3.755984807229447164e-01,-3.511920068214208993e-03,-1.164407606300775153e-02,3.021965435625898356e-03,8.286148905754089355e-01
1.938700322575250823e-01,-4.974986963389383954e-01,4.692505045859743928e-01,-1.129240169600778838e-02,-6.232477897661688193e-02,3.014323715959646779e-03,8.696421980857849121e-01
3.828269564664052993e-01,-4.697198662518681234e-01,2.954914004376908432e-01,-2.344691075258119664e-02,4.516079647474575964e-02,2.090916144678565264e-02,8.179763555526733398e-01
3.692086206501637990e-01,-4.693295761944220601e-01,3.440053892347088027e-01,5.844653990315460713e-03,-3.784882068159140488e-03,6.554639518070331551e-03,8.263909220695495605e-01
3.645568219883760785e-01,-4.742692112760291678e-01,3.634215157706701116e-01,2.743188553238783481e-03,2.654064283096994881e-04,-1.517128997550027357e-03,8.382766842842102051e-01
2.652693098808341921e-01,-4.718082524298575775e-01,4.124376270254591081e-01,-2.853405110021857774e-03,1.392191614550634254e-02,8.843506431151145278e-03,8.211314082145690918e-01
3.545026974335067083e-01,-4.474185003633627256e-01,3.788227327799817967e-01,1.883068995724960712e-03,1.652586244919568292e-03,1.201590187494378306e-02,8.146311044692993164e-01
3.689065060376417460e-01,-4.662371943494784121e-01,3.662020101623466584e-01,4.445839205671386213e-03,-6.500093345801977521e-03,-4.032437799973176938e-03,8.339355587959289551e-01
2.743136547276897597e-01,-4.628835805611413168e-01,4.076479779725484809e-01,1.084657140878693068e-02,-4.138577574276334874e-03,-3.181023915814630999e-03,8.123830556869506836e-01
2.908887365007986614e-01,-4.691221014166557790e-01,3.911123115367999281e-01,-2.132278672253653390e-02,-2.403864003630662959e-03,-1.269377040462146789e-03,8.156092166900634766e-01
3.710286219085385251e-01,-4.733728151079424906e-01,3.635213730686244205e-01,6.466960740324098796e-03,-6.412741477988267253e-05,-8.395180658175715668e-03,8.408733010292053223e-01
1.690270101538127179e-01,-4.772201507388592612e-01,4.128112347753861155e-01,1.393815491172628596e-02,1.891381081180777968e-01,-4.567188864053089298e-02,8.653156757354736328e-01
1.774633892581862493e-01,-4.738021388344290097e-01,4.450784494916267819e-01,-4.643945600024209502e-02,1.044628700511117947e-01,1.967903967553597325e-02,8.428654670715332031e-01
3.444735902425382634e-01,-4.646655492970495072e-01,3.628198026365551110e-01,1.559109370150032169e-02,-5.588248619460093117e-03,1.626283742753974540e-02,8.194532990455627441e-01
5.302982038364606465e-01,-4.883867874265762632e-01,7.291618469409411052e-02,1.332073485090760206e-02,9.098536896880377034e-02,3.947359760067972734e-02,9.005725979804992676e-01
4.779287465615927322e-01,-5.401347494399078020e-01,2.223372265132220194e-01,9.449683270228291954e-04,1.166654154023502310e-01,5.847364255277607073e-03,9.394198060035705566e-01
4.582697925957056051e-01,-4.716195011604166210e-01,1.268991731608034024e-01,5.087780450576487876e-04,2.696518348628960254e-02,-1.335305649488670136e-02,8.179728984832763672e-01
3.911590538358921121e-01,-4.762077537460055465e-01,1.857771615459371528e-01,-9.181854336060664900e-04,1.124079846615329281e-01,3.275738308823215959e-03,8.088923692703247070e-01
3.928488228737965771e-01,-4.702851232848427321e-01,2.581187477759079307e-01,-3.619450164527996446e-03,1.934456167842411173e-02,2.814365564133641806e-02,8.064740896224975586e-01
3.737047262718657947e-01,-4.440737132502250439e-01,2.420905382068478107e-01,-2.084893564743209218e-03,2.944894940902376135e-02,-8.271340300662565446e-04,7.622790932655334473e-01
4.348624361340519551e-01,-4.587929129713086418e-01,2.284814746308523326e-01,-1.402097226405842924e-02,1.494190374669973620e-02,2.040977712257430535e-02,8.119660019874572754e-01
3.664810604504212810e-01,-3.927456645579993078e-01,3.470650090558021761e-01,1.127140263923150608e-02,8.901652912403119552e-03,7.263719355867719052e-03,7.502254247665405273e-01
3.596078067828979430e-01,-4.660542995935891275e-01,3.430072108669144915e-01,1.040384545054633125e-02,4.115075763626955012e-04,-1.693592615786594299e-03,8.176923990249633789e-01
1.429378867063203495e-01,-4.930315904249464865e-01,5.255442556787386366e-01,2.941587473270562691e-02,-1.250497163436031442e-02,-1.350226277864830697e-03,8.928836584091186523e-01
1.530616872244613680e-01,-4.878935190356709084e-01,4.642039738849526587e-01,2.424442387210106603e-02,8.724890136324996159e-02,-2.139361843893151319e-03,8.553803563117980957e-01
2.198748266392150374e-02,-4.820212075487870784e-01,6.441151097234759648e-01,-5.910234829528356743e-02,1.215058548948780015e-01,1.319636800439622781e-01,1.030358552932739258e+00
3.679411228049914162e-01,-4.771237943067051512e-01,3.653468175864936773e-01,1.419214955922357786e-03,-1.045304023419674991e-03,-1.004667394452205811e-03,8.437780737876892090e-01
3.506298363823613928e-01,-4.663854521061003844e-01,3.518609112349610490e-01,-5.046318770773759212e-03,5.193890118395505691e-03,6.592322029469419378e-03,8.178074359893798828e-01
3.659668718320407410e-01,-4.615373326234148976e-01,3.696033602035381227e-01,3.318802406437359933e-03,1.120894778484545981e-02,3.420162239842141402e-03,8.295966982841491699e-01
-8.719668106822064946e-03,-6.105923899185674575e-01,6.243423026842587209e-01,5.119523208459639957e-02,2.622902919958456508e-02,5.987174261817870824e-03,1.074278950691223145e+00
2.377812194595096962e-01,-5.240570607108279155e-01,4.678281849018048333e-01,-2.422828662997493845e-02,-2.267486524463638853e-01,5.830030596667591658e-02,9.873096942901611328e-01
3.894276647480765519e-01,-4.613374308228804788e-01,2.718853659646087717e-01,5.011433937791447829e-03,-6.345457811856490549e-02,3.489351651841911088e-03,8.061066269874572754e-01
3.442189713598386991e-01,-4.447996569641050613e-01,2.922631110354355077e-01,-1.597239552369817881e-04,1.849695728669396508e-02,2.478161587086713438e-03,7.650493979454040527e-01
3.231291002309447102e-01,-4.501122300176843005e-01,3.523727860221093633e-01,7.892729967195314528e-03,-2.200077017416374875e-02,1.200577008684430326e-02,7.895829081535339355e-01
3.411981036417336410e-01,-4.469693177680023055e-01,3.258974358938063753e-01,5.692145889292374999e-03,-2.976520752827536281e-02,7.747933499060624240e-04,7.823933959007263184e-01
5.420367171966612441e-01,-6.140648069191506631e-01,1.359229453570981461e-01,-2.189850831753187288e-02,1.917811861785382321e-01,-7.902579542931663370e-02,1.078194975852966309e+00
2.371833165360361928e-01,-4.709888896223656252e-01,4.164645179830021582e-01,-2.293010221672768523e-02,-3.319892169632165935e-02,-1.702489407415810549e-02,8.163118362426757812e-01
3.195485834100023070e-01,-4.498868954465178316e-01,3.448329285330481442e-01,4.531022676069532823e-03,-3.284954534429843781e-03,7.939193048083905552e-03,7.825649976730346680e-01
3.643615333135482581e-01,-4.764307057634701303e-01,3.661376957383783992e-01,-7.323676516354187644e-05,9.590586764457449502e-04,-1.703256959314754801e-03,8.416885733604431152e-01
3.515211844610992009e-01,-4.636937457942195140e-01,2.769461778521161155e-01,1.272549900261503268e-02,-6.917817493570045662e-02,4.544504881095247535e-03,7.900928854942321777e-01
3.433313863672191601e-01,-4.663178445839185615e-01,3.789603324502351378e-01,1.001929102135449938e-02,2.117868922098661063e-03,-3.194031384737063559e-04,8.282289505004882812e-01
3.411342514392998737e-01,-4.536887982778824435e-01,3.754858686589263028e-01,2.576058246850082903e-03,7.905833772107429772e-04,-3.938860274249640983e-03,8.125857114791870117e-01
3.671596688768052341e-01,-4.771608626117547214e-01,3.656296285042139327e-01,-9.097186003558946701e-04,9.014588483757860187e-04,-1.081340058922523190e-03,8.435615301132202148e-01
3.145599393120758203e-01,-3.841076313051187685e-01,3.878876068447947856e-01,-3.914304790046295446e-02,2.675959443908829290e-03,-3.792289384566238999e-03,7.412193417549133301e-01
2.171450773445292026e-01,-4.838361919325473437e-01,4.639775357497455399e-01,6.952311080016234171e-04,-3.076216588489862069e-02,9.116511995160577961e-03,8.534727096557617188e-01
3.416841633209857232e-01,-4.253951421809515354e-01,3.764985245684074888e-01,1.758211998820875463e-02,3.183599147605736118e-02,-2.450122659385652393e-02,7.887312769889831543e-01
3.708631301668533498e-01,-4.708629981831863320e-01,3.638443428755037123e-01,-9.325581405190548319e-04,-3.386052613613065379e-03,8.913523092888770479e-04,8.382622599601745605e-01
3.721970593193625887e-01,-4.279700944733693113e-01,3.623026269447586767e-01,-1.531651989404773928e-02,-1.560627484474551990e-02,1.092440574102840865e-02,7.963922619819641113e-01
3.613032873196426187e-01,-4.703004037421655292e-01,3.731612888107964654e-01,-1.501333504540448491e-02,-2.901327374789488926e-03,-4.698726382780425703e-03,8.380537629127502441e-01
3.650273035316889403e-01,-4.688500469515097802e-01,3.630523320591024783e-01,6.768984311620019310e-03,1.437616943001951766e-03,-1.336293914717430172e-03,8.329810500144958496e-01
3.648334589485967006e-01,-4.765313161396674824e-01,3.664153253770915386e-01,2.306200055700130763e-05,-9.837526119757179950e-04,-1.689330175048519905e-03,8.421636223793029785e-01
3.653200193703537990e-01,-4.408984312486163848e-01,3.639454105512425208e-01,-8.580405277671357411e-03,-1.152660015655086398e-02,-3.106051956596737884e-03,8.059343695640563965e-01
3.640446959972248875e-01,-4.678263556377525445e-01,3.648192101000916066e-01,4.201349142694803945e-03,1.080288210488014166e-03,2.120336636229999683e-03,8.323006033897399902e-01
3.694328853287439096e-01,-4.604958100047064073e-01,3.624691624265295453e-01,-1.807239723087894446e-03,-9.596008317154644182e-03,5.973520706652171199e-03,8.267066478729248047e-01
2.947660465662914064e-01,-4.634301343588985711e-01,4.011702038023938210e-01,-1.230342460266972172e-02,3.040663674097110469e-03,-2.125876694333703448e-03,8.169173598289489746e-01
1.753251710342968450e-01,-4.893117606245659390e-01,4.657613535878091238e-01,6.328608772787228109e-02,4.987260279282181019e-02,-4.908828633235391703e-03,8.594647049903869629e-01
2.724651605290394074e-01,-4.474916345962285380e-01,3.678133909428273896e-01,-2.081817029791624592e-03,-1.508740897948867773e-02,-1.062940019895254433e-02,7.727292776107788086e-01
2.023790021767538083e-01,-2.538763835714006323e-01,3.474126579717651264e-01,8.344186337967756176e-03,1.378849564664123561e-01,-2.765606862147973119e-02,5.957485437393188477e-01
9.017351566742799751e-02,-6.386386206370262553e-01,5.361830626711451275e-01,1.100959874191733967e-01,1.421474086917160762e-01,-6.006056142738173259e-02,1.078402400016784668e+00
2.431771864933618132e-01,-4.867580421497383902e-01,4.047713799198539575e-01,3.205125334776803142e-02,7.421666469910855046e-02,-2.893447436671490666e-02,8.360557556152343750e-01
3.268822083236052611e-01,-4.535039730757697285e-01,3.442681850161851687e-01,1.246825768665603624e-03,-2.585383419723619701e-03,-5.878442705762564925e-03,7.893041372299194336e-01
3.717927532612695929e-01,-4.538437964355874765e-01,3.600374647970510655e-01,-1.250421172568752948e-03,-2.275640151493684457e-04,-9.765594641546703186e-04,8.198268413543701172e-01
3.145757406470170436e-01,-5.250982260103513877e-01,3.633677356853203810e-01,6.699609209488108751e-03,9.447672482731861443e-02,1.204369256173382801e-04,8.805195093154907227e-01
2.284045551522695672e-01,-5.000309225125815216e-01,3.020096502496335544e-01,4.029683044726491831e-02,2.479380469358883898e-01,-2.691973787707951232e-02,8.838087320327758789e-01
2.983402503434222086e-01,-5.145367458544652939e-01,3.252190305931455527e-01,-2.440630435191812331e-02,2.367854218978497904e-01,3.829891744717342505e-02,9.261371493339538574e-01
1.085661262464713839e-01,-5.777716337978401340e-01,5.025631254078891663e-01,-2.665666946073839971e-02,6.129760818076750162e-02,9.018904488946205902e-03,9.541258215904235840e-01
1.795739940101548360e-01,-5.112100467644321578e-01,3.536672186184032229e-01,-5.251145588520629570e-02,-2.657720384988974671e-01,-5.779837496876041869e-02,9.262561798095703125e-01
2.741999862032437063e-01,-5.736715370984024620e-01,4.090681020632332965e-01,-3.669335789025915395e-02,-1.670142964280164066e-01,-3.416970530199944789e-02,9.709014296531677246e-01
3.670322578782784784e-01,-4.750260313685680247e-01,3.671999536168107925e-01,1.866644911216338481e-03,2.826885840142495838e-03,1.130454722303461321e-03,8.421648740768432617e-01
3.636994224540636145e-01,-4.739994895760574201e-01,3.655235940156201790e-01,1.167147984963983094e-03,-1.196784400514558475e-04,2.797702919839531368e-03,8.386289477348327637e-01
1.959617079389257555e-01,-4.534035076252007634e-01,4.233026998164152732e-01,-2.726403575384266781e-03,-3.370835751848657441e-02,1.854776222547230898e-03,7.902074456214904785e-01
2.518988234979956387e-01,-4.481698519253483060e-01,3.725156239385312706e-01,3.268208289418868522e-03,-3.963093768325579719e-02,-5.762730629761896040e-03,7.706673145294189453e-01
3.710443232022442861e-01,-4.663148994585495366e-01,3.312602325403393166e-01,3.059713381240382942e-03,3.410186836017654356e-03,1.043191124225957556e-02,8.184309005737304688e-01
3.853015275781455085e-01,-4.663614025703025634e-01,3.174237322896616420e-01,8.130435825917310330e-03,2.976770274518722968e-03,6.989130889227354593e-03,8.200607299804687500e-01
2.832303842940984140e-01,-4.565036111019319387e-01,3.685571706542213333e-01,-3.872135729925604841e-03,-1.519453470988527816e-02,-7.874058320903543073e-03,7.864666581153869629e-01
2.078635886623970697e-01,-4.544549766605519014e-01,3.933926550841709835e-01,8.516633384713097332e-03,-1.126167552803938599e-01,1.173523425599398706e-04,7.963865399360656738e-01
3.615057177000834954e-01,-4.693435623924963052e-01,3.610616490277107626e-01,-4.039844386745648427e-03,4.568718835283559158e-04,-7.743669585964358532e-03,8.307654857635498047e-01
3.652431187072401331e-01,-4.709786566000375707e-01,3.771375762128368891e-01,-3.194192297299424006e-03,2.209171049935636146e-03,-2.786709743621479125e-03,8.422726988792419434e-01
4.972183664833511596e-01,-5.745014995548475278e-02,4.882030550657031620e-01,-1.133867297268608212e-04,-1.973102718319192164e-02,1.715958198354941046e-03,5.512846112251281738e-01
3.669063786759835244e-01,-4.664323974936430695e-01,3.353015415836635427e-01,1.150829961273806996e-02,3.173693366650525913e-03,2.636839485508105704e-03,8.182684183120727539e-01
3.640484976889221680e-01,-4.047461724692492657e-01,3.579195335788636356e-01,-3.112617478417191441e-02,-1.566410615925748276e-02,4.053667350645390709e-03,7.681554555892944336e-01
3.426430112504915693e-01,-2.972480639808556258e-01,3.310331666927172067e-01,4.850273339236524373e-02,1.169897660835553591e-02,1.807573520269512360e-02,6.407922506332397461e-01
3.399307573339573896e-01,-8.084746197870806839e-02,2.919900040169950417e-01,6.327313838420314807e-02,-4.713620169072837984e-02,4.828014733566011324e-02,4.299407601356506348e-01
3.185451549756042611e-01,-1.596615791658324013e-01,3.118749728705598745e-01,6.494506302094360528e-03,-6.768355918008030908e-03,1.996007234340351974e-02,4.764405786991119385e-01
3.133864543531047486e-01,-1.959340150492568933e-01,3.190049004907862251e-01,1.297335182358756028e-02,1.393764094417931833e-03,4.143510701144588471e-02,5.176503062248229980e-01
3.314110022373857323e-01,1.031506325273232050e-02,3.567043592048342870e-01,2.795110204347018776e-02,-7.022353280214947008e-03,-6.955668731819255289e-03,3.383797109127044678e-01
2.277998235748330824e-01,-4.633598704557770898e-01,4.061489781889594530e-01,2.551930788160958544e-02,2.600008885962800526e-02,-4.495261423345947235e-03,7.980101704597473145e-01
3.529659330312769905e-01,-4.400217222524258620e-01,3.780616566601789907e-01,-6.039641868405545497e-04,1.618580299829191962e-03,1.340017051247761881e-02,8.061683773994445801e-01
3.238135968971531664e-01,-4.430766327199177068e-01,3.853228088847220345e-01,1.455785465951085246e-02,1.671014677117886246e-02,-5.684229485953433587e-03,8.004031777381896973e-01
3.051802389432354823e-01,-1.571830354799231277e-01,3.002095217497940949e-01,-2.674608888188348063e-02,2.883313755932029408e-03,1.406490531172361995e-02,4.628938138484954834e-01
2.567518096334079902e-01,-9.395077865015022400e-02,3.713156008030825683e-01,7.407302236184185040e-02,5.631976006777439370e-02,-3.596221703245286450e-02,4.540385603904724121e-01
3.447293747979283118e-01,-8.123564996339671662e-02,3.715383781036332156e-01,2.603352959503135028e-02,-2.474865594140737007e-02,-3.163583306270366380e-02,4.477251768112182617e-01
2.675070800673031157e-01,-2.331813731288432945e-01,5.720553857988448510e-01,1.390976551589330652e-02,4.254935482221981757e-02,-3.257927689650175901e-02,7.107168436050415039e-01
3.580742535524005787e-01,-4.720243160470114496e-01,3.595135094682190835e-01,-2.464831773433984619e-03,-3.691161059328619369e-04,-4.875032609430342626e-03,8.308732509613037109e-01
3.755159462698943185e-01,-4.550092027133705308e-01,3.598334622501636049e-01,-5.386584458109290770e-03,-6.907317896722086834e-03,-1.323104110858390036e-03,8.229390382766723633e-01
2.578544685004247050e-01,-4.475113160004838830e-01,3.789741600804248933e-01,2.355992715259296131e-03,-7.136322520109616985e-02,-1.076932647788401108e-03,7.829066514968872070e-01
3.296278377783615765e-01,-2.736548185276149736e-02,3.354159993845429177e-01,-3.642701572446462727e-02,1.024973733235845161e-02,-8.004446121431764080e-03,3.661041259765625000e-01
2.984175057040515666e-01,-4.032978261225042549e-02,2.935085839985581702e-01,1.595980265058626404e-02,1.312702132208634024e-03,-7.437060531419689181e-03,3.377072513103485107e-01
2.398819313228996997e-01,-5.268247645455934602e-01,4.578883536899048257e-01,1.760678919501606696e-02,-8.816624156441901783e-02,2.933201425335636801e-03,9.092791676521301270e-01
3.300779586003325106e-01,-1.174343490193364148e-01,3.340444519646773580e-01,4.247993665403402772e-03,1.690835237684981673e-02,-6.858444394105144004e-02,4.659198820590972900e-01
3.540898309379279518e-01,-2.323944436125913171e-01,3.714403622586980869e-01,-3.014546994496860102e-02,-6.963029352494889967e-03,-5.309666847701759174e-02,6.047893166542053223e-01
2.880187703851843639e-01,-4.605372112558591136e-01,3.949278305050085147e-01,2.766738172135148072e-03,3.759313729064618810e-03,7.336608204150461832e-03,8.074774742126464844e-01
3.206557118636191861e-01,-2.001162410249640589e-01,3.221670223322298798e-01,-5.239271111203345349e-03,9.369818712976873964e-03,-3.889175895124447058e-02,5.261902809143066406e-01
4.503788668002356999e-01,-2.721177919805451983e-01,1.869870911354584442e-01,2.730038186997710975e-02,-8.661698921487562264e-02,1.374225350024142478e-01,6.946043968200683594e-01
4.932754580460448901e-01,-6.523062728255792919e-01,3.214756351463132766e-01,9.511409054527029949e-02,-2.423039722233459869e-01,1.326714954616449726e-01,1.183697938919067383e+00
5.212604523631753084e-01,-6.408511582053887379e-01,1.768896713971822854e-01,9.467767396603547075e-03,-2.900984760363786163e-01,8.389521058832238865e-02,1.158772110939025879e+00
3.801904448998125186e-01,-4.476959378332732165e-01,3.592437603674829005e-01,-2.495949974886148282e-03,7.164298855537647170e-03,-1.514628934265098295e-03,8.177241086959838867e-01
4.709912982871696796e-01,-7.154156036385700412e-01,3.078258490014449400e-01,4.102461316736053659e-02,-2.944480237931928479e-01,9.644868751310134436e-02,1.238409757614135742e+00
3.678157685917924913e-01,-4.707908833490984657e-01,3.646966617216046425e-01,2.720216845195609374e-04,3.964196582480887000e-03,-1.914308062657010421e-04,8.370798230171203613e-01
3.316853143637217838e-01,-4.468100595073194459e-01,3.331309916025551043e-01,-1.746396145850776221e-03,-4.261479818329491284e-04,-2.088348658634738182e-03,7.792338132858276367e-01
3.436806451726045486e-01,-4.523502586272558634e-01,3.334522760950433540e-01,3.912636514591910468e-04,-5.052363976450112426e-03,-6.869261275943663089e-04,7.910159230232238770e-01
3.637260930899443023e-01,-3.584561041556292849e-01,3.262386836820010405e-01,3.731742328159705704e-03,-8.672129653372100122e-03,-1.208613290376190632e-03,7.043802142143249512e-01
3.489299825059495319e-01,-2.731925610686972705e-01,3.300604107774425255e-01,3.961022935844066978e-03,-2.625917136277833817e-03,4.664801828125037658e-02,6.182630658149719238e-01
3.631232159533751558e-01,-3.548454380885418535e-01,3.370827811438047439e-01,-2.220876390762136290e-02,1.142627332412025909e-02,6.861315244560965872e-03,7.067343592643737793e-01
3.798922142608343044e-01,-4.574460798795094707e-01,3.594974288509116822e-01,1.421809708183139091e-03,-1.753910272161408445e-03,-8.596443994986042395e-04,8.273400664329528809e-01
3.151409318295160800e-01,-1.944942318578832263e-01,3.240405053151784731e-01,1.786140509083204014e-02,5.110908160477724803e-03,4.840269392407108018e-02,5.219259262084960938e-01
2.733095819927635617e-01,-4.597001619521704496e-01,3.959100300085778290e-01,-7.069370806224058168e-03,6.692441713621471305e-03,-8.444389791686192359e-03,8.016855120658874512e-01
3.390218042513114538e-01,-4.663730318281626985e-01,3.881503264142769360e-01,1.148640529408988253e-02,-8.098308702507357217e-04,3.714235619685284182e-03,8.313131332397460938e-01
3.578532783260308103e-01,-4.689169745693367863e-01,3.275466231583652466e-01,1.507156134250338571e-02,-3.841339427389422329e-02,2.044273588082350795e-02,8.159490227699279785e-01
3.674543472909528874e-01,-3.834763013233991602e-01,3.424481245063316082e-01,-1.417287841194795131e-02,-1.044788476427671066e-02,1.300254704057499967e-02,7.397171854972839355e-01
1.836405466089505167e-01,-4.547790335016744789e-01,4.514750584152795176e-01,-1.601410012095861868e-01,-1.025947897588030400e-01,-2.770328760297637374e-02,8.724222779273986816e-01
3.171495450040165420e-01,-4.653109539807392947e-01,3.774809728031432443e-01,-7.517805869585075622e-03,2.773612306646890124e-04,4.056513593611982792e-03,8.144387006759643555e-01
3.424635726168998584e-01,-4.612351857724721338e-01,3.732635119161670234e-01,1.524520440136979509e-02,1.215247022409118860e-03,5.332980000197921726e-03,8.200129270553588867e-01
2.117663687500550840e-01,-4.650323127398137135e-01,4.455744480171438537e-01,2.165365781467825171e-02,4.227496185676368236e-03,-3.255832959795015337e-03,8.200339674949645996e-01
3.720669320238433886e-01,-4.377451040064931354e-01,3.565740150236603179e-01,-4.782031047642892191e-03,-6.102571278472445834e-03,5.939268356420867798e-03,8.023561239242553711e-01
3.362878532780230190e-01,-4.674781055908374672e-01,3.748580943787692688e-01,-6.746407686603469664e-03,1.640097402280706659e-03,-8.156745897463731770e-03,8.239375352859497070e-01
3.441077988674730026e-01,-4.645115834298665369e-01,3.732925898309463753e-01,5.394474891945178971e-03,2.241719863562975559e-03,-6.507868604765335886e-03,8.237389922142028809e-01
3.487747687357983795e-02,-6.283600062531871089e-01,7.011576807641018982e-01,-1.262294130625656319e-01,-7.468908588573712481e-02,-1.078995042552747391e-02,1.179237723350524902e+00
8.798818584831838430e-02,-7.217530748029294951e-01,7.184151573693374759e-01,-1.102973205419069264e-01,-5.151450990158998322e-02,-2.319550431879641508e-02,1.268729090690612793e+00
3.710546197828838988e-01,-4.177458637514113171e-01,3.531142687450464779e-01,-1.633778673078748259e-02,1.483361668144716344e-02,1.946826932762495957e-03,7.809282541275024414e-01
2.168269948631239008e-01,-4.505241743613348504e-01,4.259161609879725252e-01,-1.256710755041313835e-03,-1.327382620841878122e-02,2.239149243027540107e-03,7.931961417198181152e-01
2.850649512520643247e-01,-4.745218720449858596e-01,4.032124140925345546e-01,2.550777376980091840e-02,1.234906884595898943e-03,-2.466151250426398996e-03,8.262257575988769531e-01
-8.579355598066218391e-03,-6.561558436374195225e-01,7.524939358594955330e-01,-4.396060594567068047e-02,-7.275227776769022103e-02,6.174758179656079926e-02,1.234728932380676270e+00
4.968155625718470580e-01,-1.884989542347972891e-01,3.716316044212308323e-01,4.985250579467951498e-02,-8.923672719291091127e-02,3.660492404305182301e-02,6.594708561897277832e-01
3.733961094004683012e-01,-4.682940524520718961e-01,3.641886742111737907e-01,1.106590585545448027e-03,3.684231341249203859e-03,-7.407603626696613675e-04,8.371519446372985840e-01
3.641058110386612423e-01,-3.983783253859942697e-01,3.505113512710368306e-01,-4.664977632413927489e-03,1.296937517689227687e-02,-2.721396629230821585e-03,7.561702132225036621e-01
3.763021346230323583e-01,-2.881152874589303359e-01,4.230570359186003326e-01,6.645196395505548193e-02,-1.184948376548252136e-01,2.746670899653926110e-03,7.280759811401367188e-01
3.625608909506870536e-01,-4.725145750879451434e-01,3.684989270481519030e-01,-2.985295469261545643e-03,4.540340401027217858e-03,-3.187066634068898632e-03,8.381313085556030273e-01
3.611478653097658920e-01,-4.721760682061514336e-01,3.620076548898689128e-01,-2.866028476291403084e-03,1.970299182340286975e-03,5.656733026389521371e-04,8.337764739990234375e-01
3.713055220310915172e-01,-4.705524286166919978e-01,3.663114028755354856e-01,-1.774801700438497897e-03,6.838219434892621462e-03,-2.142228716466604288e-03,8.394694328308105469e-01
2.746298130619220235e-01,-4.647994539064835839e-01,4.182992997202931718e-01,7.821867322662531818e-03,5.120496569122853434e-03,6.574332463858839799e-03,8.209883570671081543e-01
3.360920384918489323e-01,-4.599813117935449558e-01,3.528258643414010076e-01,-4.845167573768562226e-03,-1.568960816256491971e-03,-8.263889878629630814e-03,8.047464489936828613e-01
-1.039345454876536290e-02,-6.241439247016847824e-01,6.415393117935196399e-01,2.530459564318332522e-02,-2.362495591154958365e-03,6.103476624304971475e-03,1.097214460372924805e+00
2.532033034068456590e-01,-9.391212074506288809e-01,5.774895130617837546e-01,8.519107976198352777e-03,-2.507532846822312922e-01,2.524320193009646843e-02,1.450591206550598145e+00
1.903371054641616045e-01,-5.216138272793831021e-01,4.837823144382179530e-01,-3.390283161081540653e-02,-5.352954236199161664e-02,-6.617080208324131393e-03,9.022630453109741211e-01
2.744512466504461790e-01,-4.617983977955617547e-01,4.022457341754078763e-01,7.108620941703288655e-03,-1.666998750825441147e-02,-6.495257064873687092e-03,8.084524869918823242e-01
3.660255600963046585e-01,-4.732079387885533839e-01,3.678810284518169715e-01,8.110676650688410962e-04,4.048812801505457214e-03,-5.306524409505464224e-04,8.401936888694763184e-01
3.580757539409070156e-01,-4.725373928908391807e-01,3.661487555037191699e-01,4.075342657736565760e-03,3.366894027149377848e-03,3.087202881036578048e-04,8.347293138504028320e-01
3.475321344410597924e-01,-4.689025442636347574e-01,3.713222330124338333e-01,-6.627479290712848248e-03,8.673409056767042869e-04,-6.649748170095621212e-03,8.287467956542968750e-01
9.673954721795929856e-02,-2.708590016143053170e-01,4.749425702819067840e-01,1.246992380274917905e-01,-1.031913182595002587e-01,-4.852994709994042088e-02,7.091217041015625000e-01
3.492051398053750422e-01,-4.071667361415778341e-01,3.659875158626641478e-01,2.351955922594360648e-02,-2.227594934161807158e-04,2.669904262152052871e-02,7.673799395561218262e-01
2.822154504790465035e-01,-3.917721269788655425e-01,4.038352289759275515e-01,2.849361050917727407e-03,-6.934076476969489033e-03,2.843226592336757248e-04,7.424215078353881836e-01
3.556226974870601021e-01,-4.556929390443061889e-01,3.498987937837613194e-01,-1.158734097075313219e-02,-3.230052437266496546e-02,-6.685087998814962310e-03,8.107334971427917480e-01
3.665320578427803677e-01,-4.135120231767059895e-01,3.572549336677803278e-01,1.534482166177492460e-02,8.705340201758050150e-03,1.243149062435933410e-04,7.760490179061889648e-01
3.630185565216614840e-01,-4.379096542731872876e-01,3.714314453967770824e-01,-1.022371237840949236e-02,-1.346270690718856869e-02,1.565116974861753552e-02,8.061557412147521973e-01
3.498441119501364827e-01,-4.625578258054852121e-01,3.374472859099230670e-01,1.307197794221133177e-02,1.508013229067034500e-02,-1.463138637297943696e-02,8.074134588241577148e-01
3.910981195014985867e-01,-4.695962023663430296e-01,3.240159327395566446e-01,-2.987604617351179333e-04,5.575605162025506698e-03,6.950536252952938324e-03,8.293346166610717773e-01
5.983640269460382966e-01,-3.645832353654101521e-01,1.208660445782999415e-01,-8.076502103395651055e-02,4.337256951481300443e-02,8.496274728007177646e-02,8.615885972976684570e-01
3.544807928277192155e-01,-3.364155768918929978e-01,3.650433200656469923e-01,-6.631155231039658447e-03,-4.648472974973408278e-03,6.189166256182106890e-02,7.045817375183105469e-01
3.382667988586114394e-01,-3.280633510997252311e-01,3.408128362625688634e-01,4.791577313818009762e-03,-1.233570200751739343e-02,-4.043661085154240040e-03,6.680368781089782715e-01
3.166206088401578578e-01,-2.048240782820193173e-01,3.236036418688899019e-01,6.066474753450901147e-02,1.478127304831400313e-02,-3.648710987168523896e-03,5.360323190689086914e-01
3.661795992337939509e-01,-4.495368355015797457e-01,3.644390907352074160e-01,-1.626449076081100745e-02,-7.189687076622743034e-03,5.229554317107079284e-03,8.154798150062561035e-01
3.592949806031563997e-01,-4.416388278830478686e-01,3.700885368799464170e-01,3.132418732510914433e-03,-8.473130665428860175e-03,-3.615553648180801650e-03,8.065608739852905273e-01
3.613847294911731178e-01,-3.784918842733436817e-01,3.231275439571757446e-01,1.444823058094353053e-02,3.474160817059426115e-02,1.782121445726961208e-03,7.244529724121093750e-01
3.589439192353861552e-01,-4.725290250541865911e-01,3.616520655634472559e-01,-7.377451685352751261e-03,1.146479774334889122e-03,4.116038522745186145e-04,8.329310417175292969e-01
3.633969724521450284e-01,-4.206825984167615884e-01,3.559204757467323565e-01,2.340175488540714721e-02,-7.664649234273424386e-03,-1.436126319704532882e-02,7.819286584854125977e-01
3.710468418781062150e-01,-4.555041340035629327e-01,3.633179777760959794e-01,-9.476369208528923407e-03,-7.892973001910838851e-03,3.478384229294981169e-03,8.230130672454833984e-01
3.649618321921716535e-01,-4.698279180377512576e-01,3.641302015174409656e-01,-5.204135246897311114e-03,-8.180207149704160196e-04,-2.199972069330896618e-03,8.344328403472900391e-01
3.729537604035894627e-01,-5.444257501522633547e-01,3.749556235631172352e-01,-8.043133479965594232e-03,7.978479791392741050e-02,-7.532464274771117317e-03,9.289169907569885254e-01
4.114819631796753918e-01,-4.766004948867597069e-01,2.052734305639373202e-01,4.486235196447641883e-03,-1.514406771728165069e-01,-1.781456899017137482e-02,8.472883105278015137e-01
3.181690523521948366e-01,-4.439256081877170912e-01,3.298791674962990861e-01,7.075032143593239708e-04,1.053515705695555818e-02,-1.652766803847295542e-03,7.682397365570068359e-01
3.338459305053884663e-01,-1.234252996003337710e-01,3.442527599660467619e-01,7.234325857904404244e-02,-9.797753401509958285e-03,-1.723628502742517721e-02,4.804621934890747070e-01
3.777635130361425841e-01,-4.487427346833267050e-01,3.595850835465725925e-01,6.532120572869903191e-03,-3.198461293660466269e-03,-1.274213355787368268e-03,8.176686167716979980e-01
3.519143917232721019e-01,-4.525527608052483108e-01,3.652121116123855371e-01,6.941498413206736127e-03,-5.743904245004864684e-03,-1.082846764558182719e-02,8.115646243095397949e-01
1.666054525636203598e-01,-5.437437202749249021e-01,5.140332340314527348e-01,-4.748989015757145576e-02,-9.877338016612358107e-02,-2.467292391033340179e-02,9.539170265197753906e-01
3.845046873790794462e-01,-3.673319345155989235e-01,3.079371173809108964e-01,-1.419997641023186367e-02,1.200562700702147850e-02,-4.138891556304122310e-02,7.209237217903137207e-01
3.669378624019956625e-01,-4.658969844995936027e-01,3.745582482865507101e-01,7.761838752015488146e-03,-3.174400005998234860e-03,-3.687204166896418042e-03,8.368214964866638184e-01
3.704737539029579474e-01,-3.974137406606297329e-01,3.477943601097230886e-01,1.720410176684621442e-02,-4.918390428889736141e-03,-4.552928969578188927e-03,7.574780583381652832e-01
4.007594735538456132e-01,-4.075964501488438252e-01,3.169966653728639727e-01,-3.601983370692963399e-02,2.201398912985039202e-02,1.071458078838883193e-01,7.953189015388488770e-01
3.682133204262304504e-01,-4.693472858881698739e-01,3.720647019691791790e-01,-2.079563027519113275e-03,2.083379242812750595e-03,-5.244177917706827237e-03,8.395575284957885742e-01
3.336701812937959977e-01,-2.552308595503067212e-01,3.176915026050831647e-01,-3.553659701763934968e-03,2.060558100428636855e-03,3.390757406712133042e-03,5.811497569084167480e-01
3.667557477974931479e-01,-4.665377130909585945e-01,3.460230116579482984e-01,-8.590844391443239192e-03,-2.135491973116136061e-03,-5.295045026025970401e-03,8.233168125152587891e-01
3.593349944883625358e-01,-4.653654668390792004e-01,3.408237453107439974e-01,-8.702608893604420193e-03,1.540844555497643308e-04,2.779377876839902312e-03,8.157559037208557129e-01
2.740114375062673302e-01,-5.092671130927708401e-01,4.099329790664348883e-01,-3.332619082335760985e-02,-1.417134463210848946e-02,-1.088041885088668684e-03,8.616276979446411133e-01
3.557686810088432905e-01,-4.535018592350600342e-01,3.116100373096489795e-01,-9.093233485841374988e-03,-7.002507704693900284e-03,3.187659046150192739e-04,7.883704304695129395e-01
4.045777803872380729e-01,-4.631498888567652239e-01,2.304314720456963894e-01,-8.647273693038576639e-03,-1.519749105145909093e-02,-2.432186466289681243e-02,7.967801094055175781e-01
5.340146503958417279e-01,-3.581452874561040223e-01,2.432813929865023650e-01,4.403788483577675272e-02,-1.156389215874241705e-01,1.113940032716269068e-01,8.391993641853332520e-01
3.487758642520746855e-01,-4.695114459014239072e-01,3.668198428932991084e-01,-5.501348331455272606e-03,1.729156090808344707e-03,8.482665366190323200e-03,8.276475667953491211e-01
2.136291751192562760e-01,-4.454478691262342416e-01,4.179524112348037557e-01,-2.686107115207488592e-03,-1.468507132292810186e-02,-9.211651247470764321e-04,7.819631695747375488e-01
3.288720863614607026e-01,-2.065515744553424460e-01,3.136923224302208268e-01,3.318660033758210476e-02,4.539081004743301603e-03,-4.355425523926102771e-02,5.365054607391357422e-01
3.427312590385205304e-01,-1.774568904118449808e-01,3.845505391534544959e-01,9.861698715654282354e-02,3.228791543336493805e-03,9.053263668615238458e-03,5.688159465789794922e-01
3.661552534236460210e-01,-4.695275654980139990e-01,3.667950361018316174e-01,-6.427467763735932212e-03,-8.584295368627052961e-04,-3.485048930702484837e-03,8.361001014709472656e-01
3.711027475160066924e-01,-4.669860418174466288e-01,3.657578677327135153e-01,-2.383497322028425239e-03,-2.349428917342844241e-03,-3.971714618453022622e-03,8.354775905609130859e-01
3.658437546867644996e-01,-4.650653402414670623e-01,3.688037543048217071e-01,1.392729270721178997e-02,-1.316753774575874295e-03,-9.193975271585004116e-04,8.327471613883972168e-01
3.695077260457068080e-01,-4.604771130691229786e-01,2.937790962202371237e-01,-1.329911411771286626e-02,1.050836933823683962e-02,-1.844716087521170909e-04,7.953729033470153809e-01
3.679169930737965499e-01,-4.693117669396910108e-01,3.658499808673256748e-01,-2.524062559590718041e-03,-1.471087314527605178e-03,3.502157348460419907e-03,8.362345099449157715e-01
3.742901150018548839e-01,-4.623019078143546512e-01,3.623947590221420767e-01,-3.131946659622847698e-03,-4.444467194300639502e-03,1.934408242644318141e-03,8.307683467864990234e-01
3.649132307072472381e-01,-4.647623966712950416e-01,3.631709117929478592e-01,-6.764351394516048346e-03,-3.020000614120161957e-03,9.897889921881512093e-04,8.289069533348083496e-01
3.603374628619273601e-01,-4.564623071807170085e-01,3.728200706991804392e-01,1.702776158307751702e-03,2.714670008473115954e-04,3.443554130481781342e-03,8.231390714645385742e-01
2.337644254904607533e-01,-5.061042414440672932e-01,4.461936249001652310e-01,1.539130154690402652e-01,1.397833575996816624e-01,-4.866677286997030116e-02,9.415373802185058594e-01
3.634973531587804008e-01,-4.406360887236786539e-01,3.608377697599151612e-01,-5.488003840721050915e-03,-1.598901527125468937e-03,-4.421290403236739601e-03,8.029045462608337402e-01
3.836231342167162883e-01,-4.673142532634982915e-01,3.324114702386989917e-01,-5.678887381659365220e-03,-8.722184170344773890e-04,-5.726362428399707667e-03,8.266417384147644043e-01
3.133223356947013039e-01,-4.489687339144623479e-01,3.461653377364824480e-01,-5.444328202594813336e-03,3.229634228424647924e-02,7.549497416703324255e-03,7.814034223556518555e-01
7.767243037582555187e-02,-4.506675438386221755e-01,4.992184728410741235e-01,-1.358236502075651012e-02,2.317741975694341539e-02,2.018747098265045656e-02,8.264087438583374023e-01
3.095047261993262300e-01,-9.988057587869322296e-01,5.588544868425090462e-01,-6.040944926945809867e-02,2.952302646787023366e-01,5.315561017332425670e-02,1.543044328689575195e+00
2.840084884340030036e-01,-4.473251578228140124e-01,3.660852057773162915e-01,9.422479477154122301e-04,1.093791248454187813e-02,4.716697211680590321e-03,7.759119272232055664e-01
2.363224565370266317e-01,-4.612140207287153126e-01,3.417399473437458535e-01,3.235914143519110116e-03,1.207942209781398823e-01,1.126346341953641216e-02,7.844668626785278320e-01
9.532196209578028268e-02,-8.279153132473210386e-01,7.115916420889856209e-01,-1.516046901819073645e-01,6.485633786987393679e-02,7.136638987179918375e-03,1.372166991233825684e+00
9.704621678909261528e-02,-8.122640828730558482e-01,7.191963185101627465e-01,1.021179618636915698e-01,8.547515798178889623e-02,2.627449382833730446e-03,1.353833913803100586e+00
1.839164109314717077e-01,-4.488283346431681808e-01,4.459880771405800859e-01,1.928144093052572934e-03,-2.735511001256837015e-03,2.686490813509024612e-03,7.968232035636901855e-01
4.279544146551694794e-01,-5.673816962709330447e-01,3.165765535646681839e-01,1.943561242127118255e-02,7.757458225882782332e-02,2.424718940897082828e-02,9.556102752685546875e-01
3.684748991386940786e-01,-4.524081649961606555e-01,2.900616604292483025e-01,6.221284880208419708e-03,-1.077865432974635558e-02,5.360936036694249375e-03,7.849715948104858398e-01
3.638658058975892118e-01,-4.220453754535544721e-01,3.597570242063177770e-01,4.101521343829710696e-03,-1.546676705603194230e-02,-5.363574465900248361e-03,7.844097018241882324e-01
3.857145854919961092e-01,-4.614380307721801522e-01,3.404093739549074460e-01,3.815189369418333244e-04,3.691550173655447700e-03,-1.036707129888241909e-02,8.256533145904541016e-01
3.650313313648708147e-01,-4.728224417117464773e-01,3.701704806838318484e-01,7.429050182924241920e-04,-1.880281712443214372e-03,3.311958250177134372e-04,8.404425978660583496e-01
5.227510163403481513e-01,-5.125076586677119739e-01,5.727794425182838878e-02,-9.610315866508459259e-02,1.253209399758610787e-01,1.422622976166806330e-01,9.706079363822937012e-01
3.670526733836435018e-01,-4.748504439773792996e-01,3.682508794478560610e-01,3.813337675115157440e-04,-6.037178329819875219e-03,-7.547579646494603518e-04,8.425689935684204102e-01
3.639558418347186297e-01,-4.662214992437022643e-01,3.712362890046538300e-01,2.436398616483930954e-03,-6.437347826449821286e-03,-1.964767563755607377e-03,8.339335918426513672e-01
3.632279771417571412e-01,-4.689395169554552156e-01,3.674948790109671126e-01,3.167810599067926846e-03,-2.946833879291372617e-03,-3.502708594865719394e-04,8.343430161476135254e-01
3.645505712894651085e-01,-4.694874609207113636e-01,3.758264869202900260e-01,2.931225926032346701e-03,-1.913445925279473429e-03,-3.565965732429150249e-03,8.397773504257202148e-01
3.612918427650154696e-01,-4.713513990078880278e-01,3.646015109365110529e-01,4.639537715946031194e-04,-2.587786084829982354e-04,-4.094497305167090276e-03,8.343336582183837891e-01
4.380172573131463909e-01,-4.675617958923863338e-01,2.265793581812461932e-01,1.299417084535067768e-02,1.944616075848733944e-02,1.148676908696287351e-02,8.217922449111938477e-01
4.051237768336954925e-01,-4.642289632674567734e-01,2.679725346911654427e-01,1.848613413266483787e-03,1.461706936243397509e-02,6.111163841512830958e-03,8.100093007087707520e-01
5.529512036233135142e-01,-2.244460383144875615e-01,2.820838601136301249e-01,2.168899771315649372e-02,-2.946335545541901163e-02,-3.728708678901098555e-02,6.894422173500061035e-01
3.813535260192219556e-01,-4.684726738619688913e-01,3.231863990073767234e-01,-7.020741799606250834e-04,-3.591656735286743313e-03,-8.569581975581502462e-03,8.224454522132873535e-01
4.056078594125199221e-01,-4.665436182662772158e-01,2.761726990551941485e-01,6.110524797962266566e-03,5.363498394326516282e-03,-1.503659616785146813e-02,8.157151341438293457e-01
3.182950766361952732e-01,-2.625187270077141144e-01,3.371059578647738197e-01,-1.441772212677709837e-02,1.076898421215422008e-02,-3.196511573885046226e-02,5.938526391983032227e-01
3.480994985602781089e-01,-3.970762445582565192e-01,3.648053973101194059e-01,3.265184338847134347e-03,1.764148843169090208e-02,3.969934341844535801e-03,7.543392777442932129e-01
3.583114166993475180e-01,-4.423965182617459746e-01,3.791565460209009863e-01,2.505494952303071940e-03,7.384584837702169377e-03,4.955320054179823859e-03,8.114891648292541504e-01
3.623064066040624920e-01,-4.560567047320954748e-01,3.733650957904012246e-01,1.187079330623700844e-04,4.981172473620713685e-03,-5.815189273604265234e-03,8.240548968315124512e-01
3.824116629087286889e-01,-4.665512668384393935e-01,3.390872796425298819e-01,7.093145224794398726e-03,-2.098610790498803020e-03,7.241172130183553754e-03,8.283451795578002930e-01
3.665410516386870543e-01,-4.463495819354152960e-01,3.637393771576896695e-01,4.892250427842702136e-03,8.171732610178970846e-03,1.905493125923308096e-03,8.116677999496459961e-01
3.677142832436997022e-01,-4.447958116157608721e-01,3.555705680290442428e-01,-2.064797017959343374e-03,6.803970090602622089e-03,-9.060366780317010912e-03,8.067534565925598145e-01
3.698601031835968000e-01,-4.250414674282825267e-01,3.653495434344178339e-01,1.407776270994075263e-02,1.500903187119435184e-02,1.168083789125863234e-02,7.937147617340087891e-01
3.823099889158040887e-01,-4.196297315220817170e-01,3.576270798219822189e-01,-9.451357285476420789e-03,-5.350179212660079175e-02,2.102285914726103808e-02,7.963061928749084473e-01
5.311930917602167845e-01,-1.087197445200688284e-02,5.105104453625322058e-01,1.281709534953980392e-02,1.844491634874007371e-02,1.294766781876439780e-02,5.339170098304748535e-01
4.704802316289938835e-01,-4.749734932253507624e-02,4.904343162239097054e-01,3.252962025075052666e-02,3.567469228388306379e-02,-3.447201100678547962e-03,5.348485112190246582e-01
3.262631943987549521e-01,-2.378811562907581223e-01,3.168718814874685874e-01,4.215647573085987143e-02,1.458501202442402320e-03,-7.256827486985216458e-04,5.642592310905456543e-01
3.501137277437567086e-01,-2.950250661884082359e-01,3.358684671425267165e-01,3.926628696733426571e-02,9.993709091576761724e-03,9.554271736986707370e-03,6.421961188316345215e-01
3.142782764037860277e-01,-1.548140711232729450e-01,2.979003228189222585e-01,4.080949927437364094e-02,-3.988286172596321524e-03,7.419189032786195929e-04,4.665605127811431885e-01
3.783620306823436419e-01,-4.397428303625730006e-01,3.527242342978837986e-01,-5.119750684853488325e-03,9.064555939694889791e-03,-4.902454704195711825e-03,8.058385252952575684e-01
3.145028355307416534e-01,-1.595797460198470907e-01,2.990222163734812533e-01,-5.285301246465415326e-02,2.690862372450240382e-03,-3.080868031329677195e-02,4.784395694732666016e-01
3.442341692936556896e-01,-3.676531543607554631e-01,3.664130304956553230e-01,-1.095563886664826896e-02,1.162921275209207253e-02,5.344169563885837505e-03,7.238202691078186035e-01
3.391064362040651647e-01,-3.552269151719607554e-01,3.673285865007790973e-01,-1.010598418419124574e-03,1.614831400276141391e-03,7.158795264746631651e-03,7.089819908142089844e-01
3.547191952616969290e-01,-4.034243932647544328e-01,3.603228651932808835e-01,1.809781950398489832e-03,4.390979887265321693e-03,-1.964997106454056605e-02,7.617660760879516602e-01
3.581517900061116366e-01,-4.442080467937378208e-01,3.579868919947836181e-01,3.091959020973476455e-03,1.173830706414212338e-03,-1.184224013542296188e-03,8.023004531860351562e-01
3.603022898083660941e-01,-4.511338950674564918e-01,3.637865317649369712e-01,-2.384342026023200320e-03,2.578992934849616992e-03,5.434040849302304924e-03,8.132611513137817383e-01
3.633383446682091900e-01,-4.630864227705355773e-01,3.798970434093530413e-01,6.076098325694917045e-04,6.635706326099324740e-04,-2.736258997908764829e-03,8.348422050476074219e-01
3.573538027799053607e-01,-4.439421104103150606e-01,3.778038792964412695e-01,4.006696245603072080e-04,1.661702544297058957e-03,-6.214587354997884970e-03,8.117909431457519531e-01
3.586026457319844707e-01,-4.555987604873762420e-01,3.820513097841327088e-01,4.665739835374127205e-04,6.212288766541924174e-04,1.468566989252612911e-03,8.261803388595581055e-01
3.152099609625290677e-01,-4.487725667789297379e-01,4.005211465352677136e-01,-1.820435061048081976e-03,-1.229303143283742730e-04,-8.742440825551839323e-03,8.101622462272644043e-01
3.580181330949648855e-01,-3.530653948459203106e-01,3.442413935329617924e-01,2.468677210290386517e-02,1.983241617040331500e-02,-2.248259019411166966e-03,7.064393758773803711e-01
2.318752429487902778e-01,-1.674648142004790397e-01,5.283946068686380393e-01,1.396690944420123093e-02,1.150708409561954915e-01,-4.768028695742838191e-02,6.426022052764892578e-01
3.154007254682563710e-01,-1.765633479976111420e-01,3.137536498201692337e-01,2.959175214622817435e-02,-1.453818114186969943e-03,-2.360898299920656182e-03,4.938330948352813721e-01
3.546612753645672633e-01,-3.338415601683728529e-01,3.402152311845054733e-01,5.556667416637900772e-03,-2.041106577795444646e-02,8.413605987438538270e-03,6.825346350669860840e-01
3.422247147229925957e-01,2.527614286897769680e-02,3.482162029396520531e-01,5.703767465296608746e-03,1.627906739905805172e-03,5.211253343247602282e-02,3.326319158077239990e-01
3.710605678213174663e-01,-4.378350131861720174e-01,3.595337173571697686e-01,2.091682781262341542e-02,-1.190760044688210159e-02,-1.051149217112770651e-02,8.044813871383666992e-01
3.635522662895740442e-01,-4.308226559435365255e-01,3.592056881635927734e-01,3.992825459006669672e-03,-8.820066684575774210e-03,-6.839367019816418748e-04,7.923889160156250000e-01
3.665341982337231297e-01,-3.903606132847581844e-01,3.490794120167294290e-01,-1.454433674358320168e-02,-1.403435764360791427e-02,-1.484473899917946411e-03,7.491428852081298828e-01
2.561750682038844151e-01,-4.580854375652630983e-01,3.994956755916524993e-01,-2.521701085543083878e-02,9.112389873716673916e-03,5.611977269958954261e-03,7.970749139785766602e-01
3.613976670904128774e-01,-4.436657088918470881e-01,3.649021114255524001e-01,1.093145872713809433e-02,-9.576955540805827047e-03,2.511098234640316094e-03,8.072255849838256836e-01
3.648216331476339391e-01,-4.640999834581164274e-01,3.697330342248330015e-01,-1.103782514715544259e-03,-8.457388266477688585e-03,1.879662008814735009e-03,8.315258026123046875e-01
2.695233143423033662e-01,-4.592732700696102732e-01,3.975659448398325968e-01,1.565495871403197077e-03,-8.366584284276753006e-03,-1.031732466295945394e-02,8.008702397346496582e-01
2.487304581773907286e-01,-2.465510854157597076e-01,4.240333481393596116e-01,6.997055430544958654e-02,4.304263764444186957e-02,4.172731878759171342e-02,6.231599450111389160e-01
2.704716992454883062e-01,-4.556007942541341338e-01,3.772346794806739068e-01,-1.148622595996064838e-02,-2.018656498743484975e-02,-1.311785199746857977e-02,7.862771749496459961e-01
2.861327371121383800e-01,-5.183268720120047801e-01,4.102705583369851139e-01,5.418703139666272706e-02,-7.776282839521654611e-02,-2.563366390063110886e-02,8.895788192749023438e-01
3.498360822441359819e-01,-4.594208232796260782e-01,3.392617555233611304e-01,-4.480935516669923985e-03,-6.682415778852516045e-03,-2.653930676247058442e-03,8.041557669639587402e-01
5.912768709842474157e-01,-4.642601882336794272e-01,1.814391110510416294e-01,-2.999983404519696722e-02,-1.327880657869696668e-01,1.371385295038548280e-01,9.805842041969299316e-01
3.678051319823872345e-01,-4.596364756487788528e-01,3.691103483173723832e-01,1.198168887738479231e-02,1.377558335452447325e-02,-1.337826527527132079e-03,8.287017941474914551e-01
3.675202879233357423e-01,-4.081633642087202363e-01,3.520290934541248085e-01,1.601419949322674743e-02,6.385069927116075045e-03,6.020727557458030454e-02,7.756772637367248535e-01
3.752328348881336373e-01,-4.528796828092471749e-01,3.353996268975904527e-01,-1.154385322182846117e-03,-4.431985833210604943e-03,-4.939196764351905418e-03,8.090159296989440918e-01
2.662297892382800013e-01,-4.161273123979353783e-01,3.972907135583704785e-01,4.142214057668586885e-02,-7.814649082882584030e-02,-1.146030447618644373e-02,7.720625400543212891e-01
3.676154198989224908e-01,-4.562025312732086446e-01,3.751092015687181314e-01,1.972290125374624552e-03,-3.611691208939649643e-03,6.119201024603430732e-03,8.276888728141784668e-01
3.576101614860863753e-01,-4.131504574569527799e-01,3.628830495710511084e-01,1.140415783268314276e-02,1.071893008124383088e-02,4.006341881324494356e-03,7.739166021347045898e-01
4.122133748171753487e-01,-4.658612319703867577e-01,2.696577635300179687e-01,4.824951264339046378e-03,5.916506295453550709e-04,1.204974496056289771e-02,8.164981007575988770e-01
3.515458584914361029e-01,-4.582221932401537856e-01,3.299305416646199918e-01,-1.045506835290032494e-02,-5.727148421028232725e-03,-6.630202643693339053e-03,7.995288372039794922e-01
3.566600274124164249e-01,-4.552155096739231022e-01,3.244999745649663203e-01,-6.703815701360263390e-03,-1.483659381499505617e-02,-7.560411179341235827e-03,7.968894839286804199e-01
3.730308822983791628e-01,-4.640739916886312821e-01,3.138727935031037086e-01,-9.891766064466886443e-03,-7.751312278721842267e-03,-7.223411575252192129e-03,8.095387816429138184e-01
3.602583618641192476e-01,-4.719866659762106398e-01,3.598334284494305035e-01,-8.336059227613999093e-04,9.205883184492788442e-04,-1.330335495580441899e-03,8.320386409759521484e-01
6.873829778149367353e-01,-7.894755156546211516e-01,9.324561407611356434e-02,1.116534336885828538e-02,9.694874620343197844e-03,3.705109422831609489e-02,1.288963794708251953e+00
3.643368985042353403e-01,-4.712838847099691808e-01,3.628925423266449735e-01,5.676086408205098521e-03,-2.937801770210527602e-03,1.213911036501849530e-03,8.349756002426147461e-01
3.646302165482275814e-01,-4.687167305797081962e-01,3.675979203596519418e-01,4.811870707766915814e-04,-3.758697330725482670e-03,1.272040003344270930e-03,8.348634839057922363e-01
3.589210743295235262e-01,-4.629421318680936315e-01,3.762525663348250116e-01,-1.774377174213126289e-03,-7.318550524430103565e-03,-1.974724951675011983e-03,8.307740092277526855e-01
3.553654613903741710e-01,-4.685068387404360823e-01,3.546441963647500861e-01,-1.436105581471230127e-03,9.982500500601169187e-05,-3.520206478932962416e-03,8.235382437705993652e-01
3.547850564999021072e-01,-4.632153197236599240e-01,3.495938901633710016e-01,2.400323831457191125e-04,-1.802956156441139646e-03,-7.377473999502499706e-04,8.154242634773254395e-01
3.364715419546893682e-01,-4.581079384770059271e-01,3.400048295350868166e-01,-8.050144701700970296e-03,-1.251699105720925284e-02,-8.659363267321321112e-03,7.969102263450622559e-01
3.515488818327011100e-01,-4.577367754703719482e-01,3.327313567909395697e-01,-1.066575399545328581e-02,-3.799612912886700215e-03,-7.590030528544429791e-03,8.003911972045898438e-01
3.376882894700807269e-01,-4.584532417912676738e-01,3.424446450798793729e-01,-1.813573884159151023e-03,-4.211041862374153427e-03,-5.509384766384557361e-03,7.986268401145935059e-01
3.634074896196609616e-01,-4.716641862690130749e-01,3.633455868359689589e-01,4.783164704357405531e-04,2.526630082316820222e-03,-5.563077003764850884e-03,8.351082205772399902e-01
3.418671652794669225e-01,-4.644599723596091190e-01,3.596674695632894325e-01,1.151606270775014287e-03,-3.001894896059329777e-03,-8.599627553418889153e-03,8.155280947685241699e-01
4.401220669745872782e-01,-4.631150726421042751e-01,2.430454228922454829e-01,5.174925164613794308e-03,-1.312819970817390158e-02,3.102975493473532007e-03,8.229798674583435059e-01
3.823840293456568507e-01,-4.616580199157512832e-01,3.492329913207090630e-01,1.031950888776280578e-02,2.406276670384766524e-03,1.167097866903901542e-02,8.284144997596740723e-01
6.832848400988723592e-01,-8.661508527332201224e-01,1.398291887140949152e-01,4.011747043845568378e-02,-1.489546031171106177e-01,1.477918817488413708e-03,1.387603163719177246e+00
6.811182257940636697e-01,-6.975378473233259102e-01,1.112952479698519209e-01,-1.430201557002621846e-02,-6.456525465825516119e-02,1.295953925497169146e-01,1.226093530654907227e+00
4.869667218607494075e-01,-5.037298708733434216e-01,1.780849886852174102e-01,-1.931844626866924264e-02,-1.836388640504060463e-02,1.328386407829555867e-02,8.795113563537597656e-01
3.933174133982524912e-01,-4.609176156452712281e-01,2.834038903290724276e-01,-1.732720047444536457e-03,-1.349168162678640506e-03,-1.906604659647731514e-02,8.056125044822692871e-01
5.691793892934695620e-01,-4.281676531486094950e-01,1.707641061353633583e-01,3.133518413840082062e-02,5.962214106852883888e-02,1.583082009656222311e-01,9.191692471504211426e-01
3.975621527760302421e-01,-4.624531531801202577e-01,2.609888185371793679e-01,-9.349620483585740355e-03,7.601650618450576935e-03,1.666779245878912546e-02,8.013067245483398438e-01
4.316601913657308054e-01,-4.562483946939273061e-01,1.935549153125349919e-01,-4.181205602232706750e-03,1.169397861054880796e-03,-2.852506884428159493e-03,7.960785031318664551e-01
4.483930173693206345e-01,-5.388496213269211577e-01,3.096879074422498324e-01,1.659754106028096116e-02,-9.456058319795681080e-04,3.964528599459384711e-02,9.287065863609313965e-01
3.592462247016846577e-01,-4.668200887540115973e-01,3.503950128526904240e-01,-7.438473486146303035e-03,-4.020042204035170416e-03,-5.312274256074196212e-03,8.218584656715393066e-01
3.560028220384565678e-01,-3.515913665022842860e-01,3.455152345460205665e-01,2.134668432456264878e-02,1.384400120441826171e-02,-1.904474814592830873e-03,7.037978768348693848e-01
3.606017904493992177e-01,-4.596125155635811810e-01,3.654346786388894541e-01,-7.016876736146674017e-04,4.478868779533297720e-03,-5.805891790109640564e-03,8.227403163909912109e-01
3.543197269079092493e-01,-3.643694703008444336e-01,3.522795480496914711e-01,4.728388198907532147e-02,1.809512770774427542e-02,-2.872223965047663013e-03,7.230258584022521973e-01
2.894047657633879722e-01,-3.472648343205697596e-02,2.958726386357358740e-01,7.064650701161732937e-02,-3.696346263944889909e-02,5.054537486956862946e-02,3.659720122814178467e-01
3.671702106604163296e-01,-4.649651312633885647e-01,3.640028363362359243e-01,-1.334187244848770732e-03,9.284058155453829477e-04,-4.242805479005984717e-03,8.305934667587280273e-01
3.659139688625202003e-01,-4.740644527747468473e-01,3.626195128442136206e-01,-3.326359843201215100e-03,1.659998783076451108e-03,-2.412157054216059002e-03,8.383711576461791992e-01
3.217995337577854720e-01,-4.636044287670649799e-01,3.668529000770293647e-01,-7.932728275233131426e-03,-4.317490412806589475e-03,-1.326792370123774066e-02,8.093497753143310547e-01
3.184812947989567600e-01,-4.632694843160053422e-01,3.713810982720341380e-01,-3.091431870500433842e-03,-4.166161483770447135e-03,-7.362754865192836645e-03,8.096483945846557617e-01
3.484915929497879317e-01,-4.638277795670664450e-01,3.462255403596429804e-01,-5.511711254071522369e-03,-6.177827311532761495e-04,-4.395475325762799364e-04,8.112459778785705566e-01
3.516970048440844487e-01,-4.688451330140883666e-01,3.374199119663526814e-01,-1.606293460809362500e-02,-2.238399364498441096e-02,-1.361103525119704109e-02,8.152369260787963867e-01
2.841541290542887177e-01,-4.814231432418668577e-01,3.715086357237432635e-01,-2.473670843025223970e-02,-1.460364712030390311e-01,-2.416883115491658476e-02,8.533369898796081543e-01
3.581462557829810933e-01,-3.541206066975955968e-01,3.553196156098595293e-01,-7.229121447653372168e-02,8.472022403667588131e-03,-5.767298020213716681e-02,7.288282513618469238e-01
3.552239678156070557e-01,-5.001898398316213523e-01,3.806024759194994167e-01,3.142444170564723249e-03,-1.332487688348278632e-02,1.700271369030941166e-03,8.687099218368530273e-01
3.760639918611209942e-01,-4.538037743709225635e-01,2.912749162747607090e-01,1.164998255752854213e-02,-3.128363531430532196e-02,5.664164222795419444e-03,7.930607795715332031e-01
5.446514148831010926e-01,-4.550851931812986972e-01,2.281592057451707900e-01,-1.514605704007304481e-02,-1.745421955479241061e-01,-1.159605507920225959e-01,9.568988680839538574e-01
3.923914044053349870e-01,-4.588095636453708437e-01,2.889884747961021239e-01,1.137364962544839403e-02,-7.702745270792090565e-03,-4.536928848843481583e-03,8.048890829086303711e-01
3.664171057068194015e-01,-4.678202617168809585e-01,3.628243278053806531e-01,5.755082595292470606e-03,-1.116982976347179407e-03,-1.869887843381900106e-03,8.325150012969970703e-01
3.472203773691608930e-01,-4.188607715508314566e-01,3.750144766703656374e-01,-2.130118989954569563e-03,5.074425465776877600e-03,-8.503503341533538359e-03,7.805467247962951660e-01
3.607499767930120171e-01,-4.643069844357937681e-01,3.412538508896107992e-01,8.936736256954935440e-03,-1.864100936515246908e-03,-1.708190845888167726e-03,8.156423568725585938e-01
3.158767981972698813e-01,-2.351712180086331094e-01,4.065698997059149500e-01,-4.125253330358275017e-02,-1.834880253997857869e-01,2.195828093589896612e-02,6.851356029510498047e-01
3.365236273825043534e-01,-4.518016929342852928e-01,3.283037992615509548e-01,-5.808430808448081760e-03,-8.812300383173951243e-03,-1.241368862184305142e-03,7.844637036323547363e-01
3.463963615025837939e-01,-4.594329447374267961e-01,3.510276337078502840e-01,-5.066057337680404150e-03,-2.947623836996595206e-03,-8.377951616784938896e-03,8.083488941192626953e-01
3.358299579465747753e-01,-4.599594555427016784e-01,3.528487183269073957e-01,-4.650002575851184747e-03,-1.285202538312803233e-03,-8.657805992511069179e-03,8.046169877052307129e-01
3.358464977453306521e-01,-4.477157359638652689e-01,3.239639685398206792e-01,-2.003691423853544862e-03,-6.544401539300847073e-03,-5.195188446153777874e-03,7.778314352035522461e-01
3.431307657096422936e-01,-4.595407747206673443e-01,3.499196634289744590e-01,-1.113204470150534406e-03,-1.551281312993905287e-02,-7.171211988309058108e-03,8.066330552101135254e-01
3.357095205620508338e-01,-4.582182151072808907e-01,3.427282458793912134e-01,-8.405426351414911623e-03,-5.790007580643751622e-03,-5.969126531327024858e-03,7.977231740951538086e-01
3.243479957694376248e-01,-4.488376589570418629e-01,3.394709855759457384e-01,-5.286725932546047259e-03,-7.411675532353409132e-03,-8.396137965635812328e-03,7.811515927314758301e-01
4.322602397939757091e-01,-4.064065316291632923e-01,1.275660196007873948e-01,-2.864823610322440525e-02,-1.484943866118213496e-01,-1.345325825766248706e-01,8.146008849143981934e-01
4.887250765742627290e-01,-5.988204229231297582e-02,3.311528211793630105e-01,-1.923473643623863430e-02,-5.879952694552145753e-02,2.283946333442532853e-02,5.023947954177856445e-01
4.700319977100900770e-01,-5.245064249583372140e-01,8.528303758526149803e-02,-1.645280207008163048e-02,-1.593711410745753954e-01,-4.827439276557305564e-02,9.156919121742248535e-01
3.679204518087790809e-01,-4.502972862769571982e-01,3.575302326125565089e-01,1.291993977159346888e-03,8.608575415474943766e-04,-2.696902419302201620e-04,8.130769729614257812e-01
4.198937123286630158e-01,-3.949395218724216505e-02,2.724511810303611448e-01,-6.568414649713046061e-02,-3.870922050668999803e-02,-3.891489591716312813e-02,4.324634075164794922e-01
3.543453141175801346e-01,-4.294544178208202778e-01,3.633669189769274110e-01,4.513960481587365060e-04,-3.106788126438402367e-03,-9.696263882706288376e-03,7.885468602180480957e-01
3.695202886036057510e-01,-2.195589773866396532e-02,4.323237230171792511e-01,3.766929252383260929e-02,5.892595767100171356e-02,3.303352801201886457e-02,4.469130635261535645e-01
3.084936833218099306e-01,-4.442029559399794936e-01,3.409564730599720650e-01,8.587887839523158017e-04,-8.998850224042750576e-03,2.919213159378167277e-03,7.696176767349243164e-01
3.988523946402435794e-01,-4.470030296990742391e-01,2.348887049395097792e-01,9.223492413573229501e-04,-1.335866953869795440e-02,-2.204812050702116121e-03,7.773149013519287109e-01
3.419928515849196549e-01,-4.437983263672227174e-01,3.099286882656851483e-01,3.285301042957388101e-03,-8.314391661346577297e-03,1.008966661262458448e-03,7.704173922538757324e-01
2.736587171276501085e-01,-4.628388275132753193e-01,3.402178927783611195e-01,1.508230540783233112e-02,-7.274431419671072152e-02,1.596875627360756777e-02,7.830721735954284668e-01
3.679773647069815579e-01,-4.639716723104722051e-01,3.176139745865987907e-01,1.363213607984071346e-02,-5.046698523043365199e-03,1.213031346396997549e-02,8.086106777191162109e-01
3.686981948709327495e-01,-4.655692110205201795e-01,3.709359556331913166e-01,1.361728434712239063e-03,1.093147257339903422e-02,-8.202175099243191707e-04,8.356075882911682129e-01
3.290336994923820368e-01,-4.817759522702447228e-01,3.844089584060368381e-01,1.848848655108179017e-03,-3.741738240729823584e-02,1.155933650105362039e-02,8.426083326339721680e-01
3.496876934962349082e-01,-4.652105941589695925e-01,3.348027340490694059e-01,1.239993137720250480e-02,-1.498067896550710210e-02,1.303503011024920860e-02,8.085761070251464844e-01
3.575949186167658445e-01,-3.403269648353596799e-01,3.279754797058465066e-01,2.385837958557373434e-02,1.750194251798569897e-03,2.549303741202089881e-03,6.848624348640441895e-01
2.868411596220249438e-01,-4.595927785252170716e-01,3.745528456288840791e-01,1.655487940345213129e-03,-2.330195076612782273e-02,-1.076452124311175727e-02,7.951809167861938477e-01
2.244081794100316884e-01,-4.623400213696369221e-01,4.098316142963294717e-01,-9.823713072190013926e-03,-4.403836782095865016e-02,6.272659393316457402e-03,7.997310757637023926e-01
2.104848418971865809e-01,-4.606208602210228875e-01,4.414530772372275425e-01,1.741586590011386798e-02,-5.914198253620588791e-03,8.096748025702775811e-03,8.123698830604553223e-01
4.097831504365211930e-01,-4.832944590986649747e-01,3.030713894664482932e-01,9.041355223298986124e-03,2.619067563086163730e-03,-1.569767260222316302e-02,8.453864455223083496e-01
1.524886895954468968e-01,-4.754041038767146121e-01,4.997658449281702220e-01,-1.744345730108254463e-03,2.894606942900540547e-02,-1.416103901388712262e-02,8.579207062721252441e-01
1.744850087660656524e-01,-9.186507794239316960e-01,6.999070290850883946e-01,-2.510871121797749947e-02,-1.667325389859225515e-01,-1.875068405371189961e-02,1.460040092468261719e+00
1.828554301506028490e-01,-4.606508619203568689e-01,4.221377451229167410e-01,3.500389429018687781e-03,-4.550722574296761636e-02,1.431025673277032048e-03,7.947274446487426758e-01
2.294737085790633235e-01,-4.469097047229100284e-01,4.034320620870238128e-01,-6.779370870473728746e-04,-1.172157249329184442e-02,-4.151052563467238707e-03,7.783854007720947266e-01
2.073991031607710644e-01,-7.621322146992450808e-01,5.494632556740480789e-01,5.541181591274717266e-02,-2.372810767115178798e-01,4.833885885896444662e-02,1.254499554634094238e+00
3.876723067687276592e-01,-4.737087337399982223e-01,3.503041277333371895e-01,5.737419628911348893e-03,-1.485501424587314448e-02,-8.683938757628111710e-03,8.439031243324279785e-01
3.799708069696891566e-01,-4.329710476198854741e-01,2.746785997984996230e-01,1.839830793095373687e-02,-2.321119872560062358e-01,9.732494878639573466e-02,8.817166686058044434e-01
3.715985687353977052e-01,-4.398236376585643592e-01,3.635711169279080002e-01,5.859496114697356275e-03,8.920272561356178478e-03,3.928380390104790898e-03,8.076786398887634277e-01
4.158503608950301356e-01,-1.451636801004471122e-01,2.918320455658400259e-01,-2.695816952663845911e-02,-5.442668515451068445e-02,7.072231983919656517e-02,5.353627204895019531e-01
3.351882481402491676e-01,-4.586475330866349731e-01,3.399346355968272393e-01,-9.282781927121994126e-03,-9.293128707321504645e-03,-7.114293398466436762e-03,7.966398596763610840e-01
3.546151847488733244e-01,-4.045435388056257686e-01,3.685506314892732505e-01,-1.107662191467297108e-02,-5.174384831633124099e-03,1.417984337588345210e-02,7.669073939323425293e-01
3.988699515380318972e-01,-4.600201110530208748e-01,2.556931566031382941e-01,-1.146058989079529883e-02,-8.373600017410349344e-03,-1.342907476635816708e-02,7.977242469787597656e-01
3.059996484150642182e-01,-2.474173691376065909e-01,3.138975637170935418e-01,1.130478903009280306e-01,-1.029328164459403228e-01,8.137993865028703144e-02,6.330060362815856934e-01
3.564170449261653273e-01,-3.363702220146215782e-01,3.419007784820430329e-01,1.880302836482941956e-02,1.336408738395497217e-02,6.350175095218682335e-03,6.868956685066223145e-01
3.435525016977779567e-01,-3.138898719547197347e-01,3.542958518381220667e-01,-1.986003299842199407e-02,-1.552789397003866839e-02,3.050420989060708202e-02,6.664136648178100586e-01
3.734741104378336840e-01,-4.605969295349413573e-01,3.671573769114143682e-01,7.644146462138194783e-04,-1.170880294632455423e-02,-1.247418001006875927e-03,8.311820030212402344e-01
3.599607811228677234e-01,-4.406622747865062140e-01,3.698635928318715349e-01,4.325323988478308596e-03,-9.917050429830966130e-03,-4.229772873938631231e-03,8.058713078498840332e-01
3.652811626238641196e-01,-3.616132770485219750e-01,3.606630937767136835e-01,-3.402408003246917834e-02,-1.179835170824413207e-02,2.829471740005967684e-02,7.289254665374755859e-01
3.680268288191020365e-01,-4.628686904283327852e-01,3.689685264738618020e-01,5.791300066866354561e-03,-5.855793450750225101e-03,-2.657849850471152159e-03,8.315019011497497559e-01
4.658335694449543540e-01,-3.551214650711091991e-01,3.261901059336841380e-01,-1.123480613102802519e-02,1.481529584140710010e-01,4.213321344109532962e-02,8.064605593681335449e-01
4.158380934527849404e-01,-4.301505572027173319e-01,3.484195779712977448e-01,5.525715949189311839e-03,3.079487374918893350e-02,-7.323859655190005646e-02,8.259751796722412109e-01
3.637723065734143058e-01,-4.650942172733893987e-01,3.704192832378153111e-01,-2.022044552670042294e-03,-3.903826157560167168e-03,-1.833479978533193548e-03,8.322508335113525391e-01
4.242606398449456639e-01,-4.743262333448506896e-01,2.481369697002626939e-01,4.565553134406158051e-03,-1.579390482096558381e-03,1.811349174928361672e-02,8.253906965255737305e-01
3.501691221632489137e-01,-3.392734417925556967e-01,3.539412751844285276e-01,5.994659513422823799e-02,-6.481140104034423255e-03,-6.247637016661984621e-02,7.075045108795166016e-01
3.272234353095765935e-01,-3.146435013328319208e-01,3.543305359951838263e-01,1.009780301468448001e-02,-4.488772509863556137e-03,-3.105652917091078491e-02,6.583213210105895996e-01
3.679472484520560083e-01,-4.716687525144002135e-01,3.631349446617351262e-01,-8.808741018545307791e-03,-2.697186788600964332e-03,-3.721851982217504358e-03,8.373970985412597656e-01
3.267871870979048299e-01,-4.608584833731176333e-01,3.648225528016417196e-01,1.612693598703418768e-03,9.903382779351379075e-03,9.663102145398614826e-03,8.076960444450378418e-01
3.388385041552831045e-01,-4.161666707267962506e-01,3.669989686306304177e-01,1.657889043389584177e-02,2.962007038282025995e-03,6.178040284100393478e-03,7.700990438461303711e-01
2.678692316072199819e-01,-5.183836437356529325e-01,4.331377465824080564e-01,3.566531438611203475e-02,2.364327516443095467e-01,-1.916832343648874198e-02,9.736887216567993164e-01
2.002084488980732102e-01,-7.499800432339386314e-01,5.162430435970302156e-01,7.956819194970435327e-02,2.166441620292646197e-01,-8.682293976200726807e-03,1.209566831588745117e+00
3.666484469100736998e-01,-4.505795571278270462e-01,2.801054315686491991e-01,-8.994562464668658802e-03,1.732669700290771428e-02,5.872007442341555146e-03,7.783782482147216797e-01
3.801302762285613812e-01,-4.602126463059843520e-01,3.608365123377729744e-01,2.095355922924107932e-03,-9.966470113958439316e-04,-1.841929529062422306e-03,8.308799266815185547e-01
1.695062717955619080e-01,-3.071804670051835884e-01,3.974942894464683629e-01,-1.120084682619866545e-01,1.117668425368693319e-01,1.047663091341124661e-02,6.806835532188415527e-01
3.595663765612273077e-01,-4.673534167146566887e-01,3.518164376852734310e-01,7.520563775734978931e-03,9.381917136653485003e-04,-3.900866800797431200e-03,8.232045769691467285e-01
2.933996251918712383e-01,-4.541531703171605150e-01,3.666955496890193511e-01,-1.532107677728031031e-03,9.849444003075977574e-03,-1.231195161127093124e-02,7.872438430786132812e-01
3.393659506482018529e-01,-4.582621428587214663e-01,3.571692315061579803e-01,-2.708327920257983922e-03,-1.269997837701802856e-02,-8.844666467602750951e-03,8.071359992027282715e-01
3.672810579945159914e-01,-4.747924472508860960e-01,3.665556221803432102e-01,-2.815584021724459353e-03,4.937193475716842098e-03,-2.682434102752794154e-03,8.417814373970031738e-01
3.756009681961242075e-01,-4.300687046372847488e-01,3.485105520588455130e-01,1.172200281491460674e-02,4.488628627281401016e-03,-2.416470807932983526e-03,7.927810549736022949e-01
3.189073314191752662e-01,-4.605515451305539631e-01,3.957452926331732623e-01,-4.958595205838451855e-03,-3.551703159998492038e-02,5.928161885311891005e-03,8.229919672012329102e-01
3.653726582331768280e-01,-4.754638774106643151e-01,3.651874853287980782e-01,-5.758908946544629218e-03,4.075749192028720221e-03,-3.137689446818284125e-03,8.408503532409667969e-01
3.674750731931589187e-01,-4.665252787093483455e-01,3.687109576553222468e-01,6.451917876986020851e-03,1.215890423797311441e-04,-7.989567134614877775e-04,8.346949815750122070e-01
3.143858351600733458e-01,-1.926311073190724033e-01,3.096843525012365483e-01,2.618952997930007465e-02,4.510852865086558902e-03,5.828864699844111923e-03,5.068778991699218750e-01
3.743730546063318565e-01,-4.470975657874484144e-01,3.587920649994231770e-01,-2.724842569433169343e-03,8.820799698436769185e-03,-2.870426106621006435e-03,8.139642477035522461e-01
3.702756560467161950e-01,-4.715057670097476672e-01,3.671041188301102931e-01,9.461715398819598756e-04,8.541944450431921895e-03,-2.166947667797145503e-03,8.403403759002685547e-01
3.731079503362565442e-01,-4.526364078346106767e-01,3.597966353122856176e-01,1.717344689022776106e-03,3.430445834111842812e-03,-2.363686278621843738e-03,8.192070126533508301e-01
3.806460353027718568e-01,-4.490331823502583530e-01,3.579265931597468420e-01,7.732143397841260285e-03,4.784225267108788669e-03,2.379160645303659855e-03,8.187178373336791992e-01
3.720151761528623924e-01,-4.607184810391602436e-01,3.633144226133470100e-01,-3.165281768766189420e-03,5.967428148564359047e-03,-8.491023192953700267e-05,8.285001516342163086e-01
3.629919457233284907e-01,-4.672988868381893202e-01,3.487740180501258669e-01,8.990415601473419546e-03,-1.477574238218123340e-03,6.586091593709467520e-03,8.235042095184326172e-01
3.646473837496958526e-01,-4.645822917584180312e-01,3.578167701734977779e-01,3.339438581105247817e-03,1.258174255405580507e-03,2.198492112820110700e-03,8.258674740791320801e-01
3.532365760320911874e-01,-4.408684955862257615e-01,3.773667393853151197e-01,-1.050100309747858777e-02,1.226479360999407561e-02,-8.557286951599451033e-03,8.070618510246276855e-01
5.841390614792449920e-01,-5.414551252264615533e-01,1.164498131494145078e-01,2.536094699959511381e-02,-1.066210425488587632e-01,5.249999066582709817e-03,9.976891279220581055e-01
4.436919269920958087e-01,-4.554942598087253769e-01,1.934541694686617297e-01,-2.035239252421408920e-02,-3.972658148017704782e-02,-9.353600712135100997e-03,8.077030181884765625e-01
3.811197631419295240e-01,-8.752981803634002356e-02,3.402141313816178791e-01,3.140266706328206925e-02,4.553080051483380207e-03,-2.267421039558882578e-02,4.546407759189605713e-01
4.127885129557384292e-01,-4.686138451069478128e-01,2.795881246419735233e-01,4.105894405395755717e-03,-1.350163474129902411e-02,3.259188978105680146e-02,8.252232670783996582e-01
2.287602581806517377e-01,-4.163324727692123139e-01,2.808792332982720796e-01,-1.849322468904768257e-02,-2.721336700752032822e-01,5.027814974888125676e-02,8.265969157218933105e-01
2.038837659276153680e-01,-5.109572610742477705e-01,3.410140264683804157e-01,-6.919927005245224590e-03,-2.386191352045847758e-01,-4.967993201476690775e-03,8.937917351722717285e-01
3.513170027131646833e-01,-4.590936056932022336e-01,3.260382191978200561e-01,1.992537525213818050e-02,-2.460443083668582137e-02,1.586505612464539014e-02,8.004251718521118164e-01
3.674614362218979746e-01,-4.468663525584225527e-01,3.825859576950148555e-01,-4.297371074517585682e-02,5.231797015382800772e-03,-4.112765955641664584e-02,8.284754753112792969e-01
2.821564987235947175e-01,-4.441781293833214628e-01,3.679016908220171800e-01,-1.194789349832887622e-03,-1.175833250234315300e-02,3.589038669374930175e-03,7.730793356895446777e-01
2.888037701334152385e-01,-4.549267724079653075e-01,3.669457577665658499e-01,-1.543063388471239625e-02,-7.160269879454912029e-03,-1.254844903575228279e-02,7.865738272666931152e-01
2.965066222000265483e-01,-4.561130354400202425e-01,3.590513154118098460e-01,-1.430720481343914462e-02,-1.097691892689137312e-02,-9.546461013085268121e-03,7.865554690361022949e-01
3.063710999484785535e-01,-4.609484826342955532e-01,3.482690922609969486e-01,3.574985487628107306e-03,-5.896047944393971452e-02,1.082381610274731239e-03,7.957102656364440918e-01
3.477718282087201573e-01,-4.847283982063581576e-01,3.740514731587392672e-01,-1.094273349516573964e-02,-6.129994387160029451e-03,-1.627032919796042240e-02,8.466942906379699707e-01
3.832993571445615921e-01,-4.661153760204900243e-01,3.293625633273855047e-01,-8.085175698113010109e-03,-9.506150547214094887e-03,1.649109777173525353e-03,8.240602016448974609e-01
2.692704144633416008e-01,-4.557859438698179666e-01,3.831971322777287248e-01,-1.349215062006136646e-02,-2.139949426477700048e-02,-9.390686684481706209e-03,7.896035909652709961e-01
3.195420080440303789e-01,-6.198082355338582206e-01,3.381865194045346468e-01,1.716089915600010063e-01,-2.535137251829482352e-01,4.261350814196553094e-02,1.089423894882202148e+00
2.889581938899422608e-01,-3.311816836778545547e-01,3.983452660908380349e-01,7.048050840006574169e-02,-1.434971985853298049e-01,3.844364498400436314e-02,7.385694980621337891e-01
2.730713372176883924e-01,-4.542326516909521716e-01,3.725370661383665127e-01,1.604079330553807642e-03,-4.201182831490794800e-02,-1.285173677123534718e-02,7.854963541030883789e-01
3.874389837403090509e-01,-5.283663980922553849e-01,1.224100531749320320e-01,2.703486467362687523e-02,-2.443409802525610131e-01,3.404469530162793772e-02,9.224978089332580566e-01
3.641892929985579563e-01,-4.680240992432356251e-01,3.687815290108427679e-01,-3.603636100062607194e-04,4.701739785878393529e-03,2.171196398122822706e-03,8.345674276351928711e-01
3.652463203565868843e-01,-4.749205396827351766e-01,3.710089466627798926e-01,-2.226222975052330466e-03,1.898472250967799500e-03,-2.181543816261417596e-03,8.430866599082946777e-01
3.664041477531000957e-01,-4.742497278175743514e-01,3.707494152327182602e-01,-1.509540698876727510e-03,2.745900808051733935e-03,1.737656856960551973e-06,8.428524136543273926e-01
3.644142231864098691e-01,-4.707446157396953934e-01,3.618976143840764714e-01,-6.004607731353248275e-03,1.418451140182896367e-03,1.664770257064296377e-03,8.339768648147583008e-01
3.622412240969581920e-01,-4.665027108828267988e-01,3.402116469757128225e-01,-9.158981007480800768e-03,-9.852112539926800860e-03,-4.829698623265382337e-03,8.183261752128601074e-01
3.655474330210090050e-01,-4.723559580277633119e-01,3.568011317411978189e-01,-1.731209580831593589e-03,-3.132978717542415914e-03,-1.101016017799559543e-02,8.338057994842529297e-01
4.262114822817371085e-01,-4.596267286018604903e-01,2.120992093945582302e-01,-5.110087830516301700e-03,4.721639019304827399e-03,-1.921690854958789038e-02,8.013349175453186035e-01
3.674130982845850157e-01,-4.750810717310370856e-01,3.668363604086694596e-01,-1.842726281817491261e-03,3.239970360038497282e-03,-1.239599799491653085e-03,8.422334194183349609e-01
3.752408945757262915e-01,-4.517665621341993010e-01,3.585929908529852383e-01,6.299717315453316063e-03,-6.699145540602835167e-03,8.356680592929314816e-04,8.189666271209716797e-01
3.758616498937640826e-01,-4.556507433890685244e-01,3.620030152175267579e-01,-1.640549909636141194e-03,9.257455567231816576e-03,6.428555253806666082e-04,8.248319029808044434e-01
3.342576334599823840e-01,-2.628951711384499568e-01,3.199688664711647368e-01,-2.971526825143400597e-03,2.922997701262253223e-03,-1.416266231079445952e-03,5.901874303817749023e-01
1.663159087435301942e-01,-2.072205373691033414e-01,4.325391973566599102e-01,1.318063342857854203e-01,-2.165675008276625110e-02,-6.645414999570468592e-03,6.029151678085327148e-01
3.555601408352416781e-01,-3.002246000719110408e-01,3.268738391011240529e-01,4.245589284618742076e-02,-6.854271004875898618e-03,-1.111774863680350597e-02,6.465166211128234863e-01
3.287972467847859459e-01,-2.811997525792980235e-01,3.464525232374569552e-01,-4.633024947738066321e-03,6.434995574847023059e-03,3.147667490489284431e-02,6.215614676475524902e-01
3.776642266152500649e-01,-4.334290500022957016e-01,3.538545358631626225e-01,-1.791067104634350366e-03,-4.874295068652591267e-03,4.971093086331151859e-04,7.995054721832275391e-01
3.438048804182461948e-01,-2.360621717880510562e-01,3.527195535224323386e-01,6.127253449730848955e-02,7.720640158747249689e-04,5.593399582572261552e-02,6.017850041389465332e-01
4.745671437076621202e-01,-5.534226287933674548e-01,2.598756944373175060e-01,4.065813067764936783e-02,1.273537124355634265e-01,-1.643895694783012451e-01,1.008386254310607910e+00
4.285659962693001424e-01,-4.632142449644055526e-01,2.221812996085494318e-01,1.147722390724294217e-02,6.345612533287971549e-03,-1.818748837310839306e-02,8.095215559005737305e-01
3.534918775846112582e-01,-4.492079123736267832e-01,3.027005698507204690e-01,-4.407630936950391459e-03,6.418445157831421596e-03,-5.410111203323336032e-04,7.786650657653808594e-01
4.110761524604537587e-01,-4.607206162421257911e-01,2.688619923145506019e-01,-5.605146566740968478e-03,4.153345996753559505e-02,-5.006969231885961130e-02,8.179626464843750000e-01
3.809848096803740702e-01,-4.495581286321805869e-01,2.677626271440591843e-01,-4.095898880843236618e-03,5.955596544123559211e-02,6.630302900641653514e-03,7.870247364044189453e-01
1.655244538799485188e-01,-6.598957745607345604e-01,5.013167350452367721e-01,1.369815296822864403e-01,-1.497174072867327455e-01,2.470796413531539323e-02,1.093898534774780273e+00
3.714013163629654168e-01,-4.527772189549633675e-01,2.601811564930639475e-01,-1.173011231091715227e-02,-3.013980568626507817e-02,-7.944027979853742621e-03,7.767253518104553223e-01
3.713568681894394152e-01,-4.474595600278782337e-01,2.543132574496144160e-01,-2.649396340555277164e-03,-3.261861771393496229e-02,2.311595189741759687e-03,7.691237330436706543e-01
2.682296511734493238e-01,-4.485574042085888613e-01,3.331092655217621767e-01,5.228972648524657721e-03,-7.833747157829362706e-02,4.112807067096885781e-03,7.635712027549743652e-01
2.465249384853475945e-01,-4.702745284815218474e-01,4.222941700431868117e-01,-3.898419925209334249e-03,-1.043470272668988244e-02,-4.518585834240485162e-03,8.192198276519775391e-01
3.409296693467541717e-01,-4.446667277875826496e-01,3.127279134644211367e-01,-4.351018074210361714e-03,-7.104044154470193911e-03,-3.553073773115080110e-04,7.720171213150024414e-01
3.648107968498675024e-01,-4.610011550421532212e-01,3.720487867110732760e-01,-4.622282381553923999e-03,1.217128324550171073e-02,-1.497145175340488729e-03,8.297651410102844238e-01
2.593113126120997203e-01,-5.592301096002109118e-01,4.038223559749829494e-01,-2.694438603193708218e-02,-1.229490678347745225e-01,-1.232784093354820538e-02,9.258321523666381836e-01
4.413026386561815229e-01,-5.068362896361570114e-01,2.319423735578331758e-01,5.557920702830150897e-03,-5.168405657127302100e-02,3.925878038873877734e-02,8.700727820396423340e-01
2.840357352619699571e-01,-4.578063948179778020e-01,3.912374825594289729e-01,3.849896950388339428e-03,8.600594847990122166e-03,1.032540117783770604e-02,8.012084364891052246e-01
2.639741115989964748e-01,-5.409847517537663686e-01,4.024654348024685468e-01,3.017267063535430255e-02,1.708583290181338865e-01,-4.475320428006590578e-02,9.353800415992736816e-01
7.871087942484732147e-02,-5.034311585400296218e-01,5.385558698659985710e-01,-7.119362949415042850e-03,-5.330277257268474338e-03,1.381351382342269236e-02,9.049041867256164551e-01
2.630759471392294380e-01,-4.508448233224963131e-01,3.703065680071722654e-01,-8.886598533489517213e-03,3.299854747217872281e-02,8.373006780473181421e-03,7.755317091941833496e-01
3.248373141370815564e-01,-4.679687321880793283e-01,3.856758229846311004e-01,8.947685461219953215e-03,-8.016618066916723993e-04,-4.576926120265733774e-05,8.250563740730285645e-01
1.375105038598928853e-01,-1.015857661009905044e+00,7.866662790756824286e-01,-5.591186512898759647e-02,9.830299114112781012e-02,2.716462889888849805e-02,1.594038724899291992e+00
3.150592852965063972e-01,-5.501485108514598821e-01,4.068047169696225596e-01,6.539379954670828179e-03,-5.104225716100803389e-02,-1.305494295421722427e-02,9.191496968269348145e-01
2.961834158908144277e-01,-3.519714700591413115e-01,3.901873059043006742e-01,3.313636648940741780e-02,4.688119482549912495e-03,1.660475138891280913e-02,7.028923630714416504e-01
3.153589589003177318e-01,-2.696851819446386411e-01,3.447623755893767239e-01,1.208476638008004929e-03,9.011834772657118658e-03,-4.140019047910525191e-02,6.047589778900146484e-01
3.547326828258300369e-01,-4.563052648798898714e-01,3.721149722133111348e-01,7.721089830257713699e-03,2.730996839750852480e-03,-1.804035499211412283e-03,8.199959397315979004e-01
3.721069291131006151e-01,-4.252343091559477317e-01,3.594744279860009328e-01,1.524984312210843525e-02,1.530070372912623738e-02,9.775136287751307398e-03,7.921659350395202637e-01
3.508353992634754004e-01,-2.307314816783971878e-01,3.482787704907576165e-01,7.938643429644863525e-02,-6.606765914396383818e-03,7.462964598777735437e-02,6.103163361549377441e-01
3.452105064973967630e-01,-3.422966655748547748e-01,3.962156172879509053e-01,4.653057427710664828e-02,2.552118931455535020e-03,1.940527150699793146e-02,7.197072505950927734e-01
3.613030424971186982e-01,-4.056723999678469861e-01,3.580818450251559426e-01,-3.853636076728644833e-03,1.468333710146102478e-02,9.593315610624198603e-03,7.660017013549804688e-01
4.261039584148620940e-01,-3.056841657510778187e-02,3.649924580487451387e-01,-5.056914367793893111e-02,7.444352160297493248e-02,-7.090666111668579574e-03,4.569730758666992188e-01
4.260017149823593363e-01,-5.076517091316270491e-01,3.730538640486846802e-01,1.173733173059836495e-02,-5.099312636529587661e-02,3.109816840580855238e-02,9.144357442855834961e-01
3.570501749371617350e-01,-3.738185366217339212e-01,3.517455192139855580e-01,2.032156778791500821e-04,1.244083687280111289e-02,6.456254801025278038e-03,7.286354899406433105e-01
3.475499016117892248e-01,-6.547118878792074215e-02,3.732343243949564626e-01,3.794204852767688735e-02,1.476863243566828993e-02,-3.834196542390126694e-02,4.373074173927307129e-01
3.726468011710895034e-01,-4.665618932955852838e-01,3.669867397232075557e-01,-1.774034640819099895e-03,3.339954989170319452e-03,-4.441766786211900041e-03,8.364540338516235352e-01
3.022012326470018273e-01,-4.663228207897694988e-01,3.847886300497913581e-01,-7.079479366070636978e-03,6.589437756719522185e-03,6.807789383445462085e-04,8.131434917449951172e-01
3.743143283664626120e-01,-4.048840751566795682e-01,3.479673725805252360e-01,-7.441823261738144367e-03,-8.460833353038698171e-04,1.189516530492142890e-03,7.664772272109985352e-01
1.554849274241131285e-01,-4.983510165082047916e-01,5.933338346661718443e-01,-1.671795939860470370e-01,8.539175355848226123e-02,5.672187023228791869e-02,1.010380506515502930e+00
3.684854373924882354e-01,-3.859935497748360755e-01,3.490879959706210678e-01,-1.735289178461090279e-02,6.263611966816776469e-03,-1.553433900173260699e-03,7.456595301628112793e-01
3.445267172284434687e-01,-4.476337533373974109e-01,3.190564005678137582e-01,-5.191581048523058635e-03,3.679808076072326080e-03,3.260935273340339040e-03,7.798357009887695312e-01
3.061982774392135176e-01,-4.551106054104423482e-01,3.507332743617570525e-01,5.947312997732351878e-05,1.405647789702009834e-02,-8.305010332077644719e-03,7.850344777107238770e-01
3.591404049908786256e-01,-4.498380192996783711e-01,3.071359197759717663e-01,5.256308152623689195e-03,2.811355815729528473e-02,-6.861252710900394951e-03,7.859231829643249512e-01
3.018346993582733395e-01,-8.951451858131148631e-02,3.124501344882719689e-01,-2.014800841543019916e-02,9.028879407866364018e-03,5.505376471996229620e-03,3.987161219120025635e-01
2.040097627932740409e-01,-5.274056986896553667e-01,3.243896288868873268e-01,-4.338301145390950631e-02,2.718815763781465833e-01,5.091778174692266484e-02,9.341790676116943359e-01
3.277803907563930919e-01,-3.262738503930989742e-01,3.542636992517131933e-01,8.865078719084654862e-04,1.292731089459010383e-03,-2.486393426356452857e-02,6.690828204154968262e-01
4.311891405822392276e-01,-5.797992100883733180e-01,3.279749600886446848e-01,2.687155215725784904e-02,1.138324428938503885e-01,-2.674580801478236916e-02,9.856916666030883789e-01
3.615706639531588995e-01,-3.648919393615028262e-01,3.436387521201648143e-01,3.264932678177864117e-02,-6.013987576026376056e-03,-3.511301794366963793e-03,7.199903130531311035e-01
3.795985556920665749e-01,-4.319779767116065372e-01,3.530676968726946807e-01,-3.164945044519487227e-03,6.948335042984182981e-04,8.570940020885053163e-05,7.986614108085632324e-01
3.675406297788464394e-01,-3.817301823297088448e-01,3.460753892029181378e-01,-7.094762743186574898e-03,1.080797087088075301e-02,3.561625218603560721e-03,7.391371726989746094e-01
3.400695096767882841e-01,-4.621556565200073408e-01,3.828777754064759398e-01,-6.001695988655539847e-03,-2.701849831957709412e-03,1.339143065572201636e-03,8.245453238487243652e-01
2.656255948725245730e-01,-4.621853357266724194e-01,4.023987124514901148e-01,6.780838019126627335e-03,1.958792493326708822e-02,-1.832479520130575251e-03,8.057665228843688965e-01
3.418708637152000351e-01,-4.649939559515715581e-01,3.817818399245645478e-01,-8.870375189845982472e-03,1.024376357858148732e-03,-7.775653540156854567e-03,8.277965188026428223e-01
3.024426618349398410e-01,-3.001514469242917427e-01,3.485004123874202997e-01,7.360472024912606548e-02,-1.296879992670692261e-02,3.740075649199326585e-02,6.433887481689453125e-01
3.286344042232183793e-01,-2.048461299951569448e-01,3.172074586331709023e-01,4.138689526391283076e-03,9.229147194544802188e-03,-3.004255002071688427e-02,5.307075977325439453e-01
3.641004411406268959e-01,-4.674592837975278803e-01,3.823873744623347837e-01,1.239817741641289876e-02,-2.867783217859222467e-03,6.743640420017957011e-04,8.411419987678527832e-01
3.527848062709982302e-01,-4.106190375083292876e-01,3.683626448182473201e-01,-2.650848732158745443e-03,-1.062790587321215535e-02,-1.033843117541549325e-02,7.717518210411071777e-01
3.572754907251253775e-01,-1.387215444896198191e-01,3.115982130993828481e-01,4.769067886843483123e-02,-2.829055120400200685e-03,-6.487896143840318763e-02,4.948926568031311035e-01
3.716358548551880192e-01,-4.410770670917502079e-01,3.706978189203175567e-01,2.283631155057324474e-02,-2.201284510498079106e-02,4.644590581742684410e-02,8.180652260780334473e-01
3.300373751283117718e-01,-2.525889260586492990e-01,3.253102583451046859e-01,-4.570500166424298731e-03,-1.061547209578550359e-02,-1.163293715680412642e-02,5.809718966484069824e-01
3.261791568559433419e-01,-2.962620384094306059e-01,3.462885071406921478e-01,-2.571573985208222904e-02,7.262846804947363857e-03,-3.854295211222986961e-02,6.379287838935852051e-01
3.562947850510010950e-01,-4.056384247392150755e-01,3.644133521388677743e-01,9.331156360208654743e-03,-1.638003944108589946e-02,4.042247088300815125e-03,7.667523026466369629e-01
3.687468412127429818e-01,-4.587512420796233670e-01,3.335537402683250718e-01,-1.230108977834239517e-02,-1.551181631553864154e-02,-1.567901962229227954e-03,8.112043738365173340e-01
3.689098266719299524e-01,-4.549216727408570415e-01,2.903181376382397705e-01,1.514755365653475128e-02,-1.085362671517920395e-02,9.491202080772318320e-03,7.883151173591613770e-01
2.890955677170523042e-01,-4.492734492127071766e-01,3.508763860890289354e-01,8.103536786082388144e-03,-2.786395591345208061e-02,7.941578736938487149e-03,7.728765010833740234e-01
3.744246315639372935e-01,-4.562980352813971185e-01,2.963052876009996117e-01,-5.453452863016738927e-03,-1.154824561584022816e-02,4.486688911052509436e-03,7.948943376541137695e-01
3.713571784252969188e-01,-4.472425756213875836e-01,2.500103987640249770e-01,-1.525516514705177983e-03,-3.068255560353721351e-02,-1.061848277931689817e-03,7.670272588729858398e-01
3.657435740051715456e-01,-4.744097259848216730e-01,3.670349605766988765e-01,2.222834573507053834e-03,-2.709796314781981724e-03,-1.431237540735258570e-03,8.408253192901611328e-01
4.717912829611403680e-01,-4.630145594209511550e-02,3.953527242528919183e-01,5.481150440595384133e-04,4.091411430410070438e-02,-1.028664487452099832e-02,4.898988902568817139e-01
1.795456263676070696e-01,-4.586429637427211770e-01,4.406926916630254931e-01,-1.169363640799905325e-02,-6.924807565082454625e-03,1.185104977422171549e-04,8.016842603683471680e-01
3.765416476281732150e-01,-4.518532402564843231e-01,3.592366477823683013e-01,4.101626831100319351e-03,5.543075299789014532e-03,8.997805846757790183e-04,8.199678659439086914e-01
3.430585243089647740e-01,-4.639208771924838715e-01,3.771196377045752390e-01,-1.070352610477887968e-02,-6.545921736182727310e-03,5.231559268896544129e-04,8.248245716094970703e-01
3.573929860374573941e-01,-3.775601589835386185e-01,3.550251919817291046e-01,2.054427150645726785e-02,-1.341362787081622774e-03,1.505333914567488557e-04,7.346381545066833496e-01
3.756860347725643479e-01,-4.601262539175914323e-01,3.605324796437094914e-01,-1.964059080773939065e-04,-1.967951403451348620e-03,1.968536907846691816e-03,8.283535838127136230e-01
2.565842518166498998e-01,-4.588079112104540558e-01,3.828275084822286844e-01,-7.391916820007927991e-03,4.252621728704424064e-02,3.710739472779869732e-03,7.897261381149291992e-01
1.530031589932822067e-01,-4.892484029968171555e-01,4.876830674221218631e-01,9.936422267009486012e-03,-1.901981302681157726e-02,-1.153911275570255676e-02,8.609455823898315430e-01
3.714843713496391309e-01,-4.729558446789678960e-01,3.677369841562777575e-01,1.028951807944544598e-02,-3.295000508822726109e-04,-1.113924638367439499e-03,8.427636623382568359e-01
3.641520656284368274e-01,-4.731743005208610686e-01,3.638733901029085893e-01,-3.255713440941766530e-03,-5.564108958508836222e-04,2.606827236888116690e-03,8.372187614440917969e-01
2.973874072459926632e-01,-5.503212272964672636e-01,4.463850135993195911e-01,3.620169152347511854e-02,9.204131895186234980e-02,1.120260060323422131e-02,9.470162391662597656e-01
3.343684295662067152e-01,-3.511244854494991463e-01,3.636217866398696597e-01,-6.052384660937400358e-03,-1.214691026807637872e-03,-2.531946278132042333e-03,7.006731033325195312e-01
3.472823738746697031e-01,-4.471495150632185389e-01,2.905874460202151899e-01,-3.933495972618895539e-03,-1.808100074945656610e-02,-5.558479257794172578e-04,7.683255672454833984e-01
3.643403431956107608e-01,-4.203018284058245291e-01,3.640031851165753118e-01,-1.047801381248484286e-02,-1.381779852156413656e-03,2.777115964528963435e-02,7.861601114273071289e-01
3.201161122678309878e-01,-2.060135865560815960e-01,3.267977734246830801e-01,3.121457961201450776e-02,1.089925914857540167e-02,2.166973232728437726e-02,5.339107513427734375e-01
3.238146810977084455e-01,-2.312538362336628017e-01,3.287380155258778913e-01,2.176437162713057427e-02,1.238069707955935170e-02,4.174581972711643996e-03,5.592774748802185059e-01
3.650151454167236409e-01,-4.414028118386924548e-01,3.664677393408564132e-01,5.677465321368091672e-04,2.815732889614043499e-03,2.381390700181486297e-03,8.071711063385009766e-01
3.595025090008101554e-01,-4.713469301441157722e-01,3.630547812344503966e-01,-1.300286133022256945e-03,2.565304626942589011e-03,5.273671916778618039e-03,8.326962590217590332e-01
3.673314151514120995e-01,-4.702306679684640223e-01,3.658866700851416409e-01,-1.024563923723887130e-03,4.472388603906318934e-03,4.633049793748761683e-04,8.368787765502929688e-01
3.663463591452797985e-01,-4.739214911670842634e-01,3.715689344513514736e-01,2.876624094934132972e-03,4.020851219530786544e-03,1.478829123008833018e-03,8.429386615753173828e-01
3.652780865022455248e-01,-4.720570144354959696e-01,3.714281442205317196e-01,7.867573394087960066e-04,3.556056979043338735e-03,1.660411636346311240e-03,8.404555916786193848e-01
3.636921875447695629e-01,-4.656326665852549285e-01,3.668470378330390136e-01,4.420022024957003491e-03,3.100454922264899858e-04,2.127008274627508345e-03,8.309503793716430664e-01
3.645978722788654203e-01,-4.714890046880173546e-01,3.647573346044928888e-01,4.647730261740251091e-03,1.119183342364840844e-03,-1.574608130877323429e-03,8.362120389938354492e-01
3.621656842456246750e-01,-3.462134703807087099e-01,3.388397162036083099e-01,-2.375538721528968819e-02,1.680767687565735274e-02,-2.243249868017541462e-02,6.999082565307617188e-01
3.533618397206324535e-01,-3.721686295636327246e-01,3.544527547257357858e-01,-2.396043988838268343e-02,1.322038131470851599e-02,-2.806596241952742307e-02,7.292440533638000488e-01
3.486925681573150304e-01,-4.594145747662449208e-01,3.471054910214717015e-01,5.023906616337314376e-03,-6.460975815827140964e-03,3.417733719328954096e-03,8.074609041213989258e-01
3.681411491310047635e-01,-3.536877955328610046e-01,3.311967410046855465e-01,-1.887932527390460665e-03,-5.923633148328723633e-03,-3.551501387253120506e-03,7.041932940483093262e-01
3.604012322182932881e-01,-4.602852375878365709e-01,3.268470168584410307e-01,-9.052459426597665726e-03,3.251924239060542850e-03,5.772673405266225827e-03,8.046690225601196289e-01
3.657255912280782950e-01,-4.621745473194506237e-01,3.589068468520552613e-01,1.359970955121641775e-02,7.520691150841089107e-03,-1.989853544355851128e-02,8.256708383560180664e-01
2.927469473815024203e-01,-4.624319134598920966e-01,3.718194114277459938e-01,-2.658928996148927568e-02,4.528525504686001235e-02,1.508529472939371986e-02,8.032542467117309570e-01
3.172870370769512727e-01,-1.502095575278402650e-01,3.113059201702168544e-01,4.371543177484947529e-02,3.186455704237838981e-03,-1.869409463680471103e-02,4.718099832534790039e-01
3.286199414359832760e-01,-1.998260319020635500e-01,3.400844077573685897e-01,9.886562737892824748e-02,9.195232591209710760e-02,-3.234226292402984926e-02,5.858941078186035156e-01
3.320720226576356904e-01,-3.105445287753528794e-01,3.459584105194688508e-01,1.472580596199345691e-02,-1.480196869041880761e-02,-1.547540619308880941e-02,6.512286663055419922e-01
3.610598069495780660e-01,-4.725832063514722181e-01,3.543618686114236027e-01,6.415281140151778746e-04,-1.473647683585099788e-03,4.532339954014050730e-03,8.303560614585876465e-01
3.598209755336672644e-01,-4.721781486570952868e-01,3.629788190652779023e-01,6.381135551675532532e-04,-1.465884906117158933e-03,-3.941944581975325964e-04,8.335874080657958984e-01
3.634403414896087425e-01,-4.714086299058878327e-01,3.598339877634739725e-01,4.404588031124524912e-03,2.581850259951193067e-03,7.138324775393913501e-04,8.330994844436645508e-01
3.636479263819530350e-01,-4.734686787175564904e-01,3.642573089850747459e-01,2.021316680333828768e-03,3.568089539041019919e-04,2.478718696101890953e-03,8.374400138854980469e-01
3.639354097953305112e-01,-4.658810664885741915e-01,3.747106140205350711e-01,7.559081143756028395e-03,1.178374859368079564e-02,-3.580441921007684360e-03,8.356311321258544922e-01
3.678106289196800827e-01,-4.734859945252073432e-01,3.636989802067860378e-01,-2.339395176045211855e-04,1.104417070459522013e-03,1.716752611102041791e-03,8.392558693885803223e-01
3.747931302574906143e-01,-4.602754731420048984e-01,3.631784384429160850e-01,-4.350677882481565964e-03,1.383895130833722245e-02,-5.092521998527028450e-03,8.297497034072875977e-01
3.490751776438753007e-01,-4.654505220512635821e-01,3.524183828385959449e-01,7.531954810842435288e-03,-3.603687639955450994e-03,5.170925586338483669e-03,8.163796663284301758e-01
3.590951578561738522e-01,-4.296497677675160665e-01,3.726618473619796035e-01,1.879633331517223713e-05,-7.494983048588770361e-03,4.218740147325075220e-03,7.957544922828674316e-01
4.062088564585615291e-01,-5.171119056081032728e-01,1.791696725563075576e-01,-6.654766002535300595e-02,2.222608310486826610e-01,1.595317125915914347e-01,9.655436277389526367e-01
3.144937581600280030e-01,-4.901600321321258891e-01,3.700224989792837982e-01,1.177132624829011018e-03,1.225363366449908897e-01,-1.669165317894914400e-03,8.604013919830322266e-01
4.851983293029957789e-01,-8.058408093863657085e-01,2.417573162627502104e-01,6.082366523832166694e-02,2.677720277031347407e-01,1.781545659997354689e-02,1.280199170112609863e+00
3.807239124501509697e-01,-4.726632973433613216e-01,3.326039250692061078e-01,1.225571789363093939e-02,1.120775054166572512e-02,-8.857906329419448777e-03,8.310133218765258789e-01
5.003734214893702514e-01,-2.368712681192446934e-01,3.192215308163317000e-01,-7.343065550880985108e-03,9.636993336882390682e-02,3.881501914225647665e-02,6.894457936286926270e-01
3.801178909218319579e-01,-4.843817691352181320e-01,3.098089402299225026e-01,3.928723907974693112e-03,-2.831139188246600477e-03,-2.591421442561496133e-02,8.328300714492797852e-01
3.804970518020601156e-01,-4.582074843748817905e-01,3.603399725588180003e-01,1.746432282646868169e-03,2.812297222552163391e-03,7.547567089619608427e-04,8.288307189941406250e-01
3.654442580622341286e-01,-4.698849853059343662e-01,3.659100766699114882e-01,-2.246528045143338093e-03,2.942312741636893270e-03,4.962093432989855661e-03,8.356310725212097168e-01
3.766925792557563324e-01,-4.684795464885388450e-01,3.632759001781445951e-01,-3.026792408864722398e-03,2.054911428512223078e-03,3.023341101599020999e-03,8.385846018791198730e-01
3.751101447616902451e-01,-4.653359472117107876e-01,3.635750577364091907e-01,9.466945604557620809e-04,4.151165096173145899e-03,7.940222354286111985e-04,8.347720503807067871e-01
3.545170542186628082e-01,-4.698542145096000766e-01,3.534409897553616453e-01,7.936098753771148734e-03,8.339836988168054105e-03,-1.077872902850304446e-02,8.242864608764648438e-01
3.714181048224187154e-01,-4.656211617681366155e-01,3.650869618695498642e-01,3.760382773238724833e-03,-2.611480117431499848e-05,4.156847741261086339e-03,8.339482545852661133e-01
3.684592759461425282e-01,-4.051887048372038169e-01,3.511513497736826750e-01,-1.163407450786320581e-02,1.049732295711387244e-02,2.707804934307299783e-03,7.656364440917968750e-01
3.955030075902686848e-01,-4.648857893079606507e-01,3.166626661080148564e-01,1.600216592139823077e-03,2.787173461636669532e-04,9.748530938049974545e-03,8.239808082580566406e-01
3.294588372787403685e-01,-2.401705588928442214e-01,3.820745189442995571e-01,7.393214668066014350e-02,-1.306083751962882344e-01,1.026480109856394915e-02,6.520023941993713379e-01
3.593738913031299109e-01,-2.684720204999566096e-01,1.992856096732439353e-01,7.623982999101321101e-02,-1.341027983271967650e-01,7.368448040461511583e-02,6.379532814025878906e-01
4.087073316005571666e-01,-4.611003875799095653e-01,2.271859038503518946e-01,-3.387190528105259927e-04,-6.296145030607967069e-03,-3.187220756443009083e-03,7.948436737060546875e-01
3.987263531394926730e-01,-4.586898344508192338e-01,2.870542453057912669e-01,9.600326799574300171e-03,-3.159841020450611729e-03,1.566986741810364597e-02,8.080388307571411133e-01
3.453275892023248139e-01,-4.037237369703897683e-01,4.000311722088653599e-01,1.173465248339014139e-01,4.536140383703667067e-03,2.013461080480026880e-02,8.047575354576110840e-01
4.044782110173039680e-01,-4.464420194014587229e-01,1.517589390099610969e-01,6.503977274029924815e-03,1.759442000398015182e-01,-2.569527413631615687e-02,8.172301054000854492e-01
5.669912630567133238e-01,-7.317905355392864131e-01,1.137549920011701188e-01,1.095853647811567133e-01,8.218727329882913324e-02,-6.385626828489143758e-02,1.171377897262573242e+00
4.227937014112632119e-01,-4.664301271851721831e-01,2.459356449243317866e-01,-1.271249360555850617e-02,-1.096109789581537451e-02,7.942057002984503900e-03,8.159447908401489258e-01
5.568106940264490046e-01,-5.526883606788983716e-01,2.534247353816222736e-02,-3.777453775520104792e-03,9.262586396020799917e-02,7.643750735909859984e-02,9.834086894989013672e-01
3.205756558307676363e-01,-1.938872019068504926e-03,3.454372715839044705e-01,-2.458872908333721921e-02,1.325282294932868601e-02,-4.526880754459164380e-02,3.480524122714996338e-01
3.104620822870028940e-01,-4.466282371617971148e-01,3.481851470643648749e-01,-1.128272168122009152e-02,-3.547755038829217972e-02,-9.762376234961333069e-03,7.794949412345886230e-01
4.012358462194221542e-01,-4.747550765383091731e-01,2.882937767211543045e-01,1.089890512295176592e-03,-4.352658311202731688e-03,1.153141733994299603e-02,8.256143927574157715e-01
3.989886755385192441e-01,-4.527786614536485343e-01,2.566038722552236306e-01,4.626214248463240454e-03,-7.330811349251705258e-03,-2.367103876049352160e-03,7.904078364372253418e-01
4.220929188183197844e-01,-4.599637802614994220e-01,1.244038164272456698e-01,3.070320320915153126e-02,-2.222664146925933948e-01,1.152150042609995928e-01,8.915843963623046875e-01
5.042148613265160506e-01,-8.741805277465531931e-01,3.202109569193897776e-01,6.845081691576826444e-02,-2.959299066216092289e-01,3.207682128073720274e-02,1.400024294853210449e+00
2.244315639138584062e-01,-5.337898158269969162e-01,3.045876038768102756e-01,3.808734102437023178e-02,-2.786286173935479393e-01,4.632160426272500381e-02,9.411649107933044434e-01
3.947289176013392686e-01,-4.681344001984800718e-01,3.454225920993460597e-01,-7.210095999693382027e-04,-2.079308169039973536e-02,-3.290302027464894665e-03,8.400896787643432617e-01
3.702470939946339024e-01,-4.465796838256013146e-01,2.730441191011507840e-01,5.596741035376002170e-03,-1.244941464933269071e-02,5.991489417792055308e-03,7.732548117637634277e-01
4.223118163840920980e-01,-4.633589718662474155e-01,2.265185806220041398e-01,-1.224710027972155009e-02,-6.461784720374940186e-03,-2.058803950102424188e-02,8.069611191749572754e-01
5.590896058002151614e-01,-5.915579819168613751e-01,7.669291501885458495e-02,4.304441326315273236e-02,-8.838048855856242905e-03,-6.618270376524740262e-02,1.010228276252746582e+00
5.398363411693760661e-01,-4.627689749200981639e-01,1.382522284403648605e-01,2.737524570259499898e-02,1.526829982711541411e-01,-3.504182834801258112e-02,9.163652062416076660e-01
4.704852788192100954e-01,-3.522480950514033093e-01,1.140102891917647576e-01,-8.349355616184418738e-03,-5.668602679707795966e-02,-1.420873982905279664e-01,7.622967362403869629e-01
4.135321953940273576e-01,-4.559541345986511951e-01,2.158472148907364940e-01,-3.346582890204933495e-03,5.474372351260951841e-02,1.601351902020925477e-02,7.956098318099975586e-01
3.224776873609477290e-01,-1.049217539030903312e-01,3.282221936157382891e-01,1.468536483017561511e-02,-1.056811031009696582e-02,-3.497594493742382793e-02,4.356724321842193604e-01
4.409839386212734968e-01,-4.612397428312651204e-01,1.468110443937375997e-01,-5.420058823161303177e-03,2.719723810010028775e-02,2.096409316009117951e-02,7.992253899574279785e-01
4.493746406388726133e-01,-3.837788186757939979e-01,2.797004794970482378e-01,1.864034184203944983e-02,1.563563652985120456e-01,-6.086774019038241473e-02,8.167425394058227539e-01
3.072118778501340408e-01,-7.262147257739526296e-02,5.676304079989620277e-01,-2.675727945111152153e-02,2.301357930903051227e-03,-5.460474821604869439e-02,5.675522685050964355e-01
4.312010291198136169e-01,-5.479319707565795117e-01,1.518005009662545812e-01,4.258729602186201585e-02,-1.511264431369253591e-01,8.691839391250587299e-03,9.150853157043457031e-01
3.716263287283572692e-01,-4.450339093920608891e-01,3.459549829483458128e-01,-1.030087655257726394e-03,-2.047165661852223123e-02,2.379454174877611988e-02,8.059697151184082031e-01
3.604712338581303466e-01,-3.893004889832919480e-01,3.688239997438875761e-01,-1.774723948627102837e-02,7.906346456649292892e-03,-1.791144634981407802e-02,7.553707361221313477e-01
3.127453228624952342e-01,-4.612073223649577614e-01,3.680113781061598588e-01,7.324908366424427893e-03,6.596054569032980958e-03,-1.352633751554679908e-02,8.035363554954528809e-01
3.067195679752675597e-01,-4.513967326664810598e-01,3.513979480284074586e-01,-1.345291018232832973e-03,2.116207417494981452e-02,-9.670739510928734461e-03,7.824559807777404785e-01
2.190460831436918387e-01,-4.652716136904215816e-01,4.260987399589110103e-01,2.006564092098818419e-02,6.054617117870116430e-03,-5.541792290635649473e-03,8.088642358779907227e-01
3.520272457103722497e-01,-4.678275589885881880e-01,3.543605356903052894e-01,4.835920675266052772e-03,4.367746454022653933e-04,-6.726045058503605546e-03,8.211496472358703613e-01
3.265610357934289332e-01,-4.596900848098284253e-01,3.551467917331888602e-01,1.264668665056864830e-02,9.256595345483838860e-03,-1.540327712408289321e-02,8.018305301666259766e-01
3.840845672604157879e-01,-4.584316987526255716e-01,2.678220938430869169e-01,1.179458090179796685e-02,2.336712254037808661e-02,-1.843787168017940389e-02,7.927628159523010254e-01
8.686038434479083359e-02,-5.247995770607486454e-01,5.343552532453296200e-01,3.186058448559031531e-02,9.021566730752653140e-02,2.980777530261515679e-02,9.371348023414611816e-01
3.292858169905545918e-01,-4.429772514937814210e-01,3.217133410064915156e-01,-6.576647281731314628e-04,1.098121826243842782e-02,-1.572187131471541400e-03,7.687458395957946777e-01
3.803716198532240966e-01,-4.502539609250544306e-01,2.653520342824222666e-01,4.470549435517846490e-03,2.621177470640972257e-02,-8.056173876880286938e-03,7.809903621673583984e-01
2.596981453032083942e-01,-4.650725819262441219e-01,3.696236393645691565e-01,-1.445975140406307625e-02,7.422150293987130054e-02,1.998241594493641721e-02,7.971189618110656738e-01
3.662923948139964470e-01,-4.480060376497718710e-01,3.653563401348403072e-01,-9.475908000889807226e-03,-8.776653334870607517e-03,5.096601682816985328e-03,8.141860961914062500e-01
3.883062827971786035e-01,-2.982465119128634434e-01,3.358678491989308679e-01,-2.644821519465274592e-02,-1.603518243691884337e-01,-7.278722875345500221e-02,7.302283048629760742e-01
3.638973095019242265e-01,-3.532529282532512194e-01,3.354355775382330540e-01,2.313342724673587980e-03,3.933641218888638859e-03,7.304310216046098385e-04,7.033969759941101074e-01
3.958737134593524609e-01,-5.208067235079574253e-01,2.247868070719290789e-01,-1.072824460587617698e-02,-2.036180597304997897e-01,1.482742026492961905e-02,9.154930710792541504e-01
3.632061762763689750e-01,-4.065720005063035991e-01,3.637660878572492873e-01,-2.765568112364668457e-02,8.120327377628886595e-03,-1.093157701073404695e-02,7.719070911407470703e-01
3.113212244849796750e-01,-2.470519294864052529e-01,2.966687997090653450e-01,-8.665682998487865552e-02,-1.013131472841163894e-01,-3.773937676967135252e-02,6.011720299720764160e-01
3.533023179280206927e-01,-3.670580215330367935e-01,3.501692776580880850e-01,-3.469234037202108267e-02,-1.041156119820797754e-02,-8.775400303514285794e-03,7.216916084289550781e-01
3.265004897655765514e-01,-2.115642700359417483e-01,3.227746230381772774e-01,-7.411494784579680806e-02,-1.070399263376622771e-02,-8.040803517868906625e-02,5.689832568168640137e-01
3.360083614563556531e-01,-4.266811003394858082e-01,4.042561124099598446e-01,-8.036025263355678350e-02,-2.139658141964259977e-02,-6.335035398418960295e-02,8.192626833915710449e-01
3.639823908542399455e-01,-4.556488883754666874e-01,3.652397490774212385e-01,2.734343329811279389e-04,-6.493761100496896199e-03,-4.369583759608007371e-03,8.203728199005126953e-01
3.705223835723313042e-01,-4.644925697555032373e-01,3.333610669881040267e-01,-5.276927232552007865e-03,-3.505280224175731305e-03,5.415508690150042451e-03,8.171958327293395996e-01
3.655430016384180747e-01,-4.672265595181512854e-01,3.495611662527243757e-01,-4.642996246145027033e-03,-2.152300091329004475e-02,1.528585157424813303e-02,8.262001872062683105e-01
3.296414299658182445e-01,-2.566266688454934553e-01,3.720930796027300813e-01,-2.472773993183945834e-02,-9.898318883850964339e-03,-2.173551757954371791e-02,6.115112900733947754e-01
4.282648271066887835e-01,-3.154610195578202436e-01,2.592474586738477416e-01,4.372084005890734121e-02,-1.661166681358761665e-01,4.255667554058004121e-02,7.415823936462402344e-01
3.661695787461698992e-01,-4.442258071995675017e-01,3.776542585484626846e-01,1.169194250156252272e-02,-5.347470398485596951e-03,-1.842533195146303301e-02,8.171254992485046387e-01
3.855478739763859020e-01,-4.674375080285834150e-01,3.426383977777394119e-01,-4.775809254097848448e-03,-1.602569194206456341e-03,-9.697749885824691676e-03,8.325757384300231934e-01
4.388777423779220421e-01,-4.788185226952299534e-01,2.229897978404202230e-01,2.036116698261244626e-02,-1.270164515136128491e-01,-5.352368842029589860e-03,8.604555130004882812e-01
3.668680523297499496e-01,-5.314419659914497718e-01,3.421640243543483950e-01,-1.351886166543696428e-03,-6.436565793117997314e-02,-3.518465913409848933e-02,8.952806591987609863e-01
4.348894412243280994e-01,-5.240937805319931808e-01,2.060636595245372016e-01,4.187091658278654233e-02,-1.277515165959779153e-01,1.511402082690941340e-01,9.355858564376831055e-01
3.622943689654231081e-01,-4.664751668032682819e-01,2.898254567456977626e-01,-8.187474690792694021e-03,7.044995709428410191e-02,2.382979069518841725e-02,8.055090904235839844e-01
3.407030563828576941e-01,-4.610677173599624368e-01,2.566683023891337401e-01,-8.437150977864781021e-02,1.918039225321673813e-01,6.626922494599582492e-02,8.528882265090942383e-01
3.691559562791711935e-01,-4.550928324314506002e-01,2.944109146579835246e-01,-1.113102617409757536e-02,7.311370849910131184e-03,1.020909146588535286e-02,7.900690436363220215e-01
3.096512078115465361e-01,-4.447693476260033973e-01,3.406199154837344922e-01,4.918128320644940196e-04,4.561038441661259546e-03,3.209499249881729663e-03,7.704329490661621094e-01
5.740682282065808772e-01,-7.433020873480580271e-01,1.357413824121561641e-01,5.499672628475503477e-02,1.943517559101030634e-01,1.684274181970783768e-02,1.213836431503295898e+00
4.510242028555380145e-01,-5.602997987369616739e-01,1.227582271078300619e-01,-1.868250775181116291e-02,2.139681236943607456e-01,6.757740301678991091e-02,9.750106930732727051e-01
3.043721273815056527e-01,-1.484474472204906914e-01,3.047279512645888477e-01,-3.261572424158019901e-02,3.892122699898879767e-03,-2.130071956228096405e-02,4.580445289611816406e-01
3.636588435406333808e-01,-5.705574875172835236e-01,2.812171136277893391e-01,-1.675058009941018944e-01,1.743670006540297690e-01,7.649345025924600416e-02,9.977365732192993164e-01
2.773912000986015758e-01,-7.383717136646096302e-01,3.560626275133068064e-01,-1.850372788443068461e-01,3.104648051903696748e-01,1.714604249093754085e-01,1.264101505279541016e+00
3.621856242637177536e-01,-4.480912272168683375e-01,3.754196969138780537e-01,2.070999107153569021e-03,1.116927460793412652e-02,-3.408787597793470469e-03,8.172324895858764648e-01
3.592185041178555527e-01,-4.581193706030243229e-01,3.768500813166866803e-01,-3.040883671288724562e-03,3.587352308495984216e-03,3.938078342690086615e-03,8.263630867004394531e-01
3.979883224581668988e-01,-4.711289887904449580e-01,2.802762633245993174e-01,-4.268241190150403978e-03,2.642935983023298949e-03,-2.347557550513287503e-02,8.177067637443542480e-01
3.793762505167383448e-01,-4.394190303435824285e-01,3.392854379627504580e-01,-4.086501569561773808e-03,-2.997616835979238087e-02,3.868161107362091608e-04,8.012197613716125488e-01
3.544500485300994264e-01,-4.434706809629708202e-01,3.781819570696740018e-01,1.209593676472052058e-06,1.764105651269915354e-03,-8.973802941900789476e-03,8.102023005485534668e-01
3.668844074176846881e-01,-4.602274590427670731e-01,3.725207249676700250e-01,-1.522211465649238446e-03,-3.174773819829044370e-04,3.170384861417306459e-03,8.299669027328491211e-01
3.634480607736800262e-01,-4.603071222787548100e-01,3.785552834481870632e-01,9.082391545688477683e-04,-7.361013620824973045e-04,-2.991843145322181045e-03,8.314303755760192871e-01
3.575117990852900163e-01,-4.427263523691667979e-01,3.797311230103432855e-01,2.685838790721192695e-04,-1.625344543139463881e-03,-9.826975859763879828e-03,8.117594718933105469e-01
3.606922469787258723e-01,-4.581047758347778220e-01,3.795789365955236083e-01,-9.956555841644401487e-04,-2.703349905158717367e-03,1.521191780230035174e-03,8.284210562705993652e-01
4.083872420026746775e-01,-4.734341913956696679e-01,2.846309360830659996e-01,-4.391699710295134985e-03,-6.369813674942015683e-03,-1.982437641803085071e-02,8.277392983436584473e-01
3.746142531764562467e-01,-4.658794852578359569e-01,3.662984722351647071e-01,4.126211869206627969e-03,-2.326101762524490288e-03,-6.287152026933405004e-03,8.364779949188232422e-01
3.604688105164511880e-01,-4.629104254844051969e-01,3.793355121709900413e-01,-2.066333114943198247e-03,-1.172867558004358829e-03,-3.249065246513169886e-03,8.330020308494567871e-01
3.327753003115327957e-01,-2.696960325095498767e-01,3.261212068919602802e-01,3.665455761605253011e-03,9.824355559523274828e-03,-2.060091826789657576e-02,6.005082130432128906e-01
3.399845139909190017e-01,-3.771903620851952965e-01,3.668067059167890998e-01,-6.932916956888837386e-04,-5.386119565037700632e-03,-1.825603838616818644e-02,7.316992282867431641e-01
3.907356374095170004e-01,-5.129782335653221281e-01,3.718913026947156530e-01,-1.994755822297433062e-02,-4.250933447141180127e-02,3.481526430072187043e-03,8.981509804725646973e-01
3.591389473267104226e-01,-4.380023582403609339e-01,3.930262374619561960e-01,-3.336601220131445861e-02,-2.722565121151637041e-02,-5.507327238733294994e-02,8.235644102096557617e-01
3.524713098370487740e-01,-3.344490354253507602e-01,3.533149620750007935e-01,-7.640976919577302170e-03,-2.970340381940275330e-04,-2.697560171782946090e-02,6.890560388565063477e-01
3.588442952823949206e-01,-4.082728771974974968e-01,3.650480118027272791e-01,-1.227277422456223184e-02,1.728458310231871520e-02,3.860918700923716713e-03,7.711414098739624023e-01
3.757697420762730056e-01,-4.278204611124606371e-01,3.524583273058024546e-01,1.127025636644180331e-02,5.511343301395554492e-03,2.585871415949775494e-03,7.925024032592773438e-01
3.237080288564014863e-01,-4.653063515005786410e-01,3.876491120680788938e-01,7.703496023171776778e-03,-4.318875783084600867e-04,-2.480677965682660281e-04,8.229588866233825684e-01
1.568694468107940110e-01,-2.998109755696144463e-01,4.034340137741841414e-01,7.015731440241854133e-02,1.399721746800484945e-01,-6.777941184915090012e-02,6.850381493568420410e-01
3.422445329881756981e-01,-4.601557837082712599e-01,3.436446861830703137e-01,-1.781483965042062259e-03,-1.076274154350056154e-02,-5.211695123154464621e-03,8.033742904663085938e-01
3.724422086377645602e-01,-5.419075870637726222e-01,2.835528946422923857e-01,9.211977753944063096e-02,-1.664907291995709193e-01,1.156905702443493805e-01,9.546881914138793945e-01
3.739021016727953617e-01,-4.565876384668819954e-01,3.618184709442230362e-01,2.348732644983182044e-02,9.301654218762151968e-03,4.246299980710283722e-02,8.289437294006347656e-01
3.497435329631155554e-01,-4.687318329964511587e-01,3.592486563030906632e-01,-8.071392198808390039e-03,-3.448242739120657707e-03,-8.604109883286571031e-03,8.235442638397216797e-01
3.928726777078100918e-01,-4.831279270332985432e-01,3.491868176736044327e-01,-1.794255852850415098e-02,-8.313421817687134674e-03,1.379513050917140476e-03,8.556842207908630371e-01
3.633938909740159207e-01,-4.719106605624591166e-01,3.784339635433427440e-01,-6.486521413419110878e-03,3.500323305855653801e-03,1.880049081357546524e-03,8.430281877517700195e-01
3.457861172032179464e-01,-2.364893040206139663e-01,3.390502343441901267e-01,5.709577724607578508e-02,-7.479226012975752694e-03,5.484176206854182029e-02,5.950952768325805664e-01
2.548101668416407617e-01,-3.843774730827993480e-01,4.541872181797451113e-01,-9.898291515329230711e-03,1.344764299815776054e-01,-1.014639572278199786e-01,8.131309151649475098e-01
4.049966421414685214e-01,-4.849450421071410666e-01,2.652577993131534084e-01,2.594059491207396928e-02,8.617294420561784352e-02,-3.227428496891336651e-02,8.453311324119567871e-01
2.412235741997171279e-01,-6.340394585439617092e-01,4.787723096275523504e-01,5.954236590730110218e-02,2.441121625903719949e-01,3.656105846338188886e-02,1.106277823448181152e+00
4.127265819178945194e-01,-4.505945107908195801e-01,2.680794965064422497e-01,2.191714240134719910e-02,1.989314308924407596e-02,-1.815356739229496974e-02,8.031103014945983887e-01
2.993800816334913906e-01,-1.443520950648675694e-01,3.082383340234888247e-01,-2.387210705281440221e-02,3.471726971117159409e-03,-3.117732829319196791e-02,4.533974826335906982e-01
2.740970784641464375e-01,-4.588403973818705461e-01,3.858446114179933661e-01,5.734523978424292592e-04,5.497140097192768082e-02,-2.113791417019925979e-04,8.004095554351806641e-01
3.658036985954642994e-01,-4.687359530661455720e-01,3.707074305609485143e-01,3.611423980892546765e-03,-7.413099021378615275e-03,-1.611960497406125575e-03,8.371288180351257324e-01
3.673624729121306443e-01,-4.451919895180879161e-01,3.749686908002545782e-01,-5.915974415677310166e-02,6.442666204870613200e-02,2.789930491888170314e-02,8.317272663116455078e-01
3.247017170396100383e-01,-4.557988714931650032e-01,3.565698517075782670e-01,9.733856396233099215e-03,9.575252299858829849e-03,-9.876633877868506300e-03,7.974470257759094238e-01
3.237430888169692822e-01,-4.789005401639971904e-01,3.985791106755152136e-01,4.581346942781859555e-03,1.235445996195398037e-03,1.374098363800721131e-02,8.429340720176696777e-01
1.445734148442384681e-01,-5.564712416845318810e-01,5.616474225243914820e-01,4.928483872371793723e-02,-1.552106811029918716e-03,-5.181344529999015215e-03,9.824340343475341797e-01
3.120956649844712771e-01,-4.648773831608341567e-01,3.733984742092827935e-01,9.210542122357286143e-03,7.881631253187637576e-03,-9.988989486508302595e-03,8.098246455192565918e-01
3.615366559449350037e-01,-4.702669578099460956e-01,3.695514117776447227e-01,-2.633624110694313299e-03,-7.325474752579403531e-03,-1.261029414339554953e-03,8.359513878822326660e-01
2.971220288108417651e-01,-1.602174017047366394e-01,3.047635711149171422e-01,2.240461353782620402e-03,1.125887276058048364e-02,2.546703073639518516e-03,4.616571664810180664e-01
3.430602810601898200e-01,-4.520609496182917963e-01,3.358569743955002740e-01,2.142138143579826225e-04,3.767408449007541085e-03,1.079818444831219786e-03,7.915733456611633301e-01
3.055005732877720814e-01,-4.443818146446869566e-01,3.422855105841745571e-01,-2.436070373279410181e-04,4.312286513887365891e-02,3.396525464091412500e-03,7.725766301155090332e-01
3.502836947583768956e-01,-4.638427241012405000e-01,3.442177943554750041e-01,1.755083062457622300e-04,-2.549537337838275308e-03,1.331034760380835481e-04,8.111225962638854980e-01
3.316747310395057324e-01,-4.530406808256185469e-01,3.375921379416666479e-01,-6.620417341390886883e-03,3.258709925034701006e-03,1.075414519744606525e-03,7.877966761589050293e-01
3.636221807411973983e-01,-4.433205822023854603e-01,3.578798603337220996e-01,4.334571557098793743e-02,2.593122660087399112e-02,-6.544070200983666263e-02,8.167356848716735840e-01
3.720211562594873955e-01,-4.635537886758462900e-01,3.424093905469217658e-01,8.760223539920508617e-03,1.509900038122554051e-04,-7.020258606901491442e-03,8.213998079299926758e-01
3.667572020277365397e-01,-4.680619304073310172e-01,3.476390242701164479e-01,1.053879997242027772e-02,2.010175069960067583e-03,-6.972943351317734996e-03,8.257235884666442871e-01
3.615287249584059337e-01,-4.547443184805396443e-01,3.176295710910059245e-01,8.196900074572344846e-03,1.097328493935965411e-02,4.569855084163613416e-04,7.955869436264038086e-01
3.741191570174164371e-01,-4.636976360547548914e-01,3.401829524746137201e-01,6.932816975183368584e-03,2.130252749375292735e-03,-6.077405597178038056e-03,8.215381503105163574e-01
3.534152795279212889e-01,-4.126928665324711698e-01,3.685793718897049098e-01,-2.287344890983969078e-03,-1.094591685135191950e-02,1.995507145724542339e-03,7.740517258644104004e-01
3.632603144120469807e-01,-4.549504669357855580e-01,3.772826576908180352e-01,2.513683104301823426e-04,-1.070759846486169647e-02,-3.141391087727996630e-03,8.255376815795898438e-01
2.510155383865058099e-01,-5.626729070247400433e-01,4.446889569738046166e-01,7.563304938704180913e-02,-2.643514885146682758e-01,-3.894299280456683249e-02,1.043333053588867188e+00
3.874350215162794542e-01,-4.983441177110793374e-01,3.677604596915644009e-01,-2.365011618545793948e-02,-4.484741838680331161e-02,2.071392415716358498e-03,8.805050849914550781e-01
3.527297051655604032e-01,-4.585457429127932638e-01,3.426940309652687366e-01,9.118514230204481652e-03,-1.338525885083647129e-02,3.634991502692681061e-03,8.068168759346008301e-01
3.502311656961133446e-01,-4.993864202085351867e-01,2.881809670836907311e-01,1.681282736339776221e-02,-1.624826325857937348e-01,1.671419586882001013e-02,8.682564496994018555e-01
3.930629685189750422e-01,-4.906688644127986665e-01,3.123307421621348556e-01,1.285152383930929058e-02,-2.683695730425437326e-02,1.449819027961450450e-02,8.481985330581665039e-01
3.781389291950429388e-01,-4.669702614332336132e-01,3.122999953058569478e-01,9.778330041197665079e-03,-1.396094366118746238e-02,1.959914415338716298e-02,8.154306411743164062e-01
3.730062583152384814e-01,-4.678512266564169853e-01,3.322203330182167402e-01,6.243537487354343038e-03,-1.019202092711501105e-02,-4.941571867482416267e-03,8.215299844741821289e-01
3.439811265382031746e-01,-4.474327434847545915e-01,2.997520468949939065e-01,-3.570595418489542257e-03,-2.060749815806507332e-02,-3.897092928859440322e-03,7.711332440376281738e-01
3.224283673649366855e-01,-4.535110478627709663e-01,3.579037877603168383e-01,-8.161237066392712514e-03,-2.446543215105038971e-02,-1.156617933746703804e-02,7.957789301872253418e-01
3.418501681370614276e-01,-4.766025735258495599e-01,3.559003129019461809e-01,1.632106626962780138e-02,-5.109771579480629211e-02,-1.520995553765837859e-02,8.311966061592102051e-01
2.538203030398956672e-01,-4.585139248728676842e-01,3.961091031127196849e-01,-1.963297902770871212e-02,8.610479892832065968e-03,1.046499138226698877e-02,7.941855192184448242e-01
3.372667965335461315e-01,-4.582484707389155032e-01,3.371197075780464902e-01,-5.935558927148086236e-03,-9.108332586898014796e-03,-2.978676981893298853e-03,7.956812977790832520e-01
3.673647808008912441e-01,-4.618035969608721425e-01,3.179860844659899710e-01,-1.347132613780026300e-02,-6.108514412174484431e-03,-1.079514138955534053e-02,8.062388896942138672e-01
3.815980989977575399e-01,-4.567862760199477012e-01,2.869170242821224015e-01,-7.788656826730238660e-03,-8.451906082266452680e-03,3.123257930509833191e-03,7.955496907234191895e-01
2.184043145857759161e-01,-4.495374048285585289e-01,4.060972811167932184e-01,1.003710204966202016e-02,1.108982546636527212e-02,-2.361443843804079766e-05,7.793676257133483887e-01
2.331571397511718879e-01,-4.498940021028807745e-01,3.790729222464109260e-01,-4.219048626033459863e-03,5.239504060480859593e-02,2.915126383806876994e-03,7.719020843505859375e-01
2.928569215584287400e-01,-4.492679579671752244e-01,3.668634040427681264e-01,5.331163769341047340e-03,8.452982105828081918e-03,-8.210208972679104017e-03,7.820807099342346191e-01
2.196522829526238729e-01,-4.607030042192760133e-01,3.935404470967925339e-01,4.629182303882801650e-04,7.540306438102235831e-02,3.670506994735931675e-03,7.927951216697692871e-01
1.840269941620991667e-01,-6.073700844841980473e-01,4.405356368532186706e-01,7.251128347276843134e-02,2.274136856270437268e-01,-4.904009085521802980e-02,1.035975694656372070e+00
3.336225803285381986e-01,-4.657263600765916278e-01,3.789014991140810529e-01,-9.010183187236500343e-03,3.110538616001336243e-03,3.427285360529264396e-03,8.231101632118225098e-01
2.790801204169160998e-01,-4.482494275221871050e-01,3.687711612981553477e-01,-4.631448784705228562e-03,6.114917411392983837e-02,2.574152977702165446e-03,7.833195924758911133e-01
8.442814476576798732e-03,-5.521418713949686197e-01,5.602682885276459857e-01,-3.268106062170535175e-02,3.615506741207994562e-02,6.271968680225901809e-03,9.671376347541809082e-01
3.422323042760206935e-01,-4.618270336796244102e-01,3.601384382234774084e-01,4.080299243263741955e-04,-1.276021639457039416e-03,-1.142202410058232309e-02,8.134042024612426758e-01
5.950353511693265984e-01,-7.896297282433685227e-01,9.991097209071178598e-02,-2.893616498379123977e-02,1.891378656763371691e-01,1.551392111040731103e-01,1.287982940673828125e+00
2.416560567573327600e-01,-4.543171414344576720e-01,4.086095131197926555e-01,1.857975102301018602e-02,4.911721175651859173e-02,-1.138778620126668605e-02,7.981913685798645020e-01
3.948406336832165908e-01,-2.251629383247200078e-01,1.621033709953015323e-01,-1.962902988402811730e-02,-8.348524541799945409e-02,8.674944502483143693e-02,5.821638703346252441e-01
4.035601130904182265e-01,-4.809340775735829743e-01,3.724342802567479627e-01,1.988417524494839189e-02,-4.584330667656888458e-02,2.199920092390163923e-02,8.744775652885437012e-01
3.867462412440483277e-01,-4.546762171142958442e-01,3.273842120456775806e-01,3.797914909212118137e-04,1.650498360980930882e-04,9.969489340885583431e-03,8.135513067245483398e-01
5.667998707152008819e-01,-4.557647401792792596e-01,1.136818009214090874e-01,3.418216704277306922e-02,-1.848440249939742874e-01,7.244916958074243407e-02,9.536066651344299316e-01
1.582219685941683163e-01,-4.567454245225108789e-01,4.593954510957762860e-01,-1.725012086770343067e-02,6.131799538094616364e-02,-1.338263083947946464e-02,8.165855407714843750e-01
3.450487372827711896e-01,-4.653969444036749614e-01,3.663288698279523747e-01,6.225012123773202878e-03,-2.280782445212731126e-03,8.998410501307761017e-03,8.215206861495971680e-01
3.427072864601078406e-01,-4.475231906990123631e-01,3.760325560091906660e-01,-1.510330881872143025e-02,-2.364682938282189339e-02,7.439292921662023737e-03,8.089730143547058105e-01
2.869458952220973469e-01,-4.446825847709181545e-01,3.383492054032578022e-01,1.260042068435495398e-03,-2.441914144256988189e-02,1.720729636334756424e-03,7.598244547843933105e-01
3.687089751086299882e-01,-4.658923689961811387e-01,3.776927683040098849e-01,-2.567137285355583845e-02,-1.217476614298074883e-02,5.694009988154488666e-03,8.406289219856262207e-01
3.165477216245710657e-01,-4.566161198632298079e-01,3.428627436684580365e-01,2.086738524701526112e-02,8.012430142778784181e-02,-1.349036394730750849e-02,7.999579310417175293e-01
4.943624120885844464e-01,-5.559394577505282209e-01,2.131104800617036332e-01,1.789792410258540453e-02,9.357391173209092528e-02,3.351353504983441145e-02,9.578287601470947266e-01
3.183130402559654071e-01,-4.753663652205807333e-01,3.245950170820409708e-01,2.429062868599102427e-03,9.232211315219501779e-02,1.011923865875702377e-02,8.129251599311828613e-01
3.618583243353048484e-01,-4.720591545399187572e-01,3.620674241457738640e-01,-1.983710878923468368e-03,7.104891481877883413e-04,-2.213066153066442845e-03,8.340388536453247070e-01
2.640258373132329250e-01,-4.749683806582964962e-01,3.956442537646944757e-01,-3.844604520850895997e-03,-1.053579876218535549e-01,1.202249088537492121e-02,8.333546519279479980e-01
2.744761111460852221e-01,-4.606517200642529231e-01,4.004366352704561427e-01,-4.724079436655549344e-03,-9.138371681037394181e-03,3.719218983855849484e-03,8.057512044906616211e-01
3.749631503269776900e-01,-4.082001555061636200e-01,3.437391085657169887e-01,-5.977131710474307968e-03,2.173565653481036777e-03,-3.062936067376502425e-03,7.681247591972351074e-01
3.203557297883476984e-01,-3.282696356871425691e-01,3.821392544456500562e-01,-8.810437513752285288e-02,1.153202175268473462e-01,-6.730119153933166246e-03,7.265849709510803223e-01
2.270726874471740708e-01,-4.767106027503614785e-01,4.213062003920942100e-01,9.875470190509470086e-03,4.539657458679485780e-02,-4.246560443203935276e-03,8.223533630371093750e-01
2.254759630131497605e-01,-4.611351018641153265e-01,4.237805318908430818e-01,1.915967716617861943e-02,-7.905923797944721179e-03,1.111146035979282236e-02,8.053426146507263184e-01
2.894432902240262617e-01,-2.729768631857967254e-01,5.086559202473914798e-01,-9.000960267870986020e-02,1.141652520727267361e-01,7.255010592203199604e-02,7.528991103172302246e-01
1.654434651893818553e-01,-5.665720135147950254e-01,4.683458701664168222e-01,3.298141878245848535e-02,1.962020844699105537e-01,1.027230941740369177e-02,9.840688109397888184e-01
2.117483892138420365e-01,-5.058461595867947969e-01,4.207579968094001255e-01,-1.587270400589703423e-02,1.401662736205437076e-01,1.701911280036968316e-02,8.770266175270080566e-01
3.330786801649394113e-01,-1.638697415349862907e-01,2.588157229567999984e-01,-1.067449865342983556e-02,7.885583448741424750e-02,-4.646832447801724220e-02,4.909606277942657471e-01
3.672472167782327435e-01,-4.663887975981517720e-01,3.606327275857340031e-01,-1.572333226650173650e-03,-3.718388115185614941e-03,9.697258534458977775e-04,8.303796648979187012e-01
3.538177221731721445e-01,-4.421910949288039294e-01,3.203553175218172289e-01,5.573780556839418726e-02,1.072470030225619597e-01,-6.978966310205060586e-02,8.164258003234863281e-01
4.903553734761998406e-01,-3.318098501458833782e-01,2.347536739415882479e-01,5.416339253172262197e-02,1.510941345879440456e-01,-9.065519226793845864e-02,7.956666946411132812e-01
3.527406948067457471e-01,-3.939915011336361239e-01,3.643746436324197258e-01,2.713556029463139174e-03,-1.406221231214760392e-02,-1.459727938697058525e-02,7.534496188163757324e-01
3.441688281355628209e-01,-3.248539578190213217e-01,3.426309368113014120e-01,2.213605333610302317e-02,-9.421142295834900385e-03,-5.076211187906261475e-03,6.696107387542724609e-01
2.887082385471424484e-01,-5.363912773846526427e-01,3.915828860639833930e-01,-2.541092724645082485e-02,1.198932343703644765e-01,1.660857715172287669e-02,9.067205190658569336e-01
3.716908782617124873e-01,-4.435113482074738434e-01,3.632516513439306705e-01,1.875557923925472159e-02,-7.677425173564353736e-03,-6.659976317792653047e-03,8.118567466735839844e-01
3.096797405806221981e-01,-5.681445410495001846e-01,4.109712419832012298e-01,4.687169359563638123e-03,1.234196978892158625e-01,-1.923970992952857414e-03,9.568311572074890137e-01
2.260493570425971543e-01,-5.563125420656712672e-01,3.448243989563035128e-01,-1.928088958489205737e-02,2.370473012244561084e-01,1.304887496816176801e-02,9.430392980575561523e-01
4.426378695165759103e-01,-4.557101121593114534e-01,2.015011486220439352e-01,-1.316873294498682474e-03,4.034255217260759342e-03,-4.732158104985115417e-03,8.054021000862121582e-01
3.459956577036316649e-01,-4.637200006553277021e-01,3.464375443924226916e-01,9.412638342224062538e-03,6.121379238208244505e-03,-7.981185709933683037e-03,8.102880716323852539e-01
3.712075787036692165e-01,-4.676674472966297902e-01,3.323713361256822596e-01,1.974506469632587597e-03,6.437381882398904645e-03,8.623741424820474677e-03,8.203657269477844238e-01
2.904631001456340345e-01,-4.607087672873640960e-01,3.770088269485350474e-01,-2.880040128426668289e-02,4.843681310743300217e-02,2.732629272343891497e-02,8.053117394447326660e-01
3.633432345965426080e-01,-3.442232213621323478e-01,3.458714538155857054e-01,-1.978240928182181668e-02,-3.292996727324311312e-03,6.826307802897757515e-02,7.097740769386291504e-01
2.631107126099437865e-01,-4.579185611826607216e-01,3.918736506628657246e-01,-6.386704119955147370e-03,5.524203712224191876e-02,4.768981667329518295e-03,7.991561889648437500e-01
4.267688446017336990e-01,-4.568953588152193657e-01,2.149045642732932693e-01,7.105268662967324789e-03,2.610351269361893371e-03,-2.748134133866823869e-02,8.006057739257812500e-01
3.560588928127352282e-01,-4.422137412968488168e-02,2.645658137810935617e-01,1.064862062144264314e-02,3.948974030459802970e-02,4.660589222342981230e-02,3.788234889507293701e-01
4.133626948385543676e-01,-4.552353374741020531e-01,2.246295157946033849e-01,1.455512651577561302e-02,3.671140989816838035e-02,4.459264179200984890e-03,7.942845225334167480e-01
3.968307017003439019e-01,-4.711528615837089484e-01,3.293955295797972860e-01,6.474083685128327603e-03,4.398605701896961435e-03,-8.402032780050531363e-03,8.365440368652343750e-01
3.547776407153174771e-01,-3.699476884493735351e-01,3.552098672218945152e-01,5.771076201008494555e-02,1.340831288017819674e-04,-3.403859593256039484e-02,7.341715097427368164e-01
3.161030808604957110e-01,-4.736534450984342115e-01,4.053969530298440760e-01,2.007132533131296762e-02,9.526067641724244098e-03,-1.679718834742177994e-02,8.393666744232177734e-01
3.509541407925225176e-01,-2.856015897367478185e-01,3.304143807536650268e-01,4.101297786110712912e-02,-3.884206744751609632e-03,8.981225573111531772e-04,6.305903792381286621e-01
2.913392112362710451e-01,-4.683637281927560680e-01,3.853799712451384529e-01,-1.870115881601243368e-02,-4.595405274646384083e-03,-2.016223963872221768e-03,8.115171194076538086e-01
3.662826045148884768e-01,-3.605523396214898035e-01,3.370954050012290315e-01,1.101948592243769467e-02,-2.428744091932468190e-03,-1.316326251906808735e-02,7.133221030235290527e-01
3.460862886521784976e-01,-3.685996121751710652e-01,3.566727959395055159e-01,4.120664639334894325e-02,9.154582982132571101e-04,3.253497280781415205e-03,7.235898375511169434e-01
1.785645585724801865e-01,-4.703435080122131406e-01,4.709724270830389359e-01,2.950739364080801758e-02,-6.204501499944384268e-02,1.524156538331435280e-02,8.433194160461425781e-01
2.590250703169904023e-01,-4.525018457366734026e-01,3.780300100402050889e-01,3.673034288781796587e-03,-7.007532009142457274e-02,-4.324193926672881272e-03,7.873602509498596191e-01
3.368048799743478816e-01,-4.588928684456569096e-01,3.257859402717884212e-01,-1.380357315469880018e-02,-2.064196593177127989e-02,-1.466169145084430039e-02,7.918227910995483398e-01
2.885361757618666312e-01,-4.694471619760983705e-01,3.805973791874609491e-01,-2.151562079831157923e-02,-5.632378550962709174e-02,-2.445490288072640558e-02,8.157786726951599121e-01
3.443297383077119633e-01,-4.673458561170032999e-01,2.938965369508041992e-01,-1.833205480426338546e-02,-5.368381686945493392e-02,-1.740056286261835311e-02,7.943474054336547852e-01
3.272734057073435343e-01,-4.525271859129808005e-01,3.341970976237892965e-01,6.791380419017447115e-03,-1.725802539394840837e-02,6.765998895359156239e-03,7.840313911437988281e-01
3.195084523637891083e-01,-4.488937697689987516e-01,3.442322452593005733e-01,-4.791589384064177774e-03,-3.955974662632669343e-03,-8.890117067946051027e-03,7.812835574150085449e-01
3.223713719715021742e-01,-2.758298884298698295e-01,3.333149544937356046e-01,-1.502934562164892629e-02,9.801473941115365976e-03,1.242393119880736141e-01,6.417032480239868164e-01
3.269319387861098214e-01,-4.436704406276050783e-01,3.302721393590390964e-01,9.907803154713609728e-04,-3.193844091794086591e-03,5.123933225342818193e-04,7.723001241683959961e-01
3.146104112093298655e-01,-4.548591150062036848e-01,3.533152805283610864e-01,-7.780500310704286391e-04,-8.177649899108531059e-03,8.263347642965676240e-03,7.897917032241821289e-01
3.410308170521710314e-01,-4.532749416038349688e-01,3.316657146733524852e-01,5.484752248930474181e-03,-4.339451012159555726e-03,5.269798761952744406e-04,7.897582650184631348e-01
1.802647368637776970e-01,-5.132970125861086030e-01,4.870648107623534728e-01,3.999973841135702479e-02,-6.399916739257194287e-02,1.902098553072490220e-02,8.978374004364013672e-01
3.784790788900656011e-01,-4.622660786471716188e-01,3.406029878500682062e-01,-3.452215543600446572e-03,2.476496082784872179e-03,7.944858487081941575e-03,8.226094841957092285e-01
3.910791405004762633e-01,-4.589620318628285789e-01,2.965591272492643649e-01,-1.007033980428233104e-02,2.091531852305889699e-02,-6.452049007019206896e-03,8.080220222473144531e-01
3.696888285082807757e-01,-4.501812872694155310e-01,2.623154734225261464e-01,-5.889674122049793140e-03,3.550728837870131827e-02,7.302561644872017713e-03,7.744224667549133301e-01
3.256779385406403660e-01,-2.659999197698623141e-01,3.306928477618312767e-01,-1.667204367799834594e-02,1.031132150927562691e-02,4.588819715587496434e-03,5.952235460281372070e-01
3.344065033379058915e-01,-3.080788083101712593e-01,3.531387343778753518e-01,-2.113524357579051743e-03,-1.979239789367258709e-02,-5.147098458858962583e-02,6.590219140052795410e-01
3.732882531818191851e-01,-2.388319452924750341e-01,3.277309264245255038e-01,-4.493191847028538827e-02,3.210925789942023142e-03,6.110320815937073796e-02,6.051185131072998047e-01
3.847297688651027392e-01,-4.650777201305155151e-01,3.667936673424345706e-01,-1.452141867918981151e-03,-4.522985436207315260e-03,-1.076225796938908366e-02,8.412296772003173828e-01
5.413681868771108574e-01,-6.426955777780722912e-01,1.390815211705993537e-01,3.828965472259092222e-03,-6.206425487122219087e-02,-1.121758940449245345e-01,1.066235780715942383e+00
5.380108680761079842e-01,-5.427765761776268683e-01,6.686851591592149480e-02,2.277204096876056169e-02,-2.115929907822070672e-04,-2.566073109221463783e-04,9.393763542175292969e-01
4.445481037302305150e-01,-5.475995541959495228e-01,2.460490507222209688e-01,-2.881971933453771409e-02,1.077891476444042818e-01,1.763000391283142676e-02,9.301065206527709961e-01
4.032990080941717403e-01,-4.571735751378043222e-01,2.424914353567272085e-01,-7.178079508973005639e-03,3.957946862495562157e-02,-7.052453255546207653e-03,7.955532670021057129e-01
5.670199456243221192e-01,-5.701086545529751026e-01,1.139956412606590863e-02,-2.781138133494777398e-02,1.204899565419962834e-02,-5.596755951904877624e-02,9.910179972648620605e-01
4.602087880129992481e-01,-6.335684408872175322e-01,2.157760061857312839e-01,5.522290591941426963e-02,-2.458858015438200040e-01,-5.171703313401137397e-02,1.089629769325256348e+00
4.261109863436152723e-01,-4.507914504111019127e-01,2.107969022219411959e-01,5.609093797273624615e-03,-2.649374351136610933e-02,2.004009550002912310e-03,7.929191589355468750e-01
3.238399840748067415e-01,-4.448747505844157235e-01,3.117743087208653674e-01,-4.246997999624886957e-03,-3.102112346350885397e-02,-2.056491588195929598e-03,7.646872401237487793e-01
3.268573294060218570e-01,-4.499189761485666850e-01,3.022478186955752100e-01,-7.662868997106489152e-03,-3.532731445609157972e-02,-9.428721526132671435e-03,7.675010561943054199e-01
3.991567231281281658e-01,-4.608945504042554209e-01,2.561626441636541962e-01,-1.437466661233028839e-02,-1.225876005472353175e-02,-1.649320191209435738e-02,7.993997931480407715e-01
4.478943982916334665e-01,-4.664897991690752921e-01,1.782903509767056471e-01,8.686694262919913284e-03,-1.177285449877529117e-02,1.570688020584836558e-02,8.146443367004394531e-01
4.142618666525459403e-01,-4.525233950470757271e-01,1.969083726477988683e-01,1.037390296534887457e-02,4.100942406084403385e-02,-1.331171990390189915e-02,7.848950028419494629e-01
4.644268133686460520e-01,-3.306800651053578011e-01,1.351025925112551707e-01,6.581387388075363165e-02,7.795894063099285953e-02,-6.220668089746959895e-02,7.222448587417602539e-01
3.279196538653180726e-01,-2.489787073594883493e-01,2.390603902412876958e-01,-2.063068777314370009e-02,-1.558415713741054254e-01,-5.071356513219971857e-02,6.093416213989257812e-01
5.234649281068159965e-01,-5.408965301245415302e-01,2.266230319942838523e-01,8.215507583814094655e-03,-2.355119672321140945e-01,-1.062149583228142458e-01,1.051417350769042969e+00
3.732719100266662093e-01,-4.686316428143533219e-01,3.434439978230992008e-01,-7.689892773434659455e-03,1.520816434783325150e-03,4.985768235370032289e-03,8.275493979454040527e-01
3.665260154837298168e-01,-4.672121213240864046e-01,3.675769750085735588e-01,-2.737983568261900032e-03,-5.152558143057595942e-04,-3.631844969201143344e-03,8.343017697334289551e-01
3.694002579796343277e-01,-4.627905116705633981e-01,3.413207570294166660e-01,-2.706075275365693415e-03,-6.005906274712258242e-04,8.384253720650243838e-03,8.186551928520202637e-01
3.632415934391692303e-01,-5.022454434867639206e-01,2.592420505434278599e-01,2.398959178882373311e-02,2.268734582449057346e-01,-1.062764945932778704e-01,9.273072481155395508e-01
3.674962103158037063e-01,-4.688790276028090842e-01,3.639573819771371177e-01,2.725025000213140004e-04,-4.115258632163964515e-03,6.191355180950710094e-04,8.346427083015441895e-01
3.612778196589099267e-01,-4.601197541828123683e-01,3.776170374712377042e-01,-2.206318749736829992e-03,-4.889176036538564994e-03,-1.493786503398486292e-03,8.297439217567443848e-01
3.113131552264697399e-01,-2.654719697745219764e-02,3.032566530817552564e-01,-1.222650122872483147e-02,3.184843472741149401e-02,8.303143332887787456e-03,3.393977284431457520e-01
3.646148375381281781e-01,-4.674767343405741293e-01,3.707879210263957392e-01,2.686952053019711715e-04,-4.644689602956743150e-03,-2.836498115715375880e-03,8.352485299110412598e-01
3.629214287322610200e-01,-4.611546776397319469e-01,3.703034553818733698e-01,-4.613214215638902381e-04,-4.711079292197569920e-03,-1.365905153855374561e-03,8.278357982635498047e-01
3.645048962966319639e-01,-4.626226745130698204e-01,3.779253972336758527e-01,-3.343913920322993168e-03,-3.669345550037132232e-03,-2.229860200664034175e-03,8.339720964431762695e-01
3.413988794408440719e-01,-4.431201719481583368e-01,3.096733424959671188e-01,7.745268082722304949e-04,5.377113964027806572e-03,-4.353328119137746602e-03,7.692416906356811523e-01
3.211654725183166192e-01,-4.516380444336536293e-01,3.314532179677043833e-01,-2.798949802438691244e-03,2.739624380281226179e-02,3.778285136442664609e-03,7.794867157936096191e-01
3.617026212146808306e-01,-4.545513863724685022e-01,3.026246739607669212e-01,-9.051561818551824914e-03,1.382360340298263018e-02,1.222379585619664741e-02,7.891802787780761719e-01
3.414222193337360656e-01,-4.639674800957444001e-01,3.703377116401579960e-01,8.598342499521427831e-03,6.909933636735771361e-04,2.756270161929691778e-03,8.203797340393066406e-01
3.418700624649915754e-01,-4.595515240426483183e-01,3.401069847881445507e-01,-8.744547901582204810e-03,1.332102330727701761e-02,1.225437887547476366e-02,8.012983202934265137e-01
3.444395583805101024e-01,-4.562869626345228413e-01,3.170503485838908064e-01,-1.012531364021718519e-02,1.254572277706996961e-02,1.033452127045887334e-02,7.880875468254089355e-01
3.328417758143860650e-01,-4.471999842707619077e-01,3.312342637930486000e-01,-2.725402203624101554e-03,1.215365773318577078e-03,2.188751459758205963e-03,7.792655825614929199e-01
3.180916523676133867e-01,-4.487502980958942844e-01,3.451143371710271301e-01,-4.655165860124818762e-03,2.972283613358508124e-03,8.044840179354716125e-03,7.808870673179626465e-01
3.504478574924081991e-01,-4.626228320399757843e-01,3.311151077088769767e-01,-1.233340975217356306e-02,9.406698530102340292e-03,9.008005160716710258e-03,8.041791319847106934e-01
3.364812270852846066e-01,-4.472584275136490817e-01,3.256492019107213864e-01,-3.258826775237626955e-03,6.041259160570884926e-03,2.089445807358771522e-03,7.784793972969055176e-01
3.337985622763656179e-01,-4.533104342015166210e-01,3.435796648982786250e-01,-9.064952526341397369e-04,4.375150816314695053e-03,-4.138082017607431422e-04,7.920829653739929199e-01
3.439951996902831932e-01,-4.589184618709336583e-01,3.422206123027813907e-01,-4.847954530388866312e-03,7.610651939742362013e-04,2.731756023538119051e-03,8.020868301391601562e-01
4.047850055700894512e-01,-4.603147347784940502e-01,2.339533236522643445e-01,-1.117076984793068106e-02,9.914014172785780982e-03,2.119007296528714959e-02,7.948653101921081543e-01
2.519795070578129126e-01,-4.622139491126858180e-01,3.221783589195609254e-01,4.608795669442716271e-03,1.256999565430014232e-01,-5.844359798315537299e-03,7.827537059783935547e-01
3.438668224013549102e-01,-6.126297464814129956e-01,2.870585929241054601e-01,4.982093880156403948e-02,2.269517147116544842e-01,-6.534646658654971740e-02,1.019094705581665039e+00
3.725716397970184057e-01,-4.595397766194159184e-01,2.960600215602889884e-01,6.569051865922469376e-03,-1.682226299263196376e-02,-3.437817210631208785e-03,7.972522377967834473e-01
4.190074660241004390e-01,-4.627366789191462715e-01,2.629042001425904163e-01,6.678753626636497846e-03,-6.289449137303476656e-03,-8.108625472822972996e-03,8.152592182159423828e-01
3.760194310846579069e-01,-4.546523615935426088e-01,2.774597635585317468e-01,1.126372430447533483e-02,-1.746949204709656242e-02,7.345473943592522627e-03,7.869669198989868164e-01
3.711320876110738021e-01,-4.652098959779012999e-01,3.287816449821548415e-01,7.383509118134482137e-03,-6.863600802878165943e-03,-3.429014732755980219e-03,8.161998391151428223e-01
4.190879841260507499e-01,-4.524161361190149888e-01,2.236190161096099360e-01,2.510148424994545439e-03,-2.363346016444976827e-02,5.217663408324323127e-03,7.931908369064331055e-01
3.880336375075554844e-01,-4.671581546213633418e-01,3.282771303052230416e-01,7.622494524625699061e-04,1.199239115286180072e-03,-6.855231551900538983e-03,8.270233273506164551e-01
3.792057278954877875e-01,-4.626962790795307034e-01,2.902632779011823372e-01,1.387902952034173777e-02,-4.032036728204715231e-02,1.761660392912967749e-02,8.051180243492126465e-01
3.738061113066475927e-01,-4.638271428734310753e-01,3.419047796378985593e-01,7.855779536516151185e-03,-2.391873743271052434e-03,8.606928342921314409e-03,8.224050402641296387e-01
3.638380356810227978e-01,-4.269882472688568686e-01,3.374730809106745166e-01,6.006707617796532700e-03,-3.755139082873581481e-03,-7.669238787963133207e-03,7.781890630722045898e-01
5.064332285685280155e-01,-7.828088315553682897e-02,3.002481568349469887e-01,-2.850288556013594841e-03,-7.041294221352688287e-02,2.897188330356214106e-02,5.303394794464111328e-01
3.770106581402342671e-01,-4.564723133640880004e-01,3.598449426364017656e-01,-3.259861223337669287e-04,5.535380559859840247e-03,-1.665439074779781058e-04,8.250899910926818848e-01
3.709234390785149937e-01,-4.670150157920422984e-01,3.651555605216657563e-01,-9.928905679126628220e-04,8.379572276309418116e-03,9.352781125797460888e-04,8.351989388465881348e-01
3.218856280338236453e-01,-6.035407552729666891e-01,3.169520358536968563e-01,-3.046341317125422429e-02,3.512690494650315687e-01,1.243590927817058850e-01,1.127484798431396484e+00
3.136973345727143148e-01,-4.481327037855192819e-01,3.458467391628215482e-01,-4.411421415537876249e-03,3.060242540726031829e-02,1.763718260892666251e-03,7.802488207817077637e-01
2.732154448838436389e-01,-4.408593072254551881e-01,3.805663283915237671e-01,3.419445238462374970e-02,5.002427297404209161e-02,-1.669687139853106433e-02,7.809833288192749023e-01
3.543562459497072159e-01,-5.293166514721358018e-01,2.197453155196069374e-01,-3.729059711985958231e-02,2.708060912522027297e-01,1.153812830034837977e-02,9.511176943778991699e-01
3.237208994480690327e-01,-4.476902453821641759e-01,3.311877496719216052e-01,-1.757227962809009697e-03,9.681689647846153726e-03,2.525745893034840334e-03,7.753711938858032227e-01
4.192170468747959955e-01,-4.626259101328510370e-01,2.662060716910735203e-01,-5.706495508475960786e-03,-1.131437740364622802e-02,1.083442460523801297e-02,8.166771531105041504e-01
3.360989360054353892e-01,-4.610847712596817249e-01,3.523635191017383539e-01,5.466888422158417207e-03,-1.653071860923120001e-03,8.761398986731627064e-03,8.056428432464599609e-01
3.406918513146985905e-01,-4.655321945464842015e-01,3.746959121577403407e-01,9.165972807555992224e-03,-1.898077799809692184e-03,7.260319027750499268e-03,8.240081071853637695e-01
3.218689158200287448e-01,-4.614080076253075369e-01,3.633843781621165503e-01,-1.193106656553861999e-02,-2.136479709852581385e-03,-1.244812062187568638e-02,8.054004907608032227e-01
3.514932263754259045e-01,-4.571581746800034152e-01,3.427356508288716408e-01,-1.115490735252129724e-02,-1.377052790623916473e-02,-2.688934602373253737e-03,8.049073219299316406e-01
3.218015239632193714e-01,-4.611132925455706522e-01,3.675625519001395891e-01,-1.178102000632313094e-02,-3.909172612515735869e-03,-1.279435849681847225e-02,8.073598742485046387e-01
3.243511122434848959e-01,-4.518293580980463631e-01,3.470656840236275853e-01,7.088390070585978871e-03,-2.138738880797623823e-02,5.478370568941615809e-03,7.888064980506896973e-01
2.494181985013987357e-01,-4.468392766848598985e-01,3.720163068630213954e-01,1.487930876814707150e-03,-3.812719614204149871e-02,-4.359064961557283617e-03,7.678471803665161133e-01
2.733229186757831775e-01,-4.460724315178408172e-01,3.670824829675374268e-01,-6.622034554221519105e-03,-1.443044357880106376e-02,-7.150848164271433709e-03,7.711552381515502930e-01
3.102890634559897221e-01,-4.433698246024213585e-01,3.405578808776328903e-01,-1.428879603010674033e-03,-6.882235144360846629e-03,-1.181949911288971214e-03,7.693391442298889160e-01
3.358241028476970924e-01,-4.472457363588348001e-01,3.284517323475798500e-01,-3.237229677560027503e-03,-1.472578707655815278e-02,-4.122468787254134938e-03,7.798798680305480957e-01
4.164066094859935618e-01,-4.630913655521013972e-01,3.053681073799383583e-01,2.852814700224894431e-02,-2.706680984105117038e-01,-1.404688878527694459e-03,9.541589021682739258e-01
3.872961703405514156e-01,-4.538467572679958373e-01,2.637785976619492212e-01,-7.115940412756747904e-04,-2.188461273891897929e-02,1.760230956592760731e-03,7.876101136207580566e-01
2.629930008037963951e-01,-4.879817871746865432e-01,3.595171605807599979e-01,7.253767416644093732e-03,-9.478541919351113343e-02,9.340498536026075119e-03,8.204509019851684570e-01
3.877221930311406384e-01,-5.049238179751529554e-01,3.296772869333611800e-01,6.173026459880093936e-03,-1.060564977602226622e-01,2.995143614557494588e-02,8.859583139419555664e-01
7.664645878177607508e-02,-5.543404271025808017e-01,4.813029127627315162e-01,5.132917023426415010e-02,-1.554448352584550108e-01,3.506305923621554771e-02,9.493712782859802246e-01
3.212831993961120514e-01,-4.671565796871145482e-01,3.686809697259659790e-01,1.021031046039704536e-02,-4.030990527545865419e-03,1.332607025789834740e-02,8.137249946594238281e-01
3.658634539445527745e-01,-4.361210728480663379e-01,3.597015353703703622e-01,2.814927837203002724e-03,-1.237080412100573235e-02,1.061416330952020225e-02,7.994349598884582520e-01
3.626478744196689474e-01,-4.716489626744113650e-01,3.956582184028324956e-01,-9.343764668112072846e-02,4.308912362272036140e-02,3.243443757086846013e-02,8.715498447418212891e-01
3.710605774230371079e-01,-4.448347015604569021e-01,3.636136815887991425e-01,-3.820050822147277175e-02,1.197361412221196282e-03,7.421328439419647843e-03,8.149920701980590820e-01
3.569198492021770641e-01,-4.343051567817289849e-01,3.652126423478314066e-01,-1.279368369930518855e-02,-7.219501862620431379e-03,1.499323847040174261e-02,7.962343096733093262e-01
3.880635794878294909e-01,-4.557444479633713241e-01,3.720474686834764344e-01,-2.169063985020505680e-02,3.854861465409963744e-02,8.054566448652965283e-02,8.509325385093688965e-01
2.317850450575669741e-01,-3.555658855018269948e-01,4.776130820568288970e-01,8.843862615275449590e-02,1.457700760984047827e-01,-1.341103172182152303e-02,7.984675168991088867e-01
3.423748485170632905e-01,-4.648496915778344007e-01,3.737033145960999003e-01,-6.955372607695992082e-03,2.089561483152871206e-03,9.147732245803274001e-03,8.235844373703002930e-01
3.250234618147380128e-01,-4.634441852428852204e-01,3.828518429513470545e-01,8.793180388264185826e-03,3.280319328417332682e-03,2.147924767649012339e-03,8.190844058990478516e-01
2.823245233941406029e-01,-4.075291810954735361e-01,3.912778269574184731e-01,1.087064500592343705e-02,-2.321094246483097062e-02,-9.887403796257172514e-03,7.517943978309631348e-01
2.157235892764592655e-01,-4.674459788826748063e-01,4.358554262628613896e-01,-2.577177132189028066e-02,1.978994364080847914e-03,8.988887554400911556e-03,8.171980977058410645e-01
2.067797683816561816e-01,-4.733812397209108402e-01,3.905188711294155235e-01,2.114077223136185887e-02,8.403869702235895744e-02,-6.719094702465541573e-03,8.025054335594177246e-01
3.487656858340031363e-01,-3.507828218851437030e-01,3.580871733812637792e-01,1.525347694767309253e-03,1.655776264518490568e-02,1.062809679415397356e-02,7.050845026969909668e-01
3.508697225224026717e-01,-3.060108331509854840e-01,3.333559884445611576e-01,3.434040103512494418e-02,-9.438234325080667453e-03,-2.074050354383536951e-02,6.522192358970642090e-01
3.606351562195495575e-01,-4.526269432476147658e-01,3.634094363471606082e-01,1.868103683612745486e-03,2.706056063308057667e-03,-1.766350745960175873e-03,8.146784305572509766e-01
3.486461771503117646e-01,-2.927720081367428118e-01,3.343796997876363752e-01,2.206288941139122883e-02,-9.316892806908668584e-03,5.191553508084619309e-03,6.358236074447631836e-01
4.894166330428507683e-01,-5.914143281656994988e-01,2.359676971217118946e-01,-1.672561429916736772e-02,-1.354108899630692342e-03,-1.503625020442209657e-02,9.798058271408081055e-01
5.118349300487383680e-01,-2.273616977384098625e-01,1.891883808836389291e-01,4.705043816433771009e-02,8.530986503151598288e-02,-8.812220192319993040e-02,6.810171008110046387e-01
3.728455281599886706e-01,-4.581286108248422417e-01,3.423828418522991135e-01,-1.406529361072865513e-03,4.523205206637311189e-03,8.379161917885057445e-03,8.163395524024963379e-01
3.676365930521772740e-01,-2.537751287942408007e-01,3.457407709939067098e-01,3.643604938279712546e-02,2.191190624583206348e-01,-4.305336463058628133e-02,7.256780862808227539e-01
3.450201726301693195e-01,-4.611176459645731640e-01,3.425415451446043313e-01,3.747556255679869615e-03,-8.957078766720763530e-03,6.440388111409089435e-03,8.051543235778808594e-01
3.676927723852991825e-01,-4.707775691180613453e-01,3.637620700725716083e-01,-3.798486398637463974e-03,-3.231005027842095284e-03,-4.341523407069562863e-03,8.365902900695800781e-01
3.665143139434589581e-01,-4.501536903813936341e-01,2.479090561772064605e-01,-1.488716727394510681e-03,3.370739137913357497e-02,2.038342623325690821e-03,7.665379047393798828e-01
5.847168600224807999e-01,-8.486580966645307367e-01,1.413376455154727318e-01,1.381524348825354243e-01,-9.616229404096668376e-02,-1.020132568858691524e-01,1.315994024276733398e+00
3.694970434989511832e-01,-4.703275164819177290e-01,3.714600693114188390e-01,-4.197474083352106984e-03,5.772540797831824527e-03,-3.935182159008587290e-03,8.409262895584106445e-01
3.484434299003714708e-01,-4.679258595603766890e-01,3.540734655226664418e-01,2.922696876906656031e-03,-2.235158011726489508e-02,6.089854404005529999e-03,8.201965689659118652e-01
3.727176055807684962e-01,-4.651270815281263182e-01,3.635501196664316925e-01,-1.498191942982879344e-03,5.131562506221709619e-03,4.345235238355726892e-03,8.333842158317565918e-01
3.617467512222204418e-01,-4.496310098519770149e-01,3.732605684562191883e-01,-2.187097837883921359e-03,9.549946642063322777e-03,2.528258144725633629e-03,8.173834085464477539e-01
3.128989274893642647e-01,-4.677816866894962677e-01,3.842503335740908299e-01,1.098056501473875478e-02,-7.121492625898492856e-03,7.149125463587496614e-03,8.190989494323730469e-01
3.328363482074565005e-01,-4.652236467539658804e-01,3.807671332886904403e-01,-4.555577386338712648e-03,-7.888911579653108685e-03,6.110418137728036714e-03,8.232920169830322266e-01
3.326571970361086317e-01,-4.451519209719451142e-02,3.278689939003051612e-01,-6.081416876309819752e-02,-3.356192159401467229e-02,-4.212409449150855689e-02,4.003418087959289551e-01
3.710614200512462046e-01,-4.568500707447739062e-01,3.620736919074257210e-01,-5.019619077383137562e-03,4.468661637709443052e-03,-2.231254287327715229e-04,8.235367536544799805e-01
3.696420410974672333e-01,-4.060678405646074296e-01,3.509904935339837051e-01,-1.396976344369797556e-02,-1.203065570464710229e-02,-1.216860108889495674e-03,7.672220468521118164e-01
3.611343591524484031e-01,-3.987964492568967234e-01,3.596805666326649553e-01,3.283819833840089311e-03,-1.527828510842520887e-02,8.970632609968092613e-03,7.598461508750915527e-01
3.238122562948010930e-01,-4.653765893229859785e-01,3.865512241409099214e-01,7.611954121500807448e-03,5.459182200538993104e-04,3.070016758134610276e-03,8.224786520004272461e-01
3.354727578746078409e-01,-4.782167274779373090e-01,3.940578872800005739e-01,3.118435369352702633e-03,9.239117857210713686e-03,-2.150654235957549613e-03,8.446846008300781250e-01
3.671463499470211667e-01,-4.663384300673928395e-01,3.666683745439893727e-01,4.281458252643356027e-03,-1.434061487831381990e-03,4.374864821076848882e-03,8.333170413970947266e-01
1.796068050334928834e-01,-5.741755619475947814e-01,5.336604398207954736e-01,-6.266446451968552163e-03,2.129499138931285288e-03,2.046289653672053038e-02,9.807184934616088867e-01
3.269284502237796985e-01,-4.443931147062926135e-01,3.702907480181742983e-01,-5.377693557195173911e-03,-3.338500849971029645e-03,5.653109152800713834e-03,7.940274477005004883e-01
2.292784708463544985e-01,-2.785773940307616492e-01,3.643051866716345288e-01,-2.323137804519060171e-02,1.604646699157468714e-01,-5.578841116505477843e-02,6.579716801643371582e-01
3.540640550955335697e-01,-4.674159846916894345e-01,3.583852870117728573e-01,-1.668555339582219067e-03,-5.624792824951179620e-04,3.540821834638982046e-03,8.236776590347290039e-01
3.571778754970821868e-01,-4.675355711890680777e-01,3.621007450608969558e-01,-5.104154902802519878e-03,2.284996092041823349e-04,6.312798858321795256e-03,8.273054361343383789e-01
3.425699141831125005e-01,-4.590765860108261265e-01,3.432585958175031204e-01,-3.508754701636370744e-03,4.605663622815753255e-04,4.031678410752767214e-03,8.020448684692382812e-01
3.552114171875893622e-01,-4.675957128025436393e-01,3.550882201691413220e-01,-1.561572358163117007e-03,6.309372814904930585e-04,3.265193853190197313e-03,8.227701187133789062e-01
3.216180316158295804e-01,-4.621238627032070445e-01,3.602541379264948551e-01,-9.522642625429685037e-03,2.469197862337836613e-02,1.056626359994698727e-02,8.052706718444824219e-01
3.634674338512116631e-01,-4.538058583644761779e-01,3.636936592722760375e-01,-3.320959988952913548e-03,-5.896338051919908577e-03,8.447042117013650923e-05,8.174704909324645996e-01
3.619353170501199979e-01,-4.299290538662666750e-01,3.590870202258097943e-01,-2.798010952585608998e-03,-7.383940051129519316e-03,-1.466951382832116027e-02,7.909705638885498047e-01
3.656378295658382904e-01,-4.265564786480436910e-01,3.697528142229352666e-01,2.584590284456168147e-03,8.143834933655665770e-03,-6.108351622973300088e-02,8.014119863510131836e-01
3.663590342127391319e-01,-4.645770002910935004e-01,3.658516637365113455e-01,-2.669516838792718692e-03,-3.480340901757905496e-04,-7.059090130031641340e-03,8.307855129241943359e-01
3.486983225341077075e-01,-4.652407795937505419e-01,3.556970565192312250e-01,7.483978353302043508e-03,-4.641185876782676122e-04,4.930919725933503167e-03,8.176087141036987305e-01
3.653938136952447069e-01,-4.633650918996323753e-01,3.718654451649092696e-01,-3.433286025347423182e-03,-8.710881855390141711e-04,2.651195907391021116e-03,8.320488929748535156e-01
3.087590246417754036e-01,-4.668552400204459829e-01,3.744327000579104059e-01,1.270435794793769307e-02,-1.143270541657948752e-02,1.155880761699793272e-02,8.112367987632751465e-01
3.756121402621942496e-01,-4.272212821653976755e-01,3.545960165877595216e-01,-8.255723789720864625e-03,-7.743428903091875704e-03,1.566145175962075275e-04,7.927768826484680176e-01
3.757775643546754640e-01,-4.515743038875865700e-01,3.601679932229202019e-01,-9.062872954626072231e-03,7.231063193113495061e-03,1.630814695603580557e-03,8.199093937873840332e-01
3.691310969816250509e-01,-4.658102638154199004e-01,3.644742748043445224e-01,3.369140588031960867e-03,2.608783160103729688e-03,4.161865521602752145e-03,8.326866030693054199e-01
3.678063895916092174e-01,-4.757086560072476544e-01,3.662530283617724813e-01,-2.339960848192454185e-04,1.103624508629497993e-03,1.508294420438226419e-03,8.427457809448242188e-01
3.765423038902054320e-01,-4.635829897125381960e-01,3.629736205973544960e-01,-3.473325926176705838e-03,7.693725720084872155e-03,1.074792500787393086e-03,8.335540890693664551e-01
3.716833280934501715e-01,-4.730064417756923989e-01,3.657924713105847325e-01,-1.815357745561750656e-03,1.854025636594262144e-03,2.797146273267234716e-03,8.417857289314270020e-01
3.700545493592711788e-01,-4.717286611016708875e-01,3.650475051190807396e-01,1.794744897677278891e-04,2.942285519975203732e-03,6.419201542004582088e-04,8.393071293830871582e-01
3.764092654123761816e-01,-4.611319012409467177e-01,3.626155643654683236e-01,-6.632131965622774759e-03,7.825286722379275195e-03,-3.119860935825062749e-03,8.309377431869506836e-01
3.724817164074043507e-01,-4.709264548189612265e-01,3.663619590474365695e-01,-2.730700574759255782e-03,7.641086693283675318e-03,-1.706185977633637926e-03,8.404877185821533203e-01
3.613084202146411017e-01,-4.720974048978162640e-01,3.605315145157118595e-01,3.027664092544219446e-05,2.834082181509142706e-03,3.909120883322819706e-03,8.330596089363098145e-01
3.724868935151846583e-01,-4.654253797221293842e-01,3.640455638652202452e-01,6.955012529724295244e-04,5.939182973038142563e-03,4.043322831263304086e-03,8.338174223899841309e-01
3.442681409949067683e-01,-4.653768873318518962e-01,3.716009569249830724e-01,9.882069831374934443e-03,-5.250746626400001026e-03,6.168413163007938071e-03,8.239489197731018066e-01
2.874651528182819993e-01,-4.734014932867460779e-01,3.972855061920761988e-01,2.332676698592831346e-02,-3.167597080075298249e-03,6.689832778630002211e-03,8.223952651023864746e-01
2.662530951042667293e-02,-6.584963023591219322e-01,6.172848686557882436e-01,-5.230894646652711755e-02,-6.340311585039799802e-02,6.149338354988970190e-02,1.120069980621337891e+00
2.383627098883052964e-01,-3.888477701180593216e-01,3.666371633194606683e-01,-1.087947079857801980e-01,1.501120476211182941e-01,1.009105679706790021e-01,7.899119853973388672e-01
5.736135735981626183e-02,-7.325215262054659560e-01,6.417638352405138358e-01,-9.611705981740648053e-02,2.599979189728252038e-02,-5.594240074131726081e-02,1.210860371589660645e+00
2.618769448803531796e-01,-4.595709523567906851e-01,4.007300212350649038e-01,1.601000087990635951e-02,-1.015883773265457979e-02,6.672950003105958608e-03,8.007213473320007324e-01
2.628923437033679478e-01,-2.148335900648647434e-01,4.000593127478782041e-01,-2.446004165133070646e-02,-2.898274867225674595e-02,2.066040895271577943e-02,5.640571713447570801e-01
2.828144696507118860e-01,-4.830397548330691571e-01,4.469773462406081976e-01,2.438649930732404367e-02,1.546988379696738816e-02,-4.763644623054393706e-03,8.612648248672485352e-01
3.757011088476907013e-01,-4.388073378255322732e-01,3.506749456500968254e-01,-9.736739061922581109e-03,-1.250241329506512900e-02,9.628916586374000955e-03,8.029307723045349121e-01
3.283880805946034487e-01,-4.437386606404727374e-01,3.906526210119291020e-01,9.880782921607397015e-04,-7.432007010559548918e-03,2.723347281669818423e-04,8.051717281341552734e-01
3.673386685953959896e-01,-4.644255742317283664e-01,3.739069581175202273e-01,-4.870528494025315284e-03,3.481849783764721061e-03,-4.644933371467465689e-03,8.351709246635437012e-01
3.287599097442012175e-01,-3.864885192588385365e-01,4.120683466356301894e-01,-1.185984584282304133e-01,-1.477740898182428389e-02,-4.893782081414950469e-02,7.925550341606140137e-01
3.635337262231730926e-01,-4.725198942109529732e-01,3.725987665713558217e-01,2.929723029291139789e-03,4.118193889409145318e-03,1.174088881854745909e-03,8.406708240509033203e-01
3.615402199181360077e-01,-4.718636305865631098e-01,4.259783418623842577e-01,-1.188809826182930275e-02,-2.479244756640260755e-02,-9.909711199688482630e-03,8.688957691192626953e-01
3.240081819902745908e-01,-4.617512397593298568e-01,2.996585931444739059e-01,-1.629471051249255231e-03,2.230993068123585110e-01,6.380994302266426721e-02,8.720211386680603027e-01
4.037746879932169186e-01,-4.710390098181980179e-01,2.838951706916676976e-01,5.099821817887617049e-03,1.346927010458465884e-02,-1.407876058560597957e-02,8.222011923789978027e-01
3.864092703154252684e-01,-4.662512007915524670e-01,2.922178369863073777e-01,-5.710184790996872262e-02,2.656375316775340112e-01,6.575622147139617568e-02,9.434150457382202148e-01
3.767805040981541675e-01,-5.506592424928726803e-01,2.772264646594211346e-01,3.286185039332578661e-02,3.106546678889011703e-01,6.701200328764572722e-02,1.041131854057312012e+00
3.659704779467137792e-01,-4.751473217433195284e-01,3.618523961966986779e-01,-1.007680664056268688e-03,9.967553614844703886e-04,-1.390142635601994241e-03,8.390733599662780762e-01
3.142898748964886302e-01,-4.684013090261173184e-01,3.542317436533214958e-01,-8.464965217022364999e-03,1.508803976025532290e-01,-2.312509360175878104e-02,8.459178209304809570e-01
3.509490370392240322e-01,-4.554270451707349565e-01,3.259698016540990562e-01,7.977073189835735129e-03,2.314588690266367738e-02,-1.613867659930865762e-03,7.953172922134399414e-01
3.779247034117870774e-01,-4.674906355658527968e-01,3.296038034312093190e-01,1.175597766570138543e-02,2.394883778074622521e-03,1.079819179218896759e-02,8.227954506874084473e-01
5.178704026674956218e-01,-2.585027994926767381e-01,1.739506844766660898e-01,8.159285999260341635e-03,4.281624203678936064e-02,7.823753307123990086e-02,6.914396882057189941e-01
3.894118182634263570e-01,-4.674814123473634009e-01,3.223159606190896254e-01,1.242016082645153608e-03,5.314029985822002651e-03,1.146666141190495758e-02,8.256861567497253418e-01
3.411642569405133329e-01,-3.346356090848315867e-01,3.510527296658443874e-01,3.790683173445837974e-03,-1.548944836796938007e-02,-2.767743579534186183e-04,6.813581585884094238e-01
4.001769515128895671e-01,-4.781427906097734937e-01,2.935692104813933390e-01,-5.779114158754612013e-03,-1.077115898169224949e-02,-1.951708091657489152e-02,8.311234116554260254e-01
4.018002543166244722e-01,-4.657586857688503779e-01,2.845806893706899765e-01,1.064021428653368420e-02,1.674813771311494098e-03,-1.944736335848901848e-02,8.162026405334472656e-01
3.515463629548005731e-01,-4.175108567508399871e-01,3.758325785014902110e-01,1.269843305693705692e-03,-1.550816783917309885e-02,1.639964126568118838e-02,7.824637293815612793e-01
3.281921825018880856e-01,-4.572401816555401455e-01,3.605771130728341323e-01,2.680966684525817011e-03,-2.118816056849613313e-02,1.905529052270901573e-03,8.029745817184448242e-01
4.494611684404349328e-01,-5.203597119255308767e-01,2.994328949646950511e-01,1.648971601314523638e-02,-8.573291575197494740e-02,-2.186600833919799189e-02,9.175298213958740234e-01
3.693916186446560834e-01,-4.630407269581185981e-01,3.109097028286251230e-01,-6.897800329662108314e-03,2.899621322759725339e-02,-5.666388553409539182e-03,8.065004348754882812e-01
3.610564253375169175e-01,-4.405610693556398783e-01,3.639570724814466529e-01,8.032435510725279004e-03,-3.213475116100184513e-03,1.022557700650736107e-03,8.032134771347045898e-01
3.862388142950173298e-01,-4.688658541335406493e-01,3.225746295442659117e-01,4.761476957245671347e-03,1.102815266915864998e-04,-7.955014470362033879e-03,8.252729773521423340e-01
3.567427551440163769e-01,-4.343762106714458282e-01,3.775915302808134921e-01,1.358254805180436576e-03,-9.859998510891350085e-03,5.075987651875276535e-03,8.019801974296569824e-01
3.588960941202536947e-01,-4.570246770861026153e-01,3.625746165505912555e-01,-1.874919977945368197e-03,3.760960999578673129e-04,1.210014587656509620e-02,8.180414438247680664e-01
4.575636791792065949e-01,-3.772021877306624416e-01,1.101504713626370036e-01,1.664991285941308172e-02,8.897815655458386763e-02,-3.654983168947971428e-02,7.457291483879089355e-01
4.006854762137552761e-01,-4.696398302830037119e-01,2.813698677940345005e-01,-6.194062453869405563e-04,1.767728493973984641e-03,2.153276680414879449e-02,8.180834054946899414e-01
3.771938340552622448e-01,-5.073344750776046519e-01,3.398057823489524787e-01,3.769401286209102947e-02,8.074524847708354491e-02,3.505799302586112137e-02,8.821714520454406738e-01
4.426844472353561599e-01,-4.124441932787928922e-01,1.330501619266632463e-01,-4.762739819637432093e-02,1.249046854996560540e-01,6.622383554770180925e-02,7.931624650955200195e-01
3.760941368260353190e-01,-4.556605990516717775e-01,2.951623739952391468e-01,5.897482899102930026e-03,1.529954855193379343e-02,5.329975736569317508e-03,7.949479818344116211e-01
3.120652402660271107e-01,-4.443176873778538205e-01,3.452617592698053461e-01,4.725475410459808318e-04,6.008367140584466512e-03,1.939726359873049887e-03,7.735933661460876465e-01
3.244137669729797446e-01,-4.605514036775372189e-01,3.525293460968176862e-01,1.013878310933704653e-02,2.261606328670708738e-02,-1.561747211819334256e-02,8.010025620460510254e-01
3.336269114938569813e-01,-4.492804699739749719e-01,3.302079563464876966e-01,4.692971204481778506e-03,2.054414948264759316e-03,-2.914830650107288947e-03,7.812702059745788574e-01
3.285050764106316468e-01,-4.435565621848873707e-01,3.263952266819445946e-01,8.257111467036403613e-04,1.702025549130042024e-03,-3.943455099231692748e-04,7.710161209106445312e-01
3.257953360768176543e-01,-4.441124570922646564e-01,3.296092480266873959e-01,2.566908106170315718e-04,1.386259857175927172e-03,-6.628600008680468787e-04,7.718265056610107422e-01
3.461512187585791267e-01,-4.433540869245887750e-01,2.847795750993483699e-01,5.136796943376907738e-03,2.338498338240511260e-02,-5.017908466553795991e-04,7.618086338043212891e-01
3.315012176156489909e-01,-4.442241746414311576e-01,3.205648504876510430e-01,2.906854209465363839e-03,1.083588022745185682e-02,-2.429427042017233342e-04,7.705606222152709961e-01
3.565963939557466045e-01,-4.600272134433931459e-01,3.306080835595095468e-01,-7.647394841933523833e-03,2.946517317950298094e-03,3.078259985222024913e-03,8.040875196456909180e-01
3.785165747252637880e-01,-4.601235402979156897e-01,2.724546308683436502e-01,1.159612879130508985e-02,2.306587808885440793e-02,-1.265899898484608432e-02,7.925269007682800293e-01
3.675197412901510252e-01,-4.722858481578962042e-01,3.671597177677249912e-01,2.265996669910981878e-03,-5.271896949568062075e-03,-6.739820451668365568e-03,8.397656083106994629e-01
3.660710504933732401e-01,-4.686077604580778377e-01,3.673452218350696241e-01,1.083213305016589127e-02,6.749623759645585752e-03,9.113216178856669430e-03,8.357581496238708496e-01
3.511805181820135124e-01,-4.691657747993190908e-01,3.482342021637770957e-01,1.598770774598373516e-03,-5.838087957357730035e-03,4.290646746795952725e-03,8.189779520034790039e-01
3.479896888132025801e-01,-3.187628248654425511e-01,3.427631318440887975e-01,-9.268066121126143989e-03,9.026682675615916793e-03,-2.272684083125293963e-02,6.656974554061889648e-01
3.626995856572047261e-01,-4.742996725618100484e-01,3.664700641949371063e-01,2.681333338576215395e-03,2.633189708003006238e-04,4.840626729008650972e-03,8.389457464218139648e-01
3.635910213485087916e-01,-4.664201984944311707e-01,3.765868327681946015e-01,5.307412159895916019e-03,6.163181542783103400e-03,-3.959350102755959493e-03,8.367315530776977539e-01
3.510609342040409975e-01,-3.418641909547516233e-01,3.384926829778499568e-01,-9.624863672223558930e-03,1.030709285889163697e-02,-7.268323269695867346e-03,6.872768402099609375e-01
3.667753567910712609e-01,-4.730633390604632726e-01,3.673674149018680835e-01,2.538922602679923209e-03,5.299691885109388163e-03,1.228254115528468594e-04,8.401965498924255371e-01
3.578734331649399136e-01,-4.588642287017729027e-01,3.794290013120414917e-01,1.133376050053138242e-03,-1.907421640449463284e-03,-3.142060790131016509e-03,8.277527689933776855e-01
3.625676359576901486e-01,-4.321899045332376899e-01,3.680296876179727228e-01,-5.975064903761451076e-04,1.735438230518455624e-03,-5.577232832503819029e-03,7.975674271583557129e-01
3.769385804531070194e-01,-5.690352732496835042e-01,2.770745508459160344e-01,1.333812524985808490e-01,1.956455146727682504e-01,-1.484804221922459699e-01,1.022112011909484863e+00
4.610757345186895506e-01,-5.403606012781667634e-01,3.032836251172373876e-01,2.792666359450296162e-02,4.103694808647580239e-02,3.027163393008462655e-02,9.380273222923278809e-01
3.026701728408082159e-01,-2.151083978967409105e-01,2.786397967654571928e-01,8.725675028187614146e-02,1.501693416270018233e-01,-1.638398729676241415e-03,5.888390541076660156e-01
3.652879151549415782e-01,-4.719580451835359014e-01,3.640263354938349516e-01,-7.598705712790262013e-04,-3.252015977718220215e-03,1.582262087264589947e-03,8.366403579711914062e-01
3.770726064222263973e-01,-4.412185936532743158e-01,2.156212981287217723e-01,1.732169749736698836e-02,1.957771671568294125e-01,-6.536717163593625674e-03,8.243587017059326172e-01
4.930629854805337331e-01,-4.870036839355922353e-01,2.402449741040749986e-01,-1.651032142888552226e-02,2.599607091655599667e-01,-2.153486859039113396e-02,9.907658100128173828e-01
3.224577209243093545e-01,-2.059766293853289576e-01,3.264371907575310816e-01,4.115633593298698850e-02,-6.623276169935703520e-03,-5.650453573689802333e-02,5.441994071006774902e-01
3.571283051524929975e-01,-4.169930098431563481e-01,3.564589941157610964e-01,1.493265210869748616e-02,-6.565236791709894160e-03,-3.285496463871158228e-03,7.743234038352966309e-01
3.608475876393382187e-01,-4.124393668053332185e-01,3.613074466825138553e-01,4.477887867786473595e-03,-1.324697111113623191e-02,-1.308211544751174474e-02,7.742277383804321289e-01
3.778249424468045348e-01,-4.363165755226304787e-01,3.558702642543967176e-01,-2.931809032852964337e-03,-7.132082775970162783e-03,-1.789758121742798802e-03,8.035061955451965332e-01
3.630347884208339759e-01,-4.637846987844292945e-01,3.656883069936435193e-01,-4.705073344627674209e-03,-1.112141134169048569e-03,7.988896293517165972e-03,8.283073306083679199e-01
2.892004252506272799e-01,-4.686267718794104864e-01,3.972095085744532517e-01,-2.624327526742243136e-02,2.369429971920915257e-02,2.047776666832494541e-02,8.202612996101379395e-01
3.684973061348076340e-01,-4.638522735577760292e-01,3.651858120268953734e-01,-1.813637347357942103e-04,-3.139418485979401409e-03,6.491187890327521602e-03,8.307927250862121582e-01
3.195432410080580876e-01,-4.440001402992407309e-01,3.848899347494955658e-01,3.008595694380446564e-03,1.229144945910834626e-03,-1.880202488857862699e-03,7.982518672943115234e-01
3.517929731396322035e-01,-3.443741325073342296e-01,3.523801545662073043e-01,4.364699615298719970e-02,-2.230725132685990476e-03,5.493331755986820188e-04,7.005631923675537109e-01
2.930919023069163964e-01,-4.524587146074213750e-01,3.662700965788994734e-01,-8.198056360072012577e-03,6.825108463512880724e-03,1.241927033326549121e-02,7.852151989936828613e-01
3.395451665532910890e-01,-4.626344518468392675e-01,3.775722187685744968e-01,-6.644513248014316011e-03,1.043358325051232114e-03,2.071964872003317134e-03,8.219436407089233398e-01
2.900039582835551299e-01,-4.647050877097134158e-01,3.971963743803472724e-01,-1.766733198299056881e-02,6.575166846956620632e-04,7.201389893266772931e-03,8.142900466918945312e-01
3.309219624792511527e-01,-2.803068988241175230e-01,3.704998416406688477e-01,2.751734877946384467e-02,4.941162092663163412e-03,-7.587713789048834701e-02,6.472828984260559082e-01
3.325505100715779871e-01,-2.190161448362960006e-01,3.453813550828171985e-01,8.199717180795618177e-02,-2.174971620162946106e-03,-1.590589689950404860e-03,5.758991837501525879e-01
3.271551403604809338e-01,-2.081610039925893552e-01,3.197099830590564018e-01,3.575668956147099592e-02,-8.857020367106914482e-03,-3.057431546554307059e-02,5.380600690841674805e-01
4.477600271517091501e-01,-3.592877186110526866e-02,3.882084867651292570e-01,2.128390476114322069e-02,-7.722366883900375067e-02,1.307105408421516471e-02,4.779737293720245361e-01
2.747154004382849624e-01,-1.247662834156752498e-01,5.232055118445548825e-01,5.773924368918655070e-02,-2.694845175053724867e-02,2.185143365872156684e-02,5.781114101409912109e-01
3.505848640528745341e-01,-3.545303951533873565e-01,3.456980370135901426e-01,-1.486688499856493074e-02,-1.744038671627872947e-02,-6.523649877681426739e-05,7.038047909736633301e-01
3.136655479637247002e-01,-8.319265006525050632e-02,3.108044428474765475e-01,-9.542301287090121376e-02,6.320042306933504328e-02,1.203376976052893121e-02,4.428353309631347656e-01
3.159125311125886570e-01,-2.003704241735875802e-01,3.267616185943006957e-01,-3.283554969970365472e-02,9.675476496760768499e-03,-1.010188664632308796e-02,5.254412293434143066e-01
3.629606965411430464e-01,-3.655550858997796970e-01,3.410376807407230482e-01,4.454780044128503133e-03,-1.091713250178497768e-02,8.098534788796327849e-03,7.182328701019287109e-01
3.756354519380551427e-01,-4.585199056427455844e-01,3.604189473804993993e-01,-2.200772126197356529e-03,-7.459820827127075851e-03,3.350285589568456276e-03,8.267822861671447754e-01
3.247107454065787380e-01,-2.891620356198209008e-01,3.503498449959154271e-01,1.670569662019776719e-02,2.158716021433342274e-03,2.799835654750821093e-02,6.296342015266418457e-01
3.104860467685496284e-01,-1.142870271827792772e-01,3.110110254844735134e-01,-3.959020300802552732e-03,4.786655022013649487e-03,3.479542099890347434e-02,4.294221103191375732e-01
3.465463071590177413e-01,-7.500912034178780496e-02,3.351436727547093541e-01,-1.389409484191037915e-02,6.957067092921922699e-03,-5.032313718123884727e-02,4.258565008640289307e-01
3.318589092946004349e-01,-1.304036991822630775e-01,3.209093706013107505e-01,-5.003389539962944943e-02,3.164964657034977785e-02,5.322409236195120054e-03,4.683431386947631836e-01
3.058354070298777705e-01,-4.707364339928828967e-01,3.878409031208917002e-01,-1.606687577972416847e-02,-4.154807679972137568e-03,-1.354586099504197748e-02,8.214916586875915527e-01
3.299560321113725880e-01,-2.674053313051288350e-01,3.319982159021389601e-01,9.195507416891035915e-03,-1.396934428516152793e-02,-9.912109363245916530e-03,5.993317365646362305e-01
3.549045743773233674e-01,-1.229757577042051020e-02,4.712837410282583739e-01,-1.801032181132902754e-02,3.744903820219417506e-03,4.665492598194239532e-02,4.457145333290100098e-01
3.206714091749415241e-01,-4.994737530308304696e-02,3.041300255304056344e-01,-3.273553380718602357e-02,4.479468788060249340e-02,-2.840453456222534825e-02,3.783600628376007080e-01
3.162848636792379708e-01,-1.785500650700789227e-01,3.122320082993450541e-01,1.627708313525431244e-02,-9.842065239427398582e-03,-1.513649226738350562e-02,4.946163296699523926e-01
3.510122189645858426e-01,-2.611016795934709145e-01,3.441445217067083950e-01,3.370680458117153444e-02,-6.671969062627658084e-03,-8.097952999171885435e-02,6.274884939193725586e-01
3.352584394920177235e-01,-2.343986108880038999e-02,2.877140380304066825e-01,-2.038454934546142863e-02,3.332497184939604666e-03,1.042428852277699561e-02,3.398186862468719482e-01
3.043454502607149115e-01,-1.964578873685585703e-01,3.190976548254712553e-01,1.367533552971067490e-02,-1.116464381291917048e-03,2.242588397458100452e-04,5.088953971862792969e-01
4.294182269593329604e-01,-6.293025479819069901e-02,5.126487470680097802e-01,-1.555438798402202644e-02,7.502727679118820214e-02,7.411067633932577788e-03,5.550591349601745605e-01
3.434228526075604471e-01,-1.957398554375225919e-01,3.283426442027427838e-01,1.168463095917952020e-02,-7.027150356336872572e-03,-4.078053989042805527e-02,5.369730591773986816e-01
3.199757358598551704e-01,-2.040215585813840993e-01,3.089040792876762698e-01,4.077664900228899353e-02,4.113130992401046321e-03,-2.845464334993054369e-03,5.234094858169555664e-01
1.819635784580043436e-01,-6.585898053508286720e-01,5.907787021201743594e-01,6.729689608552130720e-02,1.454030422478375939e-01,-1.875882751121106182e-02,1.138138413429260254e+00
3.438747612329778325e-01,-4.626239163372215524e-01,3.471492284477077916e-01,4.290713356595473156e-05,1.350313324418717055e-03,5.132416568190195302e-04,8.081447482109069824e-01
3.551369318952402598e-01,-4.635179985079964649e-01,3.457390961908138882e-01,5.724516002758054875e-03,1.341775026524687740e-03,5.100034554940817725e-04,8.140608668327331543e-01
3.403239629296254676e-01,-4.652142298397824449e-01,3.590449141005949696e-01,-1.521934404764931819e-03,-3.345044874350389975e-03,8.165945724923868304e-03,8.152074813842773438e-01
3.641469335881534763e-01,-4.725837803745064347e-01,3.595080855729589353e-01,4.695918085875135442e-03,1.644756453534143223e-03,5.148231927760912874e-04,8.344659209251403809e-01
3.544864644123271735e-01,-4.727828919231765736e-01,3.608540198184064796e-01,-6.634031253573860563e-04,3.332523324230662713e-03,4.607559897479670988e-04,8.304926753044128418e-01
3.470877085033572396e-01,-4.643183099704384365e-01,3.572888700503232817e-01,9.278094246506930071e-03,-1.052828208912021980e-02,1.313038524124389254e-02,8.172325491905212402e-01
3.598008852612858410e-01,-3.944397304683817662e-01,3.514041870965222136e-01,-4.676611806856535714e-02,1.099007666664331140e-02,-5.229256238044852761e-02,7.600943446159362793e-01
2.965941857839480833e-01,-4.928506695198177079e-01,2.979093006834083734e-01,2.627420168955255445e-02,-1.365781808990698398e-01,1.979802525490986440e-02,8.267229199409484863e-01
2.512591965800018978e-01,-4.645871894833971671e-01,3.678528552420825548e-01,7.494501213797135145e-03,1.444633857726703441e-01,1.098837865454369012e-02,8.201420903205871582e-01
5.189187788549276537e-02,-4.919580616726895173e-01,6.390608125222932978e-01,3.959703877505831027e-02,7.406097647334942968e-02,-3.038659642380060755e-02,9.918673038482666016e-01
3.616255971837379346e-01,-4.764477583075393818e-01,3.672131388512330230e-01,-4.336967970242727689e-04,-4.149555475059614994e-03,1.971955374453043721e-03,8.409190177917480469e-01
2.868459290421813135e-01,-4.583714961364567797e-01,3.785712188404092848e-01,3.296793164795648167e-03,9.523439378906371419e-03,8.043843410013051462e-03,7.953720092773437500e-01
3.272468112342652447e-01,-4.629594953602049756e-01,3.648143083587259139e-01,-6.784107686931042588e-03,3.477925609592414508e-03,1.095832342687575248e-02,8.099740743637084961e-01
3.318283349244156577e-01,-4.528522962077562442e-01,3.404071280839094937e-01,6.760346674418923354e-05,8.369663525371013463e-03,5.021519836318797531e-03,7.891861200332641602e-01
3.405833242484470058e-01,-4.585514158965703357e-01,3.492300220974016156e-01,-7.507797123570561851e-03,1.175026901713560959e-02,6.718245237514680092e-03,8.039401173591613770e-01
3.177039001826608144e-01,-5.164829669677268864e-01,3.531171695179081138e-01,3.906135492136121601e-03,1.456599744292264853e-01,4.348852153699172413e-02,8.922069072723388672e-01
1.525690794937976380e-01,-4.950357355399663817e-01,4.810491521118727132e-01,3.437232261395832544e-02,1.054118757327814904e-01,-3.408522850620062002e-03,8.814367055892944336e-01
3.483044849899038509e-01,-4.568832977144310359e-01,3.073273020278721734e-01,-1.210383430075328247e-02,7.964219300929024567e-03,8.110605035530508988e-03,7.860275506973266602e-01
3.671659421044815574e-01,-4.631819444468884273e-01,3.217046196918786904e-01,-1.258733569304077739e-02,4.604068287987236711e-03,8.531484784680997899e-03,8.090444207191467285e-01
3.585475498466741962e-01,-4.634572249035032732e-01,3.398387158162046173e-01,-7.276491290266927196e-03,4.269992225671755820e-03,-2.095069357696032700e-03,8.129513263702392578e-01
3.363333487031207603e-01,-4.608932735386281898e-01,3.409653604804636085e-01,7.366075062595822329e-03,3.526448424724863001e-02,6.207032195440622367e-03,8.020558953285217285e-01
7.232595564935602184e-01,-9.072839453637420171e-01,1.158923880368854520e-01,-9.315526619338604028e-03,-2.750050317490507906e-02,-2.755754967040544012e-03,1.428208827972412109e+00
4.267653930554918262e-01,-4.474456075850226089e-01,1.980260596053167454e-01,3.653788962284959009e-03,-6.882538927228922659e-03,-1.936280642674191501e-03,7.853620052337646484e-01
3.986186766852445884e-01,-4.627098533859111962e-01,2.827479452073912158e-01,1.411407447500026991e-03,-6.963367925887774257e-03,-9.133836378931871336e-03,8.098838329315185547e-01
4.255755650289321790e-01,-4.685467117095061251e-01,2.290607332573189048e-01,-5.010259789737466808e-04,-6.842962900466044787e-03,7.636660672493531324e-03,8.140519857406616211e-01
3.421894341627770286e-01,-5.293737953758357317e-01,4.278182002221218583e-01,1.867196553314619169e-03,7.232397570918762397e-02,-8.075546466789989110e-04,9.258997440338134766e-01
3.245908536111679621e-01,-4.676236583457620277e-01,3.870833191700184805e-01,1.076847900427022227e-02,-3.312736680250515792e-03,2.800906271814027158e-03,8.254822492599487305e-01
4.924181956393527404e-01,-8.940504987448564256e-01,2.292321650564105862e-01,-2.123481415336399281e-02,2.565953393989460207e-01,-1.828183881547460199e-01,1.387734532356262207e+00
3.698523940337343219e-01,-4.506647603288952419e-01,2.744199765553496650e-01,1.211488096918088980e-02,8.421286663934485564e-03,-2.815395156839422056e-02,7.791551947593688965e-01
3.630073213801343623e-01,-4.658549005336617421e-01,3.601353290142366159e-01,-8.124242532070568429e-03,-1.011636027938746804e-03,6.497281241305899457e-03,8.276279568672180176e-01
2.861607586074836895e-01,-3.448351959320881122e-01,3.036858008824593336e-01,3.636632658337887562e-04,1.518342321207793721e-01,2.123791082257254700e-02,6.928460597991943359e-01
2.098982679891152336e-01,-4.846425729561776308e-01,4.252457184113817568e-01,-4.458939514094197032e-02,1.533656856492202902e-01,-9.395940186937354680e-03,8.689773678779602051e-01
3.336740868510014169e-01,-1.921488868317077769e-01,3.292829200456389716e-01,1.637335187500965281e-02,6.362771456824317662e-03,-1.254256263771283929e-02,5.249740481376647949e-01
3.581351467548296030e-01,-4.122632776726234960e-01,3.558893368952908975e-01,-5.062968827870376358e-04,-1.445097000916452032e-02,-9.066396512610663122e-03,7.698457241058349609e-01
3.690176377159493093e-01,-4.651548212585280284e-01,3.681688634653982328e-01,-2.456651675480620023e-03,-8.536886844286324921e-04,-1.053978654181565895e-02,8.339604139328002930e-01
3.296368849052713768e-01,-2.701046174688284118e-01,3.316179957111776710e-01,-4.850913730770034862e-03,-1.172067547116886418e-02,-1.833361189034298649e-02,6.019742488861083984e-01
3.609913249906525068e-01,-3.877380656438204620e-01,3.581411367370961329e-01,-1.589260665589071336e-02,-8.888889154566877171e-03,-2.770421761633661863e-03,7.479890584945678711e-01
3.539806321401556266e-01,-4.316817905883488793e-01,3.793282110022352938e-01,7.212974207913160248e-03,-7.473804064546233934e-04,-7.167400110125184999e-03,7.988331913948059082e-01
3.272089955678542661e-01,-3.095462895680997084e-01,3.557133717123670547e-01,1.373442196707747205e-02,-5.955716781515695696e-03,-4.173683506281203326e-02,6.559864878654479980e-01
3.407002509929465961e-01,-4.653060195365595897e-01,3.679596806138869525e-01,-6.056231299373854293e-03,6.426871422369589623e-03,6.142874603415227931e-03,8.201875686645507812e-01
3.641936257528022858e-01,-4.709636634929147414e-01,3.523570783343489832e-01,-6.328747692673132412e-03,-1.910628949883598580e-03,4.019280684093216177e-03,8.294106125831604004e-01
4.334125612225280255e-01,-5.168950568399881540e-01,3.304697851733537362e-01,-3.279636489177830891e-03,6.556976758038335351e-02,2.781281402151608226e-02,9.116499423980712891e-01
3.517984078004151582e-01,-3.918699582800994063e-01,3.636386853664966834e-01,-9.948714517618174880e-03,-1.280972063608140990e-02,1.292258045134040724e-02,7.505186796188354492e-01
3.639686974350537785e-01,-4.312750194531542736e-01,3.490453820117697115e-01,1.571346602079257138e-02,-1.169685198060060188e-02,9.522633543264392639e-03,7.887907624244689941e-01
2.916640342784821427e-01,-4.532861266767772568e-01,3.559636822695587122e-01,1.333739008067868353e-02,8.605859484647569724e-02,-6.938511280632621379e-04,7.935606837272644043e-01
3.651443269149144411e-01,-4.669310478943998755e-01,3.661345633568111602e-01,3.173695908771736063e-03,-1.469620237623201105e-03,5.024734552647626765e-03,8.326384425163269043e-01
3.615711320303153231e-01,-4.724725746678744009e-01,3.636301243912855585e-01,2.081635873893488038e-03,-5.489554220389225320e-04,-2.080474191733447387e-03,8.350912332534790039e-01
2.890653684173355442e-01,-4.691917416834937571e-01,3.923217434608504139e-01,-2.213689959747667385e-02,3.626247497710665194e-03,3.741604174146970219e-03,8.157586455345153809e-01
3.568520777706609692e-01,-4.054023649928666373e-01,3.624582672792946436e-01,9.726811048455345776e-03,1.377415351868917226e-02,-4.674172865175450255e-03,7.656730413436889648e-01
3.429314683375802586e-01,-3.591644723473483847e-01,3.596180939989941927e-01,-1.474001306131385389e-03,1.894423002099471232e-02,2.957610286953867018e-02,7.131901383399963379e-01
3.569722485716048666e-01,-4.475918655184668582e-01,3.755971625768280142e-01,2.018805777102149375e-03,5.942001039849809790e-03,8.254245661056250002e-03,8.142344951629638672e-01
3.108645585683441070e-01,-1.254812208478949809e-01,3.072792933002616578e-01,-2.101449088718416666e-02,-2.769609141193491494e-04,2.729624781370151507e-02,4.386415183544158936e-01
3.683651452759872380e-01,-3.805292021066579156e-01,3.401166476821448348e-01,2.061903008649617133e-02,5.233297210443195457e-03,-1.313315767438659942e-03,7.361034750938415527e-01
3.396445051718720576e-01,-2.004919534568843642e-01,3.377885479194914775e-01,3.680699154080879082e-02,-9.956679980093488536e-03,8.482936352843456485e-02,5.627593398094177246e-01
3.576173463708518518e-01,-4.379227125433052814e-01,3.672548837136719868e-01,-3.509505623783192637e-03,1.111951812994941419e-02,-2.099942443079915247e-03,8.006653785705566406e-01
3.590990867470219561e-01,-3.742056822564217011e-01,3.587636475183109130e-01,2.077318799609779651e-02,1.880057192448950087e-02,2.230274175341865825e-02,7.357562184333801270e-01
3.337330469267243416e-01,-4.639667765149676493e-01,3.707295764629849333e-01,5.014418356722434231e-03,-1.170636484599131208e-02,-7.895444129339981160e-03,8.172389268875122070e-01
3.867978274137262029e-01,-4.178914350639331143e-01,2.758715264093333785e-01,4.409973613685684059e-03,-4.876566031797929801e-02,-1.635493390145794160e-02,7.606334686279296875e-01
3.824111046561378124e-01,-4.482338035151423039e-01,2.391332182907826842e-01,1.805751994548742204e-02,-3.289868632071621390e-02,1.491896468596656984e-02,7.722560167312622070e-01
4.145464714651996840e-01,-4.581906529888792878e-01,2.631031179358505057e-01,1.979596288358189023e-03,4.563676813332183087e-04,-6.305530534540473679e-03,8.078159689903259277e-01
3.979444371477281472e-01,-4.631352027071271582e-01,2.584862013834039463e-01,1.530499028467971305e-02,-1.047430939524816862e-02,2.031200466139393077e-02,8.019299507141113281e-01
4.635551862884763064e-01,-5.324972977996750290e-01,2.470554797874397468e-01,-2.811165337887934143e-02,-9.908602380651812536e-02,-2.889828898252288017e-02,9.261089563369750977e-01
3.352593165894188210e-01,-2.165293490472106064e-02,3.030394393521333440e-01,-1.631115478933336735e-02,-2.433335032024614916e-02,6.254679449037300366e-03,3.458564281463623047e-01
2.927569891873446073e-01,-1.312544975250090062e-01,3.022101947649743492e-01,-3.448175934628555910e-03,-7.758235672625719490e-03,-3.486995907287680860e-03,4.291108250617980957e-01
2.079686724070815562e-01,-4.508297914358591063e-01,4.214361556418195209e-01,2.585211946772801236e-03,-1.867210460558179144e-02,-3.383922408828140757e-03,7.882361412048339844e-01
3.535820720712005150e-01,-4.641990628959157261e-01,3.426902186374989889e-01,-1.033322073159439157e-02,-1.520252947913254202e-02,-8.244921803708392047e-03,8.131390213966369629e-01
2.717087032660812085e-01,-4.563163864279516924e-01,3.812181593163979088e-01,-6.212615295008809806e-04,-4.293874903005515803e-02,-8.347621091934782217e-03,7.921363115310668945e-01
2.363847769287436840e-01,-4.595260760987694981e-01,4.183404371619351414e-01,-1.025870805326541992e-02,-1.233757479492716275e-02,-1.944298351673490795e-03,8.029996156692504883e-01
2.547172034547866559e-01,-4.556824465678496194e-01,3.992719959289954823e-01,-1.381200073191824959e-02,-7.169007161287025212e-03,-8.022662133072420987e-03,7.932055592536926270e-01
3.774578947364881643e-01,-6.207932403913315467e-01,2.901686300822463593e-01,8.697213238152812220e-03,-2.813357094419329241e-01,2.002755567373936535e-02,1.075112938880920410e+00
3.486037233512099820e-01,-4.707991907336430693e-01,3.695649305072833402e-01,-7.389315405067492168e-03,1.879675785679596391e-03,-7.769661602775139453e-03,8.302961587905883789e-01
3.290963966019161968e-01,-4.353690927140022593e-01,3.753722845909933103e-01,-2.014138036446926419e-02,4.170896621607530358e-02,6.382922681274594105e-03,7.927694916725158691e-01
3.625473203019414781e-01,-3.675172614816227812e-01,3.510038641398780523e-01,3.254932765147962315e-02,-2.080647977145818825e-03,-5.669002449380126235e-03,7.266277074813842773e-01
3.588462498123237698e-01,-4.608881800458225486e-01,3.653400230461888443e-01,-4.685862442714631287e-03,-4.675476514946133068e-03,5.365803863591219955e-03,8.231328725814819336e-01
6.148570564056747845e-01,-8.158047104026483476e-01,9.161134535150705638e-02,-1.661253770966387433e-01,1.316436848287779182e-01,1.150504107712119750e-01,1.321546196937561035e+00
6.149480403681049090e-01,-5.876645576186010356e-01,6.800113442454078228e-02,3.543071391815348463e-03,1.995722241174732181e-01,-1.611056537787149481e-02,1.099075198173522949e+00
3.173208862240634032e-01,-5.981514342051663657e-01,4.106739186953053955e-01,-4.818913608362081213e-02,1.581784631877125591e-01,-1.943379320445070765e-02,1.007684111595153809e+00
4.405942978093175255e-01,-4.655758897215473979e-01,1.989080357609409599e-01,-1.036083696509072956e-02,2.078575632021657099e-02,1.463830885586468386e-02,8.141307234764099121e-01
3.435943618071116701e-01,-4.496433154531841447e-01,3.007137278751264575e-01,7.869276180051070976e-03,1.614438357872557267e-02,-2.676895145987777738e-03,7.733300924301147461e-01
4.532298394620616899e-01,-5.313955767271306696e-01,2.205757508118809662e-01,-4.673286894802312214e-02,1.551067620106800771e-01,1.261144855235070139e-01,9.596763849258422852e-01
2.706038541081771109e-01,-4.526747657077454523e-01,4.027856946357917245e-01,8.626409878453490318e-03,-3.359622822032601319e-02,3.628392566395735683e-03,7.999107241630554199e-01
3.664116926666055041e-01,-5.421818127766692141e-01,2.672149422462776203e-01,-2.116590188256800217e-02,1.410746953633937317e-01,2.321051794573592356e-02,8.988431692123413086e-01
3.379355532738057000e-01,-4.676373323565697904e-01,3.704240172459820624e-01,-4.683135438565727733e-03,1.727229051183746741e-03,-3.845765076697204264e-03,8.223710060119628906e-01
3.223772712576081778e-01,-4.968475582122396927e-01,4.389611414427272429e-01,-3.263393220152982499e-02,3.264158868589845525e-02,3.664723876659327362e-02,8.891849517822265625e-01
3.667937937809688242e-01,-4.655301792285460039e-01,3.755873447087330619e-01,-5.932303365859276784e-03,3.130688012871168935e-03,-4.613720590292834552e-03,8.368741869926452637e-01
1.823578312350153663e-01,-4.702501024362950588e-01,4.393216598161359121e-01,5.434773359261335646e-02,-9.989932296641079734e-02,1.613910745817993125e-02,8.361855149269104004e-01
2.728137898040829956e-01,-4.663155125742893814e-01,4.139422734441719487e-01,-8.639091169411876672e-03,2.344274504748538896e-03,-4.500734469734901308e-03,8.190498948097229004e-01
2.914306244498893195e-01,-4.681682063556330542e-01,3.998129105836489283e-01,2.156251378677773514e-02,-2.504290019626183219e-03,6.736009464438562529e-03,8.201304078102111816e-01
3.270077698484258333e-01,-4.444919939368494610e-01,3.704329292926518691e-01,4.164621449288888506e-03,-3.066474366618882411e-03,2.531444394740112441e-03,7.941659688949584961e-01
3.737443808715311677e-01,-4.647224287524835962e-01,3.438045817273218674e-01,-7.174331854497281030e-03,2.303453889494200095e-03,6.796718054006803574e-03,8.240924477577209473e-01
3.745023720550374469e-01,-4.647645163245984756e-01,3.060400135224480289e-01,-9.794145343306460277e-03,1.701094165639406575e-02,7.823400156455769666e-03,8.080453872680664062e-01
3.885021355604841853e-01,-4.652799254324122558e-01,2.969714715075583156e-01,-1.042078571747600754e-02,3.077183607677754298e-03,1.578257906248869968e-02,8.125736117362976074e-01
3.636414891627722246e-01,-4.531114640281374006e-01,3.595066145240028432e-01,-4.584512641287677263e-03,-2.206583391625444122e-03,-3.178697176578350434e-04,8.147412538528442383e-01
3.636054665568693722e-01,-4.550831705152956763e-01,3.699521752509959405e-01,-3.678848017179337133e-03,-9.698713987901149206e-03,-1.006908619652032311e-03,8.220785856246948242e-01
3.804811767854522353e-01,-4.677001491473580241e-01,3.301436607618130070e-01,-4.283941815725226393e-03,2.725601423186216343e-03,-7.023626036219028472e-03,8.243029713630676270e-01
3.412861898704764307e-01,-3.019936886809447829e-01,3.555783733271127289e-01,1.554408361919642698e-02,-1.329697299317753045e-02,-3.386713690029571899e-02,6.541432142257690430e-01
4.685275942512726055e-01,-3.790600254576417250e-01,1.794161456215956629e-01,8.049484223986745624e-02,2.529738933791830791e-01,-2.459682480101987173e-02,8.776010274887084961e-01
4.078166522248476422e-01,-4.560590601886067574e-01,3.009449800937070707e-01,1.516821232318715448e-02,7.335331214402410205e-02,2.197773174665819049e-02,8.268375992774963379e-01
5.444225166175959973e-01,-6.599763451905720224e-01,1.398310180404493952e-01,1.339874286164691349e-02,1.592277551255790943e-02,-1.153861449194700933e-01,1.080843329429626465e+00
3.791900868644808020e-01,-4.573819648556202155e-01,3.313907223562258531e-01,-1.367031464516969309e-02,6.875426724741078369e-03,9.728958862751799913e-03,8.143318295478820801e-01
3.808422857972155184e-01,-4.635862118499096685e-01,3.261742298362282355e-01,-8.954780130922893044e-03,8.103662062845443451e-03,-5.498063953471689705e-03,8.187875747680664062e-01
3.455858574895933621e-01,1.106760418740251883e-02,3.466712443409213362e-01,-3.266138084935875374e-02,3.321519008169765419e-03,-4.012244892667965468e-03,3.399241268634796143e-01
4.095177118637929325e-01,-4.620131298710326018e-01,2.419839605670562888e-01,3.898194133749740241e-03,6.329509029659975694e-02,-1.615609049720499041e-02,8.089933395385742188e-01
3.662569847709379323e-01,-4.656408965482293771e-01,3.208021168139737478e-01,1.433164264950716714e-02,4.651804213988115257e-03,-1.218686605385121448e-02,8.108224868774414062e-01
2.919125629460271876e-01,-4.714577091517931917e-01,3.902295913181551557e-01,-8.887318863856411705e-03,8.805124041991879702e-02,-1.653188236659224042e-02,8.317263126373291016e-01
4.103892007520926755e-01,-4.607540093032974626e-01,2.296210821011855918e-01,9.825701290075958966e-03,2.419399422840805280e-02,-1.752873735732115440e-02,7.981604933738708496e-01
3.496153509349089195e-01,-4.176053234299159644e-01,3.725964730962351701e-01,-6.885970066288446892e-03,-9.018512268230822332e-03,7.269097110948169460e-03,7.793151140213012695e-01
3.458235726152666389e-01,-4.512215197010532863e-01,3.644789086001554712e-01,8.684187983279346296e-03,4.026850935370025752e-02,2.530959576902923683e-02,8.108703494071960449e-01
2.752753222488805163e-01,-4.607960669936800313e-01,4.028415987346658511e-01,6.750778215476043072e-03,1.191229691858665743e-02,1.158419171312008358e-03,8.077986240386962891e-01
2.553203143699529498e-01,-5.394770920118424629e-01,4.792380508764622626e-01,3.810221178998740577e-02,2.121218584857020861e-02,1.950705396150079901e-02,9.309447407722473145e-01
2.647792402458761796e-01,-4.589035418761197027e-01,4.086523307364183788e-01,5.614613280475825793e-03,1.266329238964683176e-02,1.266900489763177901e-02,8.059726357460021973e-01
2.990628507251847368e-01,-4.675426265411355420e-01,3.873423564354372961e-01,-1.753711835869456448e-02,4.949261637160181325e-03,1.237801434816218279e-02,8.152352571487426758e-01
2.975631621528749271e-01,-4.584570074197940048e-01,3.753471119863949768e-01,2.613041424080215364e-03,1.017478908670946952e-02,9.233733039977987112e-03,7.981290221214294434e-01
2.573761294213241513e-01,-4.663890815380178356e-01,3.957874175339997080e-01,-2.805000145697530631e-02,6.631327786539606417e-02,9.573544917354572317e-03,8.117873668670654297e-01
3.013441777586464698e-01,-5.487446720986948190e-01,4.448177447967548992e-01,3.047957113931872367e-02,7.140357576748539159e-02,-2.928326631893352506e-03,9.398452639579772949e-01
3.176160199806607465e-01,-4.694995912587353049e-01,3.758996991573386182e-01,-6.184485340256296211e-03,2.423660803483031895e-02,1.116969918882979376e-02,8.191918134689331055e-01
3.515533398753645788e-01,-3.365285621250639347e-01,3.402148097213592015e-01,-2.949707238700455605e-02,1.800033479998136218e-02,3.580138901457884104e-03,6.851307749748229980e-01
3.203361294454694641e-01,-2.179578691222694431e-01,3.214041012986732504e-01,-3.224712683230101379e-02,1.343838379804906946e-02,3.339106473870031969e-04,5.422160029411315918e-01
3.622851400800360944e-01,-2.855174714801435032e-01,3.655781719831718846e-01,-4.205358185673864491e-02,-3.563098001790496357e-03,-3.369663746015193889e-02,6.561571955680847168e-01
3.626301727423338894e-01,-4.135174328713534520e-01,3.596505365174824664e-01,-6.972751243086830301e-03,1.285299610445429438e-02,-1.453394804256661829e-02,7.754846811294555664e-01
3.531016542211458109e-01,-4.531894356916972288e-01,3.236133920567553224e-01,1.393711727089750642e-02,-2.418200334300090598e-02,1.168588254682480926e-02,7.936910390853881836e-01
3.468076156443745672e-01,-4.661197854502706628e-01,3.678813631897120406e-01,5.931624586429605321e-03,-7.044781693584306471e-06,8.035290113343852153e-03,8.238481283187866211e-01
3.606743018147458013e-01,-3.303164339832609930e-01,3.328457142463492335e-01,-2.532513955350406895e-02,5.151983955007652556e-03,-4.114647722116905257e-03,6.790197491645812988e-01
3.627572364252531489e-01,-4.046786901226566702e-01,3.584519758439090320e-01,4.111736928492135991e-03,1.701648666623533507e-02,-1.291449330339009514e-02,7.662193775177001953e-01
3.530137769464606334e-01,-4.960322791594234948e-01,4.020190767180817915e-01,2.023009474003234498e-02,-5.859724847890114552e-02,2.929117305869255016e-03,8.811599612236022949e-01
2.883684067459690303e-01,-4.707886562200199743e-01,3.951433056926408338e-01,-1.195405419723140003e-02,-1.228015568758880280e-02,-8.196837923637931983e-03,8.184509277343750000e-01
3.921437524706226085e-01,-4.829922664998611559e-01,3.043438031348892348e-01,-9.381001958197391147e-03,5.930959771459463556e-03,1.203764688850694591e-02,8.351881504058837891e-01
4.633398509484095151e-01,-3.195160053635289210e-01,8.363747468451096512e-02,-1.174453929649216417e-02,8.291461100945383966e-02,-2.188714344105619283e-02,6.944497227668762207e-01
3.153670093592422230e-01,-2.722174518369994689e-01,3.529090022395410808e-01,1.502030130511431208e-03,-4.526640857333162106e-03,-4.434621061932145225e-02,6.121208667755126953e-01
3.417884027769332311e-01,-3.778007143303812598e-01,3.682523466308784688e-01,1.703734787671003009e-03,1.598588658649554781e-03,-1.849863106299242874e-02,7.338902950286865234e-01
3.182872937955432691e-01,-2.072348916565281418e-01,3.111548803235019145e-01,-2.372654094049312518e-02,8.611814376129248161e-03,-9.912874088342396670e-04,5.238229632377624512e-01
3.648726035842090321e-01,-3.725584560746759144e-01,3.455968673214510067e-01,5.113917467024532704e-03,1.208916592200690379e-02,-7.279344641410515938e-03,7.284486889839172363e-01
3.582299126806552936e-01,-3.555473668254708897e-01,3.535049750759099441e-01,-3.845148266421422739e-02,6.964166376836819494e-03,-2.584559359568776304e-02,7.160396575927734375e-01
3.468344955851674349e-01,-2.145644223392467742e-01,3.230366630899412783e-01,-9.850828193547159217e-02,6.655117757571988105e-03,-3.357267758219708957e-03,5.758935213088989258e-01
3.149362740952095230e-01,-1.615919985299015815e-01,3.336024335769974813e-01,-3.047589095461643652e-02,-1.655919931067132214e-02,-2.332155692210019157e-02,4.914908111095428467e-01
2.909193134958042437e-01,-6.686622399134567463e-02,3.319696723878757250e-01,7.951769986807957422e-03,-1.285058661667844507e-02,6.524161720290413795e-03,3.810454607009887695e-01
3.394151519173721487e-01,-3.059826474805134033e-01,3.878384269552887509e-01,-6.920734451874985260e-02,-1.378558149130557423e-02,-6.005756004798944170e-02,6.898515820503234863e-01
4.217590744041678774e-01,-3.476671257135091064e-01,1.442603801990220425e-01,3.135579200068180916e-02,-9.861318028912979816e-02,4.822781279175234609e-02,7.032840251922607422e-01
3.847257691740093022e-01,-4.576196014203800511e-01,2.992355290301182413e-01,-1.134147636348530920e-02,-5.542893743518433579e-03,-1.596360276531092609e-02,8.037938475608825684e-01
3.660644485867783349e-01,-4.495595621101621253e-01,3.638367496355946473e-01,7.833113285737448514e-03,2.090094278305298751e-03,2.083604323657754082e-02,8.154324889183044434e-01
3.610271463938483083e-01,-4.669334998502758793e-01,3.241211846080627179e-01,-1.328375647702844352e-02,-4.552836624149004391e-03,-1.309311056708967712e-02,8.108205795288085938e-01
4.053942609877534409e-01,-4.658990955033013304e-01,2.906645489318626652e-01,6.414642385119998305e-03,6.435479986720286233e-03,-1.888523740951646851e-02,8.207736611366271973e-01
5.572936358534509305e-01,-6.990405232636789368e-01,1.098117823885659122e-01,-2.263457469834843569e-02,1.454635183984205049e-01,4.985064562826690970e-02,1.135297298431396484e+00
6.446823555883809398e-01,-4.148719866454664285e-01,7.221511750749304293e-02,1.094146020873954517e-01,1.073607595987495500e-01,1.186726786970669495e-01,9.780374765396118164e-01
3.790206657580500460e-01,-4.381564318664724622e-01,3.557037389136186167e-01,-3.137477256208531448e-03,8.288806021463566293e-03,2.358243261864170857e-03,8.059282302856445312e-01
3.956689773523353049e-01,-4.707322653194356832e-01,2.804935232882814766e-01,4.986701259262775812e-03,-9.566439709947387919e-05,-2.350573470587996247e-02,8.160027861595153809e-01
3.983250115449918360e-01,-4.762930752745878626e-01,2.842524122282785726e-01,-7.254842056190964270e-03,-2.295019719160788091e-02,1.009818258243769251e-02,8.247686624526977539e-01
4.560209092160638633e-01,-5.245426194617091031e-01,2.063233798045129852e-01,-8.822578285257832997e-02,8.100318153443955560e-02,4.800152304013418497e-02,9.104711413383483887e-01
4.112340922530565157e-01,-2.349085320750664008e-01,1.791220502404060611e-01,-4.307229679985510179e-02,7.828112454943164655e-02,6.233343555872512126e-02,5.974986553192138672e-01
4.762983943523987351e-01,-8.522303687865462329e-02,3.231437237422725151e-01,-5.555179994315196518e-02,4.046400458401678939e-03,-3.570393777643280763e-03,5.119652152061462402e-01
4.169933734351705668e-01,-3.208963476357340472e-01,3.429496292056181117e-01,-4.653380761462088538e-02,-2.255054812000511361e-02,-4.163919477449123246e-02,7.131274938583374023e-01
3.605384600280564511e-01,-5.439164903375279247e-02,2.400791761597553808e-01,-4.756006909781083231e-02,1.716813910353744144e-02,-6.817615186529038529e-02,3.978810608386993408e-01
5.307838904000650171e-01,-1.109979703973723586e-01,2.561931501672746192e-01,6.071370482134517965e-02,8.386292406186168086e-03,-6.305866538593554727e-02,5.781481862068176270e-01
3.068947157234918066e-01,-2.317293961721400564e-01,3.904428733331669621e-01,-5.135654859885657730e-02,-2.069602854074147416e-02,3.376512988512376384e-02,5.955795645713806152e-01
3.474428242870523098e-01,-2.932383756014742549e-01,3.340371187862707369e-01,-3.872236889601894660e-02,-8.593555801372363551e-03,1.108395733001175595e-02,6.380844116210937500e-01
3.670001310183343413e-01,-4.538731658746254505e-01,3.649036191842629506e-01,-1.481737252163527587e-03,-1.926221238500175435e-03,-2.725553501955860040e-03,8.198514580726623535e-01
3.124105180742243748e-01,-3.941690995925870578e-01,4.142763986336485127e-01,-2.013579054745918973e-02,3.121566717415239639e-02,9.494853508272574349e-03,7.655180096626281738e-01
3.272334817506882265e-01,-2.101287354431584653e-01,3.216020799410124753e-01,-3.234839674011732308e-02,-1.165868629829201059e-02,2.730776488503494984e-02,5.399518013000488281e-01
3.475125806928867633e-01,-3.371322078683298140e-01,3.446464118969382318e-01,1.499050178631367546e-02,3.223467752363002453e-03,5.989355135525598756e-02,6.915572285652160645e-01
5.266758204247282693e-01,-4.116760110595510946e-01,1.818802245191927791e-01,-2.558392243698935295e-02,1.460135539486193956e-01,7.736336476147261110e-02,8.716233968734741211e-01
3.899857599076864689e-01,-4.721751990698104251e-01,3.003419603876623656e-01,9.149143696512443413e-03,6.480804358465236392e-03,-1.186634734653158572e-02,8.215045332908630371e-01
3.795122214393176208e-01,-4.614038721464142068e-01,3.389508603647884977e-01,1.333837994415468904e-04,-2.068163399575466497e-03,-9.533806410846844964e-03,8.215606808662414551e-01
5.206954121861796514e-01,-5.108646234804254949e-01,1.418398219664542270e-01,-3.049102136934556811e-02,-4.270668135437336727e-02,5.367367850264055662e-02,9.130929112434387207e-01
3.256599627501211014e-01,-4.443690543924831982e-01,3.298886176771499978e-01,4.677794842892654638e-04,-3.429674836610627740e-03,2.134351291900111764e-03,7.721841335296630859e-01
3.375654392955525496e-01,-4.595377893723247009e-01,3.428536895398996420e-01,8.959251483448912520e-03,-4.814077716201061938e-03,5.584179854749369253e-03,8.000129461288452148e-01
2.584995508285456989e-01,-4.523458615360105295e-01,3.974680648250155102e-01,1.059973590939056361e-02,-1.079608901335825551e-02,1.429277169239093898e-02,7.903785109519958496e-01
3.200572015932868775e-01,-4.441839349994853858e-01,3.280027182511172090e-01,2.077410783719106072e-04,-8.894348995289754964e-03,-1.478938202497007831e-03,7.684035301208496094e-01
3.262491574861794974e-01,-4.440494756726249825e-01,3.297529025710140282e-01,-1.030488581253327348e-04,-1.276018038897791095e-03,-6.374747308112953389e-04,7.720604538917541504e-01
3.271148002524969511e-01,-4.447833477256213364e-01,3.297456533709167692e-01,1.521933898258646812e-05,-6.390313744017501367e-04,3.782028373004588069e-05,7.732177376747131348e-01
2.946616079548789457e-01,-4.521374974150698112e-01,3.416708432572346799e-01,5.116825408353948071e-03,-5.096154978862937890e-02,8.428632605446781390e-03,7.766003608703613281e-01
3.251213702032057506e-01,-4.441280200003853151e-01,3.334877176046681102e-01,4.726808709459719257e-04,-3.901363194377302154e-03,5.460914243004267128e-06,7.734964489936828613e-01
3.307670684584717025e-01,-4.469353179336231774e-01,3.299923255427671953e-01,5.176482116627863228e-03,-1.431422154366605165e-02,4.939310317195225522e-03,7.778093218803405762e-01
2.232728848895205176e-01,-5.408803681215580417e-01,4.774910331635665028e-01,4.636972940142206762e-02,-3.518375256763726922e-02,2.151896806906929659e-03,9.235782027244567871e-01
3.478851806524627666e-01,-4.583567417726313042e-01,3.405146278471878341e-01,4.074840191081214799e-03,-2.387815424266608120e-03,3.217509161069518307e-03,8.026430606842041016e-01
3.546766181223450776e-01,-5.442654414047122247e-01,3.522454529533144418e-01,-3.386550433021306983e-02,-1.479622308405568465e-01,-1.512633726981615911e-02,9.358006119728088379e-01
2.200138322234397870e-01,-4.583564474647915388e-01,4.642808667185474025e-01,-3.475856279529753769e-03,-2.555259110867506150e-02,-1.228747850065480679e-02,8.294601440429687500e-01
3.869354559225696710e-01,-4.717320304488008542e-01,3.969537854735371574e-01,-4.287008019215382548e-02,-3.608439139186642858e-02,-5.243353931347626701e-02,8.738880157470703125e-01
3.323488326598356135e-01,-4.660317473904549423e-01,3.736163457307009605e-01,-4.595041637181611523e-03,-5.339086788454802147e-03,8.220693061165016899e-03,8.200081586837768555e-01
2.946972467313777599e-01,-4.570891958330571825e-01,3.749045691276551295e-01,-2.031898932476715065e-03,-1.236223892588421414e-02,9.484933764166548695e-03,7.953965067863464355e-01
2.901820099551775112e-01,-4.479042215715679509e-01,3.661021092991532111e-01,5.093510929462436582e-03,8.496493109453613635e-03,-5.345423927674426180e-03,7.790704965591430664e-01
2.557582600197264577e-01,-4.536252621549542452e-01,3.773999532512646304e-01,9.330557757310871739e-03,3.940270049721433104e-02,-8.076381389533633312e-03,7.806579470634460449e-01
2.993834568648611194e-01,-4.575154300433799115e-01,3.680568099738835697e-01,-6.325306762785872818e-03,1.204486811815190170e-02,1.435808126244499452e-02,7.942067980766296387e-01
2.897627366603904298e-01,-4.491314006717257445e-01,3.688230535021381207e-01,-5.423552377689207921e-03,1.010173292017466778e-02,5.860650856344871117e-03,7.817478775978088379e-01
3.136542802842754440e-01,-4.530231389990851953e-01,3.463815702285009679e-01,-4.395564871987527565e-03,5.199700955313653512e-03,7.682484042436245331e-03,7.837555408477783203e-01
3.086920702942781425e-01,-4.464756156232407847e-01,3.472661265995092283e-01,3.948813341417473088e-03,3.562398001375059742e-02,-8.401767419853888724e-03,7.777929306030273438e-01
3.178252002662610431e-01,-4.459216375583203718e-01,3.436871404718118694e-01,8.258917777069054236e-03,6.217741647119089804e-03,-4.233602416278296060e-03,7.772415280342102051e-01
3.305471071917179260e-01,-4.651668633202237224e-01,3.809213721958959464e-01,-8.849738664595674723e-03,-1.309305810098746609e-02,-1.066182509266961481e-02,8.227223157882690430e-01
3.239240516375039292e-01,-4.677537434196366029e-01,3.858283914909473866e-01,1.156699840002067478e-02,-1.025540237057608051e-04,-2.220659121462960611e-03,8.246273994445800781e-01
3.419801910387417765e-01,-3.188597860680163487e-01,3.348593738647971385e-01,-1.741290126095086307e-02,1.578223938487938877e-02,-1.039086801998958670e-01,6.827169060707092285e-01
3.505585535459265212e-01,-4.578458614129926607e-01,3.336093590892516558e-01,8.470583338678137897e-03,2.634498510294333573e-02,5.884781134857950714e-03,8.015637993812561035e-01
3.669030676154544368e-01,-4.707798958217561669e-01,3.634400321859502236e-01,5.302578205818852045e-03,-4.413026058464703145e-03,4.687343660012274933e-03,8.360816240310668945e-01
3.652709724612062114e-01,-4.598328736831275299e-01,3.558065277700490636e-01,7.575789102545888755e-03,-1.030588199846652715e-03,4.490899313353235306e-03,8.205562829971313477e-01
3.708032586166853384e-01,-4.325212793648615106e-01,3.545747025055799861e-01,-6.228286561105914965e-04,-8.333884748446098237e-03,1.031524425055967836e-02,7.956667542457580566e-01
3.758258474929243587e-01,-4.653935987928863316e-01,3.048311146888738055e-01,1.081523989000256203e-02,1.428506557448417855e-02,-5.626679462705157057e-03,8.087189197540283203e-01
3.658232588484437997e-01,-4.627450054087004494e-01,3.229808320189058723e-01,1.480356838614332697e-02,5.571301004049811559e-03,-1.204576077339196243e-02,8.087328672409057617e-01
3.372197463650427607e-01,-5.437434326877818025e-01,3.846420626000872089e-01,2.194847164405806100e-02,4.361972159507346292e-02,3.376412885486047150e-02,9.114250540733337402e-01
3.720207305676788700e-01,-4.471733984077786994e-01,3.631644501920814339e-01,2.909354919345896132e-03,-1.019254298315323826e-02,1.273694569829127154e-03,8.150118589401245117e-01
3.660056409557470580e-01,-4.773842741172028559e-01,3.653007522336002011e-01,-4.082173765840705324e-09,-6.651998661799448796e-05,2.947286348309074750e-04,8.430378437042236328e-01
3.627288340334998695e-01,-4.766928281699933656e-01,3.656391586108265757e-01,-1.415313783560668464e-03,-5.825955643009863791e-05,2.929208891877068711e-04,8.408843278884887695e-01
3.659998156158438265e-01,-4.780895210746178847e-01,3.661437946810821020e-01,7.908673072791497997e-05,1.007782195120385018e-08,5.045130714740242352e-04,8.441618084907531738e-01
3.668331657817561764e-01,-4.772896750709303415e-01,3.656358286180256267e-01,1.924167337159396577e-05,-1.590009117067268940e-03,1.510615710032268749e-03,8.435333371162414551e-01
3.660952314694017051e-01,-4.739640922915169252e-01,3.624056666014061623e-01,-3.489001578422314207e-03,-8.566978278315424793e-04,1.533005797591819675e-03,8.382479548454284668e-01
3.622173774709628868e-01,-4.768366739195939452e-01,3.633993532339491184e-01,5.279785651650707544e-05,-5.521321913363811925e-04,1.214070440582217447e-03,8.396488428115844727e-01
3.940926858926340204e-01,-5.185568323957293613e-01,2.960079333583431893e-01,-2.866482961386025707e-02,-1.123911744751410480e-01,-3.320817164136185412e-02,8.925813436508178711e-01
3.583534142572595838e-01,-6.109607701431616356e-01,2.083324410935364635e-01,4.821448463908185184e-02,-2.517733631082438861e-01,4.634681825808125571e-02,1.010072469711303711e+00
3.688242853304161684e-01,-5.835141693583075773e-01,2.995998559074825596e-01,-2.746600150000130802e-02,-2.852079847393719780e-01,9.892971859720972594e-02,1.058995127677917480e+00
3.547484201463064202e-01,-5.283663083095485602e-01,2.116765140901220865e-01,-1.230076660415209931e-02,-2.236924154090072503e-01,-2.062743557382179169e-02,9.087670445442199707e-01
3.697321612333206442e-01,-4.467279686770745384e-01,2.765254590695604975e-01,-3.448538581696777676e-03,-1.081398931120633629e-02,-1.449003491738655469e-04,7.743265628814697266e-01
6.616167264749207577e-01,-8.634334982529386915e-01,1.492154642551457022e-01,-1.167249397488010626e-02,-1.597849469406345535e-01,-9.135686942566624211e-03,1.372642874717712402e+00
4.130296546410213709e-01,-4.708574463182486625e-01,2.764082551156190615e-01,-7.453657020272013919e-03,-2.608166395939639018e-03,-1.718053452084263022e-02,8.247644901275634766e-01
6.048473274559730273e-01,-5.176334356863184771e-01,1.229825034315089050e-01,-3.304518278984909518e-02,-8.339242788070806711e-02,-7.491874039213006903e-03,9.877145290374755859e-01
4.088324562088075931e-01,-4.336993679046312611e-01,2.751155722371492196e-01,9.939114659267715701e-03,3.732414149685096133e-02,-1.909057270201278828e-02,7.878123521804809570e-01
4.735290041863360888e-01,-4.400997622423332700e-01,3.030251336693573494e-01,-7.232678051466057308e-03,3.745249071606928520e-02,5.330629614760073326e-02,8.490592241287231445e-01
4.107739135506586203e-01,-4.634220403689971457e-01,2.629967771264467569e-01,1.064456528737614538e-02,1.578951434528223785e-02,3.441347170378829083e-03,8.111681938171386719e-01
3.232534604225908992e-01,-2.811439148668404830e-01,3.504414548571885835e-01,7.799964775181343971e-03,1.109542204046667186e-03,-4.121118413739826430e-02,6.226949691772460938e-01
4.506346397521231451e-01,-2.734962925125766775e-01,1.040480065206639826e-01,2.953912626938359071e-02,-2.828304492959852340e-02,1.131765080129517181e-01,6.610280275344848633e-01
5.187053394559202335e-01,-4.956854940885461192e-01,1.885753319561099539e-01,4.525753062440419222e-02,4.128779177650610671e-02,5.373814062488990045e-02,9.072022438049316406e-01
3.844459949334522730e-01,-2.309908041657384725e-01,1.247525836038672620e-01,-3.700451341470561983e-02,1.206006199351227215e-01,1.225629889947162932e-01,6.157798767089843750e-01
4.847557796185791856e-01,-5.945159784311135898e-01,1.555521436236029509e-01,3.827608185649595401e-02,-1.116778518624055305e-01,1.208093381372660341e-01,1.001747488975524902e+00
4.759719604790339509e-01,-4.448433279096191129e-01,2.432205531615528882e-01,-1.575130904097880175e-02,1.297702002069489255e-02,1.933314507204737104e-02,8.307368755340576172e-01
3.150547744483032098e-01,-2.061474119958853768e-01,3.187957831399455544e-01,-1.693352814750985827e-02,-9.244206054393789423e-03,-7.918669912065044725e-02,5.417967438697814941e-01
3.335512739304925534e-01,-4.525250740173683006e-01,3.359937475998483469e-01,-3.692264760352102131e-06,6.360420358418996181e-04,7.354687093239655306e-04,7.873022556304931641e-01
3.350628287735588073e-01,-4.530844186574641830e-01,3.335000258562302311e-01,8.703559813213661376e-04,-2.630232960898935216e-03,5.989155006950480468e-03,7.874499559402465820e-01
3.445570347466413441e-01,-4.525557755116758063e-01,3.344750134960248200e-01,6.035393390563921490e-03,-8.135206601193015370e-04,7.984691104958388259e-04,7.921913862228393555e-01
3.348575213177460430e-01,-4.493069468538262168e-01,3.392547799851317047e-01,5.846805860979737215e-03,-8.693654098527559687e-03,7.002484956170609495e-03,7.866751551628112793e-01
3.436221718386741064e-01,-4.469070761798826785e-01,3.184764716126793349e-01,5.912595609833218302e-03,-4.475916885120714492e-03,4.172587089360009147e-03,7.784006595611572266e-01
3.553521750837882465e-01,-4.539978416765262370e-01,3.129187836124533439e-01,9.333752761852416938e-03,-6.749318339731370450e-03,-8.891937466462567939e-04,7.892432808876037598e-01
3.498629138618734591e-01,-4.658570709940051957e-01,3.587004782910283573e-01,6.635576498484650927e-03,-3.474080810035299303e-03,7.371521845812321026e-03,8.203764557838439941e-01
3.407604350573093521e-01,-3.319434568888484649e-01,3.414467076882221619e-01,3.656927784216651434e-02,-1.321486368348196230e-02,8.754956699085570185e-03,6.765784621238708496e-01
4.473676811275303367e-01,-7.951090879465960715e-02,3.572791739443329506e-01,-4.787028386703756633e-02,-9.619905465602494876e-02,-6.057353278930768109e-02,5.328190922737121582e-01
2.974986813030319754e-01,-1.404696851398032353e-02,3.283579761177345402e-01,4.173350875697219749e-03,1.047792885624961381e-02,2.942610349127389863e-02,3.325753509998321533e-01
3.529540297008662009e-01,-3.625687719941153575e-01,3.830861874903837005e-01,7.573741943030187773e-02,6.782797438535148431e-03,-3.921175738446453646e-02,7.459223866462707520e-01
3.696563289107773764e-01,-3.709090617306811111e-01,3.831150512021649912e-01,7.782804577678201219e-02,2.039525524070702478e-02,-6.140161880610696399e-02,7.676687240600585938e-01
4.017965803676400993e-01,-1.979841683001303254e-01,3.318413285895853715e-01,7.806126088126398577e-02,5.515655654273736441e-02,-6.182383350577227293e-02,6.012876629829406738e-01
4.079008303439673466e-01,-5.088494733310739981e-01,3.736300755840593069e-01,6.380064888032903683e-03,4.925520261967887559e-02,-3.331358020060343900e-02,9.060450196266174316e-01
3.755492934708725694e-01,-4.692273156867912132e-01,3.648751496913905101e-01,-1.390560906575039968e-03,1.415671617417832862e-03,3.640989312235654723e-04,8.394976854324340820e-01
3.130449536253253617e-01,-1.474746366571472733e-01,3.060437056652701715e-01,-3.540486123885670799e-02,8.324967381831584537e-03,-2.263458577135276859e-02,4.630426466464996338e-01
3.759137781248527710e-01,-4.603547466424074974e-01,3.610504256513885069e-01,6.801962030391026657e-04,1.907499621939394083e-03,2.274898938015445290e-03,8.289535641670227051e-01
3.771590050958327778e-01,-4.474950059110897049e-01,3.589835570798237674e-01,-4.682130738944846778e-03,2.427842828795924619e-03,1.344735988552753171e-04,8.157693743705749512e-01
3.682744807307094526e-01,-4.759287080289847927e-01,3.650452683912388530e-01,1.181478551364105109e-03,2.100852401257869220e-03,6.637132837690310795e-04,8.426043391227722168e-01
3.823692498577146992e-01,-4.573132764352639823e-01,3.597218617867542489e-01,3.647738068911950994e-03,3.297440492652266644e-03,-3.855403967302042153e-04,8.286350369453430176e-01
3.591913861676060971e-01,-4.660801148149621431e-01,3.695164653314427228e-01,-6.982801651028869988e-03,8.519923879092841049e-04,-3.059828941874901103e-04,8.305717110633850098e-01
4.404194261299243518e-01,-4.336670202657079143e-01,1.782723404966726211e-01,-2.105221807992568861e-02,-1.047184988414239237e-01,-4.418310406570127163e-02,8.023047447204589844e-01
5.512896704165329842e-01,-5.921430631159571023e-01,1.446282412868360456e-01,-6.815153116556303681e-03,-8.497736290048216179e-02,1.056019849723957432e-01,1.031057715415954590e+00
5.514072368237050714e-01,-9.000127712489682796e-01,1.963708602665323877e-01,5.490848150377861808e-02,-1.780464267231347542e-01,-5.456065555259138541e-03,1.349666476249694824e+00
5.245805517887424108e-01,-5.274861609644538873e-01,1.406113872955789268e-01,1.058897138413542049e-02,-3.943564242666991460e-02,-4.943907135320326635e-02,9.287895560264587402e-01
3.902554028560383248e-01,-4.696397052025269581e-01,3.231523267335820737e-01,2.546344247325769104e-03,-1.089726389518804253e-02,9.032977787722135110e-03,8.287588953971862793e-01
3.578147475630112928e-01,-3.671568100053954620e-01,3.557884993498010018e-01,1.229895566338690995e-02,4.140276127285042991e-04,2.566187083661146742e-02,7.256368398666381836e-01
3.662559621625139372e-01,-4.352816536918384660e-01,3.659326157391252776e-01,1.729209414279714915e-03,9.429990046377754358e-05,-3.540551452799654136e-02,8.037245273590087891e-01
3.679894937852966064e-01,-4.485695954561741416e-01,2.796960234458609751e-01,-2.194382435917336879e-03,9.178954360387856296e-03,2.988420716481485131e-03,7.763772606849670410e-01
3.478898129282551044e-01,-5.601399661741514047e-01,3.332723373665233968e-01,1.918910299294172145e-02,1.441213313300950538e-01,4.144396589165897336e-03,9.353756904602050781e-01
3.622477870921109178e-01,-4.742003496390629902e-01,2.103816435057434264e-01,-2.741489837227044151e-04,1.292418581923026055e-01,8.308797476685173683e-03,8.037402629852294922e-01
4.037747179589612490e-01,-4.555641915108672446e-01,2.332257305844186168e-01,-1.372415163449082660e-02,1.906282482153211222e-02,6.378416265450770339e-03,7.891566753387451172e-01
3.771730070721530659e-01,-5.184560840216854150e-01,2.993874446903349584e-01,-2.910492581818493671e-02,6.875461053274822820e-02,1.662331224923049855e-02,8.695325851440429688e-01
3.888142346384124703e-01,-5.142093089819859131e-01,2.805901798251776991e-01,-3.270193071565195841e-03,7.107723356475700860e-02,5.531067036262829473e-02,8.682171106338500977e-01
2.789003240152967411e-01,-4.506500122095797867e-01,3.455769106946116054e-01,-7.222960606618552756e-03,7.629152958341957336e-02,5.667292602580618205e-03,7.765613198280334473e-01
4.087973961050042071e-01,-4.782168342181278842e-01,2.596858000492945351e-01,2.957903436035586118e-03,-5.330938774792270962e-02,2.530550047408249709e-02,8.289978504180908203e-01
5.558588080340569615e-01,-2.227133009659128526e-01,2.070410213191719306e-01,6.682769482840457409e-02,-3.013049902964416715e-02,-2.532313098440692675e-02,6.887043714523315430e-01
4.529188320577967608e-01,-4.357653736756869067e-01,1.862549154502152471e-01,-2.365757493707010620e-02,-9.522357710170814560e-02,-1.282798383087900562e-01,8.379367589950561523e-01
4.109440694697409358e-01,-4.644705993867888072e-01,2.332213149930554841e-01,8.984863894813293825e-03,-2.281542123431367503e-02,1.408915085213838583e-02,8.029659986495971680e-01
3.645798495110294524e-01,-4.416827224227649618e-01,3.785171331112062720e-01,1.724841285937091457e-03,-6.209832532036656250e-03,-1.725687279209511121e-02,8.139463663101196289e-01
6.492772296412612221e-01,-5.775287042122280168e-01,1.281612836503415176e-02,-4.111603030988692647e-02,-5.218094764620215265e-02,-2.823185050433625609e-02,1.070024490356445312e+00
5.021289742198047357e-01,-5.463625207264684036e-01,1.864591140922031154e-01,-1.980569787717026062e-02,1.570512679147733140e-02,4.056143468765999877e-02,9.353379607200622559e-01
4.036978890358867700e-01,-1.719323863106258510e-01,2.029048837951842321e-01,-3.479481473162748806e-02,-9.154143526578037426e-02,-2.120613881274614060e-02,5.349823832511901855e-01
3.693697979652290631e-01,-4.541282341456547300e-01,3.383874456059381974e-01,3.656105486916750615e-03,1.822511819196411084e-04,5.266081263206986302e-03,8.085285425186157227e-01
1.725038862126531958e-01,-2.692545087434602413e-01,5.128327259031671970e-01,1.081153392063391311e-01,-2.935692936780833623e-02,-6.377899743932272103e-02,7.149635553359985352e-01
2.994476503192584627e-01,-1.569280309988205779e-01,3.433628386047547498e-01,1.020973880830434166e-01,-7.182142082983515585e-02,3.944242780246418056e-02,5.307191610336303711e-01
3.136081604765263431e-01,-2.771615355408115211e-01,3.957765245822632005e-01,6.621837291622383048e-02,-1.712858839479111661e-01,-2.319838995354449318e-03,7.109784483909606934e-01
1.219602365171710417e-01,-3.070608576100604115e-01,4.246133819227809192e-01,1.258651684442522733e-01,-1.464184801156049598e-01,2.435507851784632707e-02,7.205021381378173828e-01
3.393179624239733849e-01,-4.653422089498675529e-01,3.720215647610989884e-01,2.674374740904766987e-03,7.093019746052850027e-04,-7.860960300955061389e-03,8.216271400451660156e-01
2.397998840424473699e-01,-4.939722046454165794e-01,4.884011995613691259e-01,3.145786083072291128e-02,-5.424652824768806496e-03,2.594101114360355606e-02,8.875340223312377930e-01
3.268957700543958511e-01,-4.598886873657043184e-01,3.633967242642508477e-01,-6.646439371644162139e-03,3.865927097817050372e-03,9.023047254512616897e-03,8.059169054031372070e-01
3.365876278340326766e-01,-4.597432405188917048e-01,3.726464149706170126e-01,-1.379067610817566979e-02,9.404983955518152888e-03,1.797881183709076208e-02,8.160658478736877441e-01
3.303791297807645022e-01,-4.556692276337143133e-01,3.632467499365086283e-01,-1.496791066023974576e-02,2.336740551057793491e-03,1.433359632972128900e-02,8.037989139556884766e-01
3.298181606572153646e-01,-4.663716593197492211e-01,3.702433194984002252e-01,4.512302567881837194e-03,8.400652387044287017e-03,7.398809501999765656e-03,8.174200654029846191e-01
3.652078492730529979e-01,-4.706153177208487470e-01,3.678678349778883305e-01,2.237516347420417679e-03,-3.255269121635158414e-03,1.783804049875055420e-03,8.371899724006652832e-01
3.283687285158746749e-01,-4.594528266953561424e-01,3.534714392141952155e-01,-8.619982145521046593e-03,5.714922636634874042e-03,1.362542658107744088e-02,8.012161254882812500e-01
3.389295490064591632e-01,-4.608351828693048047e-01,3.536668954537537934e-01,-4.284911518294742816e-03,1.288097721344779682e-03,5.280822980579041696e-03,8.073233366012573242e-01
3.751795482061068832e-01,-4.566831854391345535e-01,3.630330151747988010e-01,7.453116459988613253e-03,-6.495227893324191648e-03,-1.851043800530536958e-03,8.260402083396911621e-01
2.821023788022772871e-01,-4.481287844426768974e-01,3.664951842937063664e-01,-6.178528671444470741e-04,8.540046522223331341e-03,2.078210057540195305e-03,7.760276198387145996e-01
3.525941754670903761e-01,-4.519891277854047873e-01,3.084825164270513786e-01,1.021692755679276532e-02,3.464332618441989808e-02,-1.371941450163459073e-02,7.863122224807739258e-01
2.537251643517119959e-01,-5.721382580356315639e-01,4.473996668057573234e-01,3.962308136288977822e-03,1.078080701902291438e-01,-1.543264813526851274e-03,9.562587738037109375e-01
3.564272066257256344e-01,-4.624729270618129773e-01,3.397341404168949253e-01,7.153549469595942359e-03,2.098496462006681565e-02,-1.181214803734790056e-02,8.118493556976318359e-01
3.564574920995821072e-01,-3.834355575948081296e-01,3.488557351588556510e-01,3.122804835453536765e-02,-7.375790604812743415e-03,2.605918353684355711e-03,7.382304072380065918e-01
3.667875735190712083e-01,-3.945558045870446451e-01,3.484097111442699957e-01,1.218813620806410460e-02,-1.017614074267156332e-02,-3.722291648601345777e-03,7.528529167175292969e-01
3.664175888926969327e-01,-3.820394210834219817e-01,3.470590354407400158e-01,-4.882367175572319140e-03,-1.124016679174378100e-02,-1.376982874534977974e-03,7.392765283584594727e-01
3.527949879236991215e-01,-3.359980266833910156e-01,3.384769161684011429e-01,2.120200314963190114e-02,-1.599868503412803580e-02,3.186383961345219673e-03,6.833195090293884277e-01
4.005907032132842160e-01,-4.691794777415294604e-01,2.874793282194884059e-01,-4.096091287263560650e-03,-3.262104098229908627e-03,-1.778869770321424293e-02,8.197225332260131836e-01
4.092823557427736070e-01,-4.705177061682676021e-01,2.812422896088540569e-01,9.028360335868332309e-03,-1.517094528924321090e-03,-1.377244197244669247e-02,8.237798213958740234e-01
4.096586059810222724e-01,-4.622090434478444143e-01,2.811989694968410336e-01,4.261727022477687123e-03,-2.634163891804321492e-03,-1.805689493488567623e-02,8.159097433090209961e-01
3.870108224146455722e-01,-4.683600234470818302e-01,3.004233557101488872e-01,-1.262843204238355173e-02,-5.061049390592636983e-03,-1.352445632453779835e-02,8.162084817886352539e-01
4.048771977206461203e-01,-4.563672419714254191e-01,2.826801391571785449e-01,-3.963899991995831294e-04,-4.177074610281957673e-02,3.759990484768793023e-02,8.129628896713256836e-01
5.883035624292446419e-01,-4.294681332514410643e-01,9.067853177844520385e-02,-3.362606571242809927e-02,-7.571004290262044190e-02,7.532118896375109007e-02,9.025681614875793457e-01
4.969851963817801810e-01,-4.995485151520765443e-01,1.669415802338877208e-01,-1.261269348313899530e-02,-3.964002413646846266e-03,-3.284286842640265353e-02,8.814017176628112793e-01
3.369802750871879748e-01,-3.267362948468796602e-01,3.504141385077345072e-01,2.322480960414889141e-03,1.252439677344016969e-02,-9.946535993629138442e-03,6.711184382438659668e-01
3.385139510073872371e-01,-2.736737363964925063e-01,3.163532258272940823e-01,3.672288535340608329e-03,-3.038319463924333240e-03,-2.415107652440420458e-02,6.029231548309326172e-01
3.457324710842164528e-01,-2.384113979475190881e-01,3.167452188899506638e-01,-1.570984779298485734e-02,-9.046052558916465799e-03,-6.727228779074527086e-05,5.710669755935668945e-01
3.030114420410087717e-01,-6.197500770603181497e-02,3.015533930907528526e-01,1.439191005836633688e-02,1.941955479960940766e-03,7.551577656596521367e-03,3.653612434864044189e-01
5.213268028877826588e-01,-6.906634838358011175e-02,3.880677716057844284e-01,3.012255327109551045e-02,-4.495463955666569728e-02,-3.841345643211291003e-03,5.444960594177246094e-01
2.874565114373884844e-01,-4.577452705585526305e-01,4.030972951023473749e-01,-1.452369952170102368e-02,-8.538480823170917916e-03,-1.754712625782811619e-02,8.103390932083129883e-01
5.502824593657767993e-02,-6.210262586158677989e-01,6.976989434289416758e-01,1.057658372853880757e-01,-7.124511144985366806e-02,7.372501111187824974e-02,1.170319914817810059e+00
4.854587061858400832e-02,-4.074977051724885113e-01,6.351400552655812604e-01,8.558699474779239702e-02,1.578078090690478857e-02,5.419215465059974701e-02,9.225583076477050781e-01
1.049474597714637331e-01,-7.278087617108179863e-01,6.823936700587375226e-01,1.334303414296012513e-01,9.446957609141992673e-02,-3.440016166553486188e-02,1.261559963226318359e+00
2.305463271906927070e-01,-4.853950406258155104e-01,4.276429995215270674e-01,7.245589938491699480e-03,-1.804661929838148882e-01,5.946316698240098481e-02,8.949849605560302734e-01
4.902391367781602227e-01,-5.475652600467642017e-01,1.805570437397240324e-01,-1.150974540515382893e-02,8.364766758549502246e-02,3.336148456563580063e-03,9.343302845954895020e-01
3.514716241902938187e-01,-4.686327920257808977e-01,3.527506113354241246e-01,-2.870439283537511415e-03,1.961398071475195602e-03,1.503609891996999636e-03,8.207708597183227539e-01
3.584700785950917790e-01,-4.685618444960607532e-01,3.527752162066100650e-01,-4.390556907928157455e-03,1.255494340645214087e-03,7.113981167070975668e-04,8.242381215095520020e-01
3.202711880006646750e-01,-4.489527508505988251e-01,3.186830665925542982e-01,-5.363136692894845785e-03,2.955319587969488376e-02,2.299262098581985724e-03,7.702004313468933105e-01
3.393414129577481675e-01,-4.497200539791871288e-01,2.743248843394927028e-01,-5.195731591458156197e-03,6.454878083126350252e-02,8.205079035430665885e-03,7.670239210128784180e-01
1.413460465828949852e-01,-4.550971404209454008e-01,4.537112047895138778e-01,-1.452312747477077677e-02,2.596128822251937696e-02,3.897737202198100354e-03,8.014516830444335938e-01
3.846084444858156037e-01,-4.594629044620744951e-01,2.939096200201259945e-01,-2.093582761099447003e-03,3.405284856378259714e-03,-5.584711059495695712e-03,8.026630282402038574e-01
1.096593071621692617e-01,-5.397196578998141314e-01,5.460188126446392509e-01,5.267424228065458597e-02,-6.327592533727958990e-02,1.600760442844416723e-02,9.573763012886047363e-01
3.240393494425319321e-01,-7.397484752782563788e-01,3.698738024069625485e-01,1.336517950475149541e-01,2.608770496428576835e-01,3.800323451676113073e-02,1.201913118362426758e+00
2.605469647068463512e-01,-4.583939161718840749e-01,3.808918067612085956e-01,-1.970896333626520613e-02,1.624095479848065848e-02,1.536434001769563726e-02,7.877464890480041504e-01
2.605978147563651759e-01,-4.480045957939501333e-01,3.760806436648959639e-01,3.585401856815896224e-03,2.179531051699445943e-02,1.790882042421425898e-03,7.737947702407836914e-01
2.180405528662346937e-01,-4.712612490245501329e-01,4.229763597492904870e-01,-2.630127911715093511e-02,3.278883520104515677e-03,1.785794387778847931e-03,8.127209544181823730e-01
3.507897511847206107e-01,-4.487725722229474190e-01,3.076810984092661072e-01,-7.166818942907942844e-03,3.346724535944974044e-02,8.349651446675671745e-03,7.812896966934204102e-01
3.902469437907796213e-01,-4.663456325816305315e-01,3.218949601505658453e-01,1.973735337039156466e-03,2.821287257974609136e-03,2.434189206210786091e-02,8.256428837776184082e-01
3.664131850441795235e-01,-4.597486966979242862e-01,3.740985416180745426e-01,-2.464181183689448384e-03,2.004205867922976766e-03,-4.392510379447120070e-03,8.300843238830566406e-01
3.214161584856302101e-01,-2.229804322824915919e-01,3.422526450800289499e-01,-1.497089046656272480e-02,-2.479239213877073439e-03,8.354691434852296039e-02,5.742614269256591797e-01
4.150514992192345098e-01,-3.315659671657605334e-01,3.121535967206202633e-01,1.571975138387506424e-02,9.154819040042260977e-03,8.022947637059513193e-02,7.151945829391479492e-01
3.891306188455422865e-01,-4.648583706309000751e-01,3.174056095635075514e-01,4.109003194581379616e-03,-1.081079513013847746e-03,1.243632250909493080e-02,8.207968473434448242e-01
3.615079392730577990e-01,-4.598749891520549360e-01,3.627553694924237626e-01,-1.617618772402938188e-03,-2.641625526967373259e-03,1.180624722477051402e-03,8.220273852348327637e-01
3.783689890682158663e-01,-4.618494455045187852e-01,3.407776241178550047e-01,4.619293386884241667e-03,2.828299762052198518e-03,-1.001404806829899775e-02,8.223040699958801270e-01
3.687785928839609206e-01,-4.526215283409446011e-01,3.697035476438353396e-01,4.181081672590858563e-03,-2.564640362133860634e-03,-2.946616254515566601e-03,8.219227194786071777e-01
3.665741335314899318e-01,-4.749695596579442958e-01,3.663704924082759606e-01,-3.927674438425817491e-04,1.729799211080540813e-03,-3.281137769187921199e-03,8.414666652679443359e-01
3.660869551607282002e-01,-4.764255792271379075e-01,3.676310252126506195e-01,-1.776890016757723834e-03,1.269060095797582563e-03,9.216835771143079125e-04,8.432956337928771973e-01
3.570924843752898425e-01,-4.684902109052667685e-01,3.711036906671650870e-01,-3.941698233969372946e-03,-3.921719587732123763e-04,-3.845259408002765322e-04,8.327052593231201172e-01
3.639084900852175841e-01,-4.756614638806657691e-01,3.678080149857588244e-01,-2.556368905789891278e-03,1.789354309358002267e-03,7.396926500071642147e-04,8.415448069572448730e-01
3.701319145367638619e-01,-4.667373061853621330e-01,3.662316176125270384e-01,-1.783969549068211086e-03,8.265659164854536126e-03,-1.686332625777088264e-04,8.350543975830078125e-01
3.656063445756926322e-01,-4.677685427293071241e-01,3.706725186096248015e-01,-3.763257780462793672e-04,8.149258750389083705e-03,-2.390698616547592189e-03,8.360491394996643066e-01
3.620800653470023778e-01,-4.741398863867181124e-01,3.652418175185856986e-01,-2.721878126273231079e-03,8.881045737737860990e-04,-2.698709289129868141e-03,8.378330469131469727e-01
3.703757693587778621e-01,-4.754687716944290266e-01,3.673686602910768983e-01,-3.505693459876380188e-04,3.600552139512078892e-03,-2.175402162256066547e-03,8.443766832351684570e-01
3.518330978955732102e-01,-4.678732270457397480e-01,3.588014178437215485e-01,-6.414550452969831548e-03,-3.520819862073904134e-03,-7.820822392333262943e-03,8.234215974807739258e-01
3.477384799634206658e-01,-2.846129150516613637e-01,3.195332006784409873e-01,-3.844190824378013183e-02,-6.549996046511899137e-03,-2.689703573563496496e-03,6.224242448806762695e-01
2.334007859433991361e-01,-4.524390840861051144e-01,4.051932285711017934e-01,-4.346367924755364584e-03,-1.201165121926192278e-02,3.556800416287924098e-04,7.862575650215148926e-01
3.218221101392767514e-01,-1.544053532211045465e-01,3.091372640576545150e-01,-4.507696853253431030e-02,-2.354998007148708782e-03,1.290868632555403593e-02,4.769957661628723145e-01
3.376036243409240023e-01,-2.739439929919537664e-01,3.261734237749078780e-01,3.615678232976377981e-03,1.120800698562858088e-03,1.187305818097781837e-02,6.062977313995361328e-01
3.481910010337359029e-01,-2.771583868577202625e-01,3.290171209845648703e-01,-3.280197947767389544e-02,8.195680740091772915e-03,-2.275944375719798820e-03,6.187762618064880371e-01
3.223039996889990322e-01,-2.229474973973011864e-01,3.447828860239554594e-01,-4.305856089612535020e-02,1.364117243071446086e-04,-4.748886615616909786e-03,5.618638396263122559e-01
3.493739114641957189e-01,-2.790982693003909998e-01,3.211686007090968076e-01,-3.195644592677233248e-02,7.467147256387045642e-03,2.185779946678219430e-03,6.174883246421813965e-01
3.690966227638981523e-01,-3.995227911159027201e-01,3.456278005724379154e-01,-4.353679070020985420e-02,2.709589298646428428e-03,-1.209568601986323261e-03,7.609210014343261719e-01
2.479489398727185157e-01,-4.472690941377946983e-01,4.084703281492304550e-01,-1.012585372570933978e-01,-1.474340293286412473e-01,-5.044540397498993578e-02,8.510564565658569336e-01
2.653183005510469372e-01,-4.958772988631161560e-01,2.737537280835271591e-01,3.194659320219273707e-02,-2.469937197256849570e-01,1.381319957581944938e-02,8.789554834365844727e-01
2.072749347625108263e-01,-4.918027299457354840e-01,4.200484742675931749e-01,3.118544010500999553e-02,-1.553842701262483361e-01,-1.089166038842679339e-02,8.708809614181518555e-01
2.173720828183541842e-01,-4.783864878893290262e-01,4.176757809260492893e-01,1.884565297047261943e-03,-5.414824440766440039e-02,1.056356273197791434e-02,8.201866149902343750e-01
2.160781256313996646e-01,-4.602323712697623526e-01,3.867667645322545589e-01,1.729844595527484097e-02,-9.954864321762105228e-02,1.946734460831862218e-02,7.960737943649291992e-01
2.730937178666993370e-01,-4.483443336055686901e-01,3.232406739756895631e-01,-1.027980925343433515e-02,-7.840954055486080987e-02,-9.080013546963704857e-03,7.603775858879089355e-01
2.509313604970755396e-01,-4.473606719283553801e-01,3.807628331045216363e-01,-8.624343651909781826e-04,-3.211932201149412386e-02,5.239179459843315394e-03,7.735036015510559082e-01
4.223984523058752494e-01,-5.049391606203936789e-01,2.322818092648196719e-01,-3.594802169413300469e-03,-1.030167398751195840e-01,-3.711514566125093811e-02,8.693709373474121094e-01
1.780905680858920204e-01,-4.552751905165518531e-01,4.381785849714656123e-01,-1.481246481572280269e-02,-8.915622774765957770e-03,-4.961750369225493944e-03,7.965546846389770508e-01
2.024040238053739782e-01,-5.146001498621310954e-01,4.301063420886171995e-01,-4.220881229318361461e-02,-5.271743831474109965e-02,-2.109279394989504140e-03,8.619177937507629395e-01
1.632660196506545980e-01,-5.729210063087737392e-01,4.594368230690044630e-01,-2.932872993831792813e-02,-6.179450361714655671e-02,-1.985544204652025385e-02,9.289480447769165039e-01
2.173183055786050977e-01,-4.704280368238197285e-01,4.152663022432939166e-01,2.340974772858369322e-03,-4.705826942371951760e-02,-7.496164113015645926e-03,8.094102144241333008e-01
1.447567031590675790e-01,-5.820170856380452173e-01,5.217265220996574193e-01,-2.363751829739298496e-02,1.034054230544383113e-01,3.988592923548944791e-03,9.889793395996093750e-01
2.850235101793382464e-01,-4.871886510800184089e-01,4.062524378060112240e-01,3.463669411986081831e-02,-1.335540320371847445e-02,9.771720788160690591e-03,8.420470356941223145e-01
1.841876169381871375e-01,-4.651876048665357644e-01,4.572855132342232842e-01,9.633328427108879544e-03,5.390282268160437144e-03,7.814526890611882878e-04,8.209635019302368164e-01
3.586894772251981167e-01,-4.010499607686636159e-01,2.998336017551137545e-01,-1.757494336797768911e-02,5.033106549384477879e-02,2.457392623789027286e-02,7.391148805618286133e-01
2.701671912175654944e-01,-4.597584438545731511e-01,2.790607234811723902e-01,1.022102764683632120e-01,2.183975449965100402e-01,-5.820181968082833307e-02,8.508570790290832520e-01
4.775451428048774760e-01,-5.485515463616286169e-01,2.531558105240714340e-01,5.313813500908745602e-03,2.439131427920399053e-02,3.546381271952328638e-03,9.353539943695068359e-01
3.956985595629309849e-01,-4.701023642804058600e-01,2.904443660255157100e-01,-7.456174809196730764e-03,-1.012677763997802370e-02,-2.255377961390095387e-02,8.194882273674011230e-01
4.064990746122811305e-01,-4.673122809542461509e-01,2.690102876092812512e-01,5.547794462177011061e-03,2.764126855163720475e-02,-7.547612434298644341e-03,8.153928518295288086e-01
2.377783754682614159e-01,-4.616146137731352850e-01,3.616478551838471778e-01,-2.555834715746932440e-02,-9.744325548086851807e-02,-1.030182488497675443e-02,7.886008620262145996e-01
3.881500006862541596e-01,-4.650457808247235869e-01,2.970525009643583125e-01,1.289121692171655426e-02,5.339136473607842583e-03,-1.427463139174992880e-02,8.122273087501525879e-01
4.088164857638345584e-01,-4.626430682284848883e-01,2.598826306582432411e-01,6.404405825715446705e-03,1.886307207936318425e-02,5.727028875985278565e-03,8.081597089767456055e-01
3.438076364854704137e-01,-2.379411473152371337e-01,3.159997518667950755e-01,3.528943526110572826e-02,-2.536401757750219969e-03,-1.713419585168611905e-04,5.716494917869567871e-01
3.159238310895658430e-01,-1.495766321267523735e-01,3.348794472840648795e-01,4.263174920980272037e-02,1.009416210541512786e-03,-1.210341835402968004e-02,4.814237058162689209e-01
3.428091538999383792e-01,-2.180497879450783993e-01,3.154252168121026711e-01,8.289271736353898135e-02,6.370760018185263676e-03,-1.043751872065624628e-02,5.665829777717590332e-01
3.266126020354672699e-01,-3.789768860385833715e-01,4.180252638709341384e-01,5.570132345338375118e-02,-1.364962578066605467e-02,5.465549603588280153e-02,7.678158283233642578e-01
3.225638102788335182e-01,-4.102429504754243617e-01,3.770499697421753615e-01,3.345066797681305396e-03,3.919871007708939509e-02,-1.868527958437872158e-02,7.652404308319091797e-01
3.159087970801628398e-01,-2.957957011410769499e-01,3.958102115198241511e-01,1.374065729819961001e-01,5.498634658533012483e-03,-2.003791291850316736e-02,6.981257796287536621e-01
3.613214197594065147e-01,-3.461419588113029966e-01,3.395173364661595583e-01,2.224456169382791823e-02,7.720118306760071977e-03,2.495359571032451304e-03,6.980230808258056641e-01
3.263147654057664271e-01,-1.596576441823548964e-01,4.375090243449563654e-01,1.104255283785271664e-02,-9.395604788690679887e-02,6.191502527494198438e-02,5.838836431503295898e-01
2.969076761465931913e-01,-9.350572102273907449e-02,3.500699142595715130e-01,6.201548963023824357e-02,-4.440121841069573361e-02,-1.776202971245153042e-02,4.409112632274627686e-01
3.269951972906502413e-01,-6.392851785713488111e-02,3.820008082701665808e-01,1.110236913711036034e-02,-9.720001152855751309e-03,2.057254090896186785e-02,4.234062731266021729e-01
3.585341693422533504e-01,-4.187852972350447622e-01,3.764973908549678616e-01,6.709314716729040777e-03,1.324687416674545301e-03,1.113994980119380369e-02,7.867807745933532715e-01
3.407181211525163178e-01,-3.847607054471280374e-01,3.717237981656761336e-01,-8.154595291430269616e-04,-3.635458451031231726e-03,1.921361697894088949e-02,7.422425150871276855e-01
3.630314243340304059e-01,-4.447020585959557959e-01,3.733011233960159547e-01,-5.288218903569626150e-03,-6.568077107075102547e-03,1.134004416010127476e-02,8.132854104042053223e-01
3.505307286188635851e-01,-2.810964513838641876e-01,3.805125919814131286e-01,-5.727852056626650534e-02,1.627915615972136756e-02,2.969320179603521237e-02,6.573216319084167480e-01
2.467053290018302869e-01,-5.483605074805417701e-01,5.128871981086648990e-01,-1.041417370962175945e-02,-4.039341703106236192e-02,1.668733258015995743e-02,9.595156311988830566e-01
3.637068663997820028e-01,-4.285077205398432065e-01,3.599726136555617129e-01,4.100030706133125989e-04,1.339690959983156054e-03,6.263185740474013809e-03,7.904322743415832520e-01
3.552239640737679949e-01,-4.285576154270335225e-01,3.746353677182853170e-01,-3.073678282012115744e-03,-8.093152257949477041e-03,-5.515758415613895675e-03,7.938644289970397949e-01
3.555578943373076672e-01,-4.550513477183565358e-01,3.803285695247647924e-01,-1.415674269408177203e-03,2.034295755583799287e-03,8.863388794727533604e-03,8.234284520149230957e-01
3.439001509729093797e-01,-3.903022829186779674e-01,3.764549861681856235e-01,3.464843003107014215e-03,6.424257260219431998e-03,2.353924713165075205e-02,7.522213459014892578e-01
3.513400195855642116e-01,-4.294686723157469244e-01,3.770154759772442743e-01,2.592222774070058848e-03,4.818601530818002014e-03,-3.760784851926593595e-03,7.940410971641540527e-01
3.700640476366880427e-01,-4.630491083071573977e-01,3.406177567813034601e-01,7.984383151152098929e-03,-1.189241931072605903e-03,-8.709009437958390235e-03,8.190455436706542969e-01
3.733417373794286065e-01,-4.735592503985003310e-01,3.648086001911801102e-01,1.052921841291782181e-03,2.432294179764978286e-03,1.157167914378488902e-03,8.426817059516906738e-01
3.593774535919824764e-01,-4.700017794445273678e-01,3.681285944691710665e-01,-8.985691143399776940e-03,2.716952283916325254e-03,4.039982629507762879e-03,8.339771032333374023e-01
3.727541586839889232e-01,-4.694893795064910558e-01,3.645800398259118613e-01,1.287532559053967051e-03,2.451519700548414078e-03,3.188818101554652222e-03,8.382182717323303223e-01
3.667764773506204667e-01,-4.769759017325055916e-01,3.655268360796707916e-01,-3.426037559363764558e-04,1.949078828977028003e-03,7.786757436219163709e-04,8.431363105773925781e-01
3.766221850998648368e-01,-4.668365123625073387e-01,3.630568823326315586e-01,1.601303626644188030e-03,2.845271178373735832e-03,-1.674517530522610042e-04,8.367776870727539062e-01
3.650837525963001040e-01,-4.711451823970259634e-01,3.657937909537982701e-01,5.340405752365284982e-04,3.337316741058251116e-03,2.083217729065112535e-04,8.366047143936157227e-01
3.473344226135985369e-01,-4.672608727331164502e-01,3.686158414414586471e-01,1.417523487212991526e-02,-2.617369459141025579e-03,8.965723718159020195e-03,8.259652853012084961e-01
3.699901796754654915e-01,-4.408737385059842140e-01,3.618762569564868969e-01,2.898336455496352496e-03,1.201560495241193322e-02,2.994041815434708709e-03,8.071382045745849609e-01
1.903776343736870436e-01,-4.605746840823907728e-01,4.293074383100087821e-01,2.236643068390705910e-02,-2.723097434687907215e-02,8.000995893989084479e-03,8.001722693443298340e-01
1.768247131524987859e-01,-4.608435928427726536e-01,4.395209781119868708e-01,2.406560788693552777e-02,-9.245302668878668112e-03,7.540593895503902751e-03,8.033105134963989258e-01
3.013863562315463596e-01,-4.691083279657245475e-01,3.879003990410074820e-01,7.664378266761718086e-03,-3.521840426334039292e-03,8.718239372262603579e-03,8.174636363983154297e-01
2.272154612025957254e-01,-4.667841000177987976e-01,4.228998998271954468e-01,1.844196362450723631e-02,-3.976858365851519000e-03,4.670937582216077438e-03,8.104726672172546387e-01
1.489382784452035480e-01,-4.726278549619405966e-01,4.583578653135357839e-01,3.437829618931143028e-02,-1.320854667842634791e-02,1.186969779738377209e-02,8.239547014236450195e-01
2.705828456073852140e-01,-4.543825653209947468e-01,3.746599032356107695e-01,9.979149894977855373e-03,-2.339877568306809180e-02,8.801513106532130731e-03,7.836024761199951172e-01
1.911115251289809969e-01,-4.515955311094753677e-01,4.360835987301216465e-01,-3.869139039669577691e-03,-1.226313361559943846e-02,-3.849438110642123233e-03,7.943987846374511719e-01
2.616257485425158014e-01,-4.628989570427302080e-01,4.155026135694621092e-01,-5.281236240398075495e-03,1.188629677207361335e-04,-1.633562083987432538e-03,8.125228881835937500e-01
2.837266569305563202e-01,-4.756390928305758159e-01,4.140863704057604622e-01,2.680287939303253181e-02,-3.571469062715748469e-04,-5.809256983491690486e-03,8.335931301116943359e-01
1.353053704144628611e-02,-5.554031776620224070e-01,5.777735523559504038e-01,-9.544589227987449256e-03,-1.009741321619095911e-01,2.857586972481390014e-02,9.981898665428161621e-01
3.641871942325750622e-01,-4.607369818202111666e-01,3.733040089643694937e-01,-2.566693791603873696e-03,8.121802117560458778e-04,3.730056545112013944e-03,8.295584321022033691e-01
3.389213282369835656e-01,-3.587887775024369286e-01,3.660109639555961802e-01,1.137229779831909569e-03,-1.628834179779152947e-03,7.151936933215901487e-03,7.117578387260437012e-01
3.283728215909109682e-01,-3.015978264031443090e-01,3.558792108034781743e-01,-1.178177240817731078e-03,-9.545697774051741663e-03,-3.011743930632476696e-02,6.464878320693969727e-01
3.581296527371840566e-01,-4.414729636026695214e-01,3.642787021861084718e-01,-3.415744778636692520e-03,-1.280484696133145622e-03,-5.141356761637022252e-03,8.027690649032592773e-01
3.185888000298208178e-01,-2.200832955741169328e-01,3.271884342163317028e-01,2.521173637406598847e-02,-3.379968752271557235e-03,4.376515715509508506e-03,5.448601841926574707e-01
3.535027948303013368e-01,-3.455159304643593554e-01,3.511980050037057932e-01,3.016287106331846414e-03,4.454044814513021585e-04,-4.124112477023438722e-02,7.015352845191955566e-01
2.923308465898651898e-01,-4.464624911022818665e-01,3.504371163734061878e-01,-4.856814058016176920e-05,2.336008334863114155e-02,5.998599614526918360e-03,7.706266641616821289e-01
3.423246452396098705e-01,-4.527038389157139742e-01,3.323407366010112107e-01,-4.204030288470690137e-03,6.034236315023337391e-03,8.898469024953545357e-05,7.901865243911743164e-01
3.516640255339035237e-01,-4.639329085539265485e-01,3.479040744940035679e-01,-6.557557096868517864e-03,2.722671032602375194e-04,3.764989686244111611e-04,8.138031363487243652e-01
3.561514392399126594e-01,-4.676846636977122218e-01,3.600724201374077560e-01,-8.681446896835176216e-03,4.959739927775342130e-03,4.185102491511319064e-03,8.260169625282287598e-01
3.606780634541144059e-01,-4.598150089157927445e-01,3.811322458428905713e-01,4.765563171218704258e-04,3.229892760772721562e-03,-1.938953617150360968e-03,8.309350609779357910e-01
3.533563327136483023e-01,-4.134462743719031774e-01,3.659596277075894966e-01,-2.764565313250429146e-03,1.075260209193198285e-02,8.734384254877736523e-03,7.735683321952819824e-01
3.553073086259591062e-01,-4.369675850249602478e-01,3.782381819089176700e-01,7.075104212756045232e-04,7.495170358173253861e-03,-3.612704893864330212e-03,8.041157126426696777e-01
3.867888568234532087e-01,-3.853929629075139585e-01,3.155961387153274900e-01,-1.977783241333664482e-02,-4.292687997277549496e-04,3.287515330130842683e-02,7.421427369117736816e-01
3.657132513816558350e-01,-4.680535859099208551e-01,3.684867425286579290e-01,-4.344506257918206472e-03,2.794947845335730117e-03,-3.050306156485247094e-03,8.352216482162475586e-01
3.628254104238115008e-01,-4.691351654859411413e-01,3.769799129798906412e-01,-3.333883617147616156e-03,2.554667869624558611e-03,2.922211480344430977e-03,8.391741514205932617e-01
3.632882421662456673e-01,-4.437628895854542899e-01,3.664445218077389543e-01,-2.618588955206081152e-03,1.110106458318625006e-02,5.454450376970138709e-03,8.089303374290466309e-01
3.653583162353674085e-01,-4.679527462500158164e-01,3.704155415298636123e-01,-1.417240703231148393e-03,5.390245573414700377e-03,3.526771935501932589e-04,8.359071016311645508e-01
3.670904797284076371e-01,-4.647037141892592649e-01,3.592042780470284802e-01,-4.421177860080325629e-03,-1.418651476139092503e-03,4.428714284576859518e-04,8.279187083244323730e-01
2.839121510955721628e-01,-9.449025632676029129e-01,4.530831605624351388e-01,9.838627412155699289e-03,-2.617906498322083442e-01,4.129687794531154005e-02,1.399104714393615723e+00
3.570163107920901746e-01,-4.454394484636099438e-01,3.809441125673656003e-01,-3.404688254992573504e-04,8.265806994190853449e-03,-1.928184956616404988e-02,8.154934048652648926e-01
3.980984035539003596e-01,-3.606297021792135293e-01,3.550772141673700366e-01,-3.660162808424075737e-02,5.654222443838776910e-03,-5.865588598284375565e-02,7.478731870651245117e-01
3.402285881877421536e-01,-3.775470782369978462e-01,3.679372011881169580e-01,2.296694437674409034e-03,4.005687039137462331e-03,-2.056618020470315014e-02,7.329332232475280762e-01
3.507442837216848686e-01,-3.841898773530271760e-01,3.682787846904361784e-01,-7.549494826305232047e-03,6.985372244230512659e-03,-2.232678239863034736e-02,7.450739741325378418e-01
3.971182665077910845e-01,-3.487248810989529435e-01,3.667296114659205908e-01,1.513243033423301333e-02,8.908305999403738629e-03,-1.022714162620893125e-01,7.528902292251586914e-01
3.045273224634835740e-01,-1.612997980996870862e-01,3.291052197171069338e-01,-7.562630102984775962e-03,7.603062548921018723e-03,-7.259795953278366278e-03,4.791149497032165527e-01
3.672172281385446824e-01,-4.763261387049044782e-01,3.662065078254719275e-01,1.728105312198780299e-04,-5.335469691140899522e-04,1.799979381385386325e-03,8.430447578430175781e-01
3.694783690475598181e-01,-4.747864466225121260e-01,3.658516641631164301e-01,2.126963885371566695e-04,-2.924324366602070596e-03,2.020923162429123093e-03,8.424798846244812012e-01
3.674514476028719057e-01,-4.772087219239646849e-01,3.654738720663240348e-01,-3.807808372706540092e-04,-1.081537418779025383e-03,9.337874221353526568e-04,8.436769843101501465e-01
3.630806486043249293e-01,-4.762312508297571467e-01,3.625252117374709315e-01,-1.225880656313561596e-03,-2.425600166641405080e-04,1.797201916730739504e-03,8.390429019927978516e-01
3.613240499079735102e-01,-4.035979734510874994e-01,3.605552041502757543e-01,-4.264269323325635581e-03,-1.679625068545372024e-02,-1.067744468598721096e-02,7.653503417968750000e-01
3.625810572701786416e-01,-4.718652764729558413e-01,3.652481414876516674e-01,3.092633090405725888e-04,-2.190899991349580609e-03,6.243907562258104588e-03,8.358618021011352539e-01
3.617923725867477902e-01,-4.725050678468699639e-01,3.617340884706318760e-01,1.675853526596177040e-05,-1.199265903430214025e-03,3.796498566076536053e-03,8.342968225479125977e-01
3.621400549031835725e-01,-4.603351825847292744e-01,3.682382837260714248e-01,-1.838628819408271841e-03,-1.982304844801932239e-03,-2.706800455161892643e-04,8.255546689033508301e-01
2.717198486305613114e-01,-4.804721526280760768e-01,4.729327332342554424e-01,4.728098929571430270e-02,2.747786978260483015e-02,-1.153627304386485412e-02,8.757859468460083008e-01
2.693169453235685351e-01,-4.483587498119869785e-01,3.668353220033258033e-01,7.197823881783342419e-03,2.923908078056577237e-02,-3.858443356601713899e-03,7.728645801544189453e-01
2.605276278490068487e-01,-4.526364632119532772e-01,3.884967581532899339e-01,1.377256053043554584e-02,5.403590333805863288e-02,-5.314905942294872315e-03,7.909839153289794922e-01
2.630648555112932718e-01,-4.620766610196319624e-01,4.066986040316842299e-01,1.218219772099770476e-02,1.978448828758181885e-02,-7.102797786143498493e-03,8.077044486999511719e-01
1.824416208899325986e-01,-5.594085612176020739e-01,4.679841943662625958e-01,3.692187225817437760e-04,2.185492360854990324e-02,8.205773138076792594e-03,9.194244742393493652e-01
3.646167330113275762e-01,-4.667552196433411016e-01,3.604334295101603303e-01,3.335480680792324466e-03,7.477885492902899139e-03,-2.402560698332265043e-03,8.294199109077453613e-01
3.652420116900700342e-01,-4.552058147727149340e-01,3.606366957164042764e-01,3.342461023981895159e-03,-1.436510888697902378e-03,-4.973785198379467899e-03,8.182244896888732910e-01
3.734009877585231507e-01,-4.488829622311463208e-01,3.587348572500856370e-01,7.111834122431867633e-03,-6.118894698572950944e-03,-8.611728000795422239e-04,8.152132034301757812e-01
3.765732525203349668e-01,-4.340701873931535060e-01,3.565656888158701965e-01,-4.635890651602663469e-03,-7.589769672652416088e-03,1.571372266179900086e-03,8.009799122810363770e-01
3.650818521272887196e-01,-4.030025799169818512e-01,3.502513289217320525e-01,2.566052643460626018e-02,-9.596100450309256666e-03,4.453299114382117466e-03,7.622950077056884766e-01
3.481210942509800343e-01,-2.745515578059166684e-01,3.183311275467784474e-01,3.789461898234825626e-02,-1.073831511291862282e-03,1.838134453783565143e-03,6.118667125701904297e-01
3.609583753504352899e-01,-4.383562369892032295e-01,3.673410637239112320e-01,5.012742037717179792e-03,-4.844961867355793150e-03,-1.340422607191466518e-02,8.029515743255615234e-01
3.481194555480796593e-01,-2.783889890345430662e-01,3.204072250657255538e-01,3.618784663388601580e-02,-1.244012281045302334e-03,4.777354278379961593e-03,6.163770556449890137e-01
3.188674020474425719e-01,-4.865612471799274363e-01,3.989430474755109035e-01,-7.692185815197969496e-04,-3.753789188153786732e-02,7.264790298599711066e-03,8.508877754211425781e-01
3.477211245463718292e-01,-3.066485037629613775e-01,3.421470840477696118e-01,3.618279131789855357e-02,-1.682784931559098279e-02,-3.305690696522137206e-02,6.577526926994323730e-01
3.652947862714339688e-01,-3.986385289700742351e-01,3.527398220619329949e-01,-6.323111440094627590e-03,-1.287753404757853090e-02,-1.235457709490885014e-02,7.584431171417236328e-01
3.645921553782406344e-01,-4.732930137375388480e-01,3.712075956975995905e-01,6.913247963179756407e-04,1.844674270734405520e-03,5.096419074040604413e-04,8.412197828292846680e-01
3.649617233442127295e-01,-4.689419266122265562e-01,3.704974947654257611e-01,3.197001058009711280e-03,1.987259620190764530e-03,1.042193708439163088e-03,8.367125988006591797e-01
3.636268686001834505e-01,-4.651128853879673564e-01,3.750058443036342060e-01,3.496799528749411530e-04,3.564963724409619082e-03,1.148819306907868185e-03,8.345128893852233887e-01
2.137564406773528880e-01,-4.670610245761888102e-01,4.238742138746761090e-01,2.654392961709307192e-02,2.747957315622715120e-03,-5.675261361124292817e-03,8.080512285232543945e-01
3.612095100567197514e-01,-4.279824888953982498e-01,3.730078419718922955e-01,-9.560498084475120215e-03,1.463681213310483523e-02,-1.715834802370149251e-02,7.962879538536071777e-01
3.658916243197700147e-01,-4.674875655295492871e-01,3.475109584600248880e-01,8.830111558949953893e-03,-1.700399436367100881e-03,6.040338616984611102e-03,8.245560526847839355e-01
3.683193011236111647e-01,-4.665634684676228661e-01,3.669915055968185347e-01,-5.555163383286234029e-04,5.064653022077992553e-04,-5.752477347642311403e-03,8.342801928520202637e-01
3.226131742693620907e-01,-4.666287143318124109e-01,3.638287819930872691e-01,1.145352062694339826e-02,-3.474286395295174239e-03,1.168422821907716576e-02,8.111534118652343750e-01
3.192312497692181283e-01,-4.489150840228498529e-01,3.446701942407670027e-01,-4.755175163865868297e-03,-3.422892582782204041e-02,-8.889571187879589248e-03,7.836176156997680664e-01
3.552276760003982292e-01,-4.515059925640716454e-01,2.962912418304900486e-01,-1.115510984985707867e-02,-1.600094586353290049e-02,-1.235861388984397895e-02,7.799655795097351074e-01
3.543106094760682390e-01,-4.758956556272948557e-01,3.617975969004000869e-01,-1.027249491251474092e-02,-6.810135427042304443e-03,-1.702503073571354913e-02,8.347691297531127930e-01
3.735174281534159313e-01,-4.080429413074067035e-01,3.323809885060620695e-01,7.419861206340598592e-02,-5.998705394277605019e-02,5.090357463240741814e-02,7.845147252082824707e-01
3.732327423150636481e-01,-4.665214235049177649e-01,3.419502053729139845e-01,-1.220985757921370062e-02,3.055884047099027834e-03,1.452980890406972312e-03,8.248500227928161621e-01
3.800044393899223438e-01,-4.608066200749522112e-01,2.616257826392091035e-01,-1.150756091163160008e-02,-1.848168799980332011e-02,-1.814836337051873097e-02,7.898434996604919434e-01
2.104584345278408264e-01,-4.910471104773264095e-01,3.028041002732267950e-01,8.073803270466443915e-02,-2.404521049313535497e-01,3.834979285549779127e-02,8.734062314033508301e-01
2.976945141421849517e-01,-4.731831877191913227e-01,3.355737338456056817e-01,-2.041412267791324273e-02,-5.962621978991253235e-02,-1.445199311654260868e-02,7.983922362327575684e-01
3.389772584689480506e-01,-4.492415189992371438e-01,3.054940163482672277e-01,-1.141700215785488269e-02,-4.559827104988636859e-02,-7.943552968623333876e-03,7.764250040054321289e-01
3.434642979311769984e-01,-4.543256642784599952e-01,2.949073059585918810e-01,-4.732669145378985871e-03,-5.079368532197664488e-02,-4.127312573014734788e-03,7.797093391418457031e-01
2.996865914173152401e-01,-4.573702543454503111e-01,3.337670994672184421e-01,-6.400393811836040114e-03,-5.665132047136624271e-02,-6.545035059733107612e-03,7.810102105140686035e-01
3.718995670616194738e-01,-4.781658405099631359e-01,3.202698131874538445e-01,-2.583312087240889274e-02,-3.000095796699354944e-02,-1.850414472661060170e-02,8.289255499839782715e-01
4.034818931830201905e-01,-4.641654786578385261e-01,1.902418302033415665e-01,1.683511189134110145e-02,-1.645572897724268124e-01,-8.426258391674115722e-03,8.340064287185668945e-01
3.635536816618777922e-01,-4.626261218584699630e-01,3.662144392909003066e-01,-3.313846866581382240e-03,-5.450045975684448749e-03,5.937916892493764337e-03,8.276510238647460938e-01
3.418960569262822768e-01,-4.590938533084709672e-01,3.395646804364295668e-01,-7.561036882747078705e-03,5.219557989031312246e-03,6.449362089833507970e-03,8.000630736351013184e-01
3.628150657856289429e-01,-4.703236504193446521e-01,3.617475813489872682e-01,-6.313753999588823246e-03,-1.658028528853022765e-03,-1.413268884788465010e-03,8.326858282089233398e-01
3.476594532176419672e-01,-4.638735797248179082e-01,3.528838447466384198e-01,4.260158875557032557e-05,1.827681026384388868e-03,6.185333192075616153e-03,8.142344355583190918e-01
3.407149161892581435e-01,-4.596009769157192171e-01,3.389867546966628398e-01,-9.415927928945183947e-03,6.486405570789175248e-03,1.259428309221021815e-02,7.999959588050842285e-01
3.528834526007410544e-01,-4.585785381476675804e-01,3.294101626891846601e-01,-1.015115352360026861e-02,4.146755172469211020e-03,8.001321656483104464e-03,8.003290891647338867e-01
3.577345999423810485e-01,-4.634382024194776406e-01,3.272177908202072993e-01,-1.228927413588073655e-02,6.112907740165145209e-03,8.673550284159602455e-03,8.068378567695617676e-01
3.668480070118831371e-01,-4.659336318623237272e-01,3.435379684583383941e-01,-1.050618905221472124e-02,3.042181231696495895e-03,6.197110548570461223e-03,8.216632604598999023e-01
3.697535406658682411e-01,-4.693763479924478732e-01,3.655177204603542451e-01,-1.500317064001907216e-03,4.516716372425034869e-03,-2.581141102430603400e-03,8.370725512504577637e-01
3.039569853589417781e-01,-5.153127619785684566e-01,4.393328892968466626e-01,-1.099604803971998730e-02,-5.556189137363570785e-02,-1.973073745090885792e-03,9.000415205955505371e-01
3.672313638396819124e-01,-4.491619161044102526e-01,3.625075970005054438e-01,9.926397202983312448e-03,6.807710272033465002e-03,2.100135931228138547e-02,8.151206374168395996e-01
3.628395690831061615e-01,-4.722407189139794514e-01,3.702525493136701318e-01,-9.549556952684878095e-04,4.012968364570841835e-03,-5.395478764081534581e-03,8.388938307762145996e-01
3.670929077485164393e-01,-4.734803024322677967e-01,3.673996460183731050e-01,-8.829795414770808286e-04,4.845940071016682088e-03,2.261103334909002479e-04,8.407700061798095703e-01
3.655751574340544985e-01,-4.717525220053307988e-01,3.663280715572095336e-01,-3.063768278657382459e-03,2.021714320397064325e-03,-5.068934058781966040e-03,8.377745151519775391e-01
3.749782135872139488e-01,-4.690277698854733446e-01,3.645666895411036612e-01,-2.192035705704763020e-03,1.665884184262654902e-03,-2.608207810775387339e-03,8.388743996620178223e-01
3.234653562548156502e-01,-4.498896969755018516e-01,3.185357540039180924e-01,-5.362078337372983873e-03,-3.246787398822933296e-02,-6.935528156174031005e-03,7.730996608734130859e-01
3.727891059766088033e-01,-4.528368193023765143e-01,3.737008367177652723e-01,-1.314742923142563427e-02,-4.246774248758055509e-02,-3.780197739214895963e-02,8.322426676750183105e-01
3.322807606544381231e-01,-4.530401502515528644e-01,3.417082246887699348e-01,-4.627320966196512317e-04,-2.144234693931145255e-03,-5.566044117214329415e-03,7.901448011398315430e-01
3.207727906894654035e-01,-4.472122331496648506e-01,3.482456584829689561e-01,3.667782163009387746e-03,2.562297450636747548e-02,-3.768529624214713835e-03,7.833945751190185547e-01
2.196049913673011056e-01,-4.713829690605608747e-01,3.610114351041560088e-01,-1.236619763053919616e-02,1.081370434497188338e-01,9.912022181377990251e-03,7.943580150604248047e-01
3.780660724497356129e-01,-5.471521260541507559e-01,3.206999498286084993e-01,-3.394100828568362427e-02,1.359974437612600229e-01,3.498749104048426428e-02,9.321253299713134766e-01
3.523123318963838901e-01,-7.195724622229309198e-01,3.556820517986299945e-01,2.874975270828713375e-02,3.260447295947558888e-01,-7.530441476106766729e-02,1.221051931381225586e+00
3.625922209266934093e-01,-4.708345101546667077e-01,3.540235046422143261e-01,-4.408057698247972410e-03,2.188131538962012883e-03,-4.102861438110701545e-03,8.292498588562011719e-01
3.521778003493278852e-01,-4.688944504936464197e-01,3.529705169644367646e-01,-1.859656817519639771e-03,-3.329776291147222220e-03,-3.942098899259074973e-03,8.215238451957702637e-01
3.432912929078349995e-01,-4.578932708390835993e-01,3.424571268512205946e-01,-3.867824401571525773e-03,-1.003415534952332554e-03,-2.953627594750406812e-03,8.008140325546264648e-01
3.483383834580997540e-01,-4.633611874773488903e-01,3.506829199023091537e-01,-5.868825652080205194e-04,-2.832331391597521118e-04,-5.913976389328654860e-03,8.129397034645080566e-01
3.481983802963990460e-01,-4.636495377700257103e-01,3.452309931214963545e-01,-5.516535331069309482e-03,-4.364769567248156547e-03,1.668197422928197028e-04,8.104599118232727051e-01
3.620023222654183415e-01,-4.603187142695106537e-01,3.608643910426881374e-01,-4.430460438853854946e-03,-2.294987213186112495e-04,-2.999323668284229307e-04,8.217887282371520996e-01
3.871516600715717016e-01,-4.554531965412729200e-01,2.371121051492586507e-01,7.826293305150087282e-03,-4.066983951256462199e-02,1.044401813510481732e-02,7.820127010345458984e-01
4.086876940582310769e-01,-4.653323468241408190e-01,2.540438095437564936e-01,9.201894658100799942e-03,-3.810330164046642903e-02,-7.228831141254298855e-03,8.108207583427429199e-01
4.456626199474405525e-01,-4.507334241861402635e-01,1.751001797953822270e-01,6.714316629418236836e-03,-2.126577818604875533e-02,-5.184683174115699116e-03,7.973527312278747559e-01
4.117420279654590010e-01,-4.577909221829408182e-01,2.317109915907100692e-01,1.043669894682794754e-03,-4.855399527011226846e-02,1.554270145252095682e-03,7.993990182876586914e-01
2.243282757662281579e-01,-4.608519834691420236e-01,4.099954274530521747e-01,-1.194249250524351269e-02,-4.371621571738670137e-02,2.718891985913266581e-03,7.983376979827880859e-01
3.308083958885844611e-01,-2.884305064462945323e-01,3.407468701618635576e-01,1.358334242495676594e-02,1.464864291103045932e-02,3.676039961533372064e-02,6.284593343734741211e-01
3.513685794526826278e-01,-2.925745795543574501e-01,3.355747440391060321e-01,4.617158665355591829e-02,-9.279208061814609582e-03,-7.177809999588023737e-03,6.415218114852905273e-01
3.314038620753934072e-01,-2.422497102610999264e-01,3.182186670686412144e-01,-4.059613127876678107e-03,-1.915985300915969483e-03,3.721780214473619907e-03,5.672658681869506836e-01
3.198373688053465780e-01,-1.966940025567359140e-01,3.243069151927879812e-01,7.311023428304940820e-03,6.938771071869557008e-03,4.672350658773228443e-02,5.253449678421020508e-01
3.364862642607543974e-01,-8.042453802812438157e-02,3.088482959713445553e-01,6.680153403673065593e-02,-2.777858229336755552e-02,-7.571716455115012553e-03,4.230014085769653320e-01
3.309745409797222315e-01,-3.164605182965262720e-01,3.443415188148462036e-01,3.090902080191881753e-03,1.167544254531302853e-02,-2.965870858593158601e-03,6.545754671096801758e-01
3.567956261064468837e-01,-3.006620915573648967e-01,3.337130627164325292e-01,4.219537289523717788e-02,9.028027639331520984e-03,6.120329404044874688e-03,6.506196260452270508e-01
3.716003407144027881e-01,-4.660971340276731656e-01,3.678851267895397181e-01,-1.407819582580238822e-02,2.525999235213512422e-03,-2.879199153214319091e-03,8.362279534339904785e-01
3.512078414577314289e-01,-2.971506328416572140e-01,3.324725880748500839e-01,-3.385708269264801895e-02,1.226463489011501637e-02,-2.212918981818542616e-02,6.433753371238708496e-01
3.691539998642102138e-01,-4.372457668841321921e-01,3.542875486694648801e-01,-5.489259619095970474e-03,1.962047643242866707e-03,-5.667493404126673108e-03,7.991943359375000000e-01
1.887016104602398103e-01,-4.371755727858663843e-01,5.698956732583787543e-01,-4.455488655410753951e-02,-8.391994085755297150e-02,-5.632123437953082817e-03,8.959855437278747559e-01
3.683745718363219401e-01,-3.586553057116526610e-01,3.404450093958955037e-01,-2.378811002442888026e-02,4.614847013440656620e-03,5.006436262498677701e-04,7.147091031074523926e-01
3.380847281931016468e-01,-4.440568250898295766e-01,3.689568538653764107e-01,2.144924281113982662e-03,-7.832418058703494168e-03,4.347633726809829388e-03,7.981850504875183105e-01
3.640188356567227168e-01,-4.397291347460114963e-01,3.593764662710025037e-01,-3.820970583713457266e-03,-6.009201885624527312e-03,7.725586809333676464e-04,8.015328645706176758e-01
3.674283253347542799e-01,-3.789030116739762755e-01,3.425113218113098879e-01,-2.249025925421306929e-02,-7.725649060760808942e-03,-2.471036859145495004e-03,7.353569269180297852e-01
3.954714331094212332e-01,-4.535780217009101056e-01,3.105262927926276117e-01,9.132528597469493151e-03,-2.224343670937528605e-02,-4.436027642146753852e-02,8.146263360977172852e-01
4.141654294613137388e-01,-5.000411106788812399e-01,3.122711138354107296e-01,1.380200130103716692e-02,4.258844859068553618e-03,-7.422291819646504446e-03,8.682135343551635742e-01
2.310850212422113081e-01,-4.587819328239914896e-01,4.213304054591087144e-01,3.556443138899383592e-03,-1.622141914068901333e-02,2.467906912478826510e-04,8.026090264320373535e-01
2.822489758835817764e-01,-4.157003846503493638e-01,2.668519312668176102e-01,-6.185113748578868059e-02,-2.091043027199214199e-01,-7.033645008958322453e-02,7.963141202926635742e-01
3.994081414726822210e-01,-5.358249247548555472e-01,3.520346139684664144e-01,1.386455435533545319e-02,-1.077372026628746204e-01,1.467158969182510986e-02,9.320108294486999512e-01
3.616537408361060191e-01,-4.713141460846327346e-01,3.450097208744201671e-01,2.390542757106853614e-02,-3.020210190258806882e-02,2.100736367332166343e-02,8.282653093338012695e-01
4.571782145369124861e-01,-2.496693090124899039e-01,2.716851276746309884e-01,-4.196909528081000512e-02,-1.355338955924384192e-01,-4.100201370684264379e-02,6.843696236610412598e-01
4.990811397601904176e-01,-4.747302716555141799e-01,1.624329518629654689e-01,-8.582813581981478535e-03,-7.159654162824589940e-02,9.257294115995716444e-02,8.804074525833129883e-01
4.919719240826202489e-01,-6.643791946741736121e-01,1.483492025818231030e-01,-7.577476511540709447e-02,-1.724072831558225161e-01,-2.050880317062482028e-01,1.135983109474182129e+00
2.706331843731507036e-01,-4.696279511869052570e-01,3.481183564858593149e-01,3.059528429328319671e-02,1.201171263498218567e-01,-1.537180684399450971e-02,8.112652301788330078e-01
3.379638578901417167e-01,-2.690792954190980857e-01,2.382322020303658805e-01,-6.945261496145516134e-02,-1.117701531982209784e-01,-9.737849219490565811e-02,6.311123371124267578e-01
3.465168710465814650e-01,-3.665570369009196749e-01,3.515600639811460870e-01,-1.362709657305585451e-02,1.335206418514244334e-02,-3.476892769097753716e-02,7.188981771469116211e-01
5.379668797825133408e-01,-3.945353142123024237e-01,1.226316912495063610e-01,5.281455575577631567e-03,-1.058852466686508731e-01,-1.178730294596693484e-01,8.544961214065551758e-01
3.683292968641342924e-01,-4.638860577859326151e-01,3.586038810878232619e-01,2.618360320447428707e-03,4.475929720896978605e-05,-4.233711461790979833e-03,8.274404406547546387e-01
3.850180988016884132e-01,-3.560360001310218792e-01,3.488793746032526899e-01,-4.069496098441621745e-02,-1.547372220567588136e-02,-5.218807435863555971e-02,7.331737875938415527e-01
3.949085088659178844e-01,-6.000827627039495571e-01,2.245982300273283716e-01,-2.687175883547297806e-03,2.386225703250744457e-01,-1.915514677075273037e-02,1.010693073272705078e+00
1.748332159210628234e-01,-4.853585758934777505e-01,4.352360212270108830e-01,7.794966661403468413e-04,1.593465645967858946e-01,6.213526438750840812e-03,8.671045303344726562e-01
3.355019983228819114e-01,-4.613523451013671339e-01,3.626291486932443076e-01,-3.057774830227225158e-03,1.763292443513622340e-02,1.071528934526176473e-02,8.115628957748413086e-01
3.381500985286786110e-01,-4.691827897086797705e-01,3.485605030793062498e-01,-2.182516198096097829e-02,2.813361046853672665e-02,2.218361682891078351e-02,8.158304095268249512e-01
3.923568043411407857e-01,-4.926221090754399068e-01,3.132239224347624917e-01,-1.942753039986195446e-02,1.025362752458917337e-01,1.601510144342334352e-02,8.676759600639343262e-01
3.252432540758901092e-01,-4.436072873782089809e-01,3.232986718102905943e-01,8.528520294597359466e-04,-7.613836971148306432e-03,-7.296360806548042111e-04,7.679957747459411621e-01
2.163939873986142071e-01,-6.883381562748525084e-01,4.668290681198998815e-01,4.703020100659608543e-02,1.526135562016639191e-01,-1.268719834066781016e-01,1.110239744186401367e+00
3.108680745062522011e-01,-5.092529913039253175e-01,2.924286135288856614e-01,1.855656598788447964e-02,2.442624977152776933e-01,-1.135041605179171464e-01,9.362110495567321777e-01
3.771519541388828056e-01,-8.803835224487467359e-01,3.629494475259962272e-01,-8.291494897886497739e-02,2.660419810833998255e-01,-8.837136864161108940e-02,1.349120140075683594e+00
2.609717134468715338e-01,-4.494227889801146736e-01,3.936633861591481987e-01,-5.029972904029363263e-03,5.779590266668512000e-02,1.151967889106520100e-02,7.918497323989868164e-01
3.598610192009384923e-01,-4.606603973288094789e-01,3.794020508821926430e-01,-4.437814060220978589e-04,-2.106726730879832630e-04,-2.650887024335797475e-03,8.304774761199951172e-01
3.659245963161006365e-01,-4.587933746869344853e-01,3.720627970218885472e-01,1.886784755021235493e-03,1.365700503785016815e-03,2.277629983920934076e-03,8.278233408927917480e-01
3.792412879897672506e-01,-4.630398632377477064e-01,3.367153532691727902e-01,-1.830456228758429353e-03,-1.950685979401412581e-04,8.531779606458931436e-03,8.219828009605407715e-01
3.618716594348806437e-01,-4.631549356168519482e-01,3.605669217004278115e-01,-3.042838584090240984e-03,-1.069354161274364530e-03,-1.521400221006842827e-03,8.243981599807739258e-01
3.663259009165446556e-01,-4.658193448353651345e-01,3.659240479912365118e-01,-3.295196882835532345e-03,-2.778052728321304780e-03,-4.182362959351761458e-03,8.320094347000122070e-01
3.525364545104945346e-01,-4.312490157910062738e-01,3.802740069370371678e-01,-3.737537507816046894e-04,-3.876312987141337669e-04,3.801762368961711207e-03,7.980436086654663086e-01
3.610085442228367358e-01,-4.603644452698636425e-01,3.806263799695840944e-01,6.796545800517803928e-04,3.821894554093558521e-03,-3.188584559734654843e-03,8.314010500907897949e-01
3.904647911609361866e-01,-3.315304346363692756e-01,3.040021691886138355e-01,1.196612935091189572e-02,-1.646358219587974736e-02,-6.137102078695753915e-02,6.920037865638732910e-01
3.601338832188762940e-01,-4.600829047316868925e-01,3.812569142381223575e-01,8.483224545370280116e-04,-1.856331539542812464e-03,2.352936238574532875e-03,8.309971690177917480e-01
3.582237907000596078e-01,-4.543335941741795114e-01,3.806497451284827638e-01,-1.261374840645832244e-03,-8.212946799179793138e-04,1.341097150258717874e-03,8.240066766738891602e-01
1.746320441739094564e-01,-4.764991207886546398e-01,3.527055167854695750e-01,-1.774948958963257217e-02,2.007984472023157108e-01,1.199017729236270292e-02,8.330472111701965332e-01
2.697580526141762913e-01,-4.551279200567206473e-01,3.716148156276782299e-01,-3.107016386717042708e-03,3.262166379834649521e-02,-9.507053466529991406e-03,7.830463647842407227e-01
3.622031954627258910e-01,-4.703744470725297333e-01,3.675282017577544691e-01,-2.696833605619684219e-03,6.127299028473666464e-04,-3.502449163788066804e-03,8.352886438369750977e-01
2.329899509725652518e-01,-4.640643591038411397e-01,4.163070328819341581e-01,1.795589033490058162e-02,2.418535573965131802e-02,-6.955076727786845686e-03,8.063119649887084961e-01
2.288902665343999776e-01,-4.547060195749732525e-01,3.827117636951891111e-01,1.143434013817102440e-02,6.838931109353520166e-02,-9.323303869397860794e-03,7.815375924110412598e-01
2.411498322929016558e-01,-4.468864898036086775e-01,4.008378193645947274e-01,-2.071768286800722801e-03,2.105085967464262117e-02,1.740394308830049133e-03,7.810996770858764648e-01
2.201452721865495010e-01,-4.687946811815520975e-01,4.217603524105303370e-01,-2.362010028012211452e-02,1.130569968666834263e-02,3.867160808093923936e-03,8.101170659065246582e-01
2.900792144501749270e-01,-4.760261444605923264e-01,4.021596713466031869e-01,-2.361010307702773522e-02,2.069503121803248791e-03,8.887211630074181093e-03,8.290156722068786621e-01
2.853671895129945013e-01,-4.677590328657023067e-01,4.005668332048928360e-01,-1.650640902611971716e-02,-3.340781379303928676e-03,-6.858250791664314595e-03,8.174484372138977051e-01
2.278636187593857110e-01,-4.769091813614005915e-01,4.216782268420150581e-01,1.803996428374603223e-02,2.868260873108037338e-03,5.470729811254435720e-03,8.197285532951354980e-01
7.623001143238958277e-02,-3.654436218693710714e-01,4.820568920983600014e-01,8.171497539724925652e-02,5.663283400414736990e-02,-9.370826574774282925e-04,7.541024684906005859e-01
3.621244780803036245e-01,-4.592937580705608314e-01,3.707065769449149895e-01,-1.377117565089254437e-03,-1.940780343560061499e-03,2.452192551619138561e-03,8.257639408111572266e-01
3.628125077235340168e-01,-4.567243544553938328e-01,3.725877171797894460e-01,-5.317897611609799079e-04,-2.986226980857883956e-05,2.298986776334893765e-03,8.244780898094177246e-01
3.468565373154127718e-01,-3.770890694713587843e-01,3.680724647466541710e-01,3.443681963889641258e-04,-1.073479567160429094e-03,-1.775418839899526452e-02,7.354291081428527832e-01
3.576324648301747455e-01,-4.418834384907912582e-01,3.781653776620235718e-01,-1.592178000557497707e-03,-2.606412727302204798e-03,-8.558207736968165280e-03,8.101304769515991211e-01
3.587429674393662893e-01,-4.562596502043196889e-01,3.799689811989883648e-01,-9.598153745641670479e-04,1.767212895180753085e-03,-2.976186844897017823e-03,8.258436918258666992e-01
3.561259764672202177e-01,-4.563656853406535818e-01,3.797654974045807097e-01,-1.937504372007321698e-03,-7.942558114805403201e-04,-4.604444721245699521e-03,8.246121406555175781e-01
3.599281228580907266e-01,-4.568997504698012468e-01,3.726447005776125088e-01,-1.507090774411276417e-03,1.212361316600951309e-03,2.812081240747589528e-03,8.232810497283935547e-01
3.864068167607090931e-01,-4.506080277032334935e-01,3.226779920673507052e-01,-8.772412316919392036e-03,-9.177612132090885028e-03,1.371776620487405061e-03,8.073428273200988770e-01
3.679369544187814367e-01,-4.699131228649245928e-01,3.778976535042008478e-01,-1.794812327467294613e-03,6.023433437942210186e-03,2.675649392306006687e-03,8.429576158523559570e-01
3.672685840369959154e-01,-4.550809016761520054e-01,3.775483623384737752e-01,8.161716433957950587e-03,2.805278797868498292e-03,2.573924461092658850e-02,8.288720846176147461e-01
3.549095496890188883e-01,-4.572502139014241740e-01,3.820590477226567527e-01,-2.055919506682927350e-04,2.456332866458854191e-03,-2.995905331114562947e-03,8.260965347290039062e-01
3.584013427535178709e-01,-4.568204812812209914e-01,3.837473888184258497e-01,-1.103912155132048372e-04,-9.700396619381410328e-04,-3.046979904429574209e-03,8.282043337821960449e-01
3.680016559237467844e-01,-4.658072852757118021e-01,3.687531432506416240e-01,-1.106888590672632866e-03,1.333982468537603079e-03,3.896489321748682327e-03,8.342176675796508789e-01
3.784403528141304651e-01,-4.622579979618104407e-01,3.367220210349254339e-01,-4.218695603824734741e-03,-1.692294977477064571e-03,-7.537866448827400430e-03,8.207764625549316406e-01
3.827797271716394389e-01,-4.280440525281228314e-01,3.928971683322771691e-01,-2.902622365124779905e-02,3.716014362607878568e-02,5.332216620202021029e-02,8.251914978027343750e-01
3.998153052357298343e-01,-1.904382802143291253e-01,3.176184589786719137e-01,1.198189401676174421e-03,1.433739816551264645e-02,2.981123223313828646e-02,5.567097663879394531e-01
3.495626599685466296e-01,-4.659468252688030443e-01,3.435457211148122414e-01,-6.984523450754350805e-03,-1.000165987682713996e-02,-6.501129058658390233e-03,8.128703832626342773e-01
3.681529495521973505e-01,-4.695664670808331609e-01,3.560756477684847709e-01,-8.368235848072587760e-03,3.037426832512652754e-03,-3.422887007686308512e-03,8.319105505943298340e-01
3.717205304417204870e-01,-4.694142198637689667e-01,3.616475935563509547e-01,-1.100041586643662681e-02,3.062662086366101620e-03,-8.360391210651107997e-05,8.363776803016662598e-01
3.662463659039834063e-01,-4.418872156919937400e-01,3.634043225253435483e-01,3.646573609468080780e-03,1.118470706432804843e-02,-3.079046345627104407e-03,8.069912195205688477e-01
3.690049370590587352e-01,-4.747660503766332196e-01,3.650417481143665710e-01,-1.332787595619096569e-03,3.644923398114304110e-03,-3.878453057384471762e-03,8.418500423431396484e-01
3.656269898972482890e-01,-4.750304301358770909e-01,3.645829558365094036e-01,-8.476141611628444693e-04,2.340862422657151009e-03,-1.452085668045445012e-03,8.401507139205932617e-01
3.722080087200799192e-01,-4.646865866125662325e-01,3.644953102042586268e-01,3.802386141504588910e-03,6.480654173877196250e-03,-1.670173312258200907e-03,8.331716656684875488e-01
3.583794178206582970e-01,-4.677312602291558985e-01,3.541358771271552186e-01,-8.802251655845761899e-03,-8.284824057488791166e-04,-4.680469544667375040e-03,8.241792321205139160e-01
3.414321084394836836e-01,-3.480759762722348549e-01,3.468490377455535345e-01,3.660538546794019424e-03,5.784721993140465313e-03,-5.385529485427961033e-02,6.985896825790405273e-01
3.328439512509858700e-01,-2.900039500229114053e-01,3.457880999399476352e-01,-1.482684924936887930e-02,1.182591154181483403e-02,-3.615333585096742325e-02,6.333794593811035156e-01
4.111163754556526606e-01,-5.325120763735180507e-01,3.845261054538624546e-01,-3.588612743711876857e-02,-5.985761135829424651e-02,-4.372216553680254025e-02,9.414868354797363281e-01
2.955290763667755005e-01,-1.305158628308294433e-01,3.041673450309780868e-01,-1.134512468900120835e-03,2.287231549835505931e-03,-1.104023140779229403e-02,4.308763444423675537e-01
3.642601022587051429e-01,-4.442440148884418960e-01,3.661209399651592644e-01,2.664693245015074298e-03,1.077156863122615861e-02,-4.010958824327118949e-03,8.096941113471984863e-01
3.566996473103677956e-01,-4.666033486625811300e-01,3.857582241576751336e-01,-9.692746373075404251e-03,-2.163219193738124147e-03,3.504407715054874434e-03,8.384085893630981445e-01
2.285966787375819376e-01,-4.502737808830926669e-01,4.041720757464257185e-01,-2.952375346217121950e-03,-1.022054776369199502e-02,-9.661681504548933321e-04,7.818101644515991211e-01
3.261063639907163525e-01,-1.786494621887136369e-01,3.002369192653796537e-01,3.702033273949429520e-02,-7.564634708116038664e-03,3.226538494968464368e-03,4.966934025287628174e-01
2.977665593193313809e-01,-1.768875225131975037e-01,3.148837876176442396e-01,1.860926072243611860e-04,5.437690685339302034e-03,-1.869998036027021096e-02,4.846154451370239258e-01
3.168496049436304585e-01,-1.841063945859182094e-01,3.037082207477928009e-01,-3.950538848095725558e-02,-8.298349098642215926e-03,-1.849479286816653120e-03,4.994449317455291748e-01
3.133680802060760939e-01,-1.932644046412228533e-01,3.179285609708435434e-01,-2.262876368932821916e-02,8.918617727577009269e-03,-1.209172714282863090e-02,5.110980272293090820e-01
3.210605957905176000e-01,-1.486194259616329671e-01,3.155264837193760830e-01,-4.714600870300907770e-02,-1.519906962953868458e-03,-1.040050927792483815e-02,4.743736684322357178e-01
4.318915664495116546e-01,-4.920712377900959833e-02,3.425491386465627786e-01,2.657165263983003387e-03,1.898769402754126381e-02,1.276981681259499977e-02,4.450252652168273926e-01
3.220891220347466555e-01,-1.362894079147911053e-02,3.326820559961016777e-01,2.261277773173278258e-02,5.867945444107602535e-03,1.685910057116534952e-02,3.447681367397308350e-01
3.469981042779741176e-01,-2.237079519664383342e-01,3.318465540407111725e-01,-5.151027783749732858e-02,7.215059061181412770e-02,1.387447333908984129e-02,5.843307375907897949e-01
3.661225597119950326e-01,-4.640174221107448149e-01,3.652283869652505621e-01,-3.670236890650924438e-03,-3.388796577227367809e-03,4.865654006607030534e-03,8.297811746597290039e-01
2.706818804542671653e-01,-5.794078973131905341e-02,3.479066551093055737e-01,-5.615668572308622764e-02,-3.269836226850621891e-02,5.204381395211399308e-03,3.899793028831481934e-01
3.594508807690066088e-01,-4.335704757804594855e-01,3.649593906630784756e-01,-1.546913036604527850e-02,-2.031829615628064772e-02,-3.692114321798437536e-03,7.970438003540039062e-01
3.336501814989712988e-01,-2.399789805837221901e-01,2.298620683168782208e-01,-4.487544334282143194e-02,1.355022648297178056e-01,4.086045113805391454e-02,5.885738730430603027e-01
4.119726136409627149e-01,-4.700371386903964277e-01,2.723596355731729979e-01,-1.029913754725888565e-02,-3.078339260369969410e-02,-3.395045408020991307e-02,8.251739144325256348e-01
4.099506009964491993e-01,-4.659997282407696284e-01,2.792293752375091254e-01,-1.528795739575310349e-02,7.692755351102061045e-02,9.110477995882334135e-04,8.296558856964111328e-01
3.329548186270769872e-01,-2.558339827956064294e-01,3.253787384718335174e-01,4.701056402559355973e-03,-1.173375157172553904e-02,3.319348064111892621e-02,5.882632732391357422e-01
3.955597855049000633e-01,-4.725602423678252340e-01,2.873128899695693295e-01,5.640800792989216460e-03,-1.921572772663377154e-03,-1.820257530317577130e-02,8.200481534004211426e-01
3.927903915153862502e-01,-4.647672891529789352e-01,3.050805125875306612e-01,-1.162563074914175869e-02,1.174136593415790741e-02,1.319302986506979206e-02,8.180605769157409668e-01
4.522991323411997833e-01,-5.279893669793828126e-01,1.912096419304822881e-01,-6.521167433484990547e-03,2.700647358535927800e-02,2.943315565827262642e-02,8.821024894714355469e-01
2.290625207496650995e-01,-4.589365596817747139e-01,4.074967815902073021e-01,2.172559187061611635e-02,-1.314001713386492645e-02,8.080774416967756099e-03,7.937720417976379395e-01
4.013719724433090219e-01,-6.243516500827392957e-01,3.104035684211061130e-01,-4.167949841275715717e-02,-3.003350946126151499e-01,-9.704802571215772819e-03,1.114976882934570312e+00
4.473782821024154810e-01,-4.716132959031410499e-01,1.775210686310061681e-01,-9.763346127345221177e-04,-2.062429415722353415e-02,-3.152028713519857642e-03,8.189509510993957520e-01
3.786532752934328450e-01,-4.157545870119917497e-01,3.623525648172368219e-01,1.643345510789617075e-02,3.294058569792898683e-02,4.097344370474050035e-02,7.921502590179443359e-01
4.707377302852390200e-01,-3.263306490388838688e-01,9.171089684090459604e-02,-1.509729915460030630e-02,-2.508857034163633482e-03,-8.634133555658331238e-02,7.070616483688354492e-01
5.526270918292258694e-01,-6.554326074111509470e-01,1.390886437292776501e-01,4.594777732919552715e-02,1.411543423712584844e-01,-1.138157080400872684e-01,1.111670970916748047e+00
5.287594465872236249e-01,-3.942662375891298199e-01,1.338978273274072928e-01,-4.206735265618729777e-03,9.048016323922536408e-02,-5.076505395449113639e-02,8.220517039299011230e-01
3.946333543339460292e-01,-4.352974991256080006e-01,3.365254323181694485e-01,-2.807714687727012187e-02,-3.134681956950547549e-02,-1.864968318397771524e-02,8.064071536064147949e-01
3.764155838902356055e-01,-4.069608988156901974e-01,3.048739628899506671e-01,-1.236449800749049588e-02,-3.746869086841722596e-02,9.588589137930269429e-03,7.534580826759338379e-01
8.483084214606324835e-02,-4.736911484176087317e-01,5.990417149742319758e-01,-1.014364475564969725e-01,-7.482431178918523551e-02,-1.568418582295454389e-01,9.924817085266113281e-01
3.670512750633146970e-01,-4.700217021471264633e-01,3.558012127708867767e-01,8.209108728754459239e-03,1.936340674177914386e-03,4.436344234629797413e-03,8.316688537597656250e-01
2.947960925059458503e-01,-3.886908050982386120e-01,3.738107044707665305e-01,3.037561945434777595e-03,-4.763438254470005184e-02,-1.618845644864254016e-02,7.314534187316894531e-01
3.684542786976851558e-01,-4.096440367501514856e-01,3.528852949737576461e-01,1.246431130873772164e-02,1.006734888259322620e-02,-2.238628429267095279e-03,7.709411978721618652e-01
2.481097043109352085e-01,-2.226874815433051435e-01,5.381462567971065925e-01,1.264302783944454408e-03,-4.813244141058914405e-02,-2.314720956235956362e-02,6.714774370193481445e-01
3.414340326373134227e-01,-4.620353436728191765e-01,3.757813428378101173e-01,7.930550606954538736e-05,-8.688223918144387034e-03,-3.766615223567933764e-03,8.213457465171813965e-01
3.723010776898388330e-01,-4.618192437390330474e-01,3.633704353279471055e-01,2.700435516892240543e-03,5.452725567887881097e-03,3.030043241460143931e-04,8.297581672668457031e-01
2.819735264339197078e-01,-4.673631516621717941e-01,4.075152522505106067e-01,-1.451923127358415930e-02,-1.366289568955729884e-03,-4.514969720858128151e-03,8.197794556617736816e-01
1.916947886288176139e-01,-3.401714108345584853e-01,4.153301160759617638e-01,-1.080981728573976175e-01,-8.857700999506294692e-02,-1.028600564773010130e-02,7.146672010421752930e-01
4.411093856166889982e-01,-5.092499582460199292e-01,2.352110217573857576e-01,4.267747324375240764e-02,-1.208045032137360086e-01,3.218736770586953094e-02,8.956857323646545410e-01
3.927220552180805124e-01,-4.745209142470082631e-01,3.213459593040643991e-01,1.082357790726916173e-02,-2.037333086063923548e-02,-3.276149051402006684e-03,8.348253369331359863e-01
4.747175343700449912e-01,-4.266128708377049383e-01,2.156486355260543442e-01,-1.303173769862495807e-02,-2.151461610103921895e-01,-1.196737697229898756e-01,9.101346135139465332e-01
3.123757088577616137e-01,-7.919855089557797934e-02,2.942733355739710621e-01,-6.380399571933670355e-02,-8.484858163367688111e-02,-2.710336908020966745e-02,4.272986650466918945e-01
3.749685590218194697e-01,-2.202684189368206980e-01,2.946377385138345684e-01,-2.271526044433616262e-02,-1.053488247223744456e-01,-8.754904850514150239e-02,6.089185476303100586e-01
3.268003485143036735e-01,-4.431506802994421568e-01,3.302088338472163320e-01,7.808294340635929314e-04,-1.934977206142823349e-03,-7.596489732328293165e-04,7.716705203056335449e-01
3.349018994924761183e-01,-4.483035762705486205e-01,3.376698888612054139e-01,-6.151659789460939623e-03,-1.145055095844053905e-02,-8.363828066790653104e-03,7.850497364997863770e-01
2.975638478295543621e-01,-4.501385368929842201e-01,3.430884535162715965e-01,-5.150722542958678825e-03,-1.975792750446118615e-02,-9.012867867096577626e-03,7.724406719207763672e-01
2.927249766060226466e-01,-4.445197208819786638e-01,3.443200253205781491e-01,5.205437786194424057e-04,-2.050410475644718136e-02,-3.226739193415075358e-03,7.651949524879455566e-01
3.257604666149805928e-01,-4.473752058896630635e-01,3.280702255871610906e-01,-3.816572681416129532e-03,-8.819173827650426956e-03,-3.210762663831952766e-03,7.744919657707214355e-01
2.858619275214285826e-01,-4.469430398603950749e-01,3.459515528396716610e-01,-5.146213359813044119e-03,-2.057808685894292264e-02,-3.912112254702681396e-03,7.655348181724548340e-01
3.690411411601498548e-01,-3.850515825533245007e-01,3.476063578224591333e-01,2.081957902067588240e-02,5.491868292902150027e-03,1.676255725429383640e-03,7.445473670959472656e-01
2.259469906715730891e-01,-4.668905576532990098e-01,4.220576258942672077e-01,1.813933833123971759e-02,-5.426338982554894386e-03,4.351093112439934421e-03,8.096223473548889160e-01
2.305830334740943399e-01,-4.479611349589741609e-01,4.123878476793519376e-01,-2.466300189369090984e-02,1.340568121892957501e-02,-8.609582465620987252e-03,7.870349884033203125e-01
1.852512499947041036e-01,-5.110252939051522780e-01,4.331924108885844560e-01,4.111585483912642836e-02,-7.636675733476110117e-02,2.508236050420902669e-02,8.621867895126342773e-01
2.835152463755856722e-01,-4.534534761342432496e-01,3.778314025506315232e-01,8.874762366173720701e-04,-4.865900724084616658e-02,2.470773596291898997e-03,7.928746938705444336e-01
2.128697721456066505e-01,-4.623285669194114877e-01,4.343059764899141473e-01,2.769078933762545922e-02,-1.118621572362827818e-02,-4.729940641968618208e-03,8.106682300567626953e-01
2.298909128387441603e-01,-4.674807940913765503e-01,4.113869074131590864e-01,1.962606853153025036e-02,-4.370338904730763918e-03,2.517020201272673354e-04,8.043950200080871582e-01
3.248392792336637358e-01,-4.309490337707595486e-01,3.339419728472637350e-01,-3.579613507752617274e-02,-6.881346434718535465e-02,-2.006214605475331245e-02,7.729398012161254883e-01
3.317651982803602739e-01,-4.656154425639914551e-01,3.705576310205797586e-01,6.508506784715159662e-04,-1.148350467696477445e-02,1.106286809689692972e-02,8.179346919059753418e-01
3.746014593036382512e-01,-4.657358114128234972e-01,3.636516272889656065e-01,-8.971698784111505282e-04,3.527563287740148601e-03,-5.826685492840899452e-04,8.349406123161315918e-01
2.077015943255952624e-01,-4.507451016903084584e-01,4.181449081148739810e-01,-2.091303631020004130e-03,2.419934215881679868e-02,-5.175047517874402543e-04,7.862409949302673340e-01
1.947841753242604557e-01,-4.510110885453723073e-01,4.449603938960399185e-01,-3.515201544910646469e-03,9.785944128711795975e-03,-1.147259132697964678e-03,8.009560704231262207e-01
1.843628158500272007e-01,-4.580447742830588975e-01,4.479819625675840467e-01,7.698952267206812458e-03,7.803980396535958874e-03,-7.989059468252796199e-05,8.073995709419250488e-01
1.097777950845778838e-01,-4.614116871908651163e-01,4.636259180190286378e-01,1.925102093206552262e-02,1.452052705259540208e-02,-1.747992280239439805e-03,8.095268607139587402e-01
2.131852141133017964e-01,-4.651595017912362184e-01,4.472876546795921393e-01,-9.647553743193506420e-03,3.439993006800767111e-03,-3.515197315704245802e-04,8.210193514823913574e-01
1.033220864640636699e-01,-5.546138867005950823e-01,5.529578386448069649e-01,-1.930397886970135722e-03,8.890045366348042766e-02,-1.543955371974932780e-02,9.774045944213867188e-01
2.078543873281711307e-01,-4.581294778365414544e-01,4.215678754819174312e-01,6.054025110779234081e-03,1.666112641700042557e-02,1.541262130610015265e-03,7.952908873558044434e-01
1.392727338185892338e-01,-4.995372655627435821e-01,4.784647309688904171e-01,5.801636406496299067e-03,1.294390029284161678e-02,1.323801317345517543e-02,8.607775568962097168e-01
3.647663520245613689e-01,-4.672462881645265131e-01,3.748802324522288454e-01,1.999372109120902546e-03,9.378725257348816818e-03,-3.758412570377630581e-03,8.373054862022399902e-01
3.660858398216479404e-01,-4.746621156934354158e-01,3.635197575611252008e-01,2.006136473859082558e-03,2.112336047695788539e-03,1.774391614058919327e-03,8.394886255264282227e-01
3.594813166183348785e-01,-4.637729592806832946e-01,3.621801958377431352e-01,1.955726802513934291e-03,1.869951762453807243e-04,5.663420510601792357e-03,8.246724009513854980e-01
3.669961405830640677e-01,-4.752085378424070194e-01,3.668264058169138364e-01,1.574055434196515533e-03,3.194124840821314926e-03,1.977813475661247943e-03,8.421493768692016602e-01
3.596416990212575882e-01,-4.717274124621495535e-01,3.594216997677457393e-01,3.719717572194986693e-03,-2.379245085580204374e-04,2.265515593859220773e-05,8.312842249870300293e-01
3.484758829133771108e-01,-4.640392686717711435e-01,3.467336484234527227e-01,4.891004002312175636e-03,-4.445434718155439474e-03,-2.587122741932586733e-04,8.117262721061706543e-01
3.582641611840857165e-01,-4.146638018610067089e-01,3.615272989346472454e-01,-6.268780357080339961e-03,-1.506677564397228969e-02,-1.134875370708248636e-03,7.750827074050903320e-01
3.570864791845674846e-01,-3.034261992777723127e-01,3.473089601025174944e-01,2.753947179735091733e-02,-5.176187979142614706e-03,-5.638238397014762315e-02,6.646856069564819336e-01
3.450403733828827924e-01,-4.653762426537915164e-01,3.596671529777570320e-01,-9.670417465499844129e-03,7.273461527546163166e-03,1.166755685607294597e-02,8.183462023735046387e-01
4.747726878773810832e-01,-5.180600131636051708e-01,3.000782693022817638e-01,-2.494675047009156654e-02,1.214825934590358855e-02,-4.400890550270727605e-03,9.193260669708251953e-01
3.879875413123817784e-01,-7.689906803555190962e-02,2.566767859179430733e-01,-6.367235210787738908e-02,-6.737322718324808939e-03,-6.403464146466794626e-02,4.437538087368011475e-01
3.412616221373185876e-01,-3.555355981433139800e-01,3.535494872159529178e-01,-8.250308439371824981e-03,5.685560747704409765e-03,-3.730890148188927696e-02,7.061986327171325684e-01
3.884149079404362603e-01,-4.598542167032737549e-01,3.707792314854181370e-01,-2.565412704047247139e-03,1.037650108899106083e-02,-3.566044581885401132e-02,8.420626521110534668e-01
4.245243316770830888e-01,-4.891402749414570650e-01,2.814932233720133237e-01,3.640064552077083306e-04,-3.085260945800660272e-03,-8.376509687899845458e-03,8.513506054878234863e-01
3.331492430302123164e-01,-3.029242625429501290e-01,3.533749852299000738e-01,9.653697023291902407e-04,-6.038279632559739526e-03,-2.518108574451655840e-02,6.479799747467041016e-01
3.414544647454251236e-01,-3.784701079461129103e-01,3.672927016935209066e-01,-1.009181012942748923e-03,-4.324810101071617117e-04,-1.674259786099200134e-02,7.337609529495239258e-01
4.895071701026321720e-01,-1.532086603467080477e-01,2.684334986960819069e-01,4.140839291569304442e-02,2.682513564676220624e-02,-6.364916870813239202e-02,5.825169682502746582e-01
3.369160102064778783e-01,-3.402213444789742858e-01,3.559222511355327745e-01,-7.920591249171597681e-03,-5.499988785954962496e-03,-8.034448997078766364e-03,6.871817111968994141e-01
3.856786809412902084e-01,-4.558239934027474849e-01,2.372544445960471926e-01,-9.293629703421790733e-03,-3.843347950271171903e-02,-1.353813085523342986e-02,7.813434004783630371e-01
4.115695286209920534e-01,-4.653788721441970422e-01,2.374082820441001662e-01,-7.126741017764106831e-03,-3.301665877446765401e-02,-4.022301351941275430e-03,8.062948584556579590e-01
4.275974655192542051e-01,-4.586097517853496841e-01,2.244876784548102133e-01,9.183228070453540014e-04,-5.971920778812908615e-03,-3.670757455729482875e-04,8.041948676109313965e-01
6.016785242121848176e-01,-7.011946423676969076e-01,1.021199204639870045e-01,5.781584898498523528e-02,-1.461967164516986967e-02,9.970747085267814280e-02,1.156144380569458008e+00
4.046182977361824085e-01,-4.768581725277081240e-01,3.201413461939870975e-01,-3.656678280523792141e-03,-6.230515540844841840e-03,-4.362484810006185196e-03,8.425475358963012695e-01
3.788790542739147726e-01,-4.685546981819013190e-01,3.092279385322015406e-01,-9.548462951672054277e-03,-1.323707778038007293e-02,-1.444535907458543642e-02,8.157179355621337891e-01
5.326359414794266112e-01,-5.086920630693986256e-01,1.017026722369341052e-01,6.683426731579245050e-02,-1.265991692767270103e-02,1.578058433768086410e-01,9.538940787315368652e-01
3.967887859253210747e-01,-5.522833822582267072e-01,3.244441832825780692e-01,-2.807220131613417241e-02,-5.641206925934023897e-02,-1.139908586464274259e-02,9.217442274093627930e-01
5.263354241450793891e-01,-5.004882015028028208e-01,5.786304368386509939e-02,-4.831747547732136855e-02,-1.057842805950152398e-01,-3.458131903334499962e-02,9.148535132408142090e-01
3.275612963683434131e-01,-4.204875939569274745e-01,3.939298828168832922e-01,3.483234017209208694e-02,-7.489071172766164144e-03,-3.088591868583158775e-02,7.875905036926269531e-01
2.265236783647977536e-01,-4.588281229278459161e-01,4.088476382102287365e-01,-8.937805760438500419e-03,6.604171050874865778e-02,3.416999464843368649e-03,8.007898330688476562e-01
2.775915563795673391e-01,-4.551871847355984935e-01,3.328646590751484502e-01,-4.002189512214017475e-02,1.761312271923586581e-01,3.115555542245981510e-02,8.254129886627197266e-01
3.171108723358440629e-01,-4.623787742072789086e-01,3.218205708550593291e-01,-1.548870088649103097e-02,3.875744663104851995e-02,2.301901042424206456e-02,7.862017750740051270e-01
2.955325316737289487e-01,-4.760463208750165265e-01,4.003161887567328603e-01,-2.396623320076959884e-02,1.259948300040110783e-02,5.922744440040197608e-03,8.303415179252624512e-01
2.471594251625170158e-01,-4.479131279479879879e-01,3.729828471014736135e-01,-1.478661605515596252e-03,2.959225688941282545e-02,6.791206027345631120e-03,7.675843834877014160e-01
3.793782121485730352e-01,-4.577766596013966849e-01,3.597331405956240014e-01,-1.453061765569009511e-03,3.055417001790000815e-03,-2.456090657221036890e-04,8.275281190872192383e-01
3.794870557271662337e-01,-4.122379081025890901e-01,3.461400887620246225e-01,-2.690183486831381962e-02,-4.909101878987568845e-04,-1.808400030870583458e-02,7.776193022727966309e-01
3.077045529595439088e-01,-5.813044265991267334e-01,4.563387494917458542e-01,8.554921858476449703e-03,7.003852003843091811e-02,5.396320194010970940e-03,9.795863032341003418e-01
3.102021639125937535e-01,-4.531849292877937474e-01,3.550616797162491345e-01,1.434888669211273901e-03,2.481621875924978904e-02,1.038334437852872841e-02,7.881589531898498535e-01
3.031907017555064421e-01,-4.494034700174021069e-01,3.503752581661699339e-01,-5.842185267813994679e-03,1.603086584112466129e-02,5.123312366771447073e-03,7.778735756874084473e-01
3.077881535599628071e-01,-4.665281399288493391e-01,3.756805528137830974e-01,-1.668159457905820167e-02,5.821328788620407438e-03,1.255726089859353009e-02,8.112674355506896973e-01
3.722862460679212671e-01,-4.816900258869434293e-01,2.830546781897934627e-01,7.924218944145938748e-03,6.327733782208699864e-02,-2.053930499442208069e-02,8.212807774543762207e-01
3.648769551776249176e-01,-4.712888373044364920e-01,3.681739525317956896e-01,-3.836911455586694813e-03,-6.182903976867940715e-03,2.958082100498877348e-03,8.379296064376831055e-01
3.646663094071794786e-01,-4.744496052098370331e-01,3.656909017083113667e-01,-2.685976557628687333e-04,-2.082528217635479240e-03,2.744971971102224697e-04,8.396366834640502930e-01
3.661266017104075621e-01,-4.754151649686767511e-01,3.667432725712371777e-01,-1.554476256011502527e-03,-9.282926383553905154e-04,-5.456981628492175692e-04,8.418566584587097168e-01
3.634885740613149618e-01,-4.720292577269179501e-01,3.634280625976401558e-01,-5.406380487004890968e-03,-3.091099479094139291e-03,-1.542850869451142934e-03,8.355614542961120605e-01
3.628722614474106933e-01,-4.722234083710593611e-01,3.681431757168675545e-01,-1.951567413082907262e-03,-4.337052517779178135e-03,7.513198754262190044e-04,8.377850651741027832e-01
3.624201207762875465e-01,-4.730831266193553652e-01,3.585761277786136403e-01,-1.848171836079741046e-03,9.067394702818097445e-04,3.456783416165846307e-03,8.336170315742492676e-01
3.600865305381963921e-01,-4.721391607707240423e-01,3.630879350403287686e-01,-4.676351804227480216e-04,5.395765174946502664e-04,1.622724896057245957e-04,8.337314128875732422e-01
3.634817041210272603e-01,-4.734671712028802881e-01,3.622943116636277994e-01,-3.433102916532842618e-03,-1.937036808238817940e-03,5.328082356395329525e-03,8.364346027374267578e-01
3.650460057350883858e-01,-3.773040569766694663e-01,3.476970892725761431e-01,5.054634795315588250e-03,-1.182079312980465965e-02,6.703207408675572639e-03,7.342590093612670898e-01
3.886062058911816663e-01,-4.638265144497494274e-01,3.238537494336535261e-01,-1.733000855489071458e-03,5.923604027112930673e-03,-6.154781136829464219e-03,8.221102356910705566e-01
3.410402336380901067e-01,-3.341379185165148091e-01,3.561321417992971972e-01,-6.775764978765103086e-02,1.334649327441364206e-02,-9.641053788594379156e-03,6.934475898742675781e-01
3.498517982796669479e-01,-3.269420373825923654e-01,3.476121880305969025e-01,-5.030714074993392938e-03,-1.268391737453488169e-02,1.157700608918406891e-02,6.763873100280761719e-01
3.200394980001595169e-01,-9.984888029613847582e-02,3.849329918449562182e-01,3.910178749855140051e-02,-2.392608569880791403e-02,-2.557569752883854727e-02,4.647924304008483887e-01
1.277960357524551283e-01,-3.416898074190232171e-01,4.017317338524605264e-01,-7.263602945719932480e-02,1.185445557078942391e-01,1.044433314551675152e-02,6.945360302925109863e-01
3.644933973854146969e-01,-4.682705825582628156e-01,3.754962981358431762e-01,9.336848802623497201e-04,1.947408902067542056e-03,-8.607066749690872771e-04,8.383292555809020996e-01
3.618841698048764766e-01,-4.638057551500137654e-01,3.751696718693002253e-01,1.889398397353843221e-03,1.683177827715407176e-03,-3.721984687419512493e-04,8.324239850044250488e-01
3.606155498791300817e-01,-4.588741889150959041e-01,3.805404372346106179e-01,-9.128314868763937094e-04,2.832831957208559008e-03,2.444418206479791883e-03,8.296584486961364746e-01
3.607979920037653887e-01,-4.364412355206404026e-01,3.663759617206719943e-01,-9.996221791171847667e-04,8.748898101679433714e-03,-1.107661873430782146e-03,8.001904487609863281e-01
3.522694232584027141e-01,-4.142426928681124387e-01,3.667982851831695368e-01,2.738831971089682790e-03,1.073728461612782556e-02,-9.956308965858773688e-03,7.743088603019714355e-01
3.796702266189039832e-01,-4.615935512415860753e-01,3.618637543741725637e-01,-2.643552929471731754e-03,1.342410092680905746e-03,-2.221454598918359228e-03,8.325281143188476562e-01
3.567013449580223594e-01,-4.463543092785232647e-01,3.750881707832323664e-01,-2.538925107191912500e-03,6.483718408851072215e-03,-7.763549095847838144e-03,8.126059174537658691e-01
3.519558308280990033e-01,-4.299178959140206313e-01,3.801457740645934336e-01,-2.297381124264345916e-04,9.609607722213574579e-04,3.280969662970908540e-03,7.963651418685913086e-01
3.651990844322605123e-01,-4.373115457895814240e-01,3.641396936127028194e-01,-4.683913345019411097e-03,1.155135129550894854e-02,3.683149669849020581e-03,8.022973537445068359e-01
3.673804098092219306e-01,-4.106296552031708513e-01,3.722673620550726037e-01,-3.196836599543377566e-02,1.605980800335949504e-02,-1.292559851556352411e-02,7.832410335540771484e-01
3.718841421261327440e-01,-4.636483087081726406e-01,3.648761922364337495e-01,-4.261934548124486979e-03,6.915306529043785747e-03,1.812362780174676469e-03,8.321754932403564453e-01
3.650403636826862197e-01,-4.734624426903525363e-01,3.628945320911421413e-01,1.232102709732656653e-03,3.772782941074347921e-04,1.692606249072507122e-03,8.374400734901428223e-01
3.681770190250692742e-01,-4.716517838907556825e-01,3.662140297261088917e-01,3.385984473872211738e-03,5.062459636592879161e-03,5.206193864762115667e-03,8.389638066291809082e-01
3.662774330569133485e-01,-4.762957836268973955e-01,2.814581469934733793e-01,1.891971098122028141e-02,-1.449034409256665934e-01,5.413938381722696938e-03,8.425024151802062988e-01
3.630122346559536139e-01,-4.730187838512539544e-01,3.665275766162758853e-01,3.900257916799775276e-03,4.423045837621905445e-03,2.100954496558382015e-03,8.378643989562988281e-01
3.646826997351552135e-01,-4.607588429897951920e-01,3.690042575721459439e-01,3.712802323719835516e-03,-1.952384958685115656e-05,3.675037076010570156e-03,8.276602625846862793e-01
3.632311363083065570e-01,-4.746909626129699467e-01,3.626183786706342338e-01,7.453327106749721301e-04,4.819422683080307559e-05,9.074898994595362962e-04,8.376183509826660156e-01
3.689249059199104508e-01,-4.731560521203852510e-01,3.623292471041428819e-01,1.779391363658525127e-03,3.469204281389203642e-03,2.313352032464412959e-03,8.388393521308898926e-01
3.491347614080998474e-01,-3.332740991773362471e-01,3.658863043544392513e-01,-7.461998953242336696e-03,-8.952419893651206509e-03,6.496099989944664754e-02,7.003293037414550781e-01
3.306576229383181298e-01,-2.984655831480188537e-01,3.507941002897531080e-01,2.112176694131627855e-02,7.410707271268923008e-03,3.573917696778260156e-02,6.435874700546264648e-01
3.608080608887713203e-01,-3.729642472462709746e-01,3.527807873565272923e-01,-3.246767037146580659e-02,-8.072052168586824755e-03,7.389544717294506404e-02,7.431928515434265137e-01
3.367841603372999648e-01,-3.767677878394105062e-01,3.704557549640014047e-01,-6.196469471323308095e-03,-1.852849371957396903e-03,2.355117506148223308e-02,7.321926355361938477e-01
3.413256923731983195e-01,-3.706750668954276184e-01,3.644715725122163463e-01,6.143618121381804777e-03,1.292562877531695104e-02,-6.699184717812954430e-03,7.243685126304626465e-01
3.019166505992776361e-01,-1.775157614304707643e-01,3.192528128630638395e-01,1.973799451306097567e-03,-2.587547231955077912e-03,3.040704201649076233e-02,4.911955296993255615e-01
4.055805185086031606e-01,-4.669938500498860279e-01,2.687046606245976910e-01,5.289918028473180635e-03,4.761679457327698539e-02,-2.365117550194626751e-03,8.170614838600158691e-01
3.263480037992674831e-01,-4.561429368759102321e-01,3.595403746407704326e-01,8.654413514630107315e-03,2.235223289450488648e-02,-7.243634570322246558e-03,8.007793426513671875e-01
3.067346826373500979e-01,-4.478507541038334594e-01,3.468908880694249186e-01,-4.833585618992636388e-04,3.091268122841949600e-02,1.125187149963643649e-03,7.772929072380065918e-01
3.714849895673950630e-01,-4.531413409172422302e-01,2.664765386506245948e-01,8.455190058755867807e-03,9.043100360188139827e-03,5.883722776910115318e-03,7.778214812278747559e-01
3.610761328624098598e-01,-4.504341322302327644e-01,3.082403173505273708e-01,9.326035035460191955e-03,2.546298357949988711e-02,-9.122286946840824778e-03,7.879843711853027344e-01
2.670620642182692794e-01,-4.547506613916599827e-01,3.830125445787072036e-01,4.017750539509843538e-03,2.787031433520643225e-02,-1.857665241242155690e-03,7.877447009086608887e-01
4.481853431750331129e-01,-5.448310394986169980e-01,2.252692847395524611e-01,2.250859970531768339e-02,1.399708992861412038e-01,-1.209339322829604962e-02,9.354934692382812500e-01
3.186222714040615189e-01,-4.650850068172120988e-01,3.680522505702696345e-01,1.198512857693720575e-02,-5.505115601796964353e-03,1.473073227453336465e-02,8.102788925170898438e-01
2.518012987991409823e-01,-4.502186680610802405e-01,3.854146585743051800e-01,-1.021751595682476215e-03,-3.555397589039825668e-02,9.435757370387730381e-03,7.800937891006469727e-01
2.728282492443734331e-01,-4.495372602116489702e-01,3.677570702903497635e-01,5.608206032766004448e-03,-1.511263482594725135e-02,8.178345398844906813e-03,7.748399376869201660e-01
3.354435639538176916e-01,-4.589084676061075951e-01,3.511228387410499918e-01,5.388670414859541603e-03,-3.032948927422783256e-03,1.023452917452737955e-02,8.025738596916198730e-01
3.337844827733628672e-01,-4.754345544199549689e-01,4.036200486937937537e-01,-1.899983075793969245e-02,9.314178970037920863e-03,-5.608674173638750204e-03,8.471495509147644043e-01
3.717610071400614946e-01,-4.684052283121299398e-01,3.242657936741031866e-01,1.334381336533720444e-02,-1.795898898532391139e-02,1.102526947168572420e-02,8.185949325561523438e-01
1.704126935188429448e-01,-2.305649626392690110e-01,5.265854880428352258e-01,6.122838099816360624e-02,-4.827575001375621067e-02,2.423180932240016905e-02,6.711627244949340820e-01
3.159589616158879899e-01,-3.932964404066243702e-01,4.212205048000490781e-01,6.914705706334074720e-02,-1.539372058950599399e-03,4.101554724879866859e-02,7.798579335212707520e-01
3.678480180269081412e-01,-2.466884268422465665e-01,4.114875301061372004e-01,4.391877579445690322e-02,1.603670433507839443e-01,-5.116409184524852577e-02,7.051029205322265625e-01
2.460646510798262243e-01,-1.103877722146195395e-01,5.162549347428329050e-01,3.844181332594193840e-02,7.483691612724011066e-02,-1.008335570848696711e-01,5.900070667266845703e-01
1.692245017831701670e-01,-1.731243161454777413e-01,4.313438669052078733e-01,1.174604177407285177e-01,-1.021381080464630296e-02,-3.110437471295424139e-02,5.659079551696777344e-01
6.031943188166906389e-02,-3.211925624208256114e-01,4.892743051468343429e-01,5.708531310287288246e-02,2.312228397011140829e-02,3.128602647568850398e-02,7.124055624008178711e-01
3.247508468472983245e-01,-2.587358781380914574e-01,3.896707716648429853e-01,7.927645623834449207e-02,-3.345584301945141170e-03,-1.337810260651581436e-02,6.340157985687255859e-01
2.628101023585035501e-01,-4.489882209036036853e-01,3.789442879293891120e-01,9.818645396511501561e-03,5.163462135844336387e-02,-8.066060801762428914e-03,7.818509340286254883e-01
2.431955175691680182e-01,-4.561064198672848402e-01,3.899030696971553245e-01,2.236498456337170787e-02,6.628730056387947822e-02,-3.787889636528930272e-03,7.923792004585266113e-01
3.589350307749347713e-01,-4.531851831757777171e-01,3.066242928855824612e-01,-8.344726170265331575e-03,-1.329348081598952930e-02,9.608815867467761836e-04,7.877403497695922852e-01
3.428930346440096089e-01,-4.465319409059995692e-01,3.131985579411353249e-01,-2.783034400016231712e-03,-7.165649419313449911e-03,-1.307091026057927976e-03,7.751221656799316406e-01
3.514292343706189037e-01,-4.569022631802913681e-01,3.292613997099540502e-01,-1.004106857888593420e-02,-5.801316488323068551e-03,-5.100600476451717762e-03,7.977805137634277344e-01
3.470657606948716056e-01,-2.168377382551240351e-01,3.567256080833421383e-01,3.396970071495558630e-02,9.657654465182324843e-03,-2.025788404182343738e-02,5.731496214866638184e-01
2.995615680632631728e-01,-4.195675850689153941e-02,2.969339937548359232e-01,-2.691069778423620194e-03,3.222429683822301480e-03,-7.321481877036357944e-03,3.405260443687438965e-01
3.046478573896160835e-01,-8.013583930017403878e-02,3.469836882343255158e-01,-2.191560393059957881e-02,-1.639616169261562048e-02,1.542652549969861231e-02,4.112204611301422119e-01
2.823710969494467315e-01,-7.275333227957758719e-02,3.499803532319502031e-01,6.280108294878213038e-02,4.798937577673081240e-02,2.218921778491614663e-02,4.182248413562774658e-01
3.289624845359077066e-01,-2.419259420498027779e-01,3.236427306935896198e-01,1.911266714936570021e-02,-9.250638434415869860e-03,-1.924435017984475749e-02,5.704108476638793945e-01
3.487423628471986170e-01,-2.479897584532037569e-01,3.755901018858970319e-01,4.262203914381137992e-02,-1.664969699556931564e-03,-1.477879029300507678e-02,6.155846118927001953e-01
3.461784209693016257e-01,-4.505018473371799059e-01,2.755636302221443068e-01,1.290939238028734372e-02,6.386513679618623096e-02,-1.415692403705771235e-02,7.725062966346740723e-01
4.992120458244158621e-01,-2.276199444746196399e-02,3.393569834014358855e-01,1.239617975050164370e-02,-2.215919550252755041e-02,2.266340843650873488e-02,4.669532477855682373e-01
2.929831048643112834e-01,-7.788727412178958476e-02,3.155925798144821881e-01,1.483456198021260511e-02,7.814361309115119836e-02,-7.543645920865843513e-02,4.271915853023529053e-01
3.230058826381466686e-01,-3.708041984415921255e-01,2.148748974296758041e-01,-8.546720674308036503e-02,1.840461090807199995e-01,6.618674991390782747e-02,7.447934150695800781e-01
1.907144643906655557e-01,-6.209930596992324636e-01,4.866008881819645637e-01,-6.802870228427060351e-02,2.821503876655553911e-01,2.423056473359787646e-02,1.114029884338378906e+00
3.591371520597658185e-01,-4.907048118775201306e-01,3.688289723385771990e-01,2.051567546475825329e-03,3.798274942573192162e-03,-8.102060892811331280e-03,8.548769950866699219e-01
3.338001789054243496e-01,-4.545128133730528264e-01,3.789288029206180353e-01,1.378921821376069123e-03,4.196963503852587860e-03,-4.413185091375997939e-03,8.118906617164611816e-01
3.355500878549430022e-01,-4.837181100719197824e-01,4.220764897205475097e-01,-2.196648379494041750e-02,3.040912059056661426e-02,-3.507525988490716416e-04,8.682152032852172852e-01
3.496829902778157417e-01,-4.667862743121877767e-01,3.684055435092625230e-01,9.073641574188370806e-03,3.734061335152171097e-03,-1.684064589477680604e-02,8.266792893409729004e-01
2.255626870656721183e-01,-5.606243318223230743e-01,4.866242268927807313e-01,1.954456419489172814e-02,7.076614640306114201e-02,-1.948428603669253092e-02,9.533072710037231445e-01
3.653635174752001835e-01,-4.738294349579201814e-01,3.659437143722387709e-01,-3.654588045363956362e-03,-2.538429499003061560e-03,1.092267066785728271e-03,8.395206928253173828e-01
3.646519948325633309e-01,-4.706779447486605372e-01,3.713956833821023817e-01,-1.610802597666822003e-03,-2.464069993789982319e-03,-1.438901050403210494e-03,8.387413024902343750e-01
3.650037624496444422e-01,-4.705660540582062845e-01,3.705813807993028064e-01,-1.964548940108172721e-03,-1.743419194340015393e-03,-5.328100882568304357e-04,8.383854031562805176e-01
3.663040950969496112e-01,-4.734490134273813267e-01,3.708453404638929474e-01,-1.138570390950057257e-03,-3.842299386970176797e-03,1.586426956004919481e-03,8.420659899711608887e-01
3.655789747629306086e-01,-4.715485830734357231e-01,3.654582880812116685e-01,-4.428410092637234501e-03,2.360803238873855018e-04,2.332399488627828060e-03,8.371121883392333984e-01
3.629767623887089623e-01,-4.719075411080762006e-01,3.623332672990384751e-01,-5.965988915797899514e-03,-2.236790870176266766e-03,-9.248387574478110539e-04,8.346372246742248535e-01
3.609967308019073617e-01,-4.627413057139958541e-01,3.775129225577857350e-01,7.725978528794405498e-04,-1.940356922838403202e-03,-1.080246335153669992e-03,8.321290612220764160e-01
3.629549729871601182e-01,-4.614921032301494419e-01,3.763253467470147329e-01,-1.256890365918336954e-03,-7.872430225591970157e-03,-2.756051030121150613e-03,8.313413262367248535e-01
3.585375336346040553e-01,-4.171726274229727860e-01,3.647752049777480687e-01,1.022505157967442020e-02,-1.193353160153872924e-02,-8.434209263732344794e-03,7.794601321220397949e-01
3.629495262754500740e-01,-4.397331391388977773e-01,3.672241393111345675e-01,-3.234765595761828448e-03,-1.175075817346268175e-02,-4.908968262116358665e-03,8.051502108573913574e-01
3.650587290880935587e-01,-4.716553130203083866e-01,3.702701639695787361e-01,-7.811175531573260515e-04,-3.591241615706305609e-03,7.569238329087327102e-04,8.393570780754089355e-01
3.644686607248643351e-01,-4.641160780841168121e-01,3.685767650706507914e-01,-4.285525446556915675e-03,-2.322761458570880497e-03,2.838850895008757178e-03,8.307038545608520508e-01
3.584213186611037161e-01,-4.682940276244063060e-01,3.516211858207335950e-01,-1.081778545808278688e-02,7.545741933798215742e-03,6.874280216657835743e-03,8.237392902374267578e-01
2.959770849784941205e-01,-4.654835988075881614e-01,3.285918478900268780e-01,-5.777977741509436431e-03,9.330037160919485428e-02,1.847402626652108401e-03,7.949504852294921875e-01
3.630059470700848778e-01,-4.470703417466108665e-01,3.656644959398174244e-01,3.357381878659519703e-03,-8.317704390714990292e-03,-9.552116967866333339e-03,8.117261528968811035e-01
3.654542783999387701e-01,-4.726384442474833580e-01,3.715245998661734217e-01,-2.678460483789590982e-03,-1.887349659885032439e-03,-1.533554349476046099e-03,8.411676287651062012e-01
4.506352104967579764e-01,-4.641420621634613219e-01,1.950241255773948468e-01,-1.253441324121638270e-03,1.602432271439008932e-02,5.518483162611649215e-03,8.180425763130187988e-01
4.053817632070518817e-01,-4.629720582880717528e-01,2.567569436964017848e-01,-1.832163303993937595e-03,6.484644602503651656e-02,3.362072351912073938e-03,8.122363686561584473e-01
4.127310092010739728e-01,-4.663107420069434461e-01,2.266551226636731031e-01,8.496490843281424496e-03,3.233049843571871723e-02,-6.398130027594119834e-04,8.044400215148925781e-01
4.479951297300263091e-01,-4.480517479157913874e-01,1.905819120343630324e-01,-4.829143365113733235e-04,1.738649214751753977e-02,-2.249321985640507018e-03,7.996436953544616699e-01
4.242416574159961762e-01,-4.540762634551057664e-01,1.926054356811663926e-01,1.207079697364513843e-02,4.541310322877328831e-02,-6.079006056983097574e-03,7.927057743072509766e-01
4.236958875537284452e-01,-4.673274013836411500e-01,2.235610098585165129e-01,3.938355101315316534e-03,6.106460050576663703e-03,-6.343856008225149008e-04,8.098217248916625977e-01
2.238364929596377839e-01,-4.743704070739729328e-01,4.496322606297291635e-01,3.978117581176295221e-03,3.420531704787272559e-02,-1.045324796847590942e-02,8.366684317588806152e-01
3.226367942810659528e-01,-4.433802373608254355e-01,3.290780571285896183e-01,2.628672896766934015e-03,-9.815853645068277691e-03,-2.543052051944542490e-03,7.694718241691589355e-01
3.639435322259488292e-01,-4.764625189752405010e-01,3.677433834979650928e-01,2.825749784198652100e-04,1.422631078145384417e-03,1.023452439159429144e-04,8.423161506652832031e-01
3.651525199041938397e-01,-4.748676286682940173e-01,3.710567794625380666e-01,2.195498063493243803e-03,1.504331004505269232e-03,2.018358232764656986e-03,8.430076241493225098e-01
3.646514270238220279e-01,-4.729191292216909925e-01,3.708253843763015256e-01,1.356964209232850663e-03,2.833947355265201661e-03,7.654636595207324869e-04,8.406931757926940918e-01
3.627090814403574059e-01,-4.739531556972195192e-01,3.656502977942959753e-01,1.312977736150666794e-03,6.120197995252086220e-04,2.945685898460651767e-03,8.381559848785400391e-01
3.354702604906251162e-01,-4.492724464756638891e-01,3.255489348886739798e-01,1.040531422960594768e-02,-1.671729109977162023e-02,9.112428640895007745e-03,7.807343602180480957e-01
3.661499925441401571e-01,-4.747536601627495578e-01,3.627909626471303439e-01,1.528998760614870295e-03,1.620987099883215363e-03,1.323758872149027876e-03,8.392412066459655762e-01
4.872458439828376009e-01,-4.612871641782351206e-01,2.064443947323867101e-01,-7.944080480465418384e-03,-4.042582204249708933e-02,-1.123974560575423214e-02,8.471634387969970703e-01
4.603946485437911962e-01,-5.027200074745507008e-01,2.270467173275136918e-01,1.451595464631971928e-02,2.213135491806923760e-02,-2.067234156291300820e-02,8.721719384193420410e-01
4.138534551568637809e-01,-4.685870225231389963e-01,2.815071308420530327e-01,1.194132593463610162e-03,-5.055740230636374989e-03,2.081685682696270828e-02,8.251121044158935547e-01
3.915290959847507746e-01,-4.882925459832225812e-01,3.418345535686818648e-01,1.401092345906569323e-02,9.043802234254534264e-03,1.108261192691502653e-02,8.567590713500976562e-01
4.112794947851011185e-01,-4.561117431789700749e-01,2.654138360066639613e-01,-1.406631026589184007e-02,4.308163493848488762e-02,6.724666764241443804e-04,8.082603216171264648e-01
4.801556507123997397e-01,-2.472260280195172633e-01,2.032723952459049577e-01,5.085900023986970886e-02,9.279155396716926019e-02,-8.251709307183928421e-02,6.770277619361877441e-01
5.109285020579333869e-01,-4.350213883721881225e-01,5.985556187863506211e-02,-2.039256145126346759e-02,6.035890568258617250e-02,-9.830524071465419900e-02,8.442538380622863770e-01
3.331865439698832310e-01,-4.547986966049714086e-01,3.462659466257452801e-01,1.595049191893305575e-03,2.412103375657280446e-02,-5.654842470909289195e-03,7.957683205604553223e-01
3.412608432931321101e-01,-4.457378795261831561e-01,3.135800320977727984e-01,3.264409124350174055e-03,6.613537087175838658e-03,-9.113555166613368464e-04,7.736369371414184570e-01
3.196728764604280792e-01,-4.498533882948730911e-01,3.231622353287389449e-01,-5.730703294779530832e-03,3.185836205346171540e-02,6.965658784800041366e-03,7.734060883522033691e-01
2.733118634734816310e-01,-4.544759211326963033e-01,3.816719920681815315e-01,1.435591259387919254e-02,1.376303303328962196e-02,-8.385369091468412861e-03,7.884653806686401367e-01
3.433597909703879347e-01,-4.534430270911802285e-01,3.727887028534928593e-01,3.392394822604312757e-03,5.494860469590118375e-04,-4.385095234663278704e-03,8.119747042655944824e-01
3.267820837986837867e-01,-4.714410842697257520e-01,3.906570071841752867e-01,-1.327507545518050343e-03,6.836518773664349360e-03,-2.937498017809540927e-03,8.321046233177185059e-01
3.808565888439358615e-01,-4.614399514246531053e-01,3.642378443944254141e-01,-7.550221620580679048e-03,-2.046097417220801937e-03,-2.536794702985490767e-03,8.342329263687133789e-01
3.784475395138742204e-01,-4.610695521941534647e-01,3.626257621430696299e-01,-2.578635931094145056e-03,-8.664163259906327696e-04,-2.511875140120983394e-04,8.317325115203857422e-01
3.782264590732034581e-01,-4.299518703181801627e-01,3.489435276654208051e-01,-9.911191554592749947e-03,2.127307228311262847e-03,-1.140923800698174064e-03,7.941385507583618164e-01
3.722403452249538058e-01,-3.764760868845473674e-01,3.376167914422165683e-01,-1.926305326201889490e-02,3.873048118264645935e-03,1.150676229089557003e-03,7.328124046325683594e-01
3.395237253577124692e-01,-3.761234937771231190e-01,3.719229799899598787e-01,2.319862833486678231e-04,1.756380552885545600e-03,2.581328229466153465e-02,7.337543964385986328e-01
3.395312155503302787e-01,-3.556023275317111709e-01,3.650351705730735530e-01,5.832273681208449147e-05,5.665880336804896347e-03,3.352761246928932098e-02,7.106745839118957520e-01
3.273469794418351064e-01,-2.713232986736539010e-01,3.466350660716204235e-01,1.889021070938788919e-04,-1.548052038760476014e-03,3.917657348926230354e-02,6.123210191726684570e-01
3.335088531967773107e-01,-2.898510010764630551e-01,3.482291615032925280e-01,5.126214767405378424e-03,9.092770880106173723e-03,3.996964336114615379e-02,6.348935365676879883e-01
1.706312590364283399e-01,-4.575030462193561132e-01,4.497403365064093217e-01,-1.637866543279959883e-02,2.275466720825514155e-02,-1.669493782766421752e-03,8.063120245933532715e-01
2.839891959137988420e-01,-4.759055432273612274e-01,4.121198300572538331e-01,-2.106893136287933330e-02,1.148133022343956729e-03,5.974637195918585698e-03,8.322656154632568359e-01
3.375420766235578407e-01,-4.456497282115980951e-01,4.127561186422586958e-01,-7.582635670199831292e-03,1.436367705540645204e-02,7.838861111528138640e-04,8.238609433174133301e-01
1.435472524827027530e-01,-2.145357137942934811e-01,4.536242371404602958e-01,5.037874468504089515e-02,2.796280856956145748e-03,3.452869199930640176e-02,5.887432694435119629e-01
2.808236433091138018e-01,-2.071756910893102765e-01,4.440817649883226914e-01,5.261210103486471668e-02,1.672174011599924723e-02,1.492825729174350816e-02,5.952125191688537598e-01
3.816188634222734688e-01,-5.864768104187906284e-02,3.799919919409753821e-01,4.114668254716482426e-03,-9.423167017613033949e-03,2.005214215551066534e-02,4.411852955818176270e-01
3.672229642576288478e-01,-4.534296952396490443e-01,3.673827001113985635e-01,1.929138881059820967e-02,-6.790707755276783816e-03,3.375486711213021226e-03,8.215174078941345215e-01
2.069699597958971626e-01,-2.269634258153612749e-01,4.394454313976342008e-01,-1.100717736892453148e-02,5.270515578085155362e-02,4.347353337564022202e-02,5.979872345924377441e-01
3.599151138736959576e-01,-4.474237243775177619e-01,3.850884523052898190e-01,-3.233279358868353104e-02,1.311710954427207365e-02,1.378572747707196462e-02,8.227853178977966309e-01
1.498125238087309463e-01,-3.880436062416836029e-01,4.358374476207056425e-01,-1.617267434978057195e-01,1.360769005857214164e-01,4.689728187482507249e-02,8.158156275749206543e-01
1.629147798042882567e-01,-5.293739421910881315e-01,4.818696175143817317e-01,2.893540079899296208e-02,4.581529966702664602e-02,-2.296293990489136488e-03,9.003496170043945312e-01
1.969681306456279313e-01,-4.578787339880620033e-01,4.329820339669523399e-01,5.659087231529976759e-03,6.493942948904964096e-03,-1.070294025374782416e-03,7.995660901069641113e-01
1.961638750665944952e-01,-4.517211800438940550e-01,3.984258245245370644e-01,-7.656693548299296596e-03,6.318028947284756724e-02,1.430595143204187658e-03,7.770873308181762695e-01
2.082295893613772264e-01,-4.448211520294020893e-01,4.225591511239887299e-01,1.745420252546818485e-02,-5.212397190118545076e-02,1.988740411944731751e-02,7.890701293945312500e-01
2.281777566737215324e-01,-4.650956055442152515e-01,4.191743457785111482e-01,2.465895287248169240e-02,1.418607711082092715e-02,-6.983904282498426541e-03,8.075238466262817383e-01
2.693560795349356773e-01,-4.589992596653110768e-01,4.113289041546483449e-01,-7.367475984804806345e-03,9.847641080490172547e-03,-6.838570967340704479e-03,8.091096878051757812e-01
2.947749421326334440e-01,-4.804309573310512338e-01,4.009876722638173185e-01,-1.429682853847341790e-02,2.593456737829884229e-02,1.541181350185024702e-02,8.354074954986572266e-01
2.519816620640449312e-01,-4.613232971232680280e-01,4.373836927462716462e-01,-1.506309427893391152e-02,8.757390387077858274e-02,1.084510557160572874e-02,8.363415598869323730e-01
3.049545567638851096e-01,-4.661300101843748322e-01,3.868402170695485753e-01,-1.617399074713660526e-02,4.652226405313972246e-03,1.335824158406470445e-02,8.159672021865844727e-01
2.297596210745585232e-01,-4.655874145353732230e-01,4.214802822258074677e-01,-7.034759455071700612e-03,1.971723637976192239e-02,1.710820661943568367e-03,8.092590570449829102e-01
2.386902591083212566e-01,-4.670818217570881226e-01,4.165884608693223856e-01,-2.427192449501757929e-02,2.723388029962523632e-02,6.518456655571225507e-03,8.120575547218322754e-01
2.127520883192952628e-01,-4.684012295269072146e-01,4.111138649653259258e-01,-2.117840687484176532e-02,7.532239270368605577e-02,1.004471305461609142e-02,8.106174468994140625e-01
2.809521680355172579e-01,-4.929659766537247689e-01,4.035585038755382103e-01,-3.599286289630710539e-02,3.582363906568941658e-02,3.663317244055877206e-03,8.465492129325866699e-01
3.951612977850664232e-01,-3.878074687131070064e-01,3.779519960671565149e-01,2.702664064173908656e-02,-1.384288505719939374e-02,4.732075056312187028e-02,7.806060910224914551e-01
4.138447060221830398e-01,-1.222734710202579289e-01,3.166493293242556573e-01,-2.836027469486801164e-02,9.902133969541537795e-02,3.944945605331926647e-02,5.303384065628051758e-01
3.328923549957186756e-01,-5.379728189953897344e-02,3.171712172679278519e-01,1.222919013269828381e-02,2.179779190845918240e-03,5.386902016234806218e-02,3.909800052642822266e-01
3.200137265827500688e-01,-2.580365493013491163e-01,3.455355414546036341e-01,2.630106616651652768e-02,-4.398980084375649731e-04,4.700434171570079533e-02,5.985402464866638184e-01
3.174191372582880200e-01,-1.905082127019021576e-01,3.177277225476979883e-01,-2.667439160693641648e-02,1.294298616869424181e-03,8.979964109437785225e-02,5.333653092384338379e-01
4.824272419596342676e-01,-7.106869865788106866e-02,3.371669252244822168e-01,1.408397660215051153e-02,-5.968508201578881511e-02,4.118894169133823641e-02,5.132532715797424316e-01
3.512235648577485270e-01,-3.107937020134473594e-01,3.501506171488479868e-01,2.217835907501070070e-02,2.196212203487109445e-03,2.898506429007921548e-02,6.645060181617736816e-01
4.822531459498412554e-01,-8.199325027701129809e-01,2.364502296670686343e-01,-5.935675785600946774e-02,2.577676472528370732e-01,-6.782825074518648856e-02,1.288304924964904785e+00
3.152691803404387150e-01,-4.534573012472726816e-01,3.198521403689693066e-01,2.687523201878062699e-03,3.531971718356290840e-02,-4.344650055874750387e-03,7.735018730163574219e-01
3.398008404092488499e-01,-4.400944819932045005e-01,2.565905468149504154e-01,-3.926594186462448177e-02,1.347061100200371009e-01,4.547987526657823465e-02,7.845592498779296875e-01
4.335960072729155290e-01,-5.394821384310520829e-01,1.873837156507339452e-01,8.964451330519578043e-02,2.386888438030388415e-01,-4.006141564840380587e-02,9.837469458580017090e-01
4.636881357971155415e-01,-5.785609097523862765e-01,2.630330466999357686e-01,1.120529000497377248e-01,2.975037872896154068e-01,-2.219299218543573440e-02,1.105478882789611816e+00
3.827910792048752064e-01,-4.565376652336120555e-01,3.564737381056342080e-01,-1.499263637673978536e-03,-1.544668397184800149e-03,7.138573536159074223e-04,8.264937400817871094e-01
3.808625048549728054e-01,-4.577080998690449265e-01,3.598289645407478643e-01,6.146669516974843581e-03,-3.987416274402001692e-03,4.048332315634109099e-03,8.283810615539550781e-01
3.739276142899934374e-01,-4.393892467469096008e-01,3.545253622880469857e-01,2.854101124415671289e-03,-1.174122697206765598e-02,2.719848689190837833e-04,8.040639162063598633e-01
3.682327550968954033e-01,-4.708063263579905788e-01,3.798052768975967997e-01,7.489775641207430633e-03,2.448302185416389564e-03,2.419035232707548912e-03,8.450053930282592773e-01
3.375394909123113907e-01,-4.578328088632908077e-01,3.768250277243097024e-01,-6.797508161828769851e-03,1.446577616746385405e-03,3.240823415658751223e-03,8.158329725265502930e-01
3.384077803502645865e-01,-4.646107578639506741e-01,3.786402135740587482e-01,-7.992096081772558092e-03,-1.098111627392713875e-03,-4.872346019527176372e-03,8.240335583686828613e-01
3.805314629707156615e-01,-4.565404198607058150e-01,3.586937701758020625e-01,-1.235096994870027269e-03,-1.518426848491085356e-03,9.725638932846774210e-04,8.263781666755676270e-01
3.709086100169468603e-01,-4.708198609056361006e-01,3.667267494054680110e-01,-7.310878208016879584e-04,-6.239308955583659777e-03,2.329897526212996832e-03,8.397255539894104004e-01
3.726745685747392400e-01,-4.600783935506953526e-01,3.634590273732902221e-01,-4.310704063249209961e-03,-1.025381100721716897e-03,1.516135901047603119e-03,8.282233476638793945e-01
3.304387965306158637e-01,-2.656419999205522631e-01,3.309992617119948966e-01,2.648675377783058817e-03,1.119223025613297513e-02,-1.937237979504859847e-02,5.976365208625793457e-01
3.660312932982680567e-01,-4.500597166615408762e-01,3.665628230452407377e-01,-3.170946480455830076e-03,9.056198628085087091e-03,-5.150038895135409384e-03,8.165747523307800293e-01
3.465682608043072488e-01,-3.167974655799641881e-01,3.548603553907688779e-01,-1.098139050432526617e-02,8.782134294955015741e-03,1.468510770610523437e-02,6.684786081314086914e-01
3.615004757992459350e-01,-3.671503790183982541e-01,3.405611975567843785e-01,4.163229613178233077e-03,1.012791837248769138e-02,-1.118145362186002967e-02,7.189213633537292480e-01
3.414488208628853050e-01,-1.868508001224326032e-01,3.346944973494396791e-01,5.160703458677525640e-03,-9.149997307376773331e-03,-8.277925689011381150e-02,5.444869995117187500e-01
3.591985550034674790e-01,-3.515677747621301363e-01,4.009737601645311789e-01,-6.890422268193922839e-02,-1.385408916421146039e-02,-5.786733458878134256e-02,7.493273019790649414e-01
3.653169479260696129e-01,-4.110223629128680889e-01,3.591136147233900955e-01,2.587249942179977499e-03,1.688482656261812778e-02,-1.129996943121242860e-02,7.740696072578430176e-01
3.462635978783530355e-01,2.135452247208902143e-04,4.749811066344452604e-01,8.212515741038728737e-03,7.030303044926587697e-02,1.914593621869322901e-02,4.438368082046508789e-01
3.911604382286995030e-01,-2.426717959354549592e-01,3.527800310721679322e-01,-3.454594571034191874e-02,-2.695082866704096719e-02,-3.760650764981727373e-02,6.236118078231811523e-01
3.652306248335423500e-01,-4.765273042649839086e-01,3.660340992600847332e-01,-4.729926687316814539e-04,9.185328638501170633e-08,-7.688893700897877310e-04,8.421614170074462891e-01
3.655004768663128734e-01,-4.771692078676316173e-01,3.647687128174613713e-01,-2.510226845810963150e-08,-4.721636702239997247e-04,2.553709082159615193e-04,8.423045277595520020e-01
3.666869071157835558e-01,-4.763580885153483324e-01,3.667027882620571000e-01,-9.292664932281184936e-04,1.423603128699425530e-03,-1.027087863327107164e-03,8.430599570274353027e-01
3.623064022408855056e-01,-4.740667977216888040e-01,3.623835679358120010e-01,-3.104752188329354835e-03,-2.653476092571190720e-04,-2.200116931466092416e-03,8.364378809928894043e-01
3.618102816304493152e-01,-4.743168510411037708e-01,3.632474328906800665e-01,-2.617630399544502648e-03,-3.918481652534637786e-04,-2.537660195185331615e-03,8.368707299232482910e-01
3.666886155733203312e-01,-4.740294432964097249e-01,3.646571739428612347e-01,-3.233724238569877282e-03,2.572918567411222601e-03,-3.198804862924526076e-03,8.397529721260070801e-01
3.552147204983757134e-01,-4.631714994875568703e-01,3.402202008990308224e-01,4.615660159926161452e-03,-4.407430250805430619e-04,-3.889729752755660512e-04,8.110329508781433105e-01
2.131794038531920898e-01,-4.553163882732994550e-01,3.557626897841449920e-01,1.157490557391226832e-02,1.111850896167301261e-01,-2.563914269023572119e-03,7.746230959892272949e-01
3.432502812249216828e-01,-4.596915645429537900e-01,3.387236959384266055e-01,9.346949554542450384e-03,7.225074946511774940e-03,-9.915353570810095385e-03,8.011336922645568848e-01
3.601230980650945157e-01,-4.660874859879090559e-01,3.242919301387303666e-01,1.192679092265604840e-02,5.260532151597765646e-03,-1.335493413517942207e-02,8.095359802246093750e-01
3.583749181233054082e-01,-4.645145891613060574e-01,3.401508813989524982e-01,7.798703792341696306e-03,1.117946194011599408e-03,2.030639604703245258e-03,8.140525221824645996e-01
3.665635716187188309e-01,-4.679407104580115551e-01,3.460454479845817000e-01,1.015083913875282524e-02,4.813261209825857312e-04,-6.927075386616667919e-03,8.247118592262268066e-01
3.671761779794305292e-01,-4.413769826771569704e-01,3.314966041133903807e-01,1.574317970882327866e-03,6.475454602391914408e-03,1.674005166767229130e-02,7.919320464134216309e-01
3.458812043483853182e-01,-4.620875517700503421e-01,3.428167276764384486e-01,7.587961258464346985e-03,1.117149163078259150e-02,-9.287229340677331108e-03,8.069403767585754395e-01
3.184398523387838020e-01,-4.649219677988121191e-01,3.886811818552944331e-01,-1.144842232266683225e-02,-3.969901048599405388e-03,-6.521851496243420004e-03,8.210858702659606934e-01
2.479833217483009000e-01,-5.243387442170825974e-01,4.715350076544944646e-01,-4.454814348598790108e-02,-3.856673405974636593e-02,-3.781457542281568395e-03,9.108069539070129395e-01
2.913616653522247413e-01,-4.706204340683614040e-01,4.173936107932892936e-01,-1.462992493503675363e-02,-2.333610470459584769e-03,1.231869476175835327e-03,8.325850367546081543e-01
3.599126608910960812e-01,-3.459151332197466511e-01,3.345256804144928764e-01,-2.885816607087556690e-02,-3.457570304849126065e-03,-2.041538230114547069e-03,6.953166723251342773e-01
2.804108644836142972e-01,-4.582157754102051950e-01,3.622012069955110047e-01,1.647840756469302892e-02,-7.414303572794579689e-02,1.514922499591746588e-02,7.941449284553527832e-01
3.202333916195790331e-01,-4.604444335372488428e-01,3.715919468194133213e-01,-6.281865008515765542e-03,-1.948666310121325088e-02,1.257813021381087686e-02,8.086546063423156738e-01
3.385185409872388251e-01,-4.589908458874484287e-01,3.260664998096866607e-01,1.761258680396164678e-02,-1.905888291324005224e-02,1.645919298865018351e-02,7.931448221206665039e-01
4.779778284094804985e-01,-2.352962612165631628e-01,2.276628660411001981e-01,1.576978448884408524e-02,-1.385519410380949279e-01,-4.477536600011148421e-02,6.761839985847473145e-01
3.954048737170017813e-01,-1.056335617061224808e-01,2.550959529386559455e-01,-4.210989719042720208e-02,-1.072073348253367586e-02,-9.360111782970341465e-02,4.820518493652343750e-01
2.926342144648069743e-01,-4.991303757168309430e-01,3.400903916096296165e-01,1.601955391602404022e-02,-1.604428635074894027e-01,2.144311436933464890e-02,8.637664318084716797e-01
2.406452260930734555e-01,-5.463476496767413204e-01,3.239949630293831317e-01,-3.013721937845750820e-02,-2.899040192562818419e-01,-2.479309359077263436e-02,9.739622473716735840e-01
4.722403027543845555e-01,-5.137006450895351684e-01,2.112512766277166998e-01,1.546134895486490565e-02,-5.920741302147897178e-02,4.938896123330054760e-02,8.952243328094482422e-01
2.322431899153066803e-01,-4.986237202455134909e-01,3.333516627492968398e-01,-6.563296484569659806e-02,-2.343405437386033574e-01,-6.459565186922940072e-02,8.991515636444091797e-01
2.255056010818701218e-01,-5.203926965713925323e-01,4.592663283084667536e-01,-4.568821453992508858e-02,-8.775135468881836709e-02,-2.730199507197789838e-03,9.026381373405456543e-01
2.872087476684075380e-01,-5.235347698601142685e-01,4.659632977668869969e-01,-3.423861445637495227e-02,7.284857102069809687e-03,-9.638792538030134527e-03,9.154982566833496094e-01
2.075667582963250934e-01,-4.517586614583765092e-01,4.258782354007171755e-01,3.002124262660456865e-03,1.339001368141664802e-02,-5.672946175658799030e-03,7.918141484260559082e-01
1.935440535098763293e-01,-4.612658978395116627e-01,4.024761541219807892e-01,1.951083614817418488e-02,8.822714941234054142e-02,-1.988239334486826063e-02,7.968183755874633789e-01
2.663530462713298297e-01,-4.483557946131533356e-01,4.090147790470866074e-01,2.760627456143515193e-02,4.382728623095884235e-02,-2.754596417859523499e-02,8.021520376205444336e-01
1.220218910076903973e-01,-3.612496949269908830e-01,4.364352299940246760e-01,-8.253390620804494648e-02,1.274604721174569244e-01,2.633158402531367639e-02,7.453913688659667969e-01
3.101994422482605429e-02,-6.012015409125917031e-01,6.265541288527416430e-01,-3.013398849431884324e-02,1.246243058931496284e-01,-1.874384696452553387e-02,1.086851596832275391e+00
1.747626420059514019e-01,-7.322696109928683583e-01,5.077908832619110191e-01,-1.098198607199656895e-01,1.405771345239548720e-01,5.989378280966624335e-02,1.158408999443054199e+00
4.391191666565410490e-01,-4.777032103854281786e-01,2.121967867417817732e-01,-2.598411949147913600e-03,1.137080305628103763e-02,-2.231941925233138502e-02,8.281981348991394043e-01
4.964048256392885050e-01,-5.545124449733815908e-01,2.582033588281344993e-01,-1.479588363003340838e-02,6.032493499961318062e-02,6.801449352719553428e-03,9.604945778846740723e-01
4.152904771787545024e-01,-4.628227496380733497e-01,2.668560239134626921e-01,4.549130689355094896e-03,-1.319395278867082320e-03,1.093377548834588084e-02,8.143705129623413086e-01
4.009439490849615040e-01,-4.640147433335292115e-01,2.897316497556632897e-01,8.493576439231228722e-03,6.648000104407746601e-04,-2.043106972787590153e-02,8.159642815589904785e-01
4.011518729093734303e-01,-4.699247795191531241e-01,2.869634390134228052e-01,-1.102274948247328711e-02,-2.895507119176701782e-03,-2.187518837275844244e-02,8.210797309875488281e-01
3.448805439075781631e-01,-4.592087860802033239e-01,3.419023131210454647e-01,-5.672008387441727223e-03,-1.074812183114471362e-03,-3.413733878797967948e-03,8.026884198188781738e-01
3.551363802917296697e-01,-4.630496978822669085e-01,3.458830015853931461e-01,5.396576152002551288e-06,-3.015128822599257540e-03,-9.133674069452124436e-04,8.136171698570251465e-01
3.484847678982371799e-01,-4.634481013385459702e-01,3.550478072398339235e-01,-8.792814526500654197e-04,1.642447462276130574e-03,-6.500106770553295069e-03,8.153183460235595703e-01
3.020287970409856748e-01,-4.513825356283529544e-01,3.491828765048461403e-01,-5.604673058376405392e-03,-1.695514922067967514e-02,-6.917222597434105440e-03,7.787674665451049805e-01
3.483956511984815374e-01,-4.679815470171025948e-01,3.533649398218590143e-01,-5.918122583651519095e-03,-2.903983932969166938e-03,-4.417396850441298629e-03,8.189885020256042480e-01
3.387168493629054700e-01,-4.601055186148909071e-01,3.410029244236272294e-01,-3.463283134623439726e-03,-6.694057730412797738e-03,-2.634537615474433735e-03,8.000873923301696777e-01
3.407440939464374541e-01,-4.648902989213574699e-01,3.612263342604632443e-01,1.117450382416938044e-03,-6.747798743520837944e-03,-8.594812639552270803e-03,8.162900805473327637e-01
3.709940582360290451e-01,-4.576967235653528476e-01,3.607585441041396557e-01,3.178752407141270751e-03,-1.603366007789086382e-03,-1.396311553159126917e-03,8.236473798751831055e-01
3.663288676720032333e-01,-4.653718252767238273e-01,3.666950939062796344e-01,-4.107078177784688998e-03,-1.328441548981394498e-03,-2.666899922412528656e-03,8.319302797317504883e-01
2.953369755627685556e-01,-1.490173820254668269e-01,3.858817645187080370e-01,-1.057249585323696978e-01,-5.465837494797604057e-02,1.351224196226690107e-03,5.370144248008728027e-01
3.688144740272978894e-01,-4.647026834063366918e-01,3.644220187753680062e-01,3.103454976544314878e-03,-1.649696453045327790e-03,-1.744897292416499679e-03,8.313574194908142090e-01
3.704634091605772950e-01,-4.707860075621295159e-01,3.693469728650076167e-01,-1.666325932961745804e-03,-1.026067005440098670e-02,-3.385412759653918732e-03,8.409049510955810547e-01
3.782262705703467454e-01,-4.619769554860594374e-01,3.603654607415447408e-01,-1.823905551311411468e-03,-1.490594327833797902e-03,-5.648346967651485685e-04,8.314272761344909668e-01
3.764276059462071666e-01,-4.482339611471598539e-01,3.594503194940028568e-01,-1.732409521994507026e-02,-8.466917376440554963e-03,2.910505879096532411e-03,8.170038461685180664e-01
2.924007308438391073e-01,-4.740920162205954913e-01,4.103056246049399669e-01,2.509606683512419223e-02,1.087009212348578197e-02,-2.761739141161251125e-03,8.330982923507690430e-01
3.529696987634255434e-01,-3.887504184488586034e-01,3.633773240120580228e-01,-1.642991558646085190e-02,-2.282307951629192026e-03,3.419114732724932992e-02,7.498727440834045410e-01
3.692902542800681198e-01,-3.883697246483400201e-01,3.419077352761002997e-01,-1.496459461872253274e-02,-5.945657177070930860e-03,-4.695623838409988902e-04,7.448693513870239258e-01
3.690553300079155719e-01,-3.933889933454330912e-01,3.511014269179308922e-01,-1.616224407736511007e-02,-7.354011160979910533e-03,5.279539599697567406e-03,7.543104887008666992e-01
3.341819592441750975e-01,-4.634509199764399456e-01,3.865456858368608861e-01,4.047537419097863541e-03,-1.261709814074538593e-04,-8.802184847380332359e-04,8.250931501388549805e-01
3.662753883124807430e-01,-3.875465625278901594e-01,3.473596548280959984e-01,-1.333608644562403293e-02,9.517324830056059226e-03,-8.198869243085602984e-03,7.452202439308166504e-01
3.092765692695871871e-01,-4.626355837888724842e-01,4.033489319486296409e-01,-1.503046840763184837e-02,-2.753544148460802810e-02,-2.569825896072422400e-03,8.247943520545959473e-01
3.506755077828942468e-01,-3.170572174257112463e-01,3.408257853839735674e-01,-2.387691317235426242e-02,1.370250284529888132e-02,-1.149609504732411469e-02,6.648737788200378418e-01
3.489186905002924499e-01,-1.004178217714487009e-01,3.380049288076929503e-01,-6.908726664374531534e-02,2.776685039739722020e-03,-1.233175083268706757e-02,4.603444039821624756e-01
3.469667716816658976e-01,-4.578795762654411794e-01,3.395635311874304341e-01,-4.265899801067769490e-03,-1.634746139167905787e-03,-2.419665496724831069e-03,8.012204170227050781e-01
3.594108120804142548e-01,-4.784358280283285136e-02,4.816291477552303579e-01,-4.338061405946277288e-02,-2.133468994439487176e-02,-6.795279208215578882e-03,4.875623881816864014e-01
3.590724339203681392e-01,-4.651456994448249782e-01,3.425651467567282227e-01,-1.404994575619420913e-02,-9.653389643555903080e-03,-9.269794885923839101e-03,8.167814612388610840e-01
3.470117887543339164e-01,-4.574837341511515110e-01,3.410792538896929571e-01,-3.943908459600635637e-03,-5.475824582775694685e-03,-5.239388105000647271e-03,8.016822934150695801e-01
1.612780773568041337e-01,-1.256739942306176472e-01,4.004259140012494944e-01,-1.508684138605725575e-02,-3.143146306211239832e-02,-2.712846019007987899e-02,4.626139402389526367e-01
3.631389495690225400e-01,-4.086114776345477484e-01,3.578054062321976425e-01,2.891455506062115630e-03,-1.474570912653700924e-02,9.848974966568554285e-03,7.697268128395080566e-01
3.588581747068155248e-01,-4.583318904668449711e-01,3.839128604732622851e-01,-1.399887041545592537e-03,-1.512718466814331575e-04,-2.623887299095661960e-03,8.300170898437500000e-01
3.290537818004307669e-01,-2.229434196201554585e-01,3.121436841530199069e-01,2.484137421478590721e-03,3.180717984113107417e-03,-1.701982158202498124e-02,5.445827841758728027e-01
3.133352088663930446e-01,-1.743227021402007360e-01,2.960740990424120533e-01,-2.595206233975127716e-02,-5.656052264117443365e-04,-2.395652939906077515e-04,4.813650548458099365e-01
3.694282628159951676e-01,-3.911600580723084697e-01,3.590247780063211547e-01,-7.306773198065660835e-02,2.523345366714697946e-02,5.591991028089106364e-02,7.733033299446105957e-01
3.653003745496143373e-01,-3.646882497747107044e-01,3.365152322415966291e-01,-1.922102148222288144e-03,-8.338582274567586314e-03,3.360204752367413911e-03,7.162071466445922852e-01
2.876629988808061533e-01,-4.718915583468001884e-01,4.040295485755508453e-01,-1.193909773630493637e-02,8.226020264065473167e-03,-2.387381938309697787e-03,8.243171572685241699e-01
2.726909437325434893e-01,-5.207795903511538427e-01,4.810005318805432029e-01,-3.729495891522984635e-02,5.226378235784844397e-04,-1.146387525461737015e-04,9.178504943847656250e-01
2.988995188759394628e-01,-5.287289683094322790e-01,4.768488461343911577e-01,-2.849332797241599033e-02,3.207265966626181991e-02,1.639302432958654465e-02,9.328657984733581543e-01
2.162375390498448846e-01,-4.993355720547939525e-01,4.759261112675147731e-01,3.628281043646016529e-02,6.781840359630851578e-02,-2.208093504965603221e-02,8.857309222221374512e-01
1.149412494512076777e-01,-6.761710007014972712e-01,6.572824654037131564e-01,-2.225405042422228530e-01,-1.160431293401907038e-01,-3.864547467003910663e-02,1.241972923278808594e+00
9.954543125091955269e-02,-4.384985882256620116e-01,5.950159080337176221e-01,-2.786799988495694200e-02,9.174613910874493405e-02,-9.339775097585269539e-03,9.107199907302856445e-01
3.264680084512932012e-01,-2.119753575280343139e-01,3.499404288227134785e-01,-8.670852406755977237e-02,-1.706487909701459235e-02,3.313303189416130778e-02,5.743108391761779785e-01
1.497035851150672059e-01,-4.750354626320776319e-01,5.330914789535809994e-01,-1.142298726958488470e-01,-8.841971976271784106e-02,1.138517636023204244e-02,9.164010882377624512e-01
3.651137726983454401e-01,-4.764865385912712137e-01,3.658649292285716670e-01,-1.217149486082178033e-03,-1.660901615182036172e-03,1.246428369550698690e-04,8.419837355613708496e-01
3.669225285290932947e-01,-4.737243798896497715e-01,3.670103917647333236e-01,-1.032328351240037597e-03,-3.724059500843021620e-03,1.724294101670634065e-03,8.407227993011474609e-01
3.693808739044707190e-01,-4.472178314222785556e-01,3.442988770977555291e-01,9.063574698506604360e-04,-5.655444278169019859e-03,-3.035138995334740568e-03,8.044294118881225586e-01
3.660772922961361142e-01,-4.714333096853777771e-01,3.647075205490889482e-01,-3.804907008779658158e-03,-1.522422911631331893e-03,4.873579973399825432e-03,8.368992209434509277e-01
3.259148292051624596e-01,-2.902587622329957373e-01,3.465063876445856339e-01,2.228412488163540248e-02,-1.329950744366837842e-02,-2.770615356433805618e-02,6.301627755165100098e-01
3.644366176805634572e-01,-4.745802343148678437e-01,3.660521108498103748e-01,-6.141013598274559521e-04,-2.090835233550420846e-03,-4.206789310542193038e-04,8.398345708847045898e-01
3.659595604993208240e-01,-4.745736090074926805e-01,3.653379756345759288e-01,9.921920213811536056e-04,-1.606026219643328246e-03,1.497498629322996811e-03,8.402329087257385254e-01
3.454736434600612083e-01,-3.650424725863592457e-01,3.540927340562954884e-01,-1.513927036144087357e-02,1.493991860215754947e-02,-2.972449247949817200e-02,7.176623940467834473e-01
3.393650035856519143e-01,-3.844824090590205357e-01,3.707214022738629100e-01,1.081018386569615290e-03,5.411044736699014562e-03,-1.865536793126115755e-02,7.407907843589782715e-01
3.676261049343637066e-01,-3.789303187992967836e-01,3.441536892071458964e-01,-6.095635716489685579e-03,-1.208340705580784533e-02,-4.849453177477598687e-03,7.355229258537292480e-01
3.640496955542014135e-01,-4.566749406262544664e-01,3.655990824665246164e-01,1.005851248884163593e-03,-1.494566507898757897e-03,-1.662943062480277609e-02,8.220111131668090820e-01
3.108370232551634360e-01,-1.618799489824911397e-01,3.173320639351328021e-01,1.319993202421410744e-02,-9.965849627692801097e-03,-3.790407978811771716e-02,4.813570976257324219e-01
3.352423351378717165e-01,-3.584332455096284620e-01,3.663752437804964623e-01,-1.553267560163768175e-04,-3.151405108188008383e-03,7.414158452887795528e-03,7.098915576934814453e-01
3.469905784444911045e-01,-3.880571505434411428e-01,3.646744390460653906e-01,-1.140792416028600827e-02,1.504599632917752797e-02,-1.209577449595941948e-02,7.450603246688842773e-01
3.507558869902603904e-01,-4.001859704416381724e-01,3.636777287408100023e-01,4.622621910117530319e-03,1.502626011958283284e-02,4.740176139175373074e-03,7.580192089080810547e-01
3.867433298269229436e-01,-4.281569921252423860e-01,3.352791424222980599e-01,-6.468854056858305834e-03,-7.699179720255461615e-03,-4.600953995671348828e-03,7.906578183174133301e-01
3.274824981891863995e-01,-2.794014285763968819e-01,3.496204541909932462e-01,4.436630974006420224e-03,2.862919696267543631e-04,-4.119075411068764958e-02,6.224007606506347656e-01
3.697275396745110521e-01,-4.984681343646457652e-01,4.174422381610144450e-01,-3.809913600075635204e-02,-4.755338580298132389e-02,-9.300451472632079251e-04,8.992259502410888672e-01
3.725900880259824799e-01,-3.268252928918795042e-01,3.773007026574056177e-01,-4.118367581488194956e-02,-2.646015297888705390e-04,-3.485748804126986844e-02,7.079776525497436523e-01
3.407441575257791344e-01,-3.187357194960884765e-01,3.428398076306571340e-01,-1.375634069823201619e-02,1.364422450824722896e-02,-2.259707102734561518e-02,6.625392436981201172e-01
3.630370463081247223e-01,-4.562239864023130975e-01,3.652659440672637037e-01,5.047025579451131297e-03,2.584221158172922504e-03,4.459275610080161260e-03,8.204728960990905762e-01
3.623707366019357501e-01,-3.137100921228580530e-01,3.391791968512642974e-01,-4.335533036289838937e-02,4.914954352060540467e-03,-9.349019764706813576e-03,6.692664027214050293e-01
3.591839141181688566e-01,-4.632107404641190307e-01,3.442014778550648302e-01,1.368167279511521214e-02,-9.722723331598228866e-03,1.123653278817010256e-02,8.157572746276855469e-01
3.290392162097078854e-01,-4.564821130280239947e-01,3.942364290422991080e-01,-3.927109541594525979e-03,-6.357553797470672993e-03,4.679634932384861383e-04,8.201685547828674316e-01
2.652123031875039394e-01,-2.045427509319489578e-01,3.397668231728356303e-01,-3.044315985725603267e-03,-1.205154524547500106e-01,-5.559272387708193153e-02,5.604658126831054688e-01
3.973574510531880932e-01,-1.705665814181843154e-01,1.903740316992747761e-01,-3.725812240145731646e-02,-8.140523507956545779e-02,-1.885959300872408484e-02,5.224375128746032715e-01
2.394041171844922267e-01,-4.640287648562682055e-01,4.119980497442121137e-01,-1.463791141015212405e-02,1.367065918388814250e-02,6.048573553234045178e-03,8.045669198036193848e-01
2.851291369125232844e-01,-4.646926364382383268e-01,4.023308016785150931e-01,-1.709833863712699117e-02,8.083311075867307804e-04,6.602676709830888543e-03,8.153889179229736328e-01
2.888368619177656416e-01,-4.695735794887156977e-01,4.033826778096133436e-01,-1.733917224957336536e-02,-3.142514192681641373e-03,-7.239181876540300327e-03,8.223555684089660645e-01
2.859039490287522689e-01,-4.733045336458581165e-01,4.134393134213298349e-01,-1.638545680865917398e-02,-1.664941138472736718e-04,-4.913576523382537191e-03,8.308830857276916504e-01
2.109551867090214139e-01,-4.739710326152144493e-01,4.407985812548149140e-01,1.213080965715765923e-02,-8.684050402142540204e-03,4.034236282225092327e-03,8.246782422065734863e-01
2.932243522680555436e-01,-4.664100439607776760e-01,4.009854352040007064e-01,-1.946176794424808384e-02,6.979800536673463895e-03,3.917570588343472350e-04,8.196333050727844238e-01
2.855089847463625485e-01,-4.711881577786374287e-01,4.048478009323225879e-01,-4.548399417828591362e-02,2.508712104176609448e-02,1.704431350033713127e-02,8.283125162124633789e-01
2.263174229189589826e-01,-4.572156319047736561e-01,4.055655633664766446e-01,1.881425562120098670e-03,3.821281958393766415e-02,3.504094506598755699e-03,7.913895845413208008e-01
4.148259773306704062e-02,-4.689597273129363364e-01,5.144686764170114390e-01,3.176227224381931308e-02,7.449316401436601939e-03,-9.072742721496034751e-03,8.538964986801147461e-01
1.391158313137426383e-01,-5.881055766907065108e-01,5.073717069219764175e-01,1.492031021416180825e-01,5.959537333261680225e-02,-2.388664052317326231e-02,1.005692839622497559e+00
1.867786851404081294e-01,-5.188030464602430003e-01,4.618801015653757336e-01,-5.123202218116511275e-02,1.054858140682575773e-01,8.607687694681748908e-03,8.995060324668884277e-01
1.719477922735266895e-01,-7.241755053588750934e-01,5.370598150776852986e-01,6.588209360518207380e-02,-1.124526236150996394e-01,-6.569935743570391729e-02,1.152144312858581543e+00
2.759186851229992188e-01,-4.850657140095914199e-01,4.045539192188172817e-01,3.843567990338688650e-02,-2.488813520427498455e-02,2.684139095398471384e-02,8.378455638885498047e-01
2.242262044042578339e-01,-4.722971027897464591e-01,4.258905569226217880e-01,-4.711977650204224669e-03,-7.924113997272667215e-03,-8.963828817372062902e-04,8.164156675338745117e-01
2.851910618714964540e-01,-4.725163553681900330e-01,4.125389555787961071e-01,2.150370805883422207e-02,-3.474880063846419974e-03,-2.223035989443249497e-03,8.296196460723876953e-01
2.957322050491073551e-01,-4.686107395513917639e-01,3.985184476531857811e-01,2.138021722381570899e-02,-9.419470570267211157e-03,4.402350267300234217e-03,8.216110467910766602e-01
3.195681433641889280e-01,-4.647521567220970207e-01,3.744082268428239879e-01,-2.303207591076085036e-03,-1.540322695789660828e-02,1.125071405955448307e-02,8.138091564178466797e-01
3.264803746545505980e-01,-4.664347093761912477e-01,3.822733803179394485e-01,-6.679039192269466303e-03,-1.128192514983131526e-03,3.611114448950215015e-03,8.223400115966796875e-01
3.193074723319493380e-01,-4.612816557456569377e-01,3.938875864542193406e-01,-1.134816338529024381e-02,-1.158165061147549760e-02,4.985751249086801604e-03,8.209514617919921875e-01
2.842580507634190345e-01,-4.471978958067692744e-01,3.488044515456393824e-01,-6.571994802116621660e-03,-2.341843721065895584e-02,-1.299913016470607280e-02,7.672604918479919434e-01
2.916050290453079397e-01,-4.510945904327549050e-01,3.676538888795881088e-01,8.485381818881001376e-03,-7.655691688540593523e-03,1.300229358362889678e-02,7.840705513954162598e-01
3.341214141076134236e-01,-4.488265031472058464e-01,3.254475065649237164e-01,-3.372183893612312570e-03,-6.875771867372485607e-03,-3.829971117017124446e-03,7.787884473800659180e-01
3.686725079224811852e-01,-3.966121084157054888e-01,3.517717627048321249e-01,1.677215571168238703e-02,-5.483566846709950898e-03,-2.922810493244901164e-03,7.576094269752502441e-01
3.456553585069551127e-01,-4.476196951127680013e-01,2.936986701350493556e-01,3.296483655786570238e-03,-1.801471434654103657e-02,-1.070783732878040437e-03,7.692714333534240723e-01
2.882097456898125021e-01,-4.557095578088823373e-01,3.825723831111353945e-01,1.181407947067233217e-03,-5.047567964696331178e-02,2.781298677511376185e-03,8.001182675361633301e-01
3.206699812230103808e-01,-4.445118605959060831e-01,3.322639930484689863e-01,2.296814258437061623e-04,-8.984549324507925400e-03,1.603036886653835813e-03,7.712063789367675781e-01
3.236115001409052283e-01,-4.498652731611482158e-01,3.410792355932272812e-01,5.015143994606822801e-03,-6.478794158292158420e-03,6.985061849750344616e-03,7.825791239738464355e-01
3.431373574259430903e-01,-4.481243055399763975e-01,2.971910864295659316e-01,5.469929124406950997e-03,-1.966312008778485845e-02,2.970971457138742427e-03,7.701472043991088867e-01
3.524889656336881449e-01,-2.926042321871188401e-01,3.288728066224287927e-01,-3.838796286039147798e-02,9.363978590124645562e-03,-7.169921394407711458e-03,6.374217867851257324e-01
3.656187377850407261e-01,-3.704734806875330522e-01,3.366577754247309651e-01,4.872368900617323959e-03,1.130619317791943870e-02,-4.780047700998809289e-03,7.224097251892089844e-01
3.361210452963195872e-01,-3.692896585674177445e-01,4.038259438467033946e-01,-6.090408344708459626e-02,-1.986973473893814766e-03,2.148538147795171424e-02,7.499817609786987305e-01
3.493517621821348174e-01,-3.418962134750214710e-01,3.606716930200812854e-01,-9.122758735890865167e-02,1.013429644519337446e-02,-2.798970426991513258e-02,7.165211439132690430e-01
2.789399098553979606e-01,-3.647717858467470209e-01,4.018856933210349647e-01,-4.368819623200823760e-02,8.028687219945278633e-03,9.425905531175341606e-03,7.175011634826660156e-01
3.699403921820433316e-01,-3.770180196720229748e-01,3.376939747212421850e-01,-1.828503106642136167e-02,3.060503515557704175e-03,2.774528519794059421e-04,7.320733070373535156e-01
3.684406709611688924e-01,-3.787720979316443470e-01,3.383002494535005678e-01,-1.522968256191213100e-02,-6.156187569214115543e-03,3.020370335201631729e-03,7.331786751747131348e-01
3.362043213357479021e-01,-4.608339100615306272e-01,3.837821092343829954e-01,6.503626170881914720e-03,8.295644304526646976e-04,-5.774450851506376242e-04,8.219397068023681641e-01
3.725167684212696284e-01,-4.202443247795611958e-01,3.617640051076991270e-01,-2.589064006491167622e-02,-1.037471901676670924e-03,2.927155905020298668e-02,7.903455495834350586e-01
3.621410557646108641e-01,-3.489988252368881327e-01,3.360298318483220248e-01,-2.653573415559060816e-02,-4.859823800240530619e-04,4.626290162102299382e-03,7.000073790550231934e-01
3.594009545154592256e-01,-2.202571776721848895e-01,3.298376217111466113e-01,6.627116009408295927e-02,-5.280323000112554892e-03,6.363805669732784664e-02,5.874943137168884277e-01
3.558585227280914864e-01,-3.393579297257945382e-01,3.390772402345114678e-01,2.392045450032581275e-02,6.724276462707685920e-03,5.743522377053855189e-03,6.883981823921203613e-01
3.395917069914528019e-01,-4.254786486819095437e-01,3.941494941770993243e-01,1.866220511466419943e-02,-3.591173520296504773e-02,-1.345738484345555645e-02,7.971868515014648438e-01
3.521954606522011977e-01,-3.268732387077259438e-01,3.440598183666662147e-01,5.465580930145615308e-03,1.377509713318929296e-02,-6.180722956122266035e-03,6.756103038787841797e-01
3.378017668433330734e-01,-2.293844708541362687e-01,3.455516839016467001e-01,4.716240017882618318e-02,-3.538027848444516912e-03,-4.900606098211505827e-03,5.770081281661987305e-01
3.570050320433156843e-01,-3.121532391987662525e-01,3.315877763325987271e-01,3.545230522774438231e-02,1.176258716999868670e-02,2.445826369565459041e-02,6.613553762435913086e-01
1.591161254419857785e-01,-3.204514310869149840e-01,5.421227056444551939e-01,5.912038846718203899e-02,-6.179644073478973709e-02,8.500330134598782506e-02,7.771584987640380859e-01
3.340281116662784378e-01,-3.225239790791161187e-01,3.561550906026876850e-01,1.574812690787405489e-02,1.914063040523399789e-02,3.061821345583712328e-02,6.713667511940002441e-01
4.073085303162433668e-01,-4.740469714977650906e-01,3.211838761587491042e-01,-7.414634580276237459e-03,-1.364961298546061783e-02,1.358628281817905042e-02,8.423634171485900879e-01
3.697676064238895055e-01,-4.693558864215486848e-01,2.682380147268615955e-01,-1.007997518861378748e-02,-1.525238120963874899e-01,-1.175732728044570630e-02,8.365110158920288086e-01
3.705165751517188744e-01,-4.713583477078051587e-01,2.834154272999860891e-01,6.746279746363935056e-03,-9.618411614837510393e-02,4.142686080484745195e-03,8.191177845001220703e-01
4.973831197773280755e-01,-5.899371638874848500e-01,1.157429790489895582e-01,-1.730302933679478752e-02,-1.828024721264452368e-01,2.441676882349938515e-02,1.007911920547485352e+00
4.336443031080788324e-01,-5.053715762063654138e-01,2.768224752276164935e-01,2.938933013967287913e-02,-7.505039151598169589e-02,8.824208338806878438e-03,8.825011253356933594e-01
4.277374604844084161e-01,-4.661293498567736782e-01,1.569815948810451556e-01,-3.480170717143101292e-03,-6.295241780013555166e-02,-1.388887822156622230e-02,8.017424941062927246e-01
3.526540952815007124e-01,-2.823717683377567345e-01,3.186890997654096003e-01,3.463450921112788683e-02,4.755273843199911985e-04,7.799001148622973370e-04,6.216461658477783203e-01
4.244554009230461777e-01,-4.646375428905873406e-01,2.152921550320919808e-01,6.756893716494251009e-03,-2.224029472809376917e-03,-1.987732658896669904e-02,8.059820532798767090e-01
3.653982362010701479e-01,-1.684561131187353178e-01,3.588597058073594859e-01,8.104834254982841435e-02,1.589823409072107369e-02,-7.560413369650467730e-02,5.649471879005432129e-01
3.173457076576950420e-01,-2.009592422470042883e-01,3.156343044955387533e-01,1.987126420061262333e-02,-1.048718593614891142e-02,-3.635039893137174960e-02,5.227183699607849121e-01
2.379968717698680014e-01,-1.106051314427045074e-01,3.686918505734501084e-01,9.255723380981698001e-02,3.719138834336182392e-02,-1.690029689889457898e-02,4.635429382324218750e-01
3.021102111427330650e-01,-1.176316477491482493e-01,2.979261299905657245e-01,4.495734843958077397e-03,1.399812945169069591e-03,-1.078440672586838261e-02,4.181625545024871826e-01
2.998054651498865963e-01,-6.968093863202606819e-02,3.012235142981289915e-01,7.604848086600087334e-03,-7.093043382273496109e-03,-1.439621485001586505e-03,3.706437945365905762e-01
3.185977987111587861e-01,-8.991066331056513095e-02,3.418426803862504304e-01,7.654846384389904501e-02,-1.328389701813063092e-03,2.097760004303914072e-02,4.425151944160461426e-01
2.981999157728457694e-01,-1.433040652429383166e-01,2.986998393484316949e-01,2.303192231789465139e-03,5.246246439021604209e-03,-5.338086425245460072e-03,4.419623315334320068e-01
3.104392573652008935e-01,-1.426931344461733753e-01,2.993218961020542856e-01,-3.979092040203199322e-03,-2.134497441894378685e-03,9.325265209499428339e-04,4.477484822273254395e-01
3.587620735569883035e-01,-3.405962420571191362e-01,3.466564782185634908e-01,-3.064615004331813081e-02,-7.144931231975178848e-03,5.773265671850920898e-03,6.955955624580383301e-01
3.394076874510698061e-01,-6.228963896374040132e-02,3.287702565587330428e-01,-8.747840349363303694e-03,-1.266962934685449127e-02,4.481785718280029487e-03,3.974572420120239258e-01
3.610141472952274055e-01,-3.576436436651420081e-01,3.570114731425977350e-01,3.632657312269235717e-02,-1.182764343313316355e-02,-1.329891209393259041e-02,7.200816869735717773e-01
5.006054028479427487e-01,-4.680638175713136562e-01,1.385287660763480644e-01,5.607340675382876082e-03,-3.503093105681840541e-03,-4.121428281039184877e-03,8.478615283966064453e-01
3.780790055724487786e-01,-4.353226739860451833e-01,3.559228970828274274e-01,1.167459688369146091e-02,-6.735537146313082951e-03,1.232780491125953001e-03,8.028953075408935547e-01
3.982413955592980503e-01,-4.583826225529735732e-01,2.575012950884907337e-01,1.092368456062778282e-03,-6.645094397010602172e-03,-4.364737468566858643e-04,7.957309484481811523e-01
4.448793992381119278e-01,-4.484550802593391117e-01,1.841965459547871831e-01,-2.867838965317944661e-03,-8.002932183671134653e-03,2.270908464194856032e-03,7.958375215530395508e-01
3.016407509325811365e-01,-1.304268077960831773e-01,2.939028296691137965e-01,-7.404117491200894186e-03,-1.286488341341306910e-03,-1.772998574883308297e-03,4.284597933292388916e-01
3.109278283121861275e-01,-1.476949774419972217e-01,2.984127450412038529e-01,-3.725332229048257393e-02,-1.839924125102983254e-03,2.060761432143792468e-02,4.584750831127166748e-01
3.131491687497763299e-01,-1.761424070646730455e-01,3.070063721248534883e-01,-2.277667912997486527e-02,5.930344925983682680e-03,-5.079520924111358311e-03,4.880344271659851074e-01
3.680488064915459767e-01,-3.820700654063893253e-01,3.420729438263132582e-01,-7.091316880547531877e-03,1.038591985423348470e-02,4.828203733136589293e-03,7.378431558609008789e-01
3.004264337598554491e-01,-1.206108638307349379e-01,3.017901672227795151e-01,7.117907893132876390e-03,-4.137519073353350396e-03,1.967179321668524605e-03,4.219756126403808594e-01
2.973314381221100478e-01,-5.111769557205350645e-02,2.978917186867298672e-01,1.995985991173572158e-02,-3.718387516779770967e-03,5.712982824348224360e-03,3.506378829479217529e-01
3.204838324700307606e-01,-2.259470762160241120e-01,3.378625299890901656e-01,-5.927601501460640077e-02,-8.370331190349076730e-03,-1.865312184855581409e-02,5.658444762229919434e-01
3.480892027372758935e-01,-2.680092417952041894e-01,3.145692481556243703e-01,-3.440438604043759285e-02,1.902169488316648831e-03,-6.667066396429363433e-03,6.031123399734497070e-01
3.548981114619960131e-01,-9.986897449744125410e-02,3.278224746750712515e-01,-2.782557717623646010e-02,-2.309650521598393715e-03,1.701711254872917412e-02,4.454667568206787109e-01
3.843268228882547044e-01,3.258901391262139513e-02,3.572362045104939265e-01,4.183671835154885443e-02,2.662758960071551217e-02,3.030832387849012599e-02,3.536359667778015137e-01
3.549199001008514487e-01,-4.687611540828318102e-01,3.548720252416040499e-01,-2.672590797874709739e-03,2.041828326698258487e-04,-2.601987134999610499e-03,8.236825466156005859e-01
3.467075174245144997e-01,-4.632814700467935420e-01,3.532603307792177572e-01,-4.600928943667577029e-03,-4.057139129556685229e-03,-4.959252312342272637e-03,8.133999705314636230e-01
3.635144932082193803e-01,-4.755175422410352626e-01,3.633030606817253538e-01,-1.819617163747319676e-03,2.114901732069877568e-04,-2.065565469523723829e-03,8.389399647712707520e-01
3.630759042651073298e-01,-4.726204720156103045e-01,3.609259774948397337e-01,1.014810311009457794e-05,-9.885304001495634919e-04,-9.701806123941331909e-04,8.346269130706787109e-01
3.800103464321531455e-01,-3.243483670968738131e-01,3.507972280284376576e-01,-2.702961759564349517e-02,-1.241772919330074235e-03,3.676566845166085590e-02,6.947299242019653320e-01
4.055867934802074859e-01,-1.369879676324238793e-01,1.691191525187974720e-01,1.493742674876675017e-02,2.381391031236837832e-02,6.038004401875882166e-02,4.850885272026062012e-01
4.161749195317919203e-01,-3.609433521908248510e-01,3.558230599697583263e-01,-9.847996113766181291e-04,-6.229162726682292359e-03,8.857354170887254963e-02,7.644015550613403320e-01
4.677342928342021477e-01,-3.693151232892876168e-01,8.264525363836411342e-02,1.468873501261473875e-02,-2.455972856278045013e-02,8.098860914277936085e-02,7.407705783843994141e-01
4.247844826303950883e-01,-4.975350786026980776e-01,2.697002062904811925e-01,-3.644540386824013725e-03,2.084116293011601881e-02,-5.031375032042637030e-02,8.605954647064208984e-01
9.315522212510327082e-02,-8.536160861294581625e-01,6.302408539593179482e-01,-1.096435326684678524e-01,8.029117584198806196e-03,1.304826623791604800e-01,1.334417462348937988e+00
4.313482510552086313e-01,-5.518145168270400802e-01,2.529321901769525649e-01,1.271669220539843603e-02,1.833460381206904466e-01,-1.529971315072648115e-02,9.618024826049804688e-01
1.327195917639319156e-01,-5.313510724310102074e-01,5.258553534420520315e-01,4.118380744428346008e-02,3.523744430169214320e-02,-9.773228239695331415e-03,9.304382801055908203e-01
2.284914657434626850e-01,-4.793014142856683035e-01,3.720852469406557561e-01,-2.537904196414408203e-02,-1.097940883922695898e-01,-1.628480471737041649e-02,8.137055039405822754e-01
5.081231556245368042e-01,-5.604919080587084101e-01,2.490857048386383998e-01,-2.049542278870029530e-02,1.347743452905650063e-01,2.195296133702378735e-02,9.946987628936767578e-01
1.952713331592516310e-01,-5.143966181757723133e-01,4.492649174373102849e-01,1.550989235243191260e-02,9.279636229101090317e-02,-1.850420235010645162e-02,8.808943629264831543e-01
1.716602344980650008e-01,-7.388631871744411050e-01,4.879544235423297627e-01,5.884118065314155460e-02,-1.662688940807059979e-01,7.186709726253300012e-02,1.151479840278625488e+00
2.151110162005052118e-01,-4.643137269089282482e-01,4.398293871804134780e-01,-6.479116460607777656e-03,-4.785389811337558905e-03,8.212495626285820942e-04,8.154705166816711426e-01
3.449714021674896158e-01,-6.567837510657353883e-02,5.165329093560949714e-01,-1.261426932879133531e-02,-4.292619770049238559e-02,1.637643996652839509e-02,5.247172117233276367e-01
3.523714187611022286e-01,-2.228174950420419576e-02,3.418008210508601263e-01,-3.347002036831957933e-02,-4.600621673623712937e-02,3.757699273041413893e-03,3.824515938758850098e-01
3.541139380447317908e-01,-3.393487878755855891e-01,3.345420665362921486e-01,1.825855256050620823e-02,9.685804299639720269e-03,1.626845361664836301e-02,6.854026317596435547e-01
2.735657695985820870e-01,-1.379482240858449504e-01,3.534596564347997072e-01,5.118457441285769599e-02,-6.283258589580419107e-02,-2.979049495550464832e-02,4.805934429168701172e-01
3.789212238982922476e-01,-4.548861169144873262e-01,2.709893062064232527e-01,-8.455983203799571218e-03,2.020871964320730338e-02,1.278313947245604022e-02,7.866507768630981445e-01
3.508810234343404666e-01,-3.002807467249125617e-01,3.334081754721568425e-01,2.731778025620022754e-02,1.194136033100766034e-02,2.017437942739532322e-02,6.456212997436523438e-01
3.187018915387564433e-01,-2.450736035610526220e-01,3.292286983453535099e-01,-1.431831603276317519e-02,-4.416477234801963712e-03,-3.966406062460418359e-03,5.697448253631591797e-01
3.362871960427405438e-01,-2.860695980294677421e-01,3.331462699383098136e-01,-4.706344242103765313e-03,1.016214480473886204e-02,1.947013836256848013e-02,6.220101118087768555e-01
3.186026596656782450e-01,-2.025556823607058687e-01,3.088556509681893436e-01,2.156592293875749661e-02,3.594782295478726047e-03,-2.828647129242018235e-03,5.177637934684753418e-01
3.208252636768162969e-01,-4.109215302026147931e-01,3.654545971861170583e-01,-9.218500840562847756e-03,4.755050112461386980e-02,2.127477412454678585e-02,7.605908513069152832e-01
3.474890214388133836e-01,-4.658354906407153884e-01,3.685485398888166397e-01,2.942892367133410816e-03,4.781869079277018333e-03,-1.129369730544633847e-02,8.243456482887268066e-01
3.586457921896082923e-01,-4.013806334712987645e-01,3.070620203311922314e-01,-1.315736893515776634e-02,4.721005130444970443e-02,1.542491255858759007e-02,7.409558296203613281e-01
3.263947314199072691e-01,-3.745366072219079023e-01,3.319376737898827034e-01,-8.347220657504533792e-02,9.945260763496091561e-02,3.287055485058573007e-02,7.409705519676208496e-01
2.178225803059520016e-01,-3.299421224504311412e-01,3.899602028299665180e-01,-4.057158790326228365e-02,9.358932846741671585e-02,3.742016318013666534e-03,6.747040152549743652e-01
2.387447891859246218e-01,-6.113296886362205029e-01,4.310976022473213543e-01,-6.839357853280464417e-02,1.820876679019405309e-01,3.457691142927640793e-02,1.019915699958801270e+00
3.949569399966582628e-01,-5.479268998337910590e-01,2.148008178974522286e-01,5.245450149017375635e-02,2.174534123412563136e-01,-5.527371090435673900e-02,9.544096589088439941e-01
3.877014822262498384e-01,-4.844132250390822403e-01,2.746352478891391780e-01,5.555004183973463738e-03,2.830549186213813379e-02,9.909028389271922269e-03,8.231354951858520508e-01
4.183933530197723738e-01,-4.040310658972937619e-01,1.197117272076255318e-01,2.710440580987553624e-02,1.615554157519433487e-01,-6.556330088002307321e-02,7.831664085388183594e-01
4.110014235266865046e-01,-4.622524316683408463e-01,2.437230065210078678e-01,-1.585434953264285712e-02,4.676992364524105994e-02,1.015749824360962644e-02,8.075293898582458496e-01
3.736170048816226386e-01,-4.926323474710615491e-01,2.870626725320682970e-01,-1.338584893221357250e-02,1.204321059565773011e-01,3.107550322975409507e-02,8.543115854263305664e-01
2.931290960899640696e-01,-4.776308523503057790e-01,4.020458408996050448e-01,2.249768108150225487e-02,7.741906123278565963e-03,-1.165960127627817776e-02,8.318584561347961426e-01
2.756993275049946512e-01,-4.912048622860359925e-01,4.174279849244857954e-01,1.824597090519480130e-02,7.114640207703309613e-03,2.007788449045854254e-03,8.473984003067016602e-01
2.243252285726787254e-01,-4.761781631475791032e-01,4.369227234370630653e-01,4.196696738842807875e-03,-1.736849837670696381e-02,2.642665185073944439e-04,8.281219601631164551e-01
4.694118511747765732e-01,-4.807808429243629611e-01,1.788126697518243047e-01,1.029663900293479413e-03,-7.479237056195378597e-02,1.385169384140807862e-02,8.535509705543518066e-01
4.907907431953334454e-01,-5.407365405018986770e-01,1.760150951515560280e-01,1.579043882820419659e-02,-7.776894362032038543e-02,3.974503404418526509e-02,9.284738302230834961e-01
3.450168909654208194e-01,-4.455562641796677603e-01,2.894292169457176045e-01,-3.317591516290218420e-03,-1.835384056200759992e-02,-1.156428823375025422e-03,7.649819850921630859e-01
3.520965836178211461e-01,-5.494752299138869756e-01,3.530218900515166291e-01,-2.063947581218497293e-02,-1.364942191150860518e-01,-5.366922712381357562e-03,9.332326650619506836e-01
3.772938689101026366e-01,-4.665449441044255963e-01,3.127933607850738040e-01,1.001202142421391342e-02,-7.136037369553455134e-03,1.237223957660640687e-02,8.140693902969360352e-01
3.893100482677376295e-01,-6.714585047988703703e-01,2.912450609987343730e-01,2.099075073160150059e-02,-2.769121511381743561e-01,1.155556620340873059e-02,1.123648405075073242e+00
5.182798732192350766e-01,-8.361992482712947705e-01,1.875236380650459889e-01,-1.557019341806811785e-01,-2.243123452936682805e-01,-5.322452251522619138e-02,1.314605236053466797e+00
2.802904085122409628e-01,-5.871183326508891964e-01,3.194355883738685953e-01,3.931069391603831537e-02,-2.339244125338225122e-01,4.050884532980885550e-02,9.806150794029235840e-01
4.537875880341486479e-01,-5.142818865099878511e-01,1.422929750192713505e-01,8.738385143895143620e-03,-1.671216196051757974e-01,2.671205454392442530e-02,9.048743247985839844e-01
3.603824588685249353e-01,-4.630150778940955725e-01,3.447205512001625394e-01,-1.361156289848247138e-02,-8.375336384466120984e-03,-8.980017203651024724e-03,8.162971138954162598e-01
3.620877009230454857e-01,-4.550694773049244191e-01,3.635014723424455085e-01,2.508391611353780323e-05,4.466126225955567575e-03,3.185045267753294860e-03,8.179201483726501465e-01
3.665675858205013626e-01,-4.745615607410300640e-01,3.677397969039648551e-01,-7.589409101811232274e-04,4.239786046461274660e-03,-1.786855565772887261e-03,8.417546153068542480e-01
3.631226566202228057e-01,-4.711998843389297864e-01,3.676498900867584130e-01,-9.681012078962612614e-04,2.462934269815713999e-03,-7.761268284035767115e-03,8.367158770561218262e-01
3.654143388997407871e-01,-4.764068608741326427e-01,3.653830519920770459e-01,2.096032639934442438e-05,1.931127659769683695e-03,-1.509506771339813288e-03,8.418162465095520020e-01
3.664922768985556800e-01,-4.751577059951296311e-01,3.652368008062793492e-01,4.632243179312064898e-05,2.702254726019951044e-03,-5.585366864234913914e-04,8.410365581512451172e-01
3.661105012080408949e-01,-4.747856272118782250e-01,3.677264304589243360e-01,-2.133343705241263176e-03,3.669460479647809574e-03,-2.957297004547700548e-03,8.417529463768005371e-01
3.296957927020872647e-01,-4.687276445108031764e-01,3.698867859272841896e-01,5.690772673451218594e-03,-5.721997260335117547e-03,-4.876746914612101712e-03,8.194214105606079102e-01
2.875657865540584002e-01,-4.767910099491373677e-01,4.049134214679561139e-01,-1.024121623914019986e-02,-1.403771911684497525e-02,-1.633539781234293661e-03,8.298319578170776367e-01
3.753352693451214028e-01,-4.485723853140790585e-01,3.529205464680507109e-01,4.073202979606764355e-03,1.037662321548604716e-02,1.406694166936857740e-02,8.135262727737426758e-01
1.660169044405300220e-01,-1.482921845140975914e-01,4.081842638950535229e-01,3.311713097437295888e-02,2.010523420374852807e-02,-2.701961532809218566e-02,4.901466071605682373e-01
1.119239386744471654e-01,-3.739482980957422598e-01,4.989351342374300780e-01,1.326175602414830235e-01,1.041125479010649585e-02,-8.369100492655032197e-03,7.919501662254333496e-01
3.621643420725718099e-01,-4.460629440044378002e-01,3.735894110849524163e-01,-6.821830095303870779e-03,1.253914228411722939e-02,-7.743019453012562649e-03,8.144857883453369141e-01
3.648211532981763816e-01,-4.677892906734341105e-01,3.724745778728242862e-01,1.719749362768959637e-03,7.714427201025221906e-03,8.832822347014042440e-04,8.365768194198608398e-01
3.627980818654472084e-01,-4.550762989993893948e-01,3.708579668721891931e-01,-3.239807146316533038e-03,7.540357219482280576e-03,-3.246673522288124041e-03,8.220760822296142578e-01
3.626676076520634062e-01,-4.664198616802259778e-01,3.661500330891699351e-01,2.733501739424017835e-03,1.565645348629519408e-03,3.508378478113274163e-03,8.308742642402648926e-01
3.667295471546391794e-01,-4.711220654000684016e-01,3.483369294673630545e-01,9.193159012973687455e-03,-1.351350264338809599e-03,7.556191396599193887e-03,8.290679454803466797e-01
3.687623418735778702e-01,-4.707050465485305146e-01,3.451171866456780313e-01,8.097833493511976538e-03,5.509026301156333145e-04,7.401904732609504260e-03,8.281167149543762207e-01
3.656725737842710933e-01,-4.644139395122168779e-01,3.757227464710656828e-01,2.958989669804783663e-03,5.987706051247293493e-03,-3.438407560318526048e-03,8.352583050727844238e-01
3.787514054983468492e-01,-4.595821353892297623e-01,3.374101323340253922e-01,-1.138098335343310993e-03,-2.883234513760297470e-03,3.198351949199811951e-03,8.184826970100402832e-01
3.653583093747144184e-01,-4.479421534012824058e-01,3.663503947727284049e-01,-5.953479041951262145e-03,-1.174935292995476013e-02,-1.216918703471225492e-03,8.141193985939025879e-01
3.486927142637472055e-01,-4.629907475172094777e-01,3.441578882257314564e-01,2.984747839198550437e-04,-2.303316943375068298e-03,-3.853699402776333859e-05,8.094355463981628418e-01
3.658973140269325963e-01,-3.926182355149863135e-01,3.493864111522504423e-01,-1.268494981652617919e-02,-1.025039146793723342e-02,8.436543815877311364e-03,7.510699629783630371e-01
3.268984020326749507e-01,-2.934505562892176234e-01,3.540399524545947418e-01,-2.003889827291905831e-02,-4.155515492357849186e-03,8.084964794877056576e-03,6.354992389678955078e-01
2.689247979008670963e-01,-4.808836898699878626e-01,4.214655414235650155e-01,3.476619854640036755e-02,-2.588753920835782513e-02,1.518898500159611420e-02,8.403490185737609863e-01
3.720464924037985011e-01,-4.604395787795302342e-01,3.650459752714271255e-01,-7.214346155043838832e-03,-9.735432744543189715e-03,2.069453420596884755e-03,8.292813301086425781e-01
3.668134198541764257e-01,-4.708171309990761833e-01,3.676276377572336163e-01,6.770032024360645058e-03,-2.757664312695616744e-03,-7.292919417588388485e-03,8.382287621498107910e-01
3.719508665419746229e-01,-4.630520858326776512e-01,3.624554412741322618e-01,4.164033480422458036e-03,-2.197606831226826905e-03,-2.606853906756573160e-03,8.303483128547668457e-01
3.683856224114597233e-01,-4.149253761585087741e-01,3.529514318982188703e-01,-1.461895843574728508e-02,-1.163459070213907973e-02,-1.877632390068727057e-03,7.763906121253967285e-01
4.362728719871408756e-01,-4.653831712597269465e-01,2.341095985689136683e-01,-3.127566791777071017e-03,-1.472857402405695210e-02,-3.112421200978183946e-03,8.199274539947509766e-01
4.548870799178823532e-01,-5.214498630206708674e-01,1.910197754770228684e-01,8.242610990090991005e-03,1.571045216886922738e-02,-6.405970722874901324e-02,8.823217153549194336e-01
4.232542728083116823e-01,-4.699396417277298399e-01,2.183198244668562160e-01,-1.880857555745418319e-03,-4.436922688591917255e-04,-3.088814984821192100e-02,8.121703863143920898e-01
4.138974788053426668e-01,-4.657900116507546207e-01,2.691891834534616557e-01,-5.576064985130635421e-03,-1.879064489069374577e-03,1.145697665319982649e-02,8.173066377639770508e-01
4.367619227977406759e-01,-4.643261786091306131e-01,2.265327725881334242e-01,9.201677375569112388e-03,1.601319642328393605e-02,-2.259044225625190042e-02,8.180925250053405762e-01
4.155811814033786300e-01,-4.596688863247821999e-01,2.242845969006401763e-01,-8.505607355781650766e-03,2.249538360032862783e-02,-1.467087661347396120e-04,7.980977296829223633e-01
3.550114513810403993e-01,-4.524662340860865495e-01,2.988349995082569821e-01,-1.013566750544936911e-02,7.397981858691769774e-02,1.094484683618631576e-02,7.917710542678833008e-01
4.934879455903772305e-01,-5.365726926290101950e-01,2.122923792070530169e-01,-1.389527920347402232e-02,6.506456212361748370e-02,2.853046359241103586e-02,9.306818842887878418e-01
3.800796363545446699e-01,-4.472815672608452253e-01,2.575395370188875432e-01,-2.493749774198015991e-03,2.206128604851945174e-02,-2.379423765555498636e-03,7.743729352951049805e-01
