sxx,syy,szz,sxy,sxz,syz,smises
-1.297855951751848008e-02,-1.297855951751848008e-02,-5.412288096496330192e-02,6.136190522550329199e-71,0.000000000000000000e+00,0.000000000000000000e+00,4.114432260394096375e-02
