sxx,syy,szz,sxy,sxz,syz,smises
7.848384513217698810e-02,7.848384513217698810e-02,1.358894525927895613e-01,-3.308483267431372649e-37,-1.736953715401496157e-37,-1.736953715401445208e-37,5.740560591220855713e-02
