sxx,syy,szz,sxy,sxz,syz,smises
1.199999999999867839e-03,1.199999999999867839e-03,-2.399999999999735678e-03,3.599999999999998167e-03,1.199999999999999678e-01,1.199999999999999678e-01,2.940269410610198975e-01
