sxx,syy,szz,sxy,sxz,syz,smises
6.975790427415096140e-02,6.975790427415096140e-02,-5.622598085483022645e-01,-2.670524956046332399e-51,-1.245424714905299463e-51,-1.245424714905299463e-51,6.320177316665649414e-01
