sxx,syy,szz,sxy,sxz,syz,smises
-4.233329890735913759e-02,-4.233329890735913759e-02,-3.953334021852802915e-01,6.142488402995627551e-53,2.825544665377506922e-53,2.825544665377506922e-53,3.530001044273376465e-01
