sxx,syy,szz,sxy,sxz,syz,smises
2.089927436415021239e-02,2.089927436415021239e-02,7.847145127169985468e-02,-1.101965425750879886e-52,-5.559815145061479123e-53,-5.559815145061514360e-53,5.757217854261398315e-02
