sxx,syy,szz,sxy,sxz,syz,smises
4.483191228777251135e-05,4.483191228777251135e-05,-8.966382457500880342e-05,6.549827337091798630e-05,-9.999700511683608933e-03,-9.999700511683608933e-03,2.449479512870311737e-02
