sxx,syy,szz,sxy,sxz,syz,smises
-3.696359287183888231e-02,-5.577752816824195214e-01,5.423402175890543742e-01,-1.318876321552063177e-02,9.469719461271716709e-03,4.700413064890981985e-02,9.570605754852294922e-01
-5.695418218993973658e-02,-5.096810631299077965e-01,5.844829354067757610e-01,1.208022725607173047e-02,2.550903459133446304e-03,-2.029929164171487971e-02,9.531487226486206055e-01
-4.288367796418916800e-02,-4.434903549007306323e-01,4.984793888745975288e-01,-8.629237647773714548e-03,2.480544512110938182e-02,-1.193795785869371066e-02,8.203232288360595703e-01
-4.549405272692216146e-02,-4.632378846873443923e-01,5.117499906149397537e-01,1.361431092008565623e-02,-6.695529823556669452e-03,6.004365204175875215e-02,8.540037274360656738e-01
-4.240163814607181975e-02,-5.590890057183536266e-01,5.581512594249112835e-01,-2.015972153184427546e-02,1.573796643108852852e-02,4.042635171393144100e-02,9.720045924186706543e-01
4.123526356566167839e-03,-5.683021985129553810e-01,6.013897097823361904e-01,2.249431560582979342e-02,1.653173154128826511e-02,-2.869891315889242997e-03,1.014224410057067871e+00
-3.431179568966033488e-03,-3.930835315460501911e-01,5.762659725533209043e-01,8.615883654018111071e-02,3.592319445354865901e-03,-1.735050406443484905e-02,8.584695458412170410e-01
1.864275107310332802e-04,-5.034080841242942750e-01,5.857972388170582523e-01,1.019256024792789539e-01,4.579051165059249036e-03,6.270708982727159209e-02,9.666870236396789551e-01
5.845907178234962392e-03,-5.370862095756792076e-01,5.791241318624539280e-01,3.179134889548248383e-02,1.087053655738920259e-02,4.271127294606581748e-03,9.685637354850769043e-01
-1.360490569301646413e-03,-5.095866187968792760e-01,5.795852362268747449e-01,5.819615451935749445e-02,7.612490461888898191e-03,-3.379817867816177230e-04,9.494093656539916992e-01
-3.572578534273174178e-03,-5.399439935724164030e-01,5.914463521060739915e-01,6.767132157591372599e-02,-1.536560117763791436e-02,-5.497761191387255317e-03,9.876387119293212891e-01
1.053374771281917824e-03,-5.656419675685881998e-01,6.144127697603919414e-01,1.057396853704041378e-01,1.239258229717523328e-02,5.374675562329830902e-02,1.042885780334472656e+00
-4.689333081165359546e-03,-5.620936004224008631e-01,6.440255472010324445e-01,1.044262025776804409e-01,2.971946319963289854e-03,3.275040681787753927e-02,1.062584400177001953e+00
2.851262097678028754e-02,-5.556861222606496176e-01,5.816980133972674549e-01,8.697062328656773866e-02,2.404189755860505415e-03,2.819557189756459123e-03,9.965968728065490723e-01
1.387753747660913292e-02,-5.400012274484370378e-01,5.805978512911661449e-01,3.920565661735878060e-02,1.687828619683407957e-02,7.217504156941329310e-03,9.733807444572448730e-01
-1.484574034909188177e-02,-6.050234366328335334e-01,6.026382793406845906e-01,-7.954380076620285248e-03,-5.843818423570094553e-03,7.498533172697083998e-03,1.046175122261047363e+00
-3.326300435699227481e-03,-6.079353401203283491e-01,6.045913968785285864e-01,1.818814210416609678e-03,1.724954830152717125e-02,1.807572201189706906e-02,1.050976395606994629e+00
-1.868626578907801178e-02,-5.481965300204119096e-01,6.018838646291694294e-01,-3.658787004381092167e-02,7.928913919586987394e-03,-3.320742957621285879e-03,9.991618394851684570e-01
-1.311795734083890611e-03,-5.824089501226031862e-01,5.903819962156706680e-01,-2.811194562115971671e-02,8.306772238859381520e-04,-7.322273666787636410e-04,1.016848802566528320e+00
-6.803599181957073125e-03,-5.682202197979044911e-01,5.957834258035920039e-01,-1.704813108065844282e-02,2.279998824461925214e-02,-1.668815943281993022e-02,1.009885668754577637e+00
-6.964712636185985475e-03,-5.642249828863802330e-01,5.892835070432922429e-01,-1.585101043263394821e-02,1.506608897553141958e-02,8.503819051284848898e-03,9.999840259552001953e-01
-1.888000561139745875e-02,-5.552752893453167804e-01,5.965154548355416919e-01,-3.226148590639966313e-02,4.829173463586643872e-03,9.357367475364888193e-03,9.999908804893493652e-01
-2.103559345968555525e-02,-5.495822544709904056e-01,5.841903325691234494e-01,-3.287233813710305902e-02,-3.737621354533799886e-03,4.513506973125090520e-03,9.843246340751647949e-01
-6.329170557366184391e-02,-5.233884028861054416e-01,5.968207513629542049e-01,-2.726123536099199843e-02,1.861604195826476599e-02,-1.677651135223338918e-02,9.773773550987243652e-01
-3.320373567262191461e-02,-6.051425394009920522e-01,6.046352350428507716e-01,-1.075504245308733439e-02,-3.447629591287083763e-03,-2.072375675830328765e-02,1.049013137817382812e+00
-3.459105240728703456e-02,-6.009644844574530964e-01,5.713687965441426320e-01,-1.963707371077397408e-03,1.138923392998886404e-02,2.266994892115289928e-02,1.016419291496276855e+00
-3.035176329758172351e-02,-5.602279765337102591e-01,5.881650164836369488e-01,-2.966096374595587892e-02,1.633776228949020831e-02,-8.859625426274155002e-02,1.008988142013549805e+00
-6.611743055172533690e-02,-5.065851752024831400e-01,5.931017419592586881e-01,-5.626290150771856742e-03,6.297368280588249920e-03,-1.204948856308447717e-02,9.589557051658630371e-01
-5.623636106920989336e-02,-4.369179835493505748e-01,5.057102534191315613e-01,-5.069475198606321342e-02,1.370836876446553630e-02,2.942581095596056781e-02,8.279471397399902344e-01
-3.548496467424951811e-02,-6.027482619579114242e-01,6.000653997997704714e-01,1.057481201661474067e-03,3.405213837388797442e-03,-4.192669149420792142e-03,1.042270183563232422e+00
-4.045220055145791471e-02,-5.375463734872285571e-01,5.656816075735343619e-01,-4.532628844257339390e-02,1.009418888520739049e-02,-8.583672036049923293e-02,9.717918038368225098e-01
-5.776621504601470170e-02,-4.466847723406865422e-01,5.720283914392082503e-01,5.054879403242381296e-03,1.190868148332768902e-03,-9.705703266686491193e-02,9.061891436576843262e-01
-4.494768494471626519e-02,-6.160527464849453461e-01,5.443357458749176203e-01,-1.471480103564395264e-02,6.102347643808066213e-02,2.475093164651127539e-02,1.011739969253540039e+00
-4.745990232591376645e-02,-6.062952130847740762e-01,5.716592498406070089e-01,-6.202292866387432158e-03,3.763155030620938396e-02,1.729406101530601980e-02,1.023157954216003418e+00
-3.069952447334848775e-02,-6.005796077071374750e-01,5.079719697234048592e-01,-4.976175461833269760e-03,2.790690293111779477e-02,9.174521413933075685e-04,9.614164829254150391e-01
-2.485975020650484438e-02,-5.995216050851389644e-01,5.075197260076943495e-01,-1.013098463378556309e-02,2.283527255060928754e-02,7.460062520228171248e-03,9.600216150283813477e-01
-7.068579832566215804e-03,-6.271098619583562739e-01,4.907546097410613317e-01,-1.621416264420525583e-02,5.960566849244117171e-02,2.820487117582201608e-02,9.771304130554199219e-01
-1.600993178770828557e-02,-6.041164336859523587e-01,6.139782995648561670e-01,-1.720061578748031429e-03,-9.011289167349442047e-03,1.099415725839732356e-03,1.055230140686035156e+00
-1.299889810530810430e-02,-6.289924898290215616e-01,5.282878240933494007e-01,-1.650948976910963928e-02,3.747802286934432542e-02,2.995146787601169792e-03,1.005448698997497559e+00
-2.618997553396256242e-02,-6.018656932976711449e-01,6.079188383795277595e-01,-2.203073940363303989e-03,-4.871975490089657836e-03,1.526242770896460314e-06,1.048152327537536621e+00
-2.520762820803606336e-02,-5.527856649280715740e-01,5.650959329233240513e-01,-5.660906994652052833e-03,4.643539019288243225e-03,7.206947776383491357e-03,9.687851667404174805e-01
-2.685909825973907886e-02,-6.067273789552389829e-01,5.838005017909780880e-01,-2.204004547978648428e-03,-5.609800802606615736e-05,-2.815270041877967599e-03,1.031160950660705566e+00
-3.738385129877592333e-02,-6.113212576822457667e-01,5.696895763680246416e-01,-9.045047916712657676e-03,8.352443829441323978e-03,7.945209226751867235e-03,1.023234367370605469e+00
-1.617117483629305907e-02,-6.036881005272066725e-01,5.463086210610641480e-01,-9.157546330586413194e-03,7.703569153004455848e-03,-1.635843875939561876e-02,9.966235160827636719e-01
-2.177630214505693607e-02,-6.163222196803632702e-01,5.833705273802547442e-01,-6.223991187374090100e-03,-4.335105366403831334e-04,1.815065007056416296e-02,1.039509654045104980e+00
-6.710298074872519947e-02,-3.609290486549923682e-01,5.664082441445875693e-01,4.405243170836422445e-02,1.750942193635649305e-02,3.606683191091143714e-02,8.273187875747680664e-01
-4.659922105469188613e-02,-4.188370698771006206e-01,5.710485336337544071e-01,5.020812574910107733e-03,1.888852381750651815e-02,1.984342456170662405e-02,8.673458695411682129e-01
-2.079452972282557627e-02,-4.275438604744645210e-01,5.709253560988386544e-01,3.991928555574399129e-02,7.677385183635101161e-03,6.694821267228886694e-03,8.725543022155761719e-01
-7.708349172144626782e-02,-2.701308156611756939e-01,5.458533546409365389e-01,5.183227635603116640e-02,5.899337204594804797e-03,-1.195474616670922675e-02,7.444238066673278809e-01
-5.421845866745123033e-02,-3.575320255362308686e-01,5.467355409721590398e-01,5.191502665201658262e-03,-1.382923788424809475e-03,-4.954271553487670302e-03,7.972342967987060547e-01
-4.089382090587237450e-02,-6.130211531340435949e-01,5.996109398289038994e-01,-6.246745420178487218e-03,9.069627500587693070e-04,-2.349610527616942997e-03,1.050791382789611816e+00
-4.005442250786965530e-02,-3.083959796972018386e-01,5.513764611102998092e-01,6.436126000654683599e-02,-1.616696937509400555e-03,-1.553065304513170410e-02,7.704944610595703125e-01
-7.300352336901844152e-02,-2.834551991829944995e-01,5.541466465143779496e-01,6.095704114780633315e-02,-8.147542373183122447e-04,-2.095323320264949260e-02,7.629275321960449219e-01
-6.331688401361854068e-02,-3.487835132858957410e-01,5.563823797461728837e-01,3.679780899220747893e-03,-2.459883522444937087e-03,5.339374560758870791e-03,8.016022443771362305e-01
-7.839155072710685124e-03,-5.590995799471292216e-01,6.112392038171051700e-01,-4.438485693362650281e-02,1.866092797266281217e-02,-1.637869210413320231e-02,1.017928719520568848e+00
-9.881471569819132161e-03,-5.357369687961403004e-01,6.385935400894102720e-01,-5.682404837646334861e-02,-2.378285890611325087e-03,2.179059913091297568e-02,1.024293065071105957e+00
-1.302788739680304717e-02,-5.675040067088671369e-01,6.158668211739414255e-01,-3.398940157776636495e-02,4.175836984315985968e-03,3.311201504761948633e-02,1.028818130493164062e+00
-1.965436819433760002e-02,-5.208610889587425019e-01,6.364134655299016341e-01,-1.160445687461430231e-01,3.172653786951495219e-02,1.853640895049976645e-02,1.027087330818176270e+00
-1.949086247105241004e-02,-4.505251026857537977e-01,5.655946121198357490e-01,-1.068343693088862068e-01,9.381082497750924468e-03,4.537147398092084699e-02,9.060838222503662109e-01
-1.603871043905492899e-02,-5.560675578738818459e-01,5.992850270756517883e-01,-4.052559088078983712e-02,-2.522461110043458868e-03,-9.000470501369194423e-03,1.003860592842102051e+00
-6.289341739248024976e-02,-6.074490934553331556e-01,5.757993012358189056e-01,4.976054321425862209e-03,-1.159230331651651610e-02,1.171499503581939841e-02,1.026236891746520996e+00
-1.067749576899574768e-02,-5.315693420581811823e-01,5.886550752841137601e-01,1.078205247183302955e-02,-2.114249538911701712e-02,-9.186010633193531991e-03,9.719352722167968750e-01
1.001890758691172806e-02,-4.114273083313954027e-01,5.582985021064076347e-01,8.364993043169562104e-02,-9.083208546848969486e-03,4.912974615309770874e-04,8.547151088714599609e-01
-1.171679958154105486e-02,-5.718305022132436077e-01,6.108779304333175064e-01,4.498340046258987590e-02,-1.039697660580296903e-02,-1.528342438182390094e-02,1.028188228607177734e+00
2.102258482132399880e-02,-5.279610696113280488e-01,5.763053252525237591e-01,3.377640089648586974e-02,-1.081303363800932039e-02,-1.068313847450162377e-02,9.584773182868957520e-01
-6.212926998409395302e-02,-5.954966081000262479e-01,5.489070640456525929e-01,-3.688011529294504647e-03,-1.786328541540000564e-02,-3.282220937203808673e-03,9.923624992370605469e-01
-6.958651852677012056e-03,-5.318741867144580748e-01,5.876443975217280347e-01,2.877212838669553421e-02,-2.234721380787928896e-02,-2.173013474194679731e-02,9.729356765747070312e-01
-2.664305588655005441e-03,-5.761381155201757975e-01,6.180211220709257436e-01,2.021199089335103810e-02,-2.926878920541384904e-02,-8.669749990336253140e-03,1.036383390426635742e+00
-1.213532317735351029e-02,-5.058761715590430752e-01,5.890728486296918920e-01,3.649308172064823913e-02,-1.147112279543791198e-02,-5.553623369023488569e-03,9.521317481994628906e-01
-1.142479658260123730e-02,-6.099723643862594580e-01,6.021674891727607504e-01,-5.243470987007826334e-06,-3.973005979617487762e-03,3.210927096230492030e-03,1.049808144569396973e+00
-4.162799451338617535e-03,-5.801523157751707904e-01,5.966921941169515131e-01,-2.635096706569576425e-02,-1.264828660836580902e-02,1.224029176246324221e-02,1.020729780197143555e+00
-1.226211479293374401e-02,-5.873410432375837376e-01,5.984359131021428357e-01,-3.561912676933911680e-03,-8.540236223994187442e-03,2.472005507327727346e-03,1.027201414108276367e+00
-1.373871388732432822e-02,-6.044003707623600841e-01,6.006595219174030165e-01,-1.129199953544745422e-02,-6.440371232611769546e-03,1.062314037984549327e-02,1.044084906578063965e+00
-2.396675328452288825e-03,-5.796649456147894286e-01,5.917408533540916560e-01,-1.476252624706203380e-02,-5.199095200100730188e-03,1.271143004092087185e-02,1.015103220939636230e+00
-1.040635639081738742e-02,-5.279841071596762525e-01,5.874845724926887058e-01,-5.271805876776135963e-02,3.885277991634458056e-03,1.355223638142137891e-04,9.711839556694030762e-01
-3.016564751771470820e-02,-4.376894290358114281e-01,4.873156860421488656e-01,-9.614050053510404814e-02,4.556405981960678225e-02,7.404196235880552979e-02,8.337579965591430664e-01
-3.880362445536045951e-02,-6.015396587599137757e-01,5.470031176186841426e-01,7.248185883406510141e-03,8.406546999602484320e-04,2.563543127541561238e-03,9.948242902755737305e-01
-5.656133281381224565e-02,-2.015752575125377977e-01,4.223215476390285716e-01,-3.340021907731673817e-02,2.370606502304416913e-02,-5.032834054848910749e-02,5.765709280967712402e-01
-3.519555640330163798e-02,-5.409255254215643571e-01,5.752971678742323514e-01,-2.698517790016144099e-02,1.125624690376249119e-02,9.697055538711665118e-03,9.695645570755004883e-01
-2.193162330873725530e-02,-5.567686943987553150e-01,5.407201726144047482e-01,-7.690760132673969511e-03,3.029078971442253614e-03,4.503317676186940205e-02,9.538573026657104492e-01
-3.542719796537976973e-02,-5.794100547382602384e-01,5.868935426605544903e-01,-3.316593032410922182e-02,8.263469639891194568e-03,-5.752359306921106009e-03,1.012588977813720703e+00
-3.060299394308461582e-02,-5.587636914563325341e-01,5.629811822827107681e-01,-5.554789404915909477e-04,3.953097453986890650e-03,2.208621696227087636e-02,9.727872014045715332e-01
-9.726541481509714052e-04,-6.095237230010660534e-01,5.988150766450016649e-01,-8.021278438953997891e-03,-6.828146309652933718e-04,-2.671863772314310610e-03,1.046564340591430664e+00
-1.603147932327839142e-02,-6.217678315589211246e-01,5.677692333367448940e-01,1.255221931138031854e-03,6.991750517014186372e-03,-1.989815463738973250e-03,1.030306935310363770e+00
-2.696620948409179236e-02,-6.222181354120208674e-01,6.010245748914647690e-01,1.867830483179358080e-03,5.587508804337996959e-03,6.771421871433353119e-03,1.059599757194519043e+00
-2.272901177438390805e-02,-5.840291635649034196e-01,5.566547171587018505e-01,-1.490636408985603761e-02,-6.982443413552192127e-03,4.543367129340698286e-03,9.883452653884887695e-01
1.498826659651792022e-02,-5.485159524219822558e-01,5.775271270608173246e-01,5.453875379745352220e-02,1.693114439651314737e-02,5.404423642824413704e-02,9.846450090408325195e-01
-4.825642073592865955e-03,-5.411043154248588172e-01,5.902881799439047006e-01,4.106667058816243498e-02,1.468416524232575224e-02,2.440305422848147027e-02,9.840705990791320801e-01
1.798925104848626139e-02,-5.984559592140570317e-01,5.953146235999284830e-01,-1.034361073760419955e-02,-3.820982091462471822e-03,2.327043868271442585e-03,1.034204840660095215e+00
-2.115155092396497905e-02,-6.154418622402415551e-01,6.222479896882842088e-01,-1.585500549840815126e-03,-2.638344465228189238e-03,7.739551096998688708e-04,1.072166204452514648e+00
-1.872748914658761352e-02,-6.516266904894801870e-01,5.896155728672473062e-01,1.681876040422556826e-02,-3.669038546541776580e-02,2.258707776992891630e-02,1.077998280525207520e+00
-8.175924332769538699e-03,-5.759356006216971302e-01,5.494007125051983964e-01,2.943640541226840920e-02,-1.305681593810704977e-02,1.992855435929997976e-02,9.767879247665405273e-01
-1.268290593953601796e-02,-5.909393314090617411e-01,5.696501913131450934e-01,1.683061723927053999e-02,-8.213728380631014556e-03,7.670513096805088582e-03,1.005713105201721191e+00
-1.597548852703732647e-02,-6.101873658827619007e-01,5.754517623109856039e-01,5.219614194888263538e-03,-1.234026941424506280e-02,-1.288995671650670222e-02,1.027299404144287109e+00
-2.240640822383260095e-02,-4.429421275690816340e-01,5.610959269470860988e-01,-5.683702510655567856e-03,9.020185489802384424e-03,7.857298847948643999e-03,8.736332654953002930e-01
2.569212777077960197e-02,-5.608313178409153332e-01,5.721676532678100502e-01,5.964822293101519450e-03,6.373663799513459675e-03,3.417757502140318475e-04,9.815268516540527344e-01
-2.814849009539961353e-02,-6.088183669590387925e-01,5.745686975865773594e-01,-3.189869517029149219e-03,-1.175458985392608367e-02,-1.041536483270162454e-02,1.025278329849243164e+00
-3.942533076219326138e-02,-6.165672947386475755e-01,5.494901506673309788e-01,-1.002914951088924693e-02,-6.404368773841750961e-02,-2.790683843109541262e-02,1.017224192619323730e+00
-2.212932356084590380e-02,-6.187230539891025449e-01,5.774775255993238599e-01,-6.476272920208779767e-03,-8.567680386770887280e-03,-9.640613508992765604e-03,1.036242723464965820e+00
-3.189737246151410494e-02,-5.953606020671065036e-01,5.693294870961809195e-01,-1.669155113643361289e-03,-2.582687453774025477e-02,-1.453898245653863219e-02,1.010137319564819336e+00
-3.953050840772597690e-02,-6.026669714526076138e-01,5.768414470106180136e-01,-7.877329287363203300e-03,-2.289703202634132614e-02,1.667792403863224346e-02,1.023099184036254883e+00
-1.388839033695548134e-02,-5.866637748717040690e-01,5.762935916209146470e-01,1.585415190154773959e-02,-6.603811207981319029e-03,1.404416857359917347e-03,1.007630348205566406e+00
-5.464491004914211539e-03,-5.761657320515793934e-01,5.968565690040164018e-01,3.100389714930422078e-02,1.510091858178627851e-02,2.888638165334762864e-02,1.018973469734191895e+00
-1.804005381661047402e-02,-5.167094623861571145e-01,5.734504064499396092e-01,6.908830412767272278e-02,-1.679632015090865710e-02,1.608353568111533030e-02,9.536415934562683105e-01
-2.134468723630301296e-02,-5.877388471373408141e-01,5.672862505698488267e-01,3.420806684446833605e-03,4.984646465681598013e-03,9.188684391051551298e-03,1.000524282455444336e+00
-3.236243222653560625e-02,-5.110106074022831013e-01,5.026896253526392799e-01,-2.046313803251453844e-02,2.040019521910995184e-02,-5.030164496222864177e-03,8.798108100891113281e-01
3.516230273619364022e-02,-5.030392718590945833e-01,1.922739201491383554e-01,-7.376887877904307611e-02,8.099357742744915656e-02,2.009431515399313917e-01,7.456826567649841309e-01
-3.419693358081326434e-03,-5.893792166000758614e-01,4.913274512485876766e-01,-7.353498548314935102e-03,-1.055864673954343179e-03,-4.491624403387618931e-03,9.371505975723266602e-01
-3.244599332692013616e-02,-5.024621653152905321e-01,4.584690705848002978e-01,-6.051283707056532429e-02,5.057614287596446517e-02,5.162288331609808656e-02,8.481184244155883789e-01
-1.004795196646198104e-02,-5.155121482898797902e-01,4.968375600834776806e-01,-1.892928493212575267e-02,1.253875397429235830e-02,7.805413680819412760e-03,8.777065873146057129e-01
-1.586957020895841952e-02,-6.007212671283974625e-01,5.758994401832659982e-01,-6.388333552546135094e-03,2.459247217962330927e-04,2.335343897892654032e-03,1.019057512283325195e+00
-4.448990819804578278e-03,-6.002126958580653593e-01,5.111951459461414604e-01,-1.192872456438760602e-02,1.450144866314433123e-02,4.999291382791545314e-03,9.639284610748291016e-01
-2.037885272174718224e-02,-5.300059970138530918e-01,4.894156538070464357e-01,-4.663936428297528469e-02,5.649084284292988506e-02,-1.498258487268181241e-02,8.922937512397766113e-01
-2.391111470885695298e-02,-5.548206542079527903e-01,5.664729077456068795e-01,-2.205967897704474642e-02,9.420597707014477518e-03,4.328826398772801266e-03,9.724407792091369629e-01
-3.179264731471444227e-02,-5.630033342496347792e-01,6.096799091499124357e-01,-3.200191336789857260e-02,-1.436311269651298350e-02,1.926729723983875223e-02,1.019428253173828125e+00
-1.210699935200066496e-02,-6.096094620597816149e-01,6.018390189763527243e-01,-3.897897035629812462e-02,7.409060469021960457e-04,-1.774237911253479308e-02,1.051797151565551758e+00
-2.275471042221189483e-02,-5.022970389386290924e-01,5.749867112398808766e-01,-6.648045696198716381e-02,2.848851134198358490e-02,1.034951984553538103e-02,9.433520436286926270e-01
-3.409300873715156305e-03,-5.414199564682670163e-01,4.705518118769418945e-01,-6.603747549837585273e-03,7.886826515414982822e-03,4.957843348695018665e-02,8.813524842262268066e-01
-3.789883942098287023e-02,-5.075070613799790298e-01,5.068469086147674441e-01,-2.196611395518791032e-02,1.420265942598422995e-02,4.283726326726751383e-05,8.804258108139038086e-01
2.288797334132605665e-03,-4.434773484233619500e-01,3.682853263512271824e-01,-9.830043782305650235e-02,1.239714004454654656e-01,7.072903792445645044e-02,7.654497027397155762e-01
-6.702924790819325684e-02,-5.189871774421619399e-01,5.925333020496319492e-01,8.309810009896577421e-03,6.436782085645160502e-03,-1.737145801306158241e-02,9.688240289688110352e-01
-3.612947131523765176e-02,-5.938764826042520761e-01,5.315945871128764377e-01,-3.601662972128678170e-02,5.993421764667630075e-03,-8.316648843159836491e-03,9.768549203872680664e-01
-3.435097937224788206e-02,-4.629130014769087809e-01,4.892280081315816820e-01,-7.235899448126789646e-03,1.037708125784483730e-02,-1.118448708420437601e-02,8.264634609222412109e-01
-1.819297425244681410e-02,-5.956237003240226757e-01,5.464517910860452465e-01,-6.360565298191374253e-04,-2.560803742243341393e-03,-4.885803290387680242e-03,9.891338348388671875e-01
-2.878425278518737321e-02,-5.798851365810997471e-01,5.990108166673053791e-01,7.469243491569095734e-03,1.867834179994578127e-03,-3.532441403322394459e-03,1.021779060363769531e+00
-2.044524587194043383e-02,-5.945488450458519258e-01,5.505195746952293856e-01,-2.285677891959968840e-03,1.295169846066587284e-02,3.128634804502487127e-02,9.934002757072448730e-01
-2.278563062460682576e-02,-6.125037236122328199e-01,5.983861318223288039e-01,-5.282859595528112927e-03,8.266478776604446396e-03,-5.547324740821476391e-03,1.048960924148559570e+00
-2.274106731929408792e-02,-5.897304655787356520e-01,5.928731351427873886e-01,1.239790760842489814e-04,8.510621851495597454e-03,2.183679908352779715e-03,1.024566292762756348e+00
-2.785927508114775103e-02,-5.491358338569436448e-01,5.749561476887368183e-01,9.211344090291617714e-03,7.020718603400949442e-03,2.009034317078211163e-03,9.745582342147827148e-01
-4.361732976765192449e-02,-6.028006715121219106e-01,5.661198571907476440e-01,-5.898334814608213218e-03,-8.973012817818076109e-03,-6.629492934172010431e-03,1.012866258621215820e+00
-2.689488300102999691e-02,-5.970932542334997928e-01,5.638871035768668882e-01,-2.151503493302266146e-03,-1.620802041827238901e-02,-1.994717623854075708e-02,1.006483078002929688e+00
-2.599625494328067915e-02,-7.357492273258061655e-01,7.873472237387325601e-01,-3.609140620163531210e-02,-6.601295806885253137e-02,-1.244844872489901232e-03,1.326474785804748535e+00
-2.059137347794935680e-02,-5.639586564612671937e-01,5.761439532042988976e-01,2.145405381916561799e-02,-9.090971906276397452e-03,-5.824880469032817087e-03,9.885939955711364746e-01
-6.808624633141021482e-03,-5.835683059579757082e-01,4.837093334997356608e-01,3.882795977798222942e-02,-3.485955951148032167e-02,-2.575784480997320505e-02,9.307681918144226074e-01
-2.460667951859505515e-02,-5.760237148823753595e-01,5.748077770748240001e-01,4.144146568390252167e-02,-2.822605636843021279e-02,3.797090273889322520e-02,1.002872586250305176e+00
-2.376548083563036207e-02,-5.944742936348927920e-01,5.847190543416186381e-01,-2.267249299299846452e-03,1.311039120748984203e-02,-4.505703101279977252e-03,1.021675825119018555e+00
-2.946744938086449245e-02,-5.259464549154068136e-01,5.718138297889634458e-01,2.677990163663278300e-02,2.533261854271500260e-02,5.841288190261263724e-02,9.596181511878967285e-01
-3.547930988176185851e-02,-5.416558721134403509e-01,5.601729855186530216e-01,1.174024869660488142e-02,1.383667102780386689e-02,-2.379028113930335697e-03,9.557857513427734375e-01
-1.782923508848514166e-03,-7.378669032262440419e-01,7.119157752459366328e-01,-1.043340814413881990e-01,1.934512400032101231e-01,-1.368075236281461257e-02,1.312256097793579102e+00
-3.346531001851268949e-02,-5.458374770580936008e-01,5.752096486131501596e-01,1.550900471707548564e-02,-5.601562968777707395e-03,2.242741698362406451e-03,9.724758863449096680e-01
-1.795234171969890824e-02,-5.228847064024382263e-01,5.489758911519578843e-01,3.420370408297393472e-02,8.145162649808589811e-03,4.380252375971749323e-02,9.338572621345520020e-01
-1.518798033533209912e-02,-5.750223784704788788e-01,5.311690956368742000e-01,-4.304081095937092004e-03,-9.388834620271523795e-03,-2.794836684504211754e-03,9.581928849220275879e-01
-4.684143692043795520e-02,-6.200014761165252297e-01,5.779378543928076484e-01,-1.008330557552838307e-03,6.601994880118797204e-02,1.453096281460135482e-02,1.044352650642395020e+00
-1.183222439606956833e-02,-6.279429547526583777e-01,5.071730913617227277e-01,-2.428581729657702717e-03,6.430605633281945288e-02,-1.004973900080219709e-02,9.906816482543945312e-01
-4.343638255944571452e-02,-6.185585825650288250e-01,5.540252822014295475e-01,-5.503563469001844684e-04,5.734188618492592343e-02,1.062028452632517161e-02,1.020560145378112793e+00
-4.427543737464358087e-02,-6.200723278079059986e-01,5.707118990615296372e-01,1.287702983060357020e-02,-3.451381850959132913e-02,2.720975227791711318e-02,1.034481287002563477e+00
-1.063661465361538661e-02,-6.005380329083982449e-01,4.198940915128595019e-01,1.508009674418819661e-02,-7.036604086493902788e-02,3.267232725685196432e-02,8.978027701377868652e-01
-2.637773393571865577e-02,-6.475424048910617403e-01,5.878923213403350889e-01,8.879291727438091628e-03,-1.502474303605092106e-02,2.390835748997598501e-02,1.071151137351989746e+00
-2.718326177688290546e-02,-6.324064462627482230e-01,5.499969412455703033e-01,4.480997331138943975e-03,-4.382602463756327116e-02,4.056348836395157198e-02,1.029326677322387695e+00
-1.717103527082819436e-02,-6.062662222975575554e-01,4.737058525232178408e-01,-7.092094016137732819e-03,-5.989359478592925362e-02,1.758986421990665905e-02,9.428718090057373047e-01
-3.764515170850238346e-02,-6.083583277543541667e-01,5.537232698868126413e-01,2.047328970086688057e-02,-2.669658077623187145e-02,3.939927589306282257e-02,1.010437726974487305e+00
-3.240667146836808538e-02,-6.209708318772513280e-01,5.865228323762982088e-01,8.670957433557018382e-03,-7.444102006749440600e-03,5.368157815658546050e-03,1.046059012413024902e+00
-1.826828894986072538e-02,-6.441818510629434558e-01,5.495161045224821184e-01,1.251810332393755998e-02,-4.822816640159725138e-02,3.273392898183832139e-02,1.039323568344116211e+00
-3.143011755748083974e-02,-6.246454995098458252e-01,5.510976328924002132e-01,1.399828570344536713e-02,-2.690361955615111836e-02,2.788747647233565802e-02,1.020735025405883789e+00
-1.167080732517779273e-02,-6.132929355532009685e-01,4.668244980469549166e-01,-6.290735925387435507e-03,-4.887366178107097059e-02,-2.731530943486552149e-02,9.424984455108642578e-01
-2.308943394677807903e-02,-6.086214733822596923e-01,5.091362220470011524e-01,-4.844211822126465172e-03,-4.925287618787314164e-02,-2.423804696204285430e-02,9.730660319328308105e-01
-1.173525427422426881e-02,-5.909171506648926986e-01,4.548155739128579844e-01,-7.577397345621994171e-03,-4.473351441276718354e-02,6.772812775324921902e-03,9.108524918556213379e-01
-3.230927763387838464e-02,-6.308766895780012485e-01,5.431520281035113751e-01,-2.179350152423348633e-02,-4.427874759977652036e-02,6.256101351638912456e-03,1.020448565483093262e+00
-2.336120827897930630e-02,-6.110067089501294291e-01,5.406682177779383869e-01,-6.115657612063190099e-03,-6.678307126883105231e-03,6.866280420627726006e-03,9.976438283920288086e-01
-8.503347015523796126e-02,-3.569003802579504003e-01,5.613219815826976378e-01,-3.183158798041783432e-03,-9.232285626187127989e-03,7.852222836190293764e-02,8.283676505088806152e-01
-9.528024303603210843e-02,-2.952964534990973333e-01,5.637214603040648919e-01,7.684475538014958829e-04,-7.464011548162436012e-03,6.603407786202612761e-02,7.869886755943298340e-01
-5.797493737384294687e-02,-4.190713315795404070e-01,5.592106026430628818e-01,1.338788186463535194e-02,6.522641729432207373e-03,3.630466901560079618e-02,8.595297932624816895e-01
-6.716038181040673294e-02,-5.081207963863111354e-01,5.919655095545645063e-01,3.347560984772000869e-02,2.974140781734839131e-02,-4.318426635549921927e-03,9.620878100395202637e-01
-5.930926716310983005e-02,-4.959811154473620087e-01,6.044032744449163719e-01,1.440114928672798188e-02,1.281689411244650058e-02,3.357805964129488563e-02,9.620388150215148926e-01
-1.273137517377184551e-02,-5.750044238468223767e-01,5.240947225463686854e-01,2.640834356804827240e-02,-2.857211274377928489e-02,1.508503716418463023e-02,9.546727538108825684e-01
1.510360140402917245e-04,-5.761529425422521333e-01,5.874733729092090906e-01,1.370023544978123294e-02,1.046575344245193051e-02,1.245031314572798324e-03,1.008189678192138672e+00
1.130959773036262564e-02,-5.517227587988005055e-01,5.884868172263273411e-01,3.678274736408935347e-02,-4.112861109693857070e-03,-3.174800246918130665e-03,9.895697832107543945e-01
2.537691138299419565e-03,-5.823273564907933686e-01,5.954598484733835129e-01,4.234123293985921077e-02,8.121984220003210589e-03,7.342475650303065086e-03,1.022810459136962891e+00
-1.959539820935033566e-02,-6.051143519933008807e-01,5.833159263286598062e-01,8.443428257195382397e-03,2.315307788853768287e-03,7.711268683367067216e-03,1.029445886611938477e+00
-2.881766591471177086e-02,-6.109104030778170769e-01,5.972020756542120168e-01,8.201184118811342310e-04,-2.285280707999018737e-02,-1.637827038124653120e-02,1.047620058059692383e+00
-1.461284677124257900e-02,-6.016043552315151199e-01,5.924804908297242045e-01,1.865871386463380938e-02,-4.848063150727914203e-03,1.927484718080625659e-02,1.035233974456787109e+00
-2.885918680263399247e-02,-5.770624840817092371e-01,5.995308114878866723e-01,4.899867086462904309e-02,3.022834434088312455e-02,-9.958218996070621401e-03,1.024757385253906250e+00
-2.591527181342791197e-02,-6.034480326028053288e-01,6.486187369588138907e-01,2.312133970655634238e-02,-2.707316205050406318e-03,-2.476364418696234276e-02,1.087000966072082520e+00
-1.953122457539015894e-02,-5.889551210142293103e-01,6.096796420010563988e-01,1.364067315246973895e-02,-2.810943485335781755e-02,-1.476746162280847229e-02,1.040202140808105469e+00
-2.665924106989332049e-02,-5.090037759062846501e-01,5.770479505374799256e-01,2.973010552648374175e-02,-3.045493048886252149e-02,-4.955600336209763090e-02,9.492707848548889160e-01
-4.429806116444062747e-02,-5.117882751075815140e-01,6.239102870833630465e-01,3.970227949385004423e-02,2.916177238343996281e-02,-6.441384878997695462e-02,9.985778927803039551e-01
-5.162201854941632362e-02,-4.890663591447503844e-01,5.931810190226282087e-01,1.420338730573179366e-02,-2.506034119446305317e-02,-9.468630767140653534e-03,9.444321990013122559e-01
-3.734781727333901652e-02,-6.268536563861724087e-01,5.931276646630547766e-01,1.333775455130763697e-02,-1.264508445090141951e-02,2.106986983266313437e-02,1.057842493057250977e+00
-2.570076193461234837e-02,-6.256173707981533827e-01,5.937381588040921976e-01,8.879051119923464172e-03,3.552997792674993257e-04,1.850946836625183903e-02,1.056636571884155273e+00
-3.141563981343461348e-02,-6.210957137415094031e-01,5.771481905600051032e-01,5.737224485262238348e-03,-1.520028421864129398e-02,1.247636671806513428e-02,1.038358926773071289e+00
-8.799914930231134136e-03,-6.258199024198811689e-01,5.718969743692388086e-01,-1.021590666507837981e-02,-4.427755876085180328e-03,1.507179451022974334e-02,1.037919759750366211e+00
-2.057127937072718987e-02,-5.796580159516278030e-01,5.698570257300722419e-01,-3.057813051431364855e-04,5.205495592302863093e-03,4.402363475143209783e-03,9.957027435302734375e-01
-1.734213942553355578e-02,-5.992326959730455149e-01,5.927245131500020747e-01,-1.016366915854850610e-03,7.956039330533877865e-03,-2.151890462607086371e-03,1.032461524009704590e+00
-3.630913634233610965e-02,-5.826616852585433382e-01,5.931195151865668036e-01,-1.198795919657418517e-02,-2.637951145619636065e-03,-7.113450752906218602e-03,1.019399523735046387e+00
-1.690825696062231778e-02,-5.735304809596061260e-01,5.069658191516673851e-01,-7.581180488543839795e-03,1.938755877178613418e-02,-3.113000767494838615e-04,9.365749359130859375e-01
-2.659189797953748907e-02,-5.987796812199426277e-01,5.781028006247601603e-01,7.731319452862596767e-03,-4.178783538290499998e-03,-1.002256985479526782e-02,1.019601106643676758e+00
-2.472531736404888839e-02,-5.752160700158126527e-01,5.721281313505095500e-01,2.912905297423258252e-03,-5.200624493425449850e-03,-1.337622994856212805e-02,9.942231774330139160e-01
-3.465635914424304576e-02,-5.803341035753935007e-01,5.873513923294874095e-01,7.651879121030159088e-04,-1.011558991695153502e-02,-2.197464820646953705e-03,1.012124896049499512e+00
-2.657977205602457191e-02,-5.778925244147382623e-01,5.770048348528872273e-01,-8.086074444392542249e-03,8.317877928582918454e-03,1.860789274213377198e-02,1.001232504844665527e+00
-2.629063404661080225e-02,-5.781845637473091992e-01,5.844028009084905051e-01,-1.260564055185784890e-02,1.302135756550659371e-02,-1.841068785896913390e-02,1.008252739906311035e+00
1.741197391267788885e-03,-5.404726845905873933e-01,6.683362228922359316e-01,9.852735847318971896e-02,5.149387172865756493e-03,-1.384392508806178701e-02,1.062807321548461914e+00
2.303718250953099012e-02,-5.879938680230754056e-01,3.655792833349637561e-01,1.726527298457782023e-02,-6.063409277672522635e-03,4.041965854414997922e-02,8.401807546615600586e-01
1.193063921962479214e-02,-6.010729102149950931e-01,5.990449347505142352e-01,2.555781994134408153e-02,-4.318363395992090223e-03,-2.171626577038912251e-02,1.041061997413635254e+00
-5.836055243481602650e-03,-4.643949963118647606e-01,5.785505996701135745e-01,1.022587366840960188e-01,-1.606089402927671911e-02,-7.519551605122862595e-03,9.230784773826599121e-01
4.255281599879600501e-03,-5.181444393749439215e-01,5.632545208477880427e-01,8.968340002510524767e-02,-3.181847862390553561e-02,-3.096391083706413316e-03,9.511035680770874023e-01
-4.763025215308441807e-03,-5.751775377909403852e-01,5.967497781969206549e-01,3.992780754182663483e-02,-3.938468771279951888e-03,-8.946763525393077940e-03,1.017531991004943848e+00
9.651173902245390249e-03,-5.888531544727315659e-01,6.279627561830951610e-01,3.357635305621920613e-02,9.775747434108252379e-03,9.892423527700691915e-05,1.055579304695129395e+00
9.785563614185859016e-03,-5.737348070227545893e-01,6.004446263505871517e-01,6.384555597650126701e-02,1.788240608199142753e-02,2.190201178400886031e-02,1.024042487144470215e+00
-3.784232825753363477e-02,-5.980631882550329070e-01,4.830664920154866815e-01,3.584317130635527194e-03,-5.829345697720051539e-02,2.646996471490671143e-03,9.419507980346679688e-01
-4.746633892182887393e-02,-5.877778810337024318e-01,5.055075430332868214e-01,1.647638733202093971e-03,-1.733872525478162563e-02,2.353619669448054653e-03,9.473233222961425781e-01
-3.977634286278983189e-02,-6.095315376632928217e-01,4.969652026441907511e-01,-1.218001797447733001e-02,-9.877144057893175177e-02,-3.804707845434486535e-02,9.760015010833740234e-01
-2.861988504952292511e-02,-5.967923778419278458e-01,4.776010662483435310e-01,-1.423120805359648485e-03,-5.530543447332490065e-02,7.458253480810823855e-05,9.358860254287719727e-01
-6.035323857230209810e-02,-6.001661779425613297e-01,5.568810891511629668e-01,2.605146244288162639e-03,-3.597302393811907528e-02,1.009867455400249164e-02,1.004876017570495605e+00
-5.454387588146902138e-02,-5.993176279196344991e-01,5.672035859168264027e-01,-7.932978998501398135e-03,-2.776449933302495635e-02,-6.178898630923666986e-03,1.012262821197509766e+00
-4.829232566874373800e-02,-5.968517621671209916e-01,5.286294643053974784e-01,-6.962290273089906043e-03,-2.581460721472668765e-02,-9.918999331965914351e-03,9.760491251945495605e-01
-1.313131654464581508e-02,-6.025655969690030256e-01,5.988748502839729149e-01,-3.213216962487744095e-03,1.094916028195596323e-02,-3.130013562730047955e-03,1.040740966796875000e+00
-5.636964531809952189e-02,-6.025050920032748447e-01,5.259500226962205982e-01,-6.829354181934995868e-03,-7.648927874418136319e-02,-4.824608050766224752e-03,9.864822030067443848e-01
-6.353859248730131526e-02,-6.012836218978262481e-01,5.769652342057908223e-01,1.653386603060199179e-03,-3.281138428490160824e-02,7.440592013733406118e-03,1.023350715637207031e+00
-4.869515132189059653e-02,-5.998654277307371441e-01,5.224159248669906219e-01,-1.237599772760940124e-03,-5.484025642516827254e-02,4.429334083303375531e-03,9.766380190849304199e-01
-7.426118305757588300e-02,-3.962166224680210846e-01,5.796285952856028434e-01,-1.541632697656515096e-02,5.778272954552788471e-03,1.084778110567967066e-02,8.619261384010314941e-01
8.405896426862388693e-03,-6.484775694192097539e-01,4.911069950169030252e-01,-3.641743546821937100e-02,-3.866322516213493293e-02,9.044621022771708041e-02,1.007263302803039551e+00
-2.821355794703571049e-02,-6.481004424385483631e-01,6.096858653797818661e-01,-5.074201670124793302e-04,-1.975647973126103477e-02,4.441235637001510889e-02,1.092561244964599609e+00
-2.984202851532158363e-02,-4.967442111438988839e-01,5.774988518642394375e-01,-6.084885195462094720e-02,-3.587432122467691144e-03,-4.660670824965690295e-02,9.423865079879760742e-01
-4.202740228253541016e-02,-6.809774523100183830e-01,6.359050909958303688e-01,1.553205345710135729e-02,-4.314384158253288526e-02,-1.881186574364685643e-02,1.143846273422241211e+00
-1.613558767408100961e-02,-6.308694784545917367e-01,5.620647624025427724e-01,8.618848303259485366e-03,9.288742913326731090e-03,-1.320689238581073191e-02,1.033758997917175293e+00
-1.953880131779597851e-02,-6.428217153823900798e-01,5.886798343799053423e-01,-2.028774801755648532e-02,-2.880113062716309694e-03,2.282607485478659395e-02,1.067860722541809082e+00
-2.538567140685309143e-02,-6.179773042972805941e-01,6.338945112318855601e-01,-3.003808596551005294e-02,1.656474604237307552e-02,-1.562128466112984622e-02,1.086628317832946777e+00
-2.491113620297585526e-02,-6.157622277473016048e-01,5.971900302775585700e-01,3.519780911547452235e-03,-2.021440317384316961e-03,1.007388227589551058e-03,1.050588607788085938e+00
-2.966984499778035564e-02,-5.983808590796420024e-01,5.479674470127717800e-01,8.286442658651622592e-04,-4.508632124112636058e-02,6.177592598188297313e-02,1.001576185226440430e+00
-3.441057316144877087e-02,-6.049121360765808975e-01,6.355905178808186617e-01,-1.957926336758161311e-03,6.506473815810501216e-03,-2.151690945293211962e-02,1.076168060302734375e+00
-3.689560044666974348e-02,-6.229985671275869441e-01,5.954600491061792233e-01,7.949697239678149216e-03,-2.889059698837894222e-02,9.513645069193336218e-03,1.056873202323913574e+00
-2.080797551192434258e-02,-6.183227427865869430e-01,6.028295787584975196e-01,-1.690052804068144796e-03,2.749402687645135460e-03,1.618493513496522792e-03,1.057648062705993652e+00
-2.085776758990572771e-02,-5.814753640129760592e-01,5.910242736767260530e-01,-4.516175612123334536e-03,-5.556844846812227998e-03,4.682436232245200391e-03,1.015846014022827148e+00
-2.284064369662237165e-02,-6.071555189373040173e-01,5.972580562291290862e-01,-2.322559720043721344e-03,4.669081400307313612e-03,-3.435728811627711092e-03,1.043262243270874023e+00
-6.608993818834152465e-04,-6.165757408320761135e-01,6.095652011859999941e-01,-1.095799359611127760e-02,7.873583881548474814e-03,-2.426496242578434978e-03,1.062138438224792480e+00
-4.443253232862164059e-02,-6.129066577508575087e-01,5.567538924765038644e-01,2.236078475293751602e-02,-3.837323402543656864e-02,5.474528630521714734e-02,1.020419239997863770e+00
-8.492556952712221330e-02,-4.607618111673827954e-01,6.025534982416964613e-01,-1.404052247377073070e-02,-5.240375181932790255e-03,7.438488083773417935e-03,9.343980550765991211e-01
-5.634075428960333420e-02,-3.838983232020725112e-01,6.201555029167291622e-01,1.685589784413888403e-01,-1.292106591254746084e-01,-3.506758743433449621e-02,9.620521664619445801e-01
-3.375439231667977380e-02,-6.060072057443883775e-01,5.718333956614077840e-01,1.985887886649315582e-03,-1.829024412760920856e-02,7.117519615728623572e-03,1.020748019218444824e+00
-5.473010098303733584e-02,-6.083448913558762161e-01,5.816440720157601829e-01,3.752320364977634014e-03,-6.956430258531294888e-03,1.093741749732103814e-02,1.031655907630920410e+00
-5.122628499521957035e-02,-6.159828866353695975e-01,5.930503372076043611e-01,5.845306521481925116e-03,-3.723911056369183514e-03,1.486925904543895741e-02,1.048193335533142090e+00
-3.572425897261961858e-02,-6.076580227928888300e-01,5.076971897250963650e-01,3.731474519431859970e-04,5.121236060657304717e-02,-1.441215082474830468e-02,9.704163074493408203e-01
4.340793059935563192e-02,-7.874202149140254736e-01,4.891383526795313186e-01,-2.510146827656608778e-02,1.847822537954050826e-01,6.835368798460694784e-02,1.173719167709350586e+00
-1.410275774040849750e-01,-1.392795459245161349e-01,5.477043597592308188e-01,3.026863327730494949e-03,2.836262598809214178e-02,-3.994207158735459812e-02,6.930928826332092285e-01
-2.492278988876004894e-02,-6.071528607512165499e-01,4.882436417348935409e-01,1.804682905027667119e-03,4.171084551137086566e-02,-1.209100616106725118e-02,9.522501230239868164e-01
6.502061027303854268e-02,-8.225809837246392808e-01,5.208172164759045097e-01,7.718065579875835192e-02,2.512145559463102584e-01,9.694541790550030569e-02,1.278884291648864746e+00
8.102374284198973764e-02,-7.185138296514826939e-01,3.485959968034953449e-01,-1.271127984226868256e-02,2.051552922196152318e-01,8.873848624114294426e-02,1.036900997161865234e+00
-7.030673431599236689e-03,-6.075759256775243866e-01,4.761805250030199943e-01,-8.108129464822861135e-03,9.237698811827715906e-02,-8.751497843854604691e-03,9.541307091712951660e-01
1.378843336364997223e-02,-5.759452825640806184e-01,6.303247325055768568e-01,1.397544894687338946e-01,-2.646120425003097888e-03,-4.620654903950728587e-02,1.075413942337036133e+00
-2.022270401765666192e-02,-6.176069114806120863e-01,5.110370790198670576e-01,-5.315682250268519843e-03,9.754960063233977796e-02,5.425893487924315917e-02,9.969632625579833984e-01
-3.651326754174245848e-02,-5.872146887844506002e-01,6.000412278968019208e-01,4.019300975960531097e-03,1.092495862766430792e-02,7.111674460097745397e-04,1.029287695884704590e+00
2.849712179582229721e-02,-6.224984311816167404e-01,4.777008068130504936e-01,-1.436354677907317233e-03,-2.185459584535584185e-02,-2.272770029935767318e-03,9.588865041732788086e-01
-1.102492646062412825e-02,-6.082246031804854347e-01,5.431558617918967879e-01,-1.035819060289310759e-03,1.314238924221952827e-02,-5.886758492553642585e-03,9.976701736450195312e-01
1.540666982583129008e-03,-6.134657806783020417e-01,5.002381173659475877e-01,-7.064980598178079987e-04,1.922260613211691435e-02,1.656400542788812394e-02,9.672473073005676270e-01
7.703841475963611740e-03,-6.152563454718320557e-01,4.831497393799988327e-01,-4.436072060162710856e-03,2.558983402626773419e-03,1.352455438309621560e-02,9.544314742088317871e-01
8.062752078334116390e-03,-5.839507135688112305e-01,4.215055916801884739e-01,-1.551029257100563358e-02,2.030635677130499667e-02,-6.166576901737904487e-02,8.829187154769897461e-01
-6.186295710132355685e-02,-5.033943504413492809e-01,5.967521770383996671e-01,-2.750435353446246522e-03,-6.754123055371190169e-03,-1.727165780793677927e-02,9.594673514366149902e-01
2.248555314300763885e-02,-6.058987448942604326e-01,4.506292525451642828e-01,-4.836425491591038808e-03,2.046859938816253388e-02,-4.885730966374201428e-02,9.250409603118896484e-01
1.832967949522494588e-02,-6.313607052681506904e-01,4.460116374325463484e-01,-7.548135010455608689e-03,6.491239887332902678e-03,-3.468421584154605941e-02,9.416881799697875977e-01
2.822701310003623842e-02,-6.285345756883223833e-01,4.487890758577662287e-01,-1.726867935328308280e-03,-3.146954482787006104e-03,-3.896826897081335367e-02,9.428740739822387695e-01
2.196296319023107943e-02,-5.246790535667424926e-01,5.661860928835874551e-01,1.986922676748994858e-03,6.196886014394903212e-03,3.078341717779054573e-03,9.447999596595764160e-01
2.470853810535173639e-02,-5.354275757375478451e-01,5.673696565743779896e-01,1.303862223976620660e-02,4.479155759682131727e-03,3.877305150550537909e-03,9.554124474525451660e-01
-2.745231877848802390e-02,-6.123130710039306202e-01,5.911467904922572680e-01,-2.439313780799132192e-03,3.884118161793532770e-03,6.325716075434706549e-03,1.042451143264770508e+00
2.145424024317916026e-02,-4.542388068856113015e-01,5.608181518542407762e-01,7.091625650293459371e-02,-3.990999825367260063e-03,-1.840032638687049207e-02,8.887743353843688965e-01
2.020167161345773343e-02,-4.824344120884445086e-01,5.571889784579466820e-01,3.047519774794480232e-02,3.401148836904247831e-03,1.895160296885850526e-02,9.026660323143005371e-01
-1.694364958525213655e-02,-5.440631395658749314e-01,5.860357553552569820e-01,2.196198719119690085e-02,3.877135739189116036e-03,9.713106734706451056e-03,9.803348779678344727e-01
2.721854295222871090e-02,-5.588056115326418549e-01,5.686754741709539873e-01,1.797181281880384437e-02,5.811215219420959484e-03,-3.815572793898891653e-03,9.772515892982482910e-01
3.861388924265086661e-03,-5.481422530017703298e-01,5.789041783177220069e-01,2.143154645937174127e-02,1.937840944498479129e-02,1.765154334382146653e-02,9.778789281845092773e-01
2.570201120550898513e-02,-5.245211193582025588e-01,5.835644382807445574e-01,4.914351065681676900e-02,6.562237908798064859e-03,1.195733683601512241e-02,9.636950492858886719e-01
-2.965278995238000009e-02,-6.076069059807824857e-01,6.186685079929307163e-01,-3.380216544562264502e-02,-3.765626630544024328e-02,2.535125146817068797e-02,1.067080736160278320e+00
-3.037919297418496117e-02,-6.047380240951402142e-01,6.724608754026724089e-01,-4.906003970341357712e-02,-1.091682373418680942e-02,-8.148479553420958504e-03,1.111454963684082031e+00
-4.103959681671342369e-02,-6.160765085434181110e-01,6.757323587198751369e-01,-3.208957354215972307e-02,-4.123347469978692892e-02,7.246835740002230408e-02,1.131611466407775879e+00
-1.523755556210021692e-02,-5.586373829417171644e-01,6.174438647162419080e-01,1.768960527458017518e-02,-8.464798536854870395e-03,-2.996722758238641593e-02,1.021379470825195312e+00
3.770511786588121722e-03,-5.288277690377920504e-01,5.918119688744544193e-01,6.760808792637275355e-02,1.529856181528122146e-02,-5.512914765752514185e-03,9.783401489257812500e-01
8.935032127064323343e-03,-6.696557218270605683e-01,6.100874512747378464e-01,5.607400853884033504e-02,1.281005178277511147e-02,-3.859853937828904014e-02,1.115437507629394531e+00
1.543510443007954647e-02,-6.199640894207507635e-01,4.562279041694454751e-01,2.447228306447889277e-03,-3.608519129905721733e-03,-1.110250879181749577e-02,9.373028278350830078e-01
2.508318451952845640e-02,-5.604793980259117347e-01,5.858732202277621148e-01,7.875511475009674967e-02,-9.185735869782057569e-03,-1.746543312062134087e-03,1.002305388450622559e+00
-9.375543571498570761e-03,-4.869590235756147134e-01,6.751694945296060624e-01,9.235919937782358091e-02,-1.134143067995170388e-02,-8.341766659629341885e-02,1.034633874893188477e+00
1.182203024026163771e-02,-5.101414429817109353e-01,6.194048520328971907e-01,9.675334479738048610e-02,-2.503852010727222396e-02,-3.114759148146887049e-02,9.957980513572692871e-01
2.795762482551297778e-02,-6.252168207351983531e-01,6.374497734531450188e-01,5.725385269037876201e-02,-1.360645192433657114e-02,-2.369713627482604446e-02,1.099225282669067383e+00
-3.321348826081772787e-02,-5.724667240029052140e-01,5.622264289950595906e-01,-4.318872526408151953e-03,-2.350116606251758181e-03,-1.594865132144147185e-02,9.834994673728942871e-01
-6.027984670079690466e-02,-4.509084206701883257e-01,5.643344999867668799e-01,-4.464558179430208086e-03,-5.650968999120585014e-03,5.727542276037521363e-03,8.871189355850219727e-01
-4.381494535910996496e-02,-4.940757242496885970e-01,5.646309797906424732e-01,9.120457858452335476e-03,-2.148835435002579512e-03,2.618452385847557309e-02,9.215317964553833008e-01
-2.991674904238277727e-03,-5.802163196259658706e-01,4.877713363944021774e-01,-3.094270498296713013e-03,1.008542353585448539e-02,1.015430820385649323e-02,9.262614846229553223e-01
-4.042366861407605677e-02,-5.546272208490877764e-01,5.366473159504628887e-01,2.625265766200523057e-02,-2.936372550104136142e-02,3.508803782299477203e-02,9.499979019165039062e-01
-2.357715722499919425e-02,-6.315219194941369407e-01,5.800082457661072111e-01,-8.885546708562846660e-03,7.562750882972684580e-03,8.441129289209384212e-03,1.049514651298522949e+00
-2.053459711989001624e-02,-6.078688553757394253e-01,5.969267957810031611e-01,-3.179108906406802413e-03,-3.941582265498212723e-03,2.077681196853102888e-03,1.043535470962524414e+00
-3.820347167627636403e-02,-5.840525631084394487e-01,5.979741885301778082e-01,-5.433944041529150358e-03,1.022854267671874894e-02,1.155999462803218754e-02,1.025053024291992188e+00
-3.360412889645224277e-02,-5.463074992240545269e-01,5.622358602877790545e-01,3.026029427222454420e-03,1.283096283381028602e-02,1.151822348213441156e-02,9.614045023918151855e-01
-1.538457762296366327e-02,-5.729183882551013296e-01,5.686436389202942365e-01,-1.191331408290038918e-02,1.624849094242549613e-02,-2.557587199619401272e-02,9.903174042701721191e-01
1.743213939004140123e-02,-6.361742426979339893e-01,4.849852407952575106e-01,-1.822929011388968804e-02,1.259986985427770552e-02,2.194683551387131143e-02,9.768936038017272949e-01
1.884788631101071144e-02,-5.691928105630967849e-01,4.036172584506320105e-01,-2.608816537933467648e-03,3.827081890303090511e-02,-1.986164841100898637e-02,8.518786430358886719e-01
1.047883971453264507e-02,-5.805866344099019916e-01,4.083244970577936672e-01,-1.314204319837935196e-02,2.668526095824771613e-02,-3.245137912675948033e-02,8.652202486991882324e-01
7.329543391715470646e-02,-5.983619440162349923e-01,2.619059568946290328e-01,-2.369622527767870079e-02,2.068652674697632476e-02,6.050827615864664416e-02,7.920424938201904297e-01
5.732480555510527376e-02,-5.874470553535218187e-01,2.651796300556379382e-01,-1.961926976680110693e-02,2.328182276118537231e-02,5.458864857921002373e-02,7.776078581809997559e-01
-2.423219133953109783e-04,-5.476364783734252173e-01,4.637446419527598285e-01,-6.099043894589207399e-02,8.645228410424232734e-02,-1.514459350690469316e-02,8.962017297744750977e-01
-3.765680330126739556e-02,-6.243713655151876818e-01,6.009305929850485839e-01,1.119398838625994784e-03,1.004910598669001183e-02,-2.392053397648817407e-03,1.061612129211425781e+00
-3.950877704049210459e-02,-6.561228152729263741e-01,6.456495899374494751e-01,-3.069771909117230933e-03,3.986376479046738934e-04,3.177576193473118267e-03,1.127914905548095703e+00
-3.858083585183936376e-02,-6.796598434011699164e-01,6.573022443443596874e-01,-1.232782561122062635e-03,6.476539200084889536e-02,-1.076167439101973107e-02,1.163738489151000977e+00
-4.294166840334293078e-02,-7.017729785345810933e-01,5.833338249184327751e-01,-3.985835703894669707e-02,8.791924698854480802e-02,1.641475082157050486e-02,1.125901103019714355e+00
-5.205703009581136298e-02,-6.283969845220432893e-01,6.118387166082958073e-01,-6.136122451893541614e-03,4.010925855713219634e-02,5.715575171475777670e-03,1.077307820320129395e+00
-4.148038449808464506e-03,-5.938299056137777976e-01,5.131446901015311868e-01,4.077451406623758268e-03,4.989503332842904447e-03,-2.671565737590471390e-02,9.605312943458557129e-01
-5.492420264398241436e-02,-3.731866326055064409e-01,5.877181216171324385e-01,6.814601900078058605e-02,8.515577060517288965e-03,4.978427497359408371e-02,8.604612946510314941e-01
-6.115622983947358038e-02,-3.140902164434254407e-01,5.874315989247725911e-01,1.057204105858077364e-01,-3.197814117041694604e-02,1.536490975597728723e-02,8.282500505447387695e-01
-6.665870462194234403e-02,-3.200225064927754159e-01,5.758146945838691355e-01,5.675499907757970003e-02,2.066503633462568254e-02,4.325097886534028796e-02,8.101242184638977051e-01
-9.872712746492628977e-02,-2.439680048577823057e-01,6.216575058598057257e-01,1.287773593254344928e-01,1.221942820796747924e-02,6.165025517410908928e-02,8.404042124748229980e-01
-5.186440712645054574e-03,-6.445068644624548648e-01,5.399679246339765815e-01,-9.834242292826314569e-02,1.542296321350450881e-02,5.825677022123666032e-02,1.046117186546325684e+00
-4.798804255975500088e-02,-4.447053010509769977e-01,5.545747271955604463e-01,-5.593980658797301914e-02,6.960831195906497411e-03,-2.719254514483314400e-02,8.782169222831726074e-01
-3.651269303568956126e-02,-4.315035334799494082e-01,5.645630706627853268e-01,-6.849487919500572841e-02,-9.665563473598908634e-03,-4.191415003240532566e-02,8.799741864204406738e-01
-3.456769341808009488e-02,-5.344518705806118319e-01,5.480323602853867104e-01,-1.014544352834942376e-02,1.396370811053131850e-02,-1.266071474988200588e-03,9.388493299484252930e-01
-5.888965270031069899e-03,-6.028512343831256004e-01,4.068694503243236449e-01,1.688687408265053189e-02,-5.782214674715333708e-02,2.360203887130386813e-02,8.863924145698547363e-01
-4.756550830309486111e-04,-6.131835930469412554e-01,3.879025101177991930e-01,3.609344341576180542e-03,-1.435319105197454537e-01,2.581736059155277305e-02,9.099746942520141602e-01
-9.598376904960154166e-03,-6.260998285292198595e-01,4.886282333275178136e-01,-2.941816737434993154e-03,-6.719721456564664575e-02,1.065918534168537775e-02,9.743584990501403809e-01
5.893433191826807915e-03,-7.333679751677076863e-01,4.511284605725138785e-01,1.266463543166366189e-02,-8.835751920935153159e-02,1.113285877673594881e-01,1.065350294113159180e+00
2.338765779053537941e-02,-6.426838633067762929e-01,3.747371623230741355e-01,-6.609860635637011296e-03,-9.025411613524560173e-02,9.007001038787224023e-02,9.219695925712585449e-01
-1.618205426120540580e-02,-6.002809370407241607e-01,5.326298693934744533e-01,-1.525800203676982297e-03,-9.871498082819243902e-03,-1.656116744624157311e-02,9.818597435951232910e-01
9.897737219973418155e-03,-6.117735966269278736e-01,4.269757494622566929e-01,2.112359587241154774e-02,-5.681576417450981409e-02,8.093521358735904225e-02,9.221653938293457031e-01
-3.537160097510626267e-02,-5.811046552857200842e-01,5.785551984304029283e-01,-6.140235543818067798e-03,1.018811319323107041e-02,1.675027902894932197e-02,1.005503416061401367e+00
-2.944851942891346663e-02,-6.021227263344411940e-01,5.861357095944375040e-01,2.465780902268561829e-03,6.708784726341732174e-03,-9.977202737008227570e-04,1.029361486434936523e+00
-3.596623388487697748e-02,-5.890324170638642221e-01,5.917541270183094282e-01,1.413308607241178783e-04,-1.207091282882555901e-03,5.132449424660510615e-03,1.023312926292419434e+00
-3.828153125553322711e-02,-5.773823162795321817e-01,6.023555452054771830e-01,1.786640966277936501e-03,-5.284245705600289049e-03,-1.162947556789124988e-02,1.023187398910522461e+00
-3.165521973297766994e-02,-5.303861497027254623e-01,5.652578990362910893e-01,-2.898657337769934214e-02,-4.949627778027244039e-03,2.544133874950397708e-02,9.525086879730224609e-01
-3.819965129914594526e-02,-5.549444610051712523e-01,5.998111260254336274e-01,-2.679415375755132400e-03,-1.113988936618517250e-02,2.734830731640976523e-02,1.003199577331542969e+00
-1.047280427594303280e-02,-6.042889895077749873e-01,5.393832004043693784e-01,2.797904636561311838e-03,-6.263681518094955068e-04,-1.054538146798635230e-02,9.908738136291503906e-01
-5.743112143694283772e-03,-5.586742453026420918e-01,4.932968030291330352e-01,-1.485691461770158924e-04,6.696865062102037034e-04,-1.306611173213553280e-02,9.117137789726257324e-01
-4.835772322510292071e-02,-5.248974096013185875e-01,5.867435763456199105e-01,-2.201754073282019206e-02,1.752622586494587825e-02,-1.237639659505571695e-03,9.671996235847473145e-01
-3.950359415815536679e-02,-4.945777203012016177e-01,5.521700886025363575e-01,-5.897773162947736719e-05,4.475467066014982009e-03,4.349609508918286793e-02,9.122288227081298828e-01
-8.748185366700356180e-03,-5.987830773921390959e-01,6.114020470289243114e-01,-2.317394317891118341e-03,-1.398825749639325032e-03,2.730178775091127771e-03,1.048180341720581055e+00
-3.939177130054745402e-02,-5.303432723544808658e-01,5.761131837790914867e-01,-9.627528262915802841e-04,-1.076037859434040385e-03,-4.722403231239805099e-03,9.602791070938110352e-01
-1.384434000366308593e-01,-1.728034422163828854e-01,6.317118234279881506e-01,4.433052342556074478e-03,2.869876218590585240e-02,-2.060734776693026044e-02,7.903075814247131348e-01
-1.199095124101751952e-01,-2.255191493423602811e-01,5.473433569684833522e-01,-8.824644258079758496e-03,1.386508225377007866e-02,3.672052537695488783e-02,7.291800975799560547e-01
-1.259448714548272175e-01,-2.419567749285915781e-01,5.702210930847269044e-01,-2.269896716309466322e-02,7.742099718846949530e-03,-1.045013163913703462e-02,7.621827125549316406e-01
-1.261129684566872355e-01,-1.798128836424634502e-01,6.400928428502927758e-01,1.504277137598965079e-02,4.479816684769087100e-03,-1.752419813018664743e-02,7.954624891281127930e-01
-1.187947528082483883e-01,-2.072268113051766170e-01,5.617004935338536509e-01,9.148098116388364565e-03,-9.548679829229064558e-04,-2.069133148701328070e-02,7.298011779785156250e-01
-1.203635322810919783e-01,-1.902968511005679875e-01,5.715541090389362200e-01,1.449276600828043431e-02,-1.575210846761584526e-03,1.196218980995203927e-02,7.301340103149414062e-01
-1.887676257164198207e-02,-6.168881586239404191e-01,6.039460470945612336e-01,5.496807859632344730e-04,-5.799333012165807689e-03,-1.200025586189357651e-03,1.057396411895751953e+00
-3.035146497405259713e-02,-4.955359049776844049e-01,5.954409265974442977e-01,6.175057472533641151e-02,-1.141032235279410261e-03,-1.017181626776615319e-02,9.543978571891784668e-01
-3.999653319069809698e-02,-4.278885829045288580e-01,5.897255252353564847e-01,7.735229595460707541e-02,-1.039775468011503584e-02,3.801225798458043176e-02,9.021549820899963379e-01
-7.399355386207387419e-02,-2.587125855584793133e-01,5.192389603507141516e-01,6.684119318828987688e-02,1.667358112103780460e-02,2.854366684629106379e-02,7.157574892044067383e-01
-3.414264447979005468e-02,-5.109459223283988605e-01,5.779572592956856436e-01,3.576646534022984852e-02,1.651151111952025088e-02,1.965596640409474766e-02,9.485112428665161133e-01
-1.478429483458806176e-02,-6.056409450921614868e-01,6.034110169452069350e-01,4.892661571654666718e-03,1.760742408048231872e-02,6.819844722405767404e-03,1.047703742980957031e+00
-3.227804231430465853e-02,-4.287360127747413818e-01,5.231732701474218761e-01,7.612603812410247139e-02,-1.825114241619056957e-02,1.861279013188466697e-02,8.398466110229492188e-01
-7.633506376739501720e-02,-2.710375061296184107e-01,5.770813678610349218e-01,8.590978986613101442e-02,-1.556291659203756089e-02,1.240098487930601893e-02,7.844828367233276367e-01
-7.462324439126326314e-02,-3.748896514465969720e-01,5.689176400562504510e-01,5.474407931867629473e-02,6.545027890216427620e-03,5.620790420431442252e-02,8.462480306625366211e-01
-8.642625665004455282e-02,-3.637176734638081776e-01,5.894814342749267189e-01,-4.525024801778810418e-02,-1.499049837153719131e-02,4.719105833166239300e-02,8.571248650550842285e-01
-6.213779610235715956e-02,-3.697779400276582362e-01,5.406597958547424421e-01,-6.183294436647748110e-02,1.219754474586591704e-02,2.283599615540129329e-02,8.105139732360839844e-01
-1.065200674634835254e-01,-1.467182610584188696e-01,5.400396763465382666e-01,-6.827298673868026357e-02,3.204949363183975941e-02,2.238645780279872877e-02,6.813328862190246582e-01
-7.723165228828383910e-02,-4.872679356726622446e-01,6.218133065523722136e-01,-9.740275768078487939e-02,-7.520531351358285569e-04,-1.967748879391668926e-03,9.858512282371520996e-01
8.922907059970813792e-03,-6.270639259979277069e-01,4.487419386150572898e-01,1.355893151517816681e-03,7.828040167564399854e-02,4.117163058491124517e-02,9.492699503898620605e-01
-2.685672644888111027e-02,-5.090174545122725380e-01,5.431858697202985864e-01,4.862748846345390369e-02,5.299837463030420380e-03,-2.118903521111208457e-02,9.169541001319885254e-01
-1.709077922139009761e-02,-6.285888573294392545e-01,5.759000906340266956e-01,2.636497446678050683e-03,1.506864859315358747e-02,6.596429735610001739e-03,1.043558120727539062e+00
-3.634713140019854571e-02,-5.877615456422743412e-01,6.020620023179776847e-01,-4.988948168691378812e-05,8.724453760293618063e-03,-5.053144812371341069e-03,1.031482934951782227e+00
-1.108201826509224441e-01,-2.172983745470881134e-01,5.576694133222128702e-01,3.376508807015122550e-03,2.611906400156109934e-02,8.188939648303120156e-02,7.426937222480773926e-01
-1.102872908449424594e-01,-2.107407584136516410e-01,5.800209376757452517e-01,3.986382283719248215e-02,5.932734572107567321e-03,5.190271342095857665e-02,7.542644143104553223e-01
-6.814748600028125436e-02,-3.944708301606341116e-01,5.696278848536909800e-01,8.604502481382650392e-02,-1.018749753584979011e-02,-3.257255669733417208e-02,8.643326163291931152e-01
-7.242558619453552671e-02,-4.154099137650394402e-01,5.633351710385253730e-01,5.215436002392963982e-02,3.377471121984704835e-03,-8.432532887389982204e-03,8.650397062301635742e-01
-6.797921436504328341e-02,-2.676062522138665800e-01,5.246413083694042578e-01,1.520355786478917032e-02,1.105752163899248811e-02,5.145597123061733565e-03,7.144877910614013672e-01
-1.074280938601563373e-01,-2.912182874919227449e-01,5.732746936253318992e-01,3.002865117929012437e-02,1.771135074979350230e-02,-5.854276939457838183e-03,7.911957502365112305e-01
-1.125817619366910605e-01,-2.458618620565365953e-01,5.860221655274790997e-01,7.167433913283478321e-03,4.349372102192409356e-02,2.669363300374689215e-03,7.776706218719482422e-01
5.275609993190993885e-02,-5.970326273229874525e-01,2.630017053993599641e-01,-2.923154897756116699e-02,5.889537509518232017e-02,2.998189841504699318e-02,7.865812182426452637e-01
-1.130764743037334652e-01,-2.901821991044604143e-01,6.258511253436506161e-01,3.367669596916098018e-02,-1.823872803038052107e-03,2.376878697616689393e-02,8.446040153503417969e-01
-2.595258533639237253e-02,-6.219198507315564228e-01,5.904116354618639262e-01,2.283548290462335435e-03,3.707645337612969130e-03,3.565497688261867466e-04,1.049986720085144043e+00
-2.851606584383740983e-02,-5.989034893406068871e-01,4.623991392175940129e-01,1.153875624913329803e-02,-4.850056879426296180e-02,1.310296860220762187e-02,9.242958426475524902e-01
-3.263340217422673606e-02,-6.185382817734945693e-01,5.627125221810197475e-01,8.400840611217898907e-03,-8.457608206738373088e-03,9.987158707781291361e-03,1.023358702659606934e+00
-3.065337045455676646e-02,-6.211368390601386125e-01,5.959780170964963375e-01,3.131576106454262570e-03,-3.321137286588426996e-02,6.779353850799095353e-03,1.055854797363281250e+00
-4.609610390403442309e-02,-6.135639316162293522e-01,5.816556733784665756e-01,1.115959766458530893e-02,-2.961997614615000801e-02,1.358702858080965831e-02,1.037246584892272949e+00
-3.284338602487450742e-02,-6.197096544437495913e-01,5.743655997647625355e-01,-1.167347097284166592e-04,-1.873617919665718223e-02,1.136336446485809205e-02,1.034845829010009766e+00
-3.511626030539320709e-02,-6.211052068385631841e-01,5.688519909816215359e-01,1.348725215377447051e-02,-1.558015637070397398e-02,6.291632368966321165e-03,1.031247854232788086e+00
-3.179560287601683466e-02,-4.886139039022939778e-01,5.825571696848883541e-01,-3.942876018397190041e-02,2.656325691561169447e-02,-4.615679925781004944e-02,9.380468726158142090e-01
-2.137494740751693517e-02,-5.968197988174730462e-01,5.599794216904153688e-01,6.558891592852672189e-03,-1.341269111182599727e-02,9.061942395885884752e-03,1.002278447151184082e+00
-2.771755503239900845e-02,-6.046539735108499292e-01,6.296246793273834186e-01,-6.925347903469460109e-02,-2.345069880005407927e-03,3.873745363770059180e-02,1.078473687171936035e+00
4.696096218235851216e-02,-5.935241502854551321e-01,3.335199700184633409e-01,1.087276238066766515e-02,-4.781069405991784926e-02,1.474707553730717456e-02,8.268849253654479980e-01
-2.256004202651998303e-02,-6.336159851586983249e-01,5.493278929465863492e-01,1.166962235940647609e-02,-4.494921574389956070e-02,3.941314308549057760e-02,1.030063509941101074e+00
-1.994790552082475327e-02,-6.132309571142883220e-01,5.706232917806148830e-01,-3.512034300484645488e-02,-2.453133066770903613e-03,-3.281136201718617973e-03,1.027076244354248047e+00
-8.250891217568299962e-03,-6.014807763985983158e-01,5.305887210657936892e-01,-2.313630957136287008e-03,4.667488532326175346e-03,-6.004670063122524715e-03,9.808747172355651855e-01
-2.860355124199519608e-02,-5.566171637848441600e-01,5.539899334143423282e-01,-2.794446678699047740e-02,-1.205301145588055615e-02,1.229317364460784639e-03,9.636461138725280762e-01
-3.181446941732959943e-02,-5.543069682655864527e-01,5.808896910072796071e-01,-2.606241681428502974e-02,-4.747380946083932379e-03,1.161716659059556025e-02,9.854178428649902344e-01
-2.148073765293041434e-02,-5.546489329338236685e-01,6.038243723668662577e-01,-1.812152682198921866e-02,8.121500978296088483e-03,-1.381913899111382633e-02,1.005198240280151367e+00
-1.239143344826640902e-01,-7.859018933786357519e-02,5.842042841981998080e-01,-5.910938724211368261e-02,1.251918828236382383e-02,-6.499422785824210402e-02,7.035738229751586914e-01
-1.281011264995424170e-01,-1.544428806046844183e-01,6.177468848508211874e-01,-9.321436937600640141e-03,1.737225827776924664e-02,-1.319256075057647325e-02,7.604724168777465820e-01
-1.458331034451615105e-01,-2.037671800429817215e-01,6.174455117122227277e-01,-4.876080002182881651e-02,4.295874745330038880e-02,7.590389537788229390e-02,8.124800920486450195e-01
-1.378108084475420103e-01,-5.048185909204369604e-02,6.317984203438737900e-01,1.617722438443473104e-02,2.865720248590789693e-02,3.970432374455728358e-02,7.353187203407287598e-01
-1.573561450207401902e-01,-4.793883518989539017e-02,9.427981704909650373e-01,1.043870277537570224e-02,-7.554106728652031089e-02,-1.314633393234927727e-01,1.082233667373657227e+00
-1.337615459778782601e-01,-5.397983406719170096e-02,8.811996649782938285e-01,1.083251824101265186e-02,6.199703501097313108e-02,-7.545359003194536396e-02,9.922190904617309570e-01
-1.373617192562319733e-01,8.923385334492939247e-03,6.199102655184376420e-01,8.451217943690076187e-03,2.411063320162509099e-03,-7.420840774586322242e-02,7.076969146728515625e-01
-1.281911560977256892e-01,2.114722722274392508e-03,6.337500510630591499e-01,4.997813963408685722e-02,-5.858675349657470333e-03,-5.033003669927221119e-02,7.165502905845642090e-01
-1.346834634466909097e-01,-1.141974831991313943e-01,5.876037040390567068e-01,2.297977493794969850e-02,7.952898950492484978e-03,7.489567900905980125e-02,7.252059578895568848e-01
-1.210101386258674860e-01,-1.356601891617991440e-01,5.492039970553932449e-01,2.043375632902770869e-02,8.362160900871880992e-03,-4.445482161138738370e-02,6.830895543098449707e-01
-1.049121044048982598e-01,-1.177005716866504903e-01,5.269313278752312257e-01,5.965051988325947158e-02,5.586965224084752650e-03,-8.266631822200430982e-03,6.468718647956848145e-01
-2.621174542832826679e-02,-4.805574877852284987e-01,5.015908827559053540e-01,5.211339882880421104e-02,-3.723871493074536881e-02,-2.233102106708739765e-03,8.585645556449890137e-01
-2.713225342850440758e-02,-5.788608115247511066e-01,6.068831782999338786e-01,3.655643959899805562e-02,6.110835789952326000e-03,1.903612292386968469e-02,1.030239105224609375e+00
-3.003265157866726737e-02,-5.635654603914699301e-01,5.760947268784974984e-01,2.606301528257336589e-02,3.431863639823446235e-03,8.103207890753178974e-03,9.887905120849609375e-01
-2.639103494387781690e-02,-5.827524320909496236e-01,5.918230652197457031e-01,-1.301415888683265859e-03,9.265096824724695229e-03,6.206754910751417949e-03,1.017868041992187500e+00
-1.335663237847171253e-02,-5.851661246185796417e-01,5.770022126597004197e-01,1.561221807816835609e-02,5.692860619475535212e-03,1.041099778539255304e-02,1.007082939147949219e+00
-1.196307702909159797e-02,-5.891014266633004537e-01,5.905001927767183911e-01,4.983025331341291511e-03,1.373576643119331191e-02,6.309606079454539024e-03,1.022015333175659180e+00
-1.966755149416842680e-02,-5.266104530101834991e-01,5.875481128887954929e-01,1.175676235909197676e-01,8.341948595218985629e-02,-7.005665858728038486e-02,1.005282163619995117e+00
-1.218131652827934841e-03,-5.351436238700011394e-01,6.785898535597989500e-01,1.048233396779603699e-01,-3.951999042876350871e-02,-6.773728944994961143e-02,1.077773809432983398e+00
-1.460589389954104061e-02,-6.467491956327510172e-01,6.706712441882539677e-01,4.481560200031668717e-02,1.340070304157812801e-02,-7.156672038954940696e-02,1.150796532630920410e+00
7.054628035289031707e-02,-6.188154134595308387e-01,2.771314683725565331e-01,-3.811222766422313335e-02,1.363562383387438570e-01,7.268765547924781190e-02,8.580769896507263184e-01
-2.132475631058266402e-02,-6.036607122324221253e-01,6.658572613897336678e-01,4.522699353969144437e-02,1.366044093196785818e-02,-6.205126597850387643e-02,1.108942031860351562e+00
-1.707689858453983675e-02,-6.217373082572655862e-01,5.431257929077222268e-01,-1.005176378774369321e-02,-9.410475159002711781e-03,1.578764931976779032e-03,1.009331464767456055e+00
-2.377674565583320215e-02,-6.332797257809764657e-01,4.995240102789260117e-01,-7.720575265298086154e-04,-8.497746029338598683e-02,-2.357885577931406393e-02,9.937927722930908203e-01
-1.739643972657173299e-02,-6.048957531119145692e-01,5.307507001546750702e-01,2.501947311723529827e-02,-4.732955467776771979e-02,2.435698180343992200e-02,9.889563918113708496e-01
-1.519998534433085989e-02,-6.185090961753848537e-01,5.575552930105567295e-01,-9.317980845378034949e-03,-9.767779470325808986e-04,1.035236470847729004e-02,1.018903255462646484e+00
-7.741710575958897500e-03,-5.430979852503173833e-01,4.712064494229227241e-01,3.424654560811148801e-02,-4.697717575988887700e-02,6.311425777399769406e-03,8.846830725669860840e-01
-1.806095491162545280e-02,-5.852193590235783560e-01,4.427066215395347171e-01,2.045457768022467676e-02,-1.318338273451559739e-01,-9.032067179728884079e-03,9.213815927505493164e-01
-2.407289485714979999e-02,-6.275165924076618884e-01,5.804527728624614413e-01,3.775623161224234137e-02,-1.119554303718783839e-01,-2.880554459264356854e-02,1.067127346992492676e+00
8.477963020979521758e-03,-6.130420850944227062e-01,4.827624773954829474e-01,2.915075999136608345e-04,6.186239096328885467e-03,1.470100885244367273e-02,9.522466659545898438e-01
-3.568816447168823847e-02,-6.126466780364834275e-01,5.419435612305858463e-01,-1.676811122814606328e-02,-4.037286622688870258e-02,1.300703721076399734e-02,1.003020405769348145e+00
-2.965448793153031490e-02,-6.165271842920833079e-01,6.055471605183234685e-01,9.219205992532272093e-05,4.405821371291966659e-03,1.516553392280788927e-03,1.058654069900512695e+00
9.969142218152704515e-03,-6.085609802816630554e-01,4.307092909824109528e-01,3.049971444585174857e-02,-4.112178615164578666e-02,-6.815797689370781121e-02,9.174107313156127930e-01
-6.500107625435685987e-02,-6.407878328720705285e-01,6.621839469134154221e-01,-5.991004426796430957e-03,-2.949510711260235410e-02,-8.123112743501075417e-04,1.132144689559936523e+00
-3.791037919527392996e-02,-6.257112188850340040e-01,6.616699104561161171e-01,2.224062733119865120e-04,-8.537524021700272983e-03,1.232850272281986112e-02,1.116606950759887695e+00
-5.671002590568516299e-02,-6.411712084365154274e-01,6.637111830859749873e-01,1.270514421671423491e-02,-2.890562917691610195e-02,3.049695297556762053e-02,1.134654521942138672e+00
-3.933738128937766532e-02,-6.532447678271525726e-01,6.661320247038108322e-01,-8.086201837943394685e-03,-1.095765701454962798e-02,3.863036992179529321e-03,1.143793463706970215e+00
-3.711363658281785494e-02,-3.907934773626047797e-01,5.680483928888508949e-01,1.291038904102054796e-01,2.723120566505038767e-02,5.737382516518890058e-02,8.760407567024230957e-01
-3.091580309479565261e-02,-5.627661469330291766e-01,5.904569448283242261e-01,2.736820387285948328e-02,1.766327293740233353e-02,2.707311417308154097e-02,1.002411127090454102e+00
-7.162596970656995299e-02,-3.112803280489178093e-01,5.613386103420661133e-01,7.638295218277875442e-02,5.385111741832914259e-03,1.267787176193865654e-02,7.923656702041625977e-01
-5.953891795282052757e-02,-5.937412696938645373e-01,5.423523160658677567e-01,2.287773991994692876e-03,-8.032417163058672496e-03,1.504555343475331118e-02,9.849189519882202148e-01
-6.758442631090330610e-02,-3.720825452244443388e-01,5.718203742342797824e-01,4.900979748393991670e-02,1.592309296075649847e-02,2.044189348987720048e-02,8.399257659912109375e-01
-3.424410613681184296e-02,-5.079819712505111440e-01,5.866464681503721357e-01,2.794376111024507101e-02,1.686891470031971416e-02,4.677915253328216588e-02,9.559462070465087891e-01
-7.299698723824010749e-02,-4.790618938118960113e-01,5.984672246613587099e-01,-5.912076491885935245e-03,1.875038496172951388e-02,2.267216277424768597e-02,9.439876079559326172e-01
-5.129339466883000437e-02,-5.893879640206144410e-01,5.089253322455631334e-01,1.068912844507344945e-02,-3.656267459436629563e-02,1.280893613918508353e-02,9.537751078605651855e-01
-4.594996991246444451e-02,-6.200307251164781652e-01,5.796072425159565222e-01,6.720709433103265983e-03,-8.670599796241164336e-03,6.330672163605052978e-03,1.039467215538024902e+00
2.032065724184934849e-02,-6.143878455760183321e-01,6.009466498240532140e-01,-3.419672661465708585e-02,1.975783039407698512e-03,1.447326552211916466e-02,1.054826140403747559e+00
-6.028139398301643470e-03,-5.478739715486238282e-01,6.373066325256898645e-01,-8.381723366396741370e-02,1.235356550917624495e-02,-4.194096159614156549e-02,1.040613174438476562e+00
-3.438665149873336435e-02,-6.346709532260876863e-01,7.191490576761384590e-01,-3.812150294328926076e-02,-1.867645333308989505e-02,-3.861833617141227637e-02,1.179140925407409668e+00
-3.508646828423389596e-03,-5.606773237253045439e-01,6.372785936593464706e-01,-8.413666338774868081e-02,1.239388907710531687e-02,-4.714754333732047720e-02,1.051873683929443359e+00
-2.546980089011724110e-03,-5.996099904067438979e-01,6.121211469571371522e-01,-5.491791506134866691e-02,8.800997023458033766e-03,-1.664560229653486807e-03,1.053843140602111816e+00
-4.345126962787690394e-02,-3.212888469150310677e-01,6.317165259820861634e-01,-1.225384079549266952e-01,2.025814271614746059e-02,6.415914319326448956e-02,8.827568292617797852e-01
-6.883931372561789830e-02,-8.277739980301417333e-01,7.693659668540923091e-01,-2.722235575858277246e-01,3.919310143334544388e-02,2.596988566381211103e-02,1.464124917984008789e+00
-4.806761075063784028e-02,-6.530873912480846810e-01,7.266103815904463303e-01,-1.411687994023901049e-01,-2.085763539737625627e-02,-5.651858321844043659e-03,1.223134160041809082e+00
-2.342678817933906144e-02,-5.350971057213149695e-01,6.087202857687404878e-01,-4.878373479751399455e-02,-1.285036272754832426e-02,4.600997667234993371e-02,9.994263648986816406e-01
-2.315035856409293144e-02,-6.138664969776328473e-01,5.460435512311799799e-01,1.284387586652557638e-02,-5.204510736716885105e-02,-1.073920891736244825e-02,1.009022474288940430e+00
-5.584986937832894793e-03,-6.154928006601159129e-01,4.950565503939466927e-01,-4.539033245025130871e-03,-1.899266372150103938e-02,-2.171380073916492556e-02,9.646414518356323242e-01
-3.721883850848086567e-02,-5.955543249572075037e-01,5.157100879842196894e-01,-6.623762525745617233e-03,-1.757182313825856809e-02,-9.320750693171493337e-03,9.630718231201171875e-01
-4.328222199458594405e-02,-6.025638271772919552e-01,5.324476843409031712e-01,-1.102659705700091176e-02,-2.834407087455261334e-02,-1.067407757815746691e-02,9.845672845840454102e-01
-2.107973958974425008e-02,-6.151308848802988782e-01,5.316638927273791282e-01,-8.384113176546104454e-03,-7.478920297298559915e-03,-3.267012002424687315e-03,9.935748577117919922e-01
-9.827072948473236647e-03,-6.084573769489551864e-01,5.246389373922988320e-01,2.833100244387082474e-03,-1.120318055875359209e-02,1.060311404689482512e-02,9.821901917457580566e-01
-1.305078774650148682e-02,-6.391275129039053482e-01,4.722514139395858068e-01,-3.113935932381333219e-02,-5.035786980171335497e-02,-2.437066432607719324e-02,9.714037179946899414e-01
-1.895305363587289696e-02,-5.952026328588279069e-01,4.846018831666164539e-01,3.927285731940252959e-04,-4.732370842549103729e-02,-8.366144580335971173e-04,9.394283294677734375e-01
-2.824655948064701966e-02,-5.920156251957312543e-01,5.743544231380108833e-01,-1.705440939309454344e-03,-9.549829362964248197e-03,-4.033447087258538837e-03,1.010456562042236328e+00
-1.270191648588644973e-02,-6.288766484996773931e-01,5.446956444368102890e-01,5.684798110773859074e-04,-1.315995484841803870e-02,5.147084389569872576e-03,1.017063260078430176e+00
-5.414437024120390823e-03,-6.231244495907549696e-01,6.255840619418564508e-01,1.143416392710284307e-02,-5.356026852258871825e-03,-3.025647031088924636e-03,1.081667542457580566e+00
-4.758222625824626816e-03,-6.059415797900576939e-01,5.934379081540699374e-01,1.265824963359775445e-03,4.127378755292891938e-04,-2.613501737611901524e-03,1.038706660270690918e+00
-4.968380757512144696e-02,-5.914793114430505483e-01,5.399490260151175169e-01,8.025602187784674699e-03,-1.900619379439602574e-02,5.801551206808071813e-03,9.808402657508850098e-01
-2.015597641942799487e-02,-6.142221748423781769e-01,5.639985852458190285e-01,-2.951432472669554899e-03,-1.110266127674808950e-02,-8.674508247888721530e-04,1.020576238632202148e+00
-2.825228410787165162e-02,-6.110282232336515795e-01,5.524014414372619974e-01,-1.972755392011061454e-02,-1.528152164993959103e-02,-1.050751018363669902e-02,1.008651018142700195e+00
-1.308860703607090184e-02,-6.150818679310884329e-01,5.351468858718341215e-01,-3.014081240132318595e-03,-9.142849027244435642e-03,6.495188590853647088e-03,9.966928958892822266e-01
-1.885433270440424122e-02,-6.030515003062463242e-01,5.841272379811874860e-01,-4.187166593126748215e-03,7.920758789520258164e-03,3.680132142363645633e-03,1.028306722640991211e+00
-2.279062797896022619e-02,-5.605759673590792191e-01,5.685047732171338852e-01,1.818641675201000674e-02,1.108531416299745167e-03,1.683878433891649803e-03,9.786918759346008301e-01
-9.728987379763133839e-03,-5.610850534350458885e-01,5.881729339427852477e-01,3.286966592010040489e-02,-7.318246783604217577e-03,-5.909029801334010103e-03,9.973182678222656250e-01
-2.861145261372413304e-02,-5.558043301415110937e-01,5.877108919660597453e-01,1.792371944358165867e-02,-6.910282567230095589e-03,7.672705915541532494e-03,9.919626712799072266e-01
-2.212509607000474887e-02,-4.197878588722983584e-01,6.031117145500812793e-01,1.198403990386530810e-01,-2.996277473954716067e-02,-2.958202710545459677e-02,9.198336005210876465e-01
-3.153952224620171219e-03,-5.584208120034168665e-01,5.883396001741919568e-01,4.355137275194465724e-02,1.436318915455496795e-02,8.816838299526896794e-03,9.965766072273254395e-01
-1.694580270475659275e-02,-5.304700487674746112e-01,5.802688787375854806e-01,2.143672882394676710e-02,3.109495485329490886e-03,-1.036654036002976863e-02,9.637358188629150391e-01
-2.521999041231197045e-02,-5.582231955636209886e-01,5.933420409728294986e-01,5.141078430460939430e-02,1.147944334677401292e-02,8.108764617118161336e-03,1.002461314201354980e+00
-5.708182487363273883e-04,-4.943831444557773569e-01,5.768983352668822784e-01,1.104380655891545743e-01,8.658163454512800630e-03,4.619292354932193201e-02,9.516819715499877930e-01
-1.499662634627593749e-02,-5.781681327118032288e-01,6.037063128610318241e-01,1.227850657035156751e-01,-2.996675519298308554e-02,4.746008331476312542e-02,1.050271987915039062e+00
-4.083245982209441488e-02,-6.398544701547304037e-01,5.451082301003211672e-01,2.843502083889113546e-02,-1.153048917004376311e-01,1.372888499423997009e-02,1.046910643577575684e+00
-5.170626820442219412e-02,-7.034179259085038272e-01,5.632036912472577761e-01,-1.367011974966466509e-02,-1.431244056060472780e-01,-4.126626452841924107e-03,1.125011920928955078e+00
-6.048361469293567216e-02,-6.438110953383612278e-01,5.891194291359028723e-01,-2.876082890021629170e-03,-4.711992487882666475e-02,5.955900976259120502e-03,1.071437597274780273e+00
-6.810006538662141673e-02,-6.075465210095100099e-01,5.639428871505451912e-01,4.597903060053638684e-03,-6.381177881004872210e-02,1.232358739042086274e-02,1.021845817565917969e+00
-4.444756848211838668e-02,-6.207876111309156286e-01,4.833615287810696381e-01,1.188798142058638055e-02,-1.541579375976880606e-01,4.874111370925147263e-02,9.968916177749633789e-01
-5.554712065564022805e-02,-6.155777068976363564e-01,5.625950131881637395e-01,3.730749177118805084e-03,-6.447472358011302473e-02,1.183703240391056379e-02,1.027056694030761719e+00
-4.980807000945747937e-02,-5.872518700666446989e-01,5.200754568562284685e-01,-4.873292760477126247e-04,-3.351793464307696504e-03,1.286492529635252079e-03,9.591313004493713379e-01
-2.833213779166584428e-02,-5.838680275057811508e-01,4.235270783006998552e-01,5.434797091928013704e-03,-7.578865860334042803e-02,4.653456959567748435e-03,8.838587403297424316e-01
-4.557259367885531376e-02,-5.950892991148135636e-01,4.937476472299326957e-01,-2.305474478139240180e-04,-5.239577605144632444e-02,2.073440054939869673e-03,9.473380446434020996e-01
-1.854438859462615927e-02,-6.238942657080978060e-01,5.972206436537700336e-01,-8.622516905664661746e-04,6.527353847873122901e-03,7.973814160993877159e-03,1.057680964469909668e+00
-1.580892431487422936e-02,-6.279557267936570764e-01,5.974484778402637808e-01,6.735453821964732576e-04,2.650266286251309195e-03,9.623037522635168517e-04,1.061243176460266113e+00
-2.182827509430315671e-02,-6.319811149491812996e-01,5.952019428057637729e-01,5.592254136720118361e-03,5.840088360054837731e-03,1.203344334418447433e-04,1.062869548797607422e+00
-3.158560881616703786e-02,-6.287017824122278498e-01,5.970723555158647944e-01,8.239432102826906371e-03,8.214600720395694991e-04,4.689872358539154407e-03,1.061796665191650391e+00
-2.853780359942642911e-02,-6.268284346845766075e-01,5.956788306434487312e-01,6.868506369692310752e-04,5.126560554094201569e-03,4.829622820989904093e-03,1.058872699737548828e+00
2.203794485998733857e-02,-5.162998901733247825e-01,5.605389765520463197e-01,3.979097435056161251e-03,8.621914811127928333e-03,-1.103546821767249905e-03,9.327167868614196777e-01
-1.404725693783795415e-02,-5.939742685998756766e-01,5.658707948377686980e-01,-1.143251687782330210e-02,2.653069727915215864e-02,4.209409637041868629e-02,1.008340120315551758e+00
-2.500973807178710762e-02,-6.259633223035423466e-01,5.899844986154427762e-01,-8.822940925509743099e-03,5.539542275341479381e-03,6.813785592226417800e-04,1.053220391273498535e+00
-5.338505271539567554e-02,-5.881624292519128661e-01,5.344855893634460342e-01,-2.871665157586127982e-03,-1.070443344088838761e-02,-2.213225290750492780e-03,9.728010296821594238e-01
-2.744344930856121995e-02,-5.445139700318810672e-01,5.636454100722377847e-01,-7.868805264559292426e-03,-3.966319930912189616e-03,1.050007001270469344e-02,9.607009291648864746e-01
-2.542747319767628411e-02,-5.988590361598221667e-01,5.808321630767657728e-01,-1.005461031553809420e-02,5.678459043141191424e-03,6.021140182287890857e-03,1.022023320198059082e+00
-2.941842117341096977e-02,-5.973450262203170436e-01,6.008894673371469874e-01,-8.149010265598782485e-03,-1.077968385587168860e-03,-7.757103508662698335e-04,1.038268685340881348e+00
1.002855605111532267e-01,-6.813216124448723265e-01,2.133086080532682893e-01,1.389489218438570185e-02,-7.452291792969874262e-02,1.017183113527851263e-01,8.719539046287536621e-01
5.938389181907080538e-02,-6.993403771547446190e-01,3.143451660935675518e-01,-1.673299176654023494e-03,-6.121069852862490168e-02,-6.233960741424877418e-03,9.194989204406738281e-01
2.087410678927842378e-02,-6.930409287163087351e-01,3.609028713460870619e-01,-1.163540535957229699e-02,-1.370175029158826330e-01,2.109481314139480604e-02,9.623452425003051758e-01
1.179082716676789766e-01,-6.748043121431211988e-01,7.589908515153870328e-02,1.988881276384974611e-02,-1.590964319550885742e-01,9.164951490322259531e-02,8.361682891845703125e-01
1.381148528168636425e-01,-6.543303384394915101e-01,5.615926923291403305e-02,-2.613640708273810842e-02,-7.658007062984098501e-02,-6.779994901902564042e-02,7.766428589820861816e-01
1.818548274404779841e-03,-6.066850190781891694e-01,3.758473846408824093e-01,8.712539401479603516e-04,-1.452181437543691722e-01,3.392487435011665858e-02,8.969347476959228516e-01
-3.873604810060055081e-02,-4.219273329659618543e-01,5.626592520850011159e-01,1.078927573273317092e-01,2.990242384914754831e-02,5.843360618902387893e-02,8.870229721069335938e-01
-3.063249229123493969e-02,-5.969947917642723922e-01,5.856379950352300634e-01,1.498828057969335201e-02,2.232503502234384988e-03,1.595020528011419775e-02,1.025202393531799316e+00
-3.029063174516499757e-02,-5.855720067741803092e-01,5.736143850101904640e-01,-4.484095606891803747e-03,1.437192339795762171e-02,2.366052567119764430e-02,1.005353331565856934e+00
-2.320548992781302361e-02,-5.711045580570737190e-01,5.652084326776048995e-01,9.742473582101774526e-03,1.658338145370439080e-03,1.897916605693307154e-02,9.849819540977478027e-01
-1.511220783010965019e-02,-6.236926935438787956e-01,5.717936231224927113e-01,1.444565412227696681e-02,-5.708048731720890764e-03,1.849520644129124328e-02,1.036222934722900391e+00
-1.700547041910444729e-02,-5.765997267695170958e-01,5.154143836033397985e-01,5.347671977009194055e-02,-3.616039606316810012e-02,1.122089373123976580e-02,9.525940418243408203e-01
-2.335395300710321059e-02,-6.072294541153364644e-01,5.811760046253121592e-01,-5.448971551039704687e-03,2.971467045459656210e-03,-1.003983714640481126e-02,1.029444098472595215e+00
-1.707774137761377056e-02,-6.033216975443682628e-01,5.672844954562816788e-01,2.035934205075997944e-03,-3.859472870348026365e-03,4.465780904797884976e-03,1.013832807540893555e+00
-1.685673938388738274e-02,-6.108651831819775779e-01,5.575225472831935036e-01,-4.684743021096969551e-03,1.209491840356326751e-02,8.015731256100363036e-03,1.012245655059814453e+00
-1.520388296614113774e-02,-6.256360410236835312e-01,5.650111793192483800e-01,6.638835383405480156e-03,1.425564359294975193e-02,-1.316611889984609443e-02,1.031853079795837402e+00
-1.839776022204205747e-02,-5.710524724283363440e-01,5.371379977798911298e-01,1.117142040353802553e-02,2.563306399090052676e-03,-1.558367435473561463e-02,9.603068828582763672e-01
-3.116184930781072324e-02,-6.164913703397624234e-01,6.099768460719779961e-01,-6.438142416456071014e-03,-5.773734153523764866e-03,-1.792464863529929977e-03,1.062629222869873047e+00
-4.121792067481841459e-02,-6.276431795585931672e-01,5.968897928399586883e-01,6.205709277859590379e-04,5.765343835767196799e-03,-7.510420080528534279e-06,1.060839056968688965e+00
-3.048276095054495635e-02,-6.243751017250509516e-01,6.009436471927684931e-01,-2.094287208916665449e-02,7.894357317765993490e-03,2.089996083962512071e-04,1.062030911445617676e+00
-3.022711233020527327e-02,-6.064300294740828656e-01,5.861491411253048067e-01,-1.759051728696032308e-03,5.135804605744552498e-03,-7.331787704495270046e-04,1.033042788505554199e+00
-3.002757724052069338e-02,-6.050697708849187562e-01,5.928625467213982647e-01,-3.393070057264217874e-03,-8.434101816436065727e-03,-5.517734889173808201e-03,1.037879109382629395e+00
-9.465211686935799326e-03,-5.935953388319755719e-01,5.930624235486429141e-01,8.130207142508760407e-03,-8.410524313089131829e-03,-1.348040947059315348e-02,1.028181791305541992e+00
-1.858058481402774520e-05,-5.995910717704137083e-01,5.839197313522690447e-01,1.150900614103458203e-02,9.507268531017382118e-03,3.722518601854122276e-03,1.025326609611511230e+00
4.678702793473800414e-03,-6.793557610445865036e-01,7.469938165348745107e-01,1.435512181111932573e-01,-2.152426463550496591e-02,-3.973815046813706890e-03,1.260936975479125977e+00
-1.758517973939900669e-02,-6.047430544549252662e-01,5.963397040988273057e-01,-1.945813692022054257e-03,4.018710419232041434e-03,-3.623863822131886177e-03,1.040301918983459473e+00
-3.988383449395221415e-04,-5.995267853908445854e-01,5.914483153397003257e-01,-1.602508447660986723e-05,5.539351360913239049e-03,6.035800452917880520e-04,1.031466245651245117e+00
-1.462409283042743341e-03,-6.289459825731763543e-01,5.367529600632792164e-01,8.058945641963024490e-04,-9.124370848139620738e-03,6.297655847471301561e-03,1.010694503784179688e+00
-7.858522065720737609e-03,-5.880748455470792280e-01,4.939702009390433135e-01,8.361877855625682917e-04,5.843196569422122455e-04,-1.902136501549055517e-02,9.384779334068298340e-01
6.908579700234868115e-03,-6.161651326437707077e-01,4.380126461450905562e-01,8.314388713279099660e-03,-6.399431642477879101e-02,3.303631972454991461e-02,9.265249967575073242e-01
-1.689706499639227408e-02,-5.976248480802635044e-01,5.018635541914947540e-01,-9.369926694773869288e-03,-4.624720638941688666e-02,4.853961488095164499e-03,9.562251567840576172e-01
-5.565626962165427793e-03,-5.910299491939370320e-01,4.884125972147507211e-01,-3.955650426532238140e-03,-3.212173318625183294e-02,-1.626103135200025404e-02,9.380432963371276855e-01
-2.939995977542954678e-02,-6.225466863278596996e-01,5.116674448030356093e-01,-5.027409161802693684e-03,-8.121765668671691862e-02,-2.145248623317664444e-02,9.933552742004394531e-01
-1.547252807531582230e-02,-6.290199876201381102e-01,4.617553310116990772e-01,9.186252212679076393e-03,-1.483639774304787440e-01,6.642355529485259146e-05,9.814670681953430176e-01
-1.777310003888606105e-02,-6.317955621622023399e-01,5.388270496401995624e-01,1.163609733209636753e-02,-6.016964238216669647e-02,-1.512580569364516646e-02,1.020071625709533691e+00
-4.500401647642595510e-02,-6.343265192777391981e-01,5.517542957174136342e-01,-1.792576315759489627e-02,-9.569361847125799903e-02,-9.180435981803808853e-04,1.040933728218078613e+00
-4.133010776842088729e-02,-6.243467413466200489e-01,5.583004663276734947e-01,-7.083954874680310765e-03,-6.862781111440642567e-02,-1.796780156679271545e-02,1.031653165817260742e+00
-3.764733745748134741e-02,-6.075578166981918660e-01,5.338224639121956772e-01,-1.418519571582865096e-02,-5.247598888981341858e-02,-1.826279061117460842e-02,9.934423565864562988e-01
9.124364862806016996e-04,-4.161953709545723190e-01,5.883022703654161578e-01,7.226128790217552222e-02,1.008897090535493778e-02,-1.014552854073576781e-02,8.833401799201965332e-01
-2.050603015907784960e-02,-4.384289136139975507e-01,5.663619910913006983e-01,4.329516854182641206e-02,1.188947673014688171e-02,-5.131433606044006994e-03,8.777617216110229492e-01
-7.378128006674603001e-03,-4.387389974006115079e-01,5.914931576025211912e-01,1.420047636305784844e-01,-8.484654004174425890e-03,1.798332155701271896e-03,9.293924570083618164e-01
-5.737182095710056939e-02,-5.912666100491077437e-01,5.345862411070356757e-01,-7.292413022895606611e-03,-2.828018031240880914e-02,-1.483224351180939711e-02,9.770978093147277832e-01
1.766616504417227104e-02,-5.483817975211339180e-01,5.857128384035078517e-01,7.542419090900877310e-02,8.834708732243039785e-04,-8.085588909469603250e-03,9.909055829048156738e-01
2.119032360390936398e-02,-5.688845119014487306e-01,3.956793708143594435e-01,-1.488330619668990114e-02,8.054400887222981642e-02,-1.928957264774763813e-02,8.547804951667785645e-01
-2.170343461566127952e-02,-6.178252751497370632e-01,5.997809729469534279e-01,-4.122411667714522107e-04,-6.741091975751537131e-03,4.248399360347885679e-04,1.054619312286376953e+00
-6.744129779197499674e-03,-6.386842745524682341e-01,5.053266728179974798e-01,-1.221058936046591666e-02,5.766268657015186094e-02,1.430052747063553960e-02,9.980975389480590820e-01
-6.701177058507180873e-02,-4.010663399937229312e-01,5.155588281881811064e-01,-8.244977489512832214e-02,8.367538832439176677e-02,4.548239957559714608e-02,8.325838446617126465e-01
-2.130848456757586037e-02,-6.266377159683417242e-01,5.925735954848685427e-01,5.742342809860045451e-03,5.732002584973354409e-03,5.053817180887005406e-03,1.056006431579589844e+00
-2.036207021570632381e-02,-6.254178418984368548e-01,5.817409115570326694e-01,2.682603891766819227e-03,-5.665561542043947435e-03,8.070702107330010242e-03,1.045580983161926270e+00
-2.061397322180356581e-02,-6.166532970853138007e-01,5.770229983208523539e-01,7.047160507871063143e-03,1.156369855121591592e-04,1.135304911190235591e-02,1.034013390541076660e+00
-2.884357586965884818e-02,-6.247146245107308982e-01,5.840647488850787550e-01,6.865849246802958536e-03,-6.546686778404533016e-03,9.973711559049724604e-03,1.047139763832092285e+00
-3.075178026036208545e-02,-6.251519336541665472e-01,5.931233876389029325e-01,1.061418112384608647e-02,-4.648244187565832818e-03,1.565866311412590639e-02,1.055699586868286133e+00
-3.509726834044626931e-02,-6.209957097799213566e-01,5.598711935656321970e-01,1.079269481167156527e-02,-2.547833444533869132e-02,1.777168624806881991e-03,1.023797750473022461e+00
-2.858046348092695838e-02,-6.195810605674283433e-01,5.745416762662943766e-01,7.256067912023607402e-03,-1.611898764593813023e-03,6.048729952148699379e-03,1.034291625022888184e+00
-3.150431876764676897e-02,-6.168841866489715997e-01,5.549678379782024829e-01,1.463096453594365555e-02,-1.972545365707550902e-02,1.178533450741811595e-02,1.015949964523315430e+00
9.826170821207547146e-02,-6.732588455638692793e-01,2.143032352674758556e-01,-1.132160136141616667e-02,5.266904181859437262e-02,-1.311393274386469521e-01,8.709404468536376953e-01
1.209972972796145574e-01,-6.886624100292682016e-01,2.146112643515132312e-01,1.952994160400282203e-02,-2.524036106750883815e-02,5.845092323114887967e-02,8.679935932159423828e-01
1.484621355843772084e-01,-6.446360220921827366e-01,5.942225742988865855e-02,1.849783398230562398e-02,8.410880120461615211e-04,-5.197355564772873637e-02,7.585827708244323730e-01
1.227811815491841041e-01,-6.525549470777886052e-01,1.759860108097477949e-01,2.558391990470200092e-02,-5.622665827034511836e-03,1.009730202022617040e-01,8.233308196067810059e-01
-1.835882884901799544e-02,-6.274571567832856189e-01,5.939890332146862129e-01,-1.559707553766015919e-03,9.770024803718020505e-04,-1.582833902733936935e-03,1.057813048362731934e+00
-4.709305306757380349e-02,-5.871231001470088584e-01,4.993868131947591937e-01,-3.124900404605160473e-03,-1.409519565054962592e-02,1.677336089954843462e-03,9.412873983383178711e-01
-3.397300929373590905e-02,-6.117034300139362335e-01,5.957122108552790340e-01,7.622921175745309315e-03,1.653292105401409084e-02,-1.499531674253201489e-02,1.046772718429565430e+00
-2.448786024146737406e-02,-6.099824253356503911e-01,5.470592740107276253e-01,6.345847008679110328e-03,1.068378989265706368e-02,-1.613630789348646788e-02,1.002672553062438965e+00
-1.594775666167302236e-02,-5.985478064187833569e-01,5.832398546020284291e-01,-3.919653832654006187e-02,1.951078001477513785e-02,6.097252269953339684e-04,1.026298046112060547e+00
-2.338658670067793668e-02,-6.135942631273378911e-01,5.923367073426100138e-01,-6.521561298504641516e-03,3.485434580066273935e-02,8.337336248468359481e-03,1.046348690986633301e+00
-2.929470428973272866e-02,-6.117120013055380445e-01,5.806954071057721656e-01,2.142625022844552637e-03,1.092918493092021916e-02,-7.917304106470754096e-03,1.033018350601196289e+00
-9.871531924693248417e-03,-5.272403090603937637e-01,4.757287289364526273e-01,6.990311002339721913e-02,-8.667390108902565948e-02,4.830654374453618484e-03,8.899319767951965332e-01
-1.243490314649623590e-02,-5.557120909723644031e-01,4.924914645359459442e-01,4.791761113347282192e-02,-3.858646401751083393e-02,3.426909743273404835e-02,9.161298274993896484e-01
-5.813795985525980342e-03,-5.019426546124231558e-01,4.173532162857512828e-01,1.957420344444620389e-02,-4.197756482723252053e-02,3.673918978026465693e-02,8.035201430320739746e-01
-1.973916923428450237e-02,-5.429169956955913756e-01,5.289582874062274120e-01,2.122520957667402286e-02,-1.405675360720222075e-02,-1.423857706767766608e-02,9.297326207160949707e-01
-2.298429003474164456e-02,-5.991320055511374365e-01,5.858814571891216572e-01,1.545142759714485288e-02,2.021137069172729284e-03,1.160414460890306018e-02,1.026933670043945312e+00
-4.351962934158656870e-02,-5.863763974874779406e-01,5.252609821775029442e-01,3.991521735335112724e-03,-3.936916349345325611e-02,-7.474499721332445931e-03,9.653167724609375000e-01
-1.895981792690316914e-02,-5.826117614223694785e-01,5.101292601893854251e-01,7.549814765677493808e-03,-4.996902539218401468e-02,-2.788494786927913846e-02,9.517642855644226074e-01
-1.084118098743274972e-01,-6.406060072506459813e-01,1.007731907377729552e+00,2.605821782052001878e-01,-9.932655000977148874e-02,-3.829373553434882449e-02,1.536462903022766113e+00
-1.744359569504012539e-02,-5.808754323823730470e-01,4.877515183040715963e-01,3.799815114938093555e-03,-2.446602693204761800e-02,1.084310932627311971e-02,9.270988702774047852e-01
-1.910198209205342390e-02,-5.891159387138001913e-01,5.365855476142086244e-01,-2.736329284994282532e-03,2.190143612543938613e-03,-1.142476023149000507e-02,9.751321077346801758e-01
-2.436482018715759382e-02,-6.056713841507317397e-01,5.756239800496341097e-01,-2.545357761254521704e-04,-7.971567207399729484e-04,3.088329325774313676e-03,1.023089408874511719e+00
-2.816929264910742609e-02,-5.567769044187327321e-01,5.654178542146403030e-01,1.520508524623066793e-02,6.918322622438057880e-03,2.910799044797708623e-02,9.741280078887939453e-01
-2.850079254991503760e-02,-5.472898288196323957e-01,5.590911581297657307e-01,2.257997654611753127e-03,1.006018815022387443e-02,9.603579615120337587e-03,9.590819478034973145e-01
-1.938117545796814306e-02,-5.860829471336381769e-01,4.482755525062208646e-01,-8.884962442706978436e-03,-4.141146500691157001e-03,-5.656727938721324914e-03,8.973627090454101562e-01
-2.861215283814791052e-02,-5.818989128382932030e-01,5.737579822663406715e-01,2.654707191562188928e-03,-1.986769301958544749e-03,-3.677631775782309702e-03,1.001165866851806641e+00
-3.632885163358749031e-02,-5.700925388241410152e-01,5.959456902870902129e-01,-3.137685579849454776e-03,1.283449017278413991e-02,3.636446470213090245e-04,1.011278390884399414e+00
3.603710782835363446e-02,-5.593319690777254216e-01,5.677220274898223673e-01,3.952500328961960387e-03,2.675149684260193575e-03,1.672848478470635996e-04,9.766116738319396973e-01
-2.881556789363955845e-02,-6.089803654916142728e-01,5.952990614986867213e-01,-3.032020720592545990e-03,2.841371447140384268e-03,4.780389679382597394e-03,1.043225765228271484e+00
-2.414070610837328046e-02,-5.946581465631577412e-01,5.791872294971486257e-01,4.046068392249076856e-03,-4.430054224767113018e-03,-8.080523389355456776e-03,1.016861677169799805e+00
-2.110468939592724524e-02,-6.127465884705673993e-01,5.685219408433686006e-01,2.808540688185230585e-03,-4.133015881755692199e-03,1.217468706366668305e-02,1.023262977600097656e+00
-1.522636535128890981e-02,-5.737577743323994950e-01,5.046356847298411052e-01,-8.393977906470421677e-03,1.177975501804231356e-02,-1.740370150806959133e-03,9.344570040702819824e-01
1.985442300796261272e-02,-5.864600011162625082e-01,5.913460046905432144e-01,6.665226753732350629e-03,1.000210777769751022e-02,1.684437528447400856e-03,1.020375132560729980e+00
-8.810703641648012091e-03,-6.073016824469583685e-01,5.362348661529833249e-01,-5.089579905638070938e-03,-8.242498605495646473e-04,-2.346022856755530100e-02,9.915653467178344727e-01
-2.273773788488135661e-03,-6.061719527742256419e-01,5.361563436369140012e-01,-2.407397228284930812e-03,3.451582847276297647e-03,-2.176549294355962019e-02,9.905712008476257324e-01
-2.522835373419335045e-02,-5.994932295677875000e-01,6.173289845122247321e-01,-7.290656112555574412e-04,-1.424705532574267047e-02,-1.813981183315838477e-02,1.055109381675720215e+00
-1.822117438517199817e-02,-6.090502620639488551e-01,5.961320792378012046e-01,5.368360837235742512e-03,-2.822215703940750622e-03,-5.984255593706233438e-03,1.043889164924621582e+00
-2.132056653281368119e-02,-5.933693840423945876e-01,5.685703878145261791e-01,5.826163613066487855e-03,1.776145422639334448e-02,3.651407465840536895e-03,1.006849408149719238e+00
-2.784148130268740071e-02,-6.195425156202170047e-01,6.252580350991304714e-01,1.089300330442108866e-03,6.284438972421859011e-03,-1.171342175357177953e-02,1.078713297843933105e+00
2.955495313106362709e-03,-5.888157613751083819e-01,5.844171301409013530e-01,3.494166901898271282e-02,-1.361294798048471449e-02,-9.573088465232163988e-03,1.018271446228027344e+00
3.467618509388525894e-02,-5.512522472711761656e-01,5.666551206750470859e-01,5.332801153225701953e-04,2.440474825607292803e-03,2.004715698186398899e-04,9.685216546058654785e-01
-2.637341792208362096e-02,-6.314278680182856540e-01,5.979568983640763946e-01,7.791382365826694800e-03,3.866515932435625295e-03,5.837041508005687274e-03,1.064876675605773926e+00
-3.404747696718343764e-02,-6.215421018561918531e-01,5.936618952042103103e-01,5.976384172159780739e-03,-4.726287104257913090e-03,1.192447907649612886e-02,1.052874922752380371e+00
-1.340162657574779301e-02,-5.616021372413844137e-01,5.714220180766581558e-01,2.103806714382947668e-02,5.880854352905505629e-03,1.773607014210119848e-02,9.826079607009887695e-01
-3.019402734659498710e-02,-6.306120939195234421e-01,5.977538702782343449e-01,4.693325621000674422e-03,-1.702124106932311268e-03,4.170292622155253454e-03,1.063944816589355469e+00
-3.020608797178713986e-02,-6.272885168076389739e-01,5.906926985383489370e-01,6.594711232401150904e-03,1.332430210903471019e-03,-1.039899653680255052e-04,1.054934263229370117e+00
-2.265379065380854900e-02,-5.854109600021899507e-01,5.293563135795711361e-01,-8.738523771956089499e-06,-1.630341518845120942e-03,1.590170158722317706e-02,9.658286571502685547e-01
-2.203789644387799118e-02,-6.057880041891665623e-01,5.785353310429707241e-01,9.860602269655366174e-04,-2.707596701269326077e-03,-2.265137596908068165e-02,1.026450753211975098e+00
-3.233193704881447833e-02,-5.709139384676542583e-01,5.667218208609289265e-01,7.635356341338017140e-03,2.211902649976564203e-02,-2.344707491064094464e-03,9.865266084671020508e-01
-5.714719359476447269e-02,-5.038414119562488747e-01,5.942466414361544658e-01,1.492684770641981504e-02,-1.344707105080521041e-02,-4.793424092286586308e-02,9.606911540031433105e-01
-4.031885246240411724e-02,-5.818026263385709385e-01,6.142143458811203383e-01,3.502037215240721892e-03,1.765305481272272728e-02,-1.095147016927497212e-02,1.037963867187500000e+00
-3.611840664564439779e-02,-5.768226576938919603e-01,6.139941277013074572e-01,7.408190863348519672e-03,3.402737291458725940e-03,-6.341292089892708837e-03,1.032882332801818848e+00
-3.067441489714408526e-02,-6.417627599462931709e-01,5.537373000609538964e-01,-5.296085952982147044e-03,-5.214310761508432479e-02,-7.399748273443455641e-03,1.039470195770263672e+00
-2.153576671652688082e-02,-6.171412781014663507e-01,5.853644089160576769e-01,-5.613899795284107118e-03,4.073180256577269877e-03,1.071207597370376838e-02,1.041650295257568359e+00
-1.916346064203477972e-02,-5.726829402134360203e-01,5.511625761603119456e-01,-2.268597431169543446e-03,2.551894057176209377e-03,-8.874119812121220724e-03,9.734543561935424805e-01
-3.492151016388969631e-02,-6.182600135347432468e-01,6.189384900991905525e-01,-3.313062898805894160e-03,-7.496555780216998879e-03,5.531372617331632539e-03,1.072162151336669922e+00
-1.828168209923709819e-02,-4.090480806841768069e-01,5.808032232612687640e-01,-8.299667068838169348e-02,3.613806680108832756e-03,-1.691189971360914160e-02,8.759371638298034668e-01
-2.299284240682464286e-02,-4.702551229999648030e-01,5.746989517019756022e-01,-6.105149482936641364e-02,-5.403901822778771347e-03,-5.364155007410341229e-03,9.143083691596984863e-01
-5.374326963536738000e-02,-3.885414785303343277e-01,5.690088105202124602e-01,-3.915673839952412555e-02,1.568606555032949455e-03,4.071988366097140793e-03,8.444306850433349609e-01
-6.086980132499364426e-02,-3.590600046367912190e-01,5.688402076720057154e-01,-5.037924829114668462e-02,-4.096489176717872140e-03,-2.758214612128785312e-02,8.265423774719238281e-01
-2.677702065275622267e-03,-5.026645302794413572e-01,5.773065113155401162e-01,-2.208709551980610197e-02,-7.706350946587182602e-03,1.523849361085954836e-03,9.370174407958984375e-01
-2.164075226163970911e-03,-5.276760090430281380e-01,5.810445798792405192e-01,-3.889678890994722332e-02,1.931348104735187369e-03,2.161621473144028846e-02,9.637064337730407715e-01
-1.371960487245693638e-03,-4.935620836581059434e-01,5.748148026984321035e-01,-2.073273730726964137e-02,1.362212586176206547e-04,-1.014505886587155218e-03,9.268918037414550781e-01
-2.058603576250598796e-02,-6.015948494998910601e-01,5.937228523161139915e-01,-1.125442803803159168e-03,3.570509614204877853e-03,-4.420124100459741322e-03,1.035357952117919922e+00
-6.960116607391612920e-02,-4.357903051292405516e-01,5.895173361252614708e-01,-7.092777099164705723e-02,-1.138704418681401112e-03,4.894397504673958857e-03,9.083290696144104004e-01
-4.758121406550890053e-02,-5.102253345904766979e-01,6.086354545707284291e-01,-4.766995180102324980e-02,-7.657300321950761754e-03,3.089220863795234286e-03,9.773824810981750488e-01
-5.895747680892703124e-02,-4.694596752615788904e-01,5.611458468273562428e-01,-8.452396217043646465e-02,4.329994378784578235e-04,4.841899735685531794e-03,9.105480313301086426e-01
-2.109835417358100346e-02,-5.117422758608957123e-01,5.769855764511903073e-01,-4.747004534533227210e-02,-5.662439280067720765e-03,1.097318121020323008e-03,9.480201005935668945e-01
-2.671865795349893935e-02,-5.132838426140423627e-01,5.774586622740061070e-01,-7.534026433452814531e-02,2.967872911148274062e-02,1.324793533394679271e-02,9.570501446723937988e-01
-1.740505727269127736e-02,-5.781826624282768723e-01,6.223438690241919202e-01,-4.485569043788467658e-02,-7.131274655850295026e-03,1.366104429777089020e-02,1.043674111366271973e+00
-1.906059260415720116e-02,-6.079872165795536798e-01,6.340235152715254507e-01,-8.525278873012857167e-03,-9.884573676544310822e-03,1.260856471998676731e-02,1.076550126075744629e+00
-4.803724320120248553e-02,-6.610175620625523552e-01,6.891679587242307559e-01,-1.020728565129312357e-02,-4.691842000814356456e-02,1.061636396893514932e-02,1.174037218093872070e+00
-3.049321706999585935e-02,-6.458570527585782983e-01,6.308902219213041729e-01,-2.621475542656553220e-02,-3.679981902659498760e-02,2.519128090482553733e-02,1.109558582305908203e+00
-5.104014482748174542e-02,-6.584165288302054053e-01,6.697398734635275908e-01,6.204016762545082331e-03,-3.110572077872890417e-02,2.851554479802209316e-02,1.153981089591979980e+00
-2.593624617745433555e-02,-6.053372733247491810e-01,6.323834395418324039e-01,-5.764696703122106775e-02,-2.020760594441730132e-02,-3.376428909246780713e-02,1.079414725303649902e+00
-7.819687208902059358e-03,-5.955251009798946393e-01,6.174166630330616412e-01,-5.450547837925097394e-02,2.378450222794126559e-02,-2.134263120246668310e-02,1.056290268898010254e+00
-2.016853666899184883e-02,-5.478902287398456084e-01,6.332796390570344380e-01,-9.059105733907545088e-02,-3.366301210840868391e-02,2.149933560901957572e-02,1.039100527763366699e+00
-1.258189256181324947e-02,-5.929111767549219980e-01,5.976903961522688213e-01,-2.131385202256808400e-02,1.583558731068770292e-02,-4.158964061389911621e-03,1.032250046730041504e+00
-2.186221199451523003e-02,-6.095468645498210991e-01,5.788766949087649216e-01,-1.157187657859764206e-02,1.277500890981604804e-02,1.588100664762310361e-03,1.029662251472473145e+00
-1.158402548743862372e-02,-5.567967678571406065e-01,5.713766481942563757e-01,2.386004550625736575e-02,-5.959812944329100255e-03,-4.363383623510777923e-03,9.781662821769714355e-01
-2.958505378673868813e-02,-4.738971582569257990e-01,5.765554474860175027e-01,6.464708044892747418e-02,1.108496931823503562e-02,1.796183279362387891e-02,9.208742380142211914e-01
-1.752913388166307124e-02,-4.763427506975757009e-01,5.906940905673990772e-01,5.010581354472187776e-02,2.544735784450086538e-02,3.687310066876677700e-02,9.343767166137695312e-01
-3.299026630635151780e-03,-5.106869106219709131e-01,5.737168521412846500e-01,3.925675588103412494e-02,8.606677639395727414e-03,2.132062896607146219e-04,9.423408508300781250e-01
-6.303433879646445914e-02,-5.891932931864458656e-01,5.481436872051215214e-01,-1.163084016914398260e-03,-4.636405189671982674e-02,-1.772336719701697247e-02,9.896231293678283691e-01
-5.528197473794169842e-02,-5.937681391902499550e-01,5.370313741213481595e-01,7.433225368897281547e-03,-3.184918395884567266e-02,1.371283610614272563e-02,9.815946221351623535e-01
-1.090565585706347596e-02,-6.216044936672530108e-01,4.148634357511576942e-01,1.480953928802438910e-02,-1.499339153933187951e-01,-4.372009988982923819e-03,9.393641352653503418e-01
-5.356026876113430257e-02,-6.030994142507369871e-01,5.552666016541326632e-01,1.184134467365956928e-02,-5.769129971770844967e-02,1.401708916802064595e-02,1.009075164794921875e+00
-4.554596412612752637e-02,-5.943847988774989544e-01,4.970483117839845644e-01,1.286585763369061351e-02,-6.624472464300643071e-02,1.173397615792036615e-02,9.526301026344299316e-01
-5.442606835176068414e-02,-6.036900690008411008e-01,5.555662305550951308e-01,9.658593773608361438e-03,-2.294400900765660584e-02,1.995098479155062512e-02,1.005923271179199219e+00
-4.436249145923479298e-02,-5.869486006855190174e-01,5.092326507820211789e-01,-5.008966980265097723e-04,-4.594175646455779527e-02,1.796461330300928166e-02,9.531742334365844727e-01
-4.016454110915855524e-02,-6.092671354114168603e-01,5.484685190253200116e-01,1.929194263550367341e-02,-4.110461607194855482e-02,3.976551077024731429e-02,1.008111357688903809e+00
-5.709599451845928653e-02,-6.367206895140297140e-01,5.456214301652485554e-01,-1.206624304023913748e-02,-7.131327768315455506e-02,8.588906957884563653e-03,1.031745076179504395e+00
1.669098231488343187e-02,-5.992196398661483459e-01,5.944035604359023672e-01,1.341691778794908141e-02,8.260778860722968464e-03,4.632287202570008200e-03,1.034275650978088379e+00
-6.950048459202468054e-03,-6.280018652064899287e-01,5.039057698620338366e-01,1.294370154084790656e-02,-2.228760143700432572e-02,9.384857918259053786e-03,9.829567670822143555e-01
3.137568586170835262e-03,-5.812768505772319960e-01,5.874396977534213082e-01,8.841532560210857775e-03,1.633670037625843674e-02,4.573218224807299934e-03,1.012680411338806152e+00
-8.835320739221462494e-03,-5.931721960407226879e-01,4.667296310437880624e-01,1.204166582254817541e-02,-4.774265355524803800e-02,2.270204239793340711e-02,9.242948293685913086e-01
-1.180094148071766380e-01,-5.028495151878785707e-01,9.748030743687252642e-01,2.826771201626727681e-01,8.304997590247888140e-02,-1.237644676719143466e-01,1.438493251800537109e+00
-2.314819196954117503e-02,-5.916825972694230718e-01,4.915360930346591717e-01,-4.304582385719805948e-02,-1.270898773066568010e-01,4.136420286726830153e-02,9.694814682006835938e-01
-6.982029238828582618e-03,-7.227719779902198605e-01,5.129413228911069433e-01,5.961927984827252412e-03,-1.310676895841886014e-01,3.533351345780246650e-02,1.100099802017211914e+00
-4.734636836871381621e-02,-5.480612043788327670e-01,6.013526131053765766e-01,-1.211605026400982936e-02,3.098695119954051301e-03,4.679430874472457341e-02,1.001687169075012207e+00
-2.881364687073419834e-03,-5.005546383302603708e-01,4.467652629830464739e-01,-1.358498304485259052e-02,2.407543802196659630e-02,2.078040910891157389e-02,8.229373693466186523e-01
-9.574511665953400197e-02,-3.848042183166627828e-01,5.868978483741361662e-01,-7.764168031024006045e-02,1.972124520090553015e-02,4.488508023996317514e-02,8.787356019020080566e-01
-5.344448309170401340e-02,-4.967133283256248699e-01,5.602138109970158375e-01,-9.631364967631131369e-03,-4.291969309708973390e-04,3.252801683286792728e-02,9.211581945419311523e-01
-1.011232448774932180e-01,-3.640290180081134919e-01,6.245292326896833002e-01,-6.889366402933008726e-02,3.484059617192209607e-02,-4.467794487641002510e-02,9.001878499984741211e-01
-1.903232112364996662e-02,-6.132748482144976254e-01,6.243877400170912972e-01,5.836475231218228588e-02,-3.903952765296438837e-02,2.485610184563613947e-02,1.079863905906677246e+00
-4.459974151367113171e-02,-4.370457095988155571e-01,5.636440391464535571e-01,-3.543442044905385779e-02,-4.494529931393889677e-03,5.115889557921637909e-02,8.799751400947570801e-01
-6.672014480021068450e-03,-5.962618412810769541e-01,6.260880535283088744e-01,3.265957610828564700e-02,-1.068358151001531399e-02,-4.537552850485876421e-03,1.060506701469421387e+00
5.274091585766093465e-03,-5.989433707869052936e-01,6.144337036351290582e-01,9.356601967806986442e-02,-4.776278543803454818e-02,5.585405343762893902e-03,1.066499114036560059e+00
1.745384703205829502e-02,-6.087134539170697689e-01,6.408438145428075883e-01,1.353123807897546327e-01,-7.688876794550456549e-03,-1.323667998153539929e-02,1.107555031776428223e+00
-2.809312291327533545e-02,-5.031163581817219566e-01,5.615722445127465656e-01,-9.844623959534521546e-03,8.010164590604561957e-03,-4.336628644609571287e-02,9.271365404129028320e-01
2.405984958037815646e-03,-6.220746587652397075e-01,4.292518485512311077e-01,-1.742180964760765057e-03,5.893854854635715082e-03,-6.620785853739233340e-02,9.230353236198425293e-01
-2.755712824213850040e-02,-5.953967453491911810e-01,5.971788425108798259e-01,-1.127550600273280468e-02,9.235276717313662190e-03,-8.461856345377638186e-03,1.033604741096496582e+00
-2.434185011990385936e-02,-6.148768050865410784e-01,5.825360862103186044e-01,3.494198976839347701e-03,8.155162056687858055e-03,9.647294979897457282e-03,1.037270665168762207e+00
-3.114069840317350985e-02,-6.318681075645147249e-01,6.332105996349616239e-01,5.160137489357508912e-03,3.329424763480064425e-03,-9.186952893649057497e-03,1.096219182014465332e+00
-1.187649070820664260e-02,-6.038737032059181553e-01,5.001710634789486853e-01,-2.967824141850548651e-03,-1.633004307799306234e-02,2.037893372839371872e-02,9.580482840538024902e-01
-1.649436545632692111e-02,-6.227941771995424425e-01,5.558851222255222213e-01,3.676334228455634470e-03,-8.710615138062769228e-03,2.038529968378125640e-02,1.021648764610290527e+00
-2.481347866848323744e-02,-6.016100548715196394e-01,5.818277009124764865e-01,1.540989746751952189e-02,6.083976344080556202e-03,4.103698805366580438e-02,1.027857899665832520e+00
-1.044074956368227017e-02,-5.979617154134140300e-01,4.915345851751750095e-01,1.397882151600516980e-02,-6.433646759006430953e-03,4.004797940467266087e-02,9.474191665649414062e-01
5.637937412121385612e-03,-6.015003838669376046e-01,5.963977619629911020e-01,3.849208947529101418e-03,3.988417961260394377e-03,-1.156694191851172747e-04,1.037487030029296875e+00
-1.735743314160844569e-03,-6.249112703222625687e-01,6.166517819712670212e-01,4.942659784057184397e-02,-2.438341172474308219e-02,8.085018443392955403e-03,1.079547882080078125e+00
3.937206565490205395e-03,-5.273717273100931857e-01,5.907137615441122591e-01,9.157144148070758827e-02,-4.335103815057900906e-02,-3.335344008331644471e-03,9.844708442687988281e-01
3.531399709410706564e-03,-5.414212965851685766e-01,5.817060870289182395e-01,3.661271304016931044e-02,5.841656390258736543e-03,1.533323231530874615e-03,9.749195575714111328e-01
-1.886978135856630032e-02,-6.011260659892433411e-01,5.686484613147315681e-01,3.463832426247928642e-02,-4.547748633055259670e-02,-3.051556717598246857e-02,1.019256591796875000e+00
-1.698625231456570364e-02,-6.268776148095038803e-01,6.147768122264984925e-01,2.402511891338830058e-02,-2.753792029645278985e-03,2.812722032570732361e-02,1.077277421951293945e+00
1.645665818612419146e-02,-5.834471503388473090e-01,5.916439321475768232e-01,5.618253734984686096e-03,-5.369318591964151836e-03,-5.939109401965261999e-03,1.017874717712402344e+00
-2.114484167331917575e-02,-6.103812101385304167e-01,6.040681902659998936e-01,-3.695746603430510608e-03,-3.179588349853851303e-03,1.076840276530679564e-03,1.051933407783508301e+00
-1.396474970786341918e-02,-6.093131527105398737e-01,5.165741350720739478e-01,1.800456503487263618e-02,-1.651684789972603790e-02,3.406771952945635007e-02,9.782839417457580566e-01
-3.817589121351743636e-02,-5.783570234601242976e-01,6.039941084013031869e-01,-1.543554450203563078e-02,1.295146705807264254e-03,2.698770290671866860e-03,1.025576829910278320e+00
-1.384029028959662955e-03,-6.405228648168126426e-01,5.237415346800931015e-01,-1.441260866658318832e-02,3.678486925521656098e-02,6.210869591295539727e-02,1.017908930778503418e+00
-1.763789329610495824e-02,-6.204014867640316178e-01,5.770745662147308552e-01,-1.579235525969258991e-04,6.280084154805924170e-03,6.202843264107780336e-03,1.037165164947509766e+00
-1.839368543292842911e-02,-6.438162311448680786e-01,5.861539681132296176e-01,6.645193833939127583e-03,7.736390307825910702e-03,1.007622221856324489e-02,1.065526008605957031e+00
-3.425433375902463273e-02,-5.454262076637915735e-01,5.455094428632464298e-01,-4.506959533311077210e-03,2.354480295027432807e-02,-1.207389158961497469e-02,9.465426802635192871e-01
-2.149588680595046833e-02,-6.257024075680146513e-01,6.070648734095442922e-01,7.252098864108355624e-04,1.253216208759419525e-02,2.582561024407379908e-03,1.067907929420471191e+00
-2.807792969398208507e-02,-5.894427736788854233e-01,5.326131330341667969e-01,7.234127682422880276e-03,2.773401924644951569e-02,-1.418632457084049829e-02,9.733064770698547363e-01
-1.151033640404616060e-02,-6.094997296252966379e-01,5.308450154165975654e-01,-1.218334040783913309e-02,2.472553940734974892e-02,2.723619311965936739e-04,9.891121983528137207e-01
1.888230582354814141e-02,-4.671972789975860074e-01,5.717690954229139866e-01,7.801198613976763341e-02,-7.715268497285617151e-03,-6.637305890042735287e-03,9.106439948081970215e-01
1.401235160644184741e-02,-5.497449029386592967e-01,6.056953949777125201e-01,7.493070702429163732e-02,-8.284753118924676266e-03,-1.778183552391298522e-02,1.009690523147583008e+00
2.559770250906875586e-02,-5.890671541922436472e-01,5.906468539471965151e-01,2.751494539230553774e-02,-1.061159176964698685e-02,-1.553977902083960444e-02,1.023593068122863770e+00
-9.115793769655902712e-02,-4.888307896029651101e-01,8.858146063535394799e-01,2.442737124541055349e-01,-9.267616803742081966e-02,-3.143960752947060761e-02,1.307239651679992676e+00
8.090453889559812151e-03,-5.408264290045838862e-01,6.177828595034156045e-01,1.703206037481549417e-01,1.303957409066464901e-01,1.605094996742832333e-02,1.070754170417785645e+00
-5.499873026008577498e-02,-6.011532873662999155e-01,6.725089370512432607e-01,3.082113315467734371e-01,9.235687942917719662e-02,7.001508731211779357e-02,1.245055079460144043e+00
-3.509623958297071467e-02,-4.409862719367659833e-01,6.349768534122874897e-01,1.216862430547283186e-01,7.879802561886467679e-04,2.131126470594486670e-03,9.644473791122436523e-01
-9.599052382479189571e-02,-1.672067091873513656e-01,6.076134168544915504e-01,2.019492039562893193e-01,-5.833344621711937517e-02,-7.280899463838624852e-02,8.358830809593200684e-01
-8.438926148756625834e-02,-2.002527675771850757e-01,6.508601444951568338e-01,2.009804774695969076e-01,-3.137623613316666699e-02,-7.124822313386329486e-02,8.823640942573547363e-01
3.642546998228704536e-03,-6.375040687848055887e-01,7.599407906939842361e-01,1.203976947789278801e-01,-6.242177899428041389e-04,-3.509200459307140058e-02,1.230908751487731934e+00
-3.503478396510247006e-02,-4.223084246628372451e-01,6.445974570153071292e-01,1.273790024195285420e-01,-2.712257779579773515e-02,-7.647713850294908522e-02,9.713464379310607910e-01
-2.292330357477324887e-02,-6.118661396176945377e-01,5.895923964110284521e-01,-6.654233229702973505e-03,-7.505879217540663458e-03,-8.452377633572949814e-03,1.040808320045471191e+00
-2.662341735643401763e-02,-6.247733283530262360e-01,5.662860600732753102e-01,9.745605210474418342e-03,2.222806336506989028e-02,-2.776060372086436648e-02,1.033466458320617676e+00
-1.926777242282442029e-02,-6.149172355869749751e-01,5.822098662359517229e-01,-6.814992997580884837e-03,-5.585768677609240056e-03,2.125386334288975349e-03,1.036865472793579102e+00
-3.309020868474778221e-02,-5.950749433753897977e-01,6.181840439007323385e-01,-1.534803122707517923e-03,-1.548914942712698202e-02,-1.918427145277906004e-02,1.052531242370605469e+00
-2.931953335691250134e-02,-5.031097415851928378e-01,5.819440135333360242e-01,2.095573879541695606e-02,-7.371348289867609739e-03,-1.551846994731502158e-02,9.433630704879760742e-01
-4.776659428717529299e-02,-4.506823328742417534e-01,5.612415887691104555e-01,3.921049455134696660e-02,1.827179357388425060e-02,-1.323977462747192267e-02,8.858616352081298828e-01
-2.925031483459493431e-02,-6.113173077949920486e-01,6.163767770126985512e-01,-9.566236795560864245e-03,-6.726247956438819939e-03,4.820247178409895958e-03,1.063914656639099121e+00
-3.544802664082027932e-02,-6.168952928924293921e-01,6.133111884530727531e-01,-1.377386102961889076e-02,-8.470030145184841500e-03,-9.785471503157242013e-03,1.066424131393432617e+00
-2.663239372054617554e-02,-6.178066070023090495e-01,5.986603615638200759e-01,-2.326105459899547451e-03,6.200580262423331136e-03,2.571253746776577982e-03,1.053701281547546387e+00
-1.564317834146256372e-02,-5.844487631537782502e-01,5.081339813500419522e-01,-3.652799097774235299e-03,-5.755050723942375934e-03,2.610335958009622065e-02,9.476250410079956055e-01
-3.169331313902687408e-02,-5.889582951698363322e-01,5.748121428273595956e-01,-5.330268919379455364e-03,7.779127984100709173e-03,-4.052267519139521215e-04,1.008288025856018066e+00
-3.208394415930908988e-02,-4.737380363015654683e-01,5.280028065776820601e-01,-2.907591499553307743e-03,1.393129486325062581e-02,-5.465278145080566113e-02,8.750362992286682129e-01
-6.456140848152276679e-02,-4.512199713508834309e-01,5.914862945673357020e-01,-2.934510643495761781e-02,1.169159839298323199e-02,9.619620029210258511e-04,9.146398901939392090e-01
1.935481950725629133e-02,-5.244714627417708108e-01,5.661191450259311919e-01,3.931938093126575301e-02,-8.216432194350163642e-03,-6.937922435087381934e-03,9.471156597137451172e-01
-1.115069190171702751e-01,-2.513215503965404163e-01,5.658871814358434893e-01,-5.914380145099595431e-04,9.329026742237357542e-04,-4.328950722659879319e-02,7.607536315917968750e-01
-7.365919714564478360e-02,-4.139244312517657010e-01,5.915247385971547089e-01,-1.033685955360226921e-01,1.229568184993581718e-02,1.216054616168936973e-02,9.041799902915954590e-01
-1.068510009709318018e-02,-5.340446324191633343e-01,5.923031613885730851e-01,3.087598341765466006e-02,-1.626265572990919298e-02,-2.585084084301731214e-02,9.791516065597534180e-01
-7.562347771804805996e-02,-3.948251886137302269e-01,5.877435823042954643e-01,-4.689556201388430517e-02,2.850531841549597614e-02,-4.023001066016048538e-02,8.761187791824340820e-01
-6.629549013965317650e-02,-4.280535698924827770e-01,5.904059733221620476e-01,-2.856850300236505463e-02,2.020181057570777025e-02,-5.257539339222640218e-02,9.009206891059875488e-01
-6.900628251168629268e-02,-4.882764522993000011e-01,5.912549159136413213e-01,-7.181943940885361644e-02,2.908993021964741826e-02,1.853792261439131395e-02,9.526824951171875000e-01
-6.133453874489303015e-02,-5.026800869869278987e-01,6.071082137839881598e-01,2.692979063344538675e-03,1.492044061460850307e-02,-9.163503783014763371e-02,9.810690283775329590e-01
-2.513217599274922970e-02,-5.991660213567747695e-01,5.842613527773182769e-01,-3.876597677334227623e-03,6.095132228137577039e-03,9.579174487229553557e-04,1.025108337402343750e+00
-2.984874919551647535e-02,-6.127182783464815152e-01,5.976564794779143375e-01,-5.306489656187522025e-03,6.494990231878456505e-03,-7.757123302080820310e-04,1.048554301261901855e+00
1.801418635156760290e-02,-4.569927610541464347e-01,5.630519266828554192e-01,7.289292261586491350e-02,-2.808365126238386231e-03,-2.589509387205387800e-03,8.930724263191223145e-01
-7.311704610250045755e-02,-5.047416735074722327e-01,5.951129195013200590e-01,-5.692182805131301530e-03,-4.425628172581021549e-03,-1.203294444826184979e-02,9.601280689239501953e-01
1.058028087827981092e-02,-5.501303848468256374e-01,5.816778011437716556e-01,3.337373460062695307e-02,-1.352037409793280937e-02,-2.623398197368576219e-03,9.821811318397521973e-01
-1.934469162682219551e-03,-5.621638128660026990e-01,5.986843745519664362e-01,1.299836696952584580e-02,-1.675298846861572252e-02,-2.043936953019164643e-02,1.006819963455200195e+00
1.984077242626447468e-03,-5.023518058109736062e-01,6.002105505529623519e-01,5.264572514854731072e-02,-2.448857224200723728e-02,-5.242731045883013835e-02,9.655549526214599609e-01
1.094318657289013088e-03,-6.043393185656323885e-01,6.061645204904553275e-01,1.480159239193001505e-02,-1.822794181277676354e-02,-2.142372559595897077e-02,1.049771666526794434e+00
-6.525331176025765678e-03,-5.833858485981519015e-01,6.050001362462817944e-01,1.952483414855529092e-02,-5.002723491708084558e-03,-6.435705267038251652e-03,1.029970526695251465e+00
-5.632499465604325073e-02,-5.021971781728024053e-01,5.741432869259164296e-01,5.618229086911277412e-03,1.463696856885077918e-02,3.659289086729650836e-02,9.392310976982116699e-01
-2.590249683941320963e-02,-5.863962417455342857e-01,5.696545674417000660e-01,4.175669702076107229e-03,1.004228132041602543e-02,1.231987748851868679e-03,1.001502275466918945e+00
-2.494505492384957793e-02,-6.000398997743880969e-01,5.742749784308932570e-01,-6.982201326245932559e-03,6.182006534121471317e-03,-1.104625807982272155e-03,1.017188072204589844e+00
-1.315603764018440092e-02,-5.881989340595452642e-01,4.939327757507747663e-01,1.049166325500908810e-03,-3.475970311174753774e-02,-2.098041269915187912e-02,9.404040575027465820e-01
-2.623315285191889917e-02,-5.413579951286954239e-01,5.207368533454616033e-01,-2.754631190980530442e-02,1.355750331656481976e-02,2.079290484286848081e-02,9.221780896186828613e-01
3.152599113422790977e-03,-5.255560456314554152e-01,3.701739920938021955e-01,-1.274402230078049147e-02,3.604547452958376582e-03,-5.102939076411745767e-02,7.852535247802734375e-01
-4.210118524232134285e-02,-5.113556609939183817e-01,5.810998639165044777e-01,-5.981300184634228420e-04,-4.979595067127251529e-03,-6.858466018412212421e-03,9.493343830108642578e-01
2.789873005541732010e-03,-6.090405211005741615e-01,4.699257387738695613e-01,-1.042940387809839463e-02,2.527905820433211728e-02,3.123605149745894635e-02,9.399631619453430176e-01
-1.780035352209535446e-02,-5.558199529615075463e-01,5.158061537640022953e-01,-1.627837191001342207e-02,5.354076527394023566e-03,-5.652610319535347067e-02,9.336799979209899902e-01
1.221680955305856631e-02,-3.502355746143419601e-01,1.223925294109631801e-01,-5.988524859965424496e-02,7.574984358569609999e-02,1.252463625540021497e-01,5.084059834480285645e-01
5.421136456042925655e-03,-2.950360247992925844e-01,1.498908692272800103e-01,1.040299754872130340e-02,-2.339749189878597910e-02,2.898256343819076084e-02,3.987981081008911133e-01
1.384335914095716213e-02,-4.254873231948539947e-01,2.313645955176011348e-01,9.321626604759696011e-02,-1.047094155165703006e-01,4.378133239866185966e-02,6.329305768013000488e-01
-3.547807146548907081e-02,-2.981351059019369809e-01,3.501294616793331205e-01,9.437636252379482879e-03,-1.976524507483417084e-02,3.597655307483971221e-02,5.694616436958312988e-01
-3.598466017853449439e-02,-1.566917704119591970e-01,2.993525829563756235e-01,3.436607674194257223e-02,-9.668066713043241972e-03,5.249915154440753379e-02,4.237816035747528076e-01
1.569582904503088669e-02,-6.135594857198779506e-01,6.093550206275487602e-01,-2.738577232043357124e-02,1.444383485684393696e-02,-9.944460142257192589e-03,1.060721039772033691e+00
1.240608379979858504e-02,-5.450030196123618609e-01,5.959827542314601878e-01,-3.662913191159682808e-02,-1.039435963954401772e-03,6.049340880741720930e-04,9.902459383010864258e-01
1.852542760037254738e-02,-5.396745867479737502e-01,5.866708261743990294e-01,-3.882963928462751513e-02,4.300903741828268970e-03,2.481577632880676686e-03,9.778100252151489258e-01
-6.562598313991779841e-04,-5.507251320189442412e-01,6.018482503031590269e-01,-5.197859489717688436e-02,1.071011622550291711e-02,-1.173089082508846012e-02,1.002930045127868652e+00
-3.723939745131350613e-03,-5.834195733025751007e-01,5.866360854767576072e-01,1.946365088036289270e-02,-3.986791786100860567e-03,-1.291179585938819797e-02,1.014142751693725586e+00
-2.896530538081300982e-02,-6.234656957234409047e-01,5.550150864253237115e-01,1.629888030613744305e-03,5.988024534794501169e-02,7.688097827776126797e-03,1.025954484939575195e+00
-5.559068898023737659e-02,-6.032304692295017423e-01,6.020806853516718071e-01,3.807130610727614030e-04,4.791602914933190682e-02,2.473852450783773499e-03,1.048577427864074707e+00
-3.350072147344169970e-02,-6.444726547208977641e-01,5.539189762241841786e-01,-1.114511762539506512e-02,7.736643824816481774e-02,2.862781566580243145e-02,1.047870993614196777e+00
-3.223879670553743415e-02,-5.953964641426398030e-01,5.260598704130314829e-01,-1.368559805820215337e-03,3.886789743412515791e-02,2.122238099005001495e-03,9.735530018806457520e-01
-3.437819557631082573e-02,-5.962063856856310018e-01,5.254187767791226316e-01,-3.600272862816584086e-03,4.331990361191588590e-02,8.546934784640435045e-03,9.743824601173400879e-01
-6.563570446806313297e-02,-4.925599605045847262e-01,5.710244306448089002e-01,3.814426142950300136e-03,7.596054703777413604e-03,3.336747322435049817e-02,9.289579987525939941e-01
2.852703928368865993e-03,-5.854621036837536208e-01,4.967036516688652092e-01,-5.858678026207874388e-03,1.578153306632307760e-03,9.536188976929595509e-03,9.385766386985778809e-01
-1.108502473405220505e-02,-5.147341112586841794e-01,4.832627820364067683e-01,-3.384453040243114857e-02,5.812264194060192540e-02,-1.398714543038701887e-02,8.724551200866699219e-01
3.683320670221378046e-02,-5.688574134744441846e-01,3.857369331618141217e-01,-5.389927839103433524e-03,9.669882207150136758e-03,-2.980677366709085299e-02,8.384245038032531738e-01
-3.272760187066851845e-02,-5.768467668221363143e-01,5.755673435781237801e-01,-5.854348639371531734e-04,-3.000662553902914281e-03,-1.180607082187556771e-02,9.987589716911315918e-01
9.133226086972486002e-03,-5.755343043104642620e-01,4.631392781842416095e-01,-9.402715998967622890e-03,3.048923154191727700e-02,-6.952657903317746232e-03,9.036588072776794434e-01
-3.787169212496685478e-02,-4.688269552028764275e-01,5.200943768595495120e-01,-2.490284066670125918e-02,2.579698807751883496e-02,-9.712168397809779752e-02,8.773036599159240723e-01
9.909381161270103267e-03,-5.649161681651653222e-01,3.949234137267614297e-01,-6.997393152755522830e-03,-1.036939317231703539e-03,-3.663937840437164750e-02,8.391385674476623535e-01
1.731420394468254076e-03,-5.826871765891036281e-01,6.109762952830305460e-01,-9.158597893229468434e-02,1.409227075786513225e-03,-1.586989560283776426e-02,1.046280980110168457e+00
6.106537220931692635e-03,-5.780627965590953155e-01,5.903011787978132974e-01,-3.484429336948072220e-02,8.305317604685717725e-03,2.207234583745598059e-03,1.013740420341491699e+00
-5.570973282174211672e-02,-4.337832400405565170e-01,5.809309627518618457e-01,-6.206735329665961920e-02,1.456701499831472048e-02,1.662453794875013227e-02,8.955281972885131836e-01
-3.066593720882831997e-02,-5.418395002951537087e-01,6.036619989060755254e-01,-2.742421187407361599e-02,2.675901812163195351e-02,2.166523666261670894e-03,9.961628913879394531e-01
2.290789432537458647e-03,-5.064885340961819971e-01,5.789937079195777159e-01,-2.769984817255111142e-02,6.781966076780891056e-03,-2.830886756031669466e-03,9.419772028923034668e-01
-5.201568397642283847e-02,-3.912140491941999421e-01,5.831351960453778904e-01,-6.557826861755283732e-02,6.102411117599945700e-03,1.494269329878272073e-02,8.646371364593505859e-01
-3.302514208144412267e-02,-4.465864021271100937e-01,5.746906125143153021e-01,-2.729245863091990867e-02,2.091535322526809348e-02,-1.985171653607909099e-03,8.917611241340637207e-01
-2.246480926018592367e-02,-4.815345465042694117e-01,5.882957183015042890e-01,-2.341509995133429518e-03,1.178499517098866196e-02,-1.132516360825561001e-02,9.300392270088195801e-01
9.436673121947344867e-02,-6.526601548383317297e-01,2.505815857640529276e-01,2.629436827735880458e-02,-4.546841768363792807e-02,8.339009869005008235e-02,8.533973097801208496e-01
1.276985968025054485e-01,-6.786275351423235458e-01,7.754821161020869491e-02,1.565665182931725587e-04,-8.292736257197592942e-02,7.008873386296175789e-02,8.047406673431396484e-01
1.569019635011532077e-01,-1.047507185537899677e+00,1.907402966882315032e-01,-1.143511611843245207e-01,-1.576591212595973290e-01,-5.808403162929274416e-02,1.271385312080383301e+00
9.876851539633801913e-02,-6.161059508954227493e-01,1.078234656465719699e-01,-5.731941228016841638e-02,-1.380421329570085398e-01,-1.239256960825816170e-02,7.649083733558654785e-01
5.311187342000683875e-02,-6.078529752636303574e-01,3.202933677306881166e-01,9.294133339723347972e-03,-1.444168225883426387e-02,9.072283684978264817e-02,8.428729176521301270e-01
1.018098901047933547e-01,-6.978300072358190054e-01,7.913829522935794669e-02,-3.738265455409104515e-02,-1.050288313648102406e-01,5.533997710711344165e-02,8.174851536750793457e-01
-3.934682907857578460e-02,-6.068416412579078489e-01,5.904318871265805679e-01,-4.641251148618816356e-04,-1.416290964363788908e-02,-5.487762727577551354e-04,1.037627577781677246e+00
-2.579775166441818091e-02,-6.138575041852802894e-01,5.959890071341821249e-01,-5.273032231367073483e-03,3.540330451240964686e-03,-1.651742407725329291e-03,1.047955155372619629e+00
-1.634908019193011958e-02,-6.057821412675727935e-01,5.845892277841233664e-01,4.160407765283148998e-03,4.170079466539602236e-03,8.150221301100006935e-03,1.031054973602294922e+00
-1.965326941901047314e-02,-5.795630871460647482e-01,5.893649732273602559e-01,8.508954489843406285e-03,8.066168625430017100e-03,1.049900698701879478e-02,1.012985944747924805e+00
-1.570631237288914669e-02,-6.093155171758594113e-01,5.923517777986850863e-01,-2.185425907699170122e-03,5.271706430631258218e-03,-6.669091047692328206e-04,1.040747046470642090e+00
-1.809955458278988613e-02,-6.003015458078255762e-01,5.944682739165797480e-01,5.572255115822493873e-03,2.399355834142193403e-03,-1.176431286698633501e-03,1.034867763519287109e+00
2.983655043852941058e-02,-6.845813384205139407e-01,3.706914738532949838e-01,-1.602064787639469884e-02,-7.409139741728838768e-02,2.356462197862954286e-02,9.428638815879821777e-01
3.869820591848287944e-02,-5.715520644337342970e-01,5.793452213510434934e-01,1.035091425383519864e-02,-1.446647680244210260e-03,-5.914253080386178141e-03,9.975305795669555664e-01
1.140009981242793291e-01,-6.682704239453981510e-01,9.311161927398428628e-02,-8.624571518153219263e-03,-1.311364175932532017e-01,-3.933128210754295584e-02,8.077735304832458496e-01
9.671215359017354407e-03,-6.802255028566296380e-01,4.268720627442957882e-01,5.342089269090680159e-02,-1.315198323902238287e-01,5.837777261146835650e-02,1.004249572753906250e+00
7.177077858700259272e-02,-6.786735569785508071e-01,2.224714637762407188e-01,2.266986181669585279e-02,-1.113146672994202030e-01,5.610752856663242180e-03,8.589406013488769531e-01
-6.214847002330677050e-02,-5.012486353418017515e-01,5.810821971357589266e-01,2.274713353890419395e-03,-3.522443591039328692e-02,-1.417231741341745399e-01,9.762128591537475586e-01
-4.300035241529703844e-02,-5.123716759178407187e-01,5.860798635164931047e-01,-1.279681063841187419e-02,-1.082315590055540205e-02,-2.849715365576767356e-02,9.563485383987426758e-01
-3.882905844938837336e-02,-5.345481053871306010e-01,6.022054748536335156e-01,2.996443203056146920e-02,-3.790760507191432305e-03,-2.803407400864233595e-02,9.897121191024780273e-01
-3.795936651952281499e-02,-5.050951870858493287e-01,6.018907134535880221e-01,1.507405043354846999e-02,-2.687625883039179361e-02,-2.412327986707369504e-02,9.649431705474853516e-01
-1.808069223344849555e-02,-5.901183133920970825e-01,5.715505422061962770e-01,-1.155392484608162330e-02,9.787111959084838705e-03,4.133053039675976294e-03,1.006440401077270508e+00
-2.812736848427980704e-02,-5.905719565488876110e-01,5.289715885925205807e-01,1.601287948695004132e-03,2.196960372229868688e-02,-1.736667363821114279e-02,9.707733988761901855e-01
-2.108762123648327824e-02,-6.123147348844858451e-01,5.401757371226856286e-01,-6.700513169479217768e-02,7.516217617958546870e-02,-8.320848389031000603e-02,1.023517608642578125e+00
-5.634872114809272303e-03,-6.159033504327282582e-01,5.218576292602735700e-01,-2.506997674914647825e-02,6.449852944570066970e-02,1.409345607561663868e-02,9.937552809715270996e-01
-1.908043393585339906e-02,-6.099604542706917876e-01,5.742783907534844134e-01,-2.869473310561528306e-03,3.501594777525689900e-03,-5.136352054402880916e-03,1.025650262832641602e+00
4.627339674909123658e-04,-5.986792900530655270e-01,5.936129755296786215e-01,-5.421976949524194567e-02,6.106815097493262083e-05,-3.707688208635134559e-03,1.036841511726379395e+00
-1.717948793459352780e-02,-6.397361582587255402e-01,5.787557551397931599e-01,-1.896256770973006600e-02,-3.604498158973332145e-02,6.337084755098387756e-02,1.063364028930664062e+00
-2.915687980446551170e-02,-5.980539396367304805e-01,6.587120791642030460e-01,-2.898773773660211911e-02,-1.496767490644725432e-02,-1.192583501516495184e-02,1.091674804687500000e+00
-2.760652654013120294e-02,-5.812186034398180157e-01,6.486315860868818728e-01,-1.000450299513676033e-01,9.647886376346103202e-03,8.401701677465534326e-03,1.081053137779235840e+00
-2.532160227220395243e-02,-6.329518225537096310e-01,6.060804801119311636e-01,6.256073735428043566e-04,-2.402104857986404191e-02,2.722918460698360923e-02,1.074941158294677734e+00
-1.137741668075593557e-02,-6.287051638652352281e-01,6.225736498840644950e-01,-3.734543314065794095e-02,6.835718687315440632e-04,-9.146912389796534775e-04,1.085601687431335449e+00
-2.223119839916262025e-02,-6.294673199814410092e-01,6.080818198441625411e-01,-8.456925729365386002e-02,-3.926807371904478261e-02,4.011107531749662398e-03,1.083932280540466309e+00
-1.542946957617519210e-02,-4.443293820452389742e-01,6.025596515917266416e-01,-1.037028960300705183e-01,2.593636104663877076e-02,-4.942822799084375940e-02,9.340940117835998535e-01
1.993004876404443071e-02,-5.902840311609615087e-01,6.009876405374537933e-01,-2.292082734385282594e-02,1.702168230275261096e-02,-8.541973973083210811e-03,1.033064842224121094e+00
6.377301602297179295e-04,-5.501212711721191750e-01,5.712196806059424148e-01,-2.642671075428028316e-02,1.335116639308410805e-02,-1.253690694632670320e-02,9.727557897567749023e-01
-1.869044076649943945e-02,-5.819485171628611120e-01,6.020274310450796085e-01,-1.776090129690703623e-02,2.949647334251946293e-02,2.277345987583756851e-02,1.028244614601135254e+00
-4.461943109694638254e-02,-5.047864082297158772e-01,6.105887495825015332e-01,-1.750466686704278685e-02,-1.504588435998094895e-03,-4.475032390667436910e-02,9.744179844856262207e-01
-3.504306990613075511e-03,-6.440756975826185116e-01,6.535042716111907346e-01,5.389223827916277132e-02,-3.133668376312114673e-02,-2.985216505497450060e-03,1.128954648971557617e+00
-1.800139942488810513e-02,-6.021992535761533372e-01,6.154351474379290421e-01,6.614606590893972078e-03,-1.822325862928745460e-02,-1.644141604744927057e-02,1.055708169937133789e+00
-4.745549833910979280e-03,-6.027560198929153845e-01,5.831825071461922416e-01,2.715458463888920440e-02,1.663456423044915944e-03,-2.596542587856225104e-02,1.029128789901733398e+00
-2.961267249096853627e-02,-6.209040133037466713e-01,6.069543454840792274e-01,-7.996374118961082841e-03,3.410512141740536067e-03,8.412543494916650821e-03,1.063803791999816895e+00
1.530897129753056550e-02,-5.865096359419567085e-01,5.888693407606908625e-01,-4.067672389131790633e-03,5.338027085236215184e-03,5.734862965732510963e-04,1.018072962760925293e+00
-4.444330819412556366e-02,-6.084788860095913243e-01,5.756013709589817839e-01,-6.705210571684540495e-03,4.247381603768614344e-02,1.583209951202046301e-02,1.028891444206237793e+00
-3.184182709685343116e-02,-6.427208053434653179e-01,6.166381583299201941e-01,-9.545106350977444407e-03,2.571092469137793712e-02,-3.377900615693975924e-03,1.091848373413085938e+00
-2.123269135210401060e-02,-5.069417978812800207e-01,5.851958884124655036e-01,2.496526523925717347e-02,2.335133440748557096e-02,3.193139981033341068e-02,9.511999487876892090e-01
-2.624677690877611630e-02,-5.512669673200233378e-01,5.740924717367619223e-01,9.171203173973836373e-03,1.630930797935841239e-02,1.241352112530232782e-02,9.760923385620117188e-01
-1.939669165295278275e-02,-6.078058066476695886e-01,5.872626557800626479e-01,-1.804532603452908867e-04,2.682674347878135496e-03,3.027009099018225253e-03,1.035023689270019531e+00
-1.974505036293330851e-02,-6.088219644943497766e-01,5.837085590436801308e-01,-1.898299579480957353e-03,5.354876057483398850e-03,4.641847143843805951e-03,1.032864928245544434e+00
-6.047096874282699430e-02,-5.881986096446487622e-01,5.467111159397243236e-01,-2.103852451723921800e-04,-1.012556903529902548e-03,8.498515903749823998e-04,9.836659431457519531e-01
-2.364836116018838655e-02,-6.048376756783645503e-01,5.481277061469483902e-01,-9.405157906416375044e-03,-1.800845487798954144e-03,-4.821414671589700079e-03,9.986810684204101562e-01
-1.804791535216788284e-02,-6.083349062252874084e-01,5.724940777956005755e-01,-2.757324018677593126e-03,4.502368762522291484e-03,-3.665970765133441580e-03,1.022688508033752441e+00
-2.063519889178782457e-02,-6.123983274966551260e-01,5.971217654790280660e-01,-5.419827201523608022e-03,3.890795512248051546e-03,-5.146926062558945456e-03,1.047657370567321777e+00
-2.167994785884375455e-02,-5.998530467122954457e-01,5.530351601617662372e-01,-1.261410436828947455e-02,5.090406184391626111e-04,-1.344756786855387347e-02,9.989429712295532227e-01
-2.195959031390445557e-02,-6.112024277841283659e-01,5.612474279757619922e-01,-7.568310434356384162e-03,-5.924085058661851359e-03,-6.513556624392386092e-03,1.015574932098388672e+00
-2.736888615722351051e-02,-5.975898658853145973e-01,5.618332792691388411e-01,-1.327339430786289316e-03,-1.903818177765236389e-02,-1.637586235930624592e-02,1.005079030990600586e+00
-3.760861674065019145e-02,-5.848803663487824878e-01,5.725484627094414858e-01,-3.527431055645599382e-03,2.458569351542800804e-03,2.328391466830920676e-03,1.002891540527343750e+00
-5.100272781180194975e-02,-5.918897406353414992e-01,6.195873057131192629e-01,-1.038564752094983147e-02,5.758596227694947473e-03,1.940355344466286602e-03,1.051378846168518066e+00
-7.739641397854946092e-02,-4.509581696014374752e-01,5.537065335739300709e-01,-4.966879207244408179e-02,-2.025025490469251413e-02,-3.750496750757589814e-02,8.868180513381958008e-01
-2.557008462158106774e-02,-6.302056015851744686e-01,5.713839791613242181e-01,-7.592373793138739932e-03,2.308396995092538984e-02,-4.281953423176241419e-02,1.044102430343627930e+00
-5.947053804475201794e-02,-5.920787481311671208e-01,6.226173189546857500e-01,-1.007135377820748447e-02,2.301948600004400519e-02,3.946893186675279330e-03,1.055529117584228516e+00
-5.488544937162616322e-02,-6.889484659826180524e-01,6.252311530404949247e-01,9.981672582045308245e-03,-8.221453208217234521e-02,4.252872151771303066e-02,1.149710416793823242e+00
-5.176583687006686141e-02,-6.320246026174218823e-01,6.007245962801565087e-01,-5.861036638724031154e-03,-5.094596970976891792e-02,-2.484884846936012345e-02,1.072753071784973145e+00
-4.977532618554847410e-02,-5.179051001076824257e-01,5.957393267824102612e-01,2.218512860405040185e-02,-2.761806844226144531e-02,-5.207062650270554566e-02,9.746374487876892090e-01
-3.944870075352020083e-02,-7.184640483408110123e-01,6.216513386844356726e-01,1.262191836092178745e-03,-1.297265573287879337e-01,-1.398992090955226454e-02,1.182409048080444336e+00
-5.971094832081400017e-02,-5.894025221065984921e-01,5.467673712611237358e-01,-4.597642685713147488e-04,-7.328820348244625624e-04,4.077563414377563815e-04,9.847021698951721191e-01
-2.713648715749304025e-02,-5.791492422383952565e-01,5.559739482385348541e-01,-1.299111595561626593e-02,5.183956145856664921e-02,2.338178626108247064e-03,9.875246882438659668e-01
-4.832995869778117237e-03,-6.723659164724060666e-01,5.953000933184788845e-01,3.041211768652836780e-02,4.813889073122921969e-02,-2.594753809624870261e-02,1.103682518005371094e+00
-5.324357964927059483e-02,-4.993337175561424202e-01,5.969611711128810505e-01,2.614311712819264097e-02,1.909325173000104778e-02,1.436408613177359885e-02,9.568571448326110840e-01
-9.637322487780111691e-03,-5.385765016819930029e-01,5.921728207083118978e-01,5.276910862079186443e-02,-1.093070296905010973e-02,-3.162288177590714955e-02,9.858931303024291992e-01
-2.389137931725396347e-02,-6.907273187235847267e-01,5.857199414926561598e-01,2.469072903357642790e-02,-6.347232459524849990e-02,2.072450352945938087e-02,1.112659215927124023e+00
-1.612735947828729255e-02,-6.320030077092639864e-01,6.449783527263165395e-01,4.523162683499370312e-02,1.365732950441011020e-02,-3.214431443324766713e-02,1.110549211502075195e+00
1.060903682833609293e-03,-5.731427503971063819e-01,6.168810936379953702e-01,4.467315625788611383e-02,-2.241080791438388939e-02,-2.751095585939937818e-02,1.035526394844055176e+00
-1.468618773007385192e-03,-5.892403816622033830e-01,6.061884693101966537e-01,3.544702012935602858e-02,-1.145508218601056123e-02,-7.845131357906392003e-03,1.037417054176330566e+00
-3.284170134645711392e-02,-4.144535024167509407e-01,5.696799593421255636e-01,6.347452918319582138e-02,-1.022351742391536603e-02,-7.448495939829577472e-02,8.761472105979919434e-01
-5.767553702745557842e-02,-4.177867223057789570e-01,5.782443543547669540e-01,7.994645521935185573e-02,-2.139936211476225689e-02,-7.656630004484640817e-02,8.951041102409362793e-01
-1.058548993477353289e-02,-5.283250315510084061e-01,5.887364449688922141e-01,3.332889290078622918e-02,-1.688687129680067206e-02,-1.470896047243510675e-02,9.707577824592590332e-01
-3.308276931914378577e-02,-5.040911299200481199e-01,5.635318532304591788e-01,1.509647711231336918e-02,-2.087705693460386452e-02,-2.564504241985938668e-02,9.288555383682250977e-01
-4.862545601588608157e-03,-5.379204116112998868e-01,5.956992317254400371e-01,3.217025501565028839e-02,-8.271702755465059134e-03,-1.156435802099316928e-02,9.842106103897094727e-01
3.176829929220428839e-04,-6.885233378821062900e-01,5.212928361334970839e-01,1.437676429257703503e-01,-2.290571096018179653e-01,4.866624339838525326e-02,1.153819799423217773e+00
-3.881178281048328765e-02,-5.364714322584541728e-01,6.236292801640742622e-01,2.939381907393410001e-02,-1.319552214991294263e-02,-2.588437695339037073e-02,1.010587811470031738e+00
-1.295422756619327501e-02,-6.035471200488771171e-01,5.988209242867811311e-01,2.062140619591264212e-02,9.705533633533297132e-04,-1.617448494456408259e-02,1.042325377464294434e+00
-9.285393399765098921e-03,-5.579948548214058723e-01,5.946434147359354050e-01,3.292733407322286088e-02,-1.576026894654916632e-02,-3.255484555756640169e-02,1.002182960510253906e+00
2.614718911619936387e-02,-5.699146058314419339e-01,5.733848908874826789e-01,3.826513743046020682e-03,7.515184372166754286e-03,2.744243204108870807e-03,9.905464053153991699e-01
-1.436314291741445232e-02,-6.106966126170577658e-01,5.246773811352519745e-01,-1.554742001505542322e-02,3.824130351028935670e-02,-2.714711318219709124e-03,9.862862825393676758e-01
-2.755737179290284472e-02,-6.270028077463538629e-01,6.270093163744746567e-01,1.434847390877448843e-03,6.008930690372809268e-03,-1.391964083798742126e-02,1.086676239967346191e+00
-1.129442095777630217e-01,-4.890083171619641345e-01,1.049775168463377817e+00,2.194001701097749168e-01,4.201599296016095969e-02,-3.623809043518094047e-02,1.443690538406372070e+00
-1.988498331523887164e-02,-5.879999331429306419e-01,6.165365078280908850e-01,4.169890283627219357e-04,-1.966495167660645485e-02,-7.310992256953264753e-03,1.044350743293762207e+00
-1.023374393024455153e-02,-6.343006609485808411e-01,5.641315952833007019e-01,-2.414694387063564575e-03,8.716801038664127171e-03,-2.734605722829518224e-03,1.038299202919006348e+00
-3.655760325865898414e-02,-6.153587267428476393e-01,6.287994493183298728e-01,2.222498036787841358e-02,-9.395173645670206256e-03,-1.569787350332232934e-02,1.079493403434753418e+00
-2.815642118395182691e-02,-5.362473284383079131e-01,5.765102200710051639e-01,1.219112733774113579e-03,8.994731615431770383e-03,-1.942053794949692713e-02,9.655994772911071777e-01
-1.996086417814155189e-02,-6.103203763953093386e-01,5.472108139015815498e-01,-1.329537995369595334e-02,9.595021360437244523e-04,-2.738329510005432267e-03,1.002795457839965820e+00
1.666353235650673559e-02,-6.397243403945070961e-01,4.001513268433020687e-01,1.061993609578844311e-02,-9.132046802458203272e-02,-4.580489468679894288e-02,9.280493259429931641e-01
4.146972397515463760e-03,-6.153998450671945841e-01,3.914171904018273196e-01,-8.190362009966005094e-03,-1.135148831451315843e-01,-3.988005517108569875e-02,9.040895700454711914e-01
-1.075931406493396865e-02,-5.793776183802311630e-01,5.937648931216020776e-01,5.218513815012097885e-03,1.869573610419041770e-02,5.742862739562929614e-03,1.016734480857849121e+00
-1.727928364303188066e-02,-6.023016193867587464e-01,5.827478961716708872e-01,-7.158580732606552354e-04,2.008672250577404721e-03,7.012904821186505874e-04,1.026317715644836426e+00
-3.206153579411390175e-02,-6.120010418171875077e-01,6.027895126174710461e-01,3.781981585716995102e-03,7.926786061069079382e-04,-2.557857730750248584e-04,1.052419066429138184e+00
-2.365936087523256778e-02,-5.532332651585306627e-01,5.810673552544305398e-01,1.049108254854954486e-02,1.156704578345817656e-02,7.229633290691228099e-03,9.835033416748046875e-01
-2.729279304466813993e-02,-5.904886721745022937e-01,5.874350857124486236e-01,1.900713310938523682e-03,2.567024938999198490e-03,-9.136053784336510119e-04,1.020453453063964844e+00
-1.550416228551292942e-02,-6.243561225223940303e-01,5.465581291232173289e-01,1.398792566219155507e-02,-3.316789316988032199e-02,-7.927262528894592642e-04,1.016226649284362793e+00
2.655854534313389220e-02,-5.345374700852341121e-01,5.704321704456778441e-01,2.461159962811846832e-02,8.267331900727488414e-03,7.118773356471679546e-03,9.581058621406555176e-01
-5.961466228285021429e-03,-5.269147261608569943e-01,6.088254279710675343e-01,5.176602048265925571e-02,6.001323551695201056e-03,-2.272038807142588365e-02,9.896091818809509277e-01
-7.624661854278627637e-02,-3.048633006563787329e-01,5.623662461154685932e-01,3.684608542182064156e-02,2.205670646373741883e-02,4.860827042582162999e-02,7.865813374519348145e-01
-2.224086292092846556e-02,-4.607356926940631703e-01,5.847388859954585349e-01,4.052451188826277501e-02,1.579935452268149687e-02,7.892076233285283057e-03,9.125360250473022461e-01
-3.085680328197341893e-02,-4.328094023520417388e-01,5.719603757440716585e-01,5.813468253301408428e-02,4.896196847233118092e-03,-1.804894870884008601e-03,8.817476630210876465e-01
-5.781325156959912781e-02,-5.765934076971275246e-01,6.875661240812320774e-01,1.313276139008616727e-01,-1.473689975252802653e-01,3.386707951432869641e-03,1.152536034584045410e+00
-4.212470639092188301e-03,-6.012541096455827905e-01,6.306277799046504651e-01,6.623708972507756643e-02,-1.641718887623835541e-02,-4.607731748425023671e-03,1.073564767837524414e+00
1.080811351293330808e-02,-4.496280685173192904e-01,6.065107268835340237e-01,1.148797856316981225e-01,-1.441057370108505577e-02,-4.905272026089473741e-02,9.426450729370117188e-01
-2.392014215198500979e-02,-6.290132541300630376e-01,6.000419678091439835e-01,7.534732176336695827e-03,-6.788746975980357312e-03,4.657101990274406175e-03,1.064610362052917480e+00
-4.316031160026414550e-03,-5.887131581056750385e-01,6.006504226175201078e-01,1.365269732258837243e-01,-4.248893880470925449e-02,3.131140915786766177e-02,1.060811519622802734e+00
-2.187921447760277083e-02,-5.713965942245142760e-01,6.068178580989873616e-01,9.723255945713346615e-02,-3.529143616833560482e-02,5.495849092362473098e-02,1.041090607643127441e+00
-2.204848479496332447e-02,-5.989478678507116349e-01,5.660735517237502901e-01,6.261252492622819410e-03,-1.126905619767086010e-02,6.750679682761577191e-03,1.009268522262573242e+00
-4.556300527956079482e-02,-6.034007958282769923e-01,5.788491349900182215e-01,-5.573298808685104092e-03,2.132583724017427570e-03,-5.688951585053166754e-03,1.024498939514160156e+00
-4.521267762410338675e-02,-6.043788400641701974e-01,5.782124335117770908e-01,-2.534635640608499767e-03,1.998307680145114222e-03,-5.747091101721457825e-04,1.024673700332641602e+00
-5.243476424789580981e-02,-6.017321046891683789e-01,5.668707914264611292e-01,2.356921485553100000e-03,-1.050806805707204042e-02,1.957353796046056547e-03,1.012822389602661133e+00
-3.571898042060174527e-02,-6.024134443697521935e-01,5.569541413723583245e-01,-6.288881293004443263e-03,-1.360716090362295086e-02,-5.938787919129002134e-03,1.004514098167419434e+00
-4.553362460986301596e-02,-5.990105969537601327e-01,5.592133558105153446e-01,-8.361193939626828872e-03,-3.723134072732866076e-03,-2.519197094417300296e-03,1.003513574600219727e+00
-2.316609197037149126e-02,-6.014825171126396697e-01,6.090873036400452634e-01,1.706127085580083809e-03,-3.608935094403254058e-03,-6.477984517946732811e-04,1.048754453659057617e+00
-1.081009358191301062e-02,-6.044619234729929902e-01,6.035245602333461079e-01,1.248581325162880992e-02,-4.852999206987547096e-03,-6.841490291734266503e-03,1.046522378921508789e+00
-2.685424416234038353e-02,-6.164273878505953652e-01,6.157244401369139641e-01,-3.223521691915273366e-03,1.419578196646839987e-03,1.302566749009210567e-03,1.067423701286315918e+00
-1.639821409608113734e-02,-6.190801119095811211e-01,6.182599390698775288e-01,-4.191019831149149326e-03,-3.470727747321974109e-03,2.746431047369409309e-03,1.071739196777343750e+00
-2.074261141767765743e-02,-6.135037820430614408e-01,6.175033551432130841e-01,-5.439762234379927688e-03,-8.293281969005640922e-03,-3.302199093466463321e-03,1.066479682922363281e+00
-3.705923217420388494e-02,-4.944061482362554494e-01,5.064397788763922437e-01,-2.838160601159112669e-04,-1.769870905507671399e-02,-2.595436000727595078e-03,8.683807849884033203e-01
-6.489486813228377560e-02,-4.608452524671189376e-01,5.107814147524355475e-01,-1.987698613918817067e-02,9.715439055032661780e-03,1.081185574788809667e-01,8.675577640533447266e-01
-3.883843786111328827e-02,-4.982168626489222873e-01,5.596945705459432929e-01,-4.738848087589010195e-03,-9.785463865956901125e-03,3.242137354392329168e-02,9.207233786582946777e-01
-9.005985504294652250e-03,-6.077574340158670152e-01,4.990471793579562831e-01,-4.215888991139020133e-04,2.825223107036687210e-03,2.273691020588648748e-02,9.604135751724243164e-01
3.729826987367186597e-03,-6.177305400871805352e-01,4.946858582176000274e-01,-1.009344118989011045e-02,7.493535332730867984e-03,2.651559054375845353e-02,9.669249653816223145e-01
-5.141730860089951255e-02,-4.455754871243947646e-01,5.048954368436909812e-01,3.408321207443869554e-03,9.695711516978332625e-03,1.114250165952113542e-01,8.495194315910339355e-01
-1.813550155653450430e-02,-5.905610867376570594e-01,5.612567007772361061e-01,1.266373905755350041e-02,-1.439726554888017375e-03,2.041553613634133207e-02,9.983801841735839844e-01
-3.136389398398882478e-02,-4.906349842391189431e-01,5.481075177157854750e-01,6.162346181848206601e-03,1.403279902399834529e-02,2.327379118844993128e-02,9.028738737106323242e-01
1.311509125883437293e-02,-6.118268837316112041e-01,4.632084859313426728e-01,-1.839599668527950801e-02,-1.663173389786578443e-03,4.385312188582125847e-02,9.387287497520446777e-01
2.011225641279021370e-03,-6.417534027505089611e-01,4.988016415078837529e-01,-1.720762349263710994e-02,-2.494294007130070864e-02,-2.500218171756096036e-02,9.928140640258789062e-01
-1.770403529149012015e-02,-5.657008093761533019e-01,5.484716231288950805e-01,2.850619323788166834e-02,-2.799023711471447518e-02,3.078421954302855944e-03,9.674370288848876953e-01
1.348676054211862818e-02,-5.985854194129772710e-01,4.255642165559094803e-01,-4.392034647547955750e-03,5.115683489964292091e-02,2.156065527134092344e-02,8.977554440498352051e-01
-1.132284209783821632e-02,-6.165896262453716137e-01,6.042962086950525169e-01,9.934307511264843362e-37,1.686463349475945332e-04,-1.786900311557601670e-03,1.057335376739501953e+00
-3.942818395550426458e-02,-7.182095642873415064e-01,7.261155649586179539e-01,1.618465004214132696e-01,-1.052308404183896207e-01,5.869990212144742675e-02,1.299453258514404297e+00
2.118634301116442686e-02,-6.550152566107353413e-01,4.378208325872179341e-01,-2.431859251887262541e-02,3.707048190507315766e-02,4.688975071144027042e-03,9.583969116210937500e-01
8.206166772668360698e-03,-6.054270050315110341e-01,4.179434497003653992e-01,7.021216041212685437e-03,3.204627832495128646e-03,2.283443077436670202e-02,8.930854797363281250e-01
2.201318974637302139e-02,-5.794655680946826370e-01,3.660163415058467762e-01,7.863298655656730633e-04,4.346391057223248505e-02,2.681488770237808097e-03,8.322957754135131836e-01
-2.898372343847962357e-02,-7.351739325792558954e-01,7.901300770453436595e-01,1.549475757255897729e-02,4.477509995592783565e-02,4.647069336820772861e-03,1.324727058410644531e+00
-1.992636252775322955e-02,-6.079607955837741384e-01,4.937527259322213036e-01,5.016901662770832833e-03,1.679355653091133688e-02,-1.560432584977270581e-02,9.557006359100341797e-01
1.681257460949296401e-01,-6.955559961850985573e-01,2.206877580130220395e-02,-2.929745311437788324e-02,1.081588886710443120e-01,5.627311131935069932e-02,8.296397328376770020e-01
-1.386370256395667508e-02,-5.679946055761538881e-01,5.898421761044091438e-01,1.657054166604707626e-02,-3.919741895410661439e-03,-2.853435142538899173e-03,1.003468036651611328e+00
-1.542649792163692905e-02,-6.007775740314321711e-01,6.108851068953489172e-01,1.202370785403691737e-02,-7.779404919262216007e-03,-6.715751709272893511e-04,1.049824237823486328e+00
-1.623452838812934618e-02,-5.851435094461359121e-01,6.100223391138197560e-01,1.322021611083791168e-02,-1.036238259295976100e-02,-1.786799291718645794e-02,1.036311984062194824e+00
-6.262263918430580056e-02,-6.012428210081283142e-01,5.764496219557391221e-01,8.445377028423723884e-03,-2.744846250604206922e-02,1.889434943055465221e-02,1.022881984710693359e+00
-9.322504735037730889e-03,-6.078129927520568021e-01,6.118057451809838510e-01,-7.872523753246924447e-04,-1.341837140244087762e-02,-9.397530865637937492e-03,1.056663393974304199e+00
-1.636427227089375797e-02,-5.863848955590919010e-01,5.890637750174376741e-01,-1.017242600816255921e-02,-1.159266857517612069e-02,1.129496193618102469e-03,1.018474578857421875e+00
-1.961025439665427250e-02,-6.125256404616337136e-01,5.848678471075222651e-01,-1.319053245050069191e-02,1.347962242797514677e-02,8.191221156574845369e-03,1.037600636482238770e+00
-4.369424922412716572e-02,-6.061905749059064430e-01,5.849169154032571871e-01,-3.124449086704418881e-03,3.338743763048018787e-02,3.207145758453149031e-03,1.033706903457641602e+00
-5.001775994253630786e-02,-6.210858421578683286e-01,5.853489061517576086e-01,8.016218197098469792e-03,4.978643011973257759e-02,-1.195260854464927532e-02,1.049144744873046875e+00
-4.203128897639249462e-02,-6.056421940279841376e-01,5.607544517663820560e-01,-8.443660282854198364e-04,2.424147010816842668e-02,9.087857438076579752e-03,1.011314630508422852e+00
-3.011595563716547644e-02,-6.114800133793821812e-01,5.275907814306165511e-01,1.196073227694840861e-02,4.127811694862845021e-02,-2.581608891075454909e-02,9.903493523597717285e-01
-1.188996860392241631e-02,-6.108305646305548509e-01,5.263140039614414567e-01,-8.229080541656896147e-03,3.418504986143126173e-02,2.326489530951196365e-03,9.871528744697570801e-01
-5.457405120466365944e-02,-3.633349476627190655e-01,5.338799652268204632e-01,-3.479590635045371610e-02,6.936331873085862729e-03,3.335823428509132604e-02,7.939886450767517090e-01
-3.775937599637915754e-03,-6.134573144021131519e-01,5.053258140661130993e-01,-4.515084545174048204e-03,4.086225589954739328e-03,8.570500925182545152e-03,9.703697562217712402e-01
-5.476351549708687039e-02,-4.623911864993898724e-01,5.614681451774715670e-01,1.795334872669403095e-03,-2.897100447853632674e-02,4.239521573031405921e-02,8.972260355949401855e-01
-5.231565928722455017e-02,-3.545061554227588174e-01,4.648774845098886388e-01,-5.966574191898106616e-02,5.057577014272143096e-02,6.566296332924868558e-04,7.303791642189025879e-01
-6.348311358930372461e-02,-4.110219909691901763e-01,5.256612379143085212e-01,2.154953389807327119e-02,8.836337409703829554e-03,8.096195014022311565e-02,8.330166935920715332e-01
-1.016959547700092836e-01,-3.569554334666113493e-01,5.791066120377362791e-01,1.286708901333432145e-02,1.523296768512029560e-02,7.324067921035003204e-02,8.483608961105346680e-01
1.520675241334235039e-02,-6.188000751296524049e-01,3.322705888461244261e-01,1.675357802171642541e-02,-1.459394656824043179e-01,7.304392231113718270e-03,8.765910267829895020e-01
-2.292668390747943860e-02,-6.003161800368657097e-01,4.703722223612154529e-01,-2.116092614058301402e-02,-6.103541917085820306e-02,-3.418958317534842584e-02,9.367892742156982422e-01
-1.382733477293698887e-02,-6.158499806509892815e-01,4.088141702807503441e-01,-4.739534117235823588e-03,-1.025170954764656472e-01,-3.756991558280717292e-02,9.117718935012817383e-01
-2.260411873754211709e-03,-6.242706290067404629e-01,3.795368519904833704e-01,8.468394401010152783e-03,-1.617026861720861075e-01,-1.659528144636175304e-02,9.217550158500671387e-01
-1.280930340441121390e-02,-6.114656435989911376e-01,6.086188789997428739e-01,4.221301396691902637e-03,-1.858499728845873196e-03,1.294022543158853322e-03,1.056718111038208008e+00
-9.454591286746694134e-03,-6.055764962719928368e-01,6.088893461297848475e-01,-3.263792998137247502e-03,-1.169939083174575782e-02,-6.859438007933441918e-03,1.052094459533691406e+00
-3.316799279996559408e-02,-6.117461732283681064e-01,5.817246246758523975e-01,1.466953600256338131e-03,2.367790030281597367e-03,-5.117552080769327896e-03,1.033784747123718262e+00
1.386702265553835071e-02,-5.783208958934054067e-01,5.878910887115889050e-01,9.663722701117908112e-03,-1.388710331602506856e-02,-3.072314853787234956e-03,1.010449051856994629e+00
-5.235636400421257025e-03,-5.368690471764882011e-01,5.948017094137103555e-01,1.902163033350957183e-02,-1.846734486075727114e-02,-1.926763660621921836e-02,9.822937846183776855e-01
-1.181593669457673204e-02,-5.660170934682499100e-01,6.047493571235632581e-01,5.281507441028039131e-03,-2.299365691005973364e-02,-1.218381799612599722e-02,1.015434861183166504e+00
9.967261772207448856e-03,-5.940899517176466693e-01,5.924749967622435776e-01,1.060611737237585409e-02,-3.394359292821401246e-03,1.521102308138727675e-04,1.027832865715026855e+00
1.020039418670790239e-02,-5.808193265162331365e-01,5.972689860724501587e-01,1.222774223668118485e-02,-1.053887964792429854e-02,-8.494177849107067968e-03,1.020745396614074707e+00
-2.755545280708905295e-02,-6.280256187264813272e-01,5.296257704844974379e-01,1.182473207309499806e-02,-4.242017814824618899e-02,1.532547669663696620e-02,1.006036043167114258e+00
8.022845641460850385e-03,-6.063508785365112619e-01,4.688249031021238800e-01,2.046975255338537997e-03,3.030696339132920095e-02,1.233859867311499700e-02,9.360144734382629395e-01
-3.971477129767378433e-02,-5.948380015152839873e-01,4.814430269596924328e-01,6.645740528295822694e-03,-5.052606300121990912e-02,-2.221271115643920144e-02,9.372008442878723145e-01
3.060759141973935782e-02,-6.146994041178950319e-01,4.197973935750290986e-01,5.087906492951459712e-03,2.509107315098556192e-03,-9.834954266865206934e-03,9.052200913429260254e-01
-4.085504110776840697e-02,-6.786351941981221270e-01,6.046036094956876994e-01,2.463846073451839234e-03,-6.704883496085858874e-02,2.165478939109107687e-02,1.118012905120849609e+00
2.340247994273968180e-02,-6.292603112978771840e-01,4.523906019707513160e-01,-1.476299839076020831e-02,-8.416148720839932915e-03,-2.988349393264430262e-02,9.452669024467468262e-01
-4.808515765228658922e-02,-6.972023234489411747e-01,6.624628866986503883e-01,-2.971401724822430798e-02,-1.304540420611940144e-01,-1.554993236945199572e-02,1.200787067413330078e+00
-5.253263001111971309e-02,-6.082529728702599225e-01,6.180026694648448338e-01,-2.459259987468610104e-02,-6.457492669169499766e-02,9.913841245629790438e-03,1.070369958877563477e+00
-3.119183915947599389e-02,-6.927191565110145666e-01,5.494056514720401241e-01,-2.808520524149894088e-02,-1.085844874099599205e-01,-2.060349930830034093e-02,1.094442605972290039e+00
1.325419384779432663e-01,-9.561851902731911546e-01,1.549465309820383663e-01,-9.134023384201613027e-02,5.751931821423830055e-02,1.063145419811730163e-01,1.130965948104858398e+00
-3.546550502929334339e-03,-6.646217379646927048e-01,6.905913175181132013e-01,5.882113480113743825e-02,4.174720626772858911e-04,-6.550973225796148658e-02,1.183629989624023438e+00
-2.483522730032556441e-02,-6.298918254747860601e-01,5.480214065906023890e-01,-1.092356026642795665e-03,6.666154432397883300e-02,7.867944954068884639e-03,1.026834726333618164e+00
-5.900856411857040296e-02,-6.320457556512549813e-01,6.689471704922796969e-01,-1.596483104207818259e-03,1.073137849139775141e-01,-8.842580965007252117e-03,1.144651889801025391e+00
2.404923189885596613e-03,-6.578148150175819886e-01,5.523418822458201483e-01,2.800713816353729915e-02,5.150879044886538805e-02,-1.845503748763123409e-03,1.054382681846618652e+00
-1.234500524570570149e-02,-5.803944598649946052e-01,6.136035340252974368e-01,3.049682956344785395e-02,2.076863799602817959e-02,2.627516961808423410e-02,1.037408709526062012e+00
-2.829800131341597691e-02,-5.064941201086602396e-01,5.808203173790332796e-01,-9.508673409808146570e-02,7.305370064161501031e-02,4.160345072099187920e-03,9.665203690528869629e-01
-1.187069767888641360e-02,-5.575541777911224850e-01,5.358998622110165977e-01,-5.799369432704110094e-02,4.991373919070018345e-02,-2.173600784112698307e-03,9.561958312988281250e-01
-2.830732045189383178e-02,-4.550517222879219004e-01,5.077484771168312427e-01,-6.574820259423679036e-02,2.973525738246212205e-02,1.236209868264332053e-02,8.451656103134155273e-01
-2.185829955603181898e-02,-6.184843177252292712e-01,5.896913125552634138e-01,-1.789506234941574264e-02,3.384888671652017123e-02,-2.404039945045768900e-02,1.049263358116149902e+00
-2.464951231270389245e-02,-6.339363228972891839e-01,5.888305899432142443e-01,-9.445097284441065708e-03,2.546324130864199495e-02,-4.854027959511888687e-03,1.060026884078979492e+00
-1.088368681309521968e-03,-6.899531388316438862e-01,5.593465064315190638e-01,-8.194787894370621217e-02,5.762758749589094731e-02,4.356788200070219400e-03,1.097657442092895508e+00
-1.930456946110926247e-02,-6.081012145800603896e-01,5.455748965395145200e-01,-6.420927541900986642e-03,6.504759372098900538e-02,-2.556545846612087378e-02,1.006552219390869141e+00
-1.504744425835596346e-02,-5.218265576986660381e-01,4.870095726006592463e-01,3.777917644133899078e-02,-1.907405883129200536e-02,-9.108154339873553162e-03,8.768925070762634277e-01
-3.449600173744250819e-02,-5.690016939874500412e-01,5.735441490967598810e-01,-3.265750497710932353e-03,7.975197229859735037e-04,-9.158572271615962601e-03,9.903007745742797852e-01
1.112677335613548868e-02,-5.421040546972892837e-01,3.951513276445002831e-01,1.595030266344999934e-02,-1.569125761030234004e-02,-4.755263945007217469e-03,8.170453906059265137e-01
-2.034494712950203621e-03,-6.163706207630991196e-01,4.825627597179403816e-01,-8.020267968271035594e-03,1.013056546180413943e-02,4.570728794862015214e-03,9.542077779769897461e-01
1.092320874690875382e-02,-6.169719282376797675e-01,4.581196554717794633e-01,-8.418811367864445288e-04,-1.921520388316827130e-02,1.669931224028704374e-03,9.360275864601135254e-01
-1.351219226688481732e-02,-6.112189067746865989e-01,5.390313678473254155e-01,-9.364364201332521856e-03,8.228328964295218793e-04,-4.613052274569226160e-03,9.965669512748718262e-01
-2.112109458273423238e-02,-6.125003849860143346e-01,5.775665202867056314e-01,-8.092947212044282815e-03,9.994529410323221841e-03,6.273425556025231074e-03,1.030932545661926270e+00
-2.808881593030094354e-02,-5.905846660295293038e-01,5.985362004676660908e-01,-4.123733601106004468e-03,1.676422208202818509e-02,5.024397074873747067e-04,1.030742168426513672e+00
-2.163785647472833695e-02,-5.767827928371757062e-01,5.694292123926188998e-01,2.740026302496462868e-02,-2.821966314450712401e-02,1.428888495890734758e-02,9.954536557197570801e-01
-3.165084397317997900e-02,-5.197040746958481172e-01,5.650645801844247362e-01,3.860419184014683008e-02,1.249624490934550872e-02,3.216758742099311980e-02,9.452712535858154297e-01
-3.681363253589232248e-02,-5.253243616475523625e-01,5.783111635562215858e-01,2.728193745076555252e-02,2.262114761494729218e-02,5.598946755407155362e-02,9.647221565246582031e-01
-2.140305998978741034e-02,-5.585144868353597580e-01,5.724491996722849141e-01,6.396480679674325029e-03,2.146101502296645508e-02,1.567363473175448912e-02,9.809972047805786133e-01
-2.378216779053729524e-02,-6.157669236753711139e-01,5.889010045744188515e-01,6.154505482227808251e-03,-6.450531228067397232e-03,-5.661180473149401635e-04,1.043439149856567383e+00
-3.630328917765560798e-02,-5.734216792335190549e-01,6.020941490521677375e-01,3.958355775064182312e-03,-4.144361697450515795e-03,3.858941815792891854e-03,1.019355535507202148e+00
-3.169016598561123776e-02,-5.852601897634036598e-01,6.030749466536513559e-01,-3.244234456793884756e-03,-8.926973970267887187e-05,-1.185019844672887540e-02,1.030148744583129883e+00
-2.943021121357583883e-02,-5.975399440550367425e-01,5.848458520184318665e-01,2.628142668713771835e-03,-7.108817114462867917e-03,8.223830454840461851e-03,1.024419426918029785e+00
-3.348875962012114876e-02,-5.969633580497274439e-01,5.888523325140204712e-01,-3.259514456837953131e-03,-3.218466350497320525e-03,1.121849635294753372e-02,1.027582526206970215e+00
2.236918774217068126e-02,-5.255435734714319906e-01,5.758759413436813634e-01,3.151515949310421116e-02,-1.292825487829224636e-02,-6.025779666692987480e-03,9.557413458824157715e-01
-2.543252985468473504e-02,-6.120399188483891528e-01,5.937603384207663648e-01,-8.476181610137255990e-03,3.783838356333825165e-03,6.630151849747530947e-03,1.044567584991455078e+00
-1.454852474231927567e-02,-5.735301035775068890e-01,5.923669356168898004e-01,-5.388602279703815813e-03,1.947278169259357428e-02,3.144405282487236042e-04,1.010587096214294434e+00
-7.905206435616554672e-03,-5.970481363185818902e-01,5.998075302802121644e-01,-3.391415503794980180e-03,1.353759138235737479e-02,-6.445199979176458212e-03,1.036890864372253418e+00
-7.959822377789166348e-03,-5.596759835374820469e-01,5.925976722375759786e-01,-1.940218327707974103e-02,1.504776452784279892e-02,-7.967928352860399743e-03,9.991979002952575684e-01
-7.637312820361212388e-03,-6.092156672500665948e-01,5.989870194651170099e-01,5.147533013049757165e-04,7.237793088702066703e-03,5.054973760352740771e-03,1.046449422836303711e+00
-9.036918921974558885e-03,-6.138717015586369063e-01,6.003765621653652795e-01,-3.416084844684369980e-03,6.713887881199704331e-03,7.413714109423492687e-04,1.051654100418090820e+00
-2.197455765315971948e-02,-6.139794532066245036e-01,5.796851188126667109e-01,3.512302515636135051e-03,-3.258951191592572919e-03,2.548109214694738774e-03,1.033797860145568848e+00
-2.358096027683836970e-02,-6.117563259358752559e-01,5.992904958274378746e-01,1.628144709625633201e-03,8.089354119821191152e-03,-8.481326485249869986e-04,1.049039125442504883e+00
-2.869945688626451483e-02,-6.110840993731866400e-01,6.044636852497213830e-01,9.522036391553309956e-03,5.802519177432918090e-03,1.481515604871491872e-02,1.053491115570068359e+00
-2.807344343337828813e-02,-5.853940173416668502e-01,5.826516821903128251e-01,-3.318101718049910193e-02,-7.163482090475496722e-02,3.662129528994896577e-02,1.023074746131896973e+00
-2.440173564214436625e-02,-6.404250408177103449e-01,5.668226399864695342e-01,-6.202775223745030098e-02,2.840310863697272439e-02,-3.665378481060172638e-02,1.054149866104125977e+00
-2.876740949660109084e-02,-6.096256079260357064e-01,5.855372718594135106e-01,-1.361905709777524141e-03,1.171336286070913911e-02,1.329954939078427812e-03,1.035380601882934570e+00
-2.405921000240035523e-02,-6.324541219703009309e-01,5.832000804427247553e-01,-2.062129876138203005e-02,-8.627487839248888790e-03,-8.850709823933888137e-03,1.053610801696777344e+00
-3.870750754541275873e-02,-5.333831920000594584e-01,5.663031781385994279e-01,-9.922784030370313500e-04,2.604649283940537428e-03,8.910547496922575569e-03,9.540898799896240234e-01
-2.482616275331508277e-02,-4.483982366431351618e-01,5.233042811169541508e-01,-4.904702780941318924e-02,-2.095970191144538863e-02,3.522477048065703054e-02,8.510524034500122070e-01
-1.348323025667227948e-02,-5.839297325256797011e-01,5.099486916181353857e-01,-3.649045131999333058e-02,-3.536409894496026635e-02,4.398676876979158712e-02,9.547414183616638184e-01
-1.291781118313529292e-02,-5.955638575473133356e-01,5.139855869697538271e-01,-8.792130171363808991e-03,1.230887004821418391e-02,1.902600544362099272e-02,9.622235894203186035e-01
-3.485900284730827220e-02,-5.404945463573391784e-01,6.044147850393929433e-01,-1.275100659839832791e-02,1.098754357125870766e-02,1.697848292447044424e-02,9.946318864822387695e-01
-2.652571423968828543e-02,-6.301419238415877366e-01,5.946119122465775009e-01,-6.350364240446415218e-03,-1.999627256193935165e-02,1.826180708144568149e-02,1.061797618865966797e+00
-1.042795329836639778e-03,-6.147758105452425514e-01,6.346245507048495771e-01,-3.932460117713485609e-02,1.769374853493837010e-02,-3.018976702673490525e-02,1.085902333259582520e+00
-4.617082859467963596e-02,-4.269830821302798007e-01,6.083983059070736665e-01,-7.680713835997264594e-02,-1.022117615390238411e-02,-7.347685631356979351e-03,9.170169234275817871e-01
-2.530850403539544949e-03,-6.110326131238669189e-01,6.017994246439944961e-01,-1.073318965764344255e-04,-7.003564814017992977e-05,8.578562046761972412e-03,1.050450563430786133e+00
2.884764103946963615e-02,-5.467752598278257103e-01,5.709380366458890466e-01,1.307731888158237751e-02,-9.924138859463849799e-03,-7.406988586432950578e-04,9.685316085815429688e-01
-5.161376491928680588e-03,-5.851703039352657010e-01,5.941724544859828816e-01,-1.000433514610789450e-02,1.128553003363535513e-02,1.249876848352390098e-03,1.021722793579101562e+00
-1.477719123683654892e-02,-6.195291281486331458e-01,6.731139548870954670e-01,-7.257281359343470406e-02,-2.571049629010067287e-04,-8.582599530641233862e-03,1.127361655235290527e+00
-1.679507380547878154e-02,-4.518032699134468255e-01,5.847500932197454704e-01,-7.006339731432673079e-02,-1.257931175122514386e-02,1.075560072569513824e-02,9.101176857948303223e-01
-1.492623559609788583e-02,-6.119294558099845904e-01,6.059745361803093866e-01,-2.988650461621097584e-02,3.858719863564469537e-03,1.206983569054516370e-02,1.056300997734069824e+00
-4.797211139325574525e-02,-6.205159574931294886e-01,5.955227455897085242e-01,2.843478984088889348e-03,8.929955603520769655e-03,-7.068719467931103805e-03,1.053913950920104980e+00
-4.370200598993106283e-03,-5.404564774912135050e-01,5.973877470357588093e-01,-3.557245394801848010e-02,6.153123656491658704e-03,-8.046242087701573759e-03,9.880279898643493652e-01
3.328243827065377469e-02,-6.096039238471125943e-01,4.107390697224390097e-01,4.854268606527964262e-03,-8.967429211250181262e-03,3.907847362712340428e-02,8.962875604629516602e-01
7.476584323665402820e-02,-5.856026309537203378e-01,2.668936817743277068e-01,1.481757102693673570e-02,-1.189502549125127581e-03,4.173751045227375861e-02,7.783082723617553711e-01
5.796075648610743425e-02,-5.864647169876483490e-01,2.442870210201775749e-01,9.267563422613126281e-03,-7.005453242768197586e-02,2.331364840284354256e-02,7.659544348716735840e-01
5.355406085168094854e-02,-5.916657824668783983e-01,3.286677841370534425e-01,7.214067897225608268e-03,-4.251871429078898923e-02,3.837317880994284280e-02,8.243192434310913086e-01
3.926156469117780823e-02,-5.975983731231444551e-01,3.956320907889299132e-01,1.317194408117440367e-02,-3.275264556537076099e-02,-1.298281999042581736e-02,8.739525079727172852e-01
-7.837216408769603904e-02,-4.333031770779136593e-01,5.809396602352980832e-01,1.261432569836753483e-02,9.834841666569173538e-03,2.080144509282064180e-02,8.926051259040832520e-01
-2.564367832755567317e-02,-5.719490363142939460e-01,5.550037985758726755e-01,-2.024281326935043878e-03,-5.984382609037024701e-03,-2.065169155025729786e-02,9.768372774124145508e-01
-2.024171172708164046e-02,-6.091825658689848932e-01,5.632521873844648086e-01,4.345030429031007495e-03,2.042365885456141113e-03,-9.874066534403367831e-03,1.015540003776550293e+00
-2.096490956063418523e-02,-6.006628026069175119e-01,5.239560915087151383e-01,-1.507474378171269093e-02,-2.113374096246706246e-02,-1.357073429387450555e-02,9.754241108894348145e-01
-2.922990076519677016e-02,-4.364836382502478296e-01,5.714233929414549440e-01,6.956148073596256365e-02,5.074696221337335680e-03,5.240183958568296607e-02,8.911171555519104004e-01
-3.536479761268859767e-02,-5.259983531169706295e-01,5.948621834466557567e-01,3.575012425134241334e-02,1.267915989044886456e-02,1.392673507136116436e-02,9.757131934165954590e-01
-1.907153993700843458e-02,-6.605397882311236923e-01,5.164448358764196501e-01,-9.864195009620357543e-03,-8.012003699903567921e-02,4.567452506205060825e-02,1.033239603042602539e+00
-5.943487746692130771e-03,-6.169092959455875214e-01,6.223215267786170735e-01,-2.452292303851002706e-02,-8.981362556085214013e-03,5.956065891080680567e-03,1.074242591857910156e+00
-3.237112560148373147e-02,-6.291634261017796659e-01,5.428923712943073410e-01,-2.272933607089890409e-02,-8.541081752691385975e-02,-1.728470932350199482e-02,1.027001976966857910e+00
-1.988146429928454653e-02,-6.075256226871412757e-01,5.825567579928859763e-01,-3.005199996873637088e-03,-1.120565750317660536e-02,1.059512506618563027e-02,1.031027317047119141e+00
-4.674623393056430432e-02,-7.071192326728655830e-01,7.396123990316533225e-01,3.446596068435152631e-03,-5.027328556841877127e-02,-2.238968269689781392e-03,1.257527470588684082e+00
-5.422852544176463147e-02,-7.447215149979563575e-01,7.411919233100857651e-01,3.730645002082946804e-02,-8.755069153424029083e-02,1.253160671314927296e-02,1.298594713211059570e+00
-6.269081730123426954e-02,-7.212340948063050705e-01,7.611732534392892102e-01,1.704288199299209411e-02,-8.005649157725208687e-02,-2.527542359320700954e-02,1.294988989830017090e+00
-2.344287721602358876e-02,-7.918143822389421826e-01,7.545708632571427321e-01,-2.500742752573636637e-02,-6.101001919366055848e-02,-8.867478756465018916e-03,1.344166040420532227e+00
-5.278781805554176587e-02,-7.359272949356129301e-01,7.250956437285138723e-01,-1.462997847185435601e-02,-3.217476174774964309e-02,2.737202744074228658e-02,1.268534779548645020e+00
4.780870311386076210e-03,-1.072646428260073836e+00,7.849857767528789498e-01,7.118562422735207063e-02,-7.009329070905889747e-02,1.366659650331741027e-01,1.641998052597045898e+00
-2.276691440057780104e-03,-5.651473649540387223e-01,5.833936708684214212e-01,1.016392647342391660e-02,1.316974375521050983e-02,-6.675951591104349776e-03,9.952154755592346191e-01
4.378600146899306808e-03,-5.931753731696592924e-01,5.870972444708398852e-01,1.681189215482286475e-02,2.049667474725930683e-03,-2.045594764662689042e-03,1.022599935531616211e+00
-8.455321720736541646e-03,-5.288635903771526925e-01,5.747200735929963722e-01,2.639958625538072964e-02,1.843266107026177159e-02,2.876039743989363892e-02,9.591658711433410645e-01
6.178548901101891741e-03,-5.550250549888426921e-01,5.843456044213675149e-01,1.778811246192926396e-02,1.645277633676271375e-02,1.052799788276340652e-02,9.878208041191101074e-01
-1.326791321094999282e-02,-5.501548399371836151e-01,5.870719083676440020e-01,1.382204547794930842e-02,1.128239489973185614e-02,-6.196711552987422926e-03,9.859210252761840820e-01
-5.820453168140702488e-02,-6.247910418958676493e-01,5.554732868191839534e-01,-2.046295444862360115e-03,-2.801098246110376999e-02,3.522829003711524382e-02,1.025383710861206055e+00
-2.737347099958830493e-02,-6.613881950147320055e-01,4.400464850563883257e-01,2.030840192448839232e-02,-1.484617047276048929e-01,6.454588098074995339e-02,9.983314275741577148e-01
8.709374061233884912e-03,-7.071995892445430698e-01,5.565657862801937084e-01,5.816988219581963049e-02,-2.615543519865816124e-01,-8.723255401099815065e-02,1.201290726661682129e+00
-1.000931140607512135e-02,-5.989289552170278252e-01,5.998238315002828447e-01,-4.545031443577640488e-03,-3.720883370334116588e-03,2.088801895371669541e-03,1.038259148597717285e+00
-6.445199607276135001e-02,-6.017906393728169601e-01,5.779030400108420285e-01,2.313840930892426245e-03,-3.263546663498608641e-02,7.098120524513969881e-03,1.024635314941406250e+00
-1.427033276946202203e-02,-6.174409052793810027e-01,5.334031768275160346e-01,1.019709901356451176e-02,-5.417331416709463866e-03,3.011080635173176909e-02,9.986097812652587891e-01
-2.394589750234845521e-02,-6.039578540192571676e-01,5.609719897541670663e-01,-5.471342744424620604e-03,-2.121165846735373339e-02,7.004698431619954362e-03,1.009647965431213379e+00
-5.540908191220238199e-02,-6.237636339200505198e-01,5.398588331328393330e-01,-1.704051501428042667e-02,-1.306443141885387238e-01,4.161236656997910344e-02,1.035839676856994629e+00
-2.550581371240443276e-02,-5.927326945804730629e-01,5.822732239810780586e-01,-2.982497642796174547e-02,-3.985479512549647274e-02,2.116573772047889920e-02,1.022090077400207520e+00
-2.896520301469073660e-02,-6.103143545660079106e-01,5.892557100171573747e-01,-8.196398164979853268e-03,-2.260353237667204335e-02,1.013904075480126336e-02,1.040004253387451172e+00
-2.447064242117268779e-02,-6.279719590718102484e-01,5.037623955464687331e-01,1.387912362256678994e-02,-5.229432289450847843e-02,2.042557112289980145e-02,9.859345555305480957e-01
3.408312403300101101e-02,-1.040634531110173233e+00,5.705925199601044051e-01,-6.458451628639298725e-02,-2.095631047114450973e-01,6.335772859020773196e-02,1.475046634674072266e+00
-9.031550314460214113e-03,-5.830706051142900970e-01,5.285022656333399071e-01,-1.421153439277679682e-02,2.400561175104262354e-02,-7.496144152928335518e-03,9.641224741935729980e-01
-3.132523014000768158e-02,-5.834807996719876266e-01,5.749517452362253866e-01,-8.982346048654207826e-03,-3.770844164117308044e-03,8.675794874019988889e-03,1.003851175308227539e+00
-4.822838564185950860e-02,-5.444572478861338105e-01,5.946479521250822575e-01,3.666945776930825678e-03,-8.694874874424822703e-04,7.154613736603727438e-03,9.893144369125366211e-01
-1.878730229746355951e-03,-5.788240692704024193e-01,4.792781842045029661e-01,-7.475485803869458441e-03,3.526885216020336170e-03,1.931356604326067358e-02,9.183154106140136719e-01
-2.243369392157393630e-02,-6.121051187584652942e-01,5.978930798778467892e-01,-1.736279012706899412e-03,4.813259524622225290e-03,-4.497186125342178716e-03,1.048067688941955566e+00
2.457105046352334177e-02,-5.851674318929233065e-01,3.854722035051401652e-01,-5.904776155032363284e-03,5.694312749058642875e-02,-5.655033315010342745e-03,8.555781841278076172e-01
2.864292846836966056e-02,-6.290528144502945951e-01,4.327650979683824728e-01,-1.864324220891239864e-02,8.621444149100793153e-02,7.889363902044745080e-02,9.506219029426574707e-01
-2.849338958411384848e-03,-5.981981304693125834e-01,4.361655805013660570e-01,-3.735763088307209653e-03,-1.030410364890008319e-02,2.322107112359051914e-02,9.002884626388549805e-01
-2.834813553598161326e-02,-5.296727802728087298e-01,5.617138725902897090e-01,-6.754098051587420493e-02,7.326999296932938666e-02,-8.796830948375562731e-02,9.738163352012634277e-01
1.863692293929574209e-02,-4.824545565157546401e-01,5.750794284077004326e-01,1.164970685815004126e-01,4.111896455813677034e-03,4.343518632260227885e-02,9.412623643875122070e-01
1.464009575019656340e-02,-6.023578900805039993e-01,4.545732748824874991e-01,-1.317431140309858507e-02,1.999626006237401228e-04,-3.716272307403621633e-02,9.221332073211669922e-01
2.735345360631417921e-02,-5.905910963199518804e-01,6.108858750001735505e-01,4.966190349370075419e-02,-9.505697344980619176e-03,-3.083429503474187372e-02,1.045695185661315918e+00
2.728618597455163136e-02,-5.393513863391671270e-01,5.888855544077752358e-01,5.008478902839904462e-02,-6.049149469730653005e-03,-1.490103520726719644e-02,9.813238978385925293e-01
4.072765513284633959e-02,-6.173330494597972784e-01,6.186107923835240108e-01,1.429556316790862591e-01,-5.134393067450394345e-03,-5.653887516401587265e-02,1.103744983673095703e+00
2.378613834241707567e-02,-5.478664169949696294e-01,5.854291979734668194e-01,4.492556425253559776e-02,-3.597067810716655066e-03,-4.019083591027107147e-03,9.845996499061584473e-01
2.410683583040506769e-02,-6.064347521050461598e-01,6.353057661520737920e-01,5.636228861911585231e-02,6.353875680502728100e-03,8.615595243553106700e-03,1.080003261566162109e+00
7.185380793232505614e-03,-6.013695678595174510e-01,6.430028857779785945e-01,4.484490756702853853e-02,-7.636273629325330409e-03,-1.568839952072799415e-02,1.080962300300598145e+00
-2.783239658334624167e-02,-6.177552985679102271e-01,4.138796731100591875e-01,1.147861237582625121e-02,-1.189848451432675147e-01,3.175591537631235889e-02,9.217306375503540039e-01
-2.707194647744382010e-03,-6.437263546249364365e-01,4.866514478416216205e-01,-4.134950986140147381e-04,-1.030368243313093263e-01,5.867962124715177946e-02,1.003118038177490234e+00
-3.487169130132118655e-03,-6.272369762027426576e-01,5.428788115384063362e-01,-2.863587646574927009e-02,5.354486459890594671e-03,2.743068545565865643e-02,1.016453981399536133e+00
-5.363372332234814244e-03,-6.251198648152922477e-01,5.290722332414852236e-01,-3.326119154292699054e-02,-4.590576914883733733e-02,3.693140376050624979e-02,1.007309436798095703e+00
-2.774799090430236578e-02,-6.159739515704198975e-01,5.950753516373323837e-01,8.562526690281329700e-04,-2.218902439114712501e-03,2.596907220567645173e-03,1.048959851264953613e+00
-1.803964216434303380e-02,-6.130181881270373445e-01,6.328846479236786005e-01,5.255183441639839359e-02,-4.150903569885344008e-02,-7.177117059759907745e-04,1.085561394691467285e+00
9.938128231910602767e-03,-6.829325267683304945e-01,6.561278377040437038e-01,8.112552138188901252e-02,-1.359538802425270913e-02,1.071958213981370756e-02,1.168760061264038086e+00
3.525069683139861118e-03,-6.681031268992828620e-01,6.560560743974085396e-01,3.826266553021445693e-02,-1.417308657641222665e-02,-6.089217599209303770e-03,1.149019241333007812e+00
-1.234728048763427365e-02,-6.348377859943185042e-01,5.874610412304813734e-01,2.070316943339221491e-02,-1.225193250652465392e-02,3.123474368014541799e-02,1.060802698135375977e+00
-2.034850331930420503e-02,-5.525451024684752133e-01,6.097779110710879191e-01,6.186772381517388619e-02,-4.004659041071530895e-02,2.069105373264463338e-02,1.016475319862365723e+00
-6.603830270493177973e-03,-5.929916003012468684e-01,6.026820282494550485e-01,3.341837410126050761e-02,-2.768970016873019066e-02,-1.992416289150472641e-02,1.038845062255859375e+00
2.830753951575138219e-03,-5.988021595996538826e-01,6.236167662639080511e-01,4.243453942910344751e-02,-5.931531800470855702e-03,2.201727267248764462e-03,1.061293959617614746e+00
-1.191174969293416069e-02,-6.179449827372757165e-01,6.130935388453643275e-01,-1.326012517550124135e-02,2.040211100074567838e-02,-1.110261005389765257e-02,1.067158818244934082e+00
-3.047995572259577443e-02,-6.082804830698379517e-01,6.010034105115911185e-01,2.017264760211910299e-03,7.930500210408935116e-03,3.620950389780784638e-04,1.047710537910461426e+00
-1.325298848552279932e-02,-6.027809736891669434e-01,5.955686778143667315e-01,-9.374193615383668785e-03,-2.812499006473674124e-04,2.418475573821884331e-03,1.037981629371643066e+00
-2.319808563523701600e-02,-6.029370195927590270e-01,6.054439963518674084e-01,-1.801032792006962337e-03,-6.010374549953054202e-03,-8.671198036484346547e-04,1.046831727027893066e+00
-2.262562230107502056e-02,-6.263029061765812422e-01,5.927541701924905482e-01,6.991926313443446795e-05,-2.193017942058867777e-03,-1.291880437651559549e-03,1.055759787559509277e+00
-2.415701278677032798e-02,-5.566575928276288332e-01,5.921243356321229667e-01,-2.421261084305733821e-02,4.643688098526642556e-03,4.134407786538933692e-04,9.966713190078735352e-01
-4.111085336358415165e-02,-6.120644974074351818e-01,5.924701931091910234e-01,-8.009338864323868948e-03,4.228568078604048874e-02,-1.053518969541223857e-02,1.046445488929748535e+00
5.468863338141801908e-04,-6.204938099871064594e-01,6.388553814240683915e-01,2.447848171907460527e-02,-5.086594175332000492e-03,-1.025839360008662729e-02,1.091666460037231445e+00
2.320199668333118581e-02,-5.420474301906210712e-01,5.750984461837909123e-01,2.713950720632616123e-02,-1.450491053081368747e-02,-1.558015659529887915e-02,9.693424701690673828e-01
6.603725105507891879e-03,-5.458963933917717615e-01,5.707815200428313362e-01,9.430480779020852800e-02,-4.256384054939467247e-03,-1.442574256370828673e-02,9.811320304870605469e-01
-4.991880797445216733e-02,-4.093327694339825018e-01,5.917251201392297322e-01,7.766210311472233896e-02,-1.132503062266995014e-02,-4.402439570451109618e-02,8.920731544494628906e-01
3.402504426553265571e-02,-5.326659029373564946e-01,5.868200578249895827e-01,5.688685952408853441e-02,-3.979777974702047145e-04,3.874080697423492019e-03,9.745454192161560059e-01
-1.373802602599318023e-02,-4.320682764973616252e-01,5.573542616796894889e-01,5.423398276438314708e-02,1.238961591831633062e-02,6.062844779987014605e-03,8.657057881355285645e-01
-4.336785987881155990e-02,-3.411765836667894902e-01,6.699952503846943186e-01,1.223159996809095595e-01,-9.986288940712763178e-04,1.824859336163413802e-03,9.246184825897216797e-01
5.368542056914726857e-03,-4.171300857661064954e-01,5.852268281663279836e-01,1.354668732982226842e-01,4.658487781393550776e-03,-5.001368306680983519e-03,9.027314186096191406e-01
-1.920316273166105397e-02,-4.510066070703272478e-01,5.961205759367531609e-01,6.505361764518258205e-02,-5.713826638257254315e-03,-1.879014427232860232e-02,9.190372824668884277e-01
-8.015016817648309977e-03,-4.509018962807067599e-01,6.857683027163363754e-01,1.225958916593496012e-01,-1.059610087731073340e-02,-2.220153118255188338e-02,1.015704870223999023e+00
6.239715103148479880e-02,-5.917920882082388090e-01,3.233984891394426908e-01,-1.769020459932854009e-03,3.585251620468953015e-02,2.781989775994249403e-02,8.203760981559753418e-01
-2.740953038994644111e-02,-6.114537391284436962e-01,5.986469065024487834e-01,4.374256080859457996e-03,3.348096975015980338e-03,-2.702174035593349778e-03,1.048242330551147461e+00
7.304978301354805859e-02,-5.995090081509846236e-01,2.827439069390487725e-01,4.719604451374595326e-03,-1.452068217079197955e-02,2.769041648965429522e-02,8.002113699913024902e-01
9.789161301997076348e-02,-5.974622315440698550e-01,1.784489671230366503e-01,-7.421234488544448463e-03,4.384413920181559621e-02,3.831374136115952948e-03,7.429659962654113770e-01
6.722346231899020697e-02,-5.977741125857218840e-01,2.718017655937153276e-01,-4.127019211124574420e-03,8.419228143359706656e-04,1.815685952429218347e-02,7.881372570991516113e-01
6.133883805859260963e-02,-5.884235503422685643e-01,3.156754130455456941e-01,4.309095566342771924e-03,-3.280036979517154949e-02,-9.537583230208285245e-03,8.097485899925231934e-01
-3.296550609462667314e-02,-6.132635840496679647e-01,5.165108711333339375e-01,-6.455443982104881739e-03,8.946482415141916722e-02,-7.525565790901012769e-03,9.908769130706787109e-01
-4.762560946332706352e-02,-6.237086436141637824e-01,5.515184079756638713e-01,-1.001453108536662535e-02,6.553642609972928912e-02,2.202910307335084056e-02,1.025009155273437500e+00
-2.964549307950398171e-02,-5.940282985376309499e-01,4.916561532203254092e-01,-8.291854717694384803e-04,2.607495975480889766e-02,5.554781092409939898e-03,9.416110515594482422e-01
-3.430412667755532857e-02,-6.010911370760290140e-01,5.510661148917465058e-01,7.936617472044773039e-03,3.722721049910866775e-02,1.414591935078714094e-03,1.000019311904907227e+00
-2.027226522609814827e-02,-6.328809902977481361e-01,5.333979606796088735e-01,7.539288398273693431e-03,5.114019463561374906e-02,-2.503041803627994999e-03,1.014425277709960938e+00
-3.859042672172566246e-02,-6.008094100702356943e-01,5.462434379275958873e-01,2.757378148991103742e-03,2.369107245165315290e-02,3.741087186497550241e-05,9.942998290061950684e-01
-1.916930772838346814e-02,-5.703845039973722830e-01,5.671055485613670788e-01,-2.521362245592894888e-02,9.260103984897828655e-03,9.421254936775761563e-03,9.864839911460876465e-01
-3.638427873891222908e-02,-6.671610169009667413e-01,5.852448123582828510e-01,-9.577113707787607982e-03,7.309132355536247794e-02,1.830359905628725983e-02,1.092574238777160645e+00
-3.990423021363160433e-02,-5.953082522158235079e-01,5.283575158709974406e-01,-1.680493163463490057e-03,4.731969968345287048e-02,4.633819123799555635e-03,9.766269922256469727e-01
-4.397048715012558118e-02,-6.148155054454742530e-01,5.489068239748645661e-01,6.005080092936306534e-03,5.070280541342223751e-02,-1.704321908155679091e-02,1.012176156044006348e+00
-2.219182899292921479e-02,-6.157129056589900618e-01,5.999637877303474198e-01,-2.967802337561342881e-03,7.355541916691190132e-03,1.205620107582239687e-03,1.052995920181274414e+00
-2.132719437165361484e-02,-6.169707052213194709e-01,5.984157867804149600e-01,-1.777061458555049319e-03,2.748452841208311528e-03,1.529135673411324359e-03,1.052643179893493652e+00
-2.700947479763919981e-02,-6.127906585353063429e-01,5.740096624414317006e-01,-4.468549628589466548e-03,-4.102989539877287435e-03,-3.105386849372738720e-03,1.027895212173461914e+00
1.500906754665773946e-01,-1.029750091471179463e+00,3.161702315856981249e-01,-1.421439196215940892e-01,2.763652106361967897e-01,8.122192011560411262e-02,1.387477159500122070e+00
7.024686070618652890e-03,-5.839821385973006374e-01,5.899242669124945548e-01,-1.430953164489563202e-02,-5.658643477832295959e-03,1.326558464262384430e-03,1.016992688179016113e+00
-2.563755204604075896e-02,-6.158039040157349264e-01,5.990947909049967324e-01,-3.132019654539575093e-03,1.643218551770909237e-03,7.186466136439398919e-04,1.052293658256530762e+00
-2.269054560661376563e-02,-6.128722885169799461e-01,5.817086099980124381e-01,-5.798898400878969156e-03,-8.921778036470818986e-04,-4.859194257593259930e-03,1.034645915031433105e+00
-6.318155173836406679e-02,-5.999904663763216961e-01,5.819765031387986731e-01,3.214133465788222756e-03,-1.479506241814103167e-02,3.017546472702235718e-03,1.025394678115844727e+00
-2.814697846132052997e-02,-6.130552284146083553e-01,5.824965122269905038e-01,-6.265383911111318573e-03,1.474116432607781987e-03,-4.791028757485466839e-03,1.035551428794860840e+00
-8.444987521952170006e-03,-7.079730128487053964e-01,5.816203970269634427e-01,-1.945496257649902833e-02,6.882695409548270082e-02,1.469184830187340689e-02,1.125290393829345703e+00
-2.774046726018260939e-02,-6.134028547776982920e-01,5.828656929697297873e-01,5.667624315605077241e-03,-5.755205039318514806e-04,-4.399892445121275641e-03,1.036149024963378906e+00
-3.510788192076666481e-02,-6.810923259418145692e-01,6.202122739817065300e-01,-1.653710381160501328e-02,9.145155604277567518e-02,3.104853122485882674e-02,1.139679670333862305e+00
2.740409842706403865e-04,-6.616539895344395461e-01,4.718807594039017284e-01,-1.050934657741611593e-02,8.794882344379811867e-02,-4.576780018778299486e-02,1.001275062561035156e+00
-3.582508823640261075e-02,-6.085443426521195409e-01,6.024522768719569044e-01,-7.120517220032169387e-03,1.141859993016056639e-02,1.458156674933877052e-02,1.049828648567199707e+00
-1.842518921680678240e-02,-6.096166455407193707e-01,5.249150211076086814e-01,-2.499608516078133738e-03,3.605546173226339968e-02,-2.930535639884800374e-04,9.848162531852722168e-01
-2.863796351528765521e-02,-6.131860402745061833e-01,5.903728777069425782e-01,-1.143415891729534541e-02,1.255139565875945662e-03,6.712295562547493898e-03,1.042710185050964355e+00
-2.129976518918066941e-02,-6.098393946365572305e-01,6.047974566886069603e-01,3.248936711496808096e-03,2.764542408447801230e-03,1.917188907444442297e-03,1.052105188369750977e+00
1.731287922672612029e-02,-5.809193410933858326e-01,5.857187024399631570e-01,7.534731036409200548e-03,9.854658929540694931e-03,5.569205492311660004e-03,1.010722637176513672e+00
-4.560055178373920159e-02,-6.059275615782486746e-01,5.673989262052204774e-01,-1.230297547595232688e-02,2.782838260343756601e-02,1.588342058448591332e-02,1.018208742141723633e+00
-2.588757116399779956e-02,-6.145157551823708930e-01,6.006961482277800579e-01,-8.762846867698447298e-04,-4.052701476277137220e-03,-3.234498125594282029e-05,1.052600026130676270e+00
-2.323450954058461915e-02,-6.117130409184322604e-01,5.997018542413341535e-01,1.941046493190261507e-03,-3.324263589022539121e-03,6.113573119613062695e-04,1.049279212951660156e+00
-3.133601067424646169e-02,-6.124855599490098834e-01,5.999511372374559670e-01,2.435896851603141199e-03,4.083975468252217813e-04,-4.470377839836263238e-03,1.050337433815002441e+00
-2.743874338653533307e-02,-6.153143888525709482e-01,5.927906564938680845e-01,2.700679160070673830e-03,-3.115882138733151209e-03,6.268964837761387739e-04,1.046399593353271484e+00
-4.439213433082150884e-02,-4.283095050797045555e-01,6.720781237356652227e-01,1.905174517068709827e-01,-1.354449397385263376e-01,-1.117220761038368038e-01,1.066376924514770508e+00
4.864172545153068461e-03,-5.795291392781152240e-01,6.368401953847786512e-01,7.583138277772062674e-02,-1.573544620807017583e-02,1.124632052402310331e-02,1.062358379364013672e+00
1.744900132690887715e-02,-5.317971612190702801e-01,6.307188602415898515e-01,9.690661143864270910e-02,-1.343839620934251166e-03,7.026662090708749898e-03,1.021241188049316406e+00
-5.904564455498438613e-02,-6.189063441123991982e-01,8.139781962334050602e-01,1.310131963404675137e-01,3.493873072428408527e-02,3.524767360913359793e-02,1.274075746536254883e+00
-1.115862004570721266e-01,-6.267911477746930249e-01,8.825289411991393829e-01,2.815259326940178775e-01,-7.198964767402261933e-02,-2.072947003385018638e-02,1.421436309814453125e+00
-3.848416522530123673e-02,-6.330240026469250436e-01,6.457437396272158736e-01,2.335155079272917267e-01,-1.747989376517858351e-01,5.517488806176906041e-02,1.221814870834350586e+00
-2.504629690978456974e-02,-6.163053031337929477e-01,5.978274457394094910e-01,3.329489057636274372e-03,-2.139055217091971953e-03,1.181644407047490039e-03,1.051612973213195801e+00
-6.834248112778863737e-03,-4.936412851953362324e-01,5.828683948308065466e-01,-3.327620581700866526e-02,6.118726458888178654e-04,3.768664357864164646e-03,9.355037808418273926e-01
-4.556402047642491016e-02,-4.957540979611074761e-01,5.943139537073315326e-01,-3.436545958486130620e-02,-1.357244089837583885e-02,1.530516597683589074e-02,9.513043761253356934e-01
-4.425004218468925332e-02,-3.565100295839042088e-01,5.566391093311502392e-01,-8.038780250390618887e-02,-1.343294173582855423e-03,2.985964505171730121e-02,8.174805641174316406e-01
-4.886295507209079125e-02,-3.972733827158564379e-01,5.646420241314792365e-01,-6.501175957989133170e-02,-1.751097428443651807e-02,-1.599722225064581851e-02,8.519958853721618652e-01
-1.416185209823723340e-02,-5.032746589464317521e-01,6.026424769862447350e-01,-1.039154639307063310e-01,-1.335480008040660152e-02,1.309225217709908407e-02,9.771440029144287109e-01
-2.731837889868874575e-02,-5.362328020666025097e-01,6.088231477205867659e-01,-8.103376209064022673e-02,1.908843089117496367e-02,4.177463754392807260e-02,1.006697297096252441e+00
-7.387512680550652883e-04,-5.647358480873291287e-01,6.093734472828234994e-01,-4.304023270648241195e-02,1.443599546189407341e-02,-1.224937611284255233e-02,1.020325422286987305e+00
-2.413465713690177150e-02,-5.541535562544781524e-01,6.682085778088110439e-01,-1.081416001122319920e-01,4.907193214199004339e-02,-2.492575581342985555e-02,1.082305908203125000e+00
-3.737544273070146639e-02,-4.795950568311192486e-01,6.410658589973136090e-01,-1.251373171808155549e-01,1.859691812523277601e-02,-2.120284711127109339e-02,1.002609133720397949e+00
-4.949854560462396691e-02,-3.234565184358006995e-01,5.457062608887999211e-01,-7.903529615882122494e-02,-1.214237855147354099e-02,3.688059021360726164e-02,7.846307754516601562e-01
-2.564299526891119368e-02,-7.125909504884465617e-01,6.163240185244324154e-01,4.111092307667112145e-02,-6.766040428959460562e-02,4.033316697035765896e-02,1.161336064338684082e+00
-5.962463925749316579e-02,-6.014743164389170227e-01,5.950675068908125587e-01,2.583989326279088894e-03,-1.979939919317463132e-02,1.928357892855184653e-03,1.038352012634277344e+00
-5.143732683824581153e-02,-5.911145827870053493e-01,5.472181882244472328e-01,6.218166600994790624e-04,-5.206682333305695347e-03,5.869899899121531171e-04,9.863083958625793457e-01
-6.133587356272496294e-02,-6.437764311677387497e-01,6.142496670307184825e-01,-5.431630680614132119e-04,-6.082156322676605942e-02,1.141743124161455391e-03,1.095556378364562988e+00
-6.094686772875349684e-02,-7.180012213633604201e-01,6.196064733048287643e-01,-1.598067529359037744e-02,-1.462285364340671912e-01,-2.529516505325688988e-02,1.186957359313964844e+00
-3.157030380801564839e-02,-5.907413561592473883e-01,5.954974552729254134e-01,4.011917443485411849e-02,-6.730838630367348696e-02,-1.716111059273510431e-02,1.037221193313598633e+00
3.155479335638880500e-02,-1.007927720027662843e+00,6.247743035138245693e-01,8.400725403141337533e-02,-2.456917482840732525e-01,4.220193714991268830e-02,1.502225875854492188e+00
-1.384722268337156004e-03,-5.772408225668314019e-01,3.987517592755758233e-01,-1.799896772248943280e-04,-5.045014853423483714e-02,-5.251733077908015074e-04,8.542699217796325684e-01
-1.096553788154941422e-02,-6.135716521774131627e-01,4.412017838915671675e-01,-4.291533184119056092e-03,-5.073463467654543146e-02,-1.958789172777170365e-02,9.214100837707519531e-01
-4.917718416353254740e-02,-6.032041195336129702e-01,5.692647601212124098e-01,-1.099021690104624339e-02,-2.668104379017283839e-02,-5.308508956648960546e-03,1.017168760299682617e+00
-3.187294325926058602e-02,-6.112184346314549765e-01,5.761980812274968278e-01,3.554009734219213540e-03,-1.005297243769289611e-02,1.113135022059438470e-02,1.028779625892639160e+00
-1.963380606893420574e-02,-5.502170101950135672e-01,4.876160619753863168e-01,3.231780453804045626e-03,-3.406655238853572524e-03,2.299875580552799420e-02,8.997845053672790527e-01
-2.401211409695060833e-02,-6.162767222082096152e-01,5.890629449601989531e-01,-2.435728700121214760e-03,1.582457526504557274e-02,1.937170848238348175e-02,1.044813752174377441e+00
3.610571046315114163e-02,-5.875392895983094776e-01,3.235371534070383692e-01,-4.712312851482125010e-03,-5.533525693841174348e-02,-4.005353005622868182e-03,8.124689459800720215e-01
-6.553906774986323347e-04,-6.165659718130683808e-01,4.999945198112284439e-01,-8.963451195566168178e-03,-4.315664107541548888e-03,8.136252237119081382e-03,9.689413309097290039e-01
-6.187675406310558235e-02,-5.902249992956150049e-01,5.561403437789604887e-01,-1.344233922543397377e-03,-3.980641752747720100e-03,1.982470971615268721e-04,9.938200712203979492e-01
3.837678829163075622e-02,-5.940451041232941432e-01,3.215543440377083284e-01,6.543660004511675510e-03,-2.429574290455138383e-02,3.549602450292427269e-02,8.154225349426269531e-01
3.470772597238193369e-02,-6.214278123177339186e-01,3.696570260454932200e-01,-2.915787306330158354e-02,2.072116706569008312e-03,3.877578169373221192e-03,8.746916651725769043e-01
-4.575612146053370521e-03,-6.075170464317443120e-01,4.680562060528687951e-01,4.613766340930874205e-02,-1.198739087209449716e-01,-4.828721963598517179e-03,9.599238634109497070e-01
-1.839566303202186739e-02,-5.605177084304144852e-01,5.629744978056232529e-01,7.119117747698804066e-02,-6.733980973797366876e-02,-1.475698792308208739e-02,9.881917834281921387e-01
-2.081560636012878135e-02,-6.002926653679062641e-01,5.938496085338548225e-01,2.799007052907681592e-02,-1.854004310464731076e-02,1.990262448541742571e-02,1.036514043807983398e+00
-4.106658842459443362e-03,-6.191533044064612135e-01,5.861835098181951142e-01,5.784664692316249940e-02,-2.327291064373559690e-02,8.630185533422886010e-03,1.049603700637817383e+00
-2.567940966051895230e-02,-5.012347045744652840e-01,5.726915063410683571e-01,1.006787096202413218e-01,-6.537457678625095692e-02,-1.564187732073224479e-02,9.553654789924621582e-01
-3.524731231617651839e-02,-5.848324676159714075e-01,4.934781677354904694e-01,-7.566376726824609704e-03,-2.140079016226476352e-02,3.963347713303218452e-03,9.347550272941589355e-01
-1.892315313218352266e-02,-6.418640902530712289e-01,5.513849065230872482e-01,1.154272851364886165e-02,-3.071104621104774751e-02,1.970463284785213889e-02,1.035842180252075195e+00
-4.673246733286316040e-02,-6.230587825877925701e-01,5.575110173675200675e-01,-1.014589083328565865e-02,-3.796121001587375587e-02,-2.251190557085436250e-02,1.025502800941467285e+00
-5.871144798523414421e-02,-5.957288659020127941e-01,5.253613539228789708e-01,-7.765140972815057262e-04,-4.404941463616082048e-02,8.352321721310063118e-03,9.742782711982727051e-01
6.536534518569253605e-02,-6.444922394599610360e-01,3.304235042483748552e-01,2.443826895416971109e-03,-5.152147805352824683e-02,5.709566835480586050e-02,8.832147121429443359e-01
1.093610659735458346e-01,-5.827859945604666470e-01,1.640425657538822080e-01,2.044727638934728739e-02,-2.706749672953424543e-02,-3.272580882745618203e-02,7.256517410278320312e-01
1.440960939212795333e-01,-6.651171346412881880e-01,3.388241777593997694e-02,-2.783430147094080771e-03,-7.290367148139176301e-02,1.319372454289984009e-01,8.037270307540893555e-01
1.983566869351820472e-01,-1.020003117719044727e+00,1.187434200702051634e-01,-1.347790535559095504e-01,-2.917274443891179278e-02,1.442804853258729814e-01,1.230138659477233887e+00
5.596927736943063669e-02,-5.825285207893100559e-01,2.207355558924634642e-01,-2.740517591848086465e-02,-1.480713108870191086e-01,-1.834479135023253313e-02,7.804282903671264648e-01
1.351442046863307427e-02,-5.939420320821581223e-01,5.913878173706451635e-01,1.104894868261116145e-02,-1.163565552603419880e-02,-1.721955260295401609e-03,1.027012825012207031e+00
3.147094974545169149e-02,-5.396102010454497666e-01,5.872107457036270795e-01,5.122408798512277650e-02,6.449869389518441266e-05,-1.064887215429108705e-02,9.800841212272644043e-01
-1.294445594331672042e-02,-6.476773502172739061e-01,7.120823473050839070e-01,4.891677896059487551e-02,-1.247939732909343451e-02,-3.897006217127340581e-03,1.181710362434387207e+00
1.269120822132202564e-02,-5.367025303858093954e-01,6.305957891347914179e-01,1.073891584369706942e-01,-5.921110459521127141e-03,-2.080219394027597174e-02,1.029132246971130371e+00
1.271881191989433779e-02,-4.396119319527924674e-01,5.692732266482360970e-01,7.093063283252754037e-02,9.657873488698523468e-04,-4.261080287577634872e-03,8.838853836059570312e-01
2.560773010094700985e-02,-5.641848140367105024e-01,5.814844161393742938e-01,4.436496700784692965e-02,-1.179954658717425817e-02,-1.418263013945778722e-02,9.958071708679199219e-01
-2.016020781743244061e-02,-5.430901855521748089e-01,5.687095931966973383e-01,3.175223044472399309e-02,4.689117799042191725e-02,7.049188326816845096e-02,9.760580658912658691e-01
3.193329452401483942e-02,-5.717368872509386302e-01,5.865215561634589125e-01,3.605017704954692481e-02,7.917110924726359494e-03,6.250915704032726332e-03,1.005474209785461426e+00
-8.972230805800535114e-02,-3.396648125552534925e-01,5.718775707867097546e-01,-1.790008653008300782e-02,-9.768392271466343202e-03,2.164188931393189880e-02,8.174351453781127930e-01
-1.134836719152568507e-01,-3.598749043025069039e-01,5.889529012482922488e-01,-9.233369996592961926e-02,1.700359932884463673e-02,5.914189586809168869e-02,8.741493821144104004e-01
-2.688909289996208041e-02,-6.123431186601421272e-01,5.964690630092687185e-01,-2.331324985108755056e-03,-2.498233764885081582e-04,3.352946867012439585e-03,1.047057628631591797e+00
-9.312811215685110056e-02,-3.560865246988560995e-01,6.167028168695533052e-01,-7.852046578771919305e-02,-3.074776244905397596e-02,4.546720269338751924e-02,8.872415423393249512e-01
-4.339905161298088232e-02,-6.187226238677697721e-01,6.177708337385894311e-01,-9.988110398776596510e-03,3.444720708643410345e-02,-1.605246978673708150e-02,1.073853611946105957e+00
-4.459829679445576761e-02,-2.850777809754974634e-01,3.584590831446257120e-01,-6.232506245304516440e-02,4.375997474829889516e-02,-1.257098668591727537e-02,5.788651108741760254e-01
-5.141918494602773504e-02,-5.256984758865976826e-01,5.937201807145591204e-01,-6.466687334977893990e-03,-1.388097129798769591e-02,-1.476941068914110373e-03,9.735665917396545410e-01
-6.077247838202605446e-02,-4.561846312102268985e-01,5.816890328545161193e-01,-5.245984414291447046e-02,-8.693802906095941807e-03,4.932466313769589411e-02,9.159291982650756836e-01
-4.948004592527626561e-02,-5.923056964700893490e-01,5.344704320221386196e-01,-6.142093612402849297e-03,-2.483770597202160715e-02,-2.568796187852219384e-03,9.770490527153015137e-01
-9.746543155020404026e-02,-2.704848965681369566e-01,5.636107102443865813e-01,-4.152928937341134052e-02,-2.226406641259144961e-03,4.733699688949417200e-02,7.702257633209228516e-01
-3.554904444254980422e-02,-6.037456235736952115e-01,5.603990220296212188e-01,-8.509358068578755374e-03,-9.918246009340563399e-03,1.477136851834892541e-03,1.008531570434570312e+00
-8.214505290296647555e-02,-4.586824881748141625e-01,5.903271869076635037e-01,-2.830787930088125414e-03,4.455039723575823438e-03,1.915202147310591727e-02,9.210832118988037109e-01
8.180700930022596906e-02,-5.857762852305283818e-01,2.230326105417285154e-01,-1.741569093813850888e-02,-1.127615619417102200e-02,-6.226191567642423014e-02,7.568441033363342285e-01
5.596444224020485914e-02,-5.908264908339440069e-01,2.860053627382217467e-01,-9.916361818780718845e-03,-5.418541515913056356e-02,-3.978292452896070586e-02,7.961764335632324219e-01
7.657344098546631228e-02,-6.952959157471994001e-01,3.205729288739510019e-01,-1.161966405701655471e-02,-2.178728451202624483e-02,-3.060917103192697247e-02,9.210285544395446777e-01
6.426456350942785778e-02,-6.572944056769446375e-01,3.081017833013146023e-01,-2.496115747039491517e-02,-6.441091961514623654e-02,1.017905153822704252e-02,8.778799176216125488e-01
1.532620778141271511e-01,-6.147161415212574198e-01,3.203620879165003377e-02,-4.210866774413977998e-02,1.588251890469002080e-03,6.165621516528802665e-02,7.267178893089294434e-01
9.784055332176411213e-02,-5.826822049131098469e-01,2.304071579452982022e-01,-2.858054809553174126e-03,-1.552713860531497025e-03,-1.741910310802144424e-02,7.562021613121032715e-01
-2.299379550830827484e-02,-9.245819703022434277e-01,8.286216873250626946e-01,1.476577036392504316e-01,-2.100247925893696521e-01,2.758341630010681042e-02,1.583015680313110352e+00
1.161685087380236459e-01,-6.451237642405677208e-01,1.798379884595107114e-01,2.549570055095661328e-02,-2.034792013238913982e-02,4.429412367103831294e-02,8.007302284240722656e-01
-2.277527104889164045e-02,-5.886076746507983293e-01,5.881410828883832931e-01,9.077744235623890195e-04,1.214543450647762035e-02,-5.545397958576133704e-04,1.019562363624572754e+00
-5.226203638142343233e-02,-5.939341730054061852e-01,5.458671965131047799e-01,6.081524488190669792e-03,-3.144439086026626427e-04,-7.987189032628473498e-04,9.875577688217163086e-01
-3.452212728301908007e-03,-6.454968013101589630e-01,4.907736836269156466e-01,-2.136546980069425894e-02,-2.622325895687228556e-02,5.560052270272251851e-03,9.885953068733215332e-01
-2.414018542554290450e-02,-6.500726454851553093e-01,5.867445718106129027e-01,1.154297285584995371e-02,-3.015002266652401161e-02,2.516026517596580900e-02,1.073485016822814941e+00
-1.528049361519099800e-02,-4.939930666088555022e-01,5.167938048388353023e-01,7.951049154704788180e-02,-5.492574154574789147e-02,3.411533378920072329e-02,8.935811519622802734e-01
-6.468985986540578409e-03,-5.356658009736525727e-01,4.380469214653758270e-01,3.762951641178804291e-02,-1.774493424270355210e-02,2.196932668857558626e-02,8.482456207275390625e-01
-4.840885106136565141e-02,-7.517371283838066853e-01,6.425578783342650313e-01,-6.711205269429016892e-03,-6.980041683989235413e-02,3.456560105200506133e-02,1.215079426765441895e+00
-2.817299227506043363e-02,-6.025277660832524251e-01,4.271889957138795268e-01,-1.003775787935072550e-02,-9.004663553423032651e-02,-3.673385891748286169e-02,9.096443653106689453e-01
-2.482292745684243698e-02,-6.108551939923356766e-01,4.676274373203402890e-01,-1.298993074468089010e-02,-5.533950405887906598e-02,-4.290639913461275629e-02,9.432653188705444336e-01
-5.509882884200462821e-02,-5.925713224029162118e-01,5.156492120396137802e-01,2.907781584475553367e-03,-4.634321456181773186e-02,-2.029398690323568890e-04,9.632548689842224121e-01
-8.778939355267001421e-02,-3.234977859240856790e-01,5.932867337614963210e-01,-3.132078298510142939e-02,1.093444157593820472e-02,2.036205562667492419e-02,8.273475766181945801e-01
-7.325759951303247031e-02,-3.679517179969044594e-01,5.560521127982005485e-01,-1.184184154758097067e-02,5.497588663238997010e-03,8.834483913945904987e-02,8.320186138153076172e-01
-5.703045981680797405e-02,-4.295148580448747144e-01,6.658697056370809220e-01,-1.360490913862419937e-01,5.761482262523581060e-03,2.204644059642692222e-02,9.938229918479919434e-01
-3.381908712927157029e-02,-6.137730925693090089e-01,5.973730899190928811e-01,1.283136095004837156e-02,-3.103308612966227190e-02,-4.200682944828561596e-03,1.050832390785217285e+00
6.778304469024731826e-02,-6.790010335070278957e-01,3.324397792715275135e-01,-1.885637362790731908e-02,-5.150374668664389755e-02,-2.330524716902953285e-03,9.134615063667297363e-01
6.135112331975382804e-03,-6.027425861236711535e-01,4.429027011426237004e-01,-8.744742496644794527e-03,2.674382765661358421e-02,8.560118931887227348e-03,9.110603332519531250e-01
-1.145847262235492048e-01,-6.191932109249584371e-02,5.416842152333358751e-01,-9.321923068249200750e-02,5.682252901639037179e-02,-8.061283826148685216e-02,6.739072799682617188e-01
-9.316621957979731583e-02,-3.070448581707421187e-01,5.973258654644534316e-01,-3.767629259609229370e-02,3.391020280933345829e-03,3.190811140160969978e-02,8.231356143951416016e-01
-1.066437750663772333e-01,-2.880866561693155026e-01,6.058228803211369584e-01,-4.136525625385641808e-02,2.167583327158366033e-02,9.881294147154733379e-03,8.225800395011901855e-01
-8.162704857482780407e-02,-3.226214397112645016e-01,5.429947272951352044e-01,-3.185873991035394898e-02,1.018524663423019290e-02,1.244022189828784299e-02,7.762612104415893555e-01
-1.232447904997851507e-01,-1.789522387339379517e-01,5.952738720561159269e-01,7.698388761504298440e-03,4.443307384753189017e-03,7.814781953257093905e-02,7.602351307868957520e-01
1.074913229601404813e-02,-6.086762434073005323e-01,4.586434077764716122e-01,4.649063411386883046e-03,7.014824862971480966e-03,-2.890939592536444919e-02,9.297600984573364258e-01
-1.526769612376443347e-02,-5.155260110013247798e-01,6.165258466555756378e-01,-1.297220664274639501e-01,2.255566910692418867e-02,-4.497850567337083327e-02,1.011711597442626953e+00
-1.156345838725655883e-02,-6.025373806871608950e-01,5.998960407405063977e-01,-1.272499122889217231e-02,2.077293195126112338e-03,8.427910363840525245e-04,1.041628718376159668e+00
-2.622564962388561696e-02,-6.325826772586322644e-01,5.896881117919682280e-01,1.309912306864104321e-02,4.608423157559709583e-03,1.162463333262212309e-02,1.058992981910705566e+00
-4.750529307573426313e-02,-6.066337940502197768e-01,5.866202071149622110e-01,1.036545165834721867e-03,-4.771583843519343338e-02,3.408679160045614831e-02,1.039046168327331543e+00
-2.398230966571878245e-02,-6.180694037794465245e-01,5.971256193455456440e-01,-1.353378081322356968e-03,-2.613152940877082504e-03,6.471072744211278129e-03,1.052548527717590332e+00
-4.024260109521290985e-02,-6.251900794485835133e-01,5.955600211736313820e-01,1.280217691645419917e-02,-9.302321628581824292e-03,1.825982277172499835e-02,1.058334112167358398e+00
-2.475312057763231002e-02,-5.795417286435928794e-01,5.991288010996740354e-01,-8.624831691785701110e-03,-3.838751576469075222e-03,2.278382707311826447e-02,1.022235989570617676e+00
-1.593338271184529739e-02,-6.216508109280212135e-01,5.970979420987141406e-01,-2.411101813775387050e-03,8.811837576726893120e-03,-1.665960774405402618e-03,1.055596232414245605e+00
-2.860610147474455453e-02,-6.389121934185726381e-01,6.431566192062558862e-01,-6.646128452255689600e-02,-3.516951263708212316e-02,-1.733414784201121883e-02,1.118741631507873535e+00
1.985249777317562442e-02,-5.979525486931320799e-01,5.899376472436610452e-01,4.335365793128261730e-03,4.720549982828004085e-04,4.299499329257870130e-03,1.029074430465698242e+00
-1.855020614951320701e-02,-6.186606317616967221e-01,6.017378334835784548e-01,3.846935824229753137e-03,6.083994714095231418e-03,9.173185053402076530e-03,1.057137131690979004e+00
-3.004984420690638182e-04,-6.050629078804770078e-01,6.002759322385827767e-01,-1.763747778627488411e-02,1.661985363521556805e-02,1.138087959445912255e-02,1.044885754585266113e+00
-3.978080535099760839e-02,-6.127683974729655203e-01,5.425354049619068864e-01,9.647582158217772250e-03,-3.255919966178869029e-02,-1.017972411780118484e-02,1.002415776252746582e+00
-3.188945800539694231e-02,-6.021399548261093804e-01,5.999475394377234982e-01,4.069013701045649280e-03,-2.178348516349102020e-03,-5.642031615416788319e-03,1.041570186614990234e+00
-4.873620769725852536e-02,-6.331318551164223374e-01,6.063396746453182384e-01,1.099710146600780918e-02,-3.868236322074435768e-02,3.377511815948006785e-02,1.077840566635131836e+00
-1.390798509805383706e-02,-5.982854042670942007e-01,6.000762378389066232e-01,-6.555203964333807150e-03,-1.964420756570581066e-05,8.614081978832687642e-03,1.038086533546447754e+00
-5.211006099410901704e-02,-6.741864196988467395e-01,5.655429618681716564e-01,1.903684202686397112e-02,-1.385975227234294005e-01,6.124909385309284388e-02,1.105744481086730957e+00
-3.971172834204719782e-02,-6.043248951122286439e-01,6.568203781775496797e-01,-3.804327076041658096e-02,-4.760360378743011545e-02,-4.793223759722192029e-02,1.102383255958557129e+00
-7.262968724115890368e-03,-6.172607195150427994e-01,6.165190219628964297e-01,-1.724396868664339680e-02,-1.523575821993907397e-04,8.414163528553168792e-03,1.069023609161376953e+00
-4.696323702926775978e-02,-6.396108533278831443e-01,5.958083805776707154e-01,5.025603290910763375e-03,-4.519075441729650255e-02,1.978662069351680777e-02,1.073638916015625000e+00
-5.287614700929783168e-02,-7.015211331505769587e-01,7.027818743447229455e-01,-2.074256071427629886e-03,-4.215208957424455838e-02,-1.610048595751338574e-02,1.219850063323974609e+00
-3.155994563928052332e-02,-7.391341500097315942e-01,6.706139557946418917e-01,-3.969488232465114702e-02,-5.494309939849666841e-02,1.769446242162602684e-02,1.226895332336425781e+00
-3.364215422347555801e-02,-6.168911911660703851e-01,6.697315281073924487e-01,-8.709224599822168456e-02,-4.174793538828983769e-02,5.400065797636272730e-02,1.132205009460449219e+00
-3.191145383683323400e-02,-6.014638065374335874e-01,4.835381222742876073e-01,1.386877372657209159e-02,-9.838199251597755379e-02,1.429962522350207085e-02,9.559713006019592285e-01
-5.287729160309197207e-02,-6.386029222272027184e-01,6.501357396898912455e-01,2.413045366597503603e-03,-2.999434590175131116e-02,6.324059078776133117e-03,1.118888258934020996e+00
-5.444711453260320938e-02,-7.461959849044452753e-01,7.299502792266385764e-01,-3.792459383046324628e-02,-5.816297641523222178e-02,4.246608249162833401e-03,1.284881114959716797e+00
4.365495753893405828e-02,-6.414912600312716595e-01,3.332089604968211938e-01,-4.192077575037440190e-02,5.863456682442032969e-02,-4.275028575644012480e-02,8.790463805198669434e-01
8.940469104822927615e-03,-6.040939957249330527e-01,4.382488357924476108e-01,-8.493270806880240387e-02,1.360320655440215298e-01,1.540893305252440948e-01,9.857398867607116699e-01
1.477271273513262873e-02,-6.142019855861946542e-01,4.249433150708178397e-01,8.443655413674441487e-03,4.093624869860883891e-02,-2.851010646849716848e-02,9.107775092124938965e-01
7.826437491469731556e-03,-4.091329129962644195e-01,2.337982441844407844e-01,-1.708613335501819874e-01,1.520128166783213663e-01,4.402704290431804640e-02,6.941606402397155762e-01
1.069566271467942142e-02,-5.343378165146734915e-01,2.527467863466611453e-01,-2.241649211674152931e-01,1.542698729135934532e-01,2.329311146952202025e-02,8.434163928031921387e-01
1.308030190800357762e-02,-5.936563803786168991e-01,4.256090459272416360e-01,-3.519094727073228835e-03,4.755337338790349699e-02,-2.586518111578612125e-02,8.929914832115173340e-01
-8.774746572043162773e-03,-4.245463545461856669e-01,4.317145987884306035e-01,-1.616026516551915537e-01,2.030449110905254428e-01,4.104849630943559896e-02,8.701280355453491211e-01
-2.084949930820736985e-02,-4.394004476156948003e-01,3.998471294209623439e-01,-1.423794846490932797e-01,1.591571970317553764e-01,7.333727733058248432e-02,8.253468275070190430e-01
-3.066599983194741308e-02,-6.092658990126749163e-01,5.807222849122697372e-01,-8.550068573781977738e-03,-1.310425010837227699e-04,-7.819376844265927846e-04,1.030797719955444336e+00
-1.858500693235853873e-02,-6.187407947728571500e-01,5.975647002201394109e-01,-6.947856311864175627e-03,1.230468789731275873e-02,4.335272137871505269e-03,1.053692817687988281e+00
-4.001974357100344243e-03,-6.192522170650642810e-01,5.210164627334842313e-01,6.565477125689147576e-03,-1.881038478479827789e-02,1.806115072920663062e-02,9.896283745765686035e-01
-2.424616800308997816e-02,-4.289099584277675237e-01,5.290957428063782775e-01,8.443787670073135687e-02,-2.596836188837135101e-02,2.055763965351244810e-02,8.476660251617431641e-01
4.050363047714750087e-03,-5.981088576756991015e-01,5.689594657910637121e-01,3.648731674568012756e-02,1.181280200249282481e-03,4.475345918575043651e-03,1.012887716293334961e+00
-3.676830158582176933e-02,-6.063587501492958554e-01,5.701366174721812508e-01,-1.090734874321451671e-02,-1.733971597666223927e-02,-1.348790579883418078e-02,1.019930720329284668e+00
-8.844231330378574119e-02,-5.769374722080592433e-01,8.052932590849523065e-01,2.627236277239679563e-01,-1.711191475457334299e-01,-3.623497538601379991e-02,1.331477284431457520e+00
-5.352004770661915323e-02,-6.142010874250160013e-01,5.979159457297039681e-01,8.866603811567024332e-03,-1.086428514033256285e-02,9.361720093339336718e-03,1.051110267639160156e+00
-2.671842404940309029e-02,-6.122152092564028258e-01,5.707156942257816112e-01,-2.493816312567911052e-03,-2.248350010912159025e-02,-1.789791727589904249e-02,1.025683164596557617e+00
-2.257060608681306715e-02,-6.125542206371049625e-01,5.618035571286263963e-01,5.021567654982787192e-04,4.284753470903304023e-02,1.493436290754689665e-02,1.020060062408447266e+00
2.593034946535754254e-02,-6.135693742861992872e-01,6.051627603934487398e-01,3.552949108285209656e-02,-1.779767167627573738e-03,-7.549832084929966949e-03,1.057760119438171387e+00
-1.394610701674438638e-02,-6.005599988981249471e-01,6.012672818450115475e-01,3.508370511852230977e-02,3.823465911633179559e-02,2.644623185868967379e-03,1.044794440269470215e+00
-2.135115022004108534e-02,-6.079571046391530897e-01,5.976511996474200838e-01,2.665574134086858352e-02,2.531184895124715881e-02,-1.210448346620882250e-02,1.046362280845642090e+00
3.080141018892083860e-03,-5.403308858115072333e-01,6.551245973314989701e-01,1.684496348188303516e-01,1.022079369937106824e-01,2.463776316452128898e-02,1.092278361320495605e+00
-3.255039522833777510e-03,-6.281144417277222392e-01,6.828820940453111943e-01,4.176401570222348925e-02,-1.282356681867136139e-02,-7.380536042958463216e-03,1.138359427452087402e+00
-2.186984994195230805e-03,-5.998049410155205097e-01,5.991272693843032737e-01,1.903613201449665809e-02,7.534253901127893095e-03,6.772094641152022303e-03,1.038978934288024902e+00
-1.150247204532394915e-02,-6.022592734220608701e-01,6.131508542448217414e-01,2.671916227990265083e-02,3.689025581972909824e-03,2.009927175157243812e-02,1.054323554039001465e+00
-2.676344657873978503e-02,-6.042635249310952528e-01,5.347244322203553724e-01,8.115139852775418369e-03,2.350542984625617754e-02,1.951116290671317879e-03,9.873706102371215820e-01
-5.387823845924823857e-02,-5.993898235537145069e-01,5.321298025429566092e-01,9.955519535717247820e-03,-3.175445744682494492e-02,2.176442791248126354e-02,9.825507402420043945e-01
-2.679021113130942988e-02,-6.042769081287899802e-01,5.025341432604033542e-01,1.724676174702986092e-02,-1.338793000574241623e-02,1.187179928586747264e-02,9.597947001457214355e-01
-4.157361532845730429e-02,-5.940817578828401224e-01,5.086092623924219902e-01,7.945030626469245030e-03,-4.768797714095573959e-02,2.287710294659651283e-02,9.594419598579406738e-01
-2.143020125592501324e-02,-5.902571472987739876e-01,4.516128822539874355e-01,1.253998136973814327e-02,-6.254226955036600033e-03,2.739697851629334033e-02,9.051267504692077637e-01
-3.866846226697947392e-02,-6.013020160326545405e-01,5.312527947529148697e-01,1.497244002966176789e-02,-3.181712189460542909e-03,2.845465394953187316e-02,9.824232459068298340e-01
1.590603783770918114e-02,-5.384487060062077557e-01,5.785697933203255428e-01,-3.977326952629532675e-02,-2.640596752960733089e-03,1.976768992083947386e-03,9.698419570922851562e-01
-1.238151269194285448e-02,-5.560504837071723605e-01,6.547847091735823355e-01,-5.647752511110857437e-02,3.336962565854675183e-02,-1.427179065855347338e-02,1.056846737861633301e+00
-1.090640102115539647e-02,-6.145573611135128900e-01,6.132314668783646061e-01,-3.993681617856142951e-02,5.148307584512653093e-03,1.873836708637382099e-03,1.065635442733764648e+00
-3.319110686698413526e-03,-4.732026942267036906e-01,5.937538693653343636e-01,-8.505934960618148633e-02,1.268796142152128596e-03,-1.099766778068528988e-02,9.380375742912292480e-01
-1.593604292751011481e-02,-5.382145136810454478e-01,6.183491818728418243e-01,-7.340676394789985570e-02,-1.420533437981951093e-02,3.891593830868834286e-03,1.011524796485900879e+00
-2.403080688071966564e-02,-6.208080550256220853e-01,5.987104331576446059e-01,-7.405356982577437040e-03,-6.013142447836604572e-03,-9.595453466077897078e-03,1.056473731994628906e+00
-9.463414662180383297e-03,-5.218674494332211644e-01,5.778673120046113887e-01,-5.061101488148531113e-02,6.057686447225147167e-03,-1.552450935057447974e-02,9.575925469398498535e-01
-5.143960959872796723e-02,-6.000243163379176403e-01,5.789039401524535000e-01,-1.528011666164838045e-03,-3.098156116477709119e-04,-7.307468697265579599e-03,1.021881818771362305e+00
1.132410656407162666e-02,-6.067283353771658616e-01,6.119275006220400437e-01,-3.583179620900919099e-02,1.682512436482343319e-04,1.983081522059397268e-03,1.057251811027526855e+00
-2.138646254732747692e-02,-5.120597626589673546e-01,4.568821879997816415e-01,1.534373017723155153e-01,-1.498051206570685245e-01,2.367745050401786830e-02,9.185915589332580566e-01
1.377918662120762062e-02,-6.328881393508419828e-01,6.264026948447283250e-01,-2.375750969717860261e-02,-5.639760333397388428e-03,4.013118857023030214e-03,1.091552495956420898e+00
-9.377389313256444953e-03,-6.020438359595867706e-01,6.003439430111336961e-01,-1.607626333031011642e-02,-9.916618632034902153e-03,3.209705099789259518e-03,1.041861891746520996e+00
1.780437297772291538e-02,-6.038650702610509624e-01,6.003646378368759917e-01,-3.148945635408677973e-02,-5.125438963638474961e-03,5.575767871778576981e-03,1.044584155082702637e+00
-2.079380915877287322e-02,-5.249319754485073375e-01,5.970379563295128422e-01,-1.010471084317255269e-01,-2.287140456512775071e-03,3.608907352209014124e-02,9.909079074859619141e-01
-7.827658827486691506e-03,-5.144463755452244325e-01,5.986253960186379564e-01,-3.806040604564743524e-02,3.125931138488877246e-03,-8.208979519214150769e-03,9.676081538200378418e-01
-4.220596255426145582e-03,-5.045462851936003412e-01,5.717584197480827246e-01,-2.965524012302762219e-02,1.087052362257273468e-02,1.794938239346834108e-02,9.349941611289978027e-01
-6.691046342585639517e-03,-4.858795161695732556e-01,5.701326143016349768e-01,-2.837079590522311248e-02,6.176849550703693466e-03,5.738524750591954098e-03,9.172689318656921387e-01
-8.774592374945752726e-03,-4.946508998178495986e-01,5.849102765126761305e-01,-3.485417339410668697e-02,-2.781874785194010224e-03,-7.944948968552186658e-03,9.385371208190917969e-01
4.099951558626149795e-03,-6.096828337418409571e-01,4.927509615538984145e-01,2.651089022449069649e-03,3.749427090633677961e-02,-3.072462452692130419e-02,9.604713916778564453e-01
3.952950621766179728e-02,-6.062896536663013869e-01,3.833690281919594489e-01,-8.448430557581092237e-03,5.591462053484701211e-02,-1.490731570017921580e-02,8.761428594589233398e-01
-3.308243024868330606e-02,-6.162233428642072131e-01,5.996411973387363314e-01,-5.273680241741053815e-04,-2.647488683410441444e-03,1.205899792040408163e-03,1.053273797035217285e+00
4.182456186641093920e-02,-6.446904899405939693e-01,4.133218807011231899e-01,-4.968540870651008126e-04,5.370881631162809783e-02,-1.469404164131685349e-02,9.346946477890014648e-01
1.702663398134303396e-02,-6.693172445203650067e-01,4.763657742399973749e-01,-2.122812399782463607e-03,1.349350491853932299e-01,-3.413435776867831603e-03,1.025668501853942871e+00
8.999294592970058515e-02,-6.511167143040228478e-01,2.189339485269824470e-01,-2.089957279205916646e-02,1.610071716098697425e-01,-1.960135825440342122e-02,8.611978292465209961e-01
8.301745082980316326e-02,-6.801329131784549231e-01,2.841969458638871071e-01,-1.964252748698746762e-02,1.252056321040676823e-01,6.837418366820628701e-02,9.157586097717285156e-01
9.826694097898791558e-02,-6.314933243571148047e-01,1.131104327954854383e-01,-2.651197374916274344e-03,6.002416960497709147e-02,2.676572719684467208e-02,7.460439205169677734e-01
-2.288411661709473591e-02,-6.123135899533004300e-01,5.701868046313062210e-01,2.685961970795803372e-02,-6.015101316322311181e-02,-5.957298511462192497e-02,1.035567164421081543e+00
-2.439154327231380162e-02,-5.544232899281243965e-01,5.555694108742350590e-01,3.769219804985456113e-02,-5.999154067461048151e-02,-1.543869238727082864e-02,9.697732925415039062e-01
-3.342273262435524472e-02,-6.038300792569262221e-01,5.488037095005244836e-01,-7.027267198787530943e-03,-6.307476152956063842e-03,-3.573811396705418603e-03,9.983807802200317383e-01
1.998408603895350522e-02,-5.948643028314288816e-01,3.829376128961322068e-01,-3.838132428163540388e-03,4.382789068114584935e-02,1.918320442582880855e-02,8.601430058479309082e-01
-2.632468530009811694e-02,-6.105356561889031530e-01,5.675354366437164177e-01,-8.819674120465253661e-03,-1.603574346491361833e-03,3.789495721642058106e-03,1.020390152931213379e+00
-3.796137944569521333e-02,-6.029313339452982978e-01,5.514978930497133058e-01,-1.030556082497288348e-02,-5.871299801852059323e-04,6.139823716015655602e-03,1.000056385993957520e+00
-4.171350217431676194e-02,-5.961245248667661478e-01,5.310503350084143648e-01,-6.148138678512268113e-03,-2.618706722303643097e-02,-8.968465970924226552e-03,9.774398207664489746e-01
-6.348436704616400306e-02,-5.959005351976225384e-01,5.581119927662044899e-01,-3.909301198366191971e-03,-3.524520121359887848e-02,-6.232523125783574758e-03,1.002340316772460938e+00
-3.878050132464824079e-02,-6.039433420757737148e-01,5.244109282317007681e-01,-1.324005241745705545e-02,-2.269191631357782984e-02,-6.753009641606762432e-03,9.783127903938293457e-01
-5.049089538263772797e-02,-6.017697563508208614e-01,5.298535000434012598e-01,-1.293872131395303396e-02,-7.781174557688230742e-02,-1.251168093881356060e-02,9.898360967636108398e-01
-1.835047158767687953e-02,-5.940175469431663302e-01,5.728103072046194510e-01,4.386578036295191163e-04,-2.758276335648985646e-03,-7.854234212437916302e-04,1.010544776916503906e+00
-3.716803548287739983e-02,-5.984605981171015054e-01,5.382039211674821688e-01,-7.980425908971080021e-03,3.733129885660439046e-03,-1.631326020549058115e-03,9.845278263092041016e-01
-2.645248645059030887e-02,-5.951116683430515142e-01,6.029878663312385756e-01,7.420530218760675858e-04,1.118167200792659008e-02,-4.134180262066639326e-04,1.038211345672607422e+00
-2.089434585150472604e-02,-6.054889062168049563e-01,5.828906549213557220e-01,-1.449036099499048224e-03,4.887831850351416485e-03,7.319777114451675969e-03,1.029327630996704102e+00
-2.101172113729504048e-02,-5.361388408939498085e-01,5.905727823832204182e-01,3.023437209213402505e-02,2.518076500849902519e-02,2.242238788160197741e-02,9.800959825515747070e-01
-4.262669611765492611e-03,-5.790155867620315755e-01,5.826860716735140500e-01,8.122672738804445625e-03,8.807588627597139064e-03,9.884925910493631146e-03,1.006441235542297363e+00
-1.672490847363684863e-02,-5.410064701679253574e-01,5.068996616809288147e-01,4.429028609833709357e-02,-1.166626495084224502e-01,6.924503053036394629e-02,9.405745863914489746e-01
-6.250890053497412668e-02,-5.732357236102583187e-01,7.294972207295186140e-01,-1.704513105783663773e-01,4.827035174001836730e-03,-1.213845813533620012e-02,1.174856305122375488e+00
-2.949214237213584541e-02,-6.076314486003275839e-01,5.642036476355777319e-01,-1.122196729578663760e-02,-2.984822362320828110e-03,-2.837050330862534234e-03,1.015079975128173828e+00
-9.772006982446945766e-02,-2.801672205420056017e-01,4.908147549708868351e-01,-1.549155863089517748e-01,8.023261818021372449e-02,4.792147764379491720e-02,7.650061845779418945e-01
-2.240258015249756846e-02,-7.232349905921736655e-01,5.724165730991918055e-01,-3.434253477715125662e-03,-1.242088574673865242e-01,6.038575289120558937e-02,1.148521900177001953e+00
-4.060459999832684297e-02,-6.780638104284034684e-01,5.027360185354757816e-01,-3.993149570165417661e-02,-1.130446669171183277e-01,1.083155023053441329e-02,1.044702649116516113e+00
-3.215963269619014075e-02,-6.075521513017119180e-01,4.811307732612299937e-01,8.516087292978813178e-04,-5.862154239853488435e-02,1.680254154375852849e-02,9.492342472076416016e-01
-5.839719252827767909e-02,-5.906523177149591852e-01,5.405151120398840048e-01,3.133893942800679766e-04,-2.726979250364805138e-02,1.279189551914934088e-02,9.815741181373596191e-01
-7.662144443554594342e-02,-3.947522582999678509e-01,5.710532564688264312e-01,-1.253285530177926767e-03,-9.063524620892073752e-03,2.425711559363213227e-02,8.536693453788757324e-01
-2.384271058831659296e-02,-6.032873576929075332e-01,5.876464280510922400e-01,1.591145078723084014e-02,-2.548070659348575240e-02,-3.320047987988062905e-03,1.032830834388732910e+00
-2.609614627692502520e-02,-6.190224901938781166e-01,5.925788674286974755e-01,7.807919857893597278e-03,-2.685773450535484594e-02,-7.366539641129743118e-03,1.050551652908325195e+00
7.378969529756057577e-03,-5.788645475967024723e-01,5.955914492377321068e-01,-2.531141420690549704e-02,-8.560545332653605316e-03,1.871919802492703899e-02,1.018677711486816406e+00
1.173306825035932630e-02,-5.616169785473335008e-01,5.832753992022792211e-01,3.114584146457560765e-02,1.226483864073736781e-02,-3.976779993823749589e-03,9.932238459587097168e-01
1.418182707511029227e-02,-5.945996959050656727e-01,5.996498029731066604e-01,5.370574779804313664e-02,8.569896705902173110e-04,2.864652073324984796e-02,1.039676308631896973e+00
-8.005617173941657547e-03,-6.015626047195287152e-01,5.981734315294648940e-01,3.030418348964743561e-02,-2.986891606397032613e-03,9.263409606771667859e-03,1.040482521057128906e+00
-1.741902419385336562e-02,-5.300080459799179078e-01,5.182246037256915683e-01,-2.625113690422180464e-03,9.190098621921711022e-03,1.290760493039341122e-02,9.082953929901123047e-01
-3.959372319732127471e-02,-5.286466387490726948e-01,6.155059331115889654e-01,-3.569383182962684170e-02,-1.564290980739140718e-02,2.552617701909862952e-02,9.976059794425964355e-01
-4.708889596200913769e-02,-5.645664811950857898e-01,6.475614839629575403e-01,-1.116213727825679652e-01,2.741268838853321010e-02,4.540822853612912907e-02,1.074991345405578613e+00
-1.464525345866346875e-02,-6.151729706404304165e-01,5.489659906483773666e-01,-1.408105240046736428e-02,2.578687399663443652e-02,5.537325769721233859e-03,1.009671807289123535e+00
-3.307185384063986849e-02,-5.494918037673398592e-01,5.767697282295279892e-01,-1.354525425416058977e-02,-9.490013519967355898e-03,1.148849735395790148e-02,9.771116971969604492e-01
-3.721160142459131737e-02,-5.860992985748073592e-01,4.771322614951852836e-01,2.588142246618408294e-03,-2.955061186930782458e-02,1.399020032254604754e-03,9.223827719688415527e-01
-5.932972964639501856e-02,-5.958314082486261265e-01,5.079572121815399965e-01,-1.752378142960082756e-03,-7.287064254928012075e-02,2.830852665389362987e-03,9.643456935882568359e-01
-2.187807734040992866e-02,-5.848046287964878687e-01,4.514783565751131489e-01,4.774509701925919863e-03,-6.132842509542264613e-03,3.160528220699708631e-03,8.986816406250000000e-01
-1.114379896649903695e-02,-5.835625201127118133e-01,4.095382454174814613e-01,4.781407805160339981e-03,-5.542244836108824180e-02,6.831914275773212121e-03,8.688305020332336426e-01
-2.088343361622072014e-04,-5.885566826975731081e-01,4.154463643718311339e-01,8.886105890887266781e-03,-4.203957986803716351e-02,1.533344714817586572e-02,8.773348927497863770e-01
2.861754625596069079e-03,-6.170834525684456562e-01,3.504260290953866153e-01,1.129955624161405915e-02,-1.479395799222285590e-01,5.866139536868003428e-03,8.869884014129638672e-01
-2.916518613926003672e-02,-6.215649604046766807e-01,6.117337351712908156e-01,7.856138142354728840e-04,6.980375428283976610e-06,6.858339229384721909e-03,1.068410158157348633e+00
-2.954243727185330154e-02,-6.140430070369019555e-01,4.621260602508519000e-01,-4.413364475075399508e-03,-9.788185965005263833e-02,-9.492420077515663704e-03,9.485940337181091309e-01
-1.430475413022727973e-02,-6.095469850955391733e-01,5.225269562651282396e-01,3.291116459434466780e-03,-1.039624300798406946e-02,8.940075685231734653e-03,9.811437129974365234e-01
-2.430079607212478482e-02,-6.088885605199610973e-01,5.845846829305121339e-01,-4.036531417046958919e-03,1.740471451730507980e-03,-4.370548769937135022e-03,1.033705353736877441e+00
-4.978955482169503816e-02,-6.002692060337518898e-01,5.762992035450554829e-01,-1.346605559763534854e-03,-7.781614958599461160e-03,3.383864061383853178e-03,1.019747734069824219e+00
-2.024212842149469144e-02,-6.159811782483541887e-01,4.973927958496384694e-01,5.559553379928054706e-02,-1.642860706678751503e-01,-3.762691747687046256e-02,1.012776374816894531e+00
-2.912640726143246594e-02,-5.546128391846837369e-01,5.093713168211018161e-01,-4.205233058424025228e-03,1.946520288515106640e-04,-1.752501833810540810e-02,9.219889044761657715e-01
2.404766548423858952e-02,-5.873077357595192227e-01,3.709241750423346029e-01,4.777793814942223743e-03,-3.935945494478976930e-02,1.680762353259324451e-02,8.436273336410522461e-01
-4.156504325570987979e-02,-4.690710233369505544e-01,5.009693497207540203e-01,2.045964410912686198e-03,2.708940129013584150e-02,7.674619921775628628e-02,8.537713885307312012e-01
-5.992769356936711311e-02,-5.458633899651863519e-01,6.234634737282855887e-01,-3.945071666416104239e-03,-2.055402483575757572e-03,2.095499683047561540e-02,1.018144369125366211e+00
-2.038076527936920693e-02,-6.224131550171865257e-01,5.608045931480373225e-01,-1.090187070911377912e-02,-1.298225459062616466e-02,-1.197443904526706432e-02,1.025380015373229980e+00
-4.744357490353581092e-02,-5.501489125186017626e-01,5.963317765328153275e-01,-4.711125692690285374e-03,4.616158720066215401e-03,1.095224987283222907e-02,9.956299662590026855e-01
-3.306557792046915800e-02,-5.794630603767657595e-01,5.961700375654587214e-01,9.190987173296249818e-04,1.497633486677986750e-02,-2.693842794848471875e-03,1.019312262535095215e+00
-2.750017192390343673e-02,-6.018927392663027121e-01,5.793642775302407788e-01,9.087992959687166139e-03,1.627508979632461038e-03,1.831679246040740158e-02,1.023744106292724609e+00
-1.702301904208064487e-02,-6.496162049404602401e-01,6.454987075292097920e-01,-2.960225418023050559e-02,3.276363183519639954e-02,2.497981343079607938e-02,1.125138759613037109e+00
-2.156584172779348746e-02,-5.927138937779162786e-01,6.160867779728261828e-01,-2.273155732373870978e-03,-1.526702553702104920e-02,1.823787162671112799e-03,1.047726035118103027e+00
-1.101981458168335704e-02,-6.124374153502010198e-01,5.255890602127577527e-01,-1.338478404508585372e-02,-3.474105503999704719e-03,3.462838356713369547e-03,9.864014983177185059e-01
-2.682960320872589816e-02,-6.267901771445498760e-01,5.973676330511692445e-01,-6.747431758681293051e-04,4.692544689596004487e-02,-1.696740816192945445e-03,1.063336491584777832e+00
-2.660960890389122563e-02,-6.215724048962945059e-01,5.818155130824255172e-01,-1.034748725475306309e-02,5.636490838518275724e-03,5.413502933948666392e-03,1.042428255081176758e+00
-2.936215805263479167e-02,-6.203652709745973715e-01,5.971560865424899722e-01,-9.476316228738353165e-03,1.356068596039426352e-02,1.264308489378248267e-02,1.055170416831970215e+00
-3.239141220000498617e-02,-5.904454516624347837e-01,6.212654671701431930e-01,1.099109285571148349e-03,-1.323716785001763027e-02,-1.172840972417843811e-02,1.050908923149108887e+00
-1.895187273487122792e-02,-5.895328156578095724e-01,5.935682450744220739e-01,4.779499690367083366e-03,-1.164700620546760615e-02,-2.052970640032435179e-02,1.025658726692199707e+00
-9.201256186815019722e-03,-5.349332158046583574e-01,5.909579245630587341e-01,5.142855089180865119e-02,-1.189833769737015656e-02,-2.837523410995681020e-02,9.812659621238708496e-01
-2.362486166347486233e-02,-5.160154390696660709e-01,5.887444937208384799e-01,2.745651542876705736e-02,-2.165276013537315719e-02,-4.989927376235286927e-02,9.644207954406738281e-01
-3.490364049820152137e-02,-5.411898804069323887e-01,6.063478309237854136e-01,1.324431355714918331e-02,-1.935807970053698285e-02,-1.710664791566151796e-02,9.973536729812622070e-01
-2.964200313725373626e-02,-6.074945160963858282e-01,5.544291153550038320e-01,-1.269014426562494087e-02,2.849588031936741220e-02,-6.383476673813460664e-03,1.007770299911499023e+00
-3.676347478730964541e-02,-6.062036334970611895e-01,5.577645981327818969e-01,-8.829398348470041472e-03,3.035270205675430315e-03,1.421791341016662765e-03,1.008236765861511230e+00
-2.431091168574692554e-02,-5.733852004062005570e-01,6.083819775416772213e-01,3.387505403966684613e-03,-1.148455194047665572e-02,4.316049010400841400e-03,1.024531245231628418e+00
-2.914873733848445669e-02,-6.285686647784933800e-01,6.009252589287734647e-01,-1.074872163529428000e-02,6.185784270093390089e-03,2.555963430246195947e-03,1.065109133720397949e+00
-3.206514961809567299e-02,-6.045941856832840466e-01,5.918081221399712488e-01,-2.813931402319785544e-03,5.907507426322312731e-03,-5.872824036843932866e-03,1.036544680595397949e+00
-1.540516271638102397e-02,-4.508098393170880680e-01,6.622912480742849661e-01,1.506425516261582498e-01,3.402414041354906438e-02,2.725916916067902193e-02,1.008812904357910156e+00
-7.829334961430867157e-02,-3.225089897181538379e-01,6.004077733132044958e-01,4.181042983912843652e-02,-2.403298097106346468e-02,-6.130162741027818385e-02,8.392119407653808594e-01
-3.154682259411499545e-02,-3.431298837418902403e-01,6.001562198758864097e-01,1.355063511797942044e-01,-2.981768622783221787e-02,-7.752803150761602979e-02,8.767814636230468750e-01
-3.623467235962491567e-02,-6.406882036129794011e-01,5.423139902372487997e-01,-1.499883577289942531e-02,-5.379956945929562084e-02,3.212603937281701977e-03,1.029163479804992676e+00
-4.429689189522446890e-02,-6.094175294800793230e-01,5.846601683662074889e-01,-1.024081483926456496e-02,-9.446823985418314681e-03,-8.412040909878102518e-03,1.034978032112121582e+00
-4.428987122899560869e-03,-5.868620768445800273e-01,4.853550426337537305e-01,-6.048831421325858923e-03,-3.234893395823512652e-02,-1.587363521929401403e-02,9.318735003471374512e-01
-3.488323228306705603e-02,-5.897280305870568062e-01,5.408584119778274690e-01,9.115324567025280197e-03,-4.863900024047764642e-02,4.458224151766185250e-02,9.859451055526733398e-01
3.890454749961431979e-02,-5.745509163772398731e-01,3.064533058754737027e-01,-1.762813771422142711e-02,-6.742001466127732490e-02,-2.168528873141238947e-02,7.924762368202209473e-01
-4.165398707424924907e-02,-5.841465082247202512e-01,4.743955582965573292e-01,1.222804086934386201e-03,-3.154629139979540919e-02,2.750927410291224406e-03,9.184612035751342773e-01
-4.477417361281875452e-02,-6.142716613221418376e-01,5.425010690815073033e-01,-2.071281418936324337e-02,-5.477403254081835565e-02,-1.955467519708093196e-02,1.007524728775024414e+00
-3.723120109024455338e-02,-6.087515651490031932e-01,5.504903172417322521e-01,-1.517311545545029471e-02,-1.818219612333825050e-02,-1.471859492047715608e-02,1.005126476287841797e+00
-2.602031168345435991e-02,-6.150224625591800276e-01,5.935905025691107229e-01,-5.707228489633262708e-03,4.911761865773431844e-03,-2.911165815400802281e-03,1.046894788742065430e+00
4.151196419210204103e-03,-6.221866294646943851e-01,4.374749107420494165e-01,1.690784968397246110e-02,-4.090703930701756336e-02,2.467275872134554529e-02,9.269194006919860840e-01
-3.773613758249486083e-03,-6.011896464796017137e-01,4.417606362519087559e-01,-1.798616191349204294e-02,-3.961090631608490259e-02,-1.733615819109646933e-02,9.100303053855895996e-01
1.565069900130099112e-02,-6.017167784695484078e-01,4.035912460848528616e-01,4.523287421032871729e-03,-8.224588580120985315e-02,-5.583065691810004672e-02,8.949011564254760742e-01
1.271418707055224293e-02,-4.497782273066128211e-01,5.620990742443673360e-01,7.547926308834138065e-02,4.924456341719460686e-03,-1.628855562946752294e-02,8.875637650489807129e-01
2.714477155966502422e-02,-5.466282882907637086e-01,5.839291501858886457e-01,4.296827353134782118e-02,-1.021600710352402663e-03,-5.025070302369080699e-03,9.819928407669067383e-01
-1.615544481168511293e-02,-5.571584783625559423e-01,6.852215032924260374e-01,1.146821541720657173e-01,-1.826789821465682256e-03,-9.625009022751289042e-03,1.097180366516113281e+00
9.852954707013243663e-03,-5.526450111355283301e-01,6.109451527114901914e-01,3.736237021109634071e-02,5.884292662793228455e-03,-3.908366626882952589e-03,1.010032892227172852e+00
-1.828777261370884838e-02,-5.995007317381662038e-01,6.001640237704745084e-01,-3.816903640902380435e-02,1.604669709500487762e-02,-1.590130989574018361e-03,1.041582465171813965e+00
-1.764908479974132763e-02,-6.584660609001742326e-01,6.025011889317376523e-01,-2.314381245748474078e-02,2.390396223979914317e-02,5.932547508569646936e-04,1.093598484992980957e+00
-2.394102177142543725e-02,-5.997804335637560991e-01,5.827582917857836442e-01,1.498294746531316857e-03,-3.838073134622940839e-03,-6.583177766747699139e-04,1.024250268936157227e+00
-1.031399933966018791e-02,-6.102951368895396245e-01,5.595779854323148506e-01,-1.271194856912376140e-03,1.434026362315986161e-03,7.029982193755382122e-03,1.013330101966857910e+00
-1.833942500738154624e-02,-6.331016563016842458e-01,5.704804299618086993e-01,3.485438972214285891e-02,2.417473387045107266e-02,-5.940768544678425023e-02,1.050053000450134277e+00
-2.926397580187611869e-02,-6.115923372373729405e-01,5.967004447129733435e-01,1.453569236522062014e-04,5.255330168685677303e-03,-2.011395671480506638e-03,1.046685099601745605e+00
-2.955225966073666416e-02,-6.131180594664711325e-01,6.103693601281019454e-01,-5.624068423734688259e-03,1.417705590436231381e-03,2.763960003772650796e-03,1.060004234313964844e+00
-9.591318878069399201e-02,-3.688560301876890324e-01,5.936816081283708968e-01,-3.788132186921167738e-02,3.294737133821815100e-02,-3.715112488517169440e-03,8.636328577995300293e-01
-2.263477949881424062e-02,-5.550469135175732927e-01,6.233791226618472514e-01,-1.103583693481615113e-01,6.684019812345189104e-02,-3.770554636281711527e-03,1.046290874481201172e+00
-2.332094085601140246e-02,-5.585674179106969728e-01,5.608033028487201532e-01,-5.660008450110132205e-02,9.887331154679618317e-02,2.712469777271502708e-03,9.895963668823242188e-01
-2.747656326917604502e-02,-5.466657234878372629e-01,5.550285136697941102e-01,-1.377266740990849489e-02,9.387438475271701888e-03,-6.857544519326838617e-03,9.551305770874023438e-01
-2.018619240291207040e-02,-6.272431800407690661e-01,6.181903082755214607e-01,-4.890513806817931020e-02,-1.952435130737414926e-02,-2.426154549605312113e-02,1.083355069160461426e+00
-1.281682410811577251e-02,-6.239397310747595293e-01,6.096042747947998386e-01,-3.145933179764574383e-03,1.940243049615146542e-02,7.074244164526372926e-03,1.068907976150512695e+00
-1.746553872516290115e-02,-6.832632878530212617e-01,5.918754832062835813e-01,-5.545038308976558972e-02,-4.132964010513774655e-02,2.245931506742992675e-03,1.111145734786987305e+00
-1.529221517270445974e-02,-4.211759396233085151e-01,6.423817279316432760e-01,1.172396478389713531e-01,-1.423979049958324847e-02,-5.200691557139276722e-02,9.561243057250976562e-01
2.473106177374529910e-02,-6.142205876615844939e-01,6.354847356481443388e-01,5.870814494219082913e-02,-1.103118078110816233e-02,-2.380497463605841038e-02,1.088083744049072266e+00
1.679172498501915051e-02,-5.623060081766215745e-01,6.208418626815093155e-01,1.348951905957644637e-01,-1.358943549458150289e-02,-1.708727669924435186e-02,1.051691412925720215e+00
1.375796106684854664e-02,-5.718501930470705208e-01,6.466336315074285856e-01,1.259932967936034653e-01,-1.803902154307751582e-02,8.814065353647048545e-03,1.078386664390563965e+00
-2.383056334442614638e-02,-6.112442170464108537e-01,5.443851762712871301e-01,3.250193438454825751e-02,-5.555297599071397363e-02,2.114690538466566100e-02,1.007705688476562500e+00
-1.106884830635812902e-02,-5.965123514225078027e-01,5.592604408647022796e-01,3.795520673895416697e-02,-2.293238350942560649e-02,3.384972534159567947e-02,1.005610346794128418e+00
-1.243519336083450874e-02,-6.053441930507177382e-01,5.957264588911047598e-01,1.561912683697266532e-02,-1.170508956907297463e-02,-3.652962114967802255e-03,1.040754079818725586e+00
-2.906217489157622569e-02,-6.084142774496740236e-01,5.637250775496133182e-01,5.052112824786286240e-03,-1.844507493407297055e-02,5.771909008585773132e-03,1.015714168548583984e+00
1.566666642761489411e-03,-5.558103726768185426e-01,5.839818788860471344e-01,4.758575828388682954e-02,2.737565593426143258e-03,4.662666554825059366e-03,9.906474947929382324e-01
-2.371061467417262536e-02,-6.006296592538756807e-01,5.832510846640557300e-01,-2.894138152850575605e-03,-4.507613303678205570e-03,1.182621195957610834e-03,1.025424838066101074e+00
-6.456182420090164631e-02,-6.060631141195640392e-01,5.928468216808924218e-01,-1.393904373098018906e-03,-1.159533179172620061e-02,5.196125089459450487e-03,1.040138244628906250e+00
-2.890020910565784668e-02,-6.017847265777289678e-01,4.184736103575718569e-01,8.719461570792329599e-03,-9.654752906816922720e-02,3.619233601468684752e-02,9.037452936172485352e-01
-9.468811694302636806e-03,-6.328101813985315127e-01,4.915757539516883989e-01,-2.343780748310944628e-03,-4.060130215764158612e-02,-4.937798073267347237e-04,9.782047271728515625e-01
-5.285631977230959705e-02,-6.514758565194838091e-01,5.666851658823631732e-01,3.928919058703759203e-03,-1.074986107251221512e-01,1.472803953668719301e-02,1.071639657020568848e+00
-2.669020944056178443e-02,-6.136870583595526174e-01,5.975969942761808484e-01,-1.914683027992105735e-03,6.003286835561000637e-03,-7.393182709003127788e-03,1.049303412437438965e+00
-2.267747766055642350e-02,-5.874184552526839909e-01,5.334427927670584157e-01,1.376588442867320572e-01,-1.317332585835152559e-01,3.829721207644375992e-03,1.025290608406066895e+00
-1.046616099798990118e-01,-3.523952069607885762e-01,5.683547395954259285e-01,6.452964433457858417e-03,8.971907167498504101e-03,-1.522197111968526598e-02,8.259014487266540527e-01
-3.386103282529331904e-02,-6.007529135750503402e-01,6.206063981292762044e-01,2.996126090147305850e-03,2.345894811715022298e-03,-2.546903782728949031e-02,1.059573411941528320e+00
-3.515638066804693471e-03,-5.992450733183939393e-01,5.662469738252231544e-01,2.813164568876680427e-02,-8.979426609479127311e-03,3.201871158253970229e-02,1.012244582176208496e+00
-3.393031142339939660e-02,-6.247069083292179359e-01,6.007311280390210673e-01,1.091548518318336339e-02,-3.014168955259212065e-02,9.056519904840996255e-04,1.062939643859863281e+00
8.264801150009801894e-03,-6.123389891701626064e-01,5.996682440725673580e-01,-1.283302508838026455e-02,3.097569528444001335e-03,8.591071344761468109e-03,1.050085067749023438e+00
-2.035411797421126517e-02,-6.224537923357202907e-01,6.041121265274265184e-01,2.045927994561763143e-03,-2.000431294757658816e-03,1.319169223597403684e-02,1.062553405761718750e+00
-2.716819519361945642e-02,-6.143442379789526564e-01,6.052660674342097424e-01,1.527520482561044819e-03,2.373965981754709662e-03,1.508534372276889440e-02,1.056790232658386230e+00
-2.183851711425142256e-02,-6.069818049403632454e-01,5.741412256712092876e-01,4.261895735313159239e-03,9.126805149839213940e-03,4.109241426115470622e-03,1.023070454597473145e+00
-2.704271797226385013e-02,-6.329022618941678724e-01,5.880365453735695302e-01,1.040795425315191140e-02,-1.952168009576424725e-03,7.516611646545229980e-03,1.057613253593444824e+00
-1.581292511054510283e-02,-6.523138834063332281e-01,5.712398464789567587e-01,5.288158690675792001e-03,3.865184694211296762e-02,1.361829577681551717e-02,1.062330603599548340e+00
-3.240453525338071045e-02,-6.198234924568347681e-01,5.896293561364978064e-01,3.807416438097452512e-03,-3.664809511162126724e-03,6.615982078764560265e-03,1.047662496566772461e+00
-2.557843181828058088e-02,-6.265011326635012701e-01,5.781660051199252193e-01,1.194999247191194831e-02,-1.882692635412363180e-03,9.228038471351661734e-03,1.043606042861938477e+00
-4.607201129951203622e-02,-6.416647524921661461e-01,6.338131420699847363e-01,9.852635430759580995e-03,-2.728867900250877068e-02,2.585772006883475804e-02,1.107447624206542969e+00
-1.919337889953812160e-02,-5.969448006283145647e-01,5.215905626816584872e-01,-6.861235347443179512e-03,8.257653015624678849e-03,2.795721650054911606e-02,9.702439308166503906e-01
-3.510072183920222993e-02,-6.167156670368737492e-01,6.429744256608441733e-01,-7.171873112751887824e-02,5.616046488570176042e-03,-2.509253154055499438e-02,1.099933981895446777e+00
-2.537651327999494721e-02,-3.141978281337263201e-01,5.511172680644561561e-01,1.215132065516819904e-01,-1.366869718139047257e-02,-2.390492204872285420e-02,7.929928898811340332e-01
-2.652822588575354940e-02,-4.968443884357687246e-01,6.052842069367562194e-01,4.676867539653496719e-02,-2.750542667492656898e-02,-5.139185636302940480e-02,9.665871858596801758e-01
-3.947902097027612689e-02,-3.908156222394023049e-01,5.830047323277322002e-01,7.560214504545000047e-02,1.965673641465459295e-02,1.457523486155076591e-02,8.651984333992004395e-01
-1.784532714951804488e-03,-4.314182050236811117e-01,5.881798615884497039e-01,1.611272377828333879e-01,7.077012053847144338e-03,-5.806877955286625197e-03,9.296499490737915039e-01
-2.798181210279009415e-02,-6.156884105514992545e-01,5.905867146824421710e-01,4.954789089455387784e-03,-2.390476716591193387e-03,1.078876487072213085e-02,1.044989347457885742e+00
3.804953909600661266e-02,-7.100972224726462834e-01,4.495828444555569625e-01,9.982210553327999780e-02,-2.413028897534047201e-01,6.065855366494544293e-02,1.119188785552978516e+00
1.731114692646075481e-02,-8.071893532310430164e-01,6.239908525251675053e-01,9.747953365492495470e-02,-2.670198643449510634e-01,3.084583207157054821e-02,1.339152336120605469e+00
-1.953287379463751819e-02,-6.781238879034621192e-01,5.734611983185861073e-01,1.447582940300389809e-01,-1.974078595102196076e-01,5.360291244475172412e-02,1.168040633201599121e+00
-6.671984158243436658e-02,-6.350235997517958975e-01,6.158264229941345924e-01,2.141070294228125930e-03,-6.889688990436319826e-02,-6.990544157216061795e-03,1.091390371322631836e+00
-6.530478055979918595e-02,-6.142293687219037013e-01,6.278876725233489831e-01,4.185170623284531835e-03,-2.825692229937596181e-02,-1.965786552069442861e-03,1.079260826110839844e+00
2.539093712901813182e-03,-7.237066892115684436e-01,5.852643738775854532e-01,5.652415808230842192e-02,-1.077797156140187229e-01,3.061210849801758449e-02,1.156481385231018066e+00
-4.846482375786297092e-02,-6.326355649410555504e-01,6.128139272537763693e-01,2.252107202736047115e-02,-5.691458174294954098e-02,1.396874200747877208e-02,1.084743976593017578e+00
2.809972203438897836e-02,-5.648836443198851365e-01,5.767776612612789400e-01,1.965139859659077379e-02,9.765266482644648083e-03,4.341371358069926259e-03,9.897145032882690430e-01
1.462014496466875445e-02,-5.749319538059107781e-01,6.039260519667308813e-01,2.871176700534814122e-02,8.562572602141460890e-03,-4.868890289242586329e-03,1.022273898124694824e+00
-2.212522941617028199e-02,-6.095422025855584680e-01,5.931691617644337944e-01,3.043389078113400275e-06,4.057035275122362027e-03,-1.937830270152849938e-03,1.041700959205627441e+00
-5.015185604935715365e-03,-5.889898693994760626e-01,5.925604150495903388e-01,3.423852469031330933e-03,1.184093502552109947e-02,-2.766401542496751444e-03,1.023509025573730469e+00
-5.678588227445127007e-03,-5.851421096640190278e-01,5.904063691185539309e-01,2.692958101819748883e-03,9.028145997970983203e-03,-2.115967529011461654e-03,1.018226146697998047e+00
-5.947160530656714697e-03,-5.750181918188944641e-01,5.889974898986561902e-01,9.208397730105482692e-04,8.682806139339730236e-03,2.426439195639267226e-03,1.008272290229797363e+00
-1.113769975280818475e-02,-5.700040179619223490e-01,5.456438151246624235e-01,1.003849713015255440e-01,-2.747629591043905181e-02,5.002042444826727136e-02,9.866641163825988770e-01
-1.087107260573283267e-02,-6.004469056225076873e-01,6.245793064771645309e-01,-4.718309455134851033e-02,2.142464354427216569e-02,6.488533997337339598e-02,1.070854425430297852e+00
-7.995814913984103378e-02,-3.923157081475588392e-01,5.791337184049376585e-01,-5.227160838079202704e-02,-1.759286655776198458e-02,5.206640360928841077e-04,8.642730712890625000e-01
2.455012027621386594e-02,-6.111079744082016374e-01,4.108978210426084687e-01,8.405683941207504895e-03,-3.160211101296998837e-02,-2.523456845404017240e-02,8.966767787933349609e-01
7.531681117683858284e-02,-4.610044268774676768e-01,3.691222863564713741e-03,-5.223608517741708257e-02,2.041293077745243850e-02,2.240503029430225557e-01,6.437296867370605469e-01
2.328268384758802600e-03,-6.175156103132488639e-01,5.042638232196706705e-01,-8.036605021651927264e-03,1.765106750893231241e-02,-1.326158716447225008e-02,9.741270542144775391e-01
7.940215977496634103e-02,-6.561331190221380005e-01,1.359289274775337120e-01,-1.380106796887169418e-01,9.721413062107633896e-02,2.330085088733290788e-01,9.133216142654418945e-01
3.444764792062637859e-02,-5.746375650586840189e-01,3.836941947163970967e-01,-2.905883356480903901e-02,3.123227689148128441e-02,-4.952631741823909639e-02,8.476420640945434570e-01
5.791589247994813339e-02,-6.549700763930373926e-01,2.946082647646620645e-01,-9.662634573434709939e-02,8.429854136952186217e-02,-8.168522610166348286e-02,8.957178592681884766e-01
2.464211382268831352e-02,-4.438750928459906930e-01,2.431753157252637965e-01,-1.029730133316778956e-01,1.058723423997231794e-01,1.038038006858894025e-01,6.836772561073303223e-01
3.817086916263999485e-02,-5.722455527772338790e-01,5.767880554696721562e-01,3.963569295466294606e-02,-9.946105147392971316e-04,-8.440646026581384229e-03,9.982119798660278320e-01
-3.327470075839296382e-02,-6.126704773186653075e-01,5.651481717395060445e-01,-1.054264704116760799e-02,-1.846687327110291613e-02,-1.617965373280045183e-03,1.020733833312988281e+00
-5.777786158432490771e-02,-3.858730315679446687e-01,6.338717712275327987e-01,1.207057003558356101e-01,-6.078015671919533014e-03,-1.118683369017531033e-03,9.256223440170288086e-01
-2.035299140295467740e-02,-5.939728495888169091e-01,5.623589229281562574e-01,1.864518477665884832e-03,-1.288010152908688859e-02,-2.380346077576392990e-03,1.001685142517089844e+00
-1.319230662642194296e-02,-5.137219825768517545e-01,5.773431322423416834e-01,4.900507493717041335e-02,2.038381125399755384e-02,-8.036799690254890424e-04,9.504185914993286133e-01
-3.613962081185212449e-02,-4.654077404114106975e-01,5.744231491794611344e-01,3.594145951375058573e-02,1.613501032986511957e-02,4.852383958349545251e-02,9.115224480628967285e-01
-1.181854834020751310e-04,-6.351189117865410072e-01,5.000798903144387797e-01,6.586974465438101035e-03,-4.679798463461960767e-02,-1.384439664099798920e-02,9.891033768653869629e-01
-3.645296138891279680e-02,-5.893056330614836469e-01,6.171988892657903625e-01,8.534054124996586768e-04,-1.904276647295845629e-02,-1.168348878446182418e-02,1.046794891357421875e+00
-3.003205072633060788e-02,-6.255814536932386982e-01,6.094286670449601262e-01,-1.112832695254168183e-02,-7.634023256293514387e-03,-2.604975413212564725e-06,1.070030808448791504e+00
-2.439817820836785722e-02,-6.163649757306042254e-01,6.106873236519269055e-01,-3.600237210031561642e-04,4.293073478785112800e-03,-4.471157238516657723e-03,1.062931537628173828e+00
-2.182945108317107391e-02,-5.775605014705582629e-01,5.210769317858419125e-01,-3.323974534704192754e-03,-1.367827191474964982e-02,-5.594527207618241356e-03,9.518311619758605957e-01
1.329542268033327701e-03,-4.785255451324528231e-01,5.765007208133482441e-01,9.681070039113365278e-02,-8.321678463195619768e-03,-5.220677629522260665e-02,9.346565604209899902e-01
-3.138444481493658789e-02,-6.111895924740601282e-01,5.865690593912211703e-01,5.176581679092568181e-03,-1.689011028824503793e-03,1.430831706015667183e-03,1.037510633468627930e+00
-5.371636857429011591e-02,-4.397681920253079801e-01,5.846632049096937012e-01,6.891348356278372521e-03,-2.582619330054195667e-02,-2.497194891966711405e-02,8.983464241027832031e-01
-3.181823761595942157e-02,-4.846776845165685632e-01,5.883984850930822352e-01,2.311879998167641614e-02,-2.598377433880155393e-02,-9.901030464309660065e-03,9.351708292961120605e-01
-2.875506550395095368e-02,-6.233169452354629936e-01,5.214128108127017436e-01,-8.910980127712041232e-04,4.156321484030705421e-02,-1.140676966126412395e-02,9.944207072257995605e-01
2.848358989238952699e-02,-6.675433031657909133e-01,5.265358611041985881e-01,2.253622995660807538e-02,-6.976004422555689283e-03,-7.657433917160268687e-03,1.039717674255371094e+00
2.446902352737970188e-02,-5.690749615850805299e-01,6.176516783143830569e-01,7.256595079807608151e-02,9.855639028956779055e-03,-6.756660218661086036e-03,1.035599350929260254e+00
-4.344107664633121285e-02,-6.196368162897224474e-01,5.647599775654620347e-01,-1.190923710920947093e-02,2.811179869421463751e-02,1.172289612409259038e-02,1.027405261993408203e+00
-1.734903677149389131e-02,-7.288040273965616933e-01,6.306976081290069924e-01,1.551141029136398133e-02,3.076476398833169826e-02,-1.962495392533351521e-02,1.179790377616882324e+00
-2.365587669836223539e-02,-6.044714203632923777e-01,5.103779700491098970e-01,-1.085101002479355037e-02,2.796992329029913613e-02,7.057191268982493382e-03,9.672453403472900391e-01
-2.827564002734309426e-02,-6.160512336716793547e-01,5.845216443573093557e-01,-1.107735095993525251e-02,5.732777191784394237e-04,-1.770677853727502553e-03,1.039983868598937988e+00
-6.445571351230941493e-02,-4.774993807529607226e-01,5.940276081086005577e-01,-2.001927709272276895e-02,3.017422402805308495e-04,-7.782861745005593100e-03,9.367881417274475098e-01
-6.660614053259474032e-02,-4.242393744378396558e-01,5.912624999308694340e-01,-2.139713816086243059e-02,1.853673760976030146e-03,4.298136957620501269e-02,8.960437178611755371e-01
-7.015144377988928592e-02,-3.511542385910320085e-01,5.575114178802670351e-01,4.211627272206805439e-02,2.772060288411369589e-02,7.518436623401140995e-02,8.209037184715270996e-01
-9.218868094192944618e-02,-3.060665276774837684e-01,5.587273999010592407e-01,-1.965236684456031502e-02,4.352656463416793714e-02,1.399694826615723205e-02,7.849089503288269043e-01
-3.953266430142704513e-02,-5.501218286163755966e-01,5.241336496821749069e-01,-3.286026084727043661e-02,6.216044442553158612e-03,-4.550410157868085836e-02,9.358365535736083984e-01
-2.496093594981980274e-02,-5.481292977259910604e-01,5.199112752070246257e-01,3.528960214175708675e-03,8.835379161709460902e-03,-4.551279477790087791e-02,9.285131096839904785e-01
-5.426909667727540520e-02,-4.911989610188091659e-01,5.535177141124402178e-01,1.254712524801775315e-02,1.328377600367639660e-02,3.000197210587991423e-02,9.108099341392517090e-01
2.654594145979149999e-02,-5.823205771629961225e-01,5.918711843612068924e-01,2.972799378065595424e-02,1.195502597614529023e-03,-2.143253871854100979e-03,1.018424272537231445e+00
2.118777581367131679e-02,-6.010402519013429146e-01,6.047378099391520490e-01,1.194407777739437196e-02,-7.370664507888298120e-03,-8.196995947064520879e-03,1.044792890548706055e+00
3.602330061952756235e-02,-5.713053149054013735e-01,5.761575446528968136e-01,7.979004774160056851e-03,3.819215517393187691e-03,-1.394841351185149737e-05,9.944177865982055664e-01
3.431802686867362062e-02,-5.750791597741439221e-01,5.895868674332940262e-01,7.074545506160939343e-03,5.191195503535105983e-03,-4.864261139345021565e-03,1.009142994880676270e+00
-4.430104230427969747e-02,-3.064189711772783431e-01,4.485559329502915582e-01,1.664220486171563707e-01,-1.139919613366139894e-01,-2.287881512238785532e-03,7.502583265304565430e-01
3.542402474147670483e-02,-5.753969584763602985e-01,5.909197155280059288e-01,3.790585777933552086e-02,2.095742320396436209e-03,-2.065190410461265839e-03,1.012582182884216309e+00
3.539221277140365551e-02,-6.058142351087062449e-01,6.009161603175378064e-01,6.472145626052054623e-02,5.248119802233933671e-03,-1.209859301812560815e-02,1.051983356475830078e+00
9.040952512890942927e-03,-5.369092367884853445e-01,6.842604301413638401e-01,1.076861123488880440e-01,1.346231789258274178e-02,-1.683012259332078084e-02,1.076476454734802246e+00
-1.174500556338549211e-02,-6.205798498798004159e-01,6.135144671936136884e-01,4.925384506675135540e-04,-9.436349758404195473e-03,-5.071331436339050931e-03,1.068949937820434570e+00
1.833948293690445402e-03,-6.041756179807473703e-01,6.029463841364521848e-01,1.500371984945529126e-02,-5.523472945124899974e-03,-2.166495490656714096e-03,1.045774579048156738e+00
-1.561608346912100528e-04,-5.759801475442958285e-01,5.989665717825596314e-01,1.303875682246702188e-02,-1.147739157166047935e-02,-1.485356197352515799e-03,1.018048286437988281e+00
-1.422548956618423927e-02,-5.994507173461586236e-01,5.438660434722548676e-01,1.930466281557140576e-02,4.534246003808290598e-02,-5.862750854610258334e-03,9.939581751823425293e-01
-3.846400505587516117e-02,-6.088821003473225968e-01,5.886622341326780417e-01,-3.013180709170401074e-03,2.115969924461997415e-02,3.522546447301715296e-03,1.038169503211975098e+00
-1.312725866957107843e-02,-5.424740640712670814e-01,5.966147720645776920e-01,4.649381712351898649e-02,2.812672171361002647e-03,-4.895952310294793275e-02,9.942123889923095703e-01
-2.864953623585477643e-02,-5.920008210458830300e-01,4.754792929470513796e-01,-2.090778726514988962e-03,-5.535660895465933928e-02,3.505903915733394813e-03,9.299221634864807129e-01
-1.585834766904039780e-02,-5.846179853818160854e-01,5.245149835433340346e-01,5.642414233313853590e-03,3.259047631272821849e-02,1.691476057872117952e-02,9.627947211265563965e-01
-2.468246250660653673e-02,-5.849008554715438013e-01,6.031562860894298383e-01,2.203180171318313164e-03,-8.783966327895879542e-03,-5.929590558352806906e-03,1.029613733291625977e+00
-2.416074491202603244e-02,-5.841497187152341342e-01,5.680512083464920314e-01,-9.998894301389697412e-03,1.559306429359437647e-02,8.693033666343032151e-03,9.985944628715515137e-01
-4.948322154768317049e-02,-6.346933803478157499e-01,5.440386705292641345e-01,3.083179024702994118e-03,-1.079656383602116965e-01,2.960072579907263232e-02,1.039086699485778809e+00
-4.192056698302178142e-02,-6.080807321818342270e-01,6.147139050802281623e-01,-7.016300650099710663e-03,-4.593202409834149652e-02,3.710563778136588553e-02,1.064929008483886719e+00
-4.338486431062114901e-02,-6.294329297787786270e-01,5.882034968723541812e-01,-2.220959749941227648e-02,-6.989751418143452799e-02,-2.331212548777078855e-02,1.063138961791992188e+00
1.533827521329390355e-02,-6.034721165024198308e-01,6.070598642280518042e-01,-3.088611917789459843e-02,1.291029267747039258e-02,-1.286187121559207586e-02,1.050277233123779297e+00
-4.988914380769225720e-03,-6.565578214887862751e-01,5.110765767765549361e-01,-7.808552609791761211e-03,1.570693999726180054e-02,8.379203221529270273e-02,1.024257898330688477e+00
3.688444318557846258e-03,-6.033918291543178825e-01,6.027831461328281293e-01,-1.473833512261849346e-02,1.770399935369561077e-03,-7.440383969499417445e-03,1.044981598854064941e+00
-2.198057545977557398e-02,-6.177830886386580511e-01,6.095065716892283936e-01,-6.568860446486102581e-03,-7.582516524942878311e-03,3.651111639700721067e-03,1.063174605369567871e+00
-2.206702280444262920e-02,-5.425225144512972886e-01,6.396278897749858583e-01,-1.471741253291508622e-01,1.059942598054510188e-01,-2.156618731537197561e-02,1.073860883712768555e+00
-6.783048868761795691e-02,-5.505171446297077997e-01,7.159625867156430568e-01,-1.903650471608039352e-01,1.809808804510400770e-01,-4.311744123789924832e-02,1.199249982833862305e+00
-3.142154986716612364e-02,-6.078495080166526066e-01,5.766964329084061092e-01,3.724457617655194380e-03,3.837972034844165138e-03,-3.295195188393242307e-03,1.026026964187622070e+00
-2.254925755758871442e-02,-5.824740297770557573e-01,6.025058459813561473e-01,-1.581799593020354749e-02,1.658585171298147462e-02,-1.668321765521193698e-02,1.027912616729736328e+00
-4.213120036589572404e-02,-2.265776955338241749e-01,4.794198845909845019e-01,-9.466769579720787919e-02,9.092507251806082602e-02,-8.607747755619869767e-02,6.900364756584167480e-01
-1.260674118862252675e-02,-7.107548195727503293e-01,6.492058102688514909e-01,-2.278741060089020318e-02,2.779425272984843015e-02,5.064005681604955011e-02,1.182801008224487305e+00
-2.403144738236801317e-02,-6.118919245322235190e-01,5.785282579514461343e-01,2.139443462730562621e-03,1.220617875039433503e-02,1.729834542167192624e-03,1.031188130378723145e+00
-2.388204728270300684e-02,-5.962948337686714284e-01,5.848316686061287850e-01,1.426170605708615034e-03,-2.725750842278694148e-03,5.501144659549604731e-04,1.023060917854309082e+00
-1.777364117382748340e-02,-5.988315318410419863e-01,5.722511565060831584e-01,-2.975356478813967129e-02,7.578624871704808981e-03,-5.370042218106069881e-04,1.015591025352478027e+00
-2.584561468498421111e-02,-6.247260759887146575e-01,6.073655486439391016e-01,4.439388388820616170e-03,2.432450474516328637e-03,-2.836360091725994431e-03,1.067208051681518555e+00
-3.161414966755313194e-02,-6.136054175101837149e-01,6.131152868213161078e-01,4.936251300126125348e-03,8.501374389078135722e-04,7.195475671813157843e-03,1.062942743301391602e+00
-1.692489037213212172e-02,-5.914708513769316722e-01,5.962729437085548811e-01,-1.018662195867389535e-02,-4.282462875588974489e-03,-5.976836668612628932e-03,1.029027938842773438e+00
-3.696341763187788176e-02,-6.638002902982431674e-01,5.695535399490443407e-01,-1.261465831120168503e-02,-8.270256710294962565e-02,-5.343667921054089196e-04,1.077947974205017090e+00
7.540636563718111987e-03,-5.582617359550772207e-01,5.830701259803544589e-01,2.991140034074967619e-02,8.304481633049316802e-03,-1.942104358814785445e-03,9.899013638496398926e-01
-1.935455132593274716e-02,-6.126477579353665215e-01,5.849330714416668409e-01,7.867831940816069625e-02,-4.631807138308409455e-02,4.537578658734283538e-02,1.052075982093811035e+00
-2.764668994701435095e-02,-6.148892044925045042e-01,5.759823281002675044e-01,-1.246721740348097872e-02,3.161401737926648487e-03,-4.951120980566751754e-03,1.031633734703063965e+00
4.473065478655545782e-03,-5.528272971871668329e-01,5.838058997178583454e-01,1.465990520508627173e-02,1.299746273640285145e-02,1.117445084033316140e-02,9.851897358894348145e-01
-1.750552325771721068e-03,-5.060678595802398094e-01,5.753722940961708554e-01,5.881004251758897156e-02,1.017532244452876156e-02,1.107080770436689359e-03,9.429474472999572754e-01
8.274070902442521441e-03,-5.685683865897797062e-01,5.805041457078573552e-01,2.227180201271916279e-02,1.363932326033591436e-02,2.497321063567582017e-03,9.961656332015991211e-01
-2.242809619650683317e-03,-5.510309925837222345e-01,5.657258470760816449e-01,5.200907753074648920e-02,-4.277030463441459061e-03,4.241504828561293294e-02,9.741756319999694824e-01
1.313992066000100808e-02,-4.949074626940374033e-01,5.627788892641025775e-01,2.796988942426368099e-02,1.104688421063811793e-02,3.130922266999702146e-04,9.176988005638122559e-01
4.094492346055866872e-02,-6.340943932164965213e-01,6.032770274396705990e-01,6.324252942670428868e-02,-3.180232163595093919e-03,9.758611500551336859e-03,1.078798651695251465e+00
3.444538024190274550e-02,-5.273946263229133402e-01,5.688091183431241982e-01,3.340193719476695217e-02,1.346354712537025386e-03,1.744123654315441656e-03,9.512083530426025391e-01
2.444499144930279907e-02,-5.334743774604189248e-01,5.797906261529506278e-01,2.324287518922205781e-02,6.903747202146097613e-03,-1.706525145431183775e-03,9.650353789329528809e-01
3.012988438713500722e-02,-5.452940730342686892e-01,5.824389722647167478e-01,4.784317875898527056e-02,-4.991098254746301329e-04,-3.339799140375835588e-03,9.802402853965759277e-01
-1.470264620554596890e-02,-4.655222845417732458e-01,6.885487212944114699e-01,1.494766350479627415e-01,-3.821256742034105907e-03,-2.471466621264466548e-02,1.041031360626220703e+00
1.413460588790756492e-02,-5.309101815980724615e-01,5.926281073114472164e-01,3.447756774171932548e-02,8.522083806771312692e-03,9.978873166212907236e-03,9.752518534660339355e-01
8.777443298711239128e-03,-4.299996169736868823e-01,5.526606096211229557e-01,4.849844442588666094e-02,7.751821237292328901e-03,7.256727852094378706e-03,8.569551706314086914e-01
-3.246388968241203932e-02,-3.312341135364275657e-01,5.479656267444907858e-01,1.269388830578561389e-01,-1.196778972231382805e-02,-3.381991933275890153e-03,8.052214384078979492e-01
-2.673276401279172515e-02,-6.057355025376282009e-01,6.191662960811469274e-01,3.741832604293013256e-04,-8.831801031942409022e-03,-5.569928836706786353e-03,1.061477541923522949e+00
-5.434576449562730782e-02,-5.898581448028912266e-01,5.381795152929546022e-01,-3.838938041672723938e-03,-8.108169403679954187e-03,6.494914910015591597e-04,9.774492383003234863e-01
-3.481292383505442400e-02,-6.181037030681734157e-01,5.739303235017458871e-01,1.322412838081514497e-02,1.828725411614730376e-03,6.394690156573545545e-03,1.032728433609008789e+00
-1.771034163456549487e-02,-6.168273176162021310e-01,5.976444758676107138e-01,-1.238743860532697666e-03,1.145709458223956138e-02,-3.134246387444286110e-03,1.051998138427734375e+00
-1.182190938094089885e-02,-6.036145715230530895e-01,6.014395191756117809e-01,2.762127441321308996e-03,-3.366026231340528158e-03,4.331421609745057192e-04,1.043690204620361328e+00
-2.215947295488410185e-02,-6.080226486641708838e-01,6.051175527256915654e-01,-3.689210059320787490e-03,-2.221707203183786051e-03,8.667258445158399025e-04,1.050841808319091797e+00
1.072065556535997492e-02,-5.919351930347868107e-01,5.971943619350716936e-01,3.439343635359355493e-03,1.260549374256396404e-03,-6.805252947581196150e-03,1.029935240745544434e+00
3.089131820404759921e-02,-5.318160037192288803e-01,5.633132205354719479e-01,1.155792034026585299e-02,-3.090175549617858730e-03,-3.846005323419449638e-03,9.487802982330322266e-01
-4.981620538729136793e-03,-5.741053084217786484e-01,4.478399339533080670e-01,5.079703172001540090e-02,-1.333860796567812312e-01,-4.157241056245335881e-02,9.235593676567077637e-01
-1.947639955304741183e-02,-3.988745103799177794e-01,5.469221025087716015e-01,4.783948123917426687e-02,1.312206660852932062e-02,-4.434381242601900634e-03,8.289041519165039062e-01
-5.280202320493150581e-02,-5.949867420582612976e-01,5.578004201876819446e-01,-3.926666093405879916e-03,5.174764655557961748e-04,-2.438027335885695288e-03,9.989613890647888184e-01
-5.392929286140694251e-02,-5.998841770952534347e-01,5.693243898138370396e-01,-4.613928290390140532e-03,-2.834732875336713233e-03,-5.897099076764559383e-03,1.013396501541137695e+00
-4.215369782146674571e-02,-6.043851805657446397e-01,5.740756154627143504e-01,-4.070608246707975095e-03,2.844700605091685227e-04,-3.643711430518965962e-03,1.020977973937988281e+00
-4.653984098875144082e-02,-5.990852942746803800e-01,5.546868277208433229e-01,-6.179319732691198469e-03,-9.558707280093845307e-03,1.242264772808869067e-03,9.996891021728515625e-01
2.750087973377244449e-02,-5.578087140345988626e-01,5.703878976121209421e-01,1.337239257136807816e-02,9.808500338244152683e-03,2.126038998165013117e-03,9.777061343193054199e-01
2.435273721661045110e-02,-5.653090478516258344e-01,5.729350347761296147e-01,7.004488751721330052e-04,5.906182358740361474e-03,3.432902454078089194e-03,9.860339760780334473e-01
3.674301029214598058e-02,-5.556483256110683611e-01,5.666254373593303528e-01,-7.115751829340059322e-04,6.508343173518355484e-04,-1.815301795391196984e-03,9.724265336990356445e-01
3.288077062215037649e-02,-5.602882891958066436e-01,5.707482003327304376e-01,4.963917348307948438e-03,-2.052815646529772362e-03,-1.554877576244669468e-03,9.799444079399108887e-01
-5.048334240138899198e-02,-6.046650022322571649e-01,5.651797524096102698e-01,4.991251181587449438e-03,-3.156954004527393336e-04,3.953695830965935076e-03,1.013641715049743652e+00
-5.075265266245861800e-02,-5.983619494036463982e-01,5.515241222285768297e-01,7.233379695480863722e-03,-4.977842198498512449e-03,1.035327620955479909e-03,9.963232874870300293e-01
-5.164894067644580644e-02,-5.955053163010414208e-01,5.581163487362105213e-01,6.454973763510059998e-03,-7.585065960542375016e-03,2.731565627041629158e-03,9.997690916061401367e-01
-4.972674332015915299e-02,-5.951096464305086764e-01,5.444492934093098091e-01,6.513876077323246805e-03,-5.512926899132910945e-03,2.197090608234124158e-03,9.873064756393432617e-01
3.248609296442440952e-02,-6.074322572944902410e-01,3.959139342015762231e-01,-8.635206276021411761e-03,1.399407268568200573e-02,4.374873315537848584e-02,8.835680484771728516e-01
3.946012397244483272e-02,-6.064343957193496504e-01,4.002199286633538744e-01,-1.354242332784105036e-03,5.190673484868975514e-03,3.516390953373706163e-02,8.855145573616027832e-01
9.647755644660327423e-02,-6.110486846682585682e-01,2.088554937151142488e-01,-1.482677064782891851e-02,5.627039048720357955e-02,4.528031114978907368e-02,7.804114222526550293e-01
4.630998847678735597e-02,-6.116987152633436287e-01,3.261827038728504213e-01,-9.326703251945631448e-03,1.008370686243651284e-03,3.924858654135414925e-03,8.341301679611206055e-01
3.278105628525418425e-02,-6.666504513788804598e-01,4.460050541170991201e-01,-2.278967308045669327e-02,5.748216952736057844e-02,7.862332628444881899e-02,9.894422292709350586e-01
2.481395583012579661e-02,-5.721993280784058999e-01,5.794027794627255590e-01,2.280373075139978042e-03,8.498082698455680997e-03,6.929419730260375691e-06,9.976586699485778809e-01
3.387843612946403460e-02,-5.695996021642095730e-01,5.715338569270541624e-01,4.191123536911202721e-03,8.345964861434817562e-04,2.140297556433011852e-03,9.888330698013305664e-01
-5.919579502305152841e-02,-5.877930497757758443e-01,5.331004037091966463e-01,6.201712935655598368e-05,-1.599970660845917089e-02,1.015729585879420870e-03,9.716414213180541992e-01
3.390076551161569363e-02,-5.594147760298782135e-01,5.670036785372318811e-01,2.725213932152173359e-03,3.248963199066558813e-04,-1.583332436969312309e-03,9.759868979454040527e-01
-1.742445361111134502e-02,-3.625801348721744977e-01,3.510054149153740144e-01,1.008643445982717740e-01,-1.242265476974346444e-01,-8.079596639050197482e-02,6.916937232017517090e-01
-4.271968733017764835e-02,-4.729208103478361180e-01,5.270691515147438722e-01,3.023128805633375563e-02,1.822387929915801272e-02,5.938987865915438397e-02,8.770266175270080566e-01
1.962643633690277362e-02,-6.142798535040537855e-01,4.968495861815375170e-01,1.068159212915882790e-03,3.236931958388203617e-03,1.173995745646462356e-02,9.656822681427001953e-01
-3.301945524916799490e-02,-4.161690177396786816e-01,4.097376146800943975e-01,-5.149817147332290401e-02,4.553717067261053159e-02,1.051311724110884915e-01,7.482074499130249023e-01
4.146639829060615179e-02,-6.269247259503910596e-01,3.947191770317889925e-01,-1.012682100943983546e-02,9.465550825090275275e-03,-3.306237226217442066e-02,9.008335471153259277e-01
2.514612328157564414e-02,-6.284921659453378551e-01,4.016537402634255405e-01,4.322896630808093638e-02,-5.583710629857030483e-02,-1.801836088672504818e-02,9.116108417510986328e-01
-4.463595176116859353e-02,-6.393511798787240297e-01,5.391056597265786454e-01,-1.305477363794015251e-02,-1.294171346697907954e-01,3.655203824776972338e-02,1.047075152397155762e+00
1.033270340208558569e-03,-5.670602621068540072e-01,3.944579343128755688e-01,-6.233160718782606441e-02,-1.694220670297441333e-01,5.843204111811163559e-02,8.994583487510681152e-01
-2.032478126661463325e-04,-8.797850709017274173e-01,6.911515320599922463e-01,-2.687428414942102939e-02,-2.092436734316406033e-01,1.190750078991699434e-01,1.426811337471008301e+00
1.213299938694971380e-02,-7.048665269162847080e-01,5.369456112340994514e-01,-3.486602398122867069e-02,-2.216161236270053903e-01,4.401275581406619009e-02,1.150046229362487793e+00
-2.059802368113299031e-02,-3.769797406474196810e-01,5.584585383267636205e-01,1.129479329817194705e-01,1.507426908557911449e-02,4.869313541548869056e-02,8.454265594482421875e-01
9.507662278542328149e-03,-8.595741051519050213e-01,6.247704037198457128e-01,-5.071095429718187886e-02,-2.095419556001494599e-01,1.099984550607767952e-01,1.358050942420959473e+00
-4.191224117455752407e-02,-8.211638520855885082e-01,7.103224979717150944e-01,-4.052543276771168601e-02,-1.175188318704464691e-01,-1.506218095055314975e-02,1.343990325927734375e+00
-5.537204941266749003e-02,-5.930422568154763985e-01,5.563542447333077456e-01,-7.552608924034254212e-03,-1.239402278934600456e-02,-3.636706393046164592e-03,9.964321255683898926e-01
-5.745093155552105646e-02,-5.938133335772559640e-01,5.572652906689047336e-01,1.294386795393095589e-03,-4.358111877376290993e-03,6.388349180310205766e-04,9.976645708084106445e-01
-2.903615991333449373e-02,-6.266736365675801279e-01,5.830893320987435846e-01,1.792203815242948695e-03,-1.845570290190472933e-03,7.412414942259804018e-03,1.047798633575439453e+00
-3.026837469759084687e-02,-5.895628502178869024e-01,6.012088619537409029e-01,-3.070720052967182596e-03,1.191927525494646846e-02,-6.069602090629116521e-03,1.032143712043762207e+00
-4.719830186783940951e-02,-5.941628739988772390e-01,5.548995857137345444e-01,-4.462986861540373280e-03,-1.011830063335055277e-02,-1.971244041356436973e-03,9.956891536712646484e-01
-5.828647799940973873e-02,-3.506656037603332887e-01,5.530126771735054403e-01,-3.309972619498249835e-02,-8.894813858172076482e-03,-1.230726752475140920e-03,8.008944988250732422e-01
-1.080297644825874703e-01,-2.713543388272710022e-01,5.709109033863849492e-01,-2.773566028256226057e-02,-4.549960847870612723e-03,6.626126009299070606e-03,7.752578258514404297e-01
-5.061769558762370391e-02,-4.501360455140891448e-01,5.787814755720498416e-01,-7.932412135678132414e-02,1.166791746281755672e-02,4.885003026697671419e-02,9.130493402481079102e-01
-3.920001603509006005e-02,-3.936770711382101551e-01,5.596430364496077781e-01,5.103708318631838825e-02,3.758715124412756285e-03,8.242148390637306712e-03,8.394067287445068359e-01
-5.932393546204822732e-02,-2.705846536127933244e-01,5.559731019896654303e-01,-6.400268658091344542e-02,4.003400371352626441e-03,6.548661921207556309e-03,7.521139383316040039e-01
-4.371589937299825979e-02,-3.875890002935696299e-01,5.716461961495530320e-01,-1.517115721117575367e-01,-2.886194383167730530e-03,2.725781207254472302e-02,8.830791711807250977e-01
-8.156232193485415949e-02,-2.832617335207311959e-01,5.717476035155326652e-01,-4.598170013080145856e-03,6.314007620978037173e-03,1.541829646890676558e-02,7.747031450271606445e-01
-1.146463430236414199e-02,-4.892068619296220389e-01,5.727932867580703968e-01,2.952210203177031440e-03,2.205527532362263829e-02,1.691151775528014489e-02,9.225308299064636230e-01
-3.679270237598857018e-02,-5.826211478549795375e-01,4.750102610494005839e-01,3.778884385170606930e-03,-2.928555032511311051e-02,1.809973579152135414e-03,9.175255894660949707e-01
-5.782015523749536867e-02,-3.743758052939439307e-01,5.607628077576659598e-01,-5.277033590028616661e-02,9.708702048001697713e-03,1.692799220079937170e-03,8.290439248085021973e-01
-1.424036533769336074e-02,-5.895392372735483999e-01,4.735696469801510267e-01,-6.895974415658870089e-05,9.633371180239085757e-03,3.957305461479133230e-02,9.244135618209838867e-01
1.261601376351761256e-02,-6.305428132407181474e-01,5.277735587114739113e-01,-1.422706616919940277e-02,5.292424716440639193e-02,-3.895695657186420274e-02,1.011895179748535156e+00
-4.650855866907687569e-02,-6.104939984315864709e-01,5.629232312752986411e-01,9.197400287783803405e-03,-1.655173015172373141e-02,9.833472354937376585e-04,1.016993522644042969e+00
1.919617768203618624e-02,-5.958306443283563070e-01,4.293271912943972257e-01,1.685997101213805626e-03,-2.092439525495458971e-03,-8.199391841397262945e-03,8.938290476799011230e-01
-1.926538900947911276e-02,-6.297915510997248445e-01,6.053619315868913331e-01,2.830975149125264552e-03,8.658722105777725761e-03,3.263785109911610579e-03,1.069828867912292480e+00
3.366521019731705255e-02,-6.264838801123201462e-01,3.691081538843750676e-01,2.197147151614811320e-02,-8.288316116370555986e-02,6.122507396355857806e-02,8.961382508277893066e-01
-5.640491588205268081e-02,-4.676174186744324057e-01,5.860100409287322121e-01,-2.682556070327499469e-03,2.756509375729627315e-02,-2.892647665460209433e-02,9.223735928535461426e-01
1.102517031795862412e-01,-6.438628617022180700e-01,1.144419832047163244e-01,-3.044697621603193599e-02,-6.521550467798989392e-02,-1.664400387172487034e-02,7.669664621353149414e-01
4.131688421486320872e-02,-7.294444146488635594e-01,3.619616912708920609e-01,-1.439522754796618842e-01,5.674816238125388740e-02,-8.296199095891476638e-02,1.018087744712829590e+00
-1.488606904403389983e-02,-6.213961169893570391e-01,6.210894407779121718e-01,-1.334431159729713642e-02,-1.438836082513893742e-02,-6.437567611841661479e-04,1.076662182807922363e+00
-3.441434038384288963e-02,-6.312849028070235402e-01,6.296327064569163801e-01,-1.039011297192878568e-02,-4.498650712593022655e-03,-1.254732738744009958e-02,1.092895269393920898e+00
-3.023241952171883823e-02,-3.500799468166537753e-01,4.103374629659285455e-01,-9.583324636605473901e-02,-4.909759742960475432e-02,2.337417680390745794e-02,6.882893443107604980e-01
-3.829919807060890025e-02,-6.131485989940337333e-01,6.124277799299908676e-01,5.570316061227300643e-03,1.233926247828266709e-02,6.311855092463744890e-03,1.062373161315917969e+00
-4.299235622105521126e-02,-5.758654572800350202e-01,5.984384353914373733e-01,1.397112950714120005e-01,-1.474442812729487018e-01,-2.963087625842510467e-02,1.078702688217163086e+00
-2.276833211157410289e-02,-6.114546791289368066e-01,5.921047839899735710e-01,-7.533704213568646717e-03,-5.485272912801755860e-04,8.960331871218046960e-05,1.042477369308471680e+00
-5.712460752161620248e-02,-4.163120687439437750e-01,5.741423808492296388e-01,2.546972980416310414e-02,1.428236044144578186e-02,3.148367538420238781e-02,8.716585040092468262e-01
-2.118612907886577301e-03,-5.315708541295629530e-01,4.059675629899109905e-01,5.113048112654131755e-02,-1.117460615827375603e-01,-7.324449138050428965e-02,8.510669469833374023e-01
3.222365741027397035e-03,-6.375986654630749761e-01,3.946724214963972521e-01,2.516641342470490872e-01,-1.908672109240894810e-01,1.466064893568752581e-01,1.085592031478881836e+00
-2.652261181682202817e-02,-6.163380270250875537e-01,5.995546126989901303e-01,2.918872376305968463e-04,-3.126193114587998145e-03,9.272937516474298852e-04,1.053165316581726074e+00
3.487995185090331240e-02,-5.488929909906912208e-01,5.642524429554647281e-01,1.727234252168462995e-03,6.599644510171747509e-04,-5.214566393556462282e-04,9.644016027450561523e-01
-2.337773413879356416e-02,-6.187230065558239067e-01,6.054062215783994061e-01,1.404384269971899711e-03,-1.457684390829075589e-03,4.224310409931861894e-04,1.060264945030212402e+00
-1.890969921975610424e-02,-5.351242984048847351e-01,5.893121617278161972e-01,-8.905161334703489730e-04,1.992126001355640913e-02,9.586328679712725204e-03,9.756295084953308105e-01
-3.986773437958777977e-02,-6.097134387067800754e-01,5.947664557769065663e-01,-3.571387896152290048e-03,-4.996213413687776092e-03,-3.583742849651455967e-03,1.043685793876647949e+00
-9.726787003390072184e-02,-3.770443416481501497e-01,5.873117081856014110e-01,-1.513293377188734429e-03,1.978063813407393047e-03,-1.061200574176755784e-02,8.595404624938964844e-01
-7.761680029349424248e-02,-3.498552368538764279e-01,6.083945927282744526e-01,-4.905993125294470097e-02,3.701155087534152566e-02,-1.078078062698461098e-01,8.818626999855041504e-01
1.849478719882266314e-03,-6.073446426106534624e-01,6.074874688885990581e-01,3.389349046758674544e-02,-1.206729836018038959e-02,-2.418082575598075497e-03,1.053929209709167480e+00
-1.011984932323821695e-01,-2.567142797244660879e-01,5.731550341494898726e-01,5.263319728360799782e-02,-6.659764657353028439e-04,-6.290416914126739645e-02,7.771701216697692871e-01
-2.824368968896212584e-02,-6.291936487221130303e-01,6.076959609836865006e-01,3.347951451696166199e-03,5.752043961081253730e-03,4.250008388058686311e-03,1.071408033370971680e+00
-8.471189242705165490e-02,-4.151415635751670163e-01,5.699426190017274907e-01,-5.255999721787728458e-03,1.132894789571103206e-02,2.733429109012986552e-02,8.699327707290649414e-01
-7.660733336397168580e-02,-1.118714026816772789e-01,5.431493061761396568e-01,2.103433434144807643e-02,5.244166342142746878e-02,-6.763234698558519102e-03,6.456871628761291504e-01
-6.918473552637646740e-02,-4.779424972126408155e-01,5.752690252702479246e-01,-3.389000719611328510e-02,3.185293340269293449e-02,-6.710777049726816823e-02,9.304992556571960449e-01
-3.961578756462712236e-03,-6.093732901211529329e-01,4.973256942925448065e-01,2.215615828015663334e-05,-5.313653877956897587e-02,4.491909529114301858e-02,9.673784971237182617e-01
-7.702327193804324457e-02,-4.599982397367677334e-01,5.683360275273867668e-01,2.492947598949449978e-02,-2.186475863265783387e-02,-8.499183231612235379e-02,9.139389395713806152e-01
-1.401443436117322770e-02,-6.126349335316678690e-01,5.748162717551130729e-01,-1.346986426206636276e-03,5.816890233191139049e-03,8.120800059440203694e-03,1.028522729873657227e+00
-3.556619461722756309e-02,-3.172479199375232151e-01,3.982808301438367504e-01,-1.409455960099472160e-01,1.524681157503479101e-01,2.344700356410380632e-02,7.216373682022094727e-01
-2.722280366970256799e-02,-4.587402077889978780e-01,5.235622661260713739e-01,-6.289910467811066219e-02,6.893600184150457111e-02,-5.231753153051324490e-02,8.726864457130432129e-01
6.306896375412357481e-02,-5.972302470021694232e-01,3.296672911066038103e-01,4.894588856374561823e-04,-4.088830702874675892e-03,-2.105723547718130195e-02,8.273363709449768066e-01
1.021667592575659367e-01,-5.811709160028739607e-01,1.692909363531606703e-01,-1.344716355260465804e-02,-2.524377124020827506e-02,4.604639328912667716e-03,7.210009098052978516e-01
-3.543480310610093442e-02,-6.100289079740570664e-01,5.885317603907018746e-01,-6.790564370369243756e-04,2.209521643099976798e-03,-2.263906906109336425e-03,1.038292646408081055e+00
1.049889015940587145e-01,-5.925701505271134817e-01,1.740090971317492796e-01,1.405090105990053221e-03,3.444952263689717714e-02,-1.298914709262428795e-02,7.372723221778869629e-01
1.032750958661798613e-01,-5.944967184596623433e-01,1.956193683238888759e-01,-6.373761372808314958e-03,-5.134429373058856626e-03,-1.279596868887758650e-02,7.486924529075622559e-01
-5.577399887611728807e-02,-5.991412490825730464e-01,5.551076395966461074e-01,1.498317601714409730e-03,-5.423517210345112083e-03,6.569020366726032421e-03,1.000290870666503906e+00
8.932491675778872486e-02,-6.265534243541722725e-01,2.506175658999653111e-01,1.153554435691415449e-02,-4.409542339248756493e-02,2.717829544239104902e-02,8.138866424560546875e-01
-2.920345470965686821e-02,-6.271890303939695599e-01,6.169867055340026996e-01,-1.025042525359930179e-02,-3.661618957831947385e-04,-2.150891621624465705e-03,1.077910184860229492e+00
-3.435033113031790708e-02,-6.131464104278201432e-01,6.036210298403095198e-01,-5.897719489721805694e-03,8.752527544199945053e-03,-1.812451027711886251e-03,1.054329991340637207e+00
-8.497950087811984021e-02,-3.100794553342880455e-01,5.648510118579277428e-01,-4.680081760395658763e-03,1.755831513418022738e-02,6.422858420806403651e-03,7.876172065734863281e-01
-3.864353509591772484e-02,-6.071424853553477607e-01,5.885758351036414204e-01,-8.017293452404029158e-03,2.469681386157590586e-02,1.259899954465919410e-02,1.037143945693969727e+00
-2.815693994807803857e-02,-6.111336040922166202e-01,6.023551304781405991e-01,-5.607319587604602494e-03,-3.129787896100591493e-03,2.155872121418543706e-04,1.051239728927612305e+00
-3.567775812045738404e-02,-5.640884309392355522e-01,6.015183709043293581e-01,-3.479915329088299758e-02,-1.403462492593228472e-02,-5.476893916645763673e-03,1.013040900230407715e+00
-2.932210127782864176e-02,-6.088399226485673443e-01,5.944221127515511016e-01,6.455857134125164059e-04,-2.658686829307695381e-03,4.229152244948001030e-03,1.042326569557189941e+00
-3.924346086239698106e-02,-5.903041088808507197e-01,5.337332556142219131e-01,-4.331576835829602755e-03,5.490979676897662053e-03,-7.672503610937676539e-04,9.735828638076782227e-01
-1.743651757799957389e-02,-6.139968175312560117e-01,6.035525447125555942e-01,3.544053277334682046e-04,-9.746936124166711082e-03,-3.080692015473381583e-03,1.054648280143737793e+00
2.115629837276290087e-02,-6.077862626332513063e-01,5.923116219496391555e-01,-5.575860625272433847e-03,-2.926526770620684276e-04,4.897242216515836945e-03,1.039796352386474609e+00
-4.206176937054149217e-02,-6.119773390341091135e-01,5.921887956180240664e-01,-9.782339004687382945e-05,-4.374507115329536421e-03,1.002824963379598784e-03,1.043363451957702637e+00
-2.534688271740149004e-02,-6.115755110335707734e-01,6.114778375562803792e-01,-2.008781226850094980e-03,-1.746513926646934417e-03,1.120787924370547813e-03,1.059509158134460449e+00
-3.598899737695550327e-02,-6.102029367227533863e-01,5.974690390405554830e-01,-3.615994193380467001e-03,-3.233178591957532218e-03,-1.996705775923192545e-03,1.046333432197570801e+00
-2.713068271718809682e-02,-6.109948829477480636e-01,6.015188468637012731e-01,5.212644444270005334e-04,3.107074755011620965e-03,-5.231315508796794030e-03,1.050359725952148438e+00
-2.908685762157200982e-02,-4.888173903388706165e-01,6.519017903482087206e-01,8.618453705638420836e-02,1.845812931470416363e-01,-4.547651974037432432e-02,1.057765245437622070e+00
-7.840156091466756946e-04,-6.042353573564803737e-01,5.896358373591940039e-01,2.289738121790721426e-04,1.268221391020147399e-03,3.511503255633967140e-03,1.033963561058044434e+00
2.475301254318365562e-02,-5.552525666216533429e-01,4.101040395888309598e-01,4.066367159408276755e-02,1.476087467212077176e-01,7.548805904565017433e-02,8.920922875404357910e-01
-1.920080089352312752e-02,-6.190948755497107658e-01,6.197640500530534613e-01,-1.273261337828909085e-03,-1.249739134456002683e-03,-3.161668097497345991e-03,1.073079586029052734e+00
-2.708144905635017502e-02,-6.123973143279308751e-01,6.017976398533317894e-01,1.476388514067506418e-04,6.249663210907125885e-03,1.283740773704642574e-04,1.051805019378662109e+00
-9.731279248653218472e-03,-6.130246063474814600e-01,6.085610125096624357e-01,-1.170583403272011267e-03,-2.505201384411400584e-03,-6.487384983919021464e-03,1.058021306991577148e+00
3.073737563801214046e-03,-4.695249256514257841e-01,4.086198092979732022e-01,1.134750410585181474e-01,1.620687869884482324e-01,4.908635826251219608e-02,8.391273617744445801e-01
-3.118614345196074264e-02,-6.060969444208049728e-01,5.910173292828582170e-01,4.121542437228071197e-03,1.171881939023915751e-03,-4.531631888504792684e-03,1.037057280540466309e+00
2.127370194175134260e-03,-6.737879573095695296e-01,6.987633936473620633e-01,5.528182746352304500e-02,4.677369209293148061e-02,-7.489658854722058834e-02,1.202327013015747070e+00
1.389234050004127530e-02,-6.017874068485737915e-01,4.443067517083403306e-01,-1.201125817693889097e-02,6.821398658844560203e-02,4.494421073621709950e-02,9.218285083770751953e-01
-4.176913782277225790e-02,-6.287627652891556451e-01,6.507382579014668877e-01,3.462638647534983100e-02,2.894336308580009245e-02,-3.496157570101925127e-02,1.113733530044555664e+00
-2.207390367706586407e-02,-6.135660915161592621e-01,5.934956894299950880e-01,-4.744789750614471745e-03,8.036759871867986751e-04,-4.464045309425257804e-03,1.045477271080017090e+00
-2.147319863384960364e-02,-6.185622491342273044e-01,6.021505365099970586e-01,-6.870545026425287126e-04,1.755088087646902457e-03,8.262626806300205767e-04,1.057257533073425293e+00
-9.271191399816962331e-03,-5.965555612640983663e-01,4.437190317419025809e-01,-1.318920497464173315e-02,-4.005582617635234516e-02,-1.651944692704526013e-02,9.068026542663574219e-01
-1.753097089004615819e-02,-6.040618286936358938e-01,5.933890526274834265e-01,3.695477974725805241e-03,-3.406755899078635352e-03,-4.109664282721482362e-03,1.037155508995056152e+00
-2.338629918205527292e-02,-6.147113513043410693e-01,6.021844612908354710e-01,-1.510666603088487055e-03,2.678653559612684774e-03,-1.526810120782283453e-03,1.054018616676330566e+00
-2.421052101994965872e-02,-6.151551808787697473e-01,5.981532626821363108e-01,-3.853429494112444766e-03,2.292292348594570772e-03,-2.150447443466413106e-03,1.050908684730529785e+00
-6.003023793878903974e-02,-6.135795747175499804e-01,5.953594251621301403e-01,5.393015249590288676e-03,-2.158780152882684017e-02,1.125436392512343085e-02,1.049098849296569824e+00
-1.062685398743229773e-02,-6.292071039011972733e-01,5.722786948559079878e-01,5.104136086523193561e-03,-1.502160990388985186e-02,8.094806870988341743e-03,1.041127204895019531e+00
-4.115297675070268835e-02,-6.098013172167828788e-01,5.951017055624995278e-01,3.852620075518390329e-03,6.035041520689746197e-03,-5.411373842384972245e-03,1.044139742851257324e+00
1.741980066871749722e-02,-6.097980660287686261e-01,4.181574296183250272e-01,8.341656031317253722e-03,-1.812377669611955899e-02,1.449405830843453549e-02,8.984248042106628418e-01
-3.453777866847904110e-03,-6.195269514391902321e-01,5.139039992669406365e-01,8.195512780829692853e-03,-3.823724097377153349e-03,2.780676292567467456e-02,9.841242432594299316e-01
-1.002252293424454599e-01,-2.628311185239005088e-01,5.382047890449739302e-01,1.180790506436040464e-02,6.291445385418039174e-03,4.813748624926856429e-02,7.384678125381469727e-01
1.125357540154914293e-03,-1.073466725132834476e+00,8.017962959683138102e-01,-1.861230568756352954e-01,-2.344527838552196153e-01,2.613550488488652901e-02,1.710875749588012695e+00
-6.753273156690758200e-03,-6.115962406455569544e-01,5.081900288309701974e-01,4.890927100412412534e-03,7.081629394227548051e-03,2.176682313072523384e-02,9.716506600379943848e-01
3.215924889870706849e-03,-6.308801987933343458e-01,5.499865037671356482e-01,1.669802657319935423e-03,1.252672335940567885e-02,-2.250066934684522360e-02,1.024567723274230957e+00
-1.775873951478757970e-02,-6.038718262572897455e-01,5.761102956457180291e-01,-2.481483373514804802e-02,2.017921771227006167e-02,-1.269644151742941977e-02,1.023638606071472168e+00
-7.797981370515939814e-03,-5.797876938652979373e-01,4.681734895840469202e-01,-4.245996891225603531e-02,-1.222092182210858004e-02,-7.932024161041838217e-02,9.223359227180480957e-01
-1.167717418613040958e-01,-8.439679471175592917e-01,1.028588304753587535e+00,-2.324462649372652234e-01,-1.321079420771407165e-01,6.723335581956396689e-02,1.703401803970336914e+00
2.582892995846680292e-02,-5.818346540107613984e-01,5.855520370466267277e-01,-5.827699185951196702e-03,2.368340477944184638e-04,-2.637277975213216975e-03,1.011331439018249512e+00
2.438964958549678583e-02,-5.540150610261800335e-01,5.680944769255107385e-01,4.896041014518909794e-03,-1.449486259785906267e-04,-1.134874878351443354e-03,9.719692468643188477e-01
-6.158304579483701163e-02,-5.898331832781230633e-01,5.546494550173144411e-01,3.072928518840104071e-04,1.138331798689225799e-07,2.121472780354475597e-03,9.921337366104125977e-01
-2.836662662852883210e-02,-6.142539962141353449e-01,6.106282205734135937e-01,-4.561887330333508524e-03,5.874393612150472779e-04,1.322955983611542700e-03,1.061143755912780762e+00
-2.031760228990919098e-02,-6.172722889967378057e-01,6.186642818075881456e-01,-3.455649489505323302e-03,-5.510044923797784329e-03,-1.282496184249624395e-03,1.070620298385620117e+00
-2.578532851015585825e-02,-6.168954574149073666e-01,6.148620963002543460e-01,-4.815193239718594531e-03,-3.506057902360167414e-03,-1.796642926130240627e-03,1.067075252532958984e+00
-2.223418413550834472e-02,-6.170146301068546446e-01,6.039498765859904195e-01,1.725961500056608729e-04,-9.414728676638543401e-04,-2.785847124159136030e-04,1.057504296302795410e+00
-6.754501648218111387e-02,-6.128707898774895524e-01,6.265788789717708918e-01,2.482777939816464049e-03,-2.372959073872191876e-02,1.202363362578220268e-02,1.076964855194091797e+00
-4.041205822704924122e-02,-6.028179680560963316e-01,5.708383312339978533e-01,5.737435549973125999e-03,-2.895878877203810408e-04,1.083272467920363621e-03,1.016759991645812988e+00
-8.459310122617889199e-03,-6.142112406797421986e-01,5.286102431488822750e-01,3.494953840551437343e-03,-1.452463578437878733e-03,1.339008847408443108e-02,9.906013011932373047e-01
-2.149792753230912734e-02,-6.152765444991541433e-01,6.182234171101734788e-01,-2.996370211801545422e-03,-9.160189962554161599e-05,6.471056628101040350e-04,1.068502426147460938e+00
-1.482854949871101891e-01,-1.789187616452432850e-01,8.902529941820727100e-01,-7.386267363165069377e-02,-3.711477840487450996e-02,-3.683405492812134169e-02,1.065778732299804688e+00
-3.194179882793023693e-04,-5.969796584645769011e-01,5.889048652830412012e-01,2.358685386063930946e-03,8.016931037999702053e-03,6.123718694868454659e-03,1.027169585227966309e+00
-2.051927194976578550e-02,-6.170225976950665103e-01,6.018171644058196712e-01,-1.648633756134535453e-03,2.352893883056337686e-03,-1.240566882373562042e-03,1.055639147758483887e+00
-3.876541653547734695e-02,-6.198634648678907899e-01,5.823752605182007658e-01,5.816650538320850168e-03,-6.426467158116199114e-04,4.770922800022075853e-03,1.041443824768066406e+00
-5.101868883379254149e-02,-6.092404079956857954e-01,5.787185721870381494e-01,8.733959787573269962e-03,1.072600348269568834e-04,1.110728084745716757e-02,1.029714822769165039e+00
-2.807973163706611874e-02,-5.640072639616120487e-01,5.902997115081697332e-01,-1.708034843467727288e-03,1.103400265438619909e-02,-1.352421221393899226e-02,1.000969886779785156e+00
-5.102299688376314701e-02,-6.046930334470889123e-01,5.599066617699296478e-01,2.856755335459336843e-03,-6.680236972839265729e-03,5.909720135376478507e-03,1.009109616279602051e+00
-2.779589428954021280e-02,-5.799844210683499091e-01,6.805310770099267659e-01,8.844208103796712128e-02,1.295377483480935656e-02,-7.924873509974202090e-02,1.113813161849975586e+00
-1.990637230351361558e-02,-6.131497348562778837e-01,6.219612328584833705e-01,-1.430315633148589042e-03,-1.353998746949241746e-03,1.811645110020753974e-03,1.069923758506774902e+00
3.850074803178950289e-02,-5.597058586021553817e-01,5.663343465510277674e-01,1.306625695346908585e-03,8.655312725629689982e-05,-1.060958097769092168e-03,9.758183956146240234e-01
-4.146058145671084605e-02,-6.188907379073074200e-01,5.799585089731107423e-01,1.110463853803957818e-02,-2.866446004667549258e-03,6.361203136637281520e-03,1.038715243339538574e+00
-4.406681345631037472e-02,-6.126970389655668203e-01,5.785348342253219256e-01,1.131528270904114813e-03,-6.453954995310221205e-04,5.749497066432332840e-03,1.032040476799011230e+00
-3.706001630633755373e-02,-4.221615606875910309e-01,5.783339308123665035e-01,-3.542702342884625905e-02,1.687158589224330152e-02,-1.940262530684692607e-02,8.773543238639831543e-01
-7.216404235091963826e-02,-5.353793759515902417e-01,6.275824185485255891e-01,-1.009770475613829821e-01,3.352293627780113163e-03,-8.398054940221237608e-02,1.039291977882385254e+00
-2.975164951368411762e-02,-6.072621868448843108e-01,5.999802071919841939e-01,3.347735263362920568e-04,2.027691702556959092e-03,-4.848046527718375028e-03,1.045868396759033203e+00
-3.577817197734832477e-02,-4.200132497964154110e-01,5.708490116865416741e-01,-3.174140382384332826e-02,1.860549000806149822e-02,1.302311694751061288e-02,8.679230809211730957e-01
-3.748217494028298347e-02,-5.051710168681265989e-01,6.160560919062237906e-01,-6.519643428638929872e-02,2.506499093527137303e-02,-5.348625676301518861e-02,9.872773289680480957e-01
-3.706809139854332080e-02,-5.961170862516106395e-01,5.416712731462092201e-01,-4.944118663910945267e-03,1.062282235001839092e-04,-3.093583795419972086e-03,9.854546189308166504e-01
-2.353450919679689335e-02,-6.279370139545795704e-01,5.853761433688519089e-01,8.696241873293580199e-03,-2.967756872869130487e-03,1.054600413377464532e-02,1.051041722297668457e+00
1.544794802024085367e-02,-6.213534426929149257e-01,6.377130686192280518e-01,2.164087571804783339e-02,2.926808558359957155e-03,5.201418068100412649e-03,1.091100811958312988e+00
-3.429072511169151821e-02,-4.887826345159329566e-01,5.891755301950827306e-01,-3.285356317555509359e-02,1.844197748672644563e-02,-1.589374720517945996e-02,9.400264024734497070e-01
-2.664326206325428464e-02,-6.351102202669755004e-01,6.029214031201721724e-01,2.018028586387651379e-03,1.505507676395641866e-03,5.471905667476308381e-04,1.072228074073791504e+00
-2.350970664028782797e-02,-6.356415324647678444e-01,5.984991525035957549e-01,2.768414856720774909e-03,2.362466997473063480e-03,-6.331310647573852113e-04,1.068827748298645020e+00
-2.140141999367674991e-02,-6.335968414761332657e-01,6.010847864584111244e-01,1.124449977526116064e-03,4.728869283840690663e-03,4.531347590373096244e-04,1.069311499595642090e+00
-3.756880003673877810e-02,-5.870450537038734984e-01,6.133464523711638083e-01,4.720144226086415117e-03,-6.627880779124096892e-03,-9.213872403969506839e-03,1.041023850440979004e+00
-2.898564528469058446e-02,-6.111462403748272321e-01,6.089536677019163902e-01,-4.219796715620506913e-03,1.030226053101635690e-04,3.768395362048660921e-03,1.057050943374633789e+00
-8.000891282522210046e-03,-6.125656856681637175e-01,6.121210433200586776e-01,-1.263386553433001490e-03,-1.246713865702560623e-03,-5.474952835529886541e-03,1.060685157775878906e+00
-2.999766724053692935e-02,-6.110798437169183694e-01,6.064280854496564288e-01,-5.168150053777758116e-03,-2.482052923119734949e-03,2.807055629062241674e-03,1.054813742637634277e+00
-1.095308610028919438e-01,-2.233601160635179106e-01,5.370541212518048502e-01,-2.287495536318232350e-04,2.666321234068709436e-03,5.321215075938769828e-03,7.104477286338806152e-01
-3.141529661051548766e-02,-6.186820399369676871e-01,6.206022604090695172e-01,-2.883812890343107321e-03,-3.172505875195816803e-03,-2.827628130349002858e-03,1.073776721954345703e+00
7.465675734802112995e-04,-5.010451975188534579e-01,5.719542444535244963e-01,1.489089372206855132e-02,1.929994776097394144e-02,1.911574161222507826e-02,9.314393997192382812e-01
-2.205634640781967137e-02,-4.814862620804840621e-01,5.757423576330968906e-01,3.595755254653189986e-02,1.685573752714882717e-02,-9.817756741451855174e-03,9.209267497062683105e-01
5.213564630711051140e-02,-5.898375447599039090e-01,3.450698795847053080e-01,-9.987225945164550367e-02,2.149447722045805531e-01,1.542412613816796993e-02,9.247901439666748047e-01
-2.059069061544060997e-02,-5.053325847474636756e-01,5.692964725383071745e-01,3.101459948320443860e-02,2.069240167707889905e-02,3.454254258429251961e-02,9.362875819206237793e-01
-2.508932880337114840e-02,-5.153864577704747596e-01,5.821450446221683173e-01,1.648296554500321837e-02,2.094274260515576608e-02,1.063735031014249530e-02,9.535829424858093262e-01
-3.858564360815160826e-03,-5.483450856176813604e-01,5.811329510252842834e-01,1.183663269544363815e-02,1.139780864855638107e-02,4.129581831927531428e-03,9.788063168525695801e-01
-2.367641200004650184e-02,-6.168181885500159112e-01,6.141551551743666959e-01,3.950625655023062301e-04,6.479741912297899784e-04,-2.758339934309573561e-03,1.066299796104431152e+00
-2.580978761733401794e-02,-7.833670808695486487e-01,7.889233612015251751e-01,5.744041706381233965e-03,8.959917249739936251e-02,-3.762251344941025533e-02,1.372340917587280273e+00
2.802881881756095778e-03,-6.779123136182709786e-01,6.791560034503584253e-01,5.460145750144154014e-02,-4.995173503452713867e-03,-1.392695114429046838e-02,1.179335117340087891e+00
-6.106622288797790982e-02,-6.972664820630122273e-01,7.583954538787115451e-01,-7.226515025390978578e-03,2.182736603526798380e-02,2.117954639266843297e-02,1.265125155448913574e+00
-3.543779651644361067e-02,-6.628501580523799008e-01,6.940805365342529454e-01,9.175249203104856623e-04,9.851884078613317233e-03,-6.078720346716110813e-03,1.176416873931884766e+00
-2.444696175050070641e-02,-6.166401239311821714e-01,6.005968198756622689e-01,-2.241497438279246943e-03,1.078888994504638432e-03,-1.752604928882178477e-03,1.054299235343933105e+00
-2.149361485076764500e-02,-6.151600490915600794e-01,6.017023001965684514e-01,-3.445109376366206448e-03,2.614234959017784025e-03,-1.882834801571573770e-03,1.053968787193298340e+00
-1.855082109995195155e-02,-6.151796008506732472e-01,6.005933282608391099e-01,-3.887111276149429582e-05,2.556829558679075270e-03,1.195301334701167348e-03,1.052961826324462891e+00
2.995687401230157088e-02,-9.573050337989367220e-01,4.844249486468538146e-01,-1.724187322023382485e-01,-1.930675513480349104e-01,-5.766883411660311300e-03,1.353150367736816406e+00
-1.860100250846016823e-02,-6.159746941307640000e-01,6.007713000017480542e-01,3.815699906614244269e-04,3.020155095231073089e-03,7.680068601098267913e-04,1.053804397583007812e+00
-5.178292744460982755e-02,-6.006744362956993877e-01,5.732452631748369276e-01,3.849469460163917715e-03,3.595698465264178783e-03,-2.067553954003561231e-03,1.017403960227966309e+00
-4.201271385458739405e-02,-6.016225941806057076e-01,5.728635631972278652e-01,7.146550542506173442e-03,7.495265047428882089e-03,-4.530248145700201644e-03,1.017698526382446289e+00
-4.596103061582135219e-02,-6.034573763454330608e-01,5.719884896823702602e-01,3.179605232965571808e-04,7.721749147473509940e-03,-1.406015294245128305e-03,1.018505573272705078e+00
-4.290346187664489941e-02,-6.084463376769537746e-01,5.837031062124174996e-01,4.300600784262441356e-03,3.554521978167940032e-03,-3.890098356148323326e-03,1.032950282096862793e+00
-9.235951128758027734e-03,-6.130786284241153128e-01,6.164146889208572677e-01,3.012000563184286019e-03,-1.153049618925411704e-02,-6.291844530072528835e-03,1.065084099769592285e+00
2.379201475946646216e-02,-5.806144979733878220e-01,5.857927862594808355e-01,-5.798032906763506134e-03,1.122852876921816116e-03,9.964298258249358435e-04,1.010414123535156250e+00
1.051611635004554707e-02,-5.919372073160918957e-01,5.985754453202759562e-01,2.207825680015312788e-03,1.033178482071509712e-03,-1.987317658515889551e-03,1.031053662300109863e+00
-2.547924969873714696e-02,-6.102531083516601340e-01,6.124416628233140258e-01,-1.988718594717496166e-03,-9.171861654107032113e-04,2.018323578666018133e-03,1.059230685234069824e+00
-3.606741509344904562e-02,-6.118354117379446455e-01,5.976504724319976480e-01,-2.086501532640776691e-03,-3.098418003175367331e-04,-5.134048884782419636e-03,1.047890305519104004e+00
-2.562924543244364528e-02,-6.173473529726102305e-01,6.186218091244352069e-01,-3.645195610792460392e-03,-2.813714097126282856e-03,2.432934841347624694e-03,1.070740938186645508e+00
-2.606474030779684994e-02,-6.139616186827593358e-01,6.219637033502677381e-01,-2.197325556099104238e-03,-4.717553164750142546e-03,8.334828664708495783e-04,1.070803880691528320e+00
-6.324593161439359679e-02,-5.377315496487191648e-01,5.994853062853943149e-01,8.376271427848299561e-03,-8.824327325202585212e-03,6.585397787415746100e-03,9.896362423896789551e-01
-3.433459234354949846e-02,-6.161283325142145051e-01,5.865832123213616800e-01,-2.785045454614351688e-03,8.598951888455129422e-03,4.775107111912860712e-03,1.041912913322448730e+00
-3.656817032975108461e-02,-6.029709885916795242e-01,6.072503941182914033e-01,-3.089914140448099902e-04,7.659143266812321570e-03,-1.356247330526947660e-02,1.049144029617309570e+00
-3.341563917504673104e-02,-5.339585122720766908e-01,5.847338178756303906e-01,-7.080872414892617865e-03,1.254865907676646145e-02,-1.788528810786964296e-02,9.714137911796569824e-01
-3.123792643455682722e-02,-6.185700183461579904e-01,6.052394601931465612e-01,-8.244564979121245035e-04,1.463391424087333477e-02,-1.594773596843215152e-02,1.060798525810241699e+00
-8.542246484192050904e-02,-3.670780435605074388e-01,5.969854353256290880e-01,-4.548958861019749417e-02,-3.365306759969384498e-03,-6.572721257225154490e-02,8.697220683097839355e-01
1.898663115465774182e-02,-5.568228282770580906e-01,5.802312645106605382e-01,-1.358290174250474311e-02,-1.875923960823858237e-03,-3.375054230670271240e-03,9.850483536720275879e-01
-8.862876649344306190e-02,-2.807550586802573522e-01,5.821879993016423338e-01,-8.177561736749333621e-02,2.666192371910665673e-02,-9.610935633657453903e-02,8.159010410308837891e-01
-9.967371690655801864e-02,-3.712353460441775721e-01,5.816524426392351010e-01,9.667691267990221118e-03,-5.754072302711904638e-04,-5.565912953316102391e-02,8.558903336524963379e-01
-1.184711797281195744e-01,-2.600675976698414438e-01,5.678281429650295919e-01,1.215469986614800373e-02,-2.331110389072462135e-03,-4.087725315322870978e-02,7.705233097076416016e-01
-1.022731208586140639e-01,-2.847329888314197310e-01,5.654275883899234634e-01,2.093221034568327338e-02,-1.355116476247215582e-02,-1.406136170135867114e-01,8.137114644050598145e-01
-1.184579040439118769e-01,-1.410082445916548688e-01,5.460324439587314060e-01,1.967606103640929388e-02,-4.175409795272312999e-03,-3.052206781913394465e-02,6.790058612823486328e-01
-5.794294208339332425e-02,-6.013555561984598175e-01,5.920337967264244217e-01,-1.212648965672354345e-03,1.533846990972683941e-02,3.031230579798340624e-03,1.035234451293945312e+00
2.902902392561236902e-02,-6.057974748265394505e-01,5.941360140309245308e-01,5.433494035549642914e-02,-7.464024733929971143e-03,3.887153717803942983e-03,1.044109582901000977e+00
-2.372808767742617259e-02,-6.201921595971755519e-01,6.050153385781662507e-01,5.518100981189280390e-04,-4.844803825829831125e-04,1.824035464789158442e-03,1.061189055442810059e+00
-2.128999139659984441e-02,-6.166468009171325315e-01,6.047840032138847022e-01,-6.777944392871211197e-04,-2.738724422068699108e-03,7.948385946159993104e-04,1.057913780212402344e+00
-2.679876690656757612e-02,-6.413445670481365823e-01,6.526080203387730760e-01,1.287966153796658852e-02,-1.075505825485724085e-02,3.277679231980053145e-03,1.121456027030944824e+00
-5.870022186831468092e-02,-6.154368482604933854e-01,6.030693302869274408e-01,2.390945138325496679e-03,1.265441344247293307e-02,4.000742783877338639e-04,1.056798934936523438e+00
-3.982775974145195269e-02,-6.394701653238442640e-01,6.211640129193436444e-01,3.579633349847833462e-02,-7.515928311823862062e-02,1.002440854485529831e-02,1.101785898208618164e+00
-5.536228335842340031e-02,-5.960689753073934449e-01,5.733289515290720395e-01,8.973534839656538333e-04,6.541137864882288870e-03,1.035154650989452817e-03,1.013749480247497559e+00
-4.809367041488361166e-02,-6.421705492989133734e-01,6.522869639056526614e-01,-3.188541672232298937e-03,-4.966271510216806705e-03,1.503451994496929518e-03,1.122341990470886230e+00
1.830184636851349758e-03,-6.425429098175911014e-01,6.346637601784540506e-01,1.041495186609611191e-02,4.261066749889813425e-03,1.038066293600128052e-02,1.106426239013671875e+00
-2.481794444501533511e-02,-6.173864520380720755e-01,6.144220011494492262e-01,1.630364786619776943e-03,-9.241298323162883827e-03,-3.739863745922941424e-03,1.067176103591918945e+00
-4.926718686012511450e-02,-2.149263951886030699e-01,3.786409537393470304e-01,-7.143122810078306184e-02,7.148430925012860815e-02,-2.456948054261633846e-02,5.602530837059020996e-01
-4.034454324486813626e-02,-6.088544767830823545e-01,5.967531211469239150e-01,-2.521364507192307581e-03,2.327374819767787095e-02,-1.006416404324077902e-03,1.045437932014465332e+00
-4.773642315657190133e-02,-5.967299461328349208e-01,5.649973215690036188e-01,-5.328696551030427187e-04,2.272065678122424295e-03,-8.396249144254482001e-04,1.006599187850952148e+00
-4.925980462726776282e-02,-6.009583622500851430e-01,5.798032805929141942e-01,-2.335339324332127205e-03,2.965265949010686356e-03,3.567069869170270448e-03,1.023340463638305664e+00
-4.087045995590333353e-02,-6.085700552808603891e-01,5.942022967016431512e-01,-5.352301195915945206e-03,-1.970572059543460736e-03,4.569087464835989466e-03,1.042252898216247559e+00
-1.430073408401189884e-02,-6.055404568553712785e-01,6.150510837541723896e-01,-5.355033980466416751e-03,-1.043287704738146866e-02,9.798124514843254470e-04,1.057431459426879883e+00
-4.269197904999649795e-02,-6.035431169679381647e-01,5.691898965572458335e-01,-4.828815402057840336e-03,1.269320910666410160e-02,-2.295198890779464977e-03,1.016217112541198730e+00
-5.485855078654879036e-02,-6.093667019641388904e-01,5.803237511417824734e-01,5.262772740193004742e-03,-6.295083523696392604e-03,1.137507962997158506e-02,1.031377553939819336e+00
-3.164442324310231397e-02,-6.210403798246606488e-01,5.916971637203789491e-01,8.399440497535581515e-03,-3.004833190427657740e-03,1.611908185520205886e-02,1.050883173942565918e+00
-2.873768595917701105e-02,-6.120532258645906554e-01,5.377489394806908019e-01,1.171586891187843642e-02,-3.668003163707472033e-03,-1.247394023250826371e-03,9.960227608680725098e-01
-3.216997259174723955e-02,-6.184026068092491890e-01,5.609046771970875866e-01,1.430245294431671706e-02,-1.831128463449947091e-02,1.170261908180500639e-02,1.022309303283691406e+00
-4.968325393978996474e-02,-6.021939777311854369e-01,5.711583577544722123e-01,-2.554638243213028099e-05,-1.735798229879500186e-03,1.297272512000216234e-03,1.016734004020690918e+00
-4.545857577504412717e-02,-6.054000314295319152e-01,5.952385989356975271e-01,-5.079684213606613409e-04,8.647242472979706912e-03,6.536873855106801459e-04,1.040675997734069824e+00
-1.160210931352900678e-03,-6.106224702387776926e-01,5.969484762675536516e-01,-4.818475359819713102e-03,-1.264305633129996203e-03,2.236609011207079181e-03,1.045845270156860352e+00
-2.875365072160587093e-02,-6.132218251299970113e-01,5.838882671475896791e-01,8.049601904085365578e-03,-1.382711672357280971e-03,2.328663472791931387e-03,1.036927819252014160e+00
-4.357454401481479500e-02,-5.924068366922496942e-01,4.911558111591577402e-01,6.281074940087291204e-03,-2.104261087785438966e-02,1.118021208184722878e-02,9.393894076347351074e-01
-5.713195737393339524e-02,-6.043283954671482272e-01,5.248041124393553192e-01,1.264792559340656517e-03,-7.846225157344079160e-02,1.375267344382119852e-02,9.876983761787414551e-01
-2.019953783079159182e-02,-6.185550428528548972e-01,6.068601497669299238e-01,1.227599433117882279e-03,2.248064474991539864e-05,-1.361501248482287088e-04,1.061339855194091797e+00
-3.794534899910906312e-02,-5.950549149735270271e-01,5.053467500879729180e-01,1.037692206535742630e-02,-3.569687054628913753e-02,7.856640410827571148e-05,9.551735520362854004e-01
-3.749415379919435881e-02,-7.206334818162638545e-01,5.646444976463540488e-01,1.126056132232756355e-04,-9.860563433791438848e-02,6.358401495208798604e-02,1.132207155227661133e+00
1.513457020863832880e-02,-6.924310232426156286e-01,4.273964402719303557e-01,-1.044780450284675810e-01,-2.055269761103812598e-01,-2.602564210639442266e-02,1.060101032257080078e+00
-1.969366832727586364e-02,-7.005129979828034203e-01,5.629664822363956711e-01,-2.920159968016946411e-02,-7.129926073032735734e-02,4.133625040098667242e-02,1.105725646018981934e+00
-5.474577750196157888e-02,-6.181051993915889220e-01,5.918598789745957989e-01,1.098092221254873442e-02,-4.602442758361355996e-02,2.993500133737916902e-02,1.053161382675170898e+00
-4.455717115546883877e-02,-6.001991390121025338e-01,5.711690657779585623e-01,2.722194993472053150e-03,1.333518684531788227e-02,-1.730380276382003767e-03,1.015157580375671387e+00
-7.931241486803333740e-02,-2.005843556219588097e-01,4.405165941864828127e-01,-1.438540715356756081e-02,3.411331098313442195e-02,1.129539739230443207e-01,6.247859597206115723e-01
-8.816851540887328531e-03,-6.356798124805859151e-01,5.847505059029404206e-01,-2.816312497402304743e-02,2.615953775896519284e-02,-2.010564834933463441e-02,1.059721589088439941e+00
-5.575134231240066324e-02,-6.389112231021261135e-01,6.059020291118822898e-01,7.914294910630751897e-03,-4.640669681329617768e-02,1.534688370003518126e-02,1.082157850265502930e+00
-2.584861567232819152e-02,-6.300489679475367311e-01,5.976465729879573141e-01,2.211920976725685172e-03,5.273651891170270251e-03,-3.912427104580175688e-03,1.063327074050903320e+00
-3.257616414682620865e-02,-6.081706883206298153e-01,5.988072254653299398e-01,1.398046243808037789e-03,9.139178134788162808e-03,-4.631460931657741843e-03,1.045799016952514648e+00
-3.142458234288623281e-02,-6.171010722975535101e-01,6.114129027710352160e-01,-5.468415131744516679e-04,3.358059403247230790e-03,3.900399478918485738e-03,1.064345836639404297e+00
-2.371287219808606433e-02,-6.187005776632882315e-01,6.076489515204084313e-01,1.345475840950106049e-03,-2.068739391616071163e-03,-1.348900434593873520e-04,1.062214136123657227e+00
-1.808675653558745877e-02,-6.291717112356731700e-01,5.734709767437194960e-01,1.933839280864054367e-03,1.887486744648119710e-03,-8.384614524733144392e-03,1.041676640510559082e+00
1.878282543240987479e-02,-5.967235256861330717e-01,5.902071664048568200e-01,-3.337785423643519801e-03,6.036685553395038963e-03,-1.394572433689173722e-03,1.028220653533935547e+00
2.369880954363948536e-03,-6.072879331625021804e-01,5.963889216421542905e-01,-2.848082765376703141e-04,7.134926370122572983e-03,-2.485036639007735543e-03,1.042526364326477051e+00
1.098839726186728698e-02,-5.875432535380311627e-01,5.908617682736533316e-01,-1.199370961244487083e-02,1.162513768793443404e-02,3.578845408808213179e-03,1.021000146865844727e+00
-3.392786208239327583e-02,-6.113147845336439623e-01,5.896520462070007351e-01,7.012755038670460787e-03,2.389947142674660185e-03,-3.257117742105785155e-03,1.040418624877929688e+00
-3.764163146511456670e-02,-6.115401939670621623e-01,6.074007223079908036e-01,-5.928425926308353994e-03,1.993372382462707884e-02,-1.602783159710488093e-03,1.056850671768188477e+00
-4.411124050867738094e-02,-6.088915696349646023e-01,5.900372149328692029e-01,4.545477250882705260e-03,7.749980988016180218e-03,-7.924592476192454443e-04,1.038999438285827637e+00
1.408093860086519732e-02,-6.220791079079738273e-01,6.322341697333722088e-01,-3.173952262345997033e-02,4.288677838478392908e-03,-8.559952779859261382e-03,1.087821006774902344e+00
-3.239524410185103120e-02,-6.129385137121587945e-01,5.879939648790607487e-01,2.278150459051918927e-03,6.343896043888669518e-03,-3.765650338199621680e-03,1.040314793586730957e+00
-3.193522979503749665e-02,-6.111249053278648979e-01,5.814049671155141485e-01,4.149573105600267396e-03,4.253362101210470675e-03,2.108451691667540418e-03,1.032960057258605957e+00
-3.491311052065102644e-02,-5.470041167434659402e-01,5.752329052277872501e-01,-1.341543703216962905e-03,-1.489221789604387941e-03,-3.474523848199283140e-03,9.731463789939880371e-01
-4.544148745962667268e-02,-6.068099080751416796e-01,5.798681571527747325e-01,4.156844302715750721e-03,1.166014275263290399e-02,-2.533194818688758610e-03,1.028423428535461426e+00
-2.387558736815246010e-02,-6.029094895027404810e-01,6.035161883472023314e-01,-7.483137096196626351e-04,-6.770043722795368590e-03,-2.376458318483201746e-03,1.045149683952331543e+00
-4.500966592249594500e-02,-6.050693603230848927e-01,5.783287473028989600e-01,-1.549483907663841810e-03,7.406492109361557117e-04,-1.537713432453909068e-03,1.025348901748657227e+00
-4.910475720671186178e-02,-6.003532222413331398e-01,5.666057523203321677e-01,2.730280464675502363e-03,5.331306764368580649e-04,-1.382886024925257225e-03,1.011144280433654785e+00
-2.860495267635342759e-02,-5.227320784765583372e-01,5.975029962199618350e-01,-2.131824392381206565e-02,3.979329725809909769e-03,2.326800603366632747e-02,9.739531874656677246e-01
-3.657159944794979856e-02,-5.507824840282050660e-01,5.991036159212468348e-01,-1.288223420872046734e-02,-1.448668957013097419e-02,1.515734416184563033e-02,9.985908269882202148e-01
-1.693112090759442412e-02,-6.113703281241779086e-01,6.043023923337317305e-01,-5.501724483162900685e-03,3.610696902125307660e-03,-3.381664134418224752e-03,1.052966713905334473e+00
-6.819261602780259113e-02,-4.769982803792743864e-01,5.578397468621784094e-01,-1.362900358374224616e-02,5.859484812768507751e-03,3.481362320721169412e-02,9.051300287246704102e-01
-5.139672430723581098e-02,-5.513374890196528488e-01,5.885797231404997776e-01,-1.540174931744842969e-02,-1.440371864309288562e-02,-6.143632176238480189e-04,9.903514981269836426e-01
-3.708882436446291064e-02,-4.765392342361821076e-01,5.732564359121226083e-01,-1.675048315961528284e-02,-1.228103230931322509e-02,2.198611060380308360e-02,9.146577715873718262e-01
1.324080293934886028e-03,-6.169527368896444708e-01,5.975620855444898627e-01,-4.211229649038082321e-03,1.867235151632881023e-03,7.878328592362640256e-03,1.051977157592773438e+00
-6.216349018575156871e-02,-4.458701604096072524e-01,5.834065887174958442e-01,-1.188451217920136454e-03,-9.396664888131853535e-03,4.094796802107433104e-02,9.038807749748229980e-01
-2.756730954642752987e-02,-5.883892170041326031e-01,5.827992947641326138e-01,-4.486326554041257866e-03,-4.766345739477174763e-03,-7.102217123418154464e-04,1.014645576477050781e+00
-5.745745768206296511e-02,-5.101162003230976794e-01,5.927792681547419118e-01,-1.887460131273759967e-03,-5.365993588601645180e-03,-1.278441259258693806e-02,9.605365395545959473e-01
-4.395363806773920634e-02,-4.759561783411937474e-01,5.891593668091402725e-01,1.034252199539235084e-01,-1.292190645823979717e-02,-5.898250820872975864e-02,9.507853388786315918e-01
-3.299392818356760432e-02,-5.243423098801596183e-01,6.452350213880664320e-01,6.326793368576619225e-02,-2.995617385805141378e-02,-5.613559847532534341e-02,1.028989195823669434e+00
-2.222767983371098585e-02,-6.148070617325178677e-01,6.048394493642642589e-01,-1.337661849148094259e-03,-4.216308368362965339e-03,2.152019241466008887e-03,1.056419968605041504e+00
-3.508479193506823524e-02,-6.230909571269171998e-01,5.811955655486319428e-01,-2.057170225272893227e-02,-2.035127404202799820e-02,-8.760375816934184989e-02,1.055208444595336914e+00
-2.680721185133869144e-02,-6.092749921768302324e-01,5.802711179759413307e-01,-9.231998035616275494e-03,2.748162726907204742e-03,-5.265209175453947760e-02,1.034413576126098633e+00
-2.363955647226643336e-02,-6.196896864660523807e-01,6.075947006175476117e-01,1.372860879207222270e-03,-2.099532763122689480e-03,4.987006588750687950e-04,1.063014268875122070e+00
-1.218362642358506442e-01,-1.775544479833182643e-02,6.011108494252519474e-01,3.163984267862634744e-03,2.085334995313484902e-02,-9.755252011204709750e-02,6.986590623855590820e-01
-5.513644886351933005e-02,-4.371459555177584777e-01,5.766309492403475234e-01,6.082564603410438309e-03,-2.295827606304986362e-02,-2.585565216256972831e-02,8.888758420944213867e-01
-3.479561731728619128e-02,-5.321680103818592356e-01,6.038183898391840110e-01,3.555839260716163919e-04,-1.669347946941887595e-02,-2.551215776762026308e-02,9.877373576164245605e-01
-3.666769747378076372e-02,-4.450521897977277042e-01,5.718263160154146707e-01,1.970700739081638828e-02,-2.626105404137417040e-02,-3.630665846036676414e-02,8.903543949127197266e-01
1.279932590168778375e-02,-5.977779842420197776e-01,5.966143302104924828e-01,-2.041818631668440196e-04,-1.975416485380675994e-03,-7.370688831012934053e-03,1.034545183181762695e+00
-2.597482888562886727e-02,-6.165467879606095769e-01,6.043613263295362081e-01,2.380930514859679915e-03,-7.268078938419957492e-04,-2.651484444563624154e-03,1.057543158531188965e+00
-4.702991727611147144e-02,-6.005936622883791820e-01,5.668211382301769907e-01,-4.333787526888129883e-03,9.471552628278243069e-03,3.199913590341926361e-03,1.011636257171630859e+00
-4.398385727678247314e-02,-6.004502541917824399e-01,5.627850553112002663e-01,-4.021756838977240574e-03,1.477504484323315104e-02,4.749340251495257244e-03,1.008087754249572754e+00
-4.861035759558099412e-02,-6.009496169249538555e-01,5.817636116716791150e-01,-4.265790712886011714e-03,4.720239214447858982e-03,2.694210354771105990e-03,1.025072455406188965e+00
-4.887476965211450669e-02,-6.007158110140140561e-01,5.741565887212441988e-01,-3.735536482434130643e-03,-8.819078318320531336e-04,3.048369025600231562e-03,1.018127202987670898e+00
-7.104229597032971077e-02,-2.988001079383388325e-01,6.618987170640853179e-01,1.343817134789419832e-01,-9.527610831637978173e-02,-1.191187743395437197e-02,9.153375625610351562e-01
-5.354395062202437633e-02,-5.967437871294849483e-01,5.645393474370623554e-01,-1.567130205626091587e-03,-4.997356539783933153e-04,8.259934700274760514e-04,1.006402492523193359e+00
-3.474705816784812162e-02,-6.087439399938764373e-01,5.968131048382957493e-01,-3.344925727042238808e-03,-4.193890845775841321e-03,-2.431699186800464259e-03,1.044489502906799316e+00
-2.855656155030905641e-02,-6.084894508377876043e-01,5.958779569868247750e-01,-1.290331724335335448e-03,4.424955219628297701e-03,4.375507379257388891e-04,1.043280959129333496e+00
2.120800430954665472e-02,-9.484426173026435647e-01,6.890651865153968325e-01,1.797530974038520357e-01,1.325303352705834437e-01,-7.718002464759252113e-02,1.483691453933715820e+00
-2.940922318131412860e-02,-6.110615695117771473e-01,5.987733584395358299e-01,2.303230015680682741e-03,-1.470853105555138462e-03,-1.001326878246787443e-03,1.048018217086791992e+00
-2.697166792444453953e-02,-6.262170677866947255e-01,5.997152948209442114e-01,1.513431326789454415e-03,8.903856496865680467e-04,-2.707049364480541669e-03,1.061791896820068359e+00
-2.946723428923622018e-02,-6.144157419973844680e-01,6.060575322706320822e-01,-2.347692075865986851e-03,3.633488394920705335e-03,1.238797071499293930e-03,1.057292103767395020e+00
-3.134433625686756930e-02,-6.137347525530812975e-01,5.996225616301520400e-01,-4.640357182533233656e-03,-1.837455240871116013e-03,-3.471544160772410594e-03,1.051131725311279297e+00
-2.830610066234138383e-02,-6.225060192818915317e-01,5.155159287615270758e-01,-1.057930476702811928e-02,8.281875136624462785e-02,-1.282853934702662610e-02,9.966751337051391602e-01
4.570064170479487542e-02,-6.618693552231630362e-01,4.145700349728125289e-01,-1.958992444463080254e-02,1.430768080638268880e-01,-3.100258292046390377e-02,9.814115166664123535e-01
-1.599699479278327008e-02,-6.060245744626864273e-01,6.002785296599008058e-01,8.891050627656387753e-04,9.999180899224484678e-03,6.598393174604592210e-03,1.044978737831115723e+00
1.122624132137622910e-03,-6.004038183991513566e-01,4.986346233724456845e-01,-8.475730621011041965e-02,1.368063110344351629e-01,1.419895715843810455e-02,9.934399724006652832e-01
2.762260232741765853e-02,-6.044150047817941074e-01,4.273248786924301323e-01,-2.613424821531967410e-02,8.731767023037780018e-02,-2.548741854889489608e-02,9.158227443695068359e-01
-3.934798947124695107e-02,-5.056887555282917335e-01,5.852167502855954995e-01,-1.356418205612293110e-03,2.145961947393286440e-02,-1.262407330397551444e-02,9.490416049957275391e-01
7.676188629415003906e-02,-5.677035154692393615e-01,2.400767462289157828e-01,2.493864240335598361e-03,-1.117525683781576094e-02,6.450819933794103671e-03,7.401191592216491699e-01
-5.821165899702297059e-02,-6.006943284845961406e-01,5.910355256476417241e-01,4.221646720244625998e-04,1.024813259252023087e-02,2.387573134578255263e-03,1.033608913421630859e+00
4.699540836784546483e-04,-6.524771582174325735e-01,5.045242886520197034e-01,-2.690370971187736396e-02,6.399257879757101752e-02,-1.902374119750504383e-02,1.012459278106689453e+00
-2.737716767524266820e-02,-6.209451534940705342e-01,6.021184507254806473e-01,-1.700726866493761568e-03,-1.099344139989844732e-03,4.886492280095061820e-03,1.059396028518676758e+00
-5.737817302758309312e-02,-4.748415965492127633e-01,5.835483247810133722e-01,-6.785075913167566523e-03,-6.374062731059696937e-03,-5.217802953808570979e-05,9.235181808471679688e-01
2.848297249663117592e-02,-5.702693822296796000e-01,4.010990658129708897e-01,-2.722844889846919372e-02,8.952345348828405491e-02,-1.341114740891447867e-02,8.644414544105529785e-01
-7.635157995606051129e-02,-3.799668767416335968e-01,5.979195544316560085e-01,-7.079975713808370208e-02,6.276565851735140325e-03,2.768541134183109733e-03,8.756265640258789062e-01
2.698497157664098839e-02,-5.980481717278235410e-01,5.876949858331427246e-01,1.729820735236285711e-02,-1.086511434356776098e-03,-6.589382404828654505e-03,1.027889132499694824e+00
-2.557737162794979785e-02,-6.241402740168580099e-01,6.189678859017507806e-01,7.091132892388454789e-03,1.210645349276236876e-02,-5.710030226129684909e-03,1.077128291130065918e+00
-9.211094674379372016e-02,-2.405706902948646086e-01,5.350898157693215751e-01,-9.942397664142255467e-04,2.360759378620650491e-03,-4.108858820024022598e-04,7.131306529045104980e-01
-3.058477334588169394e-02,-6.118047000894822895e-01,5.912934016968510731e-01,-3.953528837324332256e-04,-5.577729285978522134e-03,-1.967187527706715146e-03,1.042162418365478516e+00
-8.940675886830770636e-02,-3.047938789584859753e-01,5.569867127779838389e-01,-4.112120441353203648e-02,-7.035462954349364431e-03,3.886737874939035636e-02,7.830672860145568848e-01
-3.096655237251766044e-02,-6.275591283254864372e-01,6.477980732365985483e-01,9.694782352909497511e-03,1.064543234790745960e-02,5.384231559400331352e-03,1.105576276779174805e+00
-5.652579827214954111e-03,-6.043051981659652849e-01,4.990808569434178610e-01,9.526911216336243077e-03,1.786827755858553211e-03,9.874489997847471501e-03,9.570136666297912598e-01
8.650211293158110298e-03,-5.742166868873423979e-01,5.930390629539916691e-01,-1.474546384397711074e-02,-3.608717294296629602e-04,-4.548887536808039582e-03,1.011226892471313477e+00
-4.200622314490780329e-02,-5.932324885636565126e-01,5.422432723589852843e-01,-5.901333113531147083e-03,2.139260239289039571e-03,-4.250530693607076915e-03,9.835771322250366211e-01
-3.281513975255315879e-02,-6.077032152396880660e-01,5.653475432594824435e-01,7.179261314641241162e-03,8.348879632630595718e-04,-6.264979383825581075e-03,1.016093492507934570e+00
8.876412468226325958e-03,-5.963790803820788744e-01,5.925143980027983703e-01,-7.978449266279073748e-03,6.397051868650096250e-03,-1.524561156350274106e-03,1.029824376106262207e+00
-2.821024851905681863e-02,-6.143189985007867504e-01,6.061665593541576413e-01,-1.748308172859787749e-03,4.848407705153206550e-03,-2.655572382844133706e-03,1.057294726371765137e+00
-9.033316191845230936e-02,-3.677120521109792928e-01,5.852630848568820543e-01,-1.934731906334803339e-02,-1.198294913506381225e-02,-1.063622974315727755e-02,8.500933051109313965e-01
-4.936412677258458781e-02,-4.050944925923099516e-01,5.721014133982833538e-01,-6.418798435342748521e-02,-1.668335877906364922e-02,1.771877400806548195e-02,8.648554086685180664e-01
-2.365723403938501876e-02,-6.149617103985486333e-01,5.915033116880595854e-01,2.659115391254806421e-03,4.921908961441267757e-04,3.101386742413956947e-03,1.044921755790710449e+00
-7.778246058040674815e-02,-3.448674295487177410e-01,5.678520358803482715e-01,-5.188930156333938087e-02,3.213120065461338905e-03,2.702407538383836891e-02,8.190951943397521973e-01
-2.558086679974874364e-02,-6.160666757967504514e-01,6.049301660628394472e-01,1.805276814703291998e-03,-2.197366107648783193e-03,-6.434021341139748665e-04,1.057615756988525391e+00
-2.806605282172734694e-02,-8.049689894496250275e-01,7.045571783138258048e-01,-2.411818096185465166e-01,2.409638572198546935e-01,-3.760202902480323794e-02,1.436116456985473633e+00
-1.214217675917469812e-02,-6.117397497279399854e-01,6.315167145938850313e-01,-2.620769879416795164e-02,-2.071885763074883188e-02,1.671200573343363874e-02,1.078858852386474609e+00
6.143445384207123564e-03,-5.989559656038726532e-01,5.997690791682228628e-01,-1.343515550166150471e-02,-7.425172502090825579e-04,4.628674156997924366e-03,1.038434743881225586e+00
-4.587160732072247116e-02,-6.258633225877233697e-01,6.398898924762506102e-01,-8.630812086997613486e-02,-1.099430259354019362e-01,-1.855000837359149085e-02,1.124294042587280273e+00
-9.158853542716521856e-02,-7.614781503854688438e-01,9.482696908179112372e-01,-1.247844966090703861e-01,-8.251446888960627113e-02,1.407854172010464255e-02,1.514721632003784180e+00
-2.261873078731549414e-02,-6.199329111949889448e-01,6.076646511271021067e-01,-6.357091987298212630e-04,1.721778393328320523e-04,-2.706911304892621984e-08,1.063259124755859375e+00
-6.083454924276079923e-02,-6.019604386380306149e-01,7.154872351529025787e-01,-2.002551665547099291e-01,2.865028226449328058e-02,-1.285207470170991045e-02,1.199518680572509766e+00
-6.899534931113652028e-05,-6.106352858503527603e-01,6.032622395978571861e-01,-1.135930903582420097e-02,-2.012592453260129413e-04,-3.207723979825530605e-03,1.051471114158630371e+00
-1.099392075958426085e-01,-7.663035797533390703e-01,9.533600535755092364e-01,-2.194952497276992098e-01,-3.972577691796648491e-02,1.732995480012174822e-02,1.552256822586059570e+00
-1.553420785371518661e-02,-7.011798718460994229e-01,7.261016213660977936e-01,-7.100019328874539182e-02,1.915193811139218744e-02,-7.341152000180790373e-03,1.242987632751464844e+00
-6.194747605420406616e-02,-7.004653216552929607e-01,7.156044292630991954e-01,1.405646756178214468e-02,-3.974246018018082194e-02,4.892157120612367072e-02,1.233403325080871582e+00
-4.992968816099418311e-02,-6.555264763346816403e-01,6.713817952276863732e-01,-5.882388862560295438e-03,-3.526109565366044446e-02,1.880861308219075947e-02,1.152717113494873047e+00
-1.410257464634607355e-02,-6.211744352628574273e-01,6.026098895594442784e-01,4.320110679727800357e-03,8.762807501178802513e-03,6.484205251139961088e-03,1.060033798217773438e+00
-4.930939937486733537e-02,-6.215807508569753947e-01,5.847617398910169850e-01,4.922225223000062957e-05,5.546975266665717282e-03,8.836370128333837989e-03,1.045336365699768066e+00
-2.355015542244409655e-04,-5.727648864057938161e-01,5.721848691416642207e-01,2.883691445741749446e-02,-2.143616750104472991e-03,1.084043015331345727e-02,9.929972290992736816e-01
-1.022872578371940289e-02,-6.266386228742023556e-01,6.316332617391657855e-01,3.576593089328872210e-02,3.519725873462949128e-02,-1.145463685437366364e-03,1.093231916427612305e+00
-4.429571191910484929e-02,-6.075562493201869252e-01,5.952834348728038849e-01,5.535718624354792061e-03,4.763569994473430130e-02,-4.886811741356478396e-03,1.045726895332336426e+00
-4.991698226100264868e-02,-7.225039298085136341e-01,6.803897623737736877e-01,1.157869588184923769e-02,1.112039783757080152e-01,2.136988929677787266e-02,1.231173038482666016e+00
9.779059017454449013e-03,-5.283054585203196263e-01,5.812246899146985557e-01,1.806154020404544466e-02,-1.666852305918016877e-02,-6.669907808549297920e-03,9.620378017425537109e-01
-4.548642112894996786e-02,-6.200674496849847284e-01,5.704311247966215026e-01,2.783467235700167255e-03,5.381413157684030585e-02,-3.502331769072139500e-02,1.037199735641479492e+00
-1.601975276908914128e-02,-5.913053646302206534e-01,6.001898225976199930e-01,-7.985942131471553476e-03,1.542647815674703764e-02,8.499323236725427055e-03,1.032611370086669922e+00
-4.601548882832212639e-02,-6.259073402098841443e-01,6.001874627440385579e-01,-3.232517847054518396e-03,5.061973759941082451e-02,1.324957854420631513e-02,1.066220283508300781e+00
-2.272353758586094161e-02,-6.270623435241556853e-01,6.344294215615963184e-01,-2.752387236325501505e-03,-7.058273374908689488e-03,-1.353246935129283476e-03,1.092884302139282227e+00
-3.530372852253124694e-02,-5.886279319784833985e-01,5.992496730537840710e-01,1.490531222471710559e-03,-7.594791740955440275e-03,-1.044459015310738453e-02,1.029779791831970215e+00
-3.585135971477528688e-02,-5.428375234202512667e-01,6.074195865741733869e-01,1.574179703754454915e-02,-1.945398277040888413e-02,-1.494445902644574685e-02,9.997553229331970215e-01
-3.733269217828366626e-02,-5.816156856357916904e-01,6.163419364432092262e-01,-4.001016646757077182e-03,-1.918756783370608940e-02,3.943661682257889288e-03,1.039479494094848633e+00
-3.608009616371236905e-02,-6.035088447466444572e-01,6.199777033808611115e-01,2.293013197263071216e-04,-1.946558748695479540e-02,-2.473302206457075533e-02,1.061897039413452148e+00
6.373164559148649863e-03,-6.046078950748453584e-01,6.128719370295747648e-01,8.872650430915909880e-03,-4.135596222551078351e-05,-6.461637782500018017e-03,1.054542183876037598e+00
-1.069792179264761334e-02,-6.167724720140245198e-01,5.651499027062450997e-01,-3.524616390826633416e-02,-8.316129594314447928e-04,2.932838950356320140e-02,1.026763439178466797e+00
-5.107925548886654843e-02,-4.870442571815513100e-01,5.991079175306972537e-01,1.512458410853586947e-02,-7.112465371392214832e-03,1.299029813557088520e-02,9.474238753318786621e-01
-6.140368807608487245e-02,-5.145071203185910269e-01,6.752276649773223394e-01,4.774173012751076195e-02,-6.985219535106249652e-04,-4.389951206158108910e-02,1.046097278594970703e+00
-3.245973076447053463e-02,-4.578590307301012019e-01,5.833708059717676031e-01,2.076122581426770308e-02,-2.596035457256076068e-02,-2.682501215370301437e-02,9.097578525543212891e-01
3.803143358048767519e-02,-5.964656451024922257e-01,3.906797615515894551e-01,-6.542812098842390282e-03,1.887939526938283525e-03,-9.637802352600770631e-03,8.666715025901794434e-01
-1.676758796995570303e-02,-6.208865546557856829e-01,5.979100574666211809e-01,7.434589837368416054e-03,-3.259267512427345935e-03,-2.459035281657929659e-02,1.056474566459655762e+00
-3.474513445843072784e-02,-6.212873321386979120e-01,5.749158652162074112e-01,1.057433780633508166e-02,2.120935791778923250e-03,4.181597562774172321e-03,1.036200523376464844e+00
-5.935885661827207394e-02,-3.682869701872267809e-01,5.641375558574210913e-01,2.399378058798320654e-02,1.873566444536372416e-02,1.567698033142201838e-02,8.248135447502136230e-01
-1.342625482157875846e-02,-6.224683328268810767e-01,5.352916963630027780e-01,1.362525778506720221e-02,-8.763489056953345860e-03,1.440899598169678025e-02,1.003805875778198242e+00
-2.084226889555546025e-02,-6.302463876960642253e-01,6.000091217115859354e-01,2.656366516265762628e-03,1.004982655506544281e-02,-5.106581313828398175e-04,1.065600395202636719e+00
2.310713078709366458e-02,-5.925873445660362338e-01,5.866395080604251966e-01,-1.801971758123770140e-02,1.048664185273447819e-02,-5.202520168773665590e-03,1.022251129150390625e+00
1.740602352489969973e-02,-5.967938524705033165e-01,5.905334927302490211e-01,-1.804671774954672145e-03,3.978498627797885309e-03,2.789061868031340180e-03,1.028499841690063477e+00
2.317440067826004660e-02,-5.961508709129391681e-01,5.898308785115646824e-01,-2.378549683609515551e-04,-2.050798965905134899e-03,1.652722827259304594e-03,1.027438044548034668e+00
-4.637415086275854803e-02,-6.279725936768928429e-01,6.226796588173495461e-01,5.333463739284100176e-03,1.700533930362735022e-02,-1.872872157884080844e-03,1.084423303604125977e+00
3.595253955967082481e-03,-6.228320747052594752e-01,6.291755863394223880e-01,1.920330138048126703e-02,8.813615896492812615e-03,-2.226237569815796812e-03,1.084894776344299316e+00
2.583030048785645016e-02,-5.841260678354802671e-01,5.840450309779215976e-01,-3.439983865747357240e-03,-2.147751386226518259e-06,-2.355162676373767812e-03,1.012022376060485840e+00
-4.567689031748330131e-02,-6.262011924613701819e-01,6.124071978380210002e-01,-7.670392878668790340e-03,8.625901388771581302e-02,-3.678018169634139634e-02,1.085667371749877930e+00
-2.238365849155742049e-02,-6.221420893922254836e-01,6.035405723728058947e-01,4.775067343959523217e-03,5.781216313349532565e-03,7.797511715165745226e-03,1.061718344688415527e+00
-2.679947579443805322e-02,-6.361660294186739506e-01,6.043595190419337460e-01,1.593857537013707547e-03,1.012407661251963015e-03,7.004921626615047501e-04,1.074387550354003906e+00
-2.682437413149098976e-02,-6.358248937850461413e-01,6.043006552329286407e-01,1.393377234315458209e-03,2.015297047168996235e-03,-5.835179384307372563e-05,1.074045538902282715e+00
-5.225477437099962374e-02,-6.136990004792518549e-01,6.162602879926109001e-01,-3.125317997380870020e-03,2.295592152163278624e-02,-2.916685853079788166e-06,1.067275166511535645e+00
-1.787065733651463026e-02,-5.836969018709243784e-01,4.618864959592101638e-01,-7.315194989126450574e-03,-5.714494755290448758e-03,3.732566394585862344e-03,9.066894650459289551e-01
-2.848959373556940455e-02,-6.464615067644960966e-01,6.592654978855828629e-01,7.939888550138045342e-03,-4.283525980165859767e-03,5.533823000269448523e-04,1.131439208984375000e+00
-2.297861056667366286e-02,-6.322208193980547453e-01,6.010372763423141862e-01,4.106650973924892006e-04,4.211734901237798763e-03,1.544994136086205077e-03,1.068086862564086914e+00
7.899022313448229513e-04,-6.109046964301853011e-01,5.984326326523405903e-01,-2.811435043115242862e-03,4.389671958163001969e-06,5.584668632334975277e-03,1.047396421432495117e+00
-2.629764591085335945e-02,-6.345801243910065281e-01,6.043658543487676615e-01,5.877619679964153502e-04,-1.972695538456702244e-04,-2.854307642216401410e-08,1.073017597198486328e+00
-2.757220526916111941e-02,-5.917571709088751408e-01,4.902654885604711410e-01,-6.931492849970503738e-03,4.425167170962736318e-02,-3.569179535637027802e-03,9.405710101127624512e-01
-2.965767937114322655e-02,-6.317894991631463064e-01,5.985876406856780463e-01,2.388345775473179645e-03,4.674323025307160206e-04,3.017779533881569110e-03,1.065639019012451172e+00
5.281813273676982945e-02,-6.780103607091506612e-01,3.223003632432666077e-01,-1.467971383824392398e-04,-1.023748431743716630e-01,5.514054028282500824e-02,9.188250899314880371e-01
7.611744026076522340e-02,-5.990481523783141027e-01,2.261965712190689426e-01,6.129513061349275115e-03,-5.584977416200916783e-02,-1.046218148881433241e-03,7.675768136978149414e-01
1.529499751847004374e-01,-1.054903497188487860e+00,1.774943814720664759e-01,-9.729406489561548410e-02,-9.481091159406124236e-02,-7.854648839586007847e-02,1.250213146209716797e+00
7.831572091020030935e-02,-6.824561155810557889e-01,2.153366776968860807e-01,1.152446121127119472e-02,-1.355123276232498009e-01,9.132004162334310393e-02,8.844758272171020508e-01
3.823620136080280174e-02,-6.942680289033911212e-01,2.103317270273881712e-01,-1.674637396077473597e-02,-1.849324859008584787e-01,7.452445979671253051e-02,9.013007879257202148e-01
9.843097764457273136e-02,-6.430267863779447479e-01,1.355664442617581233e-01,-1.305118895596950497e-02,-1.415106896181438645e-01,3.037779455152889337e-03,7.995545864105224609e-01
9.975161062671783485e-02,-5.662257544943918308e-01,1.041333915354750728e-01,1.658063714663095267e-02,-1.414139034964497221e-01,-2.347390660026164519e-02,7.133966088294982910e-01
-6.222480370362160063e-02,-2.965627632191790153e-01,5.691056877849212103e-01,1.599072979380695703e-01,-1.055058406621914441e-01,8.707274050972943491e-02,8.569058775901794434e-01
8.345738434534394345e-02,-7.017660073833275058e-01,2.637281330858596839e-01,6.360655225399434141e-03,-5.649241558712261857e-02,-9.772547170697159884e-04,8.946086168289184570e-01
-1.837659323029989036e-02,-6.142337720098235421e-01,5.817106105090495971e-01,6.913900209371175512e-04,8.384599031059966623e-03,2.584551659846076144e-04,1.035822987556457520e+00
4.742676612404270187e-02,-6.471935793511708335e-01,2.503950604334574948e-01,6.740957005684296288e-02,-8.192065896750615195e-02,1.280957814368742231e-01,8.646792173385620117e-01
-6.062922745945475977e-02,-4.045840779946049959e-01,5.751268985775950249e-01,3.275811155979359290e-02,2.109430847065576695e-02,-1.149321877663440038e-02,8.637781143188476562e-01
2.032897671612873824e-02,-6.068281640420323253e-01,3.802663066681386539e-01,2.794760411312731396e-02,-5.740877510287585583e-02,5.264016439388359732e-03,8.723140954971313477e-01
-7.542023134604955437e-02,-4.858941846883936266e-01,6.004986957031661632e-01,4.653002053590384740e-02,-2.380102194953590423e-03,6.159740701136405538e-02,9.595296978950500488e-01
-5.520937089956609589e-02,-5.059989130877846630e-01,5.887034050504197369e-01,-2.202963781967038834e-02,3.354469884926992475e-04,4.145635708718380802e-02,9.564079642295837402e-01
2.456728624781223669e-02,-5.487589451400263219e-01,3.594317396518595387e-01,-2.236197520390409074e-02,4.378092189280180166e-03,-1.027817109515825889e-02,7.966795563697814941e-01
-2.103871602734321000e-02,-3.454056790689644107e-01,3.259045169907159312e-01,1.489958017662695033e-01,-8.833839647167637810e-02,1.081760956676927066e-01,6.806151270866394043e-01
-4.889954942188373677e-02,-6.001331694743240464e-01,5.519567666921462168e-01,4.553715455718621540e-03,2.055353912007578179e-02,-1.486866605829521848e-03,9.987167716026306152e-01
-5.487906745172003997e-02,-5.986066963136517094e-01,5.731868735097642720e-01,5.301094930307883582e-04,4.698095472697534983e-03,-2.776503005948381371e-04,1.015711903572082520e+00
-5.260494629168713243e-02,-5.964875627192127716e-01,5.757626243301794400e-01,1.709867357769666871e-03,2.076355794945638697e-02,6.916136397053149719e-04,1.016718149185180664e+00
-2.759903852753941775e-02,-6.140249556922166008e-01,6.050102523500903162e-01,1.871164809868412163e-03,-1.383013760302315674e-03,1.094090313707624421e-04,1.055975675582885742e+00
-2.575025327062306635e-02,-6.122641486825726176e-01,5.919183491743217340e-01,3.020316686676363118e-04,2.012269074707046228e-03,4.508693026238333804e-03,1.043004155158996582e+00
3.060030229195919924e-02,-5.777889595967271585e-01,5.798733514551146495e-01,3.696001995172159930e-03,-1.873591639775797199e-03,-5.500165124438860693e-03,1.003071546554565430e+00
-2.438033873924693937e-02,-6.185372594643675503e-01,6.231057772004743311e-01,-1.672020522854367848e-03,-5.445920751671092484e-03,-3.433297288955456435e-03,1.075686693191528320e+00
-5.700797849018168773e-02,-6.005810926400698690e-01,5.786606974434970185e-01,1.149873063925405592e-03,5.618309099894308253e-03,-1.515168976681708387e-04,1.022339224815368652e+00
-1.175123675036821545e-02,-6.229019883104520705e-01,6.026721674106934046e-01,1.150312482397186555e-03,5.969185296838984064e-03,-9.441295635363741810e-04,1.061433076858520508e+00
-2.722509566466869979e-02,-6.260781553166294700e-01,6.006216769340553263e-01,2.494975595483086422e-03,8.521975815327685133e-05,8.501557792353347728e-03,1.062562942504882812e+00
-1.026214157653841663e-01,-3.337140878379616371e-01,5.655723344784261419e-01,-1.095096849066566017e-03,-5.685395332705337444e-03,5.887910806634359673e-03,8.090154528617858887e-01
-1.968433516867084884e-02,-6.256353471351311368e-01,6.022216865806816477e-01,3.770423672479865373e-03,6.722953221402811277e-03,9.355172929761736492e-03,1.063592553138732910e+00
-2.342583950513013602e-02,-6.261744093774026521e-01,6.012799225344376275e-01,2.888756081393095091e-03,-3.483960827090976358e-03,7.717806450804728415e-03,1.063176274299621582e+00
4.326135188117953556e-02,-5.741745919364915629e-01,5.702215725328585449e-01,1.062191033689665297e-02,7.616431502457396766e-04,-5.499347627084441581e-03,9.923252463340759277e-01
2.097600081363788435e-02,-5.782846380376391870e-01,5.845381164817038400e-01,-1.818284369667605080e-02,-4.075353816231989099e-04,-1.258740899302915285e-03,1.007687091827392578e+00
7.917897738412255082e-03,-5.989103129886924615e-01,6.003415433092416098e-01,6.764494983187155190e-03,5.327340881904066988e-03,-9.904672835880212051e-03,1.038856267929077148e+00
3.368596078967713014e-02,-5.128006934189454080e-01,5.601152507583558871e-01,3.694887206299199423e-02,-6.467573434616328068e-04,7.037069104378020946e-04,9.314292669296264648e-01
2.579648907544435099e-02,-5.741698806743539274e-01,5.823582164216777324e-01,-6.065252085879524122e-03,3.672050998128997584e-04,-3.115577684783122584e-03,1.001887679100036621e+00
2.587586343899210203e-02,-5.763674650802670385e-01,5.846077473618368492e-01,-7.343486851284022204e-03,-5.937820901303254590e-04,-9.810690087262464998e-04,1.005751729011535645e+00
1.965765321989194556e-02,-5.820951056286193248e-01,5.854036543250393798e-01,-3.625791888339181899e-03,-5.962764317042277586e-03,8.586633188400666144e-04,1.011317133903503418e+00
-2.889824315081408745e-02,-6.069763898730974327e-01,5.821748844335775663e-01,-4.388115499297024131e-04,-4.309477853127902450e-03,-5.644165452560561541e-03,1.030041098594665527e+00
-4.234259383280124245e-02,-6.222787757214204296e-01,6.185007858688402749e-01,-6.504088736236512611e-03,4.184221873529235178e-03,-2.998811603613385068e-03,1.075403809547424316e+00
-2.650604971707653731e-02,-6.217684564768271027e-01,6.148882873109339231e-01,-3.566376527378514565e-03,-8.372243470236840051e-04,-4.742659369834051168e-03,1.071274757385253906e+00
-6.807959300937349578e-02,-7.493998915268254013e-01,7.402170163071214448e-01,-2.097412949699383466e-01,-1.220825919096426015e-01,4.495891296476687421e-02,1.360514760017395020e+00
8.848168801810123510e-03,-5.886036214210664808e-01,5.865984075842214374e-01,4.640134982838025493e-06,6.796595857042595640e-03,-1.134452707037972644e-03,1.017872452735900879e+00
-3.478489099744092039e-02,-6.161159690038511272e-01,6.203278800154884420e-01,-6.976657079728796305e-03,-5.324770745801222366e-03,-1.448308095987431258e-02,1.071828484535217285e+00
-7.092931297245362587e-02,-6.164633576624768407e-01,5.990981084830602210e-01,8.463221613923443271e-03,-7.176205205041680246e-02,2.720307101242133360e-02,1.062991619110107422e+00
-7.394323548049400174e-02,-3.116637563716189163e-01,5.518845390728793765e-01,2.930529235225373674e-02,-1.190963820280082665e-02,-1.899024345753269963e-02,7.752595543861389160e-01
1.781926647446065159e-02,-5.617606114882536250e-01,5.742292760686283914e-01,7.828125434020456741e-03,9.556065551891160248e-03,-1.846199656807232491e-03,9.841021299362182617e-01
-2.332351607597344181e-02,-6.219497221550708277e-01,5.909445807671922513e-01,-2.265659012630450667e-03,-1.274246692460656019e-03,1.283943801980482260e-02,1.050671458244323730e+00
-2.295420810394953673e-02,-5.782660417631610983e-01,5.704839195825349707e-01,3.055627140503706322e-03,-1.045585570978632348e-03,-2.056758377978229468e-02,9.956824779510498047e-01
1.679534796217001247e-02,-6.203409988536252584e-01,4.702619099515913392e-01,-6.094478081538944395e-04,3.349912294200311363e-02,-1.191214374006404481e-02,9.509406089782714844e-01
-4.211740275544843815e-02,-6.442628480248703271e-01,6.535678638410091779e-01,-1.622170102856635571e-03,2.002972251328118472e-02,-4.438300720902428305e-04,1.125465631484985352e+00
3.784145183145107283e-02,-6.075665764115821821e-01,4.114267863946406423e-01,-6.183219379906445927e-03,-2.717219214148670903e-03,4.091199383657356109e-02,8.957626223564147949e-01
-3.939438857529382193e-02,-7.333521361379108372e-01,7.832652340931601787e-01,-3.260803196366782175e-02,-1.541057727823663855e-02,4.358669734869521998e-05,1.316487550735473633e+00
-6.605080415909400648e-02,-3.676271467415221372e-01,6.786042573493487051e-01,1.648937678746346114e-01,-1.471575629646648675e-01,-7.126400882810988990e-02,1.015776276588439941e+00
-1.985087149128119538e-03,-6.159099287478818630e-01,5.313412979328844266e-01,-8.469502826634854598e-03,-1.475305610917677446e-03,1.987932730243234178e-02,9.950730204582214355e-01
-1.216864280412795901e-02,-6.160800977289919711e-01,5.242204947051263275e-01,-7.572700508716000665e-03,1.156145784011985977e-02,1.908525246577591136e-02,9.889487624168395996e-01
-2.785966850689583843e-02,-6.387113386622306210e-01,5.938724964262589445e-01,7.957167672299814143e-02,8.490354037863440118e-03,-6.080201987431561872e-02,1.081563115119934082e+00
-1.874278544139938024e-02,-6.279747067283594220e-01,5.728728308723374241e-01,-3.147466337910263378e-03,5.587387365953789056e-03,-7.632167936985893852e-03,1.040145039558410645e+00
-1.266061284003481072e-02,-6.144523515068524011e-01,6.329472172727182988e-01,-3.266568249735124583e-03,5.616493954585847180e-03,-7.277189662874574555e-03,1.080633997917175293e+00
6.909999676536673907e-02,-6.148066131509754007e-01,3.235770336343259390e-01,-1.562691700798445396e-02,3.772846661585586153e-02,3.887205462295981878e-02,8.462041020393371582e-01
-7.151023718673998886e-02,-1.615266240210954107e-01,4.218039060027466425e-01,-5.491402204770642892e-02,6.786571368017979555e-02,-8.520258205019903830e-02,5.835327506065368652e-01
4.277992673749248659e-03,-5.544904057010924259e-01,5.817302102385983886e-01,-7.522108791893022083e-04,-7.620861543230572112e-03,-2.311198799062647198e-03,9.841377735137939453e-01
-2.289108068457061662e-02,-5.768363320502930547e-01,5.920744603244835202e-01,-5.753113335456702150e-03,-8.507994095569525878e-03,9.480614675685549234e-03,1.013055443763732910e+00
-4.058715896818580748e-02,-1.615285430098170605e-01,3.921550093275730786e-01,8.488658905021814749e-02,-5.534254931695073432e-02,-4.433051891662976446e-02,5.393794775009155273e-01
-6.566640194809399839e-03,-6.174726377368436880e-01,5.284751458663313750e-01,-1.099647690655598808e-02,2.260135142138694486e-02,8.106463588507891241e-03,9.941973686218261719e-01
-4.110435605197090836e-02,-5.275220595345534447e-01,6.342971156617913664e-01,-6.504315611299552047e-02,5.515615293434542044e-02,-7.965927765611206801e-02,1.030607461929321289e+00
1.366539337155072212e-02,-5.798707772714105646e-01,5.933105968616566583e-01,5.715475654226825734e-03,-3.308737815027064356e-04,-4.316577613633369205e-03,1.016104459762573242e+00
1.391926668167766876e-02,-5.923017846837357325e-01,5.873803751237849369e-01,-5.838694977124457910e-03,-1.307215401206221917e-03,-3.473550494369153415e-03,1.021836280822753906e+00
3.891053020846485522e-02,-5.605010679264821327e-01,3.340807118766515593e-01,-5.449944418592539419e-02,3.186597580864450330e-02,-3.176129994873990586e-02,7.989563941955566406e-01
1.890051190615049670e-02,-5.996115169605045203e-01,5.912291798057849324e-01,-9.238247387870879290e-03,-2.911735635052600715e-03,-3.068875994123813639e-03,1.031706929206848145e+00
-1.959422053372264147e-02,-5.776785138808333553e-01,5.282088269592749574e-01,-4.065080303444665658e-03,4.313650692565480088e-02,-1.374885370556915183e-02,9.609711170196533203e-01
5.630074211611363344e-02,-6.931161260429999915e-01,3.547437606606907989e-01,-4.609864192440760872e-02,2.989294411905392412e-02,-4.022852434484989331e-02,9.424771070480346680e-01
3.001829461353232309e-02,-6.045610702724379948e-01,3.975586093182284508e-01,-7.507383258036295741e-03,-1.786027289561637962e-02,-4.681180790240665329e-02,8.824456930160522461e-01
3.965626082077038095e-02,-5.593190301696238098e-01,3.606900775792842295e-01,-4.632366650722163914e-02,6.721572558512693696e-02,-2.262150174344248685e-02,8.219805955886840820e-01
-2.509866978612428773e-02,-6.253313919865705062e-01,6.144018533365178669e-01,-1.249405324076577860e-02,8.902866917657785428e-03,4.613644245699688971e-03,1.074178457260131836e+00
-1.343123113328616560e-03,-6.024588779711933517e-01,6.003669574527130681e-01,-6.399860267878272613e-02,2.384860886406046931e-02,2.133259200640254261e-02,1.049024105072021484e+00
-2.446576485022972439e-02,-6.047271348759891696e-01,6.156558287943524332e-01,-2.544525377540213674e-03,7.799679604234197733e-03,-1.862914070925946602e-02,1.057893991470336914e+00
-1.550764794632491367e-04,-6.351332018960830217e-01,6.063153008285981915e-01,-8.335377174404181785e-03,-1.339824864607831604e-03,1.025907303080337424e-02,1.075466632843017578e+00
-1.207765798399538723e-02,-6.085513966782090112e-01,5.126802397653631438e-01,8.930966365797406506e-03,4.866754479496375463e-02,-1.386115392297745594e-02,9.757444858551025391e-01
-4.319600134385695456e-02,-4.205657586366139955e-01,5.745210446164185081e-01,-9.143492097239094840e-02,1.792332493600278312e-02,2.363623184149293496e-02,8.858954906463623047e-01
-4.131758908998604818e-02,-6.222399850495345941e-01,6.283452942403647823e-01,3.014564383618829370e-03,7.661136201873782262e-03,-9.580855538236246471e-03,1.084167957305908203e+00
1.162658988717537867e-01,-5.579331143269434801e-01,6.054636942327257243e-02,-5.881880980053952324e-02,4.936160548839607642e-02,7.591432085643843967e-03,6.617737412452697754e-01
3.524938490886312531e-02,-5.976543868064028153e-01,6.021499065350727209e-01,1.826531553853920353e-02,5.280723260603873738e-03,9.087142024152040920e-04,1.040107607841491699e+00
-5.296530292531398398e-02,-4.108909259707288486e-01,5.627328611218174181e-01,9.717653342762330379e-03,-1.775855631689612218e-02,3.547633801703693138e-03,8.537191152572631836e-01
-8.908825225507271267e-03,-6.553620630557400739e-01,6.228291995102066547e-01,-2.074186094852985968e-02,2.493940025022955628e-02,5.677193457120118317e-03,1.108439087867736816e+00
-5.070049824207581435e-02,-5.980036144802680642e-01,5.516784461590110711e-01,-5.750242194918984409e-04,1.705290380706305994e-02,5.581085535954195907e-04,9.964734315872192383e-01
-5.312171961262467101e-02,-6.025227183486373539e-01,5.719524685324242075e-01,-7.435643582522923588e-03,1.781391307142015518e-02,1.639698549939950113e-03,1.018381834030151367e+00
-4.317599447769610022e-02,-6.005607598604172370e-01,5.709030629416271818e-01,-2.770245127195938416e-03,1.240651456657743817e-02,-9.993034194983080494e-04,1.015153646469116211e+00
-5.063315418846681126e-02,-5.962225325355789973e-01,5.516896726905886617e-01,-3.617668147135829661e-03,1.883007349407643527e-02,-3.506777662710659988e-04,9.950802922248840332e-01
-2.599756280328487795e-02,-6.185810499139642316e-01,6.212752727241860340e-01,-5.813918080888891456e-03,-4.740834886536518869e-03,1.307598940725469405e-03,1.074176192283630371e+00
3.342732338844046913e-02,-5.599082013412263192e-01,5.705598062902690337e-01,5.656307293032653005e-03,5.590837730183494591e-04,3.655214339333225527e-03,9.794871807098388672e-01
-1.069588992594788790e-02,-4.270526233378246772e-01,5.500320145491609525e-01,1.048295746847288830e-02,-2.782738764373616364e-03,-1.844104254234309008e-03,8.494672775268554688e-01
-4.275878427133560089e-02,-6.594142097178261608e-01,7.512527868884993909e-01,1.819127527773022057e-01,-1.189750847776849807e-01,-4.224449047815545533e-02,1.283528566360473633e+00
-1.737167176159340812e-02,-5.899026267058166129e-01,5.432330363899615655e-01,2.500277806804113070e-03,-1.167200989873413801e-02,-1.244702666297440967e-02,9.817968606948852539e-01
2.776943143843755082e-02,-5.695452201531205905e-01,5.801368153897918933e-01,1.206708244174006794e-02,-6.066224354924434729e-03,-6.892235013567335651e-03,9.962536692619323730e-01
3.804001459170825578e-02,-5.976685465860483992e-01,5.838866864360010567e-01,1.832108440222536203e-02,2.707473205868822920e-04,-9.264326604747290250e-03,1.024860024452209473e+00
3.387426159013246646e-02,-5.613611860057330372e-01,5.710979335878517693e-01,2.831973384525189250e-03,-2.451980657220809764e-03,-4.496855210900586181e-03,9.812195897102355957e-01
1.799056025923510133e-02,-5.744671042891887902e-01,5.863289269329482467e-01,9.509565523272721149e-04,-7.166972252008100772e-03,-4.141436552397593888e-03,1.005454778671264648e+00
2.669136760378499479e-02,-5.498983349264932041e-01,5.740079313227823832e-01,1.602494017471275609e-02,-8.923163228912584649e-03,3.042808911787617883e-04,9.739598035812377930e-01
-2.383182107203998118e-02,-6.092202159843562725e-01,5.893670477968148136e-01,-5.884088313230934617e-05,1.055950481053673186e-03,-5.899969431263160299e-03,1.038152098655700684e+00
-3.442487171779345934e-02,-6.109559256327348198e-01,5.986844455926483288e-01,-3.109278897039748947e-03,-2.852456030955694780e-03,2.120101437782258898e-03,1.047993063926696777e+00
-9.980132351074758046e-02,-2.386345963339145393e-01,5.377812660066710881e-01,8.986847925971574655e-03,-1.847024400291281954e-03,2.788187264645377791e-03,7.173421382904052734e-01
-2.531286346517112873e-02,-6.076545242169256733e-01,5.861995704078087899e-01,1.160503463934917405e-03,-2.443362281803857731e-03,-5.657648035740103949e-03,1.034067869186401367e+00
-2.452879963577853182e-03,-6.025226575232726089e-01,6.040816088330663858e-01,5.199334221675832104e-03,-7.815084280977440886e-03,-6.760913833729113864e-03,1.045147061347961426e+00
-3.524196021092155379e-02,-6.617966255147393895e-01,6.663423099855054765e-01,-1.626062414954066240e-02,-3.627321618531600955e-02,-2.478212552900423832e-03,1.152879476547241211e+00
-1.449211017929240980e-02,-6.664470347967844654e-01,4.691750788504662761e-01,2.622819985493876072e-01,-2.010501926415377005e-01,1.716246771866381526e-01,1.179115176200866699e+00
-2.711868794141485128e-02,-6.131951395055376119e-01,5.976456614986294102e-01,-2.773027395695674209e-04,-2.796498049905477229e-04,2.034573793367666292e-03,1.048803448677062988e+00
9.016384607767137516e-03,-7.442022582960449162e-01,6.473819164926376546e-01,5.068810011660090931e-02,-2.167877823807983495e-01,-2.845976642246231605e-02,1.267598628997802734e+00
-7.282938584991466291e-02,-7.454994849219983566e-01,7.593985153668412202e-01,-1.894091939595319574e-01,-1.403695159290002659e-01,3.026399250835444532e-02,1.369083404541015625e+00
5.820542155722489841e-02,-5.904163369983262966e-01,3.429144625502789090e-01,4.442512539201494241e-03,1.388258069278935046e-02,-3.585824622279523005e-02,8.312236070632934570e-01
3.133703839459747731e-02,-5.979204241274365117e-01,3.900337483641092007e-01,-2.948788631710792113e-03,4.783452383271362407e-02,5.456489829442105408e-04,8.701909184455871582e-01
5.382296605269548673e-02,-5.954270959194439827e-01,3.224321909513018780e-01,-1.134497569912389569e-03,1.046760496161651356e-03,-6.136580812992254233e-03,8.174296617507934570e-01
7.415960600563376026e-02,-5.923254176401071547e-01,2.754716364330959122e-01,3.325977574366467075e-03,5.651376294730940664e-02,4.301013810833143915e-03,7.928243279457092285e-01
4.651975200035057822e-02,-5.878249809332012354e-01,3.213243487188713887e-01,-4.660563539862522253e-03,1.003791701539218963e-02,-4.744864817619086155e-04,8.078364729881286621e-01
7.395185380593985447e-02,-5.938672163043572372e-01,2.684763568221789631e-01,5.353787543172707376e-04,5.133362801351518123e-02,-5.131995356916244262e-03,7.884888052940368652e-01
-1.366058888447043221e-02,-7.291877153247428023e-01,6.825436288583247579e-01,1.996296559845983296e-02,6.541677256473577007e-02,-1.178713252756320197e-02,1.228528738021850586e+00
-2.202877874808874606e-02,-5.856418692040039620e-01,4.501409994473183351e-01,-7.330882951296574003e-03,-4.219419856900804948e-03,-1.350826108479797824e-02,8.986029028892517090e-01
-4.580621071957426127e-03,-5.871114585501474581e-01,4.390838591977315741e-01,-1.563970237603473645e-02,-3.883245335700092477e-02,-1.584493488108806858e-02,8.947845697402954102e-01
-3.561889675871929284e-02,-6.448392344926495712e-01,6.582710508669886718e-01,7.823266579325761135e-04,-5.251153989128441203e-03,9.441791716913392959e-03,1.129476189613342285e+00
-3.377322599977368445e-03,-6.055611027128343649e-01,4.814647890323434654e-01,-8.657762785980792353e-02,-2.067602849583419777e-01,8.523249330005847058e-02,1.030626773834228516e+00
-3.420637264338558664e-02,-5.864686682328945633e-01,4.736547887625836006e-01,-7.725399183196540384e-03,-2.479437667264608458e-02,-1.222552849279521028e-02,9.197069406509399414e-01
-3.873696876242412740e-02,-5.913398850051417854e-01,5.032827533445957124e-01,-8.477040071620813369e-03,-2.168497908881637792e-02,-4.272302576364645638e-03,9.488720297813415527e-01
-4.087714486045408019e-03,-5.821128330789583361e-01,5.927520864892573682e-01,-2.413668477597671804e-03,1.020705400128681453e-02,4.994635274709746144e-03,1.017705321311950684e+00
-3.485747799102931893e-02,-5.996762702567397518e-01,5.202970508176696374e-01,-2.044656913811885700e-03,-6.063278853410550284e-02,4.501698156601884396e-03,9.756438136100769043e-01
-8.609736497489542395e-03,-6.036609762454410166e-01,4.555884309371007745e-01,-1.527576798340042445e-02,-3.270781192633837042e-02,-2.625684975578339644e-02,9.229113459587097168e-01
-2.413920073928074728e-02,-6.185520271245359414e-01,6.077186272780527032e-01,1.288755529590464299e-03,-1.308760600164328566e-03,-4.859825082039693415e-04,1.062151670455932617e+00
-2.487980661371198485e-02,-6.181438686148348349e-01,6.033274146788847325e-01,3.075251602703277243e-03,1.567273276431328452e-03,-2.361062442465784641e-03,1.057994246482849121e+00
-2.395957387498896807e-02,-6.196971432826234860e-01,6.071287789147448155e-01,1.259592302778289987e-03,-1.271271945746209895e-03,5.567814823241711703e-04,1.062614440917968750e+00
-3.860184868442768230e-03,-6.209604866624538477e-01,6.321581922556303024e-01,-9.198055735706077776e-03,-3.271493647107182393e-03,7.545504554413238162e-03,1.085484266281127930e+00
-2.536171307041507061e-02,-6.183983746034312778e-01,6.043116391246958763e-01,1.530039431369338652e-03,-1.958562078916831466e-03,1.122374003918679818e-03,1.059066891670227051e+00
3.429667534718151833e-02,-5.578088276602126694e-01,5.668993202726569924e-01,1.618729646709365488e-03,-6.795604702250494962e-04,-5.126353702014937010e-04,9.744852185249328613e-01
3.009244608631709769e-02,-5.878007222451799851e-01,5.867429609534592361e-01,1.040638046660291279e-03,-6.363538186416163936e-03,-9.981652056771957507e-03,1.017853617668151855e+00
1.375724092398744429e-02,-5.296218903624155816e-01,5.834071232487306746e-01,4.179142605544625133e-02,7.139859471775255283e-03,5.559216392511960071e-03,9.668417572975158691e-01
2.022333714999534349e-02,-7.267284552166334288e-01,5.384547287663020709e-01,5.996452258363831403e-03,1.803321920315373583e-01,8.718315880881156998e-02,1.155017018318176270e+00
2.280004042154663152e-02,-5.580488205365696786e-01,5.810630568862459322e-01,-1.597630126548580179e-02,1.960693529388228031e-03,-2.479409914101758823e-03,9.869676232337951660e-01
1.338477228223678393e-02,-5.952729608547846496e-01,5.848950232252548842e-01,3.487866108315577484e-03,2.565247850389396154e-04,-2.426889473925923028e-03,1.022250771522521973e+00
4.511983895732400371e-03,-6.478824718551530193e-01,6.570391137787641167e-01,4.951654426886913096e-02,-7.052761232197723995e-04,-1.201702034583141884e-02,1.133536815643310547e+00
-4.332134850083492472e-02,-5.984689572894186238e-01,5.443054902853848853e-01,-8.396057638233955442e-03,-7.287043703094915614e-03,-6.579874325294172120e-03,9.900578260421752930e-01
-2.366606078690221965e-02,-4.385482316778898659e-01,5.680892071218732742e-01,3.793128062747035123e-02,2.180498484511281254e-02,2.373427798335108266e-02,8.804787993431091309e-01
4.422373896215264777e-02,-6.681520208332125677e-01,3.976587898808520150e-01,-9.094627933305848497e-03,1.135508810133202678e-01,8.795212466502307092e-02,9.727848768234252930e-01
2.465575906521901700e-02,-5.982398373490374066e-01,6.030481609627407202e-01,1.722556784131066068e-02,1.392488249279050195e-03,1.906546116149766519e-03,1.041019558906555176e+00
-2.032824797635327321e-02,-5.661165842847393215e-01,5.911826040902797841e-01,-2.085587379116087339e-03,1.864836072157794247e-02,-6.149211870843306234e-03,1.003372192382812500e+00
1.486604468264440815e-02,-6.297520914781327139e-01,4.740504038599372416e-01,1.899856483302895648e-03,1.842303772839025411e-02,-1.866236610385092407e-02,9.614859819412231445e-01
2.500645586189974290e-03,-6.094126498607017606e-01,4.897937929026671133e-01,1.349519927129860276e-02,6.980400466391570302e-02,-3.308879989716162571e-03,9.619098901748657227e-01
3.441396672983690341e-02,-5.688853029914572312e-01,5.677798271591113499e-01,7.046324086436172966e-03,1.340372100086742110e-03,-3.386319547327460312e-03,9.850975275039672852e-01
1.475607415501500874e-02,-6.512303168093253047e-01,4.321214393062772219e-01,-4.167140647302571520e-03,1.311148011270716063e-01,7.627158197992389699e-02,9.822264313697814941e-01
-8.616740294862122035e-03,-5.920254105456282945e-01,4.961698208667446597e-01,-2.314264654925944978e-02,3.116820553781751366e-02,1.930567249162393542e-02,9.462088942527770996e-01
-5.268724554347521682e-03,-6.626518830860448350e-01,5.179413915403340285e-01,-1.374533706354979200e-02,1.092352544697350464e-01,2.746317492900567786e-02,1.043301224708557129e+00
3.036165812497937377e-02,-6.440947242446466436e-01,3.655592257111445753e-01,-2.320999289133538965e-02,7.757976312477887770e-02,6.950193653520742032e-02,9.096639156341552734e-01
-5.139191034908373486e-03,-6.204695694081826529e-01,6.230323979434083670e-01,6.885705477402113278e-03,-4.187092066481633464e-03,-5.001476361007436977e-03,1.077048778533935547e+00
-4.609658003185138075e-02,-3.573887927188665881e-01,5.458509596298319888e-01,1.314106003181719079e-02,9.217873941332816942e-03,-5.002371072183636053e-03,7.952492833137512207e-01
1.908253668234381750e-02,-5.876421898376975594e-01,5.810167091875561018e-01,6.220081800407410190e-03,1.699645132211475770e-03,-4.130421257690206419e-03,1.012422919273376465e+00
-1.206333021425077569e-02,-6.104695549206193839e-01,6.069248525685284612e-01,1.724212213480154354e-02,-9.384628850179985984e-04,3.598500660566192159e-03,1.054787278175354004e+00
-1.405356383032435597e-02,-3.853495258126147238e-01,5.476009165680750801e-01,5.566220739857836997e-02,1.356537455365470872e-02,2.176174235357318174e-02,8.204414248466491699e-01
-4.433579860528553268e-02,-6.213644116855715493e-01,6.180279530623580264e-01,-4.205923180780639890e-03,-3.498474235980768461e-03,-1.279399463022881829e-03,1.074237108230590820e+00
1.965902801914512499e-03,-6.383500793433997123e-01,3.945719108784532803e-01,2.093343069746146368e-01,-2.276918040423524248e-01,1.452498358519597743e-01,1.079732298851013184e+00
1.191427700894931961e-02,-6.222490070653673433e-01,6.202691840359905173e-01,1.657924254485091189e-02,2.650069836097137393e-03,1.853177365534720454e-03,1.076527357101440430e+00
-1.334533231017898548e-04,-6.170831975926521773e-01,6.212709880783460203e-01,5.559289368832922434e-02,-3.006912630872044315e-02,-6.145796494039795430e-03,1.078073859214782715e+00
7.787112000325127625e-04,-5.998694773715514961e-01,6.379349460654609727e-01,4.367638858746468455e-02,2.796107962037218918e-03,1.297742028839942406e-02,1.075037002563476562e+00
-2.951102147351819700e-03,-6.162526776901249281e-01,6.067824517128013184e-01,1.249400148158327957e-02,-9.133148899992220293e-03,8.543788117079492662e-04,1.059521198272705078e+00
-6.549726964847168813e-03,-6.057751101894685020e-01,6.073316773502736021e-01,3.570401539116205281e-02,-2.281213313612548768e-02,-2.725971787417646487e-03,1.053177356719970703e+00
4.528539516308599869e-03,-6.076360166698910881e-01,6.034923409335575251e-01,5.462665496958490647e-04,3.388877152361005531e-03,-2.341994243881005472e-04,1.048905611038208008e+00
-2.416246287534662418e-02,-6.165992940890874241e-01,6.127351093366054657e-01,-3.533563394497930181e-04,4.994007863557459225e-04,-5.135788955681383060e-04,1.064867734909057617e+00
-5.130583773134619191e-02,-6.360227415557457853e-01,6.566365984559756619e-01,-4.250714915235989481e-03,-1.781151445730614138e-02,4.879116472004735826e-03,1.121650457382202148e+00
-2.560760575425836960e-02,-6.126058240350933382e-01,5.922762115782645997e-01,-1.884176913551986873e-03,2.038439574144512711e-03,3.557861414271427328e-03,1.043601989746093750e+00
-2.659376347144721403e-02,-6.091392056020347168e-01,6.198550962507640705e-01,-2.538297579308870094e-03,-8.926533346399138924e-03,-3.055041075872989408e-03,1.064954280853271484e+00
-3.319971745450200906e-02,-6.097948803051542743e-01,6.163006524278671350e-01,1.419962065390254933e-04,-4.436306234034011892e-03,-8.428564417918798027e-03,1.062583565711975098e+00
-3.249587799674453353e-02,-6.044937067708302525e-01,6.187843404577368922e-01,4.996272948773952801e-04,-7.272059508240291854e-03,-8.291334374439681548e-03,1.060303688049316406e+00
-6.761445066487639655e-02,-2.700319142596029898e-01,5.527692202992635639e-01,6.752140626110268717e-02,1.063467013353699801e-02,-2.624074724917077953e-02,7.533310651779174805e-01
-4.267396226318387331e-02,-4.509579997527486395e-01,7.023731141811350165e-01,1.339507818386167781e-01,7.752285475281212208e-03,2.003234736961791509e-03,1.039231777191162109e+00
-2.726935652532857732e-02,-6.011259550568307519e-01,6.144818690933701033e-01,6.559213321418082623e-04,-6.572354133651829924e-03,-3.435920966524859139e-03,1.053373336791992188e+00
-2.385164377274350683e-02,-6.688883508108867115e-01,6.462920611936801008e-01,-6.208181610428237934e-02,-2.175496921300088329e-02,-3.068288092732072980e-02,1.145966291427612305e+00
-1.586800968698041936e-02,-6.424670350738715952e-01,6.360470098065913458e-01,-1.036720977179277775e-02,-9.151754062329150313e-03,2.315983064029266455e-04,1.107557058334350586e+00
-5.155726227876112483e-02,-6.045562255888379255e-01,5.654757244475664413e-01,5.537347545753045809e-03,-7.774310116322390943e-04,4.174446321347531109e-03,1.013855099678039551e+00
-3.951607599470351867e-02,-6.197241371431150281e-01,5.841798676013028047e-01,3.681615740873442084e-03,1.879278866051048498e-06,5.661759527159712299e-03,1.042903780937194824e+00
-4.380347685306934524e-02,-6.129582470542517258e-01,5.647099308702288045e-01,8.633189880508903083e-03,-8.625876430317017465e-03,5.328941040451641917e-05,1.020299434661865234e+00
-1.494546631399600381e-02,-6.137076441179010189e-01,5.267117898669253506e-01,-1.438785299852169547e-02,3.310806406562133430e-02,2.191245676502567158e-02,9.907484650611877441e-01
-3.242379530208812366e-02,-6.103166406153018864e-01,6.002994225173852172e-01,-1.422410492199706854e-02,9.748678750849434915e-03,5.558597559361199043e-03,1.049252033233642578e+00
1.257407438703979363e-02,-5.637326697361522143e-01,2.803032078234045654e-01,-1.205700621216304058e-01,8.402614701568575373e-02,1.305586845206634650e-01,8.209943771362304688e-01
-4.779120590124232015e-02,-6.084934692532996126e-01,5.692400302372262466e-01,-8.114003067870379296e-03,-6.480873608767550968e-03,-8.839731810675119025e-03,1.020609259605407715e+00
-1.383227214201198686e-02,-6.147024703531300815e-01,5.475463499814553492e-01,-1.192367834873542427e-02,-3.655624710080960724e-03,-3.007372977990399512e-03,1.006975889205932617e+00
-1.882230039538052013e-03,-6.065738861409007976e-01,4.902921188801661057e-01,-6.743096810283400779e-03,3.709939918317167046e-02,3.181263751771792880e-02,9.554072022438049316e-01
-1.328644371161919434e-02,-5.753542801546345231e-01,5.924798838937984646e-01,4.658773242743712885e-03,1.357016551071042743e-02,-6.249376754873925584e-03,1.011973142623901367e+00
4.785801873739024825e-03,-5.883322505859476248e-01,5.857425561222704413e-01,-1.967139096269358498e-03,3.063377060533785824e-03,-3.621741230619804439e-03,1.016835689544677734e+00
-1.016873892923628696e-02,-5.960332663683254317e-01,5.915541107827105849e-01,-1.366860581438814320e-04,4.911826727402826553e-03,4.069893066628171505e-03,1.028570771217346191e+00
-6.643636538820926751e-02,-6.051664895523199972e-01,5.945015875131953731e-01,-2.819938768517105663e-04,-2.034367402260680441e-02,1.396522982975342830e-02,1.041615724563598633e+00
-4.385543768085584104e-02,-6.167642610538177639e-01,5.943462062742446150e-01,1.396260748573949217e-03,-5.871867598472179164e-03,1.066084491318679793e-02,1.049574851989746094e+00
7.763288992552238449e-05,-5.743809449264680733e-01,5.909195513569975855e-01,3.302321260105647860e-02,-1.127671074257814883e-02,-1.745225733619128596e-04,1.011021375656127930e+00
-6.193746546801835555e-03,-6.105888817976370397e-01,5.969021158598943888e-01,4.134040375166718180e-04,5.311034217162239647e-03,1.795886401010479607e-03,1.045763373374938965e+00
-6.636368697200912582e-03,-6.039395812231836969e-01,5.922240028853323901e-01,6.394688121944108392e-03,2.472767035643298056e-03,-5.248623912134100893e-03,1.036016345024108887e+00
-3.106830237847262033e-02,-6.239670641141596974e-01,5.452405241427634719e-01,-3.947585375215389124e-03,2.944557971370299898e-02,2.937751767307570511e-03,1.013916850090026855e+00
-2.227783015778042608e-02,-6.335037153928699816e-01,6.016711712146356472e-01,-1.966106422384500060e-04,5.813011963685408906e-04,-1.637204194319847836e-06,1.069712281227111816e+00
-3.107951163854194565e-02,-6.316339196978673076e-01,5.966353359037922521e-01,2.554321900316323252e-03,-2.477263551391757287e-03,2.771149414174716753e-03,1.063827753067016602e+00
-2.008183818232459408e-02,-6.089085271441642133e-01,5.761708402189809064e-01,-4.204630715761849095e-03,4.548009673981925384e-03,5.022469050977699384e-03,1.026408433914184570e+00
-3.668743906068857880e-03,-5.949307294220302911e-01,5.954030273110738625e-01,-7.182880500578318374e-03,7.398881534369332585e-04,3.003955164762114210e-04,1.030942678451538086e+00
-2.625776836183313367e-02,-6.336617367399232092e-01,6.019909514963168728e-01,-4.291471127427268326e-04,3.347496031897924992e-03,2.253246886226877618e-04,1.070173382759094238e+00
-3.024739831108096133e-02,-6.202831486471507283e-01,5.836722991670774130e-01,1.049064564573930561e-02,5.291846562391913644e-03,8.681305196376141314e-03,1.043031334877014160e+00
1.217086939236162665e-02,-5.832962305926853164e-01,5.877521558179322758e-01,6.416796651666971905e-03,1.715562588629746194e-03,6.558516235433816018e-03,1.014335274696350098e+00
-2.857495565450514363e-02,-6.200918056159095970e-01,5.749773349420013169e-01,1.054047551548863842e-02,-3.797233701242049356e-03,7.032507702086675597e-03,1.035231351852416992e+00
1.432419188207950840e-03,-6.033999509208571865e-01,5.937006253562610025e-01,5.873791081278625925e-03,-2.921473303187383571e-03,-1.733165513677827107e-03,1.036805152893066406e+00
-2.922099749884344774e-02,-6.279233845102895062e-01,5.941766994224315646e-01,6.312435060506103521e-03,2.881181529825969142e-03,1.491490535760164036e-04,1.058510065078735352e+00
-3.147683020784716734e-02,-6.273339654278506927e-01,5.987834488728012161e-01,1.767340856527411120e-03,-2.821542451683013708e-03,-1.165455160216460027e-03,1.062005758285522461e+00
-3.977604416173168705e-02,-6.196858505160360853e-01,5.842186095488751674e-01,5.985910926950609688e-03,1.555004445306233695e-04,3.319245862646927163e-03,1.042912244796752930e+00
-1.645893105181126664e-02,-6.110892887760965841e-01,5.998559874020128468e-01,1.750263219674992338e-03,9.839825773988583255e-03,1.756517226555761105e-03,1.048912644386291504e+00
-1.649226684668840537e-02,-6.159077800500739608e-01,6.022207777818180396e-01,1.526613003752867606e-03,-3.596474597483246367e-04,-1.612710862858541616e-03,1.054981589317321777e+00
-2.320917827837364750e-02,-6.168611800825126723e-01,6.009867934046780880e-01,-1.353368395336528029e-03,2.321874701647824724e-03,1.013053271793689421e-03,1.054809570312500000e+00
-2.409603295661266048e-02,-6.116950951141277848e-01,5.914470347176747911e-01,-3.393912712448213936e-03,2.097519637433373826e-03,-2.110210234008797533e-03,1.042074680328369141e+00
-1.742485610663780521e-02,-6.157921290019008342e-01,6.010317111062585260e-01,1.795020299798287902e-04,2.494037265812500646e-03,-4.260698325130781719e-04,1.053857445716857910e+00
-2.254144762893826870e-02,-6.130130727426349457e-01,6.023168996740687620e-01,-4.772355608238470050e-04,-1.730341667574852860e-04,-2.685924021501650844e-03,1.052657723426818848e+00
-4.382173730683584789e-02,-6.297782435542222945e-01,6.243105063219213102e-01,2.628602932461996788e-03,-1.594490087290761221e-02,-2.630113697657983905e-04,1.087210059165954590e+00
-1.162357870560478540e-02,-6.091469594855193348e-01,6.002173163015290802e-01,-4.160094986676101531e-03,6.453714900016232700e-03,-2.514603236820695236e-03,1.047458171844482422e+00
-2.177139626932284716e-02,-6.184705305017930144e-01,6.025433701614555382e-01,-1.074767718463173196e-03,1.577440892538236944e-03,3.100639365244933342e-04,1.057524561882019043e+00
-2.453833810361869330e-02,-6.164922492663345022e-01,6.011937172854379119e-01,-1.318623676036791321e-03,-1.095009830790712787e-03,-4.071830600244878565e-04,1.054686665534973145e+00
-5.713606677072682882e-02,-4.746160805010555261e-01,5.949697913816085482e-01,2.286945873334074106e-02,1.016983690638886308e-02,-6.106722236268105099e-03,9.347534179687500000e-01
-2.254563157250609809e-02,-6.160239997769150211e-01,6.045327003121159226e-01,-1.783614315346834789e-03,1.751066569814705961e-03,-2.250139605242871838e-03,1.057182669639587402e+00
-6.341348195128246323e-02,-4.595345063633525240e-01,5.872461829163603264e-01,-1.697798563639099732e-03,-1.544374579465906602e-02,3.203147753104397533e-02,9.175031781196594238e-01
-9.240824744032521965e-02,-2.737749479602212821e-01,5.450934316846638428e-01,9.286101406936281277e-03,3.732368818060622078e-03,-6.895080882478175216e-03,7.452294826507568359e-01
-2.171866318719565050e-02,-6.195187468789150609e-01,6.030469571656735805e-01,-1.810584852859061757e-08,-1.986149174343037173e-04,4.259274283868928431e-04,1.058859109878540039e+00
-1.219094296504001987e-02,-5.711143581167731353e-01,5.899644309594307412e-01,2.432599662931467666e-03,1.317441982600338346e-02,-4.784330514887466697e-03,1.006057858467102051e+00
-3.163029941919391630e-02,-6.043412203212404910e-01,5.246811951133275587e-01,1.339694647582468506e-02,-1.699089531947183679e-02,1.512681637904377159e-02,9.788650870323181152e-01
-5.552908393790846608e-02,-6.185669185693027927e-01,5.739245401034968053e-01,7.432464205599311619e-03,-6.911036496526426487e-02,1.258321861414439958e-03,1.040254235267639160e+00
-6.690674468911625428e-02,-6.363593702650476303e-01,6.320228048356084649e-01,-7.154897493789627583e-03,-2.330207603094761049e-02,2.122463598731478835e-04,1.101166963577270508e+00
-4.672450219164005908e-02,-5.988870750000457877e-01,5.289931873408449947e-01,4.992752460218207768e-03,-2.653501418213342553e-02,8.602737813624040594e-03,9.780762791633605957e-01
-6.052506760257959223e-02,-6.166443917372580463e-01,5.982262361915300364e-01,8.632527952239741134e-03,-5.625917056504519537e-02,1.224923050813172057e-02,1.058175444602966309e+00
-6.220049442381053034e-02,-5.960563246298036244e-01,5.585300772250362256e-01,3.676484934714588544e-03,-4.027613424009101467e-03,4.232909127437159760e-03,1.000915646553039551e+00
4.184261433683221509e-02,-5.797420512999139630e-01,3.350644251554065756e-01,-2.385481266309335754e-03,6.847872886517453704e-03,3.778129588214937558e-03,8.092028498649597168e-01
-6.108950130616458418e-02,-5.989251509435327137e-01,5.557520638322094308e-01,2.862137681157170439e-03,-3.313690849013909562e-02,6.435907314767904709e-03,1.002478480339050293e+00
6.599177009898322954e-03,-6.113012421212495884e-01,5.077204318716361797e-01,-5.785839383622564357e-03,4.742673809561553412e-03,1.165220262058713763e-02,9.711548089981079102e-01
-3.589195287141959401e-02,-6.060334017382805749e-01,5.943423743424460781e-01,3.895499344380100575e-03,-1.015346430322135694e-02,-1.809919416010618426e-03,1.040165305137634277e+00
-1.764882366679158127e-02,-6.067283684708060232e-01,5.943661910498354572e-01,3.403449573368273230e-03,-4.837679602103401970e-03,-1.973149608994668059e-03,1.040297627449035645e+00
-4.804712712712332079e-02,-6.087174243990983724e-01,5.578812530994095020e-01,6.964604382828078373e-03,-1.345228517692368536e-02,9.282572251832512528e-03,1.011025905609130859e+00
-4.885319119379528952e-02,-6.088972807636704454e-01,5.655878034320015457e-01,5.536940167796267076e-03,-1.631726142988472114e-02,1.226279710068478752e-02,1.018156647682189941e+00
-4.041392932233774105e-02,-5.976614913434605825e-01,5.575187236172465255e-01,2.989884348756667587e-04,-4.474177243839727244e-03,9.633518151387427319e-04,1.000653743743896484e+00
-6.170825779147573464e-02,-6.045034761417846791e-01,5.725060833207223920e-01,7.062397223036374731e-04,-1.744103665742429560e-02,1.131136347789207623e-02,1.020980358123779297e+00
-1.873587105462634975e-02,-6.082343806349170823e-01,5.912183363511855916e-01,-2.111693029089877632e-03,2.494648095033758124e-03,-1.131555484115525680e-03,1.038824200630187988e+00
2.831206563239720836e-02,-5.438093348576746866e-01,5.694000302293100724e-01,1.294790941660898566e-02,-5.233617826787977795e-03,-3.838798568953243062e-03,9.645187258720397949e-01
3.536167041680850220e-02,-5.579025388396112728e-01,5.738900921881099348e-01,1.808011183236791358e-02,3.118595200484759918e-03,2.182515756563598985e-03,9.810652732849121094e-01
3.683017513713447710e-02,-5.586176866610230718e-01,5.674453854191774393e-01,5.018578784727912093e-03,9.758404152419625135e-04,-3.277139060164140690e-03,9.757945537567138672e-01
-4.850988311321939583e-02,-5.978800176613487949e-01,5.590622577115250680e-01,-1.498089272113101557e-03,2.199350928265440461e-04,2.770315526283445833e-03,1.002378821372985840e+00
3.377630877781556684e-02,-5.339723830802259874e-01,5.606129477456895938e-01,1.835174897066180547e-02,-2.558835715177337679e-03,-6.747972274045926444e-04,9.487031102180480957e-01
1.940874523196726986e-02,-6.015376776600430686e-01,4.459480321660695412e-01,-2.277394715526343330e-02,5.099836579297889472e-02,2.576835309278036751e-02,9.185416698455810547e-01
-6.307993228056464619e-02,-6.002101680073934631e-01,5.695199094834855202e-01,3.838346187154072046e-03,-1.152090405460476363e-02,8.256567515234370172e-03,1.014458894729614258e+00
4.417058987193832505e-03,-5.995454757616003327e-01,5.931169920097850712e-01,-1.753908087441285535e-03,2.588792243460417974e-04,3.436635316871686392e-03,1.032925844192504883e+00
-1.967117190898200196e-02,-6.134888593451095495e-01,5.466217787394109795e-01,-3.873715278089921981e-03,-1.716270178901075152e-02,-7.543524064606241253e-02,1.013697266578674316e+00
-4.174401175283337651e-02,-6.038667397037857931e-01,5.774168504232315424e-01,-4.142472970547125648e-03,-3.991144876302549042e-03,-3.944030230173853346e-03,1.023490309715270996e+00
1.012662908434505682e-03,-6.086759277883290187e-01,4.875253176238296682e-01,-1.970877857168988265e-02,2.097452669823133414e-02,2.916448301977615440e-02,9.539773464202880859e-01
-3.163214061347562056e-02,-7.030945817865721370e-01,5.563530734326184168e-01,-5.406037039376383052e-02,4.788093409866823330e-02,-2.289689261239293352e-03,1.098662614822387695e+00
2.824359477998078516e-02,-6.069052045218611413e-01,4.068282940845913687e-01,-2.068252203498719549e-02,7.998717730285534455e-02,6.057636011919208946e-02,9.048113822937011719e-01
-1.032411370846326830e-02,-6.174532626950068881e-01,6.011869655061341522e-01,-4.414071882173668630e-03,3.575090972199146660e-03,-2.968501291152912655e-05,1.055421471595764160e+00
1.139948913572483291e-03,-4.541497302329737251e-01,2.806731207794216920e-01,3.515027933776998514e-02,2.596448880936327169e-02,-6.971867082975902186e-02,6.580328345298767090e-01
-3.881283903480537908e-03,-6.099795908821890045e-01,5.975831697998350567e-01,1.035711063405848203e-03,1.914683727612345515e-03,5.496877585222328770e-03,1.045832753181457520e+00
-2.647451018157301675e-02,-6.391137441560501564e-01,6.514107356739075039e-01,1.262623199368197169e-02,-8.327220939217313059e-03,2.547207238588956434e-03,1.118418574333190918e+00
-9.500027891616338871e-02,-3.001010924449785677e-01,6.655403851119384706e-01,-8.276522017539676701e-02,5.588356054393178382e-03,-9.989283842360449639e-02,9.094259738922119141e-01
3.319325340108207623e-02,-6.291721516104609169e-01,4.123592675528243712e-01,-2.000632223221434150e-02,7.439016237984598379e-02,4.925190625675028577e-02,9.266719818115234375e-01
1.125407928017689851e-01,-5.681242237645010018e-01,1.521769409157376907e-01,-7.349989960840985770e-02,1.989446984666254081e-01,-2.467530527720999609e-02,7.928588390350341797e-01
3.292775319135576861e-02,-5.777962631888903244e-01,4.524970940014092502e-01,9.027747498031103712e-02,2.036213000132430506e-01,9.234547234059467535e-02,9.897885322570800781e-01
-3.000156703778393552e-02,-6.308450041149540333e-01,5.957012882814556320e-01,4.902422413044191761e-03,4.882691867453455297e-04,1.864829868837299337e-03,1.062332153320312500e+00
-2.469560625076028595e-02,-6.323946920219873924e-01,6.029724442681539953e-01,1.740988497418702644e-04,3.802265891774661479e-03,9.550305697422740254e-04,1.069927453994750977e+00
-3.706245893542214204e-02,-6.212018417122312508e-01,5.936224474470281898e-01,6.827317506234743642e-03,-5.930307734465086085e-03,1.048986614327060939e-02,1.052599430084228516e+00
-1.437127684146965838e-02,-6.129813899400138322e-01,6.139710817397171505e-01,-6.270027456126960053e-03,2.300227234912652005e-02,-2.229190516822142192e-03,1.063485026359558105e+00
-3.336601466488191628e-03,-5.893058384077878298e-01,6.091370995614754369e-01,-6.405188088532226716e-03,5.252533354419750694e-03,-9.975193613802323458e-03,1.038209557533264160e+00
3.028911353987698112e-03,-6.038280770667634467e-01,5.919261226074526983e-01,5.280481983660080536e-03,9.462845202310233347e-04,-3.789375480769936223e-03,1.035654902458190918e+00
-2.456902813276324454e-02,-6.268837822640197510e-01,6.055564203502927789e-01,-4.210128017025601896e-03,-1.560027109953706498e-02,1.521537805091549046e-02,1.068107128143310547e+00
-2.011256934331683011e-02,-6.128052625170545831e-01,6.022864200717688021e-01,4.516347926595687748e-03,-2.110949139025159425e-03,1.278441978553262331e-02,1.052673459053039551e+00
-2.567297024854536813e-02,-6.160170978789497598e-01,6.027690453821880068e-01,-1.155862635016780817e-03,1.157956970149174886e-03,-7.021152113294025542e-04,1.055676102638244629e+00
-1.918418379886004804e-02,-6.138911225066061572e-01,6.026810630743598685e-01,2.095628523196234588e-03,5.414100817225401749e-03,6.648060022923091283e-04,1.053718566894531250e+00
-2.021947943958474908e-02,-6.202784764860288513e-01,6.036159665023919096e-01,7.155306665756248907e-03,1.426712793499939702e-03,1.378979539398049459e-02,1.060334682464599609e+00
-6.187793598258296834e-02,-6.129874633680204576e-01,5.857330600202333981e-01,2.407134059077046216e-03,-1.977198857618496508e-02,5.793945269265171789e-03,1.039864063262939453e+00
-5.666752711557940247e-02,-5.992305479774453492e-01,5.601568057811752155e-01,8.002924539291355732e-04,-6.763724726256283015e-03,5.791034436467761698e-03,1.004864573478698730e+00
-5.106731975798185774e-02,-6.049353198135279941e-01,5.603280717677432410e-01,8.343996339721512431e-03,-9.215437058842222695e-03,5.413871185894596379e-03,1.009830713272094727e+00
-5.829038532058550270e-02,-5.899119383034698849e-01,5.379234573821137788e-01,-1.153152957240400397e-03,-1.087000842212295856e-02,3.389911898953721584e-03,9.774689078330993652e-01
-1.930183011120683439e-02,-6.109079384453197648e-01,5.590320329291806889e-01,-9.787915596164511317e-03,8.877748686752314931e-04,-1.290314165636167326e-02,1.013608813285827637e+00
-3.500804609632968134e-02,-6.131078040720853162e-01,5.916724568284046359e-01,2.319318078336372446e-03,-1.125846203905120531e-02,-7.801478264692036230e-03,1.043930411338806152e+00
-5.855768588657017659e-02,-5.978958842908361770e-01,5.579167253047379038e-01,1.475464523130526643e-03,1.963207222907608403e-03,-2.052706481944391683e-04,1.001714944839477539e+00
-6.101691120777069655e-02,-5.943307795117547254e-01,5.574243938821390465e-01,-9.518717852616701090e-04,-1.036272814401832318e-02,-5.276440290424551892e-03,9.985615015029907227e-01
-3.911223461708988186e-02,-5.936189914849423488e-01,4.832508017304808501e-01,7.083965764569442707e-04,-5.985593451341544857e-02,4.705446281682144037e-03,9.385152459144592285e-01
-3.206893842849906778e-02,-6.083757370363281902e-01,5.738107355070757309e-01,-1.702457536155641687e-03,-3.453728782159079785e-03,-6.043259202760612597e-03,1.023985505104064941e+00
-4.539704013635900703e-02,-4.642479819287834153e-01,5.776030198411928884e-01,2.843511704251224567e-03,2.298567530666936407e-02,-1.124953412190679569e-02,9.091194868087768555e-01
-2.561163163614877183e-02,-6.290386700105149442e-01,6.028012190199404374e-01,3.652269574208344589e-03,4.206024481914857893e-03,3.486142530880906309e-03,1.066938519477844238e+00
-5.490025741484853838e-02,-5.934018384150175907e-01,5.458967386371637032e-01,-5.105576282456706153e-03,-1.241935447544291297e-02,-1.808209184014863318e-03,9.874319434165954590e-01
-3.894881035534119434e-02,-5.997320007520133833e-01,4.912614477776264810e-01,4.126727329232842550e-03,-6.023371845164030708e-02,-1.299683763295293899e-02,9.509868025779724121e-01
-5.256320834784420498e-02,-5.216895582583468416e-01,5.836164012514687416e-01,-1.478870245563991851e-03,8.469412039229146788e-03,1.921543732504483321e-02,9.615519046783447266e-01
-4.621796690867377433e-02,-5.954966305441768970e-01,5.012239508226368212e-01,8.520113352000889539e-03,-1.361813662379361169e-02,-6.385830364066787460e-03,9.502601623535156250e-01
-4.799055590625984219e-02,-5.893315245101375943e-01,5.349189364796651525e-01,2.481256315708219376e-03,-1.559750638494328961e-02,1.468799617513551648e-04,9.742354154586791992e-01
4.025805944033808426e-02,-6.394354155298818121e-01,4.035601030348892615e-01,-1.049347886147978526e-01,1.906806562590310505e-01,2.699742889710455424e-02,9.925741553306579590e-01
-4.462987589810980121e-02,-6.005207122559864663e-01,5.666753378551715459e-01,-4.067920834911322413e-03,1.748490310133714656e-02,3.863874180801758762e-03,1.011701226234436035e+00
-3.055288761861699870e-02,-6.060841031823823721e-01,5.617217096734996584e-01,-9.542119818094487935e-03,1.878015065047825699e-02,3.200246159167609772e-04,1.012042164802551270e+00
-3.388446318329783880e-02,-6.127788745330980946e-01,5.917680588830316335e-01,-4.689905550611871382e-04,4.753339376842013846e-03,-2.883397113554260396e-04,1.043463110923767090e+00
-5.144700913464907849e-02,-6.093712464713655352e-01,6.002609799876941210e-01,-4.226755092945341970e-03,6.677390086859236878e-03,5.824186499231921721e-03,1.048759102821350098e+00
-3.967559950466224838e-02,-6.088968204843844267e-01,5.899281338569332123e-01,-4.785125780712915639e-03,-2.332385730230471222e-04,3.881231703130567402e-03,1.038706660270690918e+00
-4.061807879231180834e-02,-6.094273518524579991e-01,5.982504777170185584e-01,-5.849287521318243671e-03,4.215617187997376843e-03,3.101926633843045834e-03,1.046554446220397949e+00
1.154872060444959436e-01,-6.349427101388732675e-01,1.786212787139112024e-01,1.856570053848223545e-02,-2.144197364147351625e-02,4.639994396336112603e-02,7.895447015762329102e-01
1.014178786110568886e-01,-6.739486090620000480e-01,2.082809156613424917e-01,-3.350276736889649248e-02,4.273833406514523231e-02,4.837728749972122766e-02,8.434091806411743164e-01
-6.647627296252839324e-02,-6.179047552341194738e-01,6.003528654296330647e-01,-3.362917886136903862e-03,-1.933752920981897730e-02,9.194154919203355314e-03,1.057285428047180176e+00
1.415545456533529589e-01,-5.762396402361916747e-01,8.547161513627299367e-02,-3.416776472516391133e-02,5.376504766505497968e-02,-3.162949644220416565e-03,7.002300620079040527e-01
1.800377943997916730e-01,-8.362245611942585866e-01,8.986532333355434776e-02,-2.364497763366977395e-02,-4.222580904889039650e-03,1.494788161946422334e-01,1.008981585502624512e+00
-7.013381283648705000e-02,-6.123062990488830071e-01,5.966632460254321924e-01,-2.885742310257556793e-03,-1.254113162541933835e-02,2.931582448852129361e-03,1.049100041389465332e+00
1.886373220973628501e-04,-5.398886125581155992e-01,5.794681242078061345e-01,5.217236795545535794e-03,1.641537207671699833e-02,-5.344230817150804648e-03,9.700925350189208984e-01
1.283829653169952234e-01,-6.971990973938023695e-01,8.904516703815645862e-02,-2.532760911479169704e-03,8.559036085939762672e-02,-1.322911162008995160e-02,8.204742670059204102e-01
-2.390830990312928575e-02,-6.185986491218563588e-01,6.069818342965589419e-01,3.165832798331393548e-03,-4.832489154635267840e-03,8.787425693411040034e-05,1.061585307121276855e+00
-1.847265332685577716e-02,-6.130375321587742121e-01,6.037293997765205145e-01,2.554176773998840730e-03,1.347908515616824936e-03,-5.084492770285996797e-03,1.053890347480773926e+00
-2.543515563112057343e-02,-6.160770813708069671e-01,5.949826426927972145e-01,2.792852326223736140e-03,-2.833525170653884511e-04,1.524170398517548861e-03,1.048928737640380859e+00
-2.635111976619217491e-02,-6.200846693184471903e-01,6.082856160202473328e-01,-1.393424089725033325e-04,-2.080004409621877097e-03,5.009964813944184402e-04,1.064002871513366699e+00
-2.475244342636615663e-02,-6.164834290979148701e-01,6.044248963404554864e-01,2.573957311175907939e-03,2.273684209823938652e-04,-2.475019047329979523e-03,1.057521581649780273e+00
-4.278121885374910893e-02,-5.992696687461750438e-01,5.560858660603881232e-01,-5.915172529193374676e-03,-4.113493526333346774e-04,2.166480268163540560e-03,1.000851273536682129e+00
-2.545862936413367111e-02,-6.248201092341001406e-01,5.916092780757358227e-01,1.989675352735588779e-03,9.118813982867033339e-04,3.240210011641891322e-03,1.053517699241638184e+00
8.241869166678350567e-03,-5.946661465121925172e-01,5.864869032919561853e-01,7.913777314347843856e-04,5.674690025067798127e-03,3.501464046375306512e-03,1.023048996925354004e+00
-4.868475078459953698e-02,-6.301403987660584294e-01,6.269002468831287311e-01,-5.051285923077565750e-03,-1.804837615726617370e-02,6.071767697581238049e-03,1.090180158615112305e+00
-1.404660151852665491e-03,-5.981792080602222894e-01,5.912893065953114258e-01,-4.619701995148167359e-03,-9.365685856759920066e-04,2.871235520442859033e-04,1.030144453048706055e+00
7.603819350015882106e-03,-5.851476878855623731e-01,5.853179476628915801e-01,7.639329734955846440e-04,6.970099944695174951e-03,3.321970381035575098e-03,1.013769984245300293e+00
1.278292220723761807e-02,-6.992018783054645414e-01,5.262660667579578400e-01,-7.885145709372140543e-02,1.223504515278727167e-01,3.161439166115161126e-02,1.096694827079772949e+00
-3.672255402721484770e-03,-6.055561609787226685e-01,6.000073790767050941e-01,5.931393680577921575e-04,1.902165901114403687e-02,6.507325182706201298e-03,1.044630050659179688e+00
4.875698191607585885e-02,-5.928965488249985372e-01,2.790573783769103033e-01,-4.357518235781223867e-03,6.911074609315603912e-02,5.855979886713259981e-03,7.918455004692077637e-01
-3.245069496502044071e-03,-6.251749259473359244e-01,6.000388570840321512e-01,1.705008811422183612e-03,1.930005344516836328e-03,-2.614147800222911631e-03,1.061126232147216797e+00
7.705244559188476061e-02,-6.353124889737954417e-01,2.677540628205322126e-01,-1.523979582011747262e-02,2.582548803433251661e-02,-5.697457120249052598e-02,8.319351077079772949e-01
-2.329501805995784838e-02,-6.297172866997496898e-01,6.061284091638051708e-01,-1.134083037044919572e-03,-2.755912638411369786e-04,4.065436734656816681e-03,1.070360660552978516e+00
9.254038187696222995e-02,-8.294788256629340717e-01,1.713863390943212162e-01,-4.172946854364347619e-02,-5.873923297674678995e-02,1.056798735490651064e-01,9.889960885047912598e-01
8.266527350486979620e-02,-5.854002670716463852e-01,2.490939253501728290e-01,2.423976811104768848e-03,-2.218245596520664227e-03,1.784022037792883791e-02,7.656255960464477539e-01
9.515759888455269100e-02,-5.839274951945179204e-01,2.224966214889715910e-01,5.630278616764452723e-03,1.168705029396814067e-02,1.837968953984554787e-02,7.519069910049438477e-01
6.740647473796201883e-02,-5.780334023348598915e-01,3.025427039615888325e-01,-8.541625044308983087e-04,7.425462576533732942e-03,-5.474053445925062059e-03,7.898768782615661621e-01
7.622467892310033633e-02,-5.801149526128207556e-01,2.635941587149784882e-01,-1.882194544770725720e-03,-1.368617583557008195e-02,-4.620820243716268830e-03,7.677914500236511230e-01
-2.624998563732730550e-02,-6.161459795640277237e-01,6.018224915989246471e-01,-5.378923798405703394e-04,-3.403341477742712409e-03,1.163402607439905463e-03,1.054983139038085938e+00
7.235687821899827732e-02,-6.152344096101883819e-01,3.122670975130635296e-01,5.600859185525611066e-03,4.189213112804449773e-02,2.068744104352064628e-02,8.378196358680725098e-01
-2.008874197695991598e-02,-6.125335169036741911e-01,5.986345122760697857e-01,1.664512042608800105e-03,-2.734190016804390402e-03,-8.761429343066733707e-04,1.049000382423400879e+00
-1.045549080262165309e-01,-3.040726078257620646e-01,7.363903952711091661e-01,3.386687046896540154e-02,-3.826345525260235053e-02,-7.317803317868984414e-02,9.688539505004882812e-01
-3.512959429695818037e-02,-3.357021294132490619e-01,6.105444020433061780e-01,1.194347003660758133e-01,-1.357509229199022245e-04,1.480904012444334960e-03,8.626188039779663086e-01
-6.117670896227309085e-02,-3.306314836460276241e-01,5.635261640764307467e-01,3.087098609242263508e-02,-1.265822590086284477e-02,-4.583380693540902578e-02,8.005189895629882812e-01
-2.065969845470516653e-02,-6.160506853145659711e-01,6.005358433788152706e-01,-1.475913332321821946e-04,6.136714667802886430e-05,-4.537593051655552370e-04,1.053674221038818359e+00
-7.884745144463724265e-03,-4.703745727092405460e-01,5.589823504868913773e-01,5.774989464016545143e-03,1.069004752681740160e-02,-4.006718356245844714e-03,8.932505249977111816e-01
-9.788890111892012413e-02,-4.189665442784095695e-01,6.238062897858250855e-01,-1.071832624468465472e-02,4.307715957954441621e-02,4.460215187920746685e-03,9.282382726669311523e-01
-7.492584622984732601e-02,-2.535672548326830533e-01,5.469993582623482453e-01,6.111260340232169824e-02,-9.596124979794616247e-03,-2.483753156953307992e-02,7.369779944419860840e-01
-2.464839184317378987e-02,-5.969995888721947308e-01,5.968951590170437083e-01,-1.010778218473027583e-03,-6.925527212586731103e-03,-2.387749484772933809e-03,1.034314990043640137e+00
-2.239061483265478159e-02,-6.328096148600319548e-01,6.017715617356412805e-01,1.574039709176640973e-03,3.745401370312329177e-03,-2.247091952555504632e-04,1.069223999977111816e+00
-8.565863191744038652e-02,-2.342650482523073729e-01,6.016697239544982478e-01,1.305974342322816228e-01,-1.740025587070600718e-02,-2.720916501343733501e-02,8.068097233772277832e-01
-7.476508610055579429e-02,-3.276945925959210970e-01,5.637004490822895564e-01,4.062821529690707062e-02,-1.844515280752766564e-02,-4.323523154128533497e-02,8.029189705848693848e-01
-2.208284895917069640e-02,-6.325214592286853010e-01,6.033411778156227978e-01,9.171649120572124584e-04,4.803271234612048121e-03,-1.153489224230735705e-03,1.070350050926208496e+00
-3.017165187582428187e-02,-6.323049162675569157e-01,6.071903281202483127e-01,5.009713418650334725e-03,3.340409830608394044e-03,2.290418284304140354e-03,1.073636889457702637e+00
-3.051345712298632329e-02,-6.086140966361993643e-01,5.933357885076792071e-01,-8.543464811362550459e-04,-3.784308752600245261e-04,-2.548126274015575588e-04,1.041171789169311523e+00
-2.840455856586355035e-02,-6.299104507273430853e-01,5.976885620102729835e-01,3.587328485472887889e-03,3.833929348329647596e-04,2.951489298591303441e-03,1.063233613967895508e+00
-2.599811310923727525e-02,-6.346972642630608341e-01,6.002178043184165368e-01,8.109150510936330653e-04,8.009566296073820924e-04,-1.209662289420721350e-03,1.069507598876953125e+00
-2.567127601843577009e-02,-6.355769651157389122e-01,6.054297899473133349e-01,1.044586870753196669e-03,4.472291094483369865e-07,1.478077536539057490e-03,1.074800252914428711e+00
-2.596243675857379599e-02,-6.286087269000804056e-01,5.943773272953301046e-01,1.963774018162197602e-03,2.574359132987405805e-05,2.149165040873749020e-03,1.059185981750488281e+00
-2.539804560356565682e-02,-5.727132167692063902e-01,6.283138762900349894e-01,-5.347314987153398841e-02,5.313654153086922599e-02,-2.523105070593154378e-02,1.050541758537292480e+00
-7.021032595261770398e-03,-6.133714635338652910e-01,5.225317152736231874e-01,1.890504570633858841e-03,-1.171409271358221557e-04,1.395780504639667491e-02,9.847724437713623047e-01
-1.886482143831512415e-02,-5.837103774746935647e-01,5.754028451072502603e-01,-2.636484328992352161e-02,9.453931385404073726e-03,1.125978347476173230e-02,1.005289912223815918e+00
1.218225013936956140e-02,-5.726856909856813393e-01,5.872224003139622228e-01,1.013634020709968872e-02,-8.993646997010282598e-03,-3.602425894402048762e-03,1.004815459251403809e+00
-5.924004841609917943e-02,-5.942532489117751116e-01,5.730649025929862583e-01,-3.373903533672947559e-04,-9.950727087539117804e-03,4.102490641041214338e-03,1.012268781661987305e+00
6.972488192837378654e-03,-5.924346582219909285e-01,6.010152060969464749e-01,8.882355635416779721e-03,-1.582933991037012433e-02,-4.350388204341439774e-03,1.034066915512084961e+00
-6.996780885321946149e-04,-5.953646459732671037e-01,6.039254706077246126e-01,1.054448017658289258e-03,-7.897126091099535006e-03,-4.047761230533245685e-03,1.038743019104003906e+00
8.646758847790664976e-03,-5.927410390910849980e-01,5.975209724946265455e-01,-1.694375058884648377e-03,-1.722430070529615785e-04,-3.773667674326549541e-03,1.030841112136840820e+00
-1.835375924649475243e-02,-6.164898928022012337e-01,5.956130842506732748e-01,-6.327635294082763207e-02,1.350344552117019592e-01,-4.349373493065835511e-02,1.083673238754272461e+00
-6.137302009783229817e-02,-6.622058773738052073e-01,6.755556080793696516e-01,4.039405764536829063e-03,-4.892726763842412951e-02,6.253117919250443871e-03,1.163693547248840332e+00
-5.060100431644628388e-02,-6.050504293517029453e-01,5.574000478054490504e-01,8.246639375807100769e-03,-9.028332745605820164e-03,6.691302658353958689e-03,1.007357001304626465e+00
-3.082007463620270102e-02,-7.437976687542231513e-01,6.779046992855545239e-01,-1.248027377846810115e-01,-1.112195987968371824e-01,-1.411029489508356868e-02,1.265056014060974121e+00
-6.652958354255067430e-02,-5.922668613160451123e-01,5.643124381965175518e-01,-1.476361709552783319e-03,-1.457489628237245739e-02,4.612009567002544122e-03,1.003357410430908203e+00
1.560538085153810595e-02,-6.125001359881956375e-01,5.004613628111996837e-01,1.512765565997444559e-03,4.617383388083388419e-03,1.594793001275871674e-02,9.669417738914489746e-01
-5.840032884143152997e-02,-8.024940013178420983e-01,8.226608750754310639e-01,-9.340419523934406776e-02,-8.415024455172669116e-02,1.271003226803423675e-02,1.425986647605895996e+00
8.571371562020138266e-03,-5.799212971799257987e-01,5.892365031448539847e-01,-4.568423456418268906e-03,5.339442343512507301e-03,-1.975878808699837921e-03,1.012606859207153320e+00
-1.748152583977299543e-02,-6.185455201237249900e-01,6.039571803828789331e-01,-1.477672974734393387e-02,-8.839349574184198269e-03,2.180012601493986832e-03,1.059194087982177734e+00
-4.216585782538508076e-02,-6.037144621590742055e-01,5.651084916884344667e-01,-4.799226714901987621e-03,-5.302082744229431183e-03,-2.916668547150721730e-03,1.012576937675476074e+00
-4.196983682620281791e-02,-6.752657117012078603e-01,6.604913246041527186e-01,-9.861342975918882536e-02,-1.203914162828954304e-01,1.654520972440198801e-02,1.188637256622314453e+00
-4.685973001164008001e-02,-6.129243552587506638e-01,5.858881281693133491e-01,2.156479750105032116e-03,-5.634331250085825981e-04,7.947873137959273609e-03,1.038835644721984863e+00
-4.027759637379532687e-02,-6.160067306226750805e-01,4.957328166250019041e-01,1.583702485527564360e-02,-1.099609105791807401e-01,1.908608872832838477e-02,9.825922250747680664e-01
-8.547616917064480846e-02,-5.084866959550236043e-01,6.081246947262433089e-01,6.815912124089188937e-03,4.854601365850643238e-03,1.793166352494241639e-02,9.770339131355285645e-01
-5.689960604936495497e-02,-6.842342269762291540e-01,6.399690826761131879e-01,1.360220408734954568e-02,-6.688641334545893102e-02,-1.915118164329780368e-02,1.153872251510620117e+00
-6.434811332753278407e-03,-6.133295805546795654e-01,6.070487946129080603e-01,-4.250317442974224126e-03,1.200240596324815730e-02,1.872871934389251864e-03,1.057118892669677734e+00
-6.549652078579581982e-02,-5.899887955185129096e-01,5.569172178910349880e-01,4.983186353503176944e-04,-5.213730138111593963e-03,1.446128477694281350e-03,9.945002794265747070e-01
5.464829543972214536e-03,-5.673456353916619399e-01,5.819640096430246379e-01,1.208855346761306473e-02,7.806103915256589268e-03,-4.756938001377225209e-03,9.956791400909423828e-01
-1.940055369756751857e-02,-6.326449298143453914e-01,6.021151017146486595e-01,1.127537855018655340e-03,6.015448562694637909e-03,-4.976180370851472547e-04,1.069394469261169434e+00
-2.840837362188586984e-02,-6.312859871575171589e-01,5.953366261461563447e-01,4.708780338681961899e-03,-3.718118093442043348e-04,5.863887920393773268e-03,1.062417626380920410e+00
9.274902873829329875e-03,-6.082079501071931960e-01,5.958366465110997989e-01,-6.015207316215885787e-03,6.933766132797549060e-03,4.724148333279071937e-03,1.043001055717468262e+00
5.114522822054125284e-02,-5.953139519051987572e-01,3.948939772525367764e-01,2.108217502281694872e-03,3.754706264497926181e-03,6.527642321896989265e-03,8.709051012992858887e-01
-1.200071999892094073e-02,-6.126767559757335668e-01,5.998881549782333344e-01,-4.644331258369961517e-03,-1.846299846357411431e-04,3.344090214532575382e-03,1.050173759460449219e+00
-1.383348906564330766e-02,-6.256398867866888036e-01,6.034653510843575042e-01,-1.264863117409971037e-03,7.604377795258647835e-03,6.143856987734663431e-04,1.064524173736572266e+00
3.195081070445240229e-02,-5.724298745547002909e-01,5.917673171744601834e-01,7.820259077476772805e-03,-3.063124071727212246e-03,8.964304614321251020e-05,1.008575439453125000e+00
-2.693264963727957234e-02,-6.325033005789842955e-01,6.051441237704595633e-01,8.422934395553774824e-04,8.937775759789227644e-04,2.980175878479067973e-03,1.071930527687072754e+00
2.770978127589213830e-02,-5.816017295747499816e-01,5.970736375543590491e-01,4.449759879645358296e-02,-3.736734392633996732e-03,-1.391844802233602185e-02,1.024167418479919434e+00
-2.020837675438160244e-02,-6.322075615810099913e-01,6.016458508159043816e-01,1.165835504282551746e-03,6.601073248642369117e-04,-3.743293523429264960e-04,1.068562507629394531e+00
3.581696836025661385e-02,-5.541582466439486376e-01,5.692572996283340458e-01,6.939751566320574716e-03,-4.010512693006328469e-03,-1.877102590755685757e-03,9.734213948249816895e-01
2.852250336355086069e-02,-5.686972011778765879e-01,5.831961052047568428e-01,1.047673286793635722e-02,-9.134427083424351279e-03,-8.756304978891096130e-03,9.982013106346130371e-01
3.770585407259906263e-02,-5.758300828692134443e-01,5.765965884814563402e-01,9.097936170818211182e-03,-2.255798615093619099e-03,-2.782284525631145700e-03,9.988719820976257324e-01
1.838530434904990518e-02,-5.877687474002727397e-01,5.884542993491301832e-01,7.523431739429415829e-04,6.343237402561114485e-03,-2.579999010005483342e-03,1.018868684768676758e+00
3.381602560063427798e-02,-5.912873389851843742e-01,5.882454848140891146e-01,2.815016443695046028e-03,-1.120390146247978542e-03,-3.614714733321522638e-03,1.022149085998535156e+00
-2.863900075898413722e-02,-5.577059957007947100e-01,5.920212597009327782e-01,3.226110885461639689e-03,1.713695066285045657e-02,1.623859555661712542e-02,9.975997209548950195e-01
-1.110787139967328932e-02,-5.846591778598874134e-01,4.869962251233992401e-01,7.943774999659340350e-03,-4.359490824503420986e-02,-1.729336408483229948e-02,9.324940443038940430e-01
-2.868555064581151254e-02,-6.077052258790152095e-01,5.985308239087399063e-01,-2.872494158667301262e-03,7.533484491701270859e-03,-4.806609017994158454e-04,1.045002579689025879e+00
-2.101400412928038433e-02,-6.147086830423181825e-01,5.681640190688308500e-01,-8.756222106966235486e-03,6.126551288745092118e-03,1.087501559250729152e-02,1.024740695953369141e+00
-3.976574487166269906e-02,-5.789744940875366508e-01,5.979131081742931064e-01,4.914123514598246235e-03,1.243880936909555306e-02,2.873769699262790876e-03,1.020678162574768066e+00
-2.810547179412789878e-02,-6.000204648810510966e-01,5.965740636612661962e-01,-1.140201752758023641e-03,8.035900454871907836e-03,7.439914222574567013e-03,1.036792397499084473e+00
-3.635439539033580303e-02,-5.380510499983072181e-01,6.082093935769276039e-01,3.505540198672653374e-02,7.373383752777767051e-03,4.869451627483179640e-02,1.000750064849853516e+00
-2.722251502257102412e-02,-1.003919591127354627e+00,9.537522283102983778e-01,-9.469967656981902182e-02,1.122855444883527898e-01,1.107346257344389920e-02,1.714485287666320801e+00
-2.884151240311958603e-02,-4.588203492185780052e-01,5.718548346812424299e-01,6.895984342235389475e-02,9.095316854130872791e-03,1.955059427928129874e-03,9.047268033027648926e-01
2.072573328031872275e-02,-5.941080343353701831e-01,4.004926300170822961e-01,8.736613852952941628e-02,-1.689507337706112056e-01,-2.941554356651209651e-02,9.310554862022399902e-01
3.252767412042048556e-02,-5.605097425592654448e-01,5.753330984791347191e-01,1.485552887828198859e-02,2.070786832406614365e-03,-2.286007912505673510e-03,9.843401908874511719e-01
-3.752431483514204191e-02,-3.966278202275219655e-01,6.104755480987302807e-01,1.859524669630270854e-01,-1.698485849310512052e-01,-2.123183133672780151e-02,9.865044951438903809e-01
-6.078524707289909013e-03,-5.933995930695095122e-01,6.863893171165531548e-01,1.052046227992194799e-01,-1.694280514777377414e-02,3.251337267046140733e-02,1.126230597496032715e+00
-1.147989682520464683e-01,-1.152565397084874821e-01,5.827235786204452150e-01,1.878429565093042361e-02,-4.747459012658593672e-03,7.214018949432297878e-02,7.096449136734008789e-01
-1.225519319992952882e-01,-2.756754234955078875e-01,5.690038563365885649e-01,-1.908500694846188353e-02,5.988900018292133559e-03,1.410853854925068996e-03,7.802537679672241211e-01
-1.184069277817042798e-01,-2.136774019673123304e-01,5.514575932881160547e-01,2.612123164031262580e-03,6.076370962153093518e-03,2.077794968401326312e-02,7.232148051261901855e-01
-6.559808046693252348e-02,-5.920756448597798149e-01,5.585446545562310350e-01,9.769683440862240737e-04,-5.570726428301063689e-03,1.058862552080192584e-03,9.977120161056518555e-01
-1.213791625587835321e-01,-2.455187449453712367e-01,5.639265484824598218e-01,4.393231939172865391e-03,9.435340781432313348e-03,-1.082479531217538093e-02,7.555161118507385254e-01
-3.519212497391911720e-02,-6.044853200335945642e-01,5.618967991683386787e-01,-8.769096787763002929e-03,1.458246185531386543e-03,-4.873231742768048026e-03,1.010364770889282227e+00
-1.321009218197339297e-01,-2.371255183257990340e-01,6.544986608860275945e-01,6.552715979946560632e-02,8.325389243574456491e-03,-4.589570319203416932e-02,8.554472327232360840e-01
-1.106805906063748346e-01,-1.936890808413786469e-01,5.362629424084649488e-01,3.604502060104314200e-03,2.782249639279749023e-03,-2.682694245636493488e-02,6.937934756278991699e-01
-5.941291612883151108e-02,-5.916535626962274863e-01,5.616357381819635508e-01,-6.952280840427417247e-04,-5.284633885311000243e-03,2.687569366085307363e-03,9.998178482055664062e-01
-1.105375018339884996e-01,-2.693628177606831597e-01,5.540679556115204463e-01,3.213154205832469135e-02,6.733013199289578261e-03,-7.826349934623433573e-04,7.587603330612182617e-01
-5.715590308225566851e-02,-5.994716140421106898e-01,5.694498446526347069e-01,1.149232905330430663e-03,-1.988546728037823494e-03,6.328343884082901667e-03,1.013259649276733398e+00
1.569165445512360826e-02,-6.046333524853155783e-01,5.966207554927644985e-01,-4.468996695052959017e-03,7.045837732313169413e-03,-2.277077251228002992e-03,1.040610909461975098e+00
-1.131880868499732795e-01,-3.006889696928023437e-01,5.744582756819704983e-01,1.215193502211973919e-02,-6.058961751413060540e-04,1.454617064555033083e-02,7.987660765647888184e-01
-5.077102149221107003e-02,-5.505904850252515415e-01,6.109242717818117452e-01,-2.119236797185793802e-02,-9.508300688422503810e-03,5.870629252223141283e-03,1.010005116462707520e+00
-2.251081984493026947e-02,-6.046362459798312328e-01,6.153308123064501478e-01,1.764418662081975635e-03,-9.059885802115088052e-03,-1.006331325726196602e-02,1.057154297828674316e+00
-2.840095750627952276e-02,-5.868105620428840652e-01,5.966045522510160515e-01,-1.777229482964607071e-03,-9.724954815451944748e-03,-9.689920072315444735e-03,1.025688648223876953e+00
-3.682377115488208452e-02,-6.167226319489875763e-01,6.194874925859017445e-01,-1.003578868328128130e-03,-7.559852026559419312e-03,-8.321202221851045980e-03,1.071449279785156250e+00
-2.514379785121849051e-02,-6.351048288660889884e-01,6.039508522038649074e-01,3.773109708717284263e-03,4.566750646729413575e-03,-2.429322382775907931e-08,1.073145389556884766e+00
-2.344556871046191496e-02,-5.608126523017676890e-01,6.072165156198021663e-01,4.976369111567011724e-04,-2.177124786562122105e-02,-9.762225204544052945e-03,1.013461232185363770e+00
-3.029697217637447246e-02,-6.140113991562086149e-01,6.189370281053893086e-01,-5.819920735896976297e-03,-1.205741459046966516e-02,-4.538575730818122586e-03,1.068547725677490234e+00
2.818598015449447561e-02,-5.721842483890652309e-01,5.762050071977954380e-01,3.898862011540461109e-02,7.195599171482872612e-03,9.426740512741702688e-03,9.973794817924499512e-01
-2.260489335001274191e-02,-6.354483160406722009e-01,6.042625072756849791e-01,2.824058872051592346e-03,1.489412277261871736e-03,1.179196645620548970e-03,1.073660135269165039e+00
7.865059057039207324e-03,-5.951784457253903593e-01,5.915868257227138161e-01,2.155347716694565839e-03,9.757314946667707337e-04,4.066855946732699477e-03,1.027846574783325195e+00
-5.672692540542065114e-03,-5.885446534009329822e-01,5.865499889512426623e-01,-9.948151684332649704e-04,8.283470261131214984e-03,-4.342012093333635220e-03,1.017802953720092773e+00
-1.752050825221732402e-02,-6.127445998266916050e-01,6.030198560756792059e-01,4.088060862748938611e-04,3.682586482258164238e-03,-2.122757385441264265e-03,1.052984952926635742e+00
-1.336426939356349930e-02,-5.894050471665662760e-01,5.956978686051843663e-01,4.055883470479806734e-03,2.098499168710660570e-02,6.595354624749770467e-03,1.027192950248718262e+00
-4.432516884265565171e-02,-6.103006316556045530e-01,5.685698696384421380e-01,1.698411623830956008e-03,3.789949599358144201e-03,-3.470038384123547040e-04,1.021226763725280762e+00
-7.275992353355867359e-04,-6.167302295221894770e-01,5.152511508005738206e-01,1.582084702807768847e-02,-1.273340491946427797e-03,-3.764873466148577815e-03,9.820060133934020996e-01
2.154316306295852440e-02,-5.794021647452637369e-01,5.813297102475455391e-01,7.465869480079982690e-03,8.630113782285049259e-03,-9.703169283233781955e-05,1.005628228187561035e+00
1.652661068036613556e-02,-5.723989416121674223e-01,5.794623178215101422e-01,4.040026517182777888e-03,-1.348734626151509202e-03,-3.292388148563971958e-05,9.976530075073242188e-01
-1.766344961591823515e-03,-5.892315212196637120e-01,5.933040083373036788e-01,2.399834507828012276e-03,8.914295717515586040e-03,-2.450988395906576051e-03,1.024246454238891602e+00
-3.216022199142296728e-02,-6.255380460748622973e-01,5.848864552347574630e-01,2.256405048829865888e-03,4.674344986099724861e-03,-1.518125496694815862e-03,1.048367023468017578e+00
-2.734439515569825341e-02,-6.088023149320701544e-01,5.754622090958102509e-01,-5.561449810988327268e-03,1.059816484027002823e-03,1.429298900900416404e-03,1.025708556175231934e+00
-2.446285708529561884e-02,-6.495558149275736382e-01,6.667193205810654222e-01,-8.956186314220048947e-03,5.400426207496257860e-03,7.794374420597601199e-04,1.140551209449768066e+00
-2.405076585133426523e-02,-6.367682004338918178e-01,6.473156306635762247e-01,-1.139641002567910559e-02,-8.444950915617414899e-03,2.901882980229755164e-03,1.112718343734741211e+00
-4.419450396321695368e-02,-7.203023204175199590e-01,7.594428817335555637e-01,-2.127980780020335885e-03,2.384722525461240375e-02,3.617366349865076477e-03,1.283767580986022949e+00
-2.896414065924665313e-02,-6.348441832357747394e-01,6.033693305945879715e-01,1.093436576091655674e-04,2.910439950728032667e-03,2.405528391300504895e-04,1.072417855262756348e+00
-3.185811714862926691e-02,-6.668999377999496048e-01,6.884233280586727899e-01,7.699546260452041699e-03,-9.090352731752647519e-03,-3.418624343710173919e-03,1.174714088439941406e+00
-3.564387909127968851e-02,-6.496414644603597521e-01,6.812545061567790716e-01,4.067021429563021963e-03,9.569989697750089577e-03,6.932994574129335702e-03,1.153940558433532715e+00
-3.242393425877225510e-02,-6.612179760885731339e-01,6.676880473345216949e-01,3.671566391772360018e-03,9.303283765936741848e-03,-7.825691572559179826e-03,1.151628732681274414e+00
-2.473498636461773231e-02,-6.183940862117824899e-01,6.059537108088702828e-01,2.683308336516428572e-03,-3.761886889411487477e-03,9.916536770516415854e-05,1.060508131980895996e+00
-3.176045352932132387e-02,-6.343960785909379396e-01,6.691292050708036454e-01,-5.783854739413378347e-03,7.308052840215708418e-03,-9.223634652210977586e-03,1.130182623863220215e+00
-3.886582739848305768e-02,-5.249812881736658499e-01,5.911476746722847952e-01,-1.590308663703713515e-02,-5.929571881397817379e-03,-1.761420541351332988e-03,9.697206020355224609e-01
-2.932020771691462580e-02,-3.751884626191254180e-01,3.449756775221305971e-01,-1.600817980500894491e-03,-2.248098372022227023e-02,3.164874963958858728e-02,6.274616718292236328e-01
-1.324049327561374612e-02,-6.061837125125241199e-01,5.958572550834007053e-01,-1.046127005097243282e-02,-5.731629597631962168e-04,4.838492266234407794e-04,1.041187882423400879e+00
-3.083642582727458628e-02,-6.023184313332261564e-01,5.972768692963804638e-01,-1.270292991022473625e-03,1.263621070708172102e-03,-2.962648217327429508e-03,1.039283156394958496e+00
-5.142873840543431274e-02,-4.796862547954475753e-01,5.692668167864158857e-01,-3.667429968436462101e-02,1.651312903723741073e-03,1.893102960538413371e-03,9.157177209854125977e-01
-3.302613463690803886e-02,-6.051930913452960858e-01,5.787240124744288394e-01,2.149025503027202423e-06,-7.037569727889747204e-03,-5.891678327701828366e-03,1.025616526603698730e+00
-7.974336822811310677e-02,-3.443027014394913210e-01,5.452727129485850366e-01,1.967554262248261826e-02,2.642305327000069384e-02,7.577845875690850108e-02,8.040358424186706543e-01
6.750244695049034682e-03,-5.628182967898760491e-01,3.890005065541190521e-01,-2.161254663035777970e-02,6.321209698641394592e-02,-1.913091718679736306e-02,8.382886648178100586e-01
-8.228694746819142924e-02,-3.012284657061328197e-01,5.591006482669610422e-01,1.024730767680469973e-02,3.379565396210025031e-03,4.670238913701019179e-02,7.788661122322082520e-01
-5.360357314693825481e-02,-5.936054952263135620e-01,5.562583727106061859e-01,-4.067728694910692847e-03,8.627500231029580418e-04,-1.029555247127701256e-03,9.964513778686523438e-01
-2.672189934995416322e-02,-6.140492379230971798e-01,5.977044567985271284e-01,2.990566341515878135e-03,-3.763980235729835495e-03,4.200555013897948678e-03,1.049631714820861816e+00
-2.246093176849329326e-02,-6.131716728324737575e-01,6.041659307899420739e-01,-3.007117627776437836e-04,-3.590607049267969912e-03,1.943285896882732686e-03,1.054422020912170410e+00
3.083728638123903187e-02,-6.318377639620691433e-01,4.120200684614261366e-01,1.582324982264000229e-02,6.836167955298323717e-02,-5.648262634919642977e-02,9.281060099601745605e-01
2.641491979158379355e-02,-6.462563453873851893e-01,6.298915009593963887e-01,8.240179520021391479e-02,1.163739938257754222e-02,-1.672741164665969213e-02,1.115449666976928711e+00
-2.846918523773384058e-02,-6.110172482824749451e-01,5.982706694101272982e-01,-3.489535812875644606e-03,1.741118026386631427e-03,-3.039364753608243212e-03,1.047542095184326172e+00
-3.409525491282586890e-02,-5.989870293130749035e-01,5.523213094397266820e-01,-6.826565418392250249e-03,2.186956461451942675e-04,2.569246190121030320e-03,9.972004294395446777e-01
-3.155843304865972587e-02,-5.595244852610649078e-01,5.985858672414321457e-01,1.274116748374524565e-04,-1.399971609674894799e-02,-9.023837145426786763e-03,1.004667639732360840e+00
-4.591275545326711782e-02,-5.864798737527630035e-01,6.065456048631993058e-01,-7.720222047125566958e-05,-9.927892267712488256e-03,-6.986404091352193917e-03,1.034917593002319336e+00
-7.537623593820155787e-02,-4.915946963270289016e-01,9.725919451683036066e-01,1.643072154430395004e-01,2.840880005797950802e-02,-1.160085213983640395e-01,1.353308677673339844e+00
-1.875545258769231727e-02,-6.182837708331478943e-01,6.216544065827139809e-01,4.558780665615022967e-04,-4.286140336532315818e-03,-2.488474283316244665e-03,1.074047088623046875e+00
1.562673545130088479e-02,-5.868461236353920141e-01,5.965573211412048549e-01,7.288032311408819582e-03,-2.265300323621222307e-03,-5.258348104176714492e-03,1.025039792060852051e+00
2.470443599616168814e-02,-5.838751388305254419e-01,5.861551223407472921e-01,-5.846570615521531900e-03,1.065903065326373640e-03,1.106784043230412068e-03,1.013603925704956055e+00
1.639942669907556994e-02,-6.016747973319593878e-01,5.976435322665191174e-01,1.775612123325138927e-03,-1.389639955273870011e-03,-9.462449643144086112e-03,1.038939952850341797e+00
-2.535248906331767985e-02,-6.091306986878728402e-01,6.007211720476517414e-01,-9.419378145350325261e-04,-4.692472989909619169e-03,4.825764079086478434e-03,1.048041939735412598e+00
-2.620547747434031488e-02,-6.115880233674658717e-01,5.920385284774288825e-01,2.544706821421785395e-04,5.076932729956316025e-03,-4.763126944428966794e-03,1.042570471763610840e+00
1.099498949905528336e-02,-5.955756685456626842e-01,6.284218495570611518e-01,1.124747277101216247e-01,5.879394234848179385e-02,-5.562070159150997450e-02,1.086857795715332031e+00
-5.094496086383447364e-02,-8.130609751853944411e-01,9.163745703112629037e-01,-1.840541772410651811e-01,1.561711498777076934e-01,-7.345167150825521012e-03,1.558427214622497559e+00
-6.892208239018999399e-03,-5.386907860027669859e-01,5.736604445788955342e-01,6.993855088224795735e-02,-2.170116742070629309e-02,2.791873543395513926e-02,9.731462001800537109e-01
-7.163347878147541259e-02,-3.440045639801659894e-01,6.690056135834585582e-01,2.298989989130196809e-01,-5.406685932653231691e-02,-6.413483412542594908e-02,1.002063393592834473e+00
1.577796190599628848e-02,-5.601408954619306879e-01,5.852065886640089865e-01,3.514203884702807312e-02,-1.590205765528357115e-02,-8.254246444940979699e-03,9.942555427551269531e-01
-8.426021947679607216e-02,-4.768912140479864004e-01,8.492139258082880282e-01,2.392613265026114766e-01,-1.782334613813857382e-01,-5.881994054292304097e-02,1.292076945304870605e+00
2.094763634512601669e-02,-5.439917942362172409e-01,6.237106119294922868e-01,4.216104801502315591e-02,1.998630289244296421e-03,1.153111956579301600e-02,1.014272093772888184e+00
-3.249226201568666816e-02,-6.075438940933314269e-01,6.015600852623660399e-01,1.198533135810005493e-03,-2.287006183610522901e-03,-2.735141174598944205e-03,1.047550439834594727e+00
-2.580545604155803224e-02,-6.167960778804996158e-01,6.029018003376833690e-01,1.301560014987500607e-03,-1.850167364055835175e-04,-2.003199944477097004e-03,1.056465864181518555e+00
-1.618721460595499637e-02,-6.223588497821020971e-01,6.510035958367546005e-01,1.920119177589371239e-03,-1.145776932675270608e-03,-7.985056848650548197e-03,1.103279709815979004e+00
-2.705658099943581904e-02,-6.157130171279761033e-01,6.043987629889133739e-01,2.104530865136040353e-03,-2.962333596863834118e-03,5.802350101819371249e-04,1.056883692741394043e+00
-2.629838159704633166e-02,-6.151496914744540856e-01,5.985169598116262257e-01,5.419711890374437173e-03,-2.574620906698028410e-03,1.378396969399117396e-04,1.051271319389343262e+00
-2.728013862357354935e-02,-6.198221236981381610e-01,6.067989223656581332e-01,7.242737753588898274e-04,-3.993986181010506648e-03,-5.690161653703365869e-06,1.062511205673217773e+00
-6.079634758011802365e-02,-5.155833375660180407e-01,5.988511102101181649e-01,-1.648896927983762922e-03,-1.057447226113526415e-02,-1.256490098508858226e-02,9.709697961807250977e-01
2.142127246095285042e-02,-5.995079041718327506e-01,6.016367510727258505e-01,-1.308261198524340342e-02,-1.514691357007451030e-03,1.804659988530461171e-03,1.040675640106201172e+00
-2.378698903573471524e-02,-6.180183054410467447e-01,6.077413658180744749e-01,2.380294006379020388e-04,-8.852772328083402320e-08,-1.282085006039075138e-03,1.061705231666564941e+00
-2.256613833300442906e-02,-6.168957464040889516e-01,6.034578095044044188e-01,6.670683374696634782e-04,-3.066632790704793433e-03,1.177901148164524131e-03,1.056991934776306152e+00
-2.607887472786493688e-02,-6.137909526063290988e-01,6.045189957856864638e-01,1.687424846013485481e-03,-1.914462229124886186e-03,-1.715196651089531243e-03,1.055318713188171387e+00
-2.271197148645472813e-02,-6.121605140125065958e-01,6.028113871661304746e-01,9.123277943488448342e-04,-4.257935297941864775e-03,2.825899205842560217e-03,1.052389502525329590e+00
-2.622951603536646803e-02,-4.154788254190718844e-01,5.961920355052298115e-01,1.012081032647016432e-01,2.640108912595084609e-02,6.278743780427352428e-02,9.087617397308349609e-01
6.874795563569271496e-03,-5.955364898508638261e-01,5.872574567904081944e-01,2.412239957263166788e-03,7.456819885347884362e-03,-8.429443185857524363e-05,1.024478793144226074e+00
2.351219720571776778e-02,-5.441616119246421857e-01,5.734192367363301068e-01,2.706239957237534938e-02,4.893749836492294891e-03,3.960610087017707968e-03,9.690898656845092773e-01
-1.669455437409997356e-02,-6.189173772386289407e-01,6.319147557545878868e-01,-1.258615365969439036e-02,-1.054484241879975054e-02,6.977324695737103372e-03,1.083941221237182617e+00
-3.048503857162820907e-02,-6.252348135860670286e-01,6.047193369761612036e-01,-1.788918583880264035e-03,3.242175732293088499e-03,-4.738114336339100535e-03,1.065414547920227051e+00
-3.350793520463055120e-02,-5.975887514576792015e-01,5.970071402723983178e-01,-1.015285470251492796e-03,1.314223765198779120e-03,-5.247058303590301960e-03,1.035127401351928711e+00
-3.962422305519295446e-02,-6.256552895135611969e-01,6.115993713280883926e-01,1.290185961918953827e-05,7.344645375244832942e-03,3.043244836673320106e-04,1.072065234184265137e+00
-2.947872479147186156e-02,-6.074062824911546921e-01,5.993229938938408052e-01,6.103300434704818454e-04,-1.618921617468397538e-03,-2.361221619650144283e-03,1.045379996299743652e+00
-3.792196589815232527e-02,-6.259216934755686967e-01,6.152662655531165870e-01,-3.659076591405889360e-03,1.892485333267179826e-02,-6.155918504322280792e-03,1.075965285301208496e+00
-2.571531880813139603e-02,-6.303802450921067724e-01,5.991150908242859341e-01,5.698567656848600661e-05,5.465218179172490198e-03,-3.160538533548318003e-03,1.064878106117248535e+00
-2.311018205741932965e-02,-6.169361409520349726e-01,5.889926180701993141e-01,5.548981690490630524e-03,-4.050772964825687453e-03,2.387493651483961043e-03,1.044480919837951660e+00
-1.090615114400115271e-01,-1.773735735279511894e-01,7.318653407210568007e-01,5.951730812954029309e-02,9.426242281328508707e-03,-7.796907802298426449e-02,8.935328722000122070e-01
-2.061811901410757347e-02,-6.231843691649029404e-01,5.850890749031578686e-01,1.649932396066685746e-03,1.384971204304632705e-03,1.264651408272417406e-02,1.046632528305053711e+00
-1.328149188912975190e-02,-6.114820194323954405e-01,6.019838134327012424e-01,-1.112718866134249020e-04,-5.609397626068900189e-03,-1.244921549346405783e-03,1.050974011421203613e+00
-3.097007977188209402e-02,-6.026131474813539723e-01,5.998275382139431899e-01,1.437738019499022225e-03,-2.171644287294715713e-03,-4.708489136042205009e-03,1.041805863380432129e+00
-2.439109622932041088e-02,-6.173293300166966535e-01,6.063500166247569600e-01,2.679055616256862012e-04,-3.200773641903887756e-03,4.245059138746664143e-04,1.059920787811279297e+00
-1.107104003344828655e-02,-5.871003255330990989e-01,5.942803914455888625e-01,-1.637845709326245496e-03,-3.346851604655746125e-03,-5.219350082491154737e-03,1.023271083831787109e+00
-1.472960964368752110e-02,-6.003469152234254258e-01,5.985493666102777999e-01,-1.235400359781816532e-03,-7.195827826753396772e-03,4.365670815480708448e-03,1.038471341133117676e+00
-2.230244034543522880e-02,-6.137277438777700711e-01,6.060168312960256820e-01,-5.037875746173905468e-03,-3.080696976855695681e-03,-1.231519434701603636e-03,1.056542515754699707e+00
-1.623164837404872385e-02,-6.138997140227590021e-01,5.769391031348682919e-01,4.962656492268081518e-03,8.053362157463465443e-05,6.430294831685771061e-03,1.031395077705383301e+00
-2.725855423803056482e-02,-6.117858086898224634e-01,5.989386028093419689e-01,2.812280772492840213e-04,2.037106996730617646e-03,-9.334522793058366852e-04,1.048732399940490723e+00
-3.504109422633457788e-02,-5.548492246100914516e-01,6.268283448314434514e-01,-8.610543405446449694e-02,4.589278193588253174e-02,3.565946035336229475e-02,1.041485667228698730e+00
-8.336950823272237798e-04,-8.049186220888614463e-01,5.109268306797245529e-01,2.578663455391685955e-02,-1.443599580386299430e-01,4.916469828897282457e-02,1.179710149765014648e+00
-1.490556810404931876e-02,-6.168566876046586156e-01,4.603044137980925044e-01,1.639305689565168783e-02,-8.811534008679325347e-02,3.172943074860106599e-02,9.493904709815979004e-01
-4.780086886356491038e-03,-6.181804050429011710e-01,4.180423078041971552e-01,1.885259338035092519e-02,-4.889143080888008058e-02,9.148833977900741599e-03,9.071309566497802734e-01
-1.516916338039497880e-02,-5.889423716202143444e-01,4.514978490745296114e-01,-5.401241274398273402e-03,-5.175103057105971682e-02,2.030064561398686046e-03,9.071323871612548828e-01
9.776103269594563216e-03,-5.891143833820388087e-01,3.399937404541393260e-01,-8.528416301149744499e-03,-1.396560641577655193e-01,1.354606744890802638e-03,8.510069847106933594e-01
-4.892757004988818048e-02,-6.208061905077143505e-01,5.544810078212053517e-01,8.679878810582691492e-03,-8.585403634575165810e-02,1.688252357899315895e-02,1.029280066490173340e+00
-2.844177706308056996e-03,-6.406231244183150375e-01,4.124629276456409643e-01,-4.246844834447942654e-03,-1.244056153583904950e-01,2.929795186108327329e-02,9.450796842575073242e-01
-2.974006223272297744e-02,-5.885007846723001590e-01,4.553279335635921354e-01,-9.968749822918767690e-04,-6.096934609926982218e-02,1.179631556613999679e-03,9.108788967132568359e-01
1.633276048457437679e-01,-6.777559990007340218e-01,-4.946533135353287092e-03,-1.669020936209746064e-02,1.914779424070735953e-02,1.712429094889107717e-02,7.726710438728332520e-01
9.180610270841491061e-02,-6.977366814765325609e-01,2.923978302836570675e-01,-2.009827414264261577e-02,1.151216343990006941e-01,-7.243376909844511519e-03,9.290418624877929688e-01
7.029982653329180931e-02,-6.521805401721270101e-01,3.014554793224369922e-01,-7.624077300155122916e-02,1.040469664965741475e-01,3.188793090875209624e-02,8.918419480323791504e-01
-9.258310736815134057e-02,-3.692263385425456623e-01,5.744410786847269357e-01,2.649679588584883793e-03,9.801298155594077507e-03,-1.274242759597163203e-02,8.407002091407775879e-01
4.047129095003579313e-02,-6.779083364799582956e-01,3.966402052474559681e-01,-3.697598439580925683e-02,8.650419974836423553e-02,-6.925351692225859002e-02,9.693961143493652344e-01
6.690745683032089941e-02,-6.990858790472779249e-01,3.711512936791288020e-01,-1.509705649462332773e-02,1.087793166526366123e-01,-2.056644306052171287e-02,9.745821356773376465e-01
-3.053937127164871312e-02,-5.966929543003406389e-01,5.947233858862861489e-01,1.570406931695237881e-04,6.338153352712975162e-03,4.850821329863862739e-03,1.032312631607055664e+00
1.296141795934833141e-01,-9.129388287639361721e-01,2.995379321421115515e-01,-1.799786821499085310e-01,2.949281615840577686e-01,4.336723461046024936e-02,1.287133336067199707e+00
-2.422853008829745775e-02,-6.105404179553896027e-01,5.900901086068960355e-01,4.018118119404507244e-05,3.339893275481329183e-03,6.075045383458767614e-03,1.039940118789672852e+00
-3.773862007232976074e-02,-5.899086560848564309e-01,6.070460835714227565e-01,-3.114589655113929323e-03,1.051092656535828826e-02,-6.043737260541878417e-03,1.037853598594665527e+00
6.147889819555185653e-02,-6.804808675162677956e-01,3.461108784418978623e-01,1.105355886884330265e-02,5.200136232983384316e-02,-3.020819958544607164e-02,9.240788221359252930e-01
8.415742431565592652e-02,-6.641594971851945139e-01,3.358213108051993911e-01,-1.430013509542310719e-02,5.249342512590895321e-02,-2.606056548299784739e-02,9.069481492042541504e-01
-1.330687592240447636e-01,-1.367598543198680905e-02,6.096530842422298591e-01,1.420860340685269757e-02,2.376139602690596417e-02,-1.138326389684171797e-01,7.199915647506713867e-01
9.802294670140558955e-03,-5.747538886386428514e-01,5.889381772994167763e-01,7.228433923440429412e-03,-1.452701560773460125e-02,-5.795800700614888411e-03,1.008232355117797852e+00
-9.839006988283074961e-02,-2.621730001031152835e-01,5.540381816548491933e-01,-3.122045241363963219e-02,1.325011845162885060e-02,4.074981058338666886e-04,7.501969337463378906e-01
-1.329323025476945586e-01,-7.019712449382525810e-02,6.103157024395804431e-01,-6.656579711822449563e-02,2.748180396286845420e-02,-1.025901992019637304e-01,7.462295293807983398e-01
-1.277653545990850570e-01,-1.715875276735645549e-02,6.008815185409694948e-01,-4.708831796273958703e-02,3.541012122883967217e-02,-1.527369271463709099e-02,6.882444024085998535e-01
-7.767505298561580562e-02,-6.117671100108031945e-01,8.717759184389739513e-01,2.195813686847230550e-01,8.167064880194989385e-02,-6.360656544551622493e-02,1.367699265480041504e+00
1.443626740828889490e-02,-4.988304697793347620e-01,5.619966432736334117e-01,4.547968480350391557e-02,-1.548019728718997125e-03,-1.332591523270967512e-02,9.225262999534606934e-01
1.709685883183815341e-02,-5.193585349855740496e-01,5.751875732575352229e-01,1.027174240043814274e-01,-1.244731640322023491e-02,-1.564617180690814485e-02,9.651384353637695312e-01
3.475591554006510209e-02,-5.536190923957484689e-01,5.671631465726733046e-01,3.478826292480149875e-03,6.799936255708978645e-03,-1.327369521070015162e-03,9.711220264434814453e-01
2.252344868574218673e-02,-6.008311055516210031e-01,5.965117859623655372e-01,7.807715282655104845e-03,2.320369079596549481e-03,-1.507759692520100085e-03,1.037322282791137695e+00
-2.334175152579377049e-02,-6.138323604999593730e-01,6.009129462900909546e-01,-2.255656536339334470e-03,4.005682959762156894e-03,-1.292802369854325999e-03,1.052168250083923340e+00
3.224456207423260362e-02,-6.301106596593611942e-01,6.288250570855064003e-01,6.033981132875170655e-02,4.148792367482804816e-04,-1.764060238109718681e-02,1.096187829971313477e+00
4.290792133915239011e-03,-6.068403558448548507e-01,5.969156458658295694e-01,1.782327637239474079e-03,-1.240942541274381522e-03,3.309158808057953861e-03,1.042546868324279785e+00
1.960555812096606565e-02,-5.986212046806352882e-01,6.040230147966274554e-01,1.127868748353500969e-02,-8.154358063136649126e-04,-7.757777924709352915e-03,1.041928410530090332e+00
7.377514314134303586e-03,-5.324718999082720394e-01,6.357353878913404310e-01,9.968227616657916734e-02,-9.990167309633356599e-03,-3.726998608068766983e-02,1.029449343681335449e+00
2.435533268318411035e-02,-6.007393598272914303e-01,6.050714460849689891e-01,1.092729390616266165e-02,-4.522439573980011583e-03,-9.298661574428445514e-03,1.044823527336120605e+00
4.634764558146084457e-02,-5.871099029068838071e-01,3.430024428417766669e-01,2.901321936402420990e-03,-3.382993755614866187e-03,-8.051430720650188874e-03,8.230703473091125488e-01
-2.996272865422785342e-02,-6.153158694818076091e-01,5.951335800471101445e-01,-6.901676331488793698e-03,7.408630732469548589e-04,1.472665366563482648e-03,1.048540353775024414e+00
7.258750853058495989e-02,-5.963782627594956809e-01,2.810699445491445791e-01,3.351269018288098936e-03,-2.082161542841553040e-02,-1.315608246919296870e-02,7.951737642288208008e-01
-2.437121796210505245e-02,-6.168940833543835600e-01,5.999725135274764920e-01,-2.519391881953544649e-03,3.943804889027091934e-03,2.134068029262729642e-03,1.053995132446289062e+00
-7.103894860862797200e-03,-5.749024148727267525e-01,4.074144871014651614e-01,1.480398640361494378e-01,-1.347950256924514700e-01,8.141374671793813467e-02,9.325903058052062988e-01
1.231856050790648971e-01,-6.294917949560325798e-01,5.516324306412606626e-02,-2.306193031756353928e-02,-7.839632461868208113e-02,-6.979788883467583083e-02,7.447147965431213379e-01
-3.725622362631625384e-02,-6.110466632860609426e-01,5.781213275766854398e-01,-1.160331125771515634e-02,-1.704460505141245112e-03,9.599729987234180027e-04,1.030261158943176270e+00
8.044623162187264365e-02,-5.867043367726488823e-01,2.763742704374557713e-01,-2.527856089271158027e-02,-2.185038820059499384e-02,1.700486820647024912e-03,7.858429551124572754e-01
-1.635338109693994235e-02,-6.084936275370947945e-01,5.993649725174622356e-01,-2.032212024994899200e-03,5.506024823584618026e-03,-2.720794778581260998e-03,1.046162724494934082e+00
-2.320039119115233431e-02,-6.171546908073857196e-01,6.046998707444134480e-01,-1.552633591817284943e-03,2.405951785089927020e-03,-1.347586634177360158e-03,1.058307409286499023e+00
-2.335834376475335455e-02,-6.152444569535664431e-01,6.021316379668573138e-01,-1.895767055801767312e-03,3.000137031771954801e-03,-6.990078187537128018e-04,1.054431080818176270e+00
1.158614884546364521e-01,-6.694552098278504504e-01,1.932711602319818756e-01,-3.324674691641203196e-03,-3.919106906948401775e-02,9.094814708069029474e-02,8.443703651428222656e-01
1.147455069218677737e-01,-6.851381154632665282e-01,2.103824825950403876e-01,-1.786052519575683645e-02,-7.397657775576645632e-03,3.475704219960619457e-02,8.545197844505310059e-01
4.659308828264985269e-02,-5.862331443244220841e-01,3.122286952602735255e-01,-6.089955440606770881e-03,-4.731574119896590075e-02,-2.311289364458114087e-02,8.047128319740295410e-01
-2.473774000865557737e-02,-6.226837596542826869e-01,5.995018738369773947e-01,-1.749406604283413463e-03,9.069781365380717719e-03,-2.871429912930918357e-03,1.058658003807067871e+00
-2.327829310431587737e-02,-6.279545768132909211e-01,5.795950095786319700e-01,1.554454738970634416e-02,5.473473554337799155e-03,9.264726341232763437e-03,1.046281576156616211e+00
-2.063702496131794573e-02,-6.051104895219715507e-01,5.981786811584061114e-01,-2.145803557796769224e-03,1.988724587518861126e-03,-5.750303603815792516e-03,1.042280316352844238e+00
-2.343860427036177640e-02,-6.304368441193172190e-01,6.061669466496771852e-01,1.676095337675864543e-03,7.422073841708083826e-03,4.385125466009331409e-04,1.071071267127990723e+00
-2.321316889102972500e-02,-6.338242424650812890e-01,5.971491115468883226e-01,2.591445740512858011e-03,4.120866026111977970e-03,-1.367005635584515487e-03,1.066101312637329102e+00
-2.325746922433401601e-02,-6.310675788891898508e-01,5.881505312074515324e-01,7.867346095573050230e-03,1.434924886288594346e-03,9.029119311846632231e-03,1.056082010269165039e+00
-4.852491594848659662e-02,-5.890158599426706942e-01,5.242128740277693932e-01,6.764314564122533846e-04,-1.070484283804149254e-03,1.091864882386512714e-03,9.642235040664672852e-01
1.895739472232145784e-01,-6.760819959350887753e-01,-8.394107129547072332e-02,-2.083775265507574470e-02,-2.882635435271519581e-02,-1.435020588464700209e-01,8.080685734748840332e-01
-2.205837014228534398e-02,-6.188480552871904461e-01,6.049434891694949190e-01,-1.488441611493146769e-04,4.247536408720950481e-08,-9.840067506259430729e-04,1.059943675994873047e+00
1.140724542415805787e-01,-6.581895455339660250e-01,1.107417081308028628e-01,6.100185473744619211e-03,-1.157661524328072594e-01,-1.616558603023243376e-02,7.968240380287170410e-01
1.833394903848551902e-03,-6.097375630922485801e-01,5.968375768195200992e-01,-1.915935780779117479e-03,8.668304474467081883e-03,-5.965437599940671878e-04,1.045071244239807129e+00
6.069938538814304008e-02,-6.810148356909561107e-01,3.154543068005365991e-01,-1.132354721701222741e-02,-1.056010452460731247e-01,-3.875537702450493338e-02,9.177912473678588867e-01
2.771725528856826271e-02,-5.916427146006547622e-01,4.220151382176148269e-01,1.545998529603957944e-03,2.811531386696636010e-03,-4.487034298457387438e-02,8.884598016738891602e-01
-5.155492710552037061e-02,-1.932470774127848512e-01,5.769211472838406962e-01,7.161373352011156379e-02,-3.089674794536403923e-02,-4.052371067782277458e-02,7.261438369750976562e-01
7.492113285928228561e-02,-6.290125235889097999e-01,2.671913120431895772e-01,-2.175741376827744836e-02,-2.889818196692583996e-02,-6.225075438508478887e-02,8.266721367835998535e-01
6.004635971039208597e-03,-5.743080539710911925e-01,5.978059271554884146e-01,5.121762498733328263e-03,-2.236276717465420991e-02,4.331488132793043146e-04,1.015874505043029785e+00
-2.605789995665643358e-02,-6.122024767761959918e-01,6.003180243515539027e-01,-5.317483525094309632e-03,6.452868956283332527e-03,-2.142459378955208129e-03,1.050372600555419922e+00
7.480584637347525989e-02,-6.749420232243853457e-01,3.102483488760203190e-01,1.282726830733806490e-03,-1.505560887729776726e-02,-2.520886374522495268e-02,8.925631642341613770e-01
-1.868156212512360123e-02,-6.065486624655104242e-01,6.025749819411980734e-01,1.816254611125134874e-03,1.353146670760574502e-05,9.371637479106462556e-04,1.047270894050598145e+00
-2.246075775186596318e-02,-6.126255382331775579e-01,5.948396966448985523e-01,9.483421044857904408e-03,1.228654840947867796e-03,1.054902523282223248e-03,1.045916318893432617e+00
-2.047666496261320648e-02,-5.927226209745057872e-01,5.907897633161642847e-01,-2.882672055737418772e-03,6.326142140276522913e-03,-6.710745255606490565e-03,1.025274038314819336e+00
-5.225335626065454042e-02,-6.082669916608225424e-01,5.816864162550047235e-01,-5.335741933420683376e-03,-6.847979784649398972e-03,-8.572959491694762818e-03,1.031482696533203125e+00
-4.603268115716453550e-03,-6.036302153495780587e-01,5.931212103109129163e-01,5.614757939601283665e-03,6.343298206189955553e-03,-9.955440988449225977e-04,1.036522626876831055e+00
3.079240695539312705e-02,-4.031362494850149192e-01,2.825503821436675667e-01,-5.570153848268620533e-02,-2.778131518930588694e-03,6.860851026521125849e-03,6.085996031761169434e-01
-3.443896672604258857e-02,-5.860529803525555970e-01,6.055024719414199286e-01,-7.696194448937638156e-05,-2.065923790625266536e-03,-6.965292108376434227e-03,1.032938599586486816e+00
1.638557418963845075e-02,-6.102225139769931195e-01,6.120653083408589268e-01,-9.341258036599077788e-03,-2.631375753701843592e-03,1.954138936434939369e-03,1.058784127235412598e+00
-7.547822385913827842e-03,-5.549595602155052987e-01,5.846736157812767454e-01,-7.541594399500875512e-04,-1.429643637049858584e-02,-2.317183471448314418e-03,9.875251054763793945e-01
2.165281202385464787e-02,-5.613665027482882541e-01,5.785985579167230997e-01,-1.860386769383759811e-02,5.729795540434153359e-03,1.317989647198506255e-03,9.879029393196105957e-01
-2.990322718379546593e-02,-6.279223817386547779e-01,5.852579030681858141e-01,-6.661512896113736676e-03,9.887356738323511626e-03,-7.150646512048433254e-03,1.050955772399902344e+00
-1.105875637304967046e-02,-5.393215468618983710e-01,5.440747222946463735e-01,-8.155903292027867624e-02,3.358038014497201351e-02,-3.830457577428088636e-03,9.507226943969726562e-01
-2.026934298038626098e-02,-6.202219827808033159e-01,5.846316378162718097e-01,4.005230655297776360e-03,4.089269874497398517e-03,9.298893175256341473e-03,1.043608188629150391e+00
1.601053153698515918e-02,-5.868382534908301862e-01,5.940167023231398558e-01,6.516839616705005604e-03,-1.841377051008535664e-03,-2.275134664461826110e-03,1.022800683975219727e+00
-4.286427258327838580e-02,-6.037056365394226631e-01,6.143691443223361359e-01,-5.622603599827094567e-03,3.913512366584533629e-03,-1.425463097155816455e-02,1.056339383125305176e+00
-5.185168244917524871e-02,-5.769224861484216760e-01,6.076958539084740263e-01,-2.183922494888668273e-03,-1.895279136724092482e-03,-8.088531395051975006e-03,1.028218269348144531e+00
-8.909611336538578175e-02,-4.446314783978851937e-01,6.011978715428420994e-01,-3.380238578257555027e-02,2.036762045490398548e-02,-6.752718783361721412e-03,9.236580729484558105e-01
-5.426603812273730898e-02,-5.060080366666180884e-01,5.287729724276079013e-01,2.725345880117895992e-04,1.130605996544499330e-02,-2.634676508632667960e-02,8.999192714691162109e-01
-1.258250381210247043e-02,-6.157899500720472874e-01,5.245526295632969571e-01,-3.143790959510803316e-03,2.412890056370348060e-03,2.362853106382818355e-02,9.889890551567077637e-01
-3.823424716658297556e-02,-5.764014589404696798e-01,6.041871333683651590e-01,-2.361332986469954608e-03,5.763845924244915056e-03,-8.058476389762040532e-03,1.023899674415588379e+00
6.046039206685603976e-03,-5.768559831883588451e-01,5.947657425419919930e-01,2.859554024855123213e-04,-1.124287336395793369e-02,1.349474189826135092e-03,1.014847993850708008e+00
-3.349324856056677679e-02,-6.200261342354853600e-01,6.034031550554039836e-01,1.273617002773349584e-03,-8.208103361110621887e-03,1.240582562783382366e-02,1.060135483741760254e+00
-2.836509696863321120e-02,-5.994820514028571523e-01,6.038919253346031191e-01,1.703664567767276903e-03,-8.494124658708206502e-03,-3.172563529196623794e-03,1.042723178863525391e+00
-2.261131961135994309e-02,-6.265202134180735127e-01,5.918929414019401536e-01,-7.333081983090645323e-03,7.193146455162514538e-03,-8.489430950093957567e-03,1.055442452430725098e+00
-1.284876251740656172e-02,-6.101557433466725522e-01,5.044359062513071867e-01,-1.328326893514574468e-02,-6.022518314953920725e-03,-2.269326749610624944e-02,9.672227501869201660e-01
-2.836876594021439657e-02,-5.034706412788489960e-01,5.801593758589626004e-01,-3.489198057260407566e-03,-1.457638597058986442e-02,-6.345946476859737340e-03,9.412416815757751465e-01
-3.512954008279975393e-02,-5.978045388968394880e-01,6.079161040172891273e-01,2.170692558774637670e-04,1.005194447463978076e-02,-4.237714008790574235e-03,1.045128583908081055e+00
-1.916658941314261511e-02,-6.404753380200473023e-01,5.909602923788970230e-01,3.380619897975364885e-02,3.258409869891992078e-02,-6.840079418841220338e-02,1.076107025146484375e+00
-2.009709773352353485e-02,-6.028607106443748531e-01,6.013598842354253016e-01,-7.322766706684822506e-04,1.392920887304124195e-02,-2.780095374901408751e-03,1.043355941772460938e+00
-7.519595254519936822e-02,-4.053430475317022497e-01,5.771733898405659868e-01,-6.145649938276463893e-03,7.779069054822833340e-03,-1.314595333695900425e-02,8.664721846580505371e-01
-2.240795808922631943e-02,-6.054965996600965017e-01,5.854975079161529594e-01,3.738404782483210897e-03,6.229891284357094716e-03,-8.401403830018820164e-04,1.031583547592163086e+00
-4.378450333087405971e-02,-5.981335158851716072e-01,6.094271673208263573e-01,-3.352991199405598415e-03,4.650444920147588437e-03,-4.483366162210879191e-03,1.047021746635437012e+00
-6.040157554039287530e-02,-6.085778746662268146e-01,5.723624383226564305e-01,-1.752077647284390471e-03,-3.053702348126247773e-02,-1.582241399358490360e-03,1.024972200393676758e+00
-3.543090771821802432e-02,-6.042705139799438019e-01,5.626925711145533970e-01,-8.289670534273306871e-03,-1.673628203086127350e-02,-2.751155854805155832e-03,1.011254549026489258e+00
-3.447860554556914092e-02,-6.046351514835736074e-01,5.799960383339333170e-01,-8.588283740613765135e-03,-1.740743142872276618e-03,-2.124017894581012745e-03,1.026278853416442871e+00
-5.077901850204678824e-02,-5.996127099307366759e-01,5.618293316317483077e-01,4.951266020427143630e-05,-8.021600320469245149e-03,-3.963305867481718703e-03,1.006462931632995605e+00
-3.225656741674230027e-02,-6.051218394497703823e-01,5.777797548918308657e-01,3.533193668166367731e-03,-6.990818923760905648e-03,-1.417838197698825450e-03,1.024684190750122070e+00
-1.530056675261811695e-02,-6.129094967985125875e-01,6.162283768671013018e-01,7.976541204986428192e-04,-4.469873846476996211e-03,-2.999699796148888771e-03,1.064641475677490234e+00
7.891124269687915804e-02,-8.676819413110187229e-01,2.387734173665343462e-01,5.328555206321458626e-02,-1.282455155853713114e-01,1.619289030997941858e-01,1.099745750427246094e+00
1.225789665238082027e-02,-6.223756865908409708e-01,6.229956808729041340e-01,2.678174915753016652e-02,2.779101998912262661e-04,1.212460253912383754e-02,1.079790830612182617e+00
-1.326396167455598345e-02,-5.922877147256646602e-01,5.953596921012127563e-01,-7.694043405491973568e-04,8.472863756728524209e-03,-3.276366112949231739e-03,1.028760552406311035e+00
-4.805645324251391071e-02,-4.664683050836694322e-01,6.414788409653188195e-01,-1.561543695989978386e-01,7.047338024647138710e-03,-3.205416439091375580e-02,1.007681012153625488e+00
-6.358854662372703803e-02,-2.982252225750682273e-01,6.345145284627552451e-01,-1.090235842375038705e-01,3.818861535815230943e-03,5.258756397465744192e-02,8.661416769027709961e-01
-4.268216824911899576e-02,-4.072794895656788317e-01,5.638873586780426272e-01,-9.260010381693783987e-02,1.637925313410604905e-02,1.452798714090497781e-02,8.655482530593872070e-01
-1.340341174002709634e-01,-1.774737840957739676e-01,5.982807688515514588e-01,-8.815952535066015616e-02,3.092757185280935531e-02,7.299825813631614924e-02,7.824037671089172363e-01
-1.188757866063266389e-01,-1.825575963074346220e-01,5.684133812692062637e-01,-8.648735205918894886e-02,-1.221040411298358712e-02,2.471424383742939351e-02,7.381798028945922852e-01
-9.332080856105806621e-02,-2.711285197735385233e-01,5.572054466757073721e-01,-5.213536814553260818e-02,-1.101394187986988633e-02,1.346959121948627588e-02,7.612693905830383301e-01
9.113388401094310587e-03,-6.043961215367497086e-01,4.655607278190747600e-01,-1.331443207760065785e-02,5.247369230654417432e-03,-2.270559929172567479e-02,9.310928583145141602e-01
-3.299078248906880950e-02,-6.207712662901175849e-01,6.146470355950057751e-01,-1.585889303689126196e-03,4.870602443376265633e-04,-3.243583428962485728e-03,1.070340752601623535e+00
-1.744306294900832000e-01,-2.555887319022492332e-01,8.671019732750672171e-01,-2.413523326844525807e-01,1.078764265692840341e-01,-1.012054064709274892e-01,1.190083146095275879e+00
-2.178475321621036603e-02,-6.195005035636453883e-01,6.011240494915889299e-01,-1.502728715419460485e-03,1.356918480516658507e-03,1.872889091607882282e-03,1.057177662849426270e+00
-3.056977840878953578e-02,-7.629924252552672259e-01,6.789076211164066788e-01,-3.190019121737886366e-03,5.296510639253724367e-02,5.825151101939528286e-02,1.256210446357727051e+00
-1.848277016320294328e-02,-6.656703953760182424e-01,6.832279220593613367e-01,2.403717751928780011e-02,-4.450288767041982174e-03,5.199030792492251828e-03,1.169299840927124023e+00
3.872812630993364980e-02,-5.843121864020884848e-01,3.698534729780404429e-01,5.042928093796618383e-02,-4.980175246124405458e-02,-2.754773422811750139e-02,8.493964076042175293e-01
-4.764373508284746456e-02,-6.640493381299482634e-01,7.530114950790411932e-01,1.617923959798528780e-02,2.660912976261578175e-02,-1.068468970159738504e-02,1.231984138488769531e+00
-3.530596813632928821e-02,-6.617211837810633712e-01,6.738997276011380322e-01,1.786266638172947716e-02,4.187273888807118566e-02,-4.368449467461741134e-03,1.160129547119140625e+00
-6.696039253061069479e-03,-6.862769339844616567e-01,6.113577625280148808e-01,4.412983312836332717e-02,4.023117054877843601e-02,-4.482174633984316314e-02,1.131619691848754883e+00
1.251456026587583620e-02,-6.317059742403954292e-01,4.938650640468496000e-01,-1.984618935989905866e-03,-1.103304226436052637e-02,1.869883779060407814e-02,9.788974523544311523e-01
6.770313259105623094e-02,-5.839354742902529427e-01,2.374611485520428666e-01,9.155532619579910460e-04,4.311853509979921006e-02,-4.972829205441210709e-02,7.596514821052551270e-01
6.694213263876253039e-02,-6.824247317587787132e-01,3.700233637799229536e-01,-1.996730172149091889e-02,1.414704435998526688e-01,5.952609604620161948e-02,9.759076833724975586e-01
2.032294166397094481e-02,-6.452311961001075957e-01,4.099831589257497133e-01,-6.447486998740994306e-04,8.947832015153504848e-02,1.382200420695276107e-02,9.374064803123474121e-01
-7.114929752016957258e-03,-5.935189124424826712e-01,5.976151243173877248e-01,8.987246747813195215e-04,-8.366845606970823787e-03,-3.596907475644760873e-03,1.031714797019958496e+00
-1.553013273056549383e-02,-5.938842561252447583e-01,6.012388060328717199e-01,9.000136649005280451e-04,-1.210612591341449565e-02,-3.602068295761489021e-03,1.035417437553405762e+00
-3.020969159359586376e-02,-5.594953438939490598e-01,6.001353112939190604e-01,8.027128029757724028e-05,-1.190537340797030719e-02,-9.077812158746985383e-03,1.005874276161193848e+00
-6.049578161259577640e-04,-6.078616743784240883e-01,5.979090197564786990e-01,-4.536251467125494252e-04,5.606470499262744545e-03,4.894582439793250181e-03,1.044317007064819336e+00
-8.122443282755850702e-02,-4.214357038811979983e-01,6.943382149234063050e-01,2.330966200445545033e-01,-1.153069176445365163e-01,7.987081388219098577e-02,1.096869826316833496e+00
-5.063732177981088156e-02,-3.512182731984743733e-01,4.416739370312191548e-01,-2.098766732686120975e-02,2.546928056975182944e-02,1.057273358977494325e-02,6.959177255630493164e-01
1.205761374669726826e-02,-6.566954851806033888e-01,4.367764553003268269e-01,-7.359479023056798852e-02,-1.294776130021170757e-01,1.251196148845305778e-01,1.012499690055847168e+00
-4.782001476737780116e-02,-5.150403141536009644e-01,5.916217724491580343e-01,-2.491431309233546436e-03,-6.095452809108844495e-03,-1.219839448423078697e-02,9.625576734542846680e-01
-5.335543758458664854e-02,-5.040815808821628163e-01,5.899856518219819268e-01,-1.300545903782812217e-03,6.357217603001044139e-03,-1.220331137983722905e-02,9.526728391647338867e-01
-1.472682789514687118e-01,-3.151066877986282710e-01,8.558752490699021998e-01,-1.975160501444147565e-01,1.329698715586851432e-01,2.078572734445085710e-02,1.172266840934753418e+00
-2.085036722999510095e-02,-5.830797722036209496e-01,7.351312151780124982e-01,1.176646812003333542e-01,-2.454254278959917129e-02,-4.735803031027448901e-02,1.167353987693786621e+00
-3.897344311020138619e-02,-3.462725452207401911e-01,5.733354378379053040e-01,1.586643377910364194e-01,-1.469552665781801160e-01,-1.126810680661347458e-01,9.142858386039733887e-01
8.040017964383304114e-03,-6.094697866308266265e-01,5.965333904404988008e-01,-1.136123506888573383e-03,1.697415925672916001e-03,-2.037263834472776997e-03,1.044542074203491211e+00
-8.998330487931127664e-02,-3.856660087266819414e-01,6.791038791256952534e-01,2.191081652033347316e-01,-9.870440858588742927e-02,-8.319284906708271365e-02,1.048973321914672852e+00
-1.370538142831201900e-01,-1.805596234325079763e-01,5.860852782373007219e-01,-2.889828262076076654e-03,4.388702638240826910e-03,-1.175237952449655759e-01,7.731765508651733398e-01
-4.573830578995023016e-02,-5.058891237833675891e-01,5.866285623598700427e-01,1.113695316328341609e-03,1.652393204461050785e-02,-1.279882873966726314e-02,9.507496953010559082e-01
-5.497308735217699971e-02,-3.691567754722230310e-01,5.591072177900205942e-01,8.694004123676308746e-03,-1.903180810428406824e-02,2.767325046872768420e-03,8.185819387435913086e-01
-6.269706311072642535e-02,-4.050109570144623805e-01,5.750765230315685317e-01,-2.024791546179398761e-03,-6.551665102409060318e-03,-1.339470090970100967e-02,8.619350790977478027e-01
-1.156077774347040454e-01,-2.149539382017564559e-01,5.737377483617900342e-01,-1.884911830784861270e-02,6.048426267709599256e-03,2.658540617424699076e-02,7.462216019630432129e-01
-9.349946993966384845e-02,-2.432591431849655539e-01,5.464077420752273540e-01,-4.853992159079033308e-02,9.304287360868198232e-04,1.280842730128041798e-02,7.316451668739318848e-01
-9.581035773418361545e-02,-3.824601484732640388e-01,5.766715138356434123e-01,1.457186099212746163e-03,-1.818983502120774087e-04,-5.357945626711751314e-02,8.577793836593627930e-01
-2.535234404006637271e-02,-4.555967162939157378e-01,5.696792993731198962e-01,-9.065100304316999966e-03,-3.543409023603535327e-03,-1.519252136356221685e-03,8.918929100036621094e-01
-3.349882934412553442e-02,-6.151585290482325385e-01,6.232242730765084060e-01,-2.641355351770104543e-03,-5.463433688653357607e-03,2.186766600998131613e-03,1.073185682296752930e+00
-4.663674416321143129e-02,-5.059206701351360858e-01,5.868191542417898754e-01,1.027366022794592429e-03,1.731789141664956747e-02,-1.265906201450068581e-02,9.510666728019714355e-01
-1.116928841023338004e-01,-2.586318670070189008e-01,5.485397152328747028e-01,2.466554518558793790e-02,9.523677282889518592e-03,1.613780345295691768e-02,7.465859651565551758e-01
-5.854343028321317213e-03,-6.245583410990157569e-01,6.229749920430088794e-01,-1.246044514933971302e-02,1.166533084205565243e-02,5.162137547105427604e-03,1.080848813056945801e+00
-3.272906533824931907e-02,-6.187266401734985433e-01,6.196399055724433058e-01,-2.160881341986027951e-03,-4.860569756508685037e-03,-2.083183008566960679e-03,1.073015809059143066e+00
-1.105342470024818502e-01,-1.060546897185613568e-01,5.591561172270314017e-01,1.070894543558278261e-01,-3.307901812381564000e-02,-1.067257375193325364e-01,7.192799448966979980e-01
-1.454173886545214733e-01,-2.779500322380382138e-02,6.276959034534066451e-01,-1.041611995374009669e-01,4.006942853430258550e-02,-7.888590946877931109e-02,7.593668699264526367e-01
-2.100755679721257041e-02,-5.671869223443470887e-01,5.927032224351800327e-01,-2.115554554337909302e-03,1.737144322904445037e-02,-7.965135468148462627e-03,1.005613207817077637e+00
-1.368261511213252624e-01,-1.444241471872073079e-01,6.200741534650794362e-01,-9.683864257737609393e-02,2.259682339384696398e-02,-3.369934214068780881e-02,7.821628451347351074e-01
-5.657945560037512533e-02,-4.563797819377847231e-01,5.865469891140945302e-01,-6.021272966591778575e-02,3.629479368890805614e-03,-6.105781777291543859e-03,9.173887968063354492e-01
-5.082246849940925959e-02,-3.864883483518674612e-01,5.553897402332179656e-01,6.579139026234989349e-03,1.487715622791608953e-02,-5.376785838457976904e-03,8.273633718490600586e-01
-1.350518209328779307e-01,-1.395958781515708735e-01,6.201897118373506101e-01,-5.763803849217992437e-03,2.096611808005114166e-02,-4.945541944021528136e-02,7.632812261581420898e-01
1.610444126834792433e-02,-5.549170464760628807e-01,5.750407364634926299e-01,4.406782117935866515e-03,1.831687034191751065e-02,-1.367355895159041729e-03,9.791375398635864258e-01
-9.247452944871864533e-02,-4.795593727693679975e-01,7.797749933734817729e-01,2.248893939795577057e-01,-1.382161435283640605e-01,-2.366770534647160903e-02,1.207893133163452148e+00
-5.031462689747426276e-02,-4.579782424900743498e-01,5.766040222648123326e-01,2.761555067795081787e-03,2.192685792563641226e-02,-7.936840471730634283e-03,9.035722017288208008e-01
-1.223521155602536603e-01,-1.204203384201751881e-01,5.456681718008700166e-01,-1.832140825980655557e-02,5.423667679432698542e-03,-8.004273216095345728e-03,6.680208444595336914e-01
-1.181021452501297142e-01,-2.066846831918226490e-01,5.333484786328881455e-01,-1.071932274307993080e-02,-9.367900842661518439e-04,-9.606050265325077539e-04,7.002085447311401367e-01
-1.055803581457207541e-01,-2.944259113226318503e-01,5.859338365998977283e-01,2.086384772031677892e-03,-4.182721790452844160e-03,1.612951992450407587e-02,8.032994270324707031e-01
-9.447123990355316137e-02,-2.938133833284731211e-01,5.594033228882804298e-01,-3.952570591765455776e-02,-8.276909062579921109e-03,6.186594712283464970e-03,7.762996554374694824e-01
3.260166137852682500e-02,-5.489755276381717009e-01,5.633459685513965143e-01,2.117830545238110537e-03,-1.645901770658865461e-03,-2.766371518845896368e-04,9.636452198028564453e-01
-1.002653113576626176e-01,-3.284520677141191114e-01,5.875007383193864285e-01,-1.957426722119427406e-02,-1.621773421434406217e-03,3.032886461621740054e-02,8.282193541526794434e-01
-2.228569040135013751e-02,-6.099900186334327179e-01,5.953310549839567756e-01,1.451696243029888811e-02,-2.018587418020426419e-02,-2.760463441907945892e-03,1.044844627380371094e+00
5.149984946446735032e-03,-5.845095973740632722e-01,5.878861895616529498e-01,3.996480262786382886e-04,5.414409842838180560e-03,3.282030381279082542e-03,1.015389919281005859e+00
-2.408627633141041668e-02,-6.077982686785190491e-01,5.885534971785520986e-01,1.281196960749906612e-02,-2.521529181654138044e-02,-3.216687213228278108e-03,1.037344336509704590e+00
-3.851127494473673141e-02,-6.111825783467753626e-01,5.875312250018535076e-01,-3.727659674727370684e-03,-6.957181178922430473e-03,-9.162594959346650331e-03,1.038670778274536133e+00
-1.697690974576917394e-02,-6.122167895398548110e-01,5.961243393960180548e-01,-4.255897714352360056e-03,5.065324400450633979e-03,-2.057616046608347782e-03,1.046561002731323242e+00
7.010598777673759940e-02,-5.972092305066970530e-01,2.820197332145917279e-01,4.006271513498149868e-03,2.659817812336581766e-02,2.202956199532849629e-02,7.970299720764160156e-01
4.919429233708427773e-02,-6.004679101627722337e-01,3.273092650671465265e-01,5.469265247585955274e-03,-2.222933157871154544e-02,2.997956417342834134e-02,8.272594213485717773e-01
1.505462636230024166e-02,-5.914093581776780351e-01,5.875299906717703635e-01,7.548101946853251823e-03,-1.151783297570810197e-03,3.394821241979054105e-03,1.021235466003417969e+00
2.327804048337432305e-02,-5.982175744493588576e-01,5.889339014145750228e-01,-1.298217067988599593e-02,-3.252886335358201684e-03,-4.487007159146962423e-03,1.028772950172424316e+00
7.520684085560893142e-03,-6.081206246656919445e-01,5.946917533064439709e-01,-1.175033834864099534e-02,7.892304744153847210e-04,-3.907686784964963314e-03,1.041985034942626953e+00
1.751774864732109083e-01,-1.063106140771818975e+00,1.709187976465361691e-01,-1.709218164280313090e-01,-7.984533979740766896e-02,1.382985418204017436e-01,1.300860881805419922e+00
4.645684910657094102e-02,-6.599101412385058874e-01,3.689247010912883318e-01,-1.696179318821130697e-02,5.656542265082576543e-02,1.084145994597565665e-01,9.361857175827026367e-01
-2.145615499821121319e-02,-4.404805646823314325e-01,5.653008136554389385e-01,-3.508335056946974926e-03,1.025991038824604351e-02,3.110918932262991474e-03,8.752784729003906250e-01
4.165003521920476043e-03,-5.452126031408564000e-01,5.786761504419358770e-01,-1.938402851963754630e-03,-7.037468683187187227e-03,-1.593114143490633513e-03,9.734833240509033203e-01
2.430623854584793020e-02,-5.838900219056063490e-01,5.851780120100277260e-01,-4.523781582924457992e-03,2.078097344395637546e-03,-1.886161796174779665e-03,1.012761116027832031e+00
6.508504369840328874e-02,-6.699363697803555340e-01,3.382022131144316046e-01,-5.052927984863153296e-03,-4.363560438088813498e-02,1.054815228683367301e-01,9.245346188545227051e-01
-7.680562869363605216e-02,-2.881480198104248713e-01,5.408488900059955640e-01,-5.098403671906168340e-03,-6.297334227181791526e-03,3.032108217929937056e-03,7.462732791900634766e-01
5.228148005077487559e-02,-6.331360736955726765e-01,3.052643068166558948e-01,-2.651490689420706037e-02,-1.229399764847572823e-01,8.087856559813330626e-02,8.799273967742919922e-01
4.983010618842839690e-02,-5.867215896880975112e-01,2.748734210332101635e-01,7.423181693297984177e-03,-6.974136120233843938e-02,-7.740421873859354603e-03,7.836012244224548340e-01
-9.865938347316319246e-03,-6.165487077309363961e-01,5.443824626514124354e-01,-1.069658750852362818e-02,3.327063910333203246e-03,5.153241664667989295e-03,1.005964398384094238e+00
-2.555316051727490878e-02,-4.405926199699228274e-01,5.655640578740285251e-01,-4.288341878388105509e-03,7.558886813650837581e-03,2.998680409865278097e-03,8.759382367134094238e-01
-4.351733245335540068e-02,-6.773540591302691372e-01,7.164029965908599307e-01,-3.033710448418930339e-02,2.183661054097251267e-02,-9.878416378088337654e-03,1.210527777671813965e+00
-2.607144715242564956e-02,-6.195006338718171968e-01,6.091319217752763082e-01,-5.851667379981695047e-03,4.463965939153894703e-03,6.879699229045643100e-03,1.064375042915344238e+00
-3.660482633346603953e-02,-7.187729470140929999e-01,7.226209525660545197e-01,-2.308465774715112023e-02,3.085197194895698131e-02,-2.357580075952022194e-02,1.251326680183410645e+00
-6.849194099362705679e-02,-3.685174611813767931e-01,5.653030787420908476e-01,2.236618160588002644e-03,2.031078768662383099e-02,-1.259981068914149856e-02,8.267980217933654785e-01
1.942489431292415691e-02,-6.006148331136003105e-01,6.078197970997046840e-01,1.306611483137927118e-02,-1.931438898169184157e-03,-1.211880575970156020e-02,1.047115087509155273e+00
-1.452600355942634813e-02,-6.518222414658834118e-01,6.645977922914032554e-01,2.048070059618729150e-03,5.869509667327189352e-03,-9.290643114272492849e-04,1.140296936035156250e+00
-1.605068693137065398e-03,-6.863314950071243148e-01,6.669713194651295529e-01,-7.522359309832123142e-02,5.427695662874107776e-03,3.349296474672309315e-02,1.180705785751342773e+00
-2.628117283423033607e-02,-5.740156325166448914e-01,5.921022964560422874e-01,-3.714937074938883058e-05,1.336076691445628982e-02,3.777609978813523204e-03,1.010791540145874023e+00
-8.502972433027175536e-02,-2.885208111867965108e-01,5.480777633451046071e-01,-1.500120979376637917e-03,-7.210840637892991511e-03,-3.104182882900981554e-05,7.557963728904724121e-01
-1.171833850330002424e-01,-2.305193504265594107e-01,5.387124221265187085e-01,-6.850250008430738965e-04,-2.795990517988003118e-03,-5.895922803370327349e-03,7.193817496299743652e-01
-1.023797448710660474e-01,-4.060440279802404184e-01,5.829017613796868558e-01,2.300479183398066937e-03,-7.440255905241559449e-03,-1.334912797100813904e-02,8.778581023216247559e-01
5.898718561880293004e-03,-6.189745469235998776e-01,6.163105647771308648e-01,-1.698595627846351611e-02,-5.977604956068940240e-03,6.363693524162312640e-03,1.070324063301086426e+00
-7.422206615744592062e-02,-3.956109270868372607e-01,5.727775020559670027e-01,3.076229721251457980e-02,-1.917990321734166018e-02,-2.958976725309575562e-02,8.581415414810180664e-01
-8.022190843564610749e-03,-6.259953510351259354e-01,6.213252172923867667e-01,-5.378178139165698014e-03,-1.096093764691817704e-03,-2.550411168620328848e-06,1.080268144607543945e+00
-1.126962985263679495e-01,-2.041636766677778492e-01,5.409908351804645354e-01,6.558825138220929392e-03,5.431157401471634408e-03,2.029194345332009305e-03,7.040554881095886230e-01
-5.042230417780838025e-02,-3.863484044550147267e-01,5.510435361239472973e-01,6.568428484781917154e-03,1.229481404070285021e-02,-6.397824132756910372e-03,8.230196237564086914e-01
-2.202709794066616891e-03,-6.869677107359101198e-01,6.868059257843831533e-01,-7.655364628491814760e-02,1.432375693883215090e-02,2.727072952769450317e-02,1.198279142379760742e+00
2.753453076467353433e-02,-5.568086877112894406e-01,5.700967387269973985e-01,1.016524246480362235e-02,9.862213927707686595e-03,5.198015720609876732e-03,9.765020012855529785e-01
-4.716952729391643562e-02,-4.578143697318990957e-01,5.730574403147973284e-01,3.416975844048197701e-03,2.174532858816772066e-02,-8.719977076982120615e-03,8.998252153396606445e-01
-2.940645421748309604e-02,-6.061022705145403533e-01,5.462059011490443261e-01,-1.270227959124813934e-02,-1.181821806615340406e-02,-1.164450064701673740e-02,9.985843300819396973e-01
-1.100757383773962039e-01,-2.380657768177394940e-01,5.377458589236165931e-01,8.447766386948968309e-03,-2.933440695026439445e-03,1.676697486873776751e-03,7.205673456192016602e-01
2.255426890237056253e-02,-5.928836186966447430e-01,5.914735960426079631e-01,2.217159284240513908e-02,2.494688645513449664e-03,6.964394124752824010e-03,1.026745557785034180e+00
1.797736796969459996e-02,-5.739764136334433164e-01,5.819156357686720016e-01,5.453102346042956045e-03,9.515945370250054186e-03,-3.774378062828362846e-04,1.001310348510742188e+00
2.771575990943273698e-02,-5.721455047768587709e-01,5.784556420656850051e-01,2.872207217838650475e-02,-1.203057568649133638e-03,-1.122338775529762222e-03,9.979972243309020996e-01
-5.098574495951137264e-02,-3.471625125772509479e-01,5.428144654868625185e-01,9.520496713109026510e-03,-4.359416599822874168e-03,-3.877193624564790209e-03,7.852153778076171875e-01
1.121930490563520511e-02,-4.704166004023707659e-01,6.009988153510547049e-01,1.154550100152465508e-01,9.340719562596537864e-03,2.169080245191258582e-02,9.515959024429321289e-01
1.450175615453729028e-02,-5.335954119259932460e-01,5.688369779830798612e-01,3.166321148356215226e-02,1.214753549540099203e-02,-4.773219322819302092e-03,9.565805196762084961e-01
-9.617095207070824880e-03,-4.788535175388614062e-01,5.633053058567810689e-01,3.774400869619724992e-03,1.040275486419502994e-02,-6.200270926810630759e-03,9.042906761169433594e-01
3.827457188760455264e-02,-5.521885145652825067e-01,5.658557931486983827e-01,7.145105378987919725e-03,1.538335344685732046e-03,-9.583061439171286717e-04,9.688492417335510254e-01
3.383534455817983899e-02,-5.581501580650846117e-01,5.701784662694845407e-01,1.156707776947681304e-04,-3.492579514501694283e-03,3.184016834328605460e-04,9.775761365890502930e-01
4.069528858013422845e-02,-5.539488963726522108e-01,5.674124306796582973e-01,7.241387560653313009e-03,-1.243540100573979710e-03,-1.859455323879958969e-03,9.718098044395446777e-01
-4.238226478085303783e-02,-6.360350123971449943e-01,6.367413306134862561e-01,2.364138540213059619e-03,7.682207235143280639e-03,-2.072581087851161231e-03,1.103178501129150391e+00
6.701004979652241261e-03,-4.829898438447735032e-01,5.631134724200436148e-01,2.790182911539112673e-02,-1.604822103724291155e-02,2.152997276835811572e-04,9.082788228988647461e-01
-4.201333611126403106e-02,-6.589923816112561727e-01,6.779372660172982012e-01,-3.443340254982932367e-03,-2.020602139057607258e-04,-3.770273588630248477e-04,1.158974766731262207e+00
-2.429797656671192976e-02,-6.452104794055369963e-01,6.536655955551213815e-01,-1.922221560042758045e-03,-7.321351458094529571e-03,-1.233882569823151025e-02,1.125500559806823730e+00
-3.887635940207753021e-02,-6.470649867364905994e-01,6.815055725330692038e-01,3.462812413355105361e-03,2.747166008098229223e-03,-8.139228519113932483e-03,1.152054190635681152e+00
1.613514170639592654e-03,-5.254037734183902852e-01,5.794282711686541409e-01,-2.454284604529820280e-02,-4.264477420094129429e-04,2.821364231768112331e-03,9.581059217453002930e-01
-1.151485339301681066e-01,-3.948852802441307208e-01,1.021239986320842785e+00,1.715300735937780041e-01,6.478022137731835606e-02,-3.105505216653949713e-02,1.338383913040161133e+00
-3.542999232309719526e-02,-6.874292326984517976e-01,6.809008595175561895e-01,-1.162332766442645236e-02,5.427013815003085134e-02,-1.823477048291179820e-02,1.189755678176879883e+00
-6.010245976621810676e-02,-6.060598899531108863e-01,5.808534968734071491e-01,-1.185795658857070802e-03,-1.853320545873675743e-02,1.354692528313602290e-03,1.029499292373657227e+00
8.552913660038423752e-03,-5.443797887630732468e-01,5.785051985080796877e-01,-4.284917159177257379e-03,6.304799944839304705e-03,1.597162771242565966e-03,9.725777506828308105e-01
-1.521647814759017822e-02,-6.298882084363242040e-01,6.054791009551444558e-01,2.629492553272442710e-04,1.159656000105768921e-02,1.979892626460350198e-03,1.070057868957519531e+00
-6.569523867208568180e-02,-6.414903719651323666e-01,8.054507399242097909e-01,-1.577713885723475984e-01,8.463213049304202373e-02,-6.456116594284920518e-02,1.304110646247863770e+00
-2.104045269950162098e-02,-6.397338757844261981e-01,6.648205554337140999e-01,-3.361838618289289538e-02,1.232625540299466665e-02,-5.820762908508300866e-03,1.132021427154541016e+00
-5.511263492438825407e-02,-6.377144696168178806e-01,6.300868001328291390e-01,-8.250718379960882837e-03,-5.438686777448544646e-02,5.484873717651138521e-03,1.103308558464050293e+00
-3.251841327896648481e-02,-6.514918122471371476e-01,6.711773257629166656e-01,-9.327412232132950218e-03,-2.606577603416835795e-02,8.661142834195946841e-03,1.147348642349243164e+00
-2.946312872371792749e-02,-6.121043590733071804e-01,5.867043781578215045e-01,1.834790023983675711e-03,2.283639646823376178e-03,-3.334479649206142297e-04,1.038346648216247559e+00
-1.024021405207655722e-01,-2.302602051419791462e-01,5.344161907205462470e-01,-4.101948088504788793e-03,4.191487405404766865e-03,-5.383290108032530615e-03,7.095757722854614258e-01
-2.128288336086084365e-02,-6.083322989508831435e-01,5.943307542240230390e-01,-3.570066649672836139e-03,1.842673551404435750e-03,2.522350594964638780e-03,1.041667103767395020e+00
-2.448378080485108868e-02,-5.942073350635033169e-01,4.842395826012739768e-01,1.370706607233963467e-02,-6.634625891898063982e-03,-1.174721770998010326e-03,9.348347187042236328e-01
-2.088459926625843566e-02,-6.103282733076585975e-01,5.459207455795076491e-01,4.482423006287121134e-03,4.459749601909271388e-03,-1.983407856654893255e-03,1.001470804214477539e+00
1.820685748123457293e-02,-6.573674553518087382e-01,3.916739785258248618e-01,-1.433961728669946086e-03,-8.095289723068346821e-02,3.660364799510378020e-02,9.337391853332519531e-01
9.377929427346637370e-03,-5.424093944255294897e-01,5.984430669695313121e-01,-2.521710595265065288e-02,1.008377861750516316e-02,-2.456262396850428242e-02,9.902163147926330566e-01
-2.327441110514252842e-02,-6.130849722015249137e-01,5.393841535826754408e-01,7.958127122970802547e-03,1.878460074561138018e-02,-1.751999227098636688e-02,9.992460012435913086e-01
8.362398050987833800e-03,-5.637496203062698497e-01,5.878197348543301448e-01,3.998038791607048557e-04,1.199074968534625564e-02,-5.705018165972721746e-03,9.975605010986328125e-01
-3.149937520074694297e-02,-6.106786029327547771e-01,5.611482415268049806e-01,8.289329950246350151e-03,1.023697066863436290e-03,-6.262224375833333467e-03,1.015015244483947754e+00
-2.313763186385768555e-02,-5.978242491828378302e-01,5.898316549993014579e-01,-4.170120049649985762e-03,2.985397865964325298e-03,-6.452050903153016756e-03,1.028817296028137207e+00
-2.337241229861810113e-02,-6.109107460850121685e-01,5.665695211581796009e-01,2.211045421318687861e-03,9.656663386650117531e-03,-5.114624648200913858e-03,1.019911408424377441e+00
-5.247968316592399596e-02,-6.060380154572716505e-01,5.883443378367233523e-01,3.143843925695108139e-03,7.751088309088172319e-03,2.505675797601818536e-03,1.035395741462707520e+00
-4.907328784410495276e-02,-6.177512451901745472e-01,6.243097810500499723e-01,-5.025689795966962331e-03,-1.800128270838747060e-02,1.247770131202349288e-02,1.077632784843444824e+00
-8.515628953278017721e-02,-2.885709902922226067e-01,5.493339935874587132e-01,-4.639626681889792020e-03,2.738356675372389474e-03,-2.756754230675907452e-04,7.570385932922363281e-01
-2.280565777607710190e-02,-5.939636715045966131e-01,4.914505415431116297e-01,4.837381199609633482e-03,2.999532517666061299e-02,7.497256351717570752e-03,9.419875144958496094e-01
-9.202635224924479718e-02,-2.600488221738421202e-01,5.385839558566997143e-01,4.233516268181486235e-03,1.595763582739893188e-02,-6.657993682123596393e-03,7.299371957778930664e-01
-8.445463704579574127e-02,-4.388857796184178484e-01,6.412764539015354259e-01,-7.411798000404748454e-02,4.207871847575198575e-03,-8.173542847100641329e-02,9.726789593696594238e-01
-8.053748517658521067e-02,-3.867239663056070698e-01,6.643526932555716691e-01,2.334442887809022593e-01,-5.737413453840976840e-02,2.188986379130848647e-02,1.025421142578125000e+00
-4.629160142870394901e-02,-6.057488880872661241e-01,5.769325444616979492e-01,2.074958909950438361e-03,1.113377555306438796e-02,4.074454579755580272e-03,1.024940371513366699e+00
-5.514978764783846910e-02,-5.039181786548506681e-01,6.008784119464259943e-01,4.237629850180689439e-03,-2.118154570123629427e-02,6.763970277906553898e-03,9.631759524345397949e-01
-4.497411736923674630e-03,-4.786788067077281106e-01,5.614278442752251852e-01,4.928174288239798792e-03,1.275724177024263779e-02,-6.411465146589908487e-03,9.023054242134094238e-01
-4.672645352862551948e-02,-6.018088315151068901e-01,5.531688337170339587e-01,-9.679777354903816924e-03,4.058464388713295401e-02,-6.444684049272211314e-03,1.003159523010253906e+00
-5.683070862433467485e-02,-5.987562574092342160e-01,5.776399858611998006e-01,4.079655694036297031e-04,5.153602250142124211e-03,2.898724340106898262e-05,1.019878625869750977e+00
-5.405134094513083104e-02,-6.079145305947410982e-01,5.957345802422745473e-01,6.481278772409894548e-04,4.570984595049331148e-03,-5.960939762639733651e-03,1.043575167655944824e+00
2.272185474749359793e-02,-5.293186833694756288e-01,5.633567564768026115e-01,1.367025946394283265e-02,9.132285324296871010e-03,7.722584613174236431e-03,9.468246698379516602e-01
-7.312976721513918255e-02,-3.574722598172532240e-01,5.577769136209581591e-01,2.975200786434356939e-02,-1.260325946375910958e-02,8.034320058430063916e-03,8.133960962295532227e-01
-4.284599241353473364e-02,-3.140863911134867403e-01,5.205329625500174640e-01,1.490279667025163068e-01,-1.409216381568393628e-01,4.503470390337725032e-02,8.222332000732421875e-01
-4.987259749009168019e-02,-3.145043186901401167e-01,5.244039674071463430e-01,1.534491975475698045e-01,-9.096712541466994706e-02,3.819887127619973899e-02,8.072408437728881836e-01
-8.278696377004471363e-02,-2.780603003704499865e-01,6.406656716749170588e-01,1.846609786487575788e-01,-3.076963920577725428e-02,5.169103700495684267e-02,9.032948613166809082e-01
-7.676484473322131574e-02,-2.453876596472241434e-01,6.786704899770330535e-01,1.461539057452763413e-01,-1.310017133579042259e-01,1.093975012664390040e-01,9.370008111000061035e-01
-3.765649247586980164e-02,-4.694483701147238452e-01,6.225021280218716591e-01,6.169382867138076959e-02,2.833757433467695881e-03,-2.185784414528415057e-02,9.592604041099548340e-01
-1.901967690864705962e-02,-6.151958497883525112e-01,5.761629359927811223e-01,-9.387042650920298520e-03,-4.101633124958482292e-03,1.558830637366760176e-02,1.032252788543701172e+00
-1.271173642150988728e-02,-5.147902860958000204e-01,4.617164136423697052e-01,2.255588262752877826e-02,-1.442116489767537695e-02,3.488016622725956944e-02,8.492144942283630371e-01
-2.660761412356311278e-02,-6.086914998325392290e-01,5.637377948460422505e-01,-1.411919148575957635e-02,-4.589898344674247718e-03,1.156569880623936099e-02,1.015885114669799805e+00
-3.334284581772109513e-03,-6.022576900102837305e-01,4.868843652126010335e-01,-1.248266483107098555e-02,-6.691134258232245106e-03,-9.963372325154793568e-03,9.452653527259826660e-01
-1.159330881870720281e-02,-6.097459907162813275e-01,5.338977707499078518e-01,-6.541553632335527987e-03,-8.458040102096499660e-03,-8.489756782802958951e-03,9.910566806793212891e-01
2.424784340253054171e-02,-5.621392830801912321e-01,5.725368520803804095e-01,8.166617622035846373e-04,6.633353707710040563e-03,3.765548663791643252e-03,9.829328060150146484e-01
-1.815845367581088790e-02,-6.042501120765160216e-01,5.258177305809343949e-01,-1.307737515895007405e-02,9.308632372736834297e-04,-2.341493373669547608e-03,9.791657328605651855e-01
3.269387501342194136e-02,-6.154125572040888281e-01,3.898414893815049798e-01,-1.410394669753801435e-02,2.733907375707497062e-02,-8.601796405310087670e-03,8.843794465065002441e-01
3.386550716210770529e-02,-6.039501660555145479e-01,4.085290540095392053e-01,-3.325668990514600402e-03,1.218206942590006718e-02,-1.654200242802074047e-02,8.873822093009948730e-01
-1.870407927975194229e-03,-6.190542469103771372e-01,5.020638113673367986e-01,-2.383259177830873276e-03,1.930959897636086095e-02,-1.085161192923367844e-02,9.733316898345947266e-01
1.046513553109078842e-01,-5.975733074296029068e-01,1.996854970521295125e-01,1.515654765053800436e-03,-1.229467328725560027e-02,-1.108791811387805498e-02,7.547950148582458496e-01
6.474855412562643964e-02,-6.061802334622778954e-01,3.295415896257770094e-01,8.652371630667364533e-03,-1.622755429423758953e-03,8.431877976711488545e-03,8.356816768646240234e-01
7.491690574488893417e-02,-6.480950043416658923e-01,2.534898043202916118e-01,3.061217477856759128e-02,-5.071153396983602013e-02,8.333833484018444981e-02,8.456399440765380859e-01
1.220272484073757838e-02,-5.442234912100686328e-01,5.756643550473274917e-01,-4.311922925266308167e-03,6.983542045284721854e-03,1.616272682188244457e-03,9.699659347534179688e-01
-7.518584997714089502e-02,-6.154391307919998555e-01,6.141386241141340019e-01,-2.023485860884958153e-03,-5.627961921119415539e-02,-9.077890143964246691e-03,1.072013735771179199e+00
-6.581754112957712011e-02,-7.202398102409991454e-01,6.668937908861035657e-01,4.979459445702486518e-03,-1.255722539541891947e-01,1.558697813649102815e-02,1.221779584884643555e+00
1.876921965526235497e-02,-5.989495637160657804e-01,5.907124844714549683e-01,-1.593379285596918746e-03,9.265135478872726926e-03,3.435127208860876136e-03,1.030677556991577148e+00
-6.548944081999240330e-02,-6.339648226302818657e-01,6.363505293826778875e-01,7.813362623961355585e-03,-1.060044812850235649e-02,9.426877814138387088e-03,1.102501392364501953e+00
1.494960575769522237e-01,-1.066265959199109492e+00,1.596798357403775293e-01,-6.503499394614982443e-02,-6.811961309331070191e-02,-1.999753590905267372e-02,1.232222080230712891e+00
-6.224530183770549813e-02,-6.902937605030314838e-01,6.435191088325080688e-01,-5.875934626210293880e-03,-1.180379462937288099e-01,1.778774329334956161e-02,1.174161076545715332e+00
-2.043957854022652315e-02,-5.275433292396215501e-01,5.906792237519066235e-01,-2.013432728666759205e-03,2.307853452904721700e-02,8.197982011527771284e-03,9.707382321357727051e-01
-3.177688990369199190e-02,-6.167626196524974569e-01,5.978839743373656201e-01,-2.732210265533651598e-03,-5.343963918422358749e-04,1.032635482709507238e-02,1.052314996719360352e+00
-4.811149876111463219e-02,-3.241447339872287059e-01,5.642988452398656207e-01,-1.403624296841275987e-01,1.860559431997098889e-01,4.163484853319903735e-03,8.850387930870056152e-01
-4.840703386553688037e-02,-6.425222312560053828e-01,5.575346225362786123e-01,3.941049172246326865e-03,-9.314419262895184959e-02,5.586735182125674576e-03,1.051810383796691895e+00
-2.828053109285918326e-02,-6.392259636349748586e-01,6.559133465653662620e-01,9.415911922735470396e-03,-7.022157889731655764e-03,-1.614544402208566241e-03,1.122409224510192871e+00
-5.538210530708818219e-02,-5.978147874862784761e-01,5.573100947007452177e-01,9.780141814598444696e-04,-7.870523228932408712e-05,3.522095657660496526e-04,1.000985741615295410e+00
-5.705198031150926496e-02,-4.478542427111247837e-01,5.845409132478572856e-01,-3.206626938863066031e-03,2.399841920832575942e-02,1.524445691892266884e-02,9.041900038719177246e-01
5.920015621136359707e-02,-1.068768757189662466e+00,5.454364324485646565e-01,-1.933802140519455190e-02,-2.511001096486140671e-01,1.278242001857840537e-01,1.515418052673339844e+00
-4.254825710969079022e-02,-6.420578687117479699e-01,6.749955706334672678e-01,-2.695785152554035832e-03,-8.820398217115488909e-03,-1.750394610259884201e-02,1.142641544342041016e+00
-4.213770480539733021e-02,-6.127024829495226754e-01,5.816011406190196853e-01,9.836105127495682783e-04,-4.267414224007511081e-03,5.958157667729836217e-03,1.034718155860900879e+00
-8.453313044123075479e-03,-6.453832254872041707e-01,6.652751856646302864e-01,1.622235796521654533e-02,1.461197976143948328e-02,8.091837907382304004e-03,1.135928750038146973e+00
-1.599287739977832412e-02,-7.329565360417942266e-01,6.259817112164730579e-01,6.782899965742519854e-02,-1.363761181010469115e-01,7.709286684024829750e-02,1.214029788970947266e+00
-4.057350772759558272e-02,-5.442883759691921064e-01,6.002914809946163777e-01,2.631508683202892114e-03,2.330307123958530457e-02,1.241123336517702992e-02,9.946666955947875977e-01
-2.137988060683406952e-02,-5.764475449236913240e-01,4.437802161795535438e-01,3.821675817072823535e-03,-7.175861660005113454e-03,3.789618711371615500e-03,8.848224282264709473e-01
-4.519035843412717857e-02,-6.240706601584130597e-01,6.113694751320921661e-01,7.395326584492547053e-03,-7.634575009044536169e-03,1.797828178344081790e-02,1.071238279342651367e+00
8.741704900520977373e-02,-6.631379880098849933e-01,1.543552389599248675e-01,-9.356453540247645917e-02,7.299762557370598204e-02,-1.584592358409322738e-03,8.125951290130615234e-01
-5.264418527213925170e-02,-4.187730912047795129e-01,6.568431319813287095e-01,-1.577207004027829373e-01,1.189075619915188307e-02,-4.338040088175087322e-02,9.888799786567687988e-01
-9.594563147819437643e-03,-6.458988687894107183e-01,6.543689460938900693e-01,2.019422472481907920e-04,1.778529516411106199e-03,-1.221266302110113550e-03,1.126156091690063477e+00
-6.324893098780960676e-03,-6.552067395037713959e-01,6.488602081497124585e-01,3.450510988021550374e-03,3.269780039585771635e-03,-9.911926645045775197e-03,1.129519939422607422e+00
-7.312020164739873457e-03,-1.009294468056276095e+00,9.040592193594803039e-01,1.906132981278016170e-01,-2.841288540455380596e-01,2.671497880673738556e-02,1.760986447334289551e+00
-4.653377854174967077e-03,-4.513476206122580825e-01,5.517911897704887991e-01,8.161631433882373526e-03,-3.163086824208553686e-03,-3.884083101795745858e-03,8.706331253051757812e-01
-6.484641665005987099e-02,-8.447589314301956476e-01,9.703382265568565312e-01,1.232515498737737913e-01,-3.582779513396063681e-02,-2.728755909523193288e-02,1.593386888504028320e+00
-4.470868763756671860e-02,-7.868883084979941822e-01,7.858859372101334451e-01,-1.526242970418403844e-02,2.180557560213083890e-03,1.479801181793925779e-02,1.363282203674316406e+00
-1.050012136623853232e-01,-2.381657965354631590e-01,5.403473828001773560e-01,8.061662938510230289e-03,1.995079725019647914e-03,1.405680091860782516e-03,7.213584780693054199e-01
-3.372245230063911081e-02,-6.018256949217221097e-01,6.071902461522536987e-01,-6.474999026915199615e-03,-3.645743584797249588e-04,7.745378776261432549e-03,1.047817349433898926e+00
-8.373831095129263824e-02,-3.351226149314520120e-01,5.591931337297636473e-01,6.851617230902697954e-03,-5.224668207402945533e-03,1.426680217678090792e-02,7.993817329406738281e-01
-5.214963347125890769e-02,-5.982741366067784172e-01,5.472225355850033335e-01,5.708073423705174385e-03,2.753556108007278896e-04,2.113978415291474684e-03,9.924425482749938965e-01
-2.089711158786004136e-02,-7.419131992643861473e-01,7.254758843572732818e-01,1.794059995047747949e-02,-8.869154857682803872e-03,-6.882198404619289424e-03,1.271388053894042969e+00
-4.692989475771790209e-02,-7.215113042482885763e-01,7.693386526944623327e-01,-1.056540543891396414e-02,7.020946562438641798e-03,-2.392255846394369251e-02,1.293906331062316895e+00
-4.095205323504420153e-02,-6.080783067013953991e-01,5.687790256178882897e-01,4.425708470858830644e-03,1.164194652687761643e-02,-3.025329776657957343e-03,1.019652605056762695e+00
-6.495703622776588526e-02,-6.618114294003814013e-01,7.243429627028160622e-01,6.009682447267924651e-03,-6.743838507610755428e-02,-1.856746368582539971e-03,1.209995627403259277e+00
-2.670640180128638561e-02,-7.068714304564496231e-01,6.719415065657828867e-01,3.080370388223548604e-03,-1.888696698634982629e-02,-1.587953581951639589e-02,1.194899320602416992e+00
8.742934731803084225e-03,-7.716413596661542140e-01,4.879436715863784135e-01,5.052842738740406792e-02,-1.414448748758116159e-01,8.540042349914024264e-03,1.131588220596313477e+00
4.978991815975979118e-02,-5.808838552052940640e-01,3.093905539084629286e-01,-4.080931215325364625e-03,-5.525668647903415887e-02,-8.656877082355601827e-03,7.989367246627807617e-01
-6.207474216235631115e-03,-4.513751685309325135e-01,5.509546938389358051e-01,7.815366155509987506e-03,-4.827549935700571268e-03,-4.152745326335720820e-03,8.700226545333862305e-01
2.237444182779273205e-02,-6.098698999911441598e-01,3.809153615359719969e-01,1.211836728559966252e-03,-2.126632628217163447e-03,-3.927137996925133406e-02,8.715587258338928223e-01
3.510901551642145457e-02,-5.935533233988448121e-01,3.759602147005036143e-01,-1.460413062778743304e-02,-3.332687807657623569e-02,-1.074421532588101455e-02,8.543971180915832520e-01
5.584970400071154195e-02,-5.788494386856035678e-01,3.403130771151637313e-01,-3.044519413594154456e-03,-1.174053405699058798e-02,-2.402322364720232972e-02,8.163845539093017578e-01
4.487034411584155114e-02,-5.755125084075185526e-01,2.980609233349790776e-01,-1.284403774239996528e-02,-3.964301883683545719e-02,-6.622099463861277728e-03,7.819185256958007812e-01
2.245263074776331427e-02,-5.196752870721826900e-01,5.606103574191403371e-01,5.043491539437124083e-03,-1.282817949696460260e-03,-1.215067763708285644e-03,9.356027245521545410e-01
-5.042171942785514394e-03,-5.604707565389188684e-01,5.930190082182771327e-01,2.036741620732977764e-02,-2.791969584082184749e-02,-2.535063540139601695e-02,1.001932859420776367e+00
-1.257313841162633478e-02,-6.221826432161502440e-01,6.050101939156730113e-01,-7.010215305127982972e-03,8.454144555909236637e-04,7.119025156426058050e-03,1.062929511070251465e+00
-3.771159237188455304e-02,-6.259434270531769595e-01,6.108060008450632017e-01,9.988561204945659369e-03,-6.742674051147439299e-03,1.596197281640519480e-02,1.072040319442749023e+00
-1.536876951674315955e-02,-5.909814583805218513e-01,6.009028619105061253e-01,-2.273383331257357830e-03,1.470226194613967648e-02,9.456482684426767427e-03,1.032853722572326660e+00
-1.677834541205082755e-02,-6.053444321513916648e-01,5.890657439218326408e-01,3.720005509786264604e-03,-3.490827137498107250e-03,-8.662358980409669241e-04,1.034464478492736816e+00
-5.771551938350709399e-03,-5.527306232635269545e-01,5.911801815921337022e-01,-2.074341727691350612e-02,1.295109110553567533e-02,-4.923887263630331596e-04,9.918763041496276855e-01
9.002130829449499216e-03,-5.816059868116866260e-01,5.910643962093797832e-01,-4.652795937235176989e-03,1.869221968128086109e-02,4.734449847679657319e-03,1.016152262687683105e+00
-2.715094093978306228e-02,-4.571675529880097621e-01,5.791730656224570728e-01,2.830231386678891056e-02,-2.465415180062762932e-02,-1.827051639476075934e-02,9.047101736068725586e-01
-9.176243212289453277e-02,-6.290458310841978706e-02,5.565271690341084820e-01,3.214400655622758757e-02,-4.776599509093382113e-04,-6.909456291588610133e-02,6.479402184486389160e-01
-1.013247501377435855e-01,-2.826395753023253077e-01,5.639101867273432767e-01,1.740724983529998160e-02,1.131399894818940245e-02,8.171900015394965855e-03,7.729960680007934570e-01
-2.721593883668516414e-02,-6.459343951483917934e-01,6.422842050902998201e-01,-9.302047440559931338e-03,1.674659794918652604e-03,-4.828661696744565406e-03,1.116070389747619629e+00
-7.824466833586213310e-02,-4.483944545980688146e-01,5.869234224144310730e-01,1.304692969971038476e-03,1.068586548693564384e-02,1.580224152496641915e-02,9.092679023742675781e-01
-1.120240832382363994e-01,-1.505401433252388232e-01,5.446626899452813308e-01,3.134214341030396728e-02,-8.759075726307540000e-03,-1.570257315008999344e-02,6.796549558639526367e-01
-1.204026936833271222e-01,-1.421033165450671654e-01,5.437877758309905829e-01,5.521388935422716186e-03,1.236908126965124283e-02,-1.825290827999995896e-02,6.764489412307739258e-01
-1.178621387856717551e-01,2.721254245266821470e-02,6.111755141490569088e-01,5.009811677403418900e-02,5.532356837768899818e-03,1.240363243362380564e-03,6.740946173667907715e-01
-2.303014683824264677e-02,-5.816215248541720673e-01,6.031650032736327605e-01,1.909615826054319055e-03,2.197303377841170954e-02,9.116759170660309122e-03,1.027443766593933105e+00
-1.117955540903526890e-01,-2.141730450795181206e-01,5.463110711847596335e-01,1.390717448788198266e-02,7.407230997965201036e-04,2.861436714549330310e-02,7.169372439384460449e-01
-5.895490910665678735e-02,-5.994938249323429336e-01,5.684312060308887027e-01,8.230147664304022755e-04,-9.491157449004250513e-03,5.744588715199851724e-03,1.012567758560180664e+00
-1.121191099124810575e-01,-3.330383066106432643e-01,5.639929680421243985e-01,9.955423980735234046e-03,-2.804193557694989979e-03,1.629588795866527759e-02,8.101953864097595215e-01
-1.261095017156493026e-01,-1.771461332970408198e-01,5.515984720165053590e-01,-3.064547305354363774e-02,1.651768340636457569e-02,4.530331471759913020e-02,7.115292549133300781e-01
-3.463848375965804336e-03,-6.130301722680241427e-01,6.002960151003187139e-01,1.589022373407367357e-03,1.470190980046544131e-02,1.755422656587617581e-03,1.051091790199279785e+00
-5.389240069216412118e-03,-6.407992458298381599e-01,6.187116825381246965e-01,-3.094825165344453760e-02,-1.335047853191350525e-02,-1.021466658425567234e-02,1.092487454414367676e+00
-7.576366341177304120e-02,-3.474221328122935049e-01,5.750674920297093040e-01,6.022514225407710892e-02,5.054412843804494473e-03,5.963689901121263862e-03,8.277969956398010254e-01
-1.182589104561817817e-01,-2.082245028875708281e-01,5.463194226384023855e-01,2.326943148639451595e-03,4.739420964504421040e-03,2.794671122989699288e-02,7.155236005783081055e-01
-2.473541279045569918e-02,-6.322169873177279076e-01,5.932136812840268503e-01,5.644438417458152134e-03,3.354019468517657580e-04,4.435278005128483539e-03,1.061339974403381348e+00
-1.114996594058423329e-01,-2.431439864073234314e-01,5.386639710680769522e-01,1.095871685655457409e-02,1.118822444158282248e-02,-1.293601759861216392e-03,7.255164980888366699e-01
-3.512286982743725861e-02,-6.117691335551500575e-01,6.162157388035602867e-01,-4.074558585422377067e-03,-2.590412550444832346e-03,4.337569397859251941e-03,1.064180970191955566e+00
-1.050450921626648049e-01,-3.356906935604440645e-01,5.660732155779943930e-01,8.975192246434846380e-03,-1.533797840630117190e-02,1.398900876625000858e-02,8.123559355735778809e-01
1.722206160204049763e-02,-6.878835609911435611e-01,4.553428836676818303e-01,-1.223856905513474869e-01,-1.690269695728760513e-01,1.282582833196911076e-01,1.085375905036926270e+00
-1.050620318017771448e-01,-3.000444343282007709e-01,5.671315474244364996e-01,1.552230422019559679e-02,1.679130211617095580e-02,3.764119983479431719e-02,7.916738390922546387e-01
-1.122986488934274441e-01,-3.182095265761192837e-01,5.712651136525278561e-01,-1.396429602314230509e-02,3.909435334018968901e-03,3.816931781381649458e-02,8.095760941505432129e-01
-1.451896267909171673e-02,-6.304135044721149717e-01,5.811158895926827883e-01,-7.107357873376102253e-03,1.064114674126147818e-02,-7.516186528209797303e-03,1.049578905105590820e+00
-1.721907163319976938e-02,-6.230614357183547058e-01,6.349184189234200471e-01,-1.099206542220919694e-02,-8.983216132923167729e-03,1.781204368341545927e-02,1.090402245521545410e+00
-2.249227649824106154e-02,-5.901314583519807755e-01,4.697738473166480633e-01,8.487640615591780097e-03,-3.981669999177960169e-03,1.571653740481267214e-02,9.192249178886413574e-01
4.345937007028206900e-02,-6.198709491671368088e-01,4.022494535642890945e-01,-4.080906296063526589e-03,2.849302446008133375e-03,3.347502073776594672e-02,9.000943303108215332e-01
3.932412578408367443e-02,-5.946485174975240096e-01,3.557539418036356205e-01,-4.970357826442227053e-03,-2.533938422548677460e-02,1.928142152527396319e-02,8.401027917861938477e-01
2.887780059319713932e-02,-6.080717024833538487e-01,4.067819600652874401e-01,1.044541316809836353e-03,-3.573709483059803876e-02,3.656972964338093407e-02,8.927870988845825195e-01
-8.751413895358292616e-02,-3.329425644315842647e-01,5.693919207071655997e-01,3.939350132389191073e-03,1.731039000498690861e-02,1.354396890037033382e-02,8.089993596076965332e-01
-5.985505463874042642e-02,-5.896074806582445316e-01,5.475694032793073651e-01,-3.250061602141355492e-04,-5.634475754821013319e-04,-4.294153592374728252e-04,9.855904579162597656e-01
-4.128857903604642166e-02,-6.083481839469875307e-01,6.053084637102117416e-01,-2.781763445636509496e-03,1.686912409458347917e-02,-2.336467059914310550e-03,1.052234172821044922e+00
-6.478140337306116658e-02,-6.021331253270774120e-01,5.725948976346031394e-01,-1.436049531043656321e-03,-3.606782678636803047e-02,2.787916586809407581e-03,1.020501255989074707e+00
-6.238936924441526588e-02,-5.961992204760068192e-01,5.635996751245039293e-01,-1.975347461501208469e-03,-9.583766092609111859e-03,-2.984461644145481197e-03,1.005628347396850586e+00
-4.194633288750333061e-02,-5.785274168273073503e-01,6.168998461147978674e-01,3.215829658142994657e-04,1.384630167058983159e-03,7.759681571525390426e-03,1.037163734436035156e+00
6.986084246017418287e-03,-6.509654557822910359e-01,5.233350205121176657e-01,-3.744859561224013131e-03,3.792352577869824437e-02,5.938590218223612632e-02,1.026735424995422363e+00
3.138781027217787956e-02,-5.295701575001480199e-01,5.726682611802293987e-01,3.396103540333821752e-02,-7.996250660288294412e-03,-8.665038448680344521e-03,9.566457271575927734e-01
-5.503282761807673507e-02,-6.005646633063908002e-01,5.611935603057631727e-01,3.034421953068817696e-03,-1.282623603993938120e-02,2.823160188853509776e-04,1.006991744041442871e+00
1.860855894723913162e-02,-5.881713214930756051e-01,5.817181092359783312e-01,1.272978369130927127e-03,1.516103710869671052e-03,4.953118418888000085e-03,1.013431310653686523e+00
-4.996170035305774054e-02,-5.996199284286864994e-01,5.596233853949506010e-01,-3.098854627336891914e-03,-1.152118721601795397e-02,-3.082260668484957354e-03,1.004607915878295898e+00
-2.261446463446582789e-02,-5.282144809179429856e-01,6.072587003452833976e-01,-5.227748508819984874e-02,4.184679526742283648e-03,-1.563267914856315182e-03,9.894918799400329590e-01
-1.851293748369895603e-02,-6.819011712950170390e-01,6.294286115670766346e-01,-8.583868075611213178e-02,-2.322963286000825911e-01,5.212758130021497710e-02,1.217329263687133789e+00
2.866141026339370790e-02,-5.615830985527596741e-01,5.787668586666785409e-01,4.815378658703222542e-03,-1.533836213891862565e-03,-7.649656108108391500e-03,9.879035949707031250e-01
-1.643846635130961631e-01,-2.005944798712916977e-01,6.844378087690241586e-01,-2.401500839300286794e-01,1.537416009547845630e-01,-3.526557003173814292e-02,1.000101566314697266e+00
-1.790691349821098288e-02,-4.847902376459493068e-01,5.708243654895959196e-01,5.825023244699421669e-03,-2.131050366054549478e-02,4.033545228356686350e-03,9.170421957969665527e-01
-2.453277422958921594e-02,-4.469663444312929057e-01,6.336855211593322990e-01,-7.147811231032347168e-02,6.213419769458972640e-03,-1.147903368665770599e-02,9.516267180442810059e-01
-4.599917407154184568e-02,-4.253602833992036203e-01,6.205191096748495783e-01,-1.040077781054917494e-01,3.474353122374320563e-02,-6.388068653895074590e-03,9.365944862365722656e-01
4.676740885777925377e-03,-5.516920788623309591e-01,5.995337135949104779e-01,-4.106349525690305285e-02,1.377740556692558932e-02,-1.873381314832357411e-02,1.000520825386047363e+00
-7.970555009988694595e-02,-4.390405872246866403e-01,6.778559614338018902e-01,-1.213300432862255418e-01,2.948302942892740489e-02,6.981356847949105049e-02,1.018151283264160156e+00
-4.728567699894643123e-02,-7.453324813593948939e-01,6.920043967698987775e-01,-1.805348118097218832e-02,-3.999130779037440853e-02,7.432859895364868179e-03,1.247325062751770020e+00
-1.862698520629970517e-02,-6.297391567982976168e-01,6.266208294952173574e-01,-1.610790794417716124e-02,-1.601810174384058968e-02,6.889955122794011629e-03,1.088950037956237793e+00
-7.425670908723303043e-02,-5.908886916813550494e-01,8.311201538464687566e-01,2.227004035311081487e-01,6.115664583486142558e-02,-3.263715285041000197e-02,1.310559034347534180e+00
-2.776417358237608102e-02,-9.748419191151391772e-01,6.696293776666634168e-01,-2.298115842141583431e-01,5.105321719144310932e-02,2.803605600633077843e-01,1.563926339149475098e+00
-4.468830929344496522e-02,-7.487811142370959239e-01,6.909421411400638036e-01,3.395932207458550456e-02,-7.541832592305486305e-02,2.968890178950122152e-02,1.256192207336425781e+00
-3.510621934855594206e-02,-6.060592025009988726e-01,5.925623113460167790e-01,-8.636085423146173425e-04,5.081837285136300467e-05,-6.651172934793128655e-03,1.038488984107971191e+00
-3.598081399680811560e-02,-7.379068227423859483e-01,7.637649187361615910e-01,-3.157416997290857230e-02,2.425041533197828947e-02,-1.556330238507970185e-02,1.303509593009948730e+00
-4.593649607914453148e-02,-6.503525891488259880e-01,7.528017026531540479e-01,-3.759169355617588554e-02,2.177837263710346791e-02,-3.879305368928655934e-02,1.223212480545043945e+00
-3.661705951396863890e-02,-6.199895499315319913e-01,6.147384470649114308e-01,1.236898066223947280e-03,3.830620085117433793e-03,4.530869085377862635e-03,1.069897413253784180e+00
8.950381855323711472e-03,-5.885727286100193023e-01,5.858885363914766442e-01,1.473823937468823341e-05,6.594943328853828529e-03,6.500661511017582009e-03,1.017291784286499023e+00
4.403609958901114063e-03,-5.689300699196926381e-01,5.816131431023068288e-01,2.550597715145998343e-03,8.367734498928688230e-03,6.378618569528718418e-03,9.965779781341552734e-01
4.690261255039775146e-03,-6.119899287048827796e-01,5.967267823397295334e-01,-6.516353576013326511e-05,1.010323231007661214e-02,3.549709631537908191e-03,1.047016263008117676e+00
2.904444278458392925e-02,-6.357938862178180717e-01,3.182139797316458907e-01,3.399810819418096208e-02,4.857824601650612140e-02,-2.097672149708710299e-01,9.275958538055419922e-01
-4.696425093034067161e-02,-6.587678322475137849e-01,6.734337689105893698e-01,1.151675180052603303e-02,-1.736751907934848752e-02,3.541267941415210830e-03,1.155577540397644043e+00
-1.219638212688953401e-02,-6.316685180093932761e-01,6.314575593879618864e-01,-2.532669693868385471e-03,-5.478495456204410729e-04,-3.495151686431950070e-04,1.093975424766540527e+00
4.459146745238715126e-03,-6.715575085844187608e-01,5.631706768445691180e-01,-5.413806621132585817e-02,-5.638235689157448244e-03,1.117418858908535498e-02,1.075229287147521973e+00
-2.760740665853286119e-02,-6.242488482799737337e-01,5.960943079005655010e-01,3.763243268808187398e-03,-1.538718876125525327e-03,1.407435864347860496e-03,1.056961059570312500e+00
-2.871919462838542353e-02,-4.555852196663265352e-01,5.644390403975350079e-01,-8.585922754664708501e-03,-9.478826966771004489e-03,-7.104431455254871155e-04,8.875486254692077637e-01
-1.696960730487254848e-02,-6.277893454836749321e-01,6.006553015077849000e-01,2.961849938069755026e-03,1.243541380449705858e-02,1.876803486370175926e-03,1.064105033874511719e+00
-4.267330534523520666e-03,-5.928749745573385077e-01,5.985866831203219274e-01,1.176943962648244277e-03,1.786065187907742713e-02,-4.012235723612797567e-03,1.032349705696105957e+00
-1.392147698020097801e-02,-6.510559352524001309e-01,6.476656160303433385e-01,2.397642027258018935e-03,-7.041675380885113224e-03,7.081437856696405110e-03,1.124933004379272461e+00
1.154130512177984624e-01,-7.373798521377346038e-01,2.535626127937554153e-01,6.301281791317268899e-02,1.536080438510050994e-01,-1.499687500869766599e-01,1.007136583328247070e+00
1.454109825997487032e-02,-5.961020102159350076e-01,6.198486164136314258e-01,-3.245422643745148050e-02,-2.566046524304884009e-03,-1.000781033611591354e-02,1.054698586463928223e+00
-1.397803070533461811e-01,-2.233224179740611048e-01,6.543278866790374071e-01,2.970455119774618059e-03,1.163615755766164890e-02,-2.333204725376073971e-02,8.402347564697265625e-01
2.449495199142454754e-02,-5.697747778819195474e-01,5.741780971057415250e-01,2.062073873274285988e-03,8.858613911375622096e-03,-2.196050736542206304e-03,9.910755753517150879e-01
-7.586732497380578588e-02,-3.734472249633620788e-01,5.720459365102967819e-01,-4.129664204259407036e-03,1.148118464971634514e-02,-1.852720272784165109e-02,8.382289409637451172e-01
-2.925900163134577056e-02,-6.127521753200203536e-01,6.073389038499217296e-01,3.406040314889907487e-03,1.548596929995195610e-02,7.162945392134148492e-03,1.057392954826354980e+00
1.361217252826196766e-02,-5.987101190622674540e-01,4.216887228083283090e-01,-1.336161328528201638e-02,-3.075029011640708319e-03,1.004347192948972650e-02,8.900595307350158691e-01
-9.289438956261000802e-02,-2.508661715356722000e-01,5.765586805261109227e-01,-4.021354342054500597e-02,1.844045465488044003e-02,-1.548269747698561606e-03,7.646933794021606445e-01
-8.930163682456998542e-02,-2.715895085239096729e-01,5.638359757966959762e-01,-5.029795367927534372e-02,2.196857529869626971e-02,-5.035472936927232190e-02,7.717000842094421387e-01
-2.261456142932250293e-02,-7.942981164780906767e-01,6.877791855376517161e-01,-2.006864126442737262e-01,1.014856393535157469e-01,-4.154237313620958577e-02,1.343597531318664551e+00
-3.464296393298545856e-02,-6.252699615085375306e-01,6.004474240738939539e-01,2.195326487025844181e-03,2.922242034392476522e-03,7.539868034659613638e-03,1.061834335327148438e+00
-8.543260968404381428e-02,-1.253438571230259813e-01,5.256292573367569165e-01,-4.751069139722607221e-02,2.177610607817008059e-03,-3.096867774054798059e-02,6.395630836486816406e-01
-2.586592186908085594e-02,-6.248990975093432487e-01,6.069911299357632073e-01,3.580185508655218691e-03,1.141403148668157161e-02,6.062776801374718944e-03,1.067235112190246582e+00
-5.416902637947285798e-02,-3.741411069181201920e-01,3.792135386218996596e-01,2.929813101285826116e-02,2.696113963081657461e-02,6.648414351680452528e-02,6.684976816177368164e-01
-9.434307245751230586e-02,-3.482194501293087718e-01,6.314163401706065493e-01,-2.744271006004858279e-02,4.029354560025125848e-03,-1.176505802257032940e-01,9.051331877708435059e-01
-7.882568331561615183e-02,-3.793973205011006433e-01,5.869369804698314486e-01,-1.093685131944685009e-02,8.068250430818922972e-03,-6.293165845130069269e-02,8.637869954109191895e-01
6.460924577495671950e-02,-5.901066653253477234e-01,3.110023444086980615e-01,-7.678889966096968424e-03,-2.115544076233579623e-02,4.289215575596310934e-03,8.076228499412536621e-01
-2.001718185433249558e-02,-6.126858737151565926e-01,6.065065804982084918e-01,4.012800175741172010e-03,4.201304582249599552e-03,6.624486582414328313e-03,1.056097626686096191e+00
-4.449549537656657255e-02,-5.035312773237203832e-01,5.991478733388090339e-01,2.248096330457647566e-03,-1.460260125937964081e-02,6.632571450149794476e-03,9.598087668418884277e-01
1.822123302742705286e-01,-6.520747835613804888e-01,-7.413156641485237064e-02,5.466925813343277794e-04,-2.047984399554773904e-02,-1.563548936744981951e-02,7.415357828140258789e-01
5.748019423684622153e-02,-5.930717560091752771e-01,2.877224981997988928e-01,-6.693706537029968026e-03,2.096288155793368801e-02,6.291112459143211912e-03,7.922028899192810059e-01
-5.482520581236748070e-02,-5.074254870156890140e-01,5.991626268075355144e-01,1.834433202573418169e-04,2.089013327556644983e-02,1.838887002320828412e-02,9.648139476776123047e-01
6.320474963564703952e-02,-6.035485572045218294e-01,3.337477884125773508e-01,-1.289346282309998711e-02,-1.301450499097643945e-02,-4.449879258247577130e-02,8.396941423416137695e-01
1.487208047093952490e-01,-8.495826249307476541e-01,1.399936612783129752e-01,4.414196101312357207e-02,-1.422270988937762992e-01,1.273091935179789802e-01,1.050298810005187988e+00
-4.438047143153762975e-02,-6.231726726503614699e-01,6.153190337203346960e-01,2.881614827866227618e-03,-1.466654300858727909e-02,3.184391758061576143e-03,1.073654294013977051e+00
1.737394273698793512e-01,-1.047477144877191346e+00,1.616092607762619759e-01,-7.022955671187200433e-02,1.008498028442436079e-01,1.138661914055096036e-01,1.249363303184509277e+00
-2.725526256975750392e-02,-5.988874333657353555e-01,5.882525492801630174e-01,-4.038025398982481376e-03,-1.131057004142966551e-03,1.066361330293970518e-02,1.028518915176391602e+00
6.677407321827563691e-02,-6.943515110904668886e-01,2.438062530294448083e-01,-1.175397847014999705e-02,-1.590021956844916151e-01,4.974885040810990942e-03,9.064933061599731445e-01
3.179186291993099656e-02,-6.115342400009872170e-01,4.256003994327658413e-01,8.672639143214224550e-03,-2.726214287007435594e-02,3.287782924586508254e-02,9.099445939064025879e-01
5.221179846787200873e-02,-6.057126980222742318e-01,3.829420190435056104e-01,2.439849482967267318e-03,2.537223908837804576e-02,3.974466845922670216e-02,8.755173683166503906e-01
3.719710595769061545e-02,-6.072019682830805953e-01,4.010477046295940484e-01,1.206030304227174998e-02,1.563738634708926756e-03,5.060254040913878676e-02,8.889476656913757324e-01
-8.294550976491675207e-03,-5.945906979121389213e-01,6.055467714815637725e-01,3.763980917546387497e-03,-8.374420863562815481e-03,-1.052494461347455203e-03,1.039564013481140137e+00
8.573668981209933704e-02,-5.967433379904157897e-01,2.587288171406028625e-01,-8.496488982485396815e-03,1.476778444585043031e-02,1.171646058649768521e-02,7.842522263526916504e-01
-2.970607908003924588e-02,-6.107280413777614880e-01,6.110117916712338726e-01,7.244336578236486562e-04,6.775516005395244672e-03,-2.978896929963644694e-03,1.058557033538818359e+00
-5.132310019078624441e-02,-6.358228719559323450e-01,6.394892648428749382e-01,-4.068280129948377219e-03,-5.909944535248410138e-03,3.516753012385424350e-03,1.105817794799804688e+00
-6.926013403762357190e-02,-3.430158482923139629e-01,6.447081828692184935e-01,-1.458362426431583092e-01,-4.498951401997206521e-03,4.074762681915716084e-02,9.214077591896057129e-01
-1.531590811484821388e-02,-6.453534443417360267e-01,6.766891876014802243e-01,-3.985332367435207718e-02,2.521327769087949172e-02,-9.618783373497127864e-03,1.148371458053588867e+00
9.459713294952796364e-03,-5.322493467975477621e-01,5.991517981951550720e-01,-3.593969670507652509e-02,-2.539990343454281724e-03,-1.121336439818738061e-02,9.822925329208374023e-01
3.789983114413676690e-02,-5.750755741254385267e-01,5.760309629160111911e-01,8.327690249734058525e-03,2.545475960476393899e-03,-1.676613296103695574e-03,9.977079033851623535e-01
-4.380066171219368365e-02,-6.053522458273128404e-01,6.995594678336488625e-01,-1.829265227866669896e-01,8.971451233484128984e-02,-2.022826231790622598e-02,1.187905550003051758e+00
-2.513117526811724581e-02,-6.168707049575875567e-01,6.151833156313364359e-01,-3.413736297819530002e-03,-2.668979766864538593e-03,-1.092672617068964546e-03,1.067294478416442871e+00
-1.821213411469376278e-02,-5.426499408837244243e-01,5.956167531996444664e-01,6.298462749622447997e-04,-2.071504170927279329e-02,3.405119136309083666e-03,9.874508976936340332e-01
-7.256665667403977560e-02,-5.574088480782581900e-01,7.416624732743104520e-01,-2.244148265787014596e-01,2.342651555177563752e-02,-6.768554096174811407e-02,1.208010792732238770e+00
-1.531179499738829358e-02,-5.377634474744283910e-01,6.446016800030208715e-01,-1.245344305943801300e-01,2.241059720018684972e-03,-2.264008382948595396e-02,1.049425363540649414e+00
-4.223006538072594102e-02,-5.968001843246346638e-01,5.303010502101593859e-01,-6.469171792763374167e-03,-3.192919612940126051e-02,-1.023225003990242341e-02,9.779297709465026855e-01
-3.172770505862716403e-04,-5.865167159995925417e-01,5.977809380963975405e-01,-7.481642833662376481e-04,-1.096799519677163492e-02,1.084734630314381594e-03,1.025827527046203613e+00
-2.236536683833167949e-02,-6.154349908376802736e-01,6.410436762398515897e-01,-2.900873374514162037e-02,-2.315187233324444982e-02,5.469435295420660946e-03,1.090648055076599121e+00
-2.530658659446993405e-02,-7.340826761874236217e-01,6.819304743031709970e-01,1.510471331618806843e-03,9.955298141441473736e-02,-1.701740237999565392e-02,1.238720536231994629e+00
-5.027792630213548386e-02,-6.312691323717718461e-01,6.068947369416324289e-01,-3.297549559474327423e-03,5.874369246327545112e-03,2.230187141636960635e-03,1.073028087615966797e+00
-3.165930807170694306e-02,-6.253225484415769753e-01,6.414689232180873502e-01,1.854063250941149132e-03,5.361908180630439724e-03,-8.867471516006470225e-03,1.097944259643554688e+00
-5.365826262396731355e-02,-5.857633073066561558e-01,6.208537224392950415e-01,5.252385529653587522e-03,9.841122095416023063e-03,3.590582113128226553e-03,1.047580718994140625e+00
-4.133902764666242541e-02,-6.161603175695068435e-01,5.999074690759298445e-01,-6.609520970705363117e-03,2.841208363498023970e-02,2.132852776684733206e-03,1.054886341094970703e+00
-3.190053977283509312e-02,-7.002579684268404048e-01,6.897573891233839127e-01,1.105754671985918758e-02,4.373630629727461722e-02,-1.151307721241593454e-04,1.206616163253784180e+00
7.747686631370151455e-02,-5.744880642965521922e-01,2.426467736170652145e-01,-5.582008125586485937e-03,-8.554646038262182436e-03,-6.494996754174281461e-03,7.486413717269897461e-01
-2.418572265625914403e-02,-6.338649814734341748e-01,5.974483705788694587e-01,4.125855272932100852e-03,3.899634071622000344e-03,-4.875188069495180469e-04,1.066411018371582031e+00
-5.419775875556081396e-02,-6.338694930238532033e-01,6.075156938403825091e-01,4.185917749674599462e-04,4.693506305885010443e-02,-1.230917320939368953e-02,1.079131245613098145e+00
-2.338843874327544911e-02,-6.341472130130491047e-01,6.318707890842040209e-01,-2.389981495563689266e-03,1.043456755366720893e-03,-1.745638791294994900e-03,1.096642971038818359e+00
-3.759289081962031986e-02,-6.277700247300379566e-01,6.406394591355910606e-01,6.062923530447812855e-03,-1.907751727816661387e-03,-3.033904984568073365e-03,1.099424481391906738e+00
-5.482827587566906080e-02,-6.090485169068274862e-01,5.936794822978224140e-01,3.400969341634695140e-03,-1.199641804171551474e-02,4.139577043245978166e-03,1.042907595634460449e+00
-6.522185643974524882e-02,-4.541210164151771589e-01,5.942920022852721251e-01,4.606927088770804320e-03,-4.013802114028343533e-03,1.867394403835114305e-02,9.186096191406250000e-01
-4.322949148219801252e-02,-6.565116068584601061e-01,6.718143549716356633e-01,-4.722810615141619962e-03,-3.088976193210006202e-02,2.514486189021608066e-03,1.152768254280090332e+00
-3.938904969826431679e-02,-6.582939797653482028e-01,6.779447562002339778e-01,6.127436945405458774e-03,3.349795660873925492e-03,1.221571380121779611e-03,1.158327817916870117e+00
-4.297996029183307615e-02,-5.902379523365874903e-01,6.212236764836409630e-01,4.094075332522555360e-04,-1.433355561852438578e-02,4.109421348508642338e-03,1.051102280616760254e+00
-4.830050088106870726e-02,-6.589695525871570592e-01,6.610633309851509098e-01,-3.118491354966978265e-03,-1.683889226279763549e-02,-5.583097362722142009e-04,1.144631385803222656e+00
1.074038552360712107e-01,-6.203277746101735213e-01,2.003032967336585979e-01,1.185773281783038431e-02,8.730861895677685669e-02,-1.348198536062417477e-02,7.935143113136291504e-01
2.315443608849503121e-02,-5.772519617557220206e-01,3.540734266987182743e-01,-1.056728483461106052e-02,-9.251056405872881000e-03,4.785534780200463405e-03,8.181329965591430664e-01
-6.030399880598098089e-02,-7.498875408875376181e-01,7.659481005125545749e-01,1.247603454879239217e-03,-4.799915465059245018e-02,-8.848966108585001877e-03,1.317246794700622559e+00
-5.645517169342811892e-02,-6.372931067653294646e-01,5.861709400316408303e-01,1.314608315218461672e-03,-1.232064216409148733e-01,2.706166382891467617e-02,1.082286596298217773e+00
1.107561829989466527e-02,-6.353780693989922179e-01,6.127201325775047946e-01,-1.330164011583903454e-02,7.595535669015698356e-03,1.088329271642321343e-02,1.081606626510620117e+00
-5.491032584673268685e-02,-6.302658370277439692e-01,6.585901792593790161e-01,-2.620955424575820581e-03,2.107461911977173610e-03,-3.893400678172499046e-03,1.118352770805358887e+00
-3.440088974174705660e-02,-6.558628684669474129e-01,6.160483869881373531e-01,-1.211267343514103173e-02,-2.726625756030390604e-02,-1.110814733115565202e-02,1.102982044219970703e+00
-2.802274900535137517e-02,-5.887123575024886257e-01,5.707562041155401777e-01,2.537737385842793025e-03,8.457768839033683733e-03,1.731971567750929461e-02,1.004874110221862793e+00
-3.288450075214061075e-02,-6.129948975746731810e-01,6.125750053644535287e-01,-4.056298628788448349e-04,-4.757064058918342511e-04,3.500406785876692024e-03,1.061895370483398438e+00
-2.319470155365321515e-02,-6.153070272144395281e-01,5.757887017031391164e-01,-1.132728351297608327e-04,1.665735547942108138e-03,6.500648787625292607e-03,1.031590342521667480e+00
-3.282500603382301763e-02,-6.033291687911244150e-01,6.170605203023219465e-01,-2.641636566040429963e-03,-6.144868814206388453e-03,-2.956319755144420306e-03,1.057709336280822754e+00
-1.215468774995236145e-02,-6.077081250888675124e-01,5.472275837764064566e-01,-6.902722589344084843e-03,-2.850461329226603759e-03,-8.859856120723614420e-03,1.000568509101867676e+00
-1.166387258702317013e-03,-6.034562300952811542e-01,6.103029299494640014e-01,-2.876425169785265003e-03,-4.774211415624165828e-04,1.118596354137024957e-03,1.051170229911804199e+00
-1.743299241382061798e-02,-5.930243274135603704e-01,5.289123463010652060e-01,-2.275030552399572199e-03,-7.811328479662916135e-04,-6.526164201311149271e-03,9.718103408813476562e-01
-2.542189541658610233e-02,-6.179361634325589714e-01,6.109331840147400605e-01,-6.057914156106567090e-03,-9.333503274531310817e-03,-8.591929193116808888e-03,1.064736247062683105e+00
-3.367841036195937804e-02,-5.837595919548973500e-01,5.795773267329297207e-01,-3.081406264042247777e-03,6.642108770226777190e-03,8.184514510771994517e-03,1.008153796195983887e+00
-2.572739891740681920e-02,-5.962231844458441010e-01,6.176542589978591957e-01,-3.323586167741266525e-03,-1.455579597384964487e-02,3.904830100245815748e-03,1.052219748497009277e+00
-2.522364723923881114e-02,-6.075206092330082130e-01,5.852328627708116571e-01,-2.253066063663195992e-03,2.899729318267377492e-03,-7.700428760280698254e-03,1.033156394958496094e+00
-2.671618609689573043e-02,-6.071232946670558350e-01,5.947346388946794793e-01,-2.258937649251762519e-03,2.539832194499467861e-03,2.837095178815219557e-03,1.041069984436035156e+00
-5.833678677027297199e-03,-6.059321765668219673e-01,6.086060047830791353e-01,3.818054188905907823e-03,1.691846190416863372e-03,-6.140997653444783128e-03,1.051923990249633789e+00
-3.246326962393407400e-02,-6.045554954087223321e-01,5.957125081846288417e-01,-8.841527761799659229e-04,2.264882837322511447e-05,1.521930358340592773e-03,1.039845228195190430e+00
-1.039211277953335233e-01,-6.970594064033355797e-02,5.775194269863683783e-01,-7.261095284114116311e-02,3.085959742535812622e-02,-7.264796186480909634e-02,6.904516220092773438e-01
-1.277015693620923709e-01,-8.405543457604391921e-02,8.694647859291337877e-01,4.961943186507835474e-02,-8.202097920374989482e-05,-1.009531143078239018e-01,9.953311681747436523e-01
-1.108023002375330412e-01,-2.945170614776548290e-01,6.150709161592378127e-01,-4.676837732369319017e-02,2.082552009321953987e-02,-4.684765527485013070e-02,8.416910171508789062e-01
-1.142528151994393892e-01,-1.391689901691505471e-01,5.440971215549286200e-01,-3.068275608484445638e-02,4.147353866434381163e-03,4.531930088942070492e-04,6.732945442199707031e-01
-1.218222559463332522e-01,-1.637572379572130310e-01,6.017819063984259920e-01,-6.795763071365887309e-02,6.079425125007075284e-03,-5.707774900438935400e-02,7.612128853797912598e-01
-1.131323060927145463e-01,-1.505078902409324459e-01,5.320227682069218478e-01,3.365604998883273830e-02,5.114450816916293711e-03,-2.167807184493242972e-02,6.682974696159362793e-01
-1.135983302902621450e-01,-1.578910606096569080e-01,5.440041466651367452e-01,2.541418415097468353e-02,1.287854054450351081e-03,-8.297399093313964635e-03,6.824067831039428711e-01
-1.230858694653960694e-01,-2.996987882650844481e-01,6.529067348140836780e-01,-7.537102822461809459e-02,3.603725816309810009e-03,-5.585007369584897574e-02,8.926622867584228516e-01
-1.193821470858547895e-01,-2.042579939543165968e-01,5.623402919832224400e-01,2.776292052822334263e-03,-4.119439491769747233e-03,-1.870533448238170457e-02,7.286527752876281738e-01
-2.187119869626471744e-02,-6.354103714506005307e-01,6.032553541227377858e-01,1.688140364408066306e-03,3.418588058325457060e-03,1.438010329563501688e-03,1.072754859924316406e+00
-1.131528662752503966e-01,-3.061242924978213042e-01,5.595545064802394108e-01,-4.833433235575576581e-02,8.341853511815397124e-03,7.744448168083144755e-03,7.918230891227722168e-01
-1.029582270586783532e-01,-1.429783316471579802e-01,5.359776906375568473e-01,-4.095911679343011355e-03,-5.118252046421553451e-03,-8.713975501212492189e-03,6.601270437240600586e-01
-2.492858693958600533e-02,-5.457696281076703793e-01,5.890405439751125183e-01,1.208707003012014607e-02,1.890968222770816193e-02,-9.978252778080844501e-03,9.847961664199829102e-01
-9.686448826551100066e-02,-3.111491388059207108e-01,5.603962068564727339e-01,1.385286537608244016e-02,-9.300725963350924127e-04,7.757143263075702046e-03,7.870891094207763672e-01
-3.098074328717755760e-02,-6.141710779418808608e-01,5.948156746396208172e-01,3.550330134445443039e-03,-2.116398040290336572e-05,-1.260914191122581001e-03,1.047250270843505859e+00
-3.464207006246800002e-02,-6.122402816256835578e-01,5.874601349454352528e-01,4.057305094777096527e-03,2.050823896423179405e-03,1.710117465597926680e-03,1.039243340492248535e+00
-4.067148767255183983e-02,-6.065349565461243264e-01,5.808343361741861166e-01,4.010608454304416710e-03,1.279978355429344238e-06,-2.800308989558615222e-03,1.028703093528747559e+00
-9.803383633594087154e-02,-3.413424753271250278e-01,7.512391014705636083e-01,-3.552938442620239001e-02,-3.578375364362802041e-02,3.633131652490778629e-02,9.993434548377990723e-01
-3.550318556546126769e-02,-6.081307599702895361e-01,5.853185209904482322e-01,5.945623660503969801e-03,9.639839059793853606e-05,-5.456754684498512850e-03,1.033932805061340332e+00
2.658593462645970906e-02,-5.718136147841660355e-01,3.358239661150058675e-01,2.714992762233677491e-03,-1.155936267182329676e-02,-3.201619215875420137e-03,7.995072007179260254e-01
-2.835178789497319607e-02,-6.251160726316410399e-01,6.011802486525674727e-01,5.389109181657534718e-04,1.122101326241657301e-03,-3.019460044813415418e-03,1.062145233154296875e+00
-3.046776336698154425e-02,-6.081545044457867810e-01,6.002457598052067800e-01,-1.326995603747448387e-03,-6.375142332115763151e-03,4.683047882478787605e-04,1.046902179718017578e+00
-8.062488076940688142e-02,1.103493563853708004e-02,6.043826594120919049e-01,2.075556275208059048e-02,-3.746097395316278292e-03,-6.957968720205232049e-02,6.562831997871398926e-01
-1.226588306755167501e-01,-1.467989705383456189e-01,7.823992385953013606e-01,-7.924668673231738403e-02,1.255447430803378339e-01,-7.059076019663265700e-02,9.605388045310974121e-01
-3.996667776226471569e-02,-6.133287553385315949e-01,6.176110129892535827e-01,-1.427280840594692766e-03,-2.214733468336071293e-03,4.107028925071609139e-03,1.066889882087707520e+00
-1.251129472834632550e-01,-2.308612663189537062e-01,5.915738191264772183e-01,-6.449786309998975509e-02,3.453576740300601505e-03,-1.023757556796712348e-01,8.028506040573120117e-01
-8.693585679575495384e-02,-4.278310447409786055e-01,5.978371423539829976e-01,-3.819009388627724044e-02,8.883470872621373679e-03,-6.088854977860418127e-02,9.133968949317932129e-01
-1.332837774822466514e-01,-1.762323021672151935e-01,6.278584715313015874e-01,-1.014274134813212686e-01,-2.480586654356591730e-02,9.388143878852113489e-02,8.203790187835693359e-01
-1.254729452018696345e-01,-3.051384178846525130e-01,6.458596120325782453e-01,-9.604780110078590949e-02,3.900285327282587700e-02,-8.929985220911022814e-02,9.066300392150878906e-01
-7.094623744984000779e-02,-4.246793333149557204e-01,5.722732370028390525e-01,-3.645947203207371146e-02,3.184682396740789317e-02,3.939241094339650251e-03,8.794677257537841797e-01
1.567966647808146513e-02,-5.987511570985399878e-01,4.442769819886028815e-01,-1.610165297848550555e-04,1.324858707733707064e-01,3.475020054176531856e-03,9.366205930709838867e-01
-3.407549087025586732e-02,-6.107988256472094424e-01,6.200803647238544158e-01,-2.055984577862057534e-03,-3.304794117775467117e-03,3.721866783540872699e-03,1.066716313362121582e+00
1.249583801520764981e-02,-6.418641336875872128e-01,4.768137774411953522e-01,-3.808726791813593117e-03,1.208679722763880970e-01,3.413029101871923460e-02,9.974840879440307617e-01
8.992463707630346526e-02,-6.228672915355437656e-01,1.967286069457708786e-01,-5.807923443809742681e-02,1.585065613879208246e-01,4.628224361617472304e-02,8.291725516319274902e-01
1.115526108452274956e-01,-6.789067558376440381e-01,2.127494138712761051e-01,-3.262980267548892116e-02,8.740298669410047350e-02,2.679213332908110187e-02,8.621625304222106934e-01
-2.865541299273087136e-02,-6.174085434626220836e-01,6.083564836801732545e-01,-7.720272442190661069e-03,-5.748623112371693128e-03,-6.794964860268619920e-03,1.062013983726501465e+00
-7.159185400366746554e-02,-4.586031265817878122e-01,5.798041939691599422e-01,3.065386963467366110e-02,7.764601158746949061e-02,5.307147418536147659e-02,9.249581694602966309e-01
6.343437234240290046e-02,-6.069088965716937789e-01,3.251166873095273635e-01,1.708664821317672656e-03,1.576130544603095499e-02,3.765736664095869438e-03,8.330973982810974121e-01
5.259419090932390684e-02,-6.693539566835622345e-01,3.403468955851459699e-01,-1.087846931342167749e-02,6.032423779758194077e-02,-1.164773774139993279e-02,9.074317216873168945e-01
-3.054987936218117595e-02,-6.106038532980696543e-01,6.149605088716465495e-01,-1.962354486386662638e-03,-4.314459773578231509e-03,3.560059436277504975e-03,1.061923980712890625e+00
-2.653267934803877834e-02,-6.185713044561245155e-01,6.080898306658534258e-01,-7.282748998366184341e-03,-6.470337573428033839e-03,-6.402891443140704651e-03,1.062724947929382324e+00
-1.789559885043385049e-02,-6.264594559874939739e-01,6.037445021914445986e-01,2.938950368698458552e-03,3.820794035012258904e-03,6.627368430905182864e-03,1.065502524375915527e+00
-2.083445913602674851e-02,-6.181540706886318182e-01,6.211155023407205489e-01,-4.304960725462367516e-04,-2.354168615880371240e-03,-9.994352286752312183e-04,1.073480248451232910e+00
-1.144950967635321656e-02,-6.292298396205159294e-01,6.034743523207131144e-01,6.813395791080063303e-04,6.794186351537754437e-03,4.080436734785869955e-03,1.067643046379089355e+00
-3.965407935907844933e-02,-5.149580257681005691e-01,5.881339736143823549e-01,8.910536651709829049e-04,1.864689172577753754e-02,-6.114844954829058189e-03,9.589470624923706055e-01
-2.115740186822174032e-02,-6.259442040767684290e-01,6.049381689389649042e-01,1.841306382535989883e-03,1.239704171265342296e-03,5.433770206305713925e-03,1.066077113151550293e+00
7.425147621064233892e-03,-5.635462511858114754e-01,5.921039574806427064e-01,2.091472464877895329e-03,-1.259460652480491605e-02,1.087234023685008672e-03,1.001091957092285156e+00
-2.391643545046440861e-02,-6.174714693783762698e-01,5.767080271302634786e-01,9.354425002528688610e-03,2.721614107549152114e-03,9.548703039338527626e-03,1.034465670585632324e+00
-2.820682621954528901e-02,-5.963391040517792563e-01,6.190375628549082965e-01,-2.776422084161455327e-03,-1.543824895406531970e-02,3.689848909912485115e-03,1.053659796714782715e+00
-5.387747589083740490e-02,-5.963689334368807993e-01,5.642502959761142023e-01,8.566510559213550520e-04,-8.963103062076803958e-06,5.141187849601559431e-04,1.005838394165039062e+00
-3.790259800956374131e-02,-6.023836952210673834e-01,5.531822502349891257e-01,6.305908034878427229e-03,3.967292898143294521e-04,1.251010950922730632e-03,1.000900030136108398e+00
-3.236582262550142391e-02,-6.038245778609969694e-01,5.414234768986547763e-01,-8.529139026000671919e-03,-1.288353986231878176e-02,-4.658023383385659008e-03,9.922083616256713867e-01
-4.225977024075872057e-03,-5.844465517572022817e-01,4.074331829112549097e-01,-8.379455293312644201e-03,-4.298663397373007899e-02,-4.311179118860229871e-03,8.664768934249877930e-01
-4.169563049922593578e-02,-5.893009581318618961e-01,5.207928456078810830e-01,-8.370595976817385431e-03,-2.838923335221166591e-02,-1.122853196248142608e-02,9.629604816436767578e-01
1.758043993761591178e-02,-5.857466648382367858e-01,5.937657540895230346e-01,-3.530366124375882483e-03,-4.711330606500916014e-04,1.078918558976534221e-03,1.021598219871520996e+00
-4.559479556156947888e-02,-6.013346187963426459e-01,5.704070099335617483e-01,6.959625391958249811e-04,3.063079593026166603e-03,-2.328011140446573264e-03,1.015227794647216797e+00
-5.331357095554405123e-02,-5.998126107687661301e-01,5.663511507336260742e-01,-4.800378044092966368e-03,-2.740180208873907453e-02,-2.243939627926539240e-03,1.011745333671569824e+00
-3.612343688199437519e-02,-6.053028307141521402e-01,5.607485007951934497e-01,-1.101616318123990051e-02,1.665652562710155486e-03,-3.865450620914773466e-03,1.010131478309631348e+00
-4.870595877421138309e-02,-5.996744134317815167e-01,5.679196611542782769e-01,-5.765172865244046381e-03,-8.095396099530034750e-03,-5.787053110678066006e-03,1.011894941329956055e+00
-1.629025906549978059e-02,-6.166836202607941519e-01,6.208680362877075920e-01,-1.806939372111965834e-03,-3.195128078200396883e-04,7.284442794580204932e-04,1.071914315223693848e+00
-2.320901508282541617e-02,-7.138766580498534520e-01,5.825755335859478246e-01,2.154274342394808459e-02,8.008450939378428113e-02,-2.832918949385647769e-02,1.133769392967224121e+00
3.463802258468991202e-02,-6.862713206051987980e-01,4.441753349562574948e-01,-5.745944422357102122e-02,1.528108771597427862e-01,-7.373310087953675873e-02,1.038719534873962402e+00
-2.944262931720171422e-02,-6.177604252043715771e-01,6.026406895296739785e-01,5.282081145836298001e-03,-2.072678677436916306e-02,2.072395106570396051e-02,1.058382749557495117e+00
-8.687514981535854677e-03,-5.921221439111633567e-01,6.101900145462939573e-01,-2.995635818149935134e-04,-9.792001571281414365e-03,1.285315201005784265e-03,1.041524291038513184e+00
-2.228105132137102318e-02,-5.782826321409150205e-01,5.617158227520011593e-01,-4.628382990888847866e-03,4.001370856952112323e-03,-3.732530377193979165e-05,9.874237179756164551e-01
-3.442158652201441488e-02,-6.012306305719293809e-01,6.185482903129574384e-01,-4.495257271243132779e-04,-7.695562525555442457e-03,-8.406970896267122739e-03,1.057422161102294922e+00
-3.721245441308719537e-02,-5.914903850016179909e-01,6.086482103218500139e-01,-8.799039853691899976e-03,-6.549544345726329535e-03,-6.967729075600792750e-03,1.040602207183837891e+00
-3.006496132624077861e-02,-6.185451218999433731e-01,5.954887164241672304e-01,-1.385926225906271292e-02,-1.626871226085960589e-02,-1.286546681816259051e-02,1.052434802055358887e+00
-4.223659294658211466e-02,-6.029488644341749470e-01,6.139408829383146138e-01,3.448714786202737321e-03,7.190453793372548563e-05,-1.499068851368966747e-02,1.055274248123168945e+00
-4.154625741510365594e-02,-6.182866872347575482e-01,6.158489461742078230e-01,1.618193097824474191e-03,1.428124577822062133e-04,-1.002022681455320757e-03,1.069558501243591309e+00
-2.465574672804378420e-02,-6.153604377806873860e-01,5.871893705263497854e-01,3.058281800848482081e-03,-2.720950722292734061e-03,3.566718453413129930e-03,1.041534781455993652e+00
-2.610528393334149433e-02,-6.202974242113118430e-01,6.063194564521316998e-01,-7.187132156111743697e-04,-1.280591449513754539e-03,5.071059906230675077e-04,1.062456727027893066e+00
-3.232187822981891223e-02,-6.028311277315087091e-01,6.154719416545971766e-01,-4.659406020731293903e-03,-6.166796914262824732e-03,4.845287809713568102e-03,1.055907011032104492e+00
5.314457165452857179e-02,-5.951543730454492698e-01,3.241336391163043285e-01,4.136797516136433289e-03,8.603817802358693090e-03,1.173532722315161897e-02,8.185933828353881836e-01
-2.540479348476836624e-02,-5.967845463718466359e-01,5.755913258312830294e-01,1.715622050787533989e-04,1.783879469019528444e-02,-7.446887512457607723e-03,1.015967130661010742e+00
-5.657195257171132585e-02,-5.808917893711944558e-01,6.250308390369797573e-01,-9.088752274588178873e-03,-4.809321063637796503e-03,-6.885595252983444520e-03,1.047535657882690430e+00
-2.946103700764476571e-02,-6.171400150200568868e-01,6.073390961634850260e-01,1.931522210008780084e-03,1.206836894912596825e-02,-1.063460156119738244e-02,1.061085462570190430e+00
-6.322952025322189917e-02,-4.919106228565042205e-01,5.915146749511466240e-01,3.464385468187098412e-03,-7.280082577465406442e-03,-2.923383544821082577e-02,9.465160965919494629e-01
-2.941898077605488784e-02,-6.147084039431464086e-01,6.052977360002773644e-01,7.242067455951360037e-04,-1.067144392583270051e-03,-4.023116881449211556e-03,1.056870579719543457e+00
-3.727076719258354959e-02,-5.739042209879853251e-01,5.737875338781288637e-01,1.201996961123812145e-03,5.731746006427268676e-03,-1.712469109891932503e-02,9.951204657554626465e-01
1.816176433873885332e-02,-5.894926645248027564e-01,3.944343914469802259e-01,1.506692717159442002e-02,-8.615695833397897171e-03,-1.420123956107192031e-03,8.604524731636047363e-01
-5.242573663303790737e-02,-5.283526052382179206e-01,5.894089261745674158e-01,-1.169933926053070119e-03,1.708861657809755338e-02,-1.436695637678335469e-02,9.723290801048278809e-01
-1.624023213182886061e-02,-6.123343558670536479e-01,5.496798776783408114e-01,8.599785275916236454e-03,-1.687677210403334136e-03,7.829551125723191105e-03,1.006652712821960449e+00
-4.312346606720686426e-02,-5.843642271979713199e-01,6.122790889780945767e-01,6.582635947230226423e-04,-9.608549616653919850e-03,-2.977168562340241909e-02,1.039308428764343262e+00
1.318349214094582424e-02,-5.459226587514505180e-01,5.884490731939896468e-01,-3.346613806448617279e-02,2.244831620473031111e-03,-5.234717735718979505e-03,9.841859340667724609e-01
1.108619030738231155e-02,-6.113863742570747606e-01,6.060206287591068941e-01,-1.502999386233424455e-03,4.637638824048872892e-03,-6.177474252384886066e-03,1.054483413696289062e+00
-2.542501570081714957e-02,-6.163109142158674780e-01,5.954685587001710134e-01,4.988250272698835364e-03,-2.554061059941816966e-03,1.449895480536562671e-03,1.049586892127990723e+00
1.814560689985716957e-02,-5.934504905176317680e-01,5.946570353162634603e-01,-6.483129415609363566e-03,-1.434251558507592490e-03,2.292298001344305215e-03,1.029152750968933105e+00
-2.513263867631695264e-02,-6.163377743328256608e-01,6.038674977553856182e-01,2.242675889954062664e-03,-2.749016405829302848e-03,5.391018601472111346e-05,1.056915640830993652e+00
1.169542274103124724e-02,-5.849420307263878405e-01,5.949007881799791564e-01,-1.047704305443598709e-02,4.906663155604064699e-03,-5.245364548167369759e-03,1.022032737731933594e+00
1.930239288558358718e-02,-5.811914478171696929e-01,5.860748861973096302e-01,-1.056940520095315042e-02,-2.121916173133527213e-03,-4.149795536586477901e-03,1.011220812797546387e+00
1.846782213737090117e-02,-5.611546356518593015e-01,5.803226515910412386e-01,-1.108337828416038930e-02,-3.462606755351474528e-03,3.720393294630779200e-03,9.888138175010681152e-01
1.879582708788286177e-02,-5.809486360859499321e-01,5.853049347529118984e-01,-1.335993503728608034e-02,-1.174312523802281769e-03,1.321244656554781309e-03,1.010411620140075684e+00
-5.429378677285678911e-02,-4.290005466246991639e-01,5.763272917335828804e-01,4.095175474785538866e-02,1.312020129986541522e-02,-1.072692823235612061e-02,8.833339214324951172e-01
8.823156258321295312e-03,-5.820985058993881633e-01,5.858986647417195881e-01,-1.273415600758549121e-02,-8.280257675481357549e-03,-2.185719738878946338e-03,1.011888027191162109e+00
1.149770006650503718e-02,-5.445077139897021024e-01,5.806700474417312297e-01,-8.190384936089699017e-04,-8.724439369531083966e-04,4.422380748629336860e-04,9.744572639465332031e-01
-1.719683078806839155e-03,-5.347148703377835322e-01,5.974388443649270020e-01,-2.097712784522181087e-02,-5.908709115166618049e-04,2.689752879547384259e-03,9.817159771919250488e-01
-1.481225315704434026e-03,-4.870489417815543343e-01,5.765039086531019707e-01,-2.881934034499127051e-02,-1.668884593105422667e-03,9.344356028324909968e-03,9.237183928489685059e-01
8.886568084576618176e-02,-5.969992947986564324e-01,2.712841592877958674e-01,-6.099600659253195598e-03,-1.255063418621184647e-03,9.503803521441729976e-03,7.932143807411193848e-01
-1.043395200608546181e-02,-6.328572856037789629e-01,5.888216000760478908e-01,-5.629332149753038875e-03,1.287098131461380038e-02,-1.380257675168756852e-02,1.058618068695068359e+00
3.400949042605230788e-02,-6.159372517126865398e-01,4.313334739593944200e-01,-8.109303429537138494e-03,2.751426900785546806e-03,1.736176767496793241e-02,9.163300991058349609e-01
-1.821013475990584940e-02,-4.141469515989873451e-01,5.657150264869558187e-01,6.952794263733820535e-02,-1.330400032085585910e-02,-1.970337174385245957e-02,8.632091879844665527e-01
-3.852594133005674167e-03,-6.163618333851985653e-01,6.126266068377618224e-01,1.336833575296937464e-02,-9.599866991043716144e-03,-6.175320224916198281e-03,1.064772486686706543e+00
-1.652569297047475766e-02,-6.154729871437922828e-01,5.503247340139262311e-01,6.822754027117074530e-03,-1.703849968711006278e-03,7.740642934799509337e-03,1.009900450706481934e+00
-4.729753878581843818e-02,-6.011707945649646945e-01,5.607000138260976874e-01,-1.092070725367940082e-03,-4.006942411839974766e-03,-6.223280478294267344e-03,1.006656885147094727e+00
-1.428644901328815324e-02,-6.193048696352621008e-01,5.704734427702753408e-01,-7.409637112897216483e-04,7.653254761886297067e-03,1.364328629642692220e-02,1.030784964561462402e+00
-3.462373283128945822e-02,-6.095485448896516001e-01,5.907359115590308241e-01,-1.668714451273526538e-03,-4.130127360386744682e-03,2.938047330865525570e-03,1.039823770523071289e+00
9.725693125440453696e-03,-4.960908240434892535e-01,5.679333461479746381e-01,2.266948523689531897e-02,-1.249615498168075295e-02,3.453227979476158720e-03,9.229532480239868164e-01
-1.632659152854746762e-02,-6.046064265154037498e-01,5.963298122765294806e-01,9.014397899152733554e-04,-9.117119322760881145e-05,2.116597834417075809e-03,1.040120363235473633e+00
2.367337951811352564e-02,-5.384332344168052398e-01,6.235154816772291442e-01,4.919766707932345107e-02,-1.219019936492863644e-02,-2.652538053083927302e-02,1.011319637298583984e+00
7.678146943514464751e-03,-4.802819757205338824e-01,5.690727162795372607e-01,2.337024406756087885e-02,-1.024959324993625701e-02,-9.277985663082299883e-03,9.107244610786437988e-01
3.583975016198191754e-02,-5.697304734145226535e-01,5.784667864478716393e-01,5.578474101372494533e-03,-4.843909289691508170e-03,-6.836155280179454299e-03,9.950186610221862793e-01
-1.071675207825895787e-02,-6.463219053660554936e-01,5.465850367744748972e-01,1.096207595830463871e-02,-4.724652549100930715e-02,-2.784831575629881720e-02,1.038357734680175781e+00
-5.839026469136093800e-02,-5.938043110358507404e-01,5.560335349720425535e-01,-9.023361527131268682e-04,-5.940547885268468789e-03,-1.943179884335676910e-03,9.966320991516113281e-01
-3.910858396762849354e-02,-6.147643466259983258e-01,6.083872228070548172e-01,-1.117936589514679190e-02,1.744280413719726322e-02,-4.325298895285706671e-03,1.060522913932800293e+00
-2.963474105877597284e-02,-6.120221536180742161e-01,5.900662889908969699e-01,-2.795789600491326281e-03,4.843060650625393348e-04,-1.295663771829879806e-03,1.041220307350158691e+00
-3.107773262897511879e-02,-5.964540529318453910e-01,6.006326036308284877e-01,1.756284517425983453e-03,-3.471327843319837320e-03,-7.385788624148588617e-03,1.037338614463806152e+00
4.109135363886441683e-03,-6.211438114229961283e-01,5.086857745129189645e-01,-1.252729816800138545e-03,-1.138451938490033129e-02,1.306392125045998352e-02,9.807814955711364746e-01
-2.822240683447430065e-02,-6.068653103386891789e-01,6.050211052066081230e-01,-9.724209442178525500e-04,6.645785111399715381e-03,-1.593743528063720077e-02,1.050306677818298340e+00
-3.143743733126226625e-02,-6.056362771299406145e-01,6.009644756041869762e-01,-6.737240360322651299e-03,1.178680233457651133e-02,-8.353352264130866137e-03,1.045716643333435059e+00
-2.167907913703190012e-02,-6.327652512002854834e-01,5.859467843477937921e-01,1.257340020389123743e-02,7.453745494017137430e-03,4.741306165529806695e-03,1.055772542953491211e+00
-1.324147646552214889e-02,-6.208397883773315584e-01,5.532399220386319261e-01,4.297542880872485746e-03,3.798204913559528710e-03,2.195785404728159765e-02,1.017750024795532227e+00
-1.381855448549559884e-02,-5.983246078256204692e-01,4.931200117171924413e-01,-1.919956048657948250e-02,-2.189684871888720671e-02,-3.059148343608937906e-02,9.488384723663330078e-01
2.518373778224536862e-03,-5.883267213925146288e-01,5.886694275910936414e-01,2.072342811614086289e-03,1.105936233085885517e-03,3.991070796614516747e-03,1.019342780113220215e+00
-3.888819639126912808e-02,-5.623065230388525348e-01,5.954123241609357020e-01,7.452849431655344170e-04,1.767684421946884299e-02,-1.583487588818539155e-02,1.004987478256225586e+00
-4.935964594947762213e-02,-5.064135950432044897e-01,5.943467761476166622e-01,2.437516514210556762e-03,7.228423212321454135e-03,-1.337019943888469176e-02,9.582148194313049316e-01
-2.414073394425955005e-02,-6.284398438451549440e-01,5.992542441439561163e-01,6.125003467226276289e-03,5.092330864605225035e-03,4.751494572728038809e-03,1.063378453254699707e+00
-4.434516418649087077e-02,-6.015755317794280188e-01,5.846311725236359447e-01,-9.651296110492981915e-04,-5.683522406162808127e-03,1.048448751824990286e-03,1.027961373329162598e+00
-2.750604322644118610e-02,-5.785230571062093263e-01,5.700733784335185739e-01,-1.057035827928244284e-02,4.658926969006109593e-03,1.734511696808239273e-02,9.956406354904174805e-01
2.664730688864790087e-02,-6.034451278967246646e-01,4.035112167823159401e-01,-1.856993307295633569e-02,-4.539155927216687036e-02,-2.396766219750741389e-02,8.862510919570922852e-01
-5.634812191632128375e-02,-5.928980907393990307e-01,5.492991592404135037e-01,-6.931985378496163981e-03,-7.264564396263174448e-03,-5.511889950903365448e-03,9.899737834930419922e-01
-5.736144650451463489e-02,-6.007034215016363587e-01,5.638437311767717786e-01,-1.858337942026983599e-03,-1.286145797665759309e-02,-5.370675242562568223e-03,1.009572386741638184e+00
-2.429746719664463428e-02,-6.316062499606712732e-01,6.006825524517119819e-01,4.481364291223536439e-03,8.867990266909295954e-03,4.290775774707119780e-03,1.067394614219665527e+00
-2.739237261425664025e-02,-5.650529526265060110e-01,5.926994242734171525e-01,-1.010747412178397090e-03,1.428951161199243196e-02,-1.775463768662212047e-02,1.004267334938049316e+00
2.431004879728991888e-02,-6.005470594280334362e-01,5.965568223586188434e-01,-9.021378607996852553e-03,3.231235671176050338e-03,-6.081971655813834914e-03,1.037242293357849121e+00
2.595404241625030167e-02,-5.935882484053636166e-01,5.949508910169920561e-01,-5.396986562829817792e-03,3.896533201499545549e-03,-4.763946866485316463e-03,1.029712915420532227e+00
1.529343719908151517e-02,-5.380646189295651416e-01,5.789018555627193363e-01,-3.780504241543877764e-02,1.117166712094341818e-02,-4.877746912621838855e-03,9.697784781455993652e-01
8.970326031733111835e-04,-5.992651153319401569e-01,5.996874369807764227e-01,-2.360273240439721056e-03,1.849624640764572494e-03,5.760763228048911694e-03,1.038384556770324707e+00
1.138636295693635017e-02,-5.989482698160285556e-01,6.008607088584279055e-01,-2.792778364988710363e-03,-3.976318625776914181e-03,2.577149523263672776e-03,1.039161086082458496e+00
-1.677894618680721150e-02,-6.082595717236907173e-01,5.550002958677395792e-01,-8.129507878754034175e-03,7.991341430360663451e-04,-8.892870542921661389e-03,1.007677793502807617e+00
-1.647172674034421205e-02,-6.107692143052155798e-01,5.696545812596207625e-01,-8.861272300999305240e-03,5.234524623878543392e-03,1.622570820546880010e-02,1.022826790809631348e+00
-2.351407270028208277e-02,-6.161893560604357889e-01,5.840396780466377002e-01,-7.770473902935855388e-03,3.662410226673626108e-03,4.673920015110830800e-03,1.039593458175659180e+00
-2.303206420813237384e-02,-6.162685502318987485e-01,5.775231090673867973e-01,-7.649720038457123381e-03,3.473947543223747467e-03,7.378800997470068811e-03,1.034041762351989746e+00
-2.741028194624414716e-02,-6.124641857655876986e-01,5.926580721231410331e-01,-2.689718397233667197e-03,2.339857295949386400e-03,3.527464671718846031e-03,1.043849468231201172e+00
-2.948405248789869038e-02,-5.971784827846270405e-01,6.047272490695982938e-01,1.751204361411130969e-03,-8.016265660962158118e-03,-4.489957031218717864e-03,1.041538119316101074e+00
-1.711572862978235493e-02,-6.040798806241336472e-01,5.897547701118063257e-01,3.959396735945171567e-03,-5.944772093538710708e-03,-2.963922055557424891e-03,1.034025788307189941e+00
2.649953367560210771e-02,-5.776869551364050004e-01,3.534292494892379843e-01,-9.023887166392062856e-03,-9.978828672942169353e-03,4.865614125839154945e-03,8.185749053955078125e-01
-2.352226051571136567e-02,-6.139043508041639452e-01,5.836724286074151946e-01,-7.014512877430517657e-03,-5.864665798620886895e-04,3.928654233951210141e-03,1.037259936332702637e+00
-2.251950728968711221e-02,-6.175239943068205895e-01,6.037032707709925061e-01,-1.189440830556844813e-03,2.214950139042832621e-03,-5.921213626037259399e-04,1.057738423347473145e+00
3.524254230769839624e-02,-6.055830510847489689e-01,4.218867467401035132e-01,-7.973376485424217217e-03,1.592104946045535966e-03,1.282765207172124021e-02,8.992300629615783691e-01
-2.541834969806288508e-02,-6.135713891297392975e-01,5.995004943139591314e-01,-3.917813040564604651e-03,4.755780739135451879e-03,-8.559634699851455860e-04,1.050767183303833008e+00
-2.797648735708492540e-02,-6.059691859247202661e-01,5.745618789753597078e-01,-7.162743417963095618e-03,2.499182562730539649e-03,-6.280546237086443925e-03,1.022585868835449219e+00
-3.013910558372311782e-02,-6.144399659516188716e-01,5.918193657977918187e-01,-5.358344518904329355e-03,3.685134497990729448e-03,2.843669305568011924e-03,1.044893264770507812e+00
-1.926856221888741116e-02,-6.015777116929140744e-01,5.821301666847029654e-01,2.422416734967424747e-03,4.031282575948895962e-03,3.812188298289383419e-03,1.025219202041625977e+00
9.994708055588351348e-03,-5.786138326860742476e-01,6.199182983337676589e-01,6.325068804041403259e-02,9.055113796870553969e-03,2.218174855166704998e-02,1.044603824615478516e+00
-1.486029017699366100e-02,-6.041781437458800808e-01,5.044271011663054027e-01,-1.547787926271490012e-02,-2.168778960657561858e-02,-8.027613168891880799e-03,9.619268774986267090e-01
8.895169982160248609e-03,-5.703902553016187982e-01,5.785146747753283636e-01,4.644196258078147135e-03,4.076353190149087781e-04,-2.372240730608534028e-03,9.950338602066040039e-01
-4.560704337038557626e-02,-6.066302956682944059e-01,5.802882865766600951e-01,3.889690102829339562e-03,1.162874422016923516e-02,-1.900097675651195046e-03,1.028637886047363281e+00
-3.638851783135248208e-02,-6.110731064483808650e-01,5.819827350110715614e-01,-5.092499145682343256e-03,9.816686614999224972e-03,9.307874680918930234e-04,1.033626317977905273e+00
-2.313393645661888931e-02,-6.139071051882007968e-01,6.013299442593276201e-01,-5.250439045410538151e-03,6.438449916064430643e-03,-3.934668166779642720e-03,1.052681326866149902e+00
-2.684737455869019504e-02,-6.087354922028332949e-01,5.993046239356527582e-01,-2.741834734761547897e-03,3.887537117011792987e-03,-1.761481530578380998e-03,1.046464443206787109e+00
-5.351447078055669715e-02,-6.072378535556579582e-01,5.912072070215542707e-01,3.250730774882725979e-03,7.250356092170307312e-03,-3.188313688282047153e-03,1.038986563682556152e+00
1.823944443484986841e-02,-5.702426708083538909e-01,5.764915530817923406e-01,1.103487254680189726e-04,1.330063514335218331e-03,-3.202408634888015762e-03,9.932341575622558594e-01
-3.629529737296562780e-02,-6.082603959357832935e-01,5.890762676582579349e-01,3.204590889089655847e-03,2.733503607816574477e-02,-3.462739435999271243e-03,1.038379907608032227e+00
-4.447665744329145493e-02,-6.123623302037880523e-01,6.222640181402379067e-01,-8.717475372850273796e-03,3.487025961822566578e-02,-6.332919808546501675e-03,1.072224736213684082e+00
-3.220799870137364129e-02,-6.077428286397210666e-01,5.682754595726290381e-01,5.875535960621533146e-03,5.001672053094321883e-03,-6.953002803858939276e-03,1.018697023391723633e+00
-4.130647848971095298e-02,-6.058023708160966692e-01,5.878421033887292202e-01,-1.001748857721028452e-02,4.413510879196849007e-02,1.033810098370627857e-03,1.037199735641479492e+00
-2.603694665155259491e-02,-6.110563634668130240e-01,6.009887534717882618e-01,-2.244962186260709199e-03,3.933537315288116766e-03,-2.151668859656954372e-03,1.049907922744750977e+00
-3.332541016556619246e-02,-6.045580894738664668e-01,5.435829139515427899e-01,-6.764350135714714343e-03,3.014961990491848640e-02,7.068181059584548870e-03,9.958378672599792480e-01
-4.031077073205452388e-02,-6.315406630908508845e-01,5.865540185458506528e-01,7.504509309863276884e-03,-3.946686221878670242e-02,3.072794373715459146e-02,1.058682203292846680e+00
-2.911282809904343349e-02,-6.014330830067704525e-01,5.272675086329087213e-01,-9.021601880100784537e-03,-2.987841321482203813e-02,-1.379991123193404293e-02,9.793012738227844238e-01
-2.411206724253269623e-02,-6.175523153097157714e-01,5.899943175187539746e-01,-6.897603575864147581e-03,5.600151032986082442e-04,3.450087282603012725e-03,1.045902848243713379e+00
-5.756644339013730627e-02,-5.956734868972639596e-01,5.505360525735687460e-01,5.143081729837736121e-03,-2.218347456503789918e-03,2.707815953045370188e-03,9.933217763900756836e-01
-1.500909199932157906e-02,-6.035929981308854053e-01,4.649219613864774558e-01,2.011923859823471286e-02,-3.874206567489868469e-02,1.991795343325234932e-02,9.306728243827819824e-01
-2.475367114743027425e-02,-6.187004980550590005e-01,6.034503583901262846e-01,-1.359770538583170195e-03,1.592439307705340121e-03,4.899133443001003896e-04,1.058558821678161621e+00
-9.835387686325115786e-03,-5.948145943556323312e-01,4.526393071799487133e-01,1.423163972166029828e-02,-2.151913863902144702e-02,-3.585698420575176692e-03,9.103059768676757812e-01
-4.891791692171754136e-02,-5.936611035291438077e-01,5.282582095662790023e-01,6.238710115555450367e-03,-2.756443540205089082e-02,1.022055497237640484e-02,9.731391072273254395e-01
-6.269458630507815378e-02,-5.964356511731850885e-01,5.603686674867349726e-01,3.126312224504045143e-03,-3.751679139075009273e-03,3.351963764861836097e-03,1.002869367599487305e+00
-3.829597820002066111e-02,-5.928028623216794468e-01,5.040416714357740524e-01,3.314389935747762313e-03,-4.521896749031921459e-02,1.101652840398566202e-02,9.533463716506958008e-01
-4.050594948004568319e-03,-5.903115623092599629e-01,4.043488624985567270e-01,6.632011598277718321e-03,-4.875732510232176631e-02,-2.433554447022108231e-03,8.701736927032470703e-01
-4.379088625718739053e-02,-6.511382882238124781e-01,6.787592879825042891e-01,-2.164744927566266200e-02,4.419678639077355420e-02,-3.596701376536709256e-03,1.156327486038208008e+00
-4.782311134909794648e-02,-6.439544881415915079e-01,6.295534680015296702e-01,1.005371288791367251e-02,-1.616716629840552616e-02,1.767727079630771955e-02,1.104555010795593262e+00
-2.268397195720858045e-02,-6.068694355963835108e-01,5.970780168367838536e-01,-8.205747393355809511e-04,7.993057378287808656e-03,4.352333839323147338e-03,1.042920947074890137e+00
-2.161839415587681057e-02,-6.148702026367736106e-01,6.012971363658597967e-01,-2.422022593547345842e-04,2.239782105545381954e-03,9.555035616598812724e-04,1.053344726562500000e+00
-5.756012299188983244e-02,-6.313416410096389653e-01,6.552483247290944446e-01,3.707846440387600837e-03,-7.146258095556218271e-03,6.759591252763869421e-03,1.116534352302551270e+00
-4.261375146701068539e-02,-6.274780342734087579e-01,6.310456569857053610e-01,3.544913545859780524e-02,-7.429350079643107230e-02,-3.223658040664769200e-03,1.100110054016113281e+00
-4.156557873745132803e-02,-6.653751553090972992e-01,7.015137419156906029e-01,6.723879923756054255e-02,-7.287950560229551622e-02,5.820766395752887713e-03,1.197682857513427734e+00
-3.057565130990876068e-02,-6.418336594601233847e-01,6.570625308750641658e-01,4.770527355948314327e-03,-1.207789378186153962e-03,1.530423794210924180e-03,1.125560641288757324e+00
-3.300233038388683537e-02,-6.171104457181917358e-01,5.989422669690508405e-01,-5.138934816949022703e-03,-1.078444289160972094e-03,7.739940884609345035e-04,1.053444266319274902e+00
-6.111587497809095604e-02,-6.570465066955393230e-01,6.464765732126603881e-01,5.908674937994376659e-03,-7.884944475036766154e-02,1.576293079815372158e-02,1.138858318328857422e+00
-2.116386347814148625e-02,-6.149368994045574244e-01,5.427377355310136764e-01,-1.127129889454028637e-02,-1.082724966552155990e-03,-1.738667993549341054e-02,1.003330707550048828e+00
2.182711075485205959e-02,-5.905112535854849520e-01,5.904278174600863238e-01,5.027266474372426609e-03,8.673910953332981955e-03,8.109925892136722603e-03,1.023200869560241699e+00
1.780913222738257293e-02,-5.787027232082739836e-01,5.805103253005823305e-01,6.817806145299502504e-03,7.456348317086042982e-03,6.375639100965013913e-03,1.004263520240783691e+00
1.546635338646739147e-02,-5.798600515721028525e-01,5.825943846431931306e-01,7.202563506485323667e-03,1.349620772759946644e-02,5.619419388815394441e-03,1.007209420204162598e+00
4.596841555997604675e-03,-5.906322868421809424e-01,5.907226882081815234e-01,-9.848295228676107529e-04,-4.289861571475657442e-03,1.019493409911624397e-03,1.023123502731323242e+00
2.610017015141218727e-02,-5.827055786192701925e-01,5.794168995684034762e-01,6.093354632542583894e-03,6.123189855653745142e-03,6.157562486725884528e-03,1.006977558135986328e+00
2.256147385514160886e-02,-5.762411217929226392e-01,5.790736042267683459e-01,7.668798142199917747e-03,5.372520951382457610e-03,5.448555119383933186e-03,1.000931262969970703e+00
2.995259517424428766e-02,-5.263573549990950839e-01,5.793190979418022524e-01,3.036387644981326447e-02,8.257498762160369807e-03,6.296790175046196314e-03,9.591619968414306641e-01
2.687751417864545425e-03,-5.530450527597381427e-01,5.806517398624916337e-01,1.884989966371475659e-02,2.137977278667443568e-02,9.866609151344281001e-03,9.832620024681091309e-01
1.568234319170321370e-02,-5.825954177442321802e-01,5.828028768125922410e-01,9.654160251271776128e-03,1.347498452968198812e-02,4.166593397770009412e-06,1.009793043136596680e+00
5.429293478429852993e-03,-5.783693374572204116e-01,5.868420198093439177e-01,-3.818666477143455463e-03,2.236714743669075375e-04,-1.261193757864662382e-03,1.009127497673034668e+00
-8.688919268744632607e-02,-2.764088667960255541e-01,5.869082652573732739e-01,7.623032667905947635e-02,-3.352061092027909528e-02,1.587698876440261572e-02,7.994866371154785156e-01
-9.104959602999655732e-02,-4.005505616643249001e-01,5.794467161904199859e-01,-2.036533935803792536e-02,-2.834457613699203730e-03,-2.083461527197571356e-02,8.691639900207519531e-01
-1.021627230986110468e-01,-3.061040877546610806e-01,5.607852825001768959e-01,1.715841946916552702e-02,3.913956578667778310e-03,2.905576815600231094e-02,7.872461676597595215e-01
-5.684024493653490329e-02,-4.532591452971945767e-01,5.808988019330343366e-01,2.492103939669408977e-02,1.579380612664076089e-02,3.514560036513974389e-02,9.071868658065795898e-01
-2.354463444159023838e-02,-6.293698374305051191e-01,5.934093433367574333e-01,-2.189486627192066201e-02,9.946781882493706262e-02,-2.039568877403580630e-02,1.074146270751953125e+00
-4.030253651383552266e-02,-6.075405888678825361e-01,5.920755326690390064e-01,3.888063106333857714e-03,6.330195291079143693e-03,-6.362084884693629608e-03,1.039546489715576172e+00
-4.227681640177158306e-02,-6.073386283038449962e-01,5.772827438188581350e-01,5.116532371271425086e-03,8.702642503591668383e-03,-6.898713737945430351e-03,1.026492476463317871e+00
-3.405945428342167097e-02,-6.111251712040461914e-01,5.775540625059977229e-01,5.610587782957441282e-03,-2.019358372184493471e-03,2.892657389340036640e-03,1.029635310173034668e+00
-9.164477977853746626e-03,-6.570068356665642595e-01,4.902280885014612677e-01,-2.818767677940526434e-02,7.341905508859043750e-02,1.178456393366114283e-02,1.005779147148132324e+00
-1.577569341258584779e-02,-6.149373042022027169e-01,5.777739895289507599e-01,4.380171813271323961e-03,1.124385430814794961e-03,6.689211035063293877e-03,1.033016800880432129e+00
-5.010383273232541651e-02,-6.108966196246344849e-01,5.804642903655108377e-01,-2.965217869499515817e-03,9.849421716060013932e-03,4.563377681726621740e-03,1.032522439956665039e+00
6.544885892320767562e-02,-6.800647172600378099e-01,3.664208070824830354e-01,1.887607087266511422e-03,1.830129087844031832e-02,3.661098264413639725e-02,9.358364343643188477e-01
-3.811750783411873428e-02,-6.009775189027748432e-01,5.468255503993142419e-01,7.236802044274396294e-03,1.260218736820787125e-02,-7.452584100434395988e-03,9.944903254508972168e-01
-3.254150693635077946e-02,-5.058091027529229011e-01,5.619092253547740556e-01,2.660332673834723757e-02,5.630142314640569330e-04,1.699300076014394548e-02,9.282664656639099121e-01
-6.988282336762232858e-03,-5.978787610656212115e-01,5.965380637815922427e-01,-3.219515775984598243e-03,-1.113248409971269448e-02,4.710498982475031481e-03,1.034641504287719727e+00
-4.456801428901670248e-02,-6.272813424145408101e-01,6.487930719779941846e-01,-7.530448095964784212e-03,2.379531488539373199e-02,-8.164453764702726823e-03,1.107431173324584961e+00
-1.245882779428285347e-02,-6.053836637141346566e-01,5.583652247375379130e-01,2.298939371330337470e-04,1.541714893663002992e-03,9.266540888417412747e-03,1.008028030395507812e+00
-1.163145280063532933e-02,-6.118259761291807708e-01,5.396264201992230225e-01,-1.257934601960854562e-02,3.292013252138609354e-03,4.169784059479526503e-03,9.977675080299377441e-01
-2.228466977008535660e-02,-6.174598952197775104e-01,5.875934095269205182e-01,-6.975391224188216659e-03,3.845458065227754137e-03,3.479309316375942245e-03,1.043741226196289062e+00
9.825532254183005909e-03,-5.826702459824889546e-01,5.894072559004526202e-01,-1.056139362901720342e-02,-1.011822157968042361e-02,2.390351055964216528e-03,1.015393972396850586e+00
9.089733483682157708e-03,-5.561687297437236666e-01,5.848006904580125287e-01,-1.498692942003765870e-02,-1.000666282736601895e-02,5.247991110154308879e-03,9.886569380760192871e-01
6.667439517303828944e-03,-5.746210997420553301e-01,5.895430439279812918e-01,-1.318848762244420429e-02,-4.786334741557068950e-03,2.490323626773691991e-03,1.008498072624206543e+00
-8.997442510955442480e-03,-5.331013259087474809e-01,5.855918104553291537e-01,-1.750137101493620673e-02,-1.027465589968338394e-02,5.602421514776592670e-03,9.701430797576904297e-01
-6.646091224849562384e-03,-6.075782864165911734e-01,6.190471409251678825e-01,-5.056952063659442276e-02,1.621253838376312054e-02,-5.972381764944677610e-03,1.066385507583618164e+00
-2.069067029147011322e-02,-6.162766811141698886e-01,5.834164512930642976e-01,-6.430364047203713206e-03,4.326291418900241222e-03,4.630445377796094282e-03,1.039091110229492188e+00
-2.639847828846887678e-02,-5.430293837644730726e-01,6.016864116074714941e-01,1.076837214573532096e-03,-2.252342985764043196e-02,3.120983773270826628e-03,9.937005639076232910e-01
2.513466700016378421e-03,-5.832644857165639740e-01,5.942609419573020579e-01,5.306092198873611418e-05,-4.448223160563801251e-03,5.056584371242075528e-03,1.019837975502014160e+00
9.507392166034463882e-03,-5.772328857440643946e-01,5.927185112270901834e-01,-1.293735108976640930e-02,-7.409119770416573020e-03,1.980196889678616408e-03,1.013543963432312012e+00
1.676151604607842294e-02,-5.788415143078091685e-01,5.916741080537447628e-01,-3.017005766116612545e-03,-4.331066399958016094e-03,1.836607682323677026e-03,1.013795256614685059e+00
5.103214715474414798e-02,-5.827689597077345685e-01,3.133358146214755835e-01,-1.115947019951785135e-02,3.766025409360872992e-03,-2.697687909098941354e-03,7.982439398765563965e-01
-8.523983113455618765e-02,-2.873175470907943230e-01,5.581455605377951823e-01,2.054297843061287515e-02,9.147198777592752822e-03,2.442663786233539077e-03,7.657212018966674805e-01
-2.469303516685070893e-02,-6.137469278496802128e-01,5.992645229053558120e-01,-4.356730356674478645e-03,8.658168786067080291e-03,-6.784579394741426179e-04,1.050778508186340332e+00
-1.424395846529990552e-02,-6.091408187080149528e-01,5.397218418313279864e-01,-1.248139482444856480e-02,1.990587731723560475e-03,5.469844594616131254e-03,9.954405426979064941e-01
-1.246245161946328006e-01,-1.436500065751655786e-01,5.608905859828187124e-01,-1.111937985833995335e-02,1.041659361760442597e-02,1.604364070033088147e-02,6.962785720825195312e-01
-9.667426374620147200e-02,-3.082766067541494737e-01,6.249599906632355983e-01,5.562652979264283426e-02,1.923244077606088608e-03,3.759227271965434602e-02,8.554323911666870117e-01
-8.840172610824269944e-03,-5.263274915316987768e-01,5.768687499435868338e-01,2.624645630582518596e-03,2.187790295930168438e-02,-4.227978705113882504e-03,9.567942619323730469e-01
-1.005410604830428434e-01,-2.601032842355815444e-01,5.513822599045743456e-01,4.723017624454792923e-03,3.269112194466491320e-03,9.770636671035334148e-03,7.448971867561340332e-01
-2.266166191054185333e-02,-5.919708688959117726e-01,5.978211007921753195e-01,-3.800899399760781280e-03,1.420112389239662661e-02,-3.977760782171636811e-03,1.031045198440551758e+00
-6.937308692278187916e-02,-3.654856793947869886e-01,5.711447714983718393e-01,4.116632259083797402e-02,2.020347943866157223e-02,4.043231463598094544e-02,8.359569907188415527e-01
-1.647383901926946503e-02,-6.080021531804663537e-01,5.400192717109641993e-01,-9.578246354387726091e-03,6.665699810592618174e-04,5.196848581383391522e-03,9.945498108863830566e-01
-2.233103129342708937e-02,-6.183364508154038930e-01,6.028324257620910620e-01,7.988367258088339352e-08,8.874387046101687646e-04,4.205214651138802252e-04,1.057665109634399414e+00
-2.447134467751793663e-02,-6.160083734345189743e-01,5.989261998723421909e-01,-1.187972698793211259e-03,-6.293826288436317343e-04,-1.459290446667917953e-03,1.052290439605712891e+00
-2.506111529815871486e-02,-6.070574852820892486e-01,5.863971172612695293e-01,-1.692938215233499594e-03,-4.393275557773261911e-03,-1.174250854872406838e-02,1.033899188041687012e+00
-4.389513908238762419e-02,-6.081344554528004265e-01,5.869893392877776339e-01,-6.070428422995433927e-03,-1.918584059227248411e-03,1.959026630793716302e-03,1.035608172416687012e+00
1.554955312210533173e-02,-5.442611625148013887e-01,5.701730118375223366e-01,2.040762420651346439e-03,1.234356090807186244e-02,5.839261181515698410e-03,9.654279947280883789e-01
-3.095166625188775639e-02,-6.178803105185706190e-01,5.965421483649601120e-01,-8.383217515626222374e-03,1.084451444525137134e-03,2.078892695126003786e-03,1.052024364471435547e+00
-2.691664164675934209e-02,-6.072636449845734141e-01,5.660130186853568057e-01,-6.368145318021325822e-03,-3.732181557118818957e-04,4.129130307561449352e-03,1.016192078590393066e+00
-1.703593512953869779e-02,-5.970875217666749002e-01,5.969304789596304728e-01,3.328271635115645673e-03,1.045982616468935783e-02,5.231488227382207964e-03,1.034403324127197266e+00
-2.102028030926828689e-02,-6.182963855209636650e-01,6.038150236476611532e-01,3.932056440380569755e-04,-8.132419135838919429e-04,-7.904392994409304660e-08,1.058470368385314941e+00
-2.520369212895558209e-02,-6.156012549199244566e-01,6.016333462162678503e-01,1.968338220269955086e-03,-6.427499934042945999e-03,3.550600485388554547e-03,1.054395794868469238e+00
-7.056809674126494035e-03,-6.042472404203811376e-01,5.951362459999921528e-01,5.473960480786465481e-04,6.712434217418935048e-03,1.672092606873449953e-03,1.038769125938415527e+00
-6.849319074329302676e-03,-6.123731874317007717e-01,5.994031222956023308e-01,-4.970439570642734561e-03,1.626849869524910498e-05,-1.955478642749799642e-03,1.049469947814941406e+00
1.892172230737839203e-02,-5.838954810552227093e-01,5.856406925328317969e-01,-7.410139467264130649e-03,-2.328243866508730459e-03,2.762511903732489497e-03,1.013109445571899414e+00
-3.051481120269338224e-02,-6.039480735569525693e-01,5.518015177221103906e-01,9.135336333622711899e-03,5.659371508177545246e-04,1.212254230694909856e-03,1.001046061515808105e+00
1.355461211699123501e-02,-5.821370273778730953e-01,5.888067493867122915e-01,-5.873832625850679279e-03,1.456591186121299931e-03,-1.892424854218393909e-03,1.014178037643432617e+00
-4.407590642261594721e-02,-6.499861806277568155e-01,6.544238835449357472e-01,-8.070980609521353696e-03,2.386525961964420725e-02,2.969314875111535995e-03,1.131453871726989746e+00
-3.152144172487411633e-02,-6.131933572291639045e-01,5.994398417346098462e-01,-4.427004121854403312e-03,1.134770965955754409e-03,-3.669548333174474028e-03,1.050509333610534668e+00
7.701226720090851782e-03,-5.925670525339050698e-01,5.910602508357720719e-01,-1.099038035957854414e-03,-5.028184631895309294e-03,3.536103978311716869e-03,1.025143265724182129e+00
8.111841804857231053e-03,-5.622435776723956335e-01,5.825854906694556412e-01,-1.460417402532671050e-02,-8.278078369227765895e-03,1.306277679481183127e-03,9.918820261955261230e-01
8.035015874802950084e-03,-5.678253687378834735e-01,5.832117402224330505e-01,-1.322034197153077253e-02,-7.482035990174372778e-03,-2.243570635440786214e-03,9.971821904182434082e-01
-2.422523710399623886e-03,-6.271009174732059543e-01,7.087039317659700188e-01,7.946467635064391466e-02,2.105471734779381376e-01,4.684797658833339106e-04,1.221508979797363281e+00
-1.157004377627498040e-02,-6.150315311449918720e-01,5.393772970280600321e-01,-1.183757451065401388e-02,-1.425686330496211095e-02,-1.144753954244833241e-02,1.000803470611572266e+00
-8.164752307287681532e-02,-3.339302384001266999e-01,6.775543017475239571e-01,2.022135776913362992e-01,-5.066975493286097337e-02,-4.123908702266421145e-02,9.833832979202270508e-01
-2.080702648279126807e-03,-5.810773631662262684e-01,5.928143692000834575e-01,2.272335118475854107e-02,6.892011349872396650e-03,-6.195531915110292012e-03,1.017539262771606445e+00
-4.451582377705424337e-02,-6.210380434903367552e-01,6.268945498001561312e-01,-5.496764980099573886e-03,-1.674123546511799981e-02,8.602795296588422111e-03,1.082315206527709961e+00
-3.397574730699521456e-02,-5.720040575374243375e-01,6.112764311725311650e-01,9.566825776012167007e-03,-1.925847152612339061e-02,-7.363452598601108283e-03,1.026907324790954590e+00
-2.517656887580111552e-02,-6.135130017222808485e-01,6.091496910646128082e-01,-6.638872491580694209e-03,5.153674008903558895e-03,2.127479993414505433e-03,1.059213042259216309e+00
-5.998693573789924682e-03,-6.020733550602146433e-01,4.887053952704532023e-01,8.185111819543209460e-03,2.552112920274301252e-03,6.056462965990473679e-03,9.461756348609924316e-01
-2.989504730642501482e-02,-6.117883267982927586e-01,5.568688155599489376e-01,-1.161972894982565840e-02,2.135758022315543611e-02,1.146591561951054196e-02,1.013160109519958496e+00
-5.209176308234114705e-02,-6.002770926186755673e-01,5.735610249630473945e-01,2.919951087291527796e-03,3.312590976956845956e-03,-2.533206730726069583e-03,1.017349481582641602e+00
5.888198108727464401e-03,-6.197113039248559607e-01,6.236639929196649001e-01,-1.831421285849508043e-02,5.174586262134562437e-03,-7.965855898681118222e-03,1.077394485473632812e+00
-6.665483293054436098e-02,-1.060742828035102114e+00,1.093606818375024492e+00,-1.447379447075265169e-01,2.088514773633961749e-02,5.733834786985307803e-03,1.884694814682006836e+00
-3.158502062833868501e-02,-6.115115583620105433e-01,5.828483511974759113e-01,-4.074314926507417549e-03,7.844169656179616947e-04,-7.236962322979327523e-04,1.034515619277954102e+00
-2.766784621049290377e-02,-6.060180472924331374e-01,5.824597303293757022e-01,-4.840098649940138310e-03,4.083727599344932728e-03,-1.080120657683943065e-03,1.029434680938720703e+00
-3.571551243849755558e-02,-6.153902394047857660e-01,5.817636863732106312e-01,-8.318218917651356431e-03,-4.709653662775093765e-03,-5.111783800251272318e-03,1.037107944488525391e+00
-4.942765456740344510e-02,-6.092046992947690587e-01,5.896685661111846777e-01,-2.827585269124234264e-03,1.845622057415119638e-03,3.971174698543689097e-03,1.039051175117492676e+00
-1.944695839174992794e-02,-6.113931283638202041e-01,5.571294552854008097e-01,-9.232447483396358928e-03,-2.189718265449925715e-03,-1.094789368311672312e-02,1.012310504913330078e+00
-1.741253216123728187e-03,-5.867573873530160800e-01,4.409094923142428124e-01,-5.578344821973742380e-03,5.427909705922579799e-03,-1.411376614055395501e-03,8.929328918457031250e-01
-1.906588540939218451e-02,-6.164427145298833066e-01,5.773586417121345793e-01,-5.866298597945340636e-03,9.424041137594924358e-03,3.388633953901027882e-03,1.034057855606079102e+00
-3.763185468611469214e-02,-5.849788030434227570e-01,6.070578933659648291e-01,1.601218925060953575e-03,1.202454195636699398e-02,6.507432093232315591e-03,1.033755779266357422e+00
-1.728698131498085377e-02,-5.975131545293894675e-01,5.169681832802571764e-01,-1.108949798185149792e-02,-1.125796698260252062e-04,6.035733166320463201e-03,9.656904935836791992e-01
4.877243076386421350e-02,-6.058486505766353947e-01,4.035416377557943246e-01,2.107856699073824835e-03,4.521259391238680904e-03,1.234780584007937575e-02,8.872211575508117676e-01
-2.336873952711762681e-02,-6.133543423864749045e-01,5.926716694369325023e-01,-4.676291764014799297e-03,2.547756554325604061e-03,-4.222654734432475070e-03,1.044596791267395020e+00
-2.355818660763977362e-02,-6.167194919934357866e-01,5.946473160893027687e-01,-4.180255452693122480e-03,2.492544235588169382e-03,2.223704750633289859e-03,1.049190044403076172e+00
-2.315488589029102151e-02,-6.161912073776479870e-01,5.852525990515135002e-01,-6.687684579651973285e-03,1.992049890779757325e-03,4.039327075022857393e-03,1.040602922439575195e+00
-3.478119446575943935e-02,-6.076448283500357483e-01,5.748941836826715335e-01,-4.940947814404144170e-03,-4.312207404442871747e-03,3.107253220080725270e-03,1.024351358413696289e+00
-2.128823217368759624e-02,-6.131084530149938372e-01,5.990566744409347999e-01,-3.011829193778847724e-03,6.677877387601244101e-03,-1.342658055730248804e-03,1.049941897392272949e+00
2.030344422254851122e-02,-6.108685660960880837e-01,6.154255426678645335e-01,4.670601586708293847e-03,6.028219362304657221e-03,-6.003263190255334059e-03,1.062287807464599609e+00
-3.394230341670766843e-02,-5.985517444348676941e-01,5.436829906183451300e-01,-7.322161536207164381e-03,-2.595503181211478421e-03,1.845837139912138644e-03,9.893223643302917480e-01
2.123411499099058658e-02,-5.336076939584969425e-01,5.678580654453015963e-01,3.833383737591379570e-02,2.753358269635624613e-03,1.122439883782150663e-02,9.564236402511596680e-01
8.207906013988088521e-04,-5.805386386740564175e-01,5.878259016936270287e-01,-6.767790827650008731e-04,8.449667850033624333e-03,-2.731578945125887840e-03,1.011954903602600098e+00
3.398641675312521343e-02,-5.800235604953953850e-01,5.938103024597437551e-01,3.767466927886843620e-02,-4.761022500222223189e-03,-3.901752707925629227e-03,1.019078135490417480e+00
1.638779281757572412e-02,-5.546481683676001140e-01,5.727170104188921140e-01,-5.502395927192847876e-04,6.790032439517848864e-03,-1.771027669100400624e-03,9.764307141304016113e-01
-6.177850218784267100e-02,-5.988855396810733867e-01,5.556629572910518622e-01,2.485574961153878652e-03,-3.010211964801445383e-03,7.644379315760789668e-03,1.000785231590270996e+00
3.581512053784014632e-02,-5.714851085025600685e-01,5.763045566188723656e-01,8.982834345664875500e-03,6.050433868126417133e-03,2.021006729830552000e-03,9.947592020034790039e-01
2.899787940511031406e-02,-5.737220667041107447e-01,5.839697208981898813e-01,8.367792440586638986e-03,-5.077567266756032038e-03,-3.875208530374418640e-03,1.003040432929992676e+00
8.649550492001001345e-03,-4.078279600654047266e-01,5.507903974429262384e-01,8.218095349746891431e-02,-4.414101272035845375e-03,4.795583997171165916e-03,8.447178602218627930e-01
1.391741299542054860e-02,-5.181290617639254803e-01,5.672479669769560084e-01,4.060399027189363214e-02,1.262345790067729255e-02,9.167742120065781528e-03,9.430387020111083984e-01
7.545553985142873510e-03,-4.923377422671133541e-01,5.604513317877523049e-01,2.836913953401753660e-02,-1.609127276117582397e-02,1.217866128875770906e-02,9.141185283660888672e-01
1.437963089552608542e-01,-1.037362097945611517e+00,2.746696245255083602e-01,-4.516955195246846050e-02,1.108165317669435601e-01,9.514411679711816741e-03,1.268888711929321289e+00
2.690353219583798555e-02,-5.362676351211372872e-01,5.727635648632170007e-01,2.153808753974296650e-02,3.799363981040136651e-04,-5.482685858482297565e-03,9.612594842910766602e-01
2.672326360372441825e-02,-5.785502323635507427e-01,5.785740932010458026e-01,4.278601560671503948e-03,6.027995462854296958e-03,6.312894568516586556e-03,1.002596378326416016e+00
-4.854917131644460870e-02,-6.055687808897508573e-01,5.731262157711123351e-01,-1.041099012852706937e-02,-4.098988018192003917e-03,-5.807648166148881436e-03,1.021525025367736816e+00
-2.335205624311899320e-02,-6.040727960440449573e-01,5.373269242856373307e-01,-1.374827057403043597e-02,-2.227667924308882053e-02,-1.097471594251984983e-02,9.897537827491760254e-01
-3.708781536982221072e-02,-6.090799414291738767e-01,5.686472740551722360e-01,-1.233742139350098646e-02,9.421018559078941316e-04,4.311576796953394027e-03,1.020333647727966309e+00
-1.605396326505928450e-03,-6.197472815176933159e-01,5.331581992871549103e-01,-9.764481438520700857e-03,-6.192713838804070337e-03,-1.437127853133618981e-02,9.998259544372558594e-01
2.388015453762695750e-02,-5.229656937196877076e-01,5.630450457448906709e-01,8.066020189469860074e-03,-4.699121529592034836e-03,-4.164907628458040627e-03,9.406873583793640137e-01
3.465294447723545057e-02,-5.717722065288849409e-01,5.777276831614611696e-01,8.804965945285427725e-03,-5.682006742801869355e-03,-7.699376678666066884e-03,9.962545037269592285e-01
-1.136429515121832601e-02,-6.165769220231301917e-01,5.442648742308399124e-01,-8.937777335476187676e-03,2.192535087931950580e-03,6.763222493999430929e-03,1.005818605422973633e+00
2.786852212902542203e-02,-5.763825316376346430e-01,5.837779483413106929e-01,1.035427810102225628e-02,-3.978434769377088391e-03,-9.866996238781101502e-04,1.005204200744628906e+00
-1.238582828819914661e-01,-1.697751934218851289e-01,5.689639618369319862e-01,2.905423101276730091e-02,-2.551481429196833430e-03,1.156632534211830821e-02,7.189413309097290039e-01
-3.685946428408692910e-02,-6.054508751185820881e-01,5.854228944819739322e-01,-4.428052894101220174e-03,-3.151776426855826957e-03,-8.028605333085922849e-03,1.031812906265258789e+00
-3.451095456213701396e-02,-6.046052989306015535e-01,5.699663574969429103e-01,-4.494962316722514450e-03,-2.994892365741964359e-03,-5.104662061063155011e-04,1.017397522926330566e+00
-3.215407732190137674e-02,-6.121240424405700598e-01,5.913067622062032624e-01,-2.950371114849919749e-03,1.207467001537811807e-03,-1.153897906569937041e-03,1.042445063591003418e+00
-5.136259177182279922e-02,-6.013368847379942927e-01,5.730457599090146292e-01,1.120329448302472821e-03,-3.484837792075926293e-03,1.569024490897353826e-03,1.017749309539794922e+00
-3.037961620850042344e-02,-6.084734255967113592e-01,5.832091203932630030e-01,4.565352306062265436e-04,4.354405065631303771e-03,-3.566710286544324572e-03,1.032226324081420898e+00
-3.670271808842551220e-02,-6.123697610483082032e-01,5.890951184048115463e-01,-4.212692552902423150e-03,-4.724642472881867596e-03,-3.319741239115826283e-03,1.040874600410461426e+00
4.801804763375244756e-02,-6.548408019714921924e-01,3.245793157225064784e-01,4.183041824340981082e-03,-4.922317373042351535e-02,4.825224670599832853e-04,8.787503838539123535e-01
-5.769870649448038263e-02,-6.080482179941665288e-01,5.946687725454182782e-01,-1.982930656387596122e-03,8.202198501812351175e-03,-2.928899463565540554e-03,1.042946457862854004e+00
7.161519196749351057e-03,-6.054873421975280889e-01,4.486144691560320363e-01,-7.542001852735468609e-03,-1.099583915976262878e-02,-3.145404455918923009e-02,9.187907576560974121e-01
-6.172416135346933674e-02,-5.904535975584138674e-01,5.526294214822237150e-01,-7.864806765605439082e-04,-3.195969625585280520e-03,7.179859200007472197e-04,9.908814430236816406e-01
-5.258094815596588839e-02,-5.936731773765087095e-01,5.591945570571310586e-01,-3.930261623013971140e-03,-2.062664108649904689e-03,-1.115192410132246834e-03,9.990695118904113770e-01
2.717005921789053535e-02,-6.034970310339579092e-01,3.852224740462871777e-01,-1.221027267791599709e-02,-4.710837554549317935e-02,-5.091799177747020205e-02,8.755782246589660645e-01
-3.112753552276746258e-02,-5.985738839354387553e-01,5.149141729673885060e-01,-1.748452229655353754e-02,-2.356256468821869843e-02,-1.099148731614426125e-02,9.658941030502319336e-01
-4.258059564997777185e-02,-6.223392191943772911e-01,5.950878185506989215e-01,1.371470706825639145e-02,-9.810607334749463226e-03,1.950675879971829410e-02,1.055665373802185059e+00
6.965031850950767489e-02,-6.206442602102512085e-01,2.349947217260677790e-01,-6.523896582706263658e-02,-1.417110108295098758e-01,-4.068669516944890818e-02,8.342435956001281738e-01
1.158801672852258907e-02,-5.991825617646694413e-01,4.428833038831344049e-01,-2.894410530237644195e-03,-1.725104262008138670e-02,1.638186533050516730e-02,9.078556299209594727e-01
5.053187021124280753e-02,-5.880243924691560542e-01,3.355906050812687558e-01,7.585435969072832903e-05,2.274358904540230240e-03,6.441876730725363057e-03,8.192549347877502441e-01
-1.765036058628417087e-02,-6.463237999630218056e-01,6.302997278866713238e-01,-1.304959455142023009e-02,-1.501058928971692012e-02,7.321272129564407143e-03,1.106239676475524902e+00
6.229717038264417917e-02,-8.800213471556334044e-01,4.092253923268307503e-01,4.857405445508489877e-02,-1.716031416132503817e-01,-8.567625607889857442e-02,1.205272912979125977e+00
-1.112557932854769949e-02,-6.162733604143779687e-01,4.934413748550466883e-01,2.946486419980466967e-02,-1.313156644531146278e-01,-7.594898072006348901e-03,9.902718067169189453e-01
6.289029300640064379e-02,-1.018864209452047476e+00,4.483559441955116132e-01,-1.706164219888996469e-01,-2.019482769525003663e-01,-3.577323210614567761e-02,1.396164059638977051e+00
-2.383072393328231411e-02,-6.023383414862942820e-01,5.708558888699123424e-01,-3.276066675195991786e-03,-1.367238434641238065e-02,1.816406884380286635e-02,1.016826868057250977e+00
2.602482697594372604e-04,-6.170176221165724062e-01,6.044413673898682005e-01,-3.464949927783538084e-03,6.596070344530687501e-04,5.126858289657483525e-03,1.057889699935913086e+00
-1.872359863141203479e-02,-6.025773823759833503e-01,4.582406457243888287e-01,1.423973034324182638e-02,-1.864740743557804364e-02,2.085410886359272478e-02,9.218533635139465332e-01
-2.576639687640105980e-02,-6.030495083645044385e-01,5.198735962963283441e-01,-1.829348727835501676e-02,-2.505198347456990843e-03,4.748015274587049674e-03,9.731690287590026855e-01
-1.983544891328508850e-02,-5.864475205004604508e-01,4.745973408775591151e-01,-8.631391475347161349e-03,-4.840667183603533305e-03,3.836811960566917108e-03,9.197840094566345215e-01
-5.244610476692933981e-02,-5.273251238597533863e-01,5.921104077500867202e-01,6.362976723282256141e-04,1.512663424852505635e-03,1.559929550609733852e-02,9.735438823699951172e-01
-4.723399286279835428e-03,-6.061713115462528112e-01,6.084483249922305603e-01,4.064918913023976565e-02,-1.861225657426763061e-02,1.381816956471668308e-02,1.055025696754455566e+00
-8.689563435371109798e-03,-6.775113151806547718e-01,6.663205728988778054e-01,4.061639264355109552e-02,-3.122955475600460579e-02,6.853419615650342038e-04,1.167175650596618652e+00
-3.203226627030564266e-02,-5.638595807714260610e-01,5.926982312065794956e-01,-3.445733214016682283e-03,-8.375160676354607286e-03,5.071322005417835087e-03,1.002846121788024902e+00
-1.824064867065989040e-02,-6.113366158840826126e-01,5.624042456088936826e-01,4.682432707804110722e-03,-1.209659199640466783e-03,-6.824814024363228676e-03,1.016611695289611816e+00
-6.685527502701039959e-02,-6.014717260037075741e-01,5.706304367252900134e-01,6.477974473449861189e-04,-1.591757527986665741e-02,2.390548590795391060e-03,1.016755461692810059e+00
-2.475077768090013300e-02,-6.330805730685468147e-01,6.033600880497844710e-01,4.256818611847203865e-03,4.132670698989526596e-03,3.299509483991905530e-03,1.070899248123168945e+00
-2.635148014263867869e-02,-6.153902262444136406e-01,6.047628246475169611e-01,-8.181053446251638703e-03,-1.691357969618368859e-02,3.276348689939708771e-03,1.057409048080444336e+00
-4.964882990500699145e-02,-6.417404270849557113e-01,6.574329911330679677e-01,-1.467268025221690709e-04,-2.647955987714796164e-02,-1.499025329897953236e-02,1.127817392349243164e+00
-3.419060090885004191e-03,-6.586622765146846747e-01,6.232096835999746398e-01,3.967257704189006140e-02,-2.587573256907458111e-02,4.409206183634391263e-03,1.113278985023498535e+00
-5.341498816893772150e-02,-5.994521308722100539e-01,5.638383998703085931e-01,-5.981884285846722840e-03,-8.655712934834432605e-04,1.340949894123713571e-03,1.008125305175781250e+00
-4.596856178547859689e-02,-6.240766922545708528e-01,6.284914954238985940e-01,4.238699679559343111e-03,-1.738980652576029712e-02,-4.594078365972342412e-03,1.086296796798706055e+00
-2.177271177361607760e-02,-6.419873267377078641e-01,6.015467815339513580e-01,-1.962393690612818098e-02,-2.952168119595686632e-02,1.708072311598245185e-02,1.079087734222412109e+00
-3.034018979889319123e-02,-6.250202084678345704e-01,5.935165456480746560e-01,5.519015081078090150e-04,3.434835870954914758e-03,4.876296255074856652e-03,1.055435657501220703e+00
-4.485304529447319000e-02,-5.924216031578298791e-01,5.387137709179288247e-01,-9.008458869915744044e-03,-1.399059213528209785e-04,-4.356407020940349789e-03,9.799106121063232422e-01
-4.555720842116731811e-02,-5.987600409399693735e-01,5.463353853239529823e-01,-1.323387748233440832e-02,-2.470621776723485978e-03,1.849524996898710893e-03,9.921495914459228516e-01
-4.265388779557850729e-02,-5.883435488654579215e-01,5.227650759119037982e-01,-5.041129691731401422e-03,-5.220974828727495236e-03,1.268691997401165958e-03,9.623834490776062012e-01
-3.742077789624194406e-02,-6.164601077010707364e-01,5.899010385111495003e-01,-1.480313921312809058e-03,-2.276224667740244477e-03,6.338431813767372337e-03,1.045086503028869629e+00
-3.212073813388757748e-02,-5.904979473675432411e-01,6.042097961465517919e-01,-1.130904263327286042e-03,-5.762427988154920390e-03,-5.046973904005661732e-03,1.035467982292175293e+00
-5.008381281586588019e-02,-6.070710411710394938e-01,5.697176714396323671e-01,6.640728736249290956e-03,-1.774056367926956160e-02,8.974410303052841875e-03,1.020258903503417969e+00
-2.960857825975898167e-02,-6.257484202093542835e-01,5.930782276241095552e-01,1.237881655164447744e-02,-5.467898407915832738e-03,1.559425232611819090e-02,1.056223869323730469e+00
-3.875425478636609911e-02,-6.049979584726247195e-01,5.789457318640891526e-01,-2.961116066916264121e-05,3.871359827142671194e-03,-2.508536884147794920e-03,1.025679230690002441e+00
3.573075895188999873e-02,-5.978345491836114522e-01,6.041536701542287169e-01,2.062285484858421628e-02,-7.062021811853875716e-03,-8.342130850113708279e-03,1.042246103286743164e+00
-5.162495181828963275e-02,-6.050420097419099141e-01,5.692450212219563044e-01,3.074945873507895725e-03,-2.349850311687139322e-03,5.831268092154672476e-03,1.017593741416931152e+00
-5.174484745374798023e-02,-6.106517325127760465e-01,5.759774295668879107e-01,1.081155097094797790e-03,3.596295565760285196e-03,2.729539560703033167e-04,1.028247594833374023e+00
-3.791983808357947405e-02,-6.104558990244646210e-01,5.727794985456519106e-01,7.968307118195232241e-03,8.399276376521495847e-04,3.146314468852952654e-04,1.024983644485473633e+00
3.200956262444056011e-02,-6.608208379258141418e-01,4.008841032906589885e-01,2.215067932152914656e-02,-3.377736732522642477e-02,7.692978617936585550e-02,9.456739425659179688e-01
2.073187457399489064e-02,-6.118970406653053695e-01,4.156723291098171069e-01,3.856764233308713433e-03,6.370857658751562583e-03,4.473185814498854829e-02,9.012309908866882324e-01
9.410146211188979981e-02,-5.629002408553885894e-01,7.408873313601280208e-02,-1.571133184964334378e-02,-7.217758789829585575e-02,1.418288221889498456e-02,6.602091789245605469e-01
-3.720062942807644824e-02,-4.809200872632705126e-01,4.310361447973517501e-01,-1.582592733580699407e-01,-9.099553187693917855e-02,-3.556916190053371896e-02,8.530371785163879395e-01
1.347173317602420178e-02,-6.006626714931853073e-01,4.679844628647016336e-01,-3.683489671226872209e-02,-2.372515693518790006e-02,-7.187238238550319736e-02,9.402822852134704590e-01
-2.375900611474284635e-02,-6.182811120776285918e-01,6.213754199627379293e-01,-1.118028395011248614e-03,-3.843998521567948065e-03,-1.434799535582655973e-03,1.073897480964660645e+00
4.357072745876125475e-02,-5.739497765903027737e-01,3.346679570934398273e-01,4.293285694732689763e-03,1.289619820585026673e-03,8.599250258016761725e-03,8.038095831871032715e-01
4.411267802753346401e-03,-6.145751307842410860e-01,4.903460677711043436e-01,1.040503883069970881e-02,1.967010748234526013e-02,6.955112228969976933e-03,9.600492119789123535e-01
-1.359365520145306913e-02,-6.029852131735528031e-01,5.624220431870885495e-01,-1.868552088404943495e-02,3.206723534861562891e-02,2.987599321328085738e-03,1.011352777481079102e+00
6.484620635227172913e-03,-6.303811523424852625e-01,4.688198288655123225e-01,-7.034822851244391939e-02,1.296731745777788269e-01,-1.878475469812140863e-02,9.900242090225219727e-01
-4.602564926477328150e-02,-6.217235643199847672e-01,6.003407984312841839e-01,8.903077480052632104e-04,3.568223744802014041e-02,-1.494179128986966284e-03,1.060734748840332031e+00
-6.293920134541006184e-02,-5.793978144540853359e-01,6.230339970892542212e-01,5.568452033823082133e-03,-9.964687230321461406e-03,7.414364935737709217e-03,1.045046091079711914e+00
-3.860077333494207896e-03,-5.932541919640960115e-01,4.571900956006135219e-01,1.805978391504953207e-03,4.647287819930630282e-03,2.773788783750926260e-03,9.120255708694458008e-01
-1.258650833328883722e-02,-6.163165363271811970e-01,6.246851125919036241e-01,-5.596700946993849249e-03,7.302669826306779424e-03,6.698697336055541886e-03,1.075050592422485352e+00
4.515904026029595418e-03,-6.055909468917958227e-01,5.950868227922330167e-01,1.443195185234076540e-03,7.048124718616639514e-03,-2.062285519219638277e-03,1.039944171905517578e+00
4.691551491198840684e-03,-5.844292924933409683e-01,5.954170676513569349e-01,-1.370668262919432293e-02,1.234598992425021231e-03,2.606494936489426803e-03,1.022065162658691406e+00
8.662198299715439392e-03,-5.906107356835641475e-01,5.914615367291826686e-01,-7.120677403439011101e-03,8.186715315608253732e-03,3.967922825033624347e-03,1.023933291435241699e+00
-8.108171234643368058e-03,-5.454409938336969299e-01,5.884455873348347632e-01,-1.783422652006842399e-02,1.542523051378718972e-02,7.373781268421026117e-03,9.833524227142333984e-01
8.158452650477690526e-02,-5.712629301788714198e-01,2.449080208853012808e-01,4.132609021124281773e-03,-2.057972842827429302e-03,3.986250137850497720e-03,7.480784058570861816e-01
4.316282364467946553e-02,-6.052812370794045105e-01,4.393256699718948166e-01,-2.141490659178824432e-02,9.929134192109410895e-02,-2.128795672242487363e-02,9.309273958206176758e-01
-2.414328715827939592e-02,-5.407205945433630756e-01,3.925507827516665493e-01,-9.982469407506078252e-02,-1.140188372609829762e-02,-1.643576222139914167e-01,8.758230209350585938e-01
3.087265825203046321e-02,-6.052066118026601105e-01,4.073474607904791212e-01,-6.864840958564942357e-03,1.679562174195845361e-04,1.256295449844130677e-02,8.867992162704467773e-01
-1.812691144562567167e-03,-6.019470638800802353e-01,6.047733453300064843e-01,-5.322756214943304143e-04,-5.384135529120469624e-03,-2.686954758478241664e-03,1.045107841491699219e+00
8.438488385600359867e-04,-5.942523780189232774e-01,6.028728403739389563e-01,-6.118787903978324151e-04,-7.699380815628545198e-03,-3.989263609286293998e-03,1.036855936050415039e+00
9.254781193465667216e-03,-5.622853795395400534e-01,5.869815735592356365e-01,7.041590117901415542e-03,-1.434425649700364624e-02,-7.497882400871418510e-03,9.957686066627502441e-01
1.955266026000711255e-02,-5.712062773266343152e-01,5.842322445593076674e-01,-1.993006012609241796e-04,-8.579791842178347699e-03,-4.755937236034913848e-03,1.000868320465087891e+00
1.094800066139240725e-03,-5.794880448763733982e-01,5.951061218072047909e-01,5.621341612837684430e-03,-4.411401293860437302e-04,8.236819097733753857e-04,1.017298460006713867e+00
-4.626453482323913957e-02,-4.641359826128703125e-01,5.759618412558966671e-01,1.285518125732834291e-02,1.262577099361413165e-02,-3.679630749655667110e-03,9.070873260498046875e-01
3.027248134437958427e-02,-6.176349385501949119e-01,4.524885871664354742e-01,1.126251557514421249e-02,-6.624646675406944442e-03,-1.144415851968360286e-02,9.340837597846984863e-01
6.818019840824748878e-02,-5.857128434648856130e-01,2.939822720234350761e-01,6.471386729313430806e-03,-2.977581413912619868e-03,-4.246581956136597120e-03,7.914666533470153809e-01
-2.652078893971164877e-02,-5.813025990888149863e-01,4.751353484157698759e-01,-9.306004970862149020e-03,-6.342163181942063466e-03,4.952532147351251801e-03,9.155356287956237793e-01
-3.318650467497163969e-02,-5.941419575061046565e-01,6.077462017178906217e-01,-6.554445169719737285e-03,1.204127756457001007e-02,6.496395986450880476e-03,1.041964888572692871e+00
-5.425253417394257371e-02,-5.888285281734509935e-01,5.333652288779847650e-01,-2.950815318778110107e-03,-1.247654983132916347e-02,1.803590292887874316e-04,9.724637269973754883e-01
-9.342077777223306567e-02,-3.303903445651095172e-01,5.698490616517890572e-01,2.584550838962671598e-03,1.706259778078290240e-02,4.004408729397540556e-02,8.117636442184448242e-01
-4.639093493002956203e-02,-4.552709785470588355e-01,5.787202325362301725e-01,8.797061084092278396e-03,8.749587851051978532e-03,3.112746866066253351e-02,9.038312435150146484e-01
-2.981314175207784231e-02,-5.649566579659816012e-01,5.939897261456512645e-01,-1.589244082657755366e-02,1.513836057670496678e-02,-1.829551891282494864e-03,1.005379438400268555e+00
-5.654020222035173460e-02,-3.838962738797443985e-01,5.662279214149836815e-01,3.671939165130042038e-02,1.285931742454061825e-02,-7.886800047618333989e-03,8.388066887855529785e-01
-1.486425752291565053e-02,-5.265073453757581623e-01,5.766994400574939617e-01,1.163492742206149099e-03,1.741029447872697450e-02,-4.628700685711484471e-03,9.567515254020690918e-01
6.652021564916967521e-03,-6.052586267838988565e-01,6.054699609068023847e-01,-1.613203169200180809e-02,6.433476138739655653e-03,8.664949276511748309e-04,1.048974633216857910e+00
-8.887648405763648105e-03,-6.144108340655436429e-01,5.834663889756980248e-01,-4.869596689447766580e-03,-1.897835090569887587e-03,-4.722924309870521475e-03,1.037484765052795410e+00
-1.836193964769799319e-02,-6.147925910734278743e-01,5.900892319130166541e-01,-8.087346430579964510e-03,1.703085350036144616e-03,-9.582551968252864955e-03,1.043705701828002930e+00
-6.006499959833207225e-02,-5.893601396026284522e-01,5.488361077975266733e-01,-2.760554241805647686e-03,-4.101688720715382375e-03,3.548656273240007411e-04,9.865475296974182129e-01
-3.002365563964329298e-02,-6.104932681554756657e-01,5.830595350528688936e-01,1.764425016631926760e-03,2.086957778946795482e-03,-1.128157329072260705e-02,1.033971190452575684e+00
9.553171209986585644e-02,-5.728722007085305101e-01,1.056237391078976573e-01,-3.919393518675035396e-03,-6.541623961340445326e-02,-3.415815022191885262e-04,6.830047369003295898e-01
-2.996250379196263233e-02,-6.110955585960980985e-01,6.056120111713604315e-01,1.080307624181577920e-03,1.304394115990509251e-02,-1.297712516368940833e-02,1.054534554481506348e+00
-2.158485065775019029e-02,-6.106883110175412854e-01,6.001078321102635282e-01,-4.318039938062106370e-03,9.828717092060176158e-03,-6.420247772424495479e-03,1.048930644989013672e+00
-5.729874565653746143e-02,-5.897826306405477004e-01,5.460218977026639608e-01,2.692952655223713153e-03,-3.603032121941828533e-03,2.443186116367029154e-04,9.843039512634277344e-01
-9.913992565101015838e-04,-6.011973193921072989e-01,5.970195073032888988e-01,-2.616657214949517224e-02,-9.819046954552436771e-03,6.210940371989851980e-04,1.038815855979919434e+00
-1.533195727925728072e-02,-6.061045502615044489e-01,5.973810031354302996e-01,-1.176806966375556519e-02,1.251953168745076686e-02,-1.045194373138638548e-02,1.042888760566711426e+00
-9.896409229193541858e-04,-6.013923969037986428e-01,6.082307740514429906e-01,-1.608112725582318617e-02,4.862409107777716268e-03,-1.105354771321626246e-02,1.048152565956115723e+00
-4.855310589759768980e-02,-5.882211185024559530e-01,5.240645825652099354e-01,-7.945438964418828631e-03,-4.879216968878369483e-03,1.256950920659667594e-03,9.635463356971740723e-01
-4.626038930840135899e-02,-5.947965881072730943e-01,5.472870663972353444e-01,-3.718828903692886993e-03,-7.064654264260142487e-03,-4.836751608588767300e-03,9.894616007804870605e-01
-3.281825719902346783e-02,-6.108765726798431883e-01,5.969463070250402570e-01,-5.537657595396871212e-03,2.531668656747913804e-03,-1.963084597677920966e-03,1.046383380889892578e+00
-3.582754640026739740e-02,-6.264572213834738168e-01,6.093690958817442604e-01,-1.756692180340319737e-02,-1.649517604254929770e-02,-3.481475201404004433e-02,1.073113560676574707e+00
-1.214774768360791027e-02,-5.583365151738816090e-01,5.891250303547335143e-01,-3.079348756540052287e-02,-4.256610191002200248e-04,6.307647769327008602e-02,1.001519203186035156e+00
-2.398926281183670975e-02,-6.155609006073843315e-01,6.217885200223985942e-01,-2.218187284474112172e-03,-5.116065985996102843e-03,5.040990322931942005e-04,1.071962594985961914e+00
-1.031593589722722831e-02,-5.881251994666758520e-01,5.967930385348790834e-01,-2.288757294072647514e-03,-7.693916882667233004e-03,1.135613715879745401e-03,1.026369929313659668e+00
4.033930868912771403e-03,-5.927374472983079068e-01,5.933322504066983472e-01,-2.661194130117496611e-03,-7.065804469872130969e-03,2.753904447974045173e-03,1.027267575263977051e+00
-5.303494153354908376e-03,-6.080009531996316552e-01,6.060081501001571835e-01,3.391906949831476580e-03,2.443396032479979666e-03,-3.385345571639841906e-03,1.051412820816040039e+00
-8.815967735968471136e-03,-5.933731680976955802e-01,5.981297642620609922e-01,-1.609694272206163698e-03,-7.634076705521242179e-03,-2.622300684275070785e-03,1.032030940055847168e+00
-4.956248139075589143e-02,-5.955144959871291332e-01,5.453046258742726415e-01,7.116358334215250672e-03,-1.631223922961581169e-02,-1.626017515393249997e-03,9.887656569480895996e-01
8.313305286469622329e-03,-5.366170725123264873e-01,5.749651463331546530e-01,1.475700031379781948e-03,-1.595561682587284813e-02,3.624955894275766304e-04,9.631198644638061523e-01
-1.206942788193852700e-01,-4.288336793449902817e-01,9.859849022924229711e-01,2.161688141646143091e-01,2.606225454094603100e-02,-4.040642218946238762e-02,1.344552993774414062e+00
-5.019609219330299632e-02,-6.078297573475111015e-01,5.737368409558264437e-01,7.776849297658365578e-03,-1.523967042258752257e-02,1.076700561806503975e-02,1.024402022361755371e+00
-8.405092801384718426e-03,-5.642296576379470796e-01,5.972881669014474815e-01,-1.840350217946221112e-03,-2.069817602967925427e-02,1.575707428615095431e-03,1.006860136985778809e+00
3.466624687331026217e-02,-5.603299316758729720e-01,5.698186795104207558e-01,7.534147669933644736e-03,-1.848918455675565274e-04,7.145465294457897668e-05,9.792817234992980957e-01
1.870918007506019304e-02,-5.362133093919649873e-01,5.734052049393726369e-01,4.118547230718403764e-03,-9.426610501463069183e-03,5.488961199541847122e-04,9.611234664916992188e-01
-6.691035006045675804e-02,-6.078070853080038694e-01,5.851552508531940866e-01,2.715149088820009542e-03,-2.842862191964539917e-02,1.251719645909243547e-02,1.036038517951965332e+00
5.026457479987289645e-02,-5.767736589771985667e-01,3.195642177181012289e-01,-1.147858532077754463e-02,-5.718535042836691944e-03,8.235220882486049207e-03,7.970302700996398926e-01
-5.652099172345130540e-02,-6.067527317610861282e-01,5.746876854913884891e-01,-6.676039854907467110e-06,-9.349196553494377657e-03,9.719119670940230479e-03,1.024224638938903809e+00
-1.451013766204135164e-02,-6.030652724594478542e-01,5.037234703596302765e-01,-1.185450377296811547e-02,1.450779827417051021e-03,-2.296683254279449811e-03,9.593831300735473633e-01
-5.218686967449509551e-02,-6.033426657742889665e-01,5.738093396284186243e-01,5.944832558271356815e-03,-1.272226668457899536e-02,7.927904674444109442e-03,1.020512342453002930e+00
7.609131982472844280e-02,-5.690469692002120272e-01,2.420357376242829872e-01,-3.165990627253134019e-03,-8.258706418566479426e-03,-8.228061908747096725e-03,7.424526214599609375e-01
6.842706240595911038e-02,-6.741440039959714081e-01,1.907968380994635726e-01,-4.393634998337173081e-02,7.502898804757998641e-02,-6.613087831304717557e-02,8.324983716011047363e-01
-8.175302070712221411e-03,-6.027471343241205259e-01,6.097556507845325324e-01,2.280150809367396340e-03,-1.429075865593654876e-02,-5.594481439793830800e-03,1.050467014312744141e+00
-8.310042524402101727e-03,-6.198019492387465412e-01,5.271090742382406047e-01,-1.208471911883659232e-02,5.738483362204470362e-03,-1.321158324079477892e-02,9.945154786109924316e-01
-5.663094484612378465e-03,-5.873425492458056452e-01,4.418765788646947801e-01,-7.922056475101671782e-03,4.632572342784688386e-03,-1.512970533744655011e-03,8.939949274063110352e-01
3.556946204878953278e-03,-6.018723364786381369e-01,6.035638384164643266e-01,5.388682866794867327e-03,-9.615185966607138132e-03,-2.633660467082950350e-03,1.044126391410827637e+00
-1.702747094108868903e-02,-6.023209865963509158e-01,6.146508686038466562e-01,1.591675293264839574e-03,-2.794893996785749544e-03,3.981915996790362966e-04,1.054198622703552246e+00
-1.916671503723947276e-02,-6.023557410351557673e-01,6.151333810907350097e-01,-6.521344570281956306e-04,-6.050907872843899922e-03,4.372398415625456357e-04,1.054739117622375488e+00
5.363848543198937446e-02,-5.781206129922398240e-01,3.119927564898750116e-01,-7.103544181858633018e-03,4.358909835148495719e-03,-1.864413686758831104e-03,7.932862043380737305e-01
-9.543348900308014013e-03,-6.022472930390481149e-01,6.106068538985250926e-01,-2.601420446305327669e-04,3.937020989086489637e-04,-2.117601324248972062e-03,1.050458908081054688e+00
-2.296354580188674031e-03,-6.041545056330435148e-01,6.060105447592742944e-01,1.565927737232140297e-03,-1.017442489557332692e-02,-5.050870109709669140e-03,1.048226833343505859e+00
-4.638697980331275145e-02,-6.078760572323528288e-01,5.960704253940009023e-01,7.541357882715251639e-04,3.507104480857741596e-02,-3.534149694840458926e-03,1.045219302177429199e+00
-8.710210280033700569e-03,-6.119675198078792233e-01,5.202906461760636869e-01,-1.190561301122305266e-02,3.073429039113846975e-02,7.131436364317796095e-03,9.830037951469421387e-01
-4.668536622012357806e-02,-6.825525142003922019e-01,6.537124028547020016e-01,-1.195182923808603415e-02,6.181015251106465602e-02,-5.964484191692762290e-03,1.162858843803405762e+00
-2.180625446620546373e-02,-6.293464854706500855e-01,5.784404988491695931e-01,1.134330868772734022e-02,3.418532756588710253e-03,-1.070248876527908838e-03,1.046183466911315918e+00
3.381818079183827874e-02,-6.770082364084183402e-01,4.362056456929187531e-01,-3.879586148499569731e-02,1.336379283375680460e-01,-7.310081446537564087e-02,1.013578534126281738e+00
-2.103483990798200171e-02,-5.829289230023581014e-01,4.426649608726914154e-01,2.317956228401903650e-03,-6.958603502573744611e-03,2.102082637115871254e-03,8.896444439888000488e-01
-5.059207886079115923e-02,-4.166577074086919019e-01,5.282182226953472393e-01,-1.028416048523006776e-01,-9.586825936912313217e-02,-4.712093511358594194e-02,8.642166852951049805e-01
-6.180305015616033987e-02,-6.118463696853514433e-01,5.857865823568789709e-01,3.021952861495043764e-03,-1.859826344951394372e-02,7.035528243633333220e-03,1.038910984992980957e+00
2.153154765373253843e-02,-4.807972083262185281e-01,3.526654470161009747e-01,-1.531952942253157202e-01,1.841391157652815802e-01,-3.625654135897844743e-02,8.392815589904785156e-01
7.009071648530001974e-02,-7.055800754924178575e-01,2.610477569151666288e-01,-5.294272324266319912e-02,7.292912143558599736e-02,9.461624255177700227e-02,9.151344299316406250e-01
8.373155605374055233e-02,-6.226208621427802292e-01,2.469512450624873900e-01,-6.740434196738515071e-02,1.757139618842487871e-01,-1.143928776346537406e-03,8.643640279769897461e-01
-6.937932244383708535e-03,-5.617806978180496236e-01,5.925253264989972513e-01,-1.670058744753034063e-01,2.266113710677038762e-01,-3.869001415697785606e-02,1.114466786384582520e+00
-5.969457306779626937e-02,-5.895858497376995633e-01,5.465270271015714165e-01,1.602919454975567596e-03,-2.775578254854893599e-03,1.642659424704365732e-04,9.846582412719726562e-01
-6.338301424690090391e-02,-6.281042807415880835e-01,6.285781572267026274e-01,-7.878533234776195077e-03,-2.077757388714849759e-02,-5.571288524545533506e-03,1.090898752212524414e+00
1.512344395340051162e-03,-8.045629372336763341e-01,5.986754243474632364e-01,-1.210145232480845379e-01,9.660225103366591737e-02,1.884028867126961299e-02,1.249285340309143066e+00
-2.506247548212107989e-02,-6.111743390800883358e-01,5.898486281400724396e-01,1.543218872821200361e-03,-1.388271711551945569e-03,-3.457231235773535524e-03,1.040239572525024414e+00
-1.690406149547190456e-02,-6.014317470392790410e-01,5.417055983785815654e-01,2.809241246057199871e-03,-4.365705354214485540e-04,-1.149109658458755644e-02,9.902830719947814941e-01
-2.585794979175626979e-02,-6.102232877034757808e-01,5.991660125691110617e-01,-3.697040328463927026e-03,5.225522604151575795e-03,1.397374146727190132e-03,1.047620654106140137e+00
-2.683237065581489666e-02,-6.099004995915067173e-01,5.982343507384022541e-01,-3.107147468535670972e-03,7.805153626025168774e-03,1.695915210364744817e-03,1.046591520309448242e+00
-2.486703940465907064e-02,-6.110653290871269627e-01,5.903774059771770277e-01,-5.175727715829543836e-03,2.042727158820647430e-03,-4.289881128879704381e-03,1.040652394294738770e+00
-4.942302259587363911e-02,-5.857467217744689592e-01,5.238008052627056710e-01,1.943638178512820331e-03,-1.666365293577300221e-03,3.529496019802506445e-03,9.611031413078308105e-01
-2.948704118325179771e-02,-6.077460139484348600e-01,5.997196561431102912e-01,-2.861004704254212997e-03,2.216872151442053716e-03,-2.824920503413937568e-03,1.046036362648010254e+00
8.498020675600417850e-03,-6.079339928566644957e-01,4.313098988411186441e-01,-7.707434040321043366e-03,2.681190729747318785e-02,4.676407554950758050e-02,9.101036190986633301e-01
-6.254986471186428643e-02,-6.014549637447805797e-01,5.652308939400976229e-01,2.909124702100909440e-03,-1.306638900471126380e-02,5.284783891244032930e-03,1.011663436889648438e+00
-2.525462758044651548e-02,-6.349177842182961440e-01,6.025269953486921404e-01,1.870744022410200571e-03,1.015983871647694811e-03,3.421650078300974250e-04,1.071703433990478516e+00
-1.088735137886357451e-01,-2.179951671204868324e-01,5.457886049132794071e-01,2.603028686404039449e-02,-1.458741396764952217e-03,7.729626101975215456e-03,7.170398831367492676e-01
-2.392607607600125835e-02,-6.056674000449996376e-01,6.147079215672530683e-01,1.472215426699702723e-03,-7.526047496238278019e-03,-3.121167899652206677e-03,1.057355999946594238e+00
-9.844215278247134271e-02,-1.743020049734007038e-01,5.328664200113319982e-01,1.160839826388158219e-01,-1.352098690381338397e-02,-2.085784080002028862e-02,7.031900882720947266e-01
-6.496422566162732282e-02,-3.075009680746163543e-01,5.422820285190821377e-01,5.899369212164948251e-02,2.972830167117629374e-02,4.941925097056683314e-02,7.715377211570739746e-01
-1.275568051148637527e-01,-1.870527233119788635e-01,6.300797044679290471e-01,1.327663105628791931e-02,2.615849650514075544e-02,-2.252557266165457206e-02,7.916646599769592285e-01
-1.031379691386601904e-01,-2.689499348651304134e-01,5.542044392152134513e-01,3.872597898593340120e-03,-1.138698271583378843e-02,-3.070314948380476264e-02,7.562075853347778320e-01
-7.251607135737628274e-02,-2.870096869329625822e-01,5.508024471145029910e-01,3.150258916074216708e-02,1.675220846825978532e-03,8.788372483001835600e-03,7.559422850608825684e-01
-3.131388587130222445e-02,-6.062501770837652737e-01,5.865691817879140624e-01,-4.701107138051666828e-03,1.145681164261680820e-03,-7.974511905867724681e-03,1.033361315727233887e+00
-5.919656041538684521e-02,-3.114572111442851510e-01,5.979952316638142973e-01,9.006690734586043912e-02,2.354405074485741226e-02,1.307006920941824503e-02,8.293561935424804688e-01
-8.096268560991842778e-02,-3.023189907826985823e-01,5.555417342892987609e-01,3.678989441290620582e-02,-1.061609822057416920e-02,-3.010095941552905566e-02,7.759816646575927734e-01
-8.660850020999077969e-02,-5.187687240902951746e-01,1.036468587704248101e+00,1.284565835186432248e-01,3.316451171023847289e-02,-2.076037789762505692e-01,1.454480886459350586e+00
-1.883318391303675371e-02,-6.447732940973313065e-01,7.215829031864025023e-01,1.344278799261899582e-01,-3.392074089025092637e-02,1.392548817726619106e-02,1.209015846252441406e+00
-9.115624875101372565e-03,-7.385068513467544227e-01,7.982088130115554403e-01,8.282407497838921440e-02,-2.678048282038112890e-02,-1.606977248394319754e-02,1.340203523635864258e+00
-3.464049271479868394e-03,-6.857062648282552519e-01,7.072006735281106682e-01,9.612761670142179471e-02,-5.391521344421826289e-02,3.086769403646183116e-02,1.222556710243225098e+00
-1.584520959244264601e-02,-6.018556556459599971e-01,5.112686411505341644e-01,-1.313898113024746482e-02,2.676519104663984544e-03,-8.287082917301128587e-03,9.648299813270568848e-01
-4.324702439870102555e-02,-6.089338306399186829e-01,5.739900506481117048e-01,-5.036409045476399060e-03,5.138715070739374724e-03,-4.762789787773288354e-03,1.024875283241271973e+00
8.023014413899508604e-03,-5.942943680008170304e-01,6.146720746679426028e-01,5.341996100373287704e-02,-2.617277198015400749e-02,-4.805434198652749206e-02,1.055342793464660645e+00
-3.731593140343119480e-02,-6.047578870609082724e-01,5.578488256472781126e-01,-1.054608156166631470e-02,2.341981469756748181e-03,-3.012392109258384913e-03,1.007129669189453125e+00
-7.092550353064719371e-05,-5.804637365267500959e-01,7.234730514657073952e-01,8.773160735037489888e-02,-2.194288864750772172e-02,-7.587054327778887559e-03,1.142374277114868164e+00
-1.253227751746672017e-02,-6.032096225898332387e-01,5.107769657048457645e-01,-1.218167789278992545e-02,1.968264610277927970e-03,-8.002452662395903929e-03,9.656646251678466797e-01
-2.109769326283374852e-02,-6.180272105899300428e-01,5.488545246302978242e-01,-5.404352245111205925e-03,6.085488093935161047e-02,9.097755139351499862e-03,1.016286134719848633e+00
-3.940504052587544964e-02,-6.250204266932180008e-01,6.314983073061350982e-01,1.961427558416800176e-03,7.277645556841763619e-02,9.989238491430661032e-03,1.096425175666809082e+00
-4.326862491785800346e-02,-5.967404298169232124e-01,5.468850123089935567e-01,-3.925353858606560331e-03,1.467416070883887508e-02,4.442837424034729032e-03,9.909577369689941406e-01
-5.035214688251306303e-03,-5.850152839804635407e-01,4.294776267529211156e-01,-6.437430045545958560e-03,-3.335709630788589314e-02,6.208572610613120706e-03,8.836091756820678711e-01
-8.392874521216696360e-02,-4.547359340138803496e-01,5.987537831698707125e-01,4.743187726478550331e-03,-1.436383617265651370e-02,1.874599638269834265e-02,9.265190958976745605e-01
-3.818966224208250604e-02,-6.041472957317078896e-01,5.586432792281096349e-01,-8.711436680909265956e-03,1.438458756218218178e-02,1.109755531979082430e-02,1.007728934288024902e+00
-4.014243473765120862e-02,-6.140885530188345820e-01,5.957125609750038020e-01,-5.358681138641618706e-03,2.734987584477022865e-02,1.641372678878525544e-03,1.049290418624877930e+00
-3.817517512416324088e-02,-4.861320087954486557e-01,5.213145760458247624e-01,-4.699137661842570091e-02,4.190572655961543810e-03,-9.241334663816176687e-02,8.925353288650512695e-01
-5.513685305583947843e-02,-6.024852833305409661e-01,5.747984531795592433e-01,8.489716962909756286e-05,6.365117304862294260e-03,-1.224414860618855102e-03,1.020455241203308105e+00
-4.598128763905822564e-02,-5.957018973107874871e-01,6.328816018836309620e-01,-2.533722831957615617e-03,5.862526500790585932e-03,-5.986242216463250228e-03,1.066049933433532715e+00
-5.824494868808892389e-02,-4.457007570994530599e-01,5.859131885249090343e-01,1.520963963081107227e-03,-1.682178827741749594e-02,-1.729434097519447211e-02,9.035472869873046875e-01
-2.747958517694619809e-02,-6.220914658874439063e-01,5.872185320005735010e-01,-1.273781430404078135e-03,5.995568276419262210e-03,1.221833603117740072e-02,1.047608971595764160e+00
-4.554363284801923178e-02,-5.074783433161454971e-01,5.956053689573445054e-01,-2.687661652577778316e-03,4.555179230765863362e-03,-2.994796622221237645e-02,9.609366655349731445e-01
-5.254133708993301288e-02,-6.497406264182367108e-01,6.499357280469580944e-01,-6.702011180013118900e-03,-5.109802069864947255e-02,2.451343574289463478e-02,1.131110191345214844e+00
-3.235858377585411338e-02,-6.166237553560152129e-01,6.131352118906056026e-01,-2.569653377794768861e-03,2.293995509359046323e-03,5.478270236990119731e-03,1.065501332283020020e+00
-1.389529320047645441e-02,-6.171006539140074798e-01,5.354423720954823995e-01,-1.451208639240715928e-02,-5.631055909876367220e-03,-1.452853738343232864e-02,9.991757273674011230e-01
-5.811760208739878697e-02,-5.027798346116688633e-01,5.939570545668553248e-01,3.430461931006234988e-04,-3.486942641098239853e-03,-2.747356993200955264e-02,9.566504359245300293e-01
-2.534690924643177162e-02,-6.220846004505989901e-01,6.073333773304449013e-01,-3.717298155635027392e-03,9.243538426466990990e-03,1.084712328930461343e-02,1.065164327621459961e+00
5.819693839803241620e-03,-6.066030055576679958e-01,4.313696318509888106e-01,1.107284063677979775e-02,2.553266973357525872e-03,-5.542572857575028822e-02,9.090512394905090332e-01
8.471666359886470543e-02,-6.045342838931738738e-01,1.857099533614210429e-01,-8.356186444260406063e-03,-5.550995953084087581e-02,-4.530001973244578151e-02,7.553052902221679688e-01
-3.100567634417611060e-02,-6.198770056891931279e-01,5.773675548303753846e-01,4.746163532270846613e-03,-3.202150109532627287e-03,3.613675688597705986e-03,1.036956310272216797e+00
-6.407584150451922644e-03,-6.195292570318284842e-01,5.170532773427117812e-01,1.152131330198014406e-02,-2.600700740677057399e-04,-3.353789672478199677e-03,9.855489730834960938e-01
-2.995498405059717623e-02,-6.263984793657023653e-01,6.060299180025998655e-01,-6.581303525650417660e-04,3.195456781535249008e-03,-5.044010977636083880e-03,1.067548155784606934e+00
-5.810441856034506691e-03,-5.543835992875192353e-01,4.159108795082137600e-01,3.179570245437611520e-02,-6.180042431903750438e-02,1.413444239229077679e-02,8.515964150428771973e-01
-2.399173571223023674e-02,-6.242168716829792352e-01,5.936186139690065033e-01,3.636911684267847729e-03,5.321072752054695904e-03,2.504809542800811445e-03,1.054780244827270508e+00
-9.485867179503240654e-03,-4.870653600005605544e-01,5.656487030357671975e-01,2.355158979914353211e-03,2.112691919480065919e-02,2.036339808710135868e-02,9.144036769866943359e-01
-2.416648231609747066e-02,-6.153354298630824282e-01,5.975731667705989070e-01,-3.136719309036870365e-03,1.023844144594690487e-03,-1.779919503982977129e-03,1.050540924072265625e+00
6.076573517985128792e-02,-6.921387594396904985e-01,3.780753054082277576e-01,-8.711484687587086467e-03,-2.490251160225506050e-02,2.969986149733137154e-02,9.545620083808898926e-01
-5.520845740919791411e-02,-5.448501252169072329e-01,6.059055977178984254e-01,6.699183956503499716e-03,1.653242446412219249e-02,1.167736824967446907e-02,1.000946283340454102e+00
-4.949091235684862505e-02,-5.984447568908709547e-01,5.559590837037162725e-01,5.679702733952293921e-03,2.451862578084048803e-04,-6.892617402441604969e-05,1.000190496444702148e+00
6.197346275171491947e-02,-5.858983015012410034e-01,2.951634263550453885e-01,-8.856594707728673160e-03,-3.676469744762301400e-02,9.916316466198825744e-03,7.935854196548461914e-01
-1.452604808289632843e-02,-6.264427685372717658e-01,5.593056219714307442e-01,6.235075846634140695e-04,5.863602135547935079e-02,-1.040835408445826837e-02,1.032231926918029785e+00
-9.544719758481479133e-03,-6.503539450905959640e-01,4.881749235883678928e-01,-2.698030471066462880e-03,-1.306510470430706783e-01,6.704590030681476908e-05,1.014167428016662598e+00
-4.177910562232330788e-02,-5.960812247179414491e-01,5.444555011992477933e-01,1.198839481618588741e-02,-3.366478087950252555e-03,1.494843360997695318e-03,9.881016016006469727e-01
-3.061875814689859684e-02,-6.122536989379910866e-01,5.449502513402638693e-01,1.313195889226382966e-02,1.497562323419590179e-03,-6.651199627834267539e-05,1.002434015274047852e+00
-2.250725762311701905e-04,-5.427820334764424937e-01,5.814058859914862376e-01,1.559773623204626855e-02,1.282059476282200634e-02,4.126027786332837378e-03,9.744252562522888184e-01
-1.458903243201614686e-02,-6.039546016878790669e-01,4.695586696079795397e-01,2.076399715863787299e-02,-4.588768196230190444e-02,2.031010731688727422e-02,9.359160065650939941e-01
-3.112070039508616284e-02,-6.171142546142035501e-01,6.156277290994849327e-01,-3.988501600836163140e-03,-1.337492656326894980e-03,-2.232337887724476430e-03,1.068049788475036621e+00
8.023371019683950278e-02,-8.305441831187518886e-01,3.720200571518954558e-01,1.346794592646763933e-01,2.441317900674715713e-01,-8.658398462931718442e-03,1.189054131507873535e+00
-1.185174757515156108e-01,-3.704960432060997455e-01,9.691170623308560383e-01,2.028205733093580987e-01,2.060892203458132219e-02,-1.166803718985523902e-01,1.298471570014953613e+00
-3.653825063566540354e-02,-6.045967681740505029e-01,5.538617277883369772e-01,-1.296143838218018728e-02,4.575347362204892215e-02,2.728114091221403928e-02,1.007800221443176270e+00
5.533089382576295012e-03,-6.512004618435480729e-01,4.642603389879365050e-01,-2.805190387685261655e-04,1.627256540774359994e-01,3.748192579157549192e-03,1.011173844337463379e+00
-2.901784782456226508e-02,-6.132202602639661437e-01,6.003410683797167913e-01,1.879023915788721830e-04,3.433660353165556098e-03,-2.445252007670191494e-03,1.051242828369140625e+00
3.678388668273510631e-02,-6.540119388076270912e-01,4.240342143873351843e-01,-9.546923611164137222e-03,2.067125477516047749e-01,-3.310588742882340091e-02,1.013126015663146973e+00
1.883239270072229951e-02,-5.417902590659554596e-01,5.812563013017822966e-01,2.688508522031069978e-02,-1.164702110909321582e-02,-1.737140287023353907e-02,9.743750095367431641e-01
-1.221823713219939711e-02,-6.274248284348364901e-01,5.902797432439402803e-01,9.305008980972856794e-03,-9.756638129967803649e-03,-4.092572985349990367e-02,1.057219862937927246e+00
-9.092492135060162295e-02,-3.381632394507471662e-01,6.758691065854840474e-01,2.117661649884695352e-01,3.277646428826785224e-02,-5.892393631229776718e-02,9.934054613113403320e-01
-8.605874182182832177e-02,-3.289392681374140870e-01,6.012958382953110803e-01,2.391191328662501114e-01,-7.386873548153954916e-02,2.064419020476028835e-02,9.421117305755615234e-01
-8.233707140150613168e-03,-5.430066183377784128e-01,6.127051968387671188e-01,6.969835583002668977e-02,-2.281283653442669687e-02,6.167032212704847902e-03,1.009879946708679199e+00
-1.119250373185233169e-02,-7.600327881335747771e-01,7.395915085982734949e-01,1.035052650442929434e-01,2.256193769526149695e-01,-7.455323933601933073e-02,1.374111533164978027e+00
-2.757458692529337133e-02,-6.135708713054032204e-01,5.971782218402834630e-01,-5.994408158040883880e-03,-2.771972180442703899e-03,-4.195086438684882471e-03,1.048806071281433105e+00
-1.971239890676045742e-02,-6.128517288358790172e-01,5.428764005842934282e-01,-1.126610157413908408e-02,6.889595960298007873e-03,1.523783642706578144e-02,1.001615524291992188e+00
-1.950291739948605690e-03,-5.938140848900413937e-01,5.899372154940336621e-01,3.926932962619019384e-03,-1.593243786934078494e-03,6.126244737761994599e-04,1.025185465812683105e+00
-3.650714210654469605e-02,-6.161228785008480147e-01,5.996808462964458020e-01,-1.166459384548814912e-02,-2.058379675046080604e-04,-3.641603647455390284e-03,1.053509473800659180e+00
-5.366732554421313472e-03,-5.675804871616209057e-01,7.061816756871549527e-01,1.280861695671070832e-01,-1.360742368475738318e-02,-1.344725856652604322e-02,1.128159523010253906e+00
-1.393840028457778504e-02,-5.395467133377757074e-01,5.972136662547908870e-01,8.082904431888332519e-02,-4.458705310118884352e-02,-1.996589161381430444e-02,9.988781213760375977e-01
1.713598813647638705e-02,-6.147301840237219261e-01,6.303508876465784283e-01,6.456127724777042942e-02,-1.592743777473209013e-02,-4.326883561954340818e-03,1.084471702575683594e+00
3.152399706318118749e-03,-5.076763623397064773e-01,5.845757324559994750e-01,7.098763219464485075e-02,1.550000567228003619e-02,2.373268445773860438e-02,9.557902812957763672e-01
-2.121780763986460400e-02,-6.547477688250686878e-01,6.325554279780460920e-01,2.707661166214104728e-02,-5.099454886100121542e-02,-1.218939360614432720e-02,1.119558453559875488e+00
-2.126426151846223800e-02,-4.553177774774481157e-01,5.718899924074134500e-01,3.125633380338520978e-02,1.559592896798991241e-02,-6.155128613558684923e-03,8.952481746673583984e-01
-1.801479643995304580e-02,-5.977487352166079848e-01,5.747347827523678898e-01,-1.492354517664056489e-02,4.232252593438270982e-02,-4.128117454117525426e-02,1.020898938179016113e+00
4.146285174530736639e-04,-6.194594645392044185e-01,5.186685007070788167e-01,-1.040819768357372291e-02,-1.952145567809623504e-03,-1.242833475890496066e-02,9.873616099357604980e-01
1.251935502829766220e-02,-5.283752156765396668e-01,6.159147747322627486e-01,3.847109378737235269e-02,3.864759232880225358e-04,-1.276020885278427754e-02,9.939593672752380371e-01
-4.963828634459918621e-02,-3.972667678855779649e-01,4.839802927323824666e-01,-1.460389152006909275e-01,-8.287153600484134519e-02,6.211236398076071946e-02,8.290080428123474121e-01
-1.768644151063264447e-02,-6.278893048383655806e-01,5.689575661088199787e-01,-1.016454133174389237e-03,-2.633332699332724381e-04,-6.743224891567191522e-03,1.036634087562561035e+00
-2.147921646517271174e-02,-6.070829004985046629e-01,6.038758088401267043e-01,-9.909642170260028488e-04,-2.492123847907565942e-03,-4.608011249484637341e-03,1.048949956893920898e+00
-2.375700165313636078e-02,-6.267440657786041980e-01,6.068557661758990918e-01,2.186940033577662850e-03,8.387330160274396318e-03,4.666814983062504696e-03,1.068554162979125977e+00
-1.902671282182344034e-02,-6.117974529093749281e-01,6.042316177863253923e-01,5.381620027264607826e-04,-7.749441326011238980e-03,-1.878643259267229638e-04,1.053308367729187012e+00
-2.412434098640235669e-02,-6.129680945488743538e-01,6.033519991193021514e-01,-1.407380729631159974e-04,-4.280812301667436849e-03,2.867038903682480114e-03,1.053578972816467285e+00
-2.049043754055608277e-02,-6.127474617147942171e-01,6.040304251288873827e-01,-1.981917055316712722e-03,-1.008401380226844500e-03,8.789186192967817337e-04,1.053892135620117188e+00
-1.968746680146423247e-02,-5.987841067692072361e-01,6.021170732774526746e-01,-3.206973611254680234e-03,-7.727690052870482031e-03,3.685087021331904644e-03,1.040350675582885742e+00
-2.024807105628950721e-02,-6.169208715741915094e-01,6.046448288932976256e-01,-1.550338842774136132e-04,-9.690081859469535167e-04,-9.063914398457806635e-04,1.058003544807434082e+00
2.932606208181144647e-02,-5.750056826474329030e-01,3.357903596757078057e-01,2.382238579904080115e-03,-1.216010487919512092e-02,-2.505654516627022800e-03,8.030086159706115723e-01
-2.430147938277981215e-02,-6.314465431595935874e-01,6.029514389081535031e-01,2.557858809748592491e-03,4.018217702882055653e-03,3.351214167667660501e-03,1.069114923477172852e+00
-2.244700812290380265e-02,-6.285900314778468667e-01,5.885223818891688330e-01,6.269365368684820354e-03,-1.294450038432973975e-03,1.280894295529075473e-02,1.054344773292541504e+00
-1.690779244451115840e-02,-6.174032391713915047e-01,5.322208986291493416e-01,1.627696530315112314e-02,9.143324618370296791e-04,-2.768985013785290900e-03,9.963466525077819824e-01
-1.954872035377935510e-02,-6.116001254362041228e-01,5.988645598402234649e-01,-1.084283695667614348e-03,-1.460025731653136509e-03,6.038133035161317433e-04,1.048381328582763672e+00
-3.155147471346121668e-02,-6.198861035592824198e-01,5.768642315899580320e-01,4.859470159190083273e-03,-2.357619996532974230e-03,3.432583174943063843e-03,1.036524057388305664e+00
-2.003146860098475868e-02,-6.100353195701768705e-01,6.051970056083507687e-01,5.195957992014651099e-06,-4.593681303364166753e-03,-2.260632031569758359e-03,1.052606821060180664e+00
-8.400037773860567769e-02,-4.288050935820508780e-01,6.263105771752185413e-01,-6.232129722965665253e-02,-1.926678303967137643e-02,5.170496146177159906e-03,9.387205243110656738e-01
-1.857239137983926480e-03,-5.812799152034737737e-01,6.158359846944012617e-01,-5.945442099121616558e-02,4.204992576076124582e-03,1.073348378230827051e-02,1.042201638221740723e+00
-1.690587809154663057e-02,-6.043011952213599436e-01,5.892200011156915052e-01,-1.851375973299476761e-03,1.278172624739953508e-03,-3.742965375202517934e-03,1.033689737319946289e+00
-5.293926829954977153e-03,-6.132757228726992693e-01,4.647461781422133065e-01,1.931971204296453054e-02,-2.139969580396419366e-02,3.496906591313925228e-02,9.394240379333496094e-01
-2.759148162400007140e-02,-6.138467317635861731e-01,5.846604604149282514e-01,4.342486345279080936e-03,-2.385212532364757582e-03,5.348402030054424591e-03,1.038095831871032715e+00
-4.936323531686940408e-03,-5.698959831520287178e-01,6.125981220372495040e-01,-2.808752551670355702e-02,7.104901088015867436e-03,-5.720544334016336441e-03,1.025683522224426270e+00
-2.462825604527190890e-02,-5.957445648928147985e-01,5.692928671482836434e-01,-4.610720734381778402e-02,-4.784651104821118633e-02,1.192106344963744964e-02,1.015768647193908691e+00
-3.859890934853305033e-02,-6.313705365623555332e-01,5.977149442359331877e-01,-1.324855678986422251e-02,-7.233889151778319371e-02,3.616200444585374041e-02,1.074062705039978027e+00
-3.688747466952321807e-02,-6.275205184061299901e-01,5.911853685940486880e-01,7.143038953489347365e-03,6.230808731383288140e-03,-7.094938678619546694e-04,1.055724620819091797e+00
-4.099432582109341361e-02,-6.218265083311007579e-01,5.951400608151129479e-01,5.253128318836338545e-03,-3.361547504204929430e-03,1.205120310368427289e-02,1.054548621177673340e+00
-2.206455319631970072e-02,-6.169465686236794699e-01,6.227317322899321717e-01,-1.832098648953436664e-03,-3.344520032544425620e-03,7.316623068698439912e-04,1.073904037475585938e+00
-7.263695183010725198e-02,-5.107260623947095235e-01,6.702846543911116228e-01,-1.127197305672557326e-01,1.294762928405048669e-02,-2.684530437887295076e-02,1.053614020347595215e+00
-5.855101462726219896e-02,-4.014004074717966719e-01,6.573378530714995005e-01,-5.501858875108653346e-02,-7.179761976297664022e-03,-1.221496574293648302e-01,9.640964865684509277e-01
-7.638018157056558621e-02,-4.648989096970813639e-01,6.925792598181551574e-01,-1.753133248899169661e-01,-4.472700426034623145e-02,-8.876648610387802285e-02,1.078352808952331543e+00
-2.875583412408574263e-02,-6.169475475182502056e-01,6.212808757747241284e-01,-2.283061886951632657e-03,-5.981994719604814131e-03,-2.262705730006272717e-03,1.072847485542297363e+00
2.056821742881697473e-02,-5.727965454432039083e-01,5.855183655659577102e-01,3.839602420364767420e-03,-5.065634508575981090e-03,-3.537832761810406294e-03,1.003309845924377441e+00
-1.931241204310857329e-02,-6.136280502972404349e-01,6.174257177513444717e-01,-4.240690517536195190e-04,-6.515342301050060670e-04,-3.544420598642893669e-04,1.066335797309875488e+00
-2.372261988033199862e-02,-6.154620911450009446e-01,6.189068896885125959e-01,-2.049212197700190762e-03,-1.317562754615966055e-03,1.623706522476519665e-03,1.069309711456298828e+00
-1.926666242666740317e-02,-6.040096051186822912e-01,5.027760171750198515e-01,1.567960921264221694e-02,-3.255805639992891132e-02,1.389735008557033309e-02,9.613587856292724609e-01
-3.115200156145713287e-02,-6.140944258919298626e-01,5.403224079369443045e-01,1.295777366324414419e-02,-9.154410401270473424e-03,-1.953625812968320333e-03,1.000154018402099609e+00
-3.328184289730364703e-02,-6.182333153028889416e-01,5.650871138182935738e-01,7.695600469998539576e-03,-8.851142526359821391e-03,6.274502788052073628e-03,1.025066494941711426e+00
-3.530863951783587418e-02,-6.006957132101191643e-01,5.069548442333491334e-01,1.069280341213764765e-02,-3.692032807710685094e-02,1.350582489723476005e-02,9.619150161743164062e-01
-3.803557070790783423e-02,-6.191784269029252386e-01,5.916772914506739367e-01,8.716524765010266740e-03,-1.329300044366462513e-02,8.531173233163089065e-03,1.049378275871276855e+00
-2.612596318054960856e-02,-6.168399361379827139e-01,6.216461665826085170e-01,-1.526748885979199808e-03,-3.990646138101947883e-03,-1.347516174478934113e-03,1.072967886924743652e+00
-2.774451373397399806e-02,-6.119680839223347046e-01,6.219768549670157132e-01,-2.242777766995941637e-03,-3.160672148645287706e-03,-7.348982856804008815e-04,1.069151163101196289e+00
-4.402241501431006232e-02,-6.059927856549365277e-01,5.600485577633103063e-01,5.353304036983042198e-03,-9.045131643000822383e-03,7.788088103790881574e-03,1.010294914245605469e+00
-3.155378118027360457e-02,-6.043472140270610415e-01,5.059800883152341111e-01,1.290674617679710319e-02,-3.842829933625083183e-02,1.544511503554673454e-02,9.646639227867126465e-01
-2.872846659614843035e-02,-6.119834823830704318e-01,6.190833206957816470e-01,-2.292826181334861602e-03,-5.982895466754950889e-03,-8.517885675251934225e-04,1.066682338714599609e+00
-5.090684042183972469e-02,-6.036495180176594255e-01,5.590227940231446979e-01,9.343452602958390169e-03,-1.436743249405291085e-02,1.180724886865582718e-02,1.007954478263854980e+00
-1.084556028686154208e-02,-6.046692316751186569e-01,5.932411534428913003e-01,2.932938396360761871e-03,6.748995113518974423e-03,4.210193298163139239e-04,1.037512063980102539e+00
-1.990406172254153075e-02,-6.902027546713033201e-01,6.989819698321715347e-01,3.770729208989901521e-02,3.443462380260613881e-02,-2.406622912325890457e-02,1.207280516624450684e+00
-2.298072488313746345e-02,-6.160237760663687112e-01,5.552856409538049487e-01,-4.110212668567538377e-03,3.404825217523093500e-02,6.427088721842595317e-03,1.016209363937377930e+00
-2.520714732771834471e-02,-6.240233800129856290e-01,6.094915200904436059e-01,-8.172746024686979721e-03,-4.298880127627499430e-03,-2.580719576004798527e-03,1.068534970283508301e+00
-3.511237064986871131e-02,-5.898938988864442790e-01,6.187561976555129295e-01,-1.547360422610965548e-03,-1.016796880281860618e-02,4.291503332672487979e-03,1.048071265220642090e+00
-3.137452442238444772e-02,-3.398179317432599156e-01,5.026801393661715078e-01,1.566954628050971909e-01,8.914586702212513869e-02,-9.317792411337517955e-02,8.176949620246887207e-01
-4.329903929517801148e-02,-5.808352660580411442e-01,6.176289377880641585e-01,-2.241735281889206330e-03,4.008795419713153882e-03,8.981711369579346155e-03,1.039879322052001953e+00
-3.308975917969969593e-03,-5.461575798697928530e-01,6.531833700352308592e-01,6.464951588867148824e-02,3.567913678542097757e-03,-2.288308259704465927e-02,1.046991229057312012e+00
3.403362842454245307e-02,-5.799176686616994703e-01,3.764322613329685319e-01,9.414298967337898782e-02,1.725048014984292277e-01,8.528045528038619150e-02,9.176436066627502441e-01
-2.819462340397021344e-02,-6.233001802521940249e-01,5.892714402057528389e-01,8.736079032561558377e-04,1.861448540021916212e-03,1.363076935928521881e-02,1.050448775291442871e+00
-1.287112622137525503e-03,-5.798646197422185899e-01,5.375958068334595330e-01,1.267005148350044130e-01,1.175093386625075675e-01,-7.590913194658591157e-02,1.021666884422302246e+00
-8.674172737120362103e-03,-6.277110090910176243e-01,5.784366396520991271e-01,-3.497014539751452412e-03,-5.988083810728518988e-03,-7.271974810334873481e-03,1.044821381568908691e+00
-3.186376184708099302e-02,-6.254171298887820640e-01,6.136669519687162344e-01,7.373846163564188108e-04,-7.173296104635806759e-04,6.763226659893660389e-05,1.073394417762756348e+00
-2.260680040106353983e-02,-6.302825144189676543e-01,6.008286002431535433e-01,6.762638987480981603e-04,1.874423394434199773e-03,-3.678665831324697249e-03,1.066227197647094727e+00
1.656783790243565591e-02,-5.939895816304648912e-01,3.874674015085724510e-01,-1.321080839671069304e-02,-7.262034345089705967e-02,-3.829634521571411571e-02,8.703716993331909180e-01
-1.873392871155401748e-02,-6.148457983838315766e-01,5.918663684843521455e-01,-4.702101537690525114e-03,4.929645429802006346e-03,-3.013864910188773522e-03,1.045148134231567383e+00
-3.396773011958872934e-02,-6.104760925184169462e-01,5.883803023190067316e-01,-6.942917443099511782e-03,-3.361287374617183757e-03,-4.085142271647373806e-03,1.038603067398071289e+00
-2.149690808359461941e-03,-6.284318998433345849e-01,5.655133966984218219e-01,6.309468056603356918e-03,-4.506601703034590449e-03,-6.457162182622576581e-03,1.034549951553344727e+00
-1.415874091905893611e-02,-6.289682986082842930e-01,5.689258891792282613e-01,1.009859550547455818e-02,6.248952663477176303e-04,-2.761330803931880910e-03,1.037687063217163086e+00
-1.417989296214745842e-02,-6.063299996749279552e-01,5.960799997424718333e-01,7.001047976452794749e-04,1.168549640918894496e-02,-1.304427568738962106e-03,1.041556835174560547e+00
3.947386932035820695e-02,-6.167312579773466252e-01,3.799504221778375324e-01,1.482746954552862685e-02,-2.742728493002064699e-02,9.665231631438903070e-02,8.949263691902160645e-01
-2.361019582511981324e-02,-6.283463453347046812e-01,5.786675515320730545e-01,1.098166984795547613e-02,3.935534271902021812e-03,-1.351604189351572789e-03,1.045503258705139160e+00
-3.002471670527150430e-02,-6.048016453015774285e-01,5.751561348874839608e-01,-3.135330059294078736e-03,2.882978389804384208e-04,-6.203235041367709257e-03,1.022057533264160156e+00
-1.885721401934624397e-02,-6.290264363089521638e-01,5.700143309270021552e-01,7.774411518994975637e-03,2.007791354094564523e-03,-2.790363939023299353e-03,1.038558721542358398e+00
-2.422661477511535780e-02,-5.933737952958059170e-01,5.974348559918042367e-01,1.344828513334643625e-03,1.567258749807633883e-02,-7.963780518790604390e-03,1.032056689262390137e+00
-2.505596716966322982e-02,-6.294234246704597524e-01,6.031149132422052306e-01,8.593922374945949655e-03,9.716469346470510415e-03,6.986639054856452064e-03,1.067780852317810059e+00
-3.900242455396178698e-02,-6.060118669293933502e-01,5.842706580676461092e-01,-4.778146226503385101e-03,-2.702610910874619042e-03,-4.214063078898583510e-03,1.031268358230590820e+00
-6.232172051290785220e-03,-5.554177614210281666e-01,6.052908180942154770e-01,-5.701719410977453689e-02,1.460158513775504548e-02,-7.723762329679310229e-03,1.010928392410278320e+00
-2.451174340781124214e-02,-6.350118778108039264e-01,5.977392521872576525e-01,3.379295698087048713e-03,3.887953550618447954e-03,-5.229933420084508823e-04,1.067647576332092285e+00
-1.610126356916273538e-02,-5.866656320427675597e-01,6.602657688279068848e-01,-8.474360218972344649e-02,1.321052630826808141e-02,-1.683318249032645514e-02,1.091716527938842773e+00
-2.443656618327419427e-02,-6.284649695219578502e-01,5.854660282790202785e-01,1.030845042652761730e-02,-3.714558603921292064e-04,-6.468045981176232017e-04,1.051451563835144043e+00
-2.809979831707394571e-02,-6.062313599828835775e-01,5.918285756076279158e-01,-6.032637495671133027e-03,-7.540927052972466044e-03,-7.242227382633074050e-03,1.037971377372741699e+00
-2.535380337701000769e-02,-6.350975096850999257e-01,6.025822074852207333e-01,3.933797690125851593e-03,3.570884446433179784e-03,2.453912683402791105e-04,1.071940302848815918e+00
-1.945211620102602762e-02,-6.338913083490621547e-01,6.380533594808566189e-01,-1.555442977264425049e-02,6.711346819121166707e-03,-5.271931531597836597e-03,1.102175354957580566e+00
-1.021385511994370998e-01,-3.684990205335343383e-01,6.545013621671642579e-01,-6.972919631056781475e-02,-3.328863713814276832e-03,2.542540041320353467e-02,9.281971454620361328e-01
-2.833548749989912852e-02,-6.297981361238070841e-01,5.998391086998804411e-01,3.335294265207248889e-03,-9.238800581092506715e-04,3.704221314896215169e-03,1.065016984939575195e+00
-2.892359681159136636e-03,-4.805058289249231063e-01,5.681022337818660839e-01,-2.999122869091364399e-02,7.253015806596780496e-03,1.280933367452633150e-03,9.108926057815551758e-01
-2.283808408772433282e-02,-6.200734635104222514e-01,6.040983875817014237e-01,3.808634750122176591e-03,1.037674207689116140e-02,6.035429706907889137e-03,1.060492277145385742e+00
-2.686848096970381045e-02,-6.351340093578292656e-01,6.042807507155021352e-01,1.812376034455294611e-03,2.503316225779546756e-03,3.664709379796905883e-04,1.073439240455627441e+00
-5.646986374549724241e-03,-5.281159756580139364e-01,6.060881743175666747e-01,-2.290573633902975165e-02,8.036936456902359430e-03,1.609794976323042272e-03,9.841656088829040527e-01
-9.346841700176612699e-04,-4.931616664626730095e-01,5.709642009365983872e-01,-2.573101674433847866e-02,-5.545628138099372578e-03,-2.929334757299278426e-03,9.235605597496032715e-01
-6.347794077339810603e-02,-2.779699138965592842e-01,5.928812253314894587e-01,-1.389067198218911781e-01,4.157322184074620924e-02,-4.429760340875988495e-02,8.285861611366271973e-01
-5.388269338667461134e-02,-5.474999882939493023e-01,5.402133815140671702e-01,1.418623055614053052e-02,7.201683784922302545e-02,-2.628999867531768217e-02,9.529432058334350586e-01
-2.633103285946939570e-02,-6.251058645339448994e-01,6.072080960915573478e-01,-2.305345454804314312e-03,-1.715952097827410424e-03,-4.290454211018821309e-03,1.067394256591796875e+00
-3.343251006023061078e-02,-6.196210151698378077e-01,6.093553980039583262e-01,-3.295229843824992733e-03,-1.604020816126119865e-03,-4.511399924276172230e-03,1.064748525619506836e+00
-3.166003704421579967e-02,-6.195317888843657750e-01,6.073852682212917964e-01,-2.038995688784517313e-03,-2.410550563811064695e-03,-3.582044267195081972e-03,1.062881588935852051e+00
-2.477453743836944070e-02,-6.171394124416185178e-01,5.937864367122021036e-01,-3.762127148853018112e-03,-9.511343025170793846e-04,8.739798198859605877e-03,1.048905134201049805e+00
-3.997152762024872713e-02,-5.963555330262195753e-01,6.106057786104127638e-01,-1.311382872076007153e-03,-2.448042199256049694e-03,-1.407089705452906764e-02,1.046614527702331543e+00
-2.739780276113584767e-02,-6.206880183957679264e-01,6.050802870579161663e-01,-9.827371920689113166e-03,1.619047222881690035e-02,6.372624359934947642e-03,1.062291264533996582e+00
-1.902213347359204155e-03,-6.201400479760023066e-01,6.233809106230284725e-01,-1.329932280453452118e-02,-1.385156817701062261e-03,-1.904844607732319051e-03,1.077180504798889160e+00
-1.009316076299259131e-03,-6.036065693760237494e-01,5.968787011180184399e-01,-7.523878330669405768e-05,4.554892933661847110e-03,7.105540668866211149e-03,1.039756178855895996e+00
-2.337797112798264271e-02,-6.335691618886654108e-01,6.020178691697684048e-01,4.047143301120800611e-03,2.818660085692084247e-03,2.285467292476953474e-03,1.070118188858032227e+00
-2.214509022623129333e-02,-6.213118136194616392e-01,5.971202362631004013e-01,3.141470516308465105e-03,-1.210790978754306118e-03,1.416240039163549000e-02,1.055542111396789551e+00
-3.285006732000267382e-02,-6.322483120498113562e-01,6.060459356208734993e-01,3.987633633850014986e-03,6.260496674782225698e-03,2.511542435320526442e-03,1.072661995887756348e+00
-2.147037410899946611e-02,-5.996345203427719817e-01,5.935871181841827493e-01,-7.747028641207785640e-04,1.291944549609451778e-02,-6.777432236878610378e-03,1.033834576606750488e+00
-1.382813106550874298e-02,-6.168233202289141737e-01,6.020157694408508897e-01,2.197455839897393456e-03,9.581164310768677805e-03,4.171861699317784035e-03,1.055727243423461914e+00
-2.151699683040336070e-02,-6.271140856667213326e-01,6.056406985189596304e-01,8.156839243695055168e-04,1.117343091357988864e-02,3.572357537873013019e-03,1.067845582962036133e+00
-2.660488599331120238e-02,-6.283009576954399211e-01,6.023898528841191702e-01,1.444305879562907645e-03,1.537299605170264379e-03,6.166825393093481288e-03,1.065956711769104004e+00
-2.511130251916891126e-02,-6.296640256908390132e-01,5.845447364901219522e-01,9.599430489934737687e-03,-2.023660101867870084e-03,-7.822875872581680923e-04,1.051676869392395020e+00
-2.974454347806938098e-02,-6.507425606084477065e-01,6.009804592682355118e-01,-3.001327980552081359e-02,-6.395914355165989440e-02,2.413653728769097825e-02,1.091720700263977051e+00
-3.886936252501042854e-02,-6.196273435211246960e-01,5.776091118927234591e-01,3.883443450152426063e-03,-2.538410318130950027e-03,6.245752024039699299e-03,1.037078499794006348e+00
-4.309240670984602201e-02,-6.237380650539110505e-01,5.987173443004029094e-01,6.627790532250574934e-03,-7.588711120700748379e-04,1.086857269336061020e-02,1.059349417686462402e+00
-2.535146110257920776e-02,-6.329117780354162059e-01,5.965224369242123625e-01,1.834420955876519231e-03,1.990231771491380620e-03,-7.772057396564872596e-05,1.064755678176879883e+00
-2.809892328064914416e-02,-6.351508143492936576e-01,6.016754716692511717e-01,2.157544537856855797e-03,3.522881057882869347e-03,3.992289873372863174e-04,1.071207404136657715e+00
8.368923998027480438e-02,-6.863585124882826127e-01,2.603437583950221068e-01,-1.393202848575189438e-02,1.095205893637369171e-01,-1.248931398444053931e-01,9.184629917144775391e-01
-3.176919167540961930e-02,-6.234564890129188353e-01,5.959111789293403127e-01,8.046067741962236938e-03,7.632822136614092045e-04,1.067870572441560230e-02,1.056411385536193848e+00
-2.695349898986502957e-02,-6.328425417424711208e-01,5.934810524198156356e-01,5.421996278514478081e-03,-2.646467832113417020e-04,3.622217815798680837e-03,1.062112450599670410e+00
-1.689316023962642022e-02,-5.976393120669107883e-01,5.344243194500855054e-01,9.149348617178868631e-03,-2.873088353052241639e-02,4.879719822042889038e-02,9.855270385742187500e-01
-2.541829762874818835e-02,-6.172839636952391906e-01,5.833732344979398743e-01,8.438155999214522890e-03,1.981971746215299094e-03,6.308002304460353683e-03,1.039999842643737793e+00
-3.372094752571394571e-02,-6.205695089409772880e-01,5.739532447831930950e-01,1.194428562686586370e-02,5.400892312863850081e-04,6.057933904299594129e-03,1.034799933433532715e+00
-2.238023101709030876e-02,-6.323290239476866414e-01,6.068100888077400112e-01,3.896725704041296805e-03,1.119350077345330347e-02,3.570679733192205947e-03,1.073383212089538574e+00
-2.453137255159318006e-02,-6.364828851573889335e-01,6.028293761134784212e-01,4.036841177736767358e-03,3.882126000118394076e-03,1.005741806805814315e-03,1.073348760604858398e+00
-2.332687096918600878e-02,-6.063365179400042049e-01,6.040581401502987946e-01,5.836904346699755674e-04,-6.787722232216165941e-03,-5.480402180288080141e-03,1.048576712608337402e+00
-1.151342064580689571e-02,-6.100612230169961681e-01,6.002293210224914910e-01,-1.068081110481783509e-02,4.103766895758189856e-03,-2.812212646487427092e-03,1.048361778259277344e+00
-2.640859829850489629e-02,-6.108871168708954746e-01,5.774950755508976297e-01,4.588314426529615901e-03,7.421536777991865654e-03,-7.580694892204560033e-03,1.029409646987915039e+00
-2.658643695133092871e-02,-6.128967998774621506e-01,5.918260879076613357e-01,4.346507082599677420e-03,-2.670024743393873811e-03,1.984707504611435587e-03,1.043487191200256348e+00
-9.108052905441973296e-03,-5.227386049319815431e-01,5.825800058854732066e-01,-1.679647046358859891e-02,-1.095102085281634934e-02,-5.747682101480338507e-03,9.587103128433227539e-01
7.322983123325805220e-03,-5.934784632798455473e-01,5.927721018326407298e-01,-1.218931563277733145e-02,-4.685320472615228833e-03,-9.250520607881050107e-04,1.027601957321166992e+00
-3.217516845651793855e-02,-4.902108382705463452e-01,5.848189205100471355e-01,-1.443364885208873322e-02,2.000307389928862589e-02,-3.659272882667781446e-02,9.375106096267700195e-01
-2.164539572034654413e-02,-5.340507341226066185e-01,5.902977988885609317e-01,-7.090500592775458508e-03,-1.617412496279921688e-02,1.647466612404733383e-02,9.758824706077575684e-01
-1.083341214779173431e-02,-6.067975018683956501e-01,6.013748710461377378e-01,-1.591980669780963765e-03,-5.378181233361275723e-03,1.700740045284385247e-03,1.046388745307922363e+00
-9.812751271608372711e-03,-6.237754954807842589e-01,5.384804662277314913e-01,1.347835449845219934e-02,-2.470567276256356234e-03,1.529285090202034056e-02,1.007706403732299805e+00
-2.268747911918584173e-02,-6.350489261009154562e-01,5.969836678641181615e-01,4.855866015660828018e-03,4.960788551570083707e-03,-8.871192416673016369e-04,1.067046642303466797e+00
-1.870534480800241373e-02,-5.673555678536835734e-01,5.962405176083923619e-01,-8.386967228227929991e-03,-1.112119907765297955e-02,-5.831573599825938536e-03,1.008587956428527832e+00
8.059676948859416379e-03,-6.041444959889777921e-01,5.970702589879117728e-01,-2.512036086069831600e-02,-8.227174294466575331e-04,-8.008633366944264281e-04,1.041258454322814941e+00
1.959100474485447538e-02,-5.584835644919385889e-01,5.781952743634036773e-01,-1.405028411643288559e-02,-1.370044766529051336e-03,-1.253763778637308028e-03,9.847468733787536621e-01
-1.752625022525830870e-04,-5.971876839684679972e-01,6.049955874216441654e-01,-3.880910704420286426e-03,5.376783369566181039e-03,-5.361865973390840317e-04,1.041193008422851562e+00
-1.592011576153868138e-02,-6.034069573774077933e-01,6.027034671820891143e-01,1.109253005138039665e-03,6.693526593188949339e-03,-2.963935391575818219e-03,1.044716954231262207e+00
-4.509330887445400782e-03,-6.065165011347857238e-01,5.984203864266212092e-01,-2.702115373707801626e-04,-7.068989119403776712e-04,3.789406255071161612e-03,1.043527483940124512e+00
-2.710705213144926073e-02,-6.212090508914113185e-01,5.988823076797566980e-01,3.382318046069786484e-03,5.418920721590036668e-03,4.821305854770510137e-03,1.056841254234313965e+00
-2.387152367036866549e-02,-6.299485782434252057e-01,5.951201610531016151e-01,3.464805459838722710e-03,3.600056429179747646e-03,-3.131126632057337159e-03,1.061009407043457031e+00
-3.287280590183156576e-02,-6.128086459762618343e-01,5.995969404163720151e-01,3.348704796172165613e-03,1.331480961005747712e-02,-5.412975432956207769e-03,1.050613522529602051e+00
-1.769569290796722122e-02,-5.864868445701538757e-01,5.954440257836073336e-01,-9.994022710582155591e-03,-1.878401742944793215e-02,3.738727442160002146e-04,1.024485588073730469e+00
-5.047398021512420133e-03,-5.931248014608736518e-01,5.963011892390137625e-01,1.763830644918900920e-03,-7.359298814258597842e-04,-3.372332409805731037e-03,1.030116319656372070e+00
-3.025777823227218666e-02,-6.222905886602729808e-01,6.023128403477748805e-01,-8.505572797270790058e-04,7.769070957230830507e-03,7.187822484789425578e-03,1.060890793800354004e+00
-7.759835586325392401e-03,-5.733498668168669488e-01,5.923309496917751327e-01,-7.041482533188853261e-03,-1.114254416710219048e-02,8.157106269759730952e-03,1.010013461112976074e+00
-2.259181130206863383e-02,-6.797627748003679526e-01,6.701805090353859518e-01,1.411006986319424984e-02,3.867721740161844668e-02,7.521184706164054518e-03,1.171465635299682617e+00
-1.710698552864850508e-02,-7.476778549555997966e-01,7.681158890082367963e-01,3.775994616392112230e-02,9.501921440783664755e-03,-1.528068093471858513e-02,1.314997553825378418e+00
-3.030548951834687726e-02,-6.515015132546746468e-01,7.076942622171379371e-01,1.655746940295015346e-01,4.876033218595546281e-02,-2.946165305007671098e-02,1.216943860054016113e+00
-9.061227337391436487e-02,-4.618001021396911376e-01,6.023216458888979163e-01,6.009085284430102031e-04,1.686425966768695731e-02,1.508480085565619758e-02,9.363137483596801758e-01
2.695047150935486226e-03,-5.876941880256931761e-01,6.013429093141156034e-01,6.424651069765078236e-03,-9.434278304647658597e-03,-4.859173242909217531e-03,1.029968738555908203e+00
1.221131341102640530e-02,-5.786049656574384636e-01,5.925496477403754403e-01,-2.033773438670802107e-04,-1.967488916983153348e-03,2.230455308475628399e-03,1.014276266098022461e+00
-6.424039285206588346e-02,-6.593874055157560310e-01,7.449958428653633558e-01,8.535566056424288839e-02,6.442800367814900675e-02,-8.300234428151499755e-02,1.243243932723999023e+00
-5.296840886340650062e-02,-6.551891160060249186e-01,7.201965187718863959e-01,1.036486420430346791e-02,4.312742057237518162e-02,-3.801110552069935505e-02,1.198459982872009277e+00
-3.590274853864152543e-02,-6.577404916943544455e-01,6.712753670425970487e-01,2.170335520002970517e-02,4.756666272368453852e-02,-2.817818331040731865e-03,1.155317187309265137e+00
-3.672462605962560633e-02,-6.440571197783225843e-01,6.435522638580644106e-01,-1.750107822081095973e-05,1.934798423283274130e-02,-4.843183537909131336e-03,1.116233468055725098e+00
1.600683405884976984e-03,-7.874311665102721181e-01,7.177630908862446812e-01,4.202324458899520110e-02,1.271646757230033564e-01,-4.062143553627974718e-02,1.326384425163269043e+00
-1.876362580999073326e-02,-6.274906423929390575e-01,5.768387934969146924e-01,1.441186696496838185e-02,1.219530658537611948e-03,9.950866012386707163e-03,1.043443679809570312e+00
2.427226782663097215e-02,-6.032833137236593979e-01,3.948732244929385460e-01,-1.754423463331889269e-02,-6.431862498609271055e-04,-1.075958314604486855e-02,8.746517896652221680e-01
3.052441061391909100e-02,-5.630504615929374790e-01,5.741319606568244804e-01,2.268833932392877797e-03,-1.472066823522719158e-03,3.566121638427279797e-04,9.851570725440979004e-01
-9.997521424947815316e-03,-6.017344643193779374e-01,4.768770170130794961e-01,-1.584915576057508921e-02,7.601751170378726544e-06,1.745199203813737818e-02,9.364659190177917480e-01
-2.660809089374299025e-02,-6.325420867827210580e-01,5.943788725013089413e-01,1.326017330251205587e-03,-6.531877368422304118e-03,5.065674475756787309e-03,1.062670350074768066e+00
-2.593288218973546777e-02,-6.138216597248090656e-01,6.203257926882668194e-01,-1.505214336090333676e-03,-2.418838878239215704e-03,3.005892062337884880e-03,1.069225549697875977e+00
-3.237439882085763748e-02,-6.245774770590106773e-01,6.144971873646610794e-01,-1.182138039603352828e-03,1.540554094070820806e-02,6.839148974911573968e-03,1.073817133903503418e+00
-2.588117381993344096e-02,-6.312445590307106391e-01,5.949069472843612205e-01,7.693101521640189309e-03,-1.479061186634554647e-03,9.183648927557998276e-03,1.062112212181091309e+00
5.223469869148775202e-03,-8.057729622369412814e-01,7.688698418238941734e-01,3.415333056387846733e-02,9.010792295197500579e-02,-3.978507478175775068e-03,1.374078154563903809e+00
-2.221987070046677060e-02,-6.322219279738189313e-01,5.928786272408720359e-01,5.387342324225652228e-03,1.294442914763836543e-03,4.343099991935669459e-03,1.061041355133056641e+00
-3.631421591270506816e-02,-5.878690762834289929e-01,6.150279091908096296e-01,-2.098864994336639700e-03,-4.598707783140968362e-03,-1.634886305297498718e-02,1.043354511260986328e+00
-3.197259583577635733e-02,-6.206602966968252089e-01,6.083543110052688219e-01,-1.544903144827355435e-03,-3.444925875073064515e-03,-3.200690973480236918e-03,1.064705491065979004e+00
-2.179507361394334222e-02,-6.310795410433363006e-01,5.879031300550239258e-01,6.935106370624067804e-03,1.987027417771194959e-03,8.498914258354545864e-03,1.055846571922302246e+00
-5.719050329447936121e-02,-2.548812695575412013e-01,5.746872382554002456e-01,1.720498554536638303e-01,-9.545539003386400989e-02,-8.063581044184217617e-02,8.360099196434020996e-01
-3.640923966591519401e-02,-6.152755310948088141e-01,6.232602747248844333e-01,-2.454142294561005230e-03,-3.292525267800619927e-03,2.141356104398489061e-03,1.073394060134887695e+00
-2.619652173917219606e-02,-6.124909699848816169e-01,6.047680625755421646e-01,5.458642344922378514e-03,1.538163080483246140e-02,-3.253106270322404618e-03,1.054807782173156738e+00
-3.820400096723607086e-02,-6.129394526288380884e-01,5.712299190353429257e-01,7.795704596141668670e-03,2.104884481133183650e-03,-4.562978258664343611e-04,1.025763154029846191e+00
-7.687077145991521449e-03,-6.256961446210904665e-01,5.277314184910181227e-01,1.106422220136069057e-02,-2.929150463886330438e-04,1.884104608209375212e-02,1.000466942787170410e+00
7.247574407509215291e-03,-6.084013298928048208e-01,6.086906665479719925e-01,8.261970749298566327e-03,4.910741484663160017e-03,-5.881124470011664732e-03,1.054237127304077148e+00
-2.111857400328067194e-02,-6.281714830126693405e-01,5.835987799294460876e-01,7.028390760423676095e-03,1.624679202801883760e-03,1.283865762689631942e-02,1.049734473228454590e+00
3.919091144401767868e-02,-5.743496416575969432e-01,5.760332130394311134e-01,8.226321415372326792e-03,3.404217079247494598e-03,-1.374493254208542631e-04,9.971178770065307617e-01
-6.273578060897712361e-03,-6.154745279714010087e-01,4.729861111667754692e-01,7.021473545988462205e-03,-7.862301642806773794e-02,-5.871457941164224398e-02,9.601124525070190430e-01
1.556521381029721263e-02,-6.756344857799434500e-01,4.197371925310255381e-01,1.138507396541772266e-03,-6.886609681982386322e-02,1.012145089916505029e-02,9.669614434242248535e-01
3.592476151502495274e-02,-5.577571380133162782e-01,5.674028187728439310e-01,1.807756701200587124e-02,1.801685674693021206e-03,9.709188441623228111e-04,9.754224419593811035e-01
5.780656607678716363e-02,-6.711318224104201313e-01,3.192446095674432160e-01,-2.413229657425783672e-02,-7.300534847460110610e-02,-5.130708565145754296e-02,9.032756686210632324e-01
1.978829996229358387e-02,-6.218822863978823445e-01,6.097656957330093164e-01,2.165450884101844525e-02,-3.904359329742468181e-03,-1.073555241705928358e-02,1.067793965339660645e+00
3.900163686967350607e-02,-5.810394812406624032e-01,3.133935899163239891e-01,2.479609617924858657e-03,-4.664410471520107071e-02,-8.160206884893557444e-03,7.978855967521667480e-01
4.899008118837941406e-02,-6.906520860702209941e-01,4.110650502607662848e-01,7.075728070960222386e-04,-2.978688731798844608e-02,8.070578834467755439e-03,9.740808010101318359e-01
-2.645625256896581845e-02,-6.342631573889193630e-01,6.392904980863562958e-01,-1.020600105128377164e-02,1.578278893547006845e-02,-8.737361217386517770e-04,1.103791475296020508e+00
3.692042956877562149e-02,-5.542455635481871035e-01,5.648166685924607133e-01,-1.588281496916912764e-03,-8.219346362599590748e-04,-1.355575283953740651e-03,9.696602821350097656e-01
-2.006206336973286736e-02,-6.101204454829844970e-01,6.103757415305097744e-01,-4.616582960393172258e-03,3.061349134518546577e-03,-1.386941825482416188e-03,1.057219743728637695e+00
-7.622171131667375421e-02,-3.940727457923388077e-01,5.904700895297182450e-01,3.167432464662429253e-02,-1.692201451652272301e-02,-2.199511040826794897e-02,8.733476400375366211e-01
-3.094724548346000637e-02,-5.813374120337273521e-01,6.149722110149105081e-01,-4.822483197791494576e-04,-1.384413862497355791e-02,4.196092904271203280e-03,1.037437915802001953e+00
-6.829964267549380741e-02,-3.499598239990865389e-01,5.684359018934199703e-01,8.876998521116305149e-03,-1.379457051976695076e-02,-3.218033254133056270e-02,8.173258900642395020e-01
-2.452581568110154611e-02,-6.084422467053837158e-01,6.042946768247596800e-01,1.340763138320899724e-02,-1.227019994800479519e-02,-2.136862502732182062e-02,1.051624059677124023e+00
-8.495137080674083560e-03,-5.732688603327831256e-01,5.903381892989654212e-01,1.063120416143134433e-01,-3.136862668571457338e-04,5.748738587076861195e-02,1.029367566108703613e+00
-3.363745520140563883e-02,-5.942352721739454502e-01,6.198693666780684675e-01,-2.060200020087006156e-03,-1.442438428468006441e-02,4.201409658276265661e-03,1.052798867225646973e+00
-5.385507824149007861e-02,-5.224902700168400083e-01,6.439833448856386866e-01,3.944379786750545902e-02,-4.199188456901823199e-03,-5.370909423768076285e-02,1.023231863975524902e+00
-3.228664360062107053e-02,-5.958375077286217625e-01,6.249027563723612566e-01,3.130354024091284212e-03,3.144108810778528575e-03,-2.237114016429363889e-02,1.058965325355529785e+00
-2.859126256205253916e-02,-6.192409741168847237e-01,6.210906616974526395e-01,-2.667244335660918370e-03,-5.929072530882177269e-03,-3.771554069306076382e-03,1.074643015861511230e+00
-2.478344190259124807e-02,-6.086131239657724956e-01,6.217375037091682488e-01,3.446304941675665257e-04,-3.894099688224816370e-03,3.274779315461901841e-04,1.065997481346130371e+00
-1.513259408843295808e-02,-6.157010117456405141e-01,6.208607950893593186e-01,-6.166774355422872857e-04,-3.585695616203322597e-03,4.935730022462447202e-04,1.071059346199035645e+00
-2.320559640398535406e-02,-5.435983781678614957e-01,5.987174951848731608e-01,2.148549930242901404e-03,-1.843299545198898159e-02,3.221851655924204676e-03,9.911133050918579102e-01
-4.420672396974422574e-02,-4.785931072255997787e-01,5.446752509636753059e-01,-2.311862551203999402e-02,-7.933357267378574398e-03,-5.105264363846589992e-02,8.949229717254638672e-01
-7.019739500607713456e-02,-3.260995943408635522e-01,5.652232577871804109e-01,5.182228335673997460e-02,-1.457505159227672452e-02,-1.492677317509009949e-03,8.003446459770202637e-01
-3.124656708809704295e-02,-6.600409283785299008e-01,5.289642706928060489e-01,-9.507897303731190769e-03,9.294923168123261914e-02,2.567207563182382149e-02,1.043859720230102539e+00
-5.262089340329471898e-02,-6.057169494173418878e-01,5.782765990534198819e-01,5.027568407307441735e-03,1.898054395437140385e-02,2.381564858475321289e-03,1.026677846908569336e+00
9.997447220357665726e-05,-6.029277276708236988e-01,6.113767298682704077e-01,1.463656714607034436e-04,-9.247844546935148069e-03,1.481173891087584921e-03,1.051751732826232910e+00
-1.073743809346837212e-02,-6.029508540621980606e-01,6.110098794549642109e-01,1.188474707506294997e-03,-1.300796498136431306e-03,1.204839123851590959e-03,1.051431059837341309e+00
7.632304584388988067e-03,-5.412767054308968984e-01,5.789919525151089319e-01,3.130379267354154588e-02,-1.330397969225892083e-02,-1.432249051549228623e-02,9.723495244979858398e-01
-2.697830115793393990e-02,-6.050057940916974131e-01,5.102889570578824641e-01,-4.705270313334076679e-03,3.932143064888741352e-02,1.207642726724402447e-02,9.687464237213134766e-01
-4.123671999893965823e-02,-6.284800755583775933e-01,6.416447973595733600e-01,-4.144079121252601874e-03,2.181745858604410004e-02,2.753930515284283911e-03,1.101681351661682129e+00
-3.622394381801930657e-02,-6.016143874737135411e-01,5.494079047190710829e-01,-8.449659372995006398e-03,1.049032592238185882e-03,4.661739198464765269e-03,9.970077276229858398e-01
2.465551468481110703e-02,-5.547194020232126821e-01,5.663597121895515007e-01,-1.357131605468323726e-04,7.108546107242041077e-03,-1.504864012084173360e-03,9.711472392082214355e-01
-2.546769446864903530e-02,-6.308430065652647079e-01,5.892718515316890393e-01,1.484323816633809252e-02,4.207925774262329111e-03,1.056884140255838662e-02,1.057157158851623535e+00
-5.418392223788098816e-02,-6.077421103852190809e-01,5.794241531459158878e-01,-3.424652136488462711e-03,1.590706156003940039e-02,-4.571857324891932285e-03,1.029311299324035645e+00
-2.368947864598506745e-02,-6.077298966746297326e-01,4.913094276437978136e-01,-3.650412412007144995e-03,3.537222379354788837e-02,2.140264829928127666e-02,9.551308751106262207e-01
-2.148708291868272474e-02,-6.247743112640513630e-01,6.002496848144497354e-01,-6.260443142505657532e-04,3.160073837389701639e-04,1.412755329985120522e-03,1.060945510864257812e+00
-2.112411210893112151e-02,-6.037481415354006842e-01,6.011288206401805834e-01,-1.514811187002532188e-03,-4.734657309357598971e-04,-3.916124518282706676e-03,1.043667793273925781e+00
-1.443333588744757576e-02,-6.086525159133165941e-01,6.011348596624405127e-01,-2.733421842943581023e-03,-6.241132365187616188e-03,1.373427750666897113e-03,1.047830104827880859e+00
-2.376215416511608114e-02,-6.187308738992828294e-01,6.047932206593701343e-01,7.579957765694054833e-04,-5.231148153819358861e-04,8.226709438294099817e-04,1.059738159179687500e+00
-5.111998565365348697e-03,-6.185129262744282208e-01,6.110179300307057026e-01,-1.152858352644390086e-02,-8.904216588750436812e-03,1.195777403708695071e-02,1.065306067466735840e+00
-2.039764848053979979e-02,-6.153156371748534914e-01,6.044269306152934007e-01,4.522464880298261930e-04,-2.006489655145905597e-03,1.448812141151031244e-03,1.056442856788635254e+00
-1.888189427630503070e-02,-6.071445062011346927e-01,6.044437852322083193e-01,2.448902803774621276e-03,-7.300068847225988419e-04,-3.291581380154768362e-03,1.049437522888183594e+00
-1.310013187034816083e-02,-6.319274142025358421e-01,6.035741281796934699e-01,3.889702667328420477e-03,6.455865258562316390e-03,3.564244326453126516e-03,1.070073723793029785e+00
-7.896076275177896231e-02,-4.788729897898993393e-01,7.784181581949235484e-01,-1.517675694212239357e-01,9.915212566336983890e-03,1.523140136603372101e-02,1.143676400184631348e+00
-2.526537889953367477e-02,-6.247327925882429911e-01,6.103476343644964608e-01,3.462500066980039436e-03,1.278500596515819154e-02,4.639715443077086290e-03,1.070039868354797363e+00
-1.032701881686964168e-02,-6.035247906257625861e-01,6.006911757914212835e-01,3.154646006197573261e-04,-4.469952122834040809e-03,2.558696805909057431e-03,1.042958021163940430e+00
-3.057816231914932056e-02,-6.142749113956734730e-01,6.039640351895070314e-01,-6.012382726681872154e-04,-2.180880302141448637e-03,3.389764149435097297e-04,1.055339574813842773e+00
3.918844840948036701e-02,-5.964633625212628631e-01,3.904256100756253733e-01,-9.687728182534166219e-03,1.647041439407536311e-03,-8.489151565994132106e-03,8.667128682136535645e-01
-2.556498317963145153e-02,-6.349467280976178740e-01,6.134734405355805054e-01,3.566246760387833340e-03,1.617532009754021893e-02,2.027362393708651619e-03,1.081651449203491211e+00
-4.497096432872729754e-03,-6.214458215894183013e-01,5.374330845808767965e-01,1.523288543260938911e-02,-7.144665004028060784e-04,-1.261389671289259986e-03,1.004668951034545898e+00
-2.187025568419018878e-03,-5.767624236641525348e-01,5.943448477928086060e-01,1.450028264481184907e-03,1.845395902622232187e-02,5.295816075218012439e-03,1.014816164970397949e+00
-5.862739381498920099e-02,-5.460147424744676847e-01,6.078315746016926813e-01,1.533376744914932612e-03,2.833708828246003092e-02,1.713927292378635697e-02,1.004905462265014648e+00
-2.485746942267458987e-02,-6.098393293553423522e-01,5.962957546766697314e-01,1.679631610381928424e-05,-2.006503324915440666e-03,2.513680174940491688e-03,1.044715046882629395e+00
-2.550495982156922303e-02,-6.056886097549130099e-01,6.004793496106439754e-01,-5.322558488716059612e-04,-4.825041116175566094e-03,3.457003666246068023e-03,1.044874072074890137e+00
-4.071628938759333516e-02,-5.453539614922400247e-01,6.067414024071299261e-01,2.378076851016760768e-03,1.582915033328078855e-02,1.690258438855803472e-02,1.001108407974243164e+00
-2.063090471144428395e-02,-6.169827621399566198e-01,5.998498226676595158e-01,-4.602259080824314401e-04,-4.434921935479345552e-03,1.311516168170292779e-03,1.053907752037048340e+00
-3.591690557312079979e-02,-5.987996156044831375e-01,6.169375331520082772e-01,-1.725068782442718213e-03,1.816848930383731459e-03,1.122896592142664206e-02,1.054008245468139648e+00
-2.750097253769625064e-02,-6.042438301343906470e-01,6.002437217590037566e-01,-8.644467079513530009e-05,-3.645085188019441327e-03,3.543141213361336063e-03,1.043465614318847656e+00
-3.111496099397798726e-02,-5.952257969907616131e-01,5.994006022519481336e-01,-2.928223976527133225e-03,-1.621862455763566600e-03,1.657957610841786274e-03,1.035129666328430176e+00
-3.443191158893758874e-02,-5.845722803342605634e-01,6.017114771444477261e-01,-1.367396659451501281e-02,-7.502852988671910792e-03,4.225788467344024010e-03,1.028632283210754395e+00
-3.251044594838493201e-02,-5.738337020948841571e-01,6.000853940426942312e-01,1.233951911099920177e-03,-9.371629873957499496e-03,-1.191224367878039939e-02,1.018008351325988770e+00
-3.344412864848346489e-02,-6.103161999883653932e-01,5.774463425814054807e-01,-1.013633315700255763e-02,-2.032434252158179817e-03,5.749574344732135550e-03,1.028977155685424805e+00
-4.919838586927925694e-02,-5.121024622193041109e-01,6.037361744113133311e-01,2.595622595918100142e-03,-1.138634776608898024e-02,4.325545352672936078e-03,9.712440967559814453e-01
-2.514853515242249093e-02,-6.173966206702588000e-01,6.152377227630051459e-01,-4.402106510740375588e-03,-3.625051750584260771e-03,-3.168526005574098109e-03,1.067823767662048340e+00
-1.553590258071414765e-02,-6.537637497252389851e-01,5.034565255811820350e-01,-6.735294477507336799e-03,9.614519698759439736e-02,-2.745697608716692398e-02,1.018848776817321777e+00
3.824186724168659318e-02,-5.627291797458350286e-01,5.693804238751093427e-01,2.038433728141333771e-03,-6.745289592907116214e-04,-1.215794412408627507e-03,9.810665249824523926e-01
-3.409475260317237910e-02,-6.096087270320471596e-01,5.597781529535387213e-01,-1.421952958353675696e-02,2.453718907096170271e-02,2.239578928573121228e-02,1.014692544937133789e+00
-4.889270151398870945e-02,-4.459891841671148605e-01,6.042539378076866585e-01,8.235919766054257407e-02,-7.470609082074696448e-03,-1.528198939931469692e-02,9.299814701080322266e-01
-4.697178082844703090e-02,-6.007284170579758609e-01,5.710416845301734545e-01,-4.302756309036893001e-04,4.235655634285209054e-03,-7.283663644154682185e-04,1.015318751335144043e+00
-3.396864093691946695e-02,-6.103121409114701246e-01,5.731687126010999167e-01,-9.038019869596111699e-03,1.702021511762763853e-02,-1.099039557844732652e-03,1.025585174560546875e+00
-2.662255523119808065e-02,-6.038539911375083724e-01,5.270078228045071977e-01,-7.760962900116961591e-03,1.731638531181832821e-02,-5.943291194271531006e-03,9.800315499305725098e-01
-2.235996341413704416e-02,-6.178463755079190989e-01,5.517809535226262385e-01,-3.513550308554499926e-03,3.462792505734010873e-02,1.516238536906400029e-03,1.014778852462768555e+00
-5.281146000477698887e-02,-5.967617593944208876e-01,5.664385079197947759e-01,-1.058772136079784302e-03,2.110516240282022532e-02,-1.611656003209608300e-03,1.008732438087463379e+00
-4.326467281135214227e-02,-6.118997788253583980e-01,5.756378977479487125e-01,-7.867504239163748692e-03,6.409950851330425622e-03,-5.827386725355369022e-03,1.028944492340087891e+00
-5.610720527843026523e-02,-6.087630961658863082e-01,6.077706989403127702e-01,-4.822655492553216440e-03,2.598092378791087235e-03,-2.138564143999035702e-03,1.055065035820007324e+00
3.316283614246205713e-02,-5.824385944713476038e-01,5.744184936811128628e-01,1.106191580491374532e-02,-4.649517854903755030e-04,-4.486988939204574270e-03,1.002770543098449707e+00
-3.807576697713257324e-02,-6.036365135771522006e-01,5.772805834911213241e-01,-3.403504890894274381e-04,4.228766308583502623e-03,-1.439624315267852865e-03,1.023036718368530273e+00
-2.049503130546298513e-02,-6.083994801994286883e-01,6.169647916549184652e-01,-1.353513807090188500e-03,-8.987867710596965029e-03,1.319259794920297157e-04,1.061602592468261719e+00
-2.591309152877249722e-02,-7.283049959980950616e-01,5.778773803648507013e-01,9.925723523172556503e-03,-1.162401630864774021e-01,5.468071253291759137e-02,1.154043197631835938e+00
1.406651165826293404e-02,-4.865674180469439225e-01,5.572358231038679888e-01,2.271485708348213589e-02,9.052047406731789439e-03,-3.402822359924641531e-03,9.052208065986633301e-01
4.198861941458108260e-02,-5.756453693890691836e-01,5.793328662433909759e-01,1.031987148452497699e-02,2.924865728113303608e-03,-1.335858092162268149e-03,1.001220822334289551e+00
-4.930847733979751985e-02,-6.265118361573838168e-01,5.428107126516800163e-01,-1.168477919427844854e-02,-7.300202198766680972e-02,4.610258897217749639e-03,1.020785570144653320e+00
-1.562955106553600565e-02,-7.049302366397338648e-01,6.624557284293230985e-01,-1.123008328602538297e-01,-1.438158671572411784e-01,3.379327222482897668e-03,1.225666165351867676e+00
-1.120558528876947763e-02,-4.382075839030709630e-01,5.587981171600603369e-01,9.587833491004390390e-03,-1.974691801645796913e-02,9.251248385124507861e-05,8.672215938568115234e-01
-3.792144333694107139e-02,-8.068116217465381990e-01,7.305457944020764538e-01,-3.290304617560138589e-02,-5.500428871304108985e-02,3.185765233304554273e-02,1.337149858474731445e+00
-3.307744360722578159e-02,-2.947392400051696004e-01,5.449659653196569087e-01,-5.162075291901725704e-02,1.503657647470857672e-01,-2.147938808431748905e-03,7.935304045677185059e-01
-6.671179217849484977e-02,-6.002545908627530125e-01,5.931271532389288392e-01,1.268220024499203255e-03,-2.181955098892670794e-02,2.453899299761991542e-03,1.036126852035522461e+00
8.551196592928703155e-03,-5.622723569772161145e-01,5.843028373629514105e-01,-1.485259300210986554e-03,1.481430779920853147e-02,-1.163627308982218174e-02,9.935055375099182129e-01
-5.223768878323580694e-02,-7.934672761163891197e-01,7.111856188058826023e-01,-2.168999721661964697e-01,-1.825146878885799406e-01,7.050103480901827313e-02,1.397888064384460449e+00
5.050993381288942929e-02,-9.682308539555048998e-01,5.068034568077255386e-01,-1.096256961848281475e-01,-1.676601660323341902e-01,1.048543125923806080e-01,1.365374565124511719e+00
-5.312157708507883602e-02,-4.029024160115708408e-01,5.863068716577000128e-01,-5.866134856307434614e-02,2.099777902357399806e-02,-3.841741201257718730e-02,8.780370354652404785e-01
-1.776188058141611043e-02,-6.043097845966364234e-01,4.978774238421204146e-01,1.461992570559388083e-02,-3.317835638517631358e-02,1.823228076754880231e-02,9.577631950378417969e-01
2.062197349095820816e-03,-5.987142550183939260e-01,5.947983247706857268e-01,1.589012271525095917e-03,1.033090624077133771e-02,4.169368266494596909e-03,1.033803820610046387e+00
2.696960308908966097e-03,-6.161234281252966349e-01,5.980250868413670151e-01,4.002202402077455375e-03,-4.174767172039043646e-05,4.175377558832379758e-03,1.051596760749816895e+00
-5.261293921107913774e-02,-6.637720633854017338e-01,6.033607644811067594e-01,1.389421295097047204e-02,-8.703044308757450220e-02,4.511262634282196815e-02,1.110913515090942383e+00
3.356386468366341636e-02,-7.220163166119556442e-01,5.060637092286209837e-01,-2.456757750219925110e-02,-2.054516763496328502e-01,-1.897624629659160761e-02,1.131676316261291504e+00
-1.201043371972530110e-02,-5.994642058838189902e-01,5.905606470397500862e-01,1.595563397256466107e-02,-1.169505789541566872e-02,-2.917707794540411181e-03,1.031201243400573730e+00
-2.180397817005504460e-02,-6.286183226998044438e-01,6.295193330770644247e-01,-1.183498756458739934e-02,-7.447059727880012137e-03,8.033947328777978417e-03,1.090164303779602051e+00
-1.609818422871395205e-02,-4.744582007309472438e-01,6.571031326758446367e-01,1.064648296095184465e-01,-1.108656007540203409e-02,2.104778546050121990e-02,1.003775119781494141e+00
-1.538388035371049054e-02,-6.238245009355131154e-01,6.030132271260210119e-01,-8.567178205362881160e-04,-4.970868079991762377e-04,7.954454766288580891e-03,1.062574982643127441e+00
8.213936774699275023e-03,-5.345822278647796022e-01,5.752519420076099843e-01,-5.257747165855577651e-03,9.648225762274410117e-03,3.079078350535334983e-03,9.614241719245910645e-01
2.468660791076200331e-02,-5.950789219163034049e-01,6.018909040859660164e-01,-1.391230150356561127e-02,6.457356249469477227e-03,-6.086993469613615967e-03,1.037218570709228516e+00
-4.762116912611111252e-02,-6.053594763891353425e-01,5.703173075366925193e-01,-1.076354531549554225e-02,-1.068070979925426524e-02,-4.473159571046118367e-03,1.018978834152221680e+00
-3.890250353918060788e-02,-6.052946711162525695e-01,5.709351491548305679e-01,-2.633443109681287558e-03,-5.515545659186309657e-04,-9.904040530507201342e-04,1.018888592720031738e+00
-4.122546626693378985e-02,-6.055932270094742664e-01,5.856797427615644258e-01,-2.995113834505569884e-03,-5.830891631414848730e-04,-8.426198331358396645e-03,1.032263159751892090e+00
-2.242755548478218147e-02,-5.879391909372829739e-01,5.740022083085676297e-01,-2.598334456986872276e-03,8.329911072441227235e-03,1.535661117262598734e-03,1.006506443023681641e+00
-1.756481704635066976e-02,-5.854520368810144371e-01,6.003890549670785060e-01,4.524723769080645983e-03,2.267200058338506019e-02,1.231241515681475926e-02,1.028274893760681152e+00
-2.379342168725775974e-02,-6.024226919349933151e-01,5.718426322533215478e-01,-9.158721565126921047e-04,-1.066304677127907254e-02,-7.517208957983690688e-03,1.017231464385986328e+00
-3.223780513101375672e-02,-6.215744697854918011e-01,6.023699285437400519e-01,1.434941246164939252e-03,9.113667089024304196e-03,5.282538753105920325e-03,1.060368537902832031e+00
-2.484297601857881829e-02,-6.085737643916007134e-01,5.609199685733904372e-01,-5.591307502779009619e-03,1.006565804356568177e-03,9.181800734708232131e-03,1.012984395027160645e+00
-5.291024824713752572e-02,-5.122399122448260123e-01,6.038394475601729372e-01,-6.022689892465836166e-04,-1.889684238744500713e-02,3.752888553710292258e-03,9.721538424491882324e-01
-2.944289562356990769e-02,-6.024953321697801290e-01,5.683406746060524206e-01,-4.908250118618513735e-03,-3.446388329233885262e-03,-1.024293622224979085e-02,1.014257550239562988e+00
-8.520379589222744354e-02,-4.252371176975604516e-01,5.795852498978564249e-01,-3.464373891242226999e-02,2.730143252850460601e-03,4.993335535206904624e-03,8.873078823089599609e-01
-1.238387444622523516e-02,-5.847844145804563798e-01,5.863555532223427846e-01,1.326002275937969259e-02,7.348324575358165453e-03,-7.377614227791869789e-03,1.014742732048034668e+00
1.816845191190796793e-02,-5.695551002180122557e-01,5.793793982536512566e-01,3.449267270026572501e-03,1.447605707660866567e-03,6.084109843262881269e-03,9.951716661453247070e-01
-2.178716437764492003e-02,-6.169734453207337266e-01,6.034356916394258974e-01,-4.792680884788664110e-04,1.521927889440010968e-03,-9.032329768559997510e-04,1.057016730308532715e+00
-4.892363104664161633e-02,-5.120821197005288594e-01,6.019940384722128890e-01,4.990275679038612845e-04,-2.049280464364944612e-02,4.072963182503896301e-03,9.700505137443542480e-01
4.758223813993109341e-02,-5.691191075378519981e-01,2.867500453985091791e-01,4.340929712582632105e-03,-5.514213333378094328e-02,5.493440487417089804e-03,7.708994150161743164e-01
-2.759770927405476304e-02,-6.115724826522918045e-01,5.862515571896405042e-01,-8.869310753358894189e-04,-2.605118809106160452e-04,8.439474937643108533e-04,1.037455797195434570e+00
3.581425413621928955e-02,-5.758993580682172375e-01,5.784337651422685189e-01,1.025799949255204631e-02,5.654523578941245262e-04,-6.737554819060042645e-03,1.000504851341247559e+00
8.714383705872784727e-03,-5.869169661393034421e-01,5.903700350997007629e-01,-6.553069213673013219e-03,5.472369872212732092e-03,6.214680995178768156e-04,1.019692182540893555e+00
-1.862424514744850934e-02,-5.434756541105719707e-01,6.010898592986816391e-01,2.793487502440871774e-03,-2.341891160323691934e-02,2.718964050964522029e-03,9.932085871696472168e-01
-4.788113759694706539e-02,-6.080213245385164278e-01,5.996460586751198862e-01,-2.115763789999210685e-03,2.914146596561518338e-03,4.586709313141999755e-03,1.046831607818603516e+00
1.861766496078551616e-02,-5.787512093432335414e-01,5.881183167302880266e-01,-1.162740137956069786e-02,1.054573177537944211e-02,-6.935723930941787609e-03,1.011071801185607910e+00
2.244600589996100307e-02,-6.022785090614032333e-01,5.954190328940301979e-01,-4.075148763627980952e-02,4.266153148651622221e-03,-6.567201870836181753e-03,1.040045738220214844e+00
-4.780198115686531968e-02,-6.079883172422703153e-01,5.991279766287128661e-01,-2.056620325169869706e-04,3.030180047413712219e-03,-9.512233668623016692e-04,1.046307206153869629e+00
2.451932251316793834e-02,-5.811376992753494175e-01,5.916587007428744105e-01,-1.843249409319573651e-02,7.558657802238526353e-03,-3.988163952687597512e-03,1.016463398933410645e+00
8.573823135147873309e-03,-5.986734693281979824e-01,6.343736598566582785e-01,-7.246453487803531865e-03,1.544337805735037684e-02,3.555109341045792175e-03,1.068316817283630371e+00
1.882364976515526339e-02,-5.787522747067214146e-01,5.923387477854673566e-01,1.095275682628438088e-03,-1.161568962509582775e-02,1.162339419621622252e-03,1.014469265937805176e+00
-2.256721256391888350e-04,-5.979585850698804217e-01,6.135825752273464939e-01,-6.670979553352432943e-03,-4.693633141358555944e-03,4.049293167439336517e-03,1.049374699592590332e+00
2.224825437998467076e-02,-5.869998256622913635e-01,5.864216726763032961e-01,-1.608437554528442583e-03,-8.490315772766634118e-04,3.672368062494541733e-03,1.016487479209899902e+00
-8.196843248180266106e-02,-3.309927731709621512e-01,6.200199758564006736e-01,1.896956084353817323e-02,6.930433846082702243e-02,-1.162050943471007042e-01,8.863479495048522949e-01
-4.537100697675243433e-02,-6.039243099013223981e-01,5.815787753792549530e-01,-1.884358081879500399e-03,1.553277288162972260e-03,-3.182533563151654626e-03,1.027268648147583008e+00
-1.213969117893324949e-02,-5.991955661636891861e-01,5.499318452076770170e-01,-2.640243655749568638e-02,-1.687899188268562542e-02,3.370544482936730507e-02,9.984390735626220703e-01
-1.448939015638226607e-02,-6.163620731627501570e-01,6.241317673206703276e-01,-2.626646466619819709e-02,3.404753184577239550e-02,-1.884138254317285419e-02,1.077529072761535645e+00
4.191353307040406213e-03,-5.780049370353803617e-01,5.980302325198848523e-01,1.104671891105553361e-02,-1.178508561177211457e-02,-9.450446678290466695e-03,1.019008636474609375e+00
3.429836731673824302e-02,-5.628905913276018858e-01,5.708058924706247428e-01,2.710096392462499944e-03,-3.233642128499893131e-03,-3.157966170945978842e-04,9.823060035705566406e-01
-3.461419764587388148e-02,-6.075858015114080635e-01,5.983165344302742161e-01,-6.362261159052948461e-04,2.806758671316075121e-03,2.241665577654307091e-03,1.044791340827941895e+00
-1.620245346367879882e-02,-6.072198598559194194e-01,5.374855895901106129e-01,-6.943562503965472997e-03,-1.720918166558369627e-03,-1.390368186901210466e-02,9.918894767761230469e-01
-2.230358990365040317e-02,-4.748095734235869836e-01,4.766911819930803040e-01,1.339062763038195887e-02,-5.658776077925933845e-03,3.164742962525545281e-03,8.247542977333068848e-01
6.312185748455553802e-02,-9.819849525944562840e-01,5.515428198361386203e-01,7.939119274711795016e-02,-2.190667190321001767e-01,-1.747859235738661449e-02,1.415998339653015137e+00
-2.806358364367246561e-02,-6.171108833070508837e-01,4.579072481108988901e-01,1.179147334057334753e-02,-6.346876453522304340e-02,4.440917435814782654e-02,9.422433972358703613e-01
-4.791857267029190487e-02,-7.148099153187427168e-01,6.477907318298061767e-01,-4.232464418629960576e-03,-1.266637699568922137e-01,2.034494173153258978e-02,1.200893282890319824e+00
1.994750125811740535e-02,-5.830647321203636935e-01,5.829672094468656418e-01,-5.608532948578488357e-05,5.300590191343514807e-03,2.401965287172068506e-03,1.010061502456665039e+00
-4.853582007575195367e-02,-5.953542357384129513e-01,5.481878364502492662e-01,2.974321518924665647e-03,2.119652906781236551e-02,6.707654820986580111e-04,9.913449287414550781e-01
-5.154868766768327254e-02,-6.318523585215596317e-01,5.843452134942023202e-01,-6.878436212434835273e-03,7.372374748472584893e-02,7.576278589967303835e-03,1.061482310295104980e+00
9.220298391254327583e-03,-6.034989732228722703e-01,5.964960481305421336e-01,-6.416158433700514668e-03,1.507372131669391067e-02,-5.493075767893092036e-03,1.039734840393066406e+00
-2.919821948718781535e-02,-7.241899666320577023e-01,6.311362914645244349e-01,-1.025388493246900436e-02,2.656962541456316107e-02,6.756990716748177347e-03,1.174969077110290527e+00
-2.965802917006709477e-02,-6.164526677299112523e-01,5.964582334907706507e-01,2.863089909724433023e-03,-3.799670555684615727e-03,1.456423907290466807e-03,1.050630927085876465e+00
2.494906305719679987e-02,-5.841628902289693892e-01,5.873616525007823164e-01,-5.375153203550946633e-03,1.228058638825766345e-03,-4.991597768394031957e-03,1.014920473098754883e+00
-3.875904026619417242e-02,-5.951568122628645430e-01,5.329775273582288975e-01,1.854579622091932951e-03,1.999651722505176206e-03,2.362502724143805515e-03,9.770430922508239746e-01
-2.671487911261285000e-02,-6.130755971682788630e-01,5.762474653584408468e-01,8.188714308929931698e-03,-2.017044103049916211e-03,2.889339288548162243e-03,1.030133128166198730e+00
-1.568039626081693672e-03,-5.916612970524590676e-01,4.563950313395926939e-01,3.836984766560953483e-03,5.320142894045417487e-03,3.171279561760885577e-03,9.101320505142211914e-01
-1.064415869383069507e-02,-5.973153854395202300e-01,4.512293794583834838e-01,-4.063811640568311574e-03,4.878148833046973276e-02,8.657059141479871156e-03,9.142709970474243164e-01
-1.537346927942690247e-02,-6.176378322390755349e-01,6.003043559612033508e-01,-2.366130304164245149e-03,-9.914807857033854782e-04,5.631360636794452423e-03,1.054844617843627930e+00
-6.578463850117900746e-02,-5.992625509900360026e-01,5.556258660204583810e-01,1.220433116572405960e-03,-2.075892166329641395e-02,7.356698183891422979e-03,1.001857280731201172e+00
-9.702322930947249180e-02,-1.282894249057623948e-01,8.564779907405746240e-01,9.626630089629641118e-02,1.327340994239895738e-02,-1.234437651768209993e-01,1.006975531578063965e+00
-7.164499980678099011e-02,-3.303273921775388144e-01,6.687971892977832011e-01,1.019766064085926016e-01,-1.752629274543312729e-02,-1.850440960021819750e-02,9.164371490478515625e-01
-1.600962218562555772e-02,-6.057485695814669446e-01,4.898228037584700933e-01,1.588738479400385317e-02,-3.110375031531807666e-02,1.395558542554987611e-02,9.519513845443725586e-01
-7.122770278816034639e-02,-7.194391129118783423e-01,7.224792989619799322e-01,-1.205135353518182366e-03,-7.573468228555126081e-02,1.498544841101507458e-02,1.257984161376953125e+00
-3.924370167357874029e-02,-5.887950926096925386e-01,5.213997893402123607e-01,-8.223716137082203934e-03,-2.602806357503021500e-02,-1.154621547190306206e-02,9.628424048423767090e-01
-6.831213004210376361e-02,-6.095021525635354598e-01,5.982325269301038695e-01,-5.387842973026777532e-03,-2.168794094621361371e-02,-8.468600019873456786e-03,1.048622488975524902e+00
-4.382943760498264618e-02,-6.295943781801015549e-01,6.258626305247646515e-01,-2.915432963630165165e-03,-1.775831985620239181e-02,1.460431258856440852e-02,1.088807463645935059e+00
-4.643615360551183596e-02,-6.024307770977372911e-01,5.634522294843440360e-01,-7.202927227368729340e-03,-2.879962628631736743e-02,-1.004257130649484527e-02,1.011501312255859375e+00
-5.456711662693223414e-02,-6.291721254181016354e-01,5.424682146836292684e-01,-5.151555069071384399e-03,-5.423403112133583226e-02,2.993371750813101376e-05,1.019109964370727539e+00
5.574881564090938824e-02,-7.173651997757518606e-01,3.397578006395105543e-01,-1.764857356225846274e-02,-2.448858248316165276e-01,5.567488797624847718e-02,1.043110013008117676e+00
-4.074101325061734585e-02,-5.993702429191092307e-01,6.077690116772538342e-01,-8.535975189156377744e-04,7.328451933619508675e-03,-1.472737665299279734e-02,1.046767592430114746e+00
4.815678417705349101e-02,-6.487449831954715807e-01,3.381631112879839862e-01,2.471560548988758696e-02,-5.359379212486924809e-02,6.920805164489132744e-02,8.925807476043701172e-01
3.401580022217354227e-03,-5.387373601124234579e-01,6.112365508800058356e-01,8.119496649831201007e-02,-3.557235621992322488e-02,-2.221151196655893681e-02,1.008941531181335449e+00
8.489248198825793956e-04,-6.875746553832335906e-01,7.987683899904511886e-01,9.046362887001739572e-02,1.433035653123900313e-02,-1.150744303426667892e-03,1.298106312751770020e+00
1.593382535900825583e-02,-5.980336432472058705e-01,6.262185353009940281e-01,6.617718885434538401e-02,-2.202432321007610078e-02,-1.936417715847939258e-02,1.067622065544128418e+00
2.196388916808791197e-02,-5.936920305264803410e-01,6.012291902750389605e-01,1.186939830471894601e-02,5.489149457478282278e-03,4.597401168928203982e-03,1.035270571708679199e+00
-5.225383004253926489e-02,-4.108624560037602569e-01,5.622185736954193880e-01,9.870239169324215509e-03,-1.790884855375437026e-02,3.645472174380818674e-03,8.531271219253540039e-01
-1.097143313738310755e-01,-3.366490632029805474e-01,5.668928728190608668e-01,-6.639436508900940781e-03,8.657231085997335596e-03,1.550407182314188920e-02,8.148131966590881348e-01
-3.132392226073542341e-02,-4.551566118726828591e-01,5.927701758310486291e-01,4.288902451982957303e-02,-1.497282534969493310e-02,-1.382155731425391970e-02,9.167350530624389648e-01
1.070324080747974901e-02,-6.225054124375908327e-01,6.332088862108050664e-01,2.663804138717124070e-02,1.933996473868497068e-03,-1.216648325482809490e-02,1.088681101799011230e+00
-3.267292049201697170e-03,-6.387750811733018397e-01,6.465496797730860834e-01,7.374148591691325784e-03,-1.730442668852152270e-04,-4.228906797241169073e-03,1.113244295120239258e+00
4.896373451198776997e-03,-6.558100109866463745e-01,6.635685697598234789e-01,6.294288315543601631e-02,7.795180523763865256e-03,5.287363181849571428e-04,1.147884726524353027e+00
-1.894128060263927660e-02,-4.978685405704733613e-01,5.836176793484161296e-01,4.934319846623965757e-03,-2.641469231839087273e-02,-2.367913456709771353e-02,9.406800270080566406e-01
-6.927716877514963900e-02,-3.572607582734750320e-01,6.350369009773800810e-01,9.622530070336564323e-02,-1.349599289662161902e-02,-5.442411544089232472e-02,9.050049781799316406e-01
-2.353573486457804023e-03,-6.578367375072068368e-01,6.531008987587165748e-01,4.552152184631118835e-03,2.666522816870929569e-03,5.992665215337021969e-03,1.135389566421508789e+00
-1.718299072923666626e-02,-6.244122024981791919e-01,5.368326670491460062e-01,-1.600182482923794176e-03,4.907356254022944564e-02,-4.325062424814586637e-02,1.012382984161376953e+00
2.063754072255940056e-02,-5.370607231613928612e-01,5.692098497528212953e-01,6.994837443462765918e-03,-1.693628564781363144e-02,-4.538768274621625127e-04,9.585951566696166992e-01
-3.335057352523262270e-02,-6.070042629198544315e-01,5.811005211845901020e-01,-1.997698801256424933e-03,-1.075232588564009346e-03,1.338773000234119064e-03,1.029141187667846680e+00
-4.197196691398773216e-02,-6.098718804767552237e-01,5.904731630631226968e-01,3.386001579654020991e-03,2.668352922300593674e-03,-6.336079585580014703e-03,1.040114879608154297e+00
-5.267626216508784764e-02,-6.069671634749740363e-01,5.801461331268008559e-01,3.660988837700985838e-03,2.798372036003977936e-03,-2.376130520803360242e-03,1.028859019279479980e+00
-4.328563498559981348e-02,-6.216642524029188932e-01,5.809908177423001030e-01,2.023702095090237820e-03,9.087102394035352637e-03,-6.362755919935377327e-03,1.041965723037719727e+00
-5.203077264968560683e-02,-6.005254489214991720e-01,5.730614181243597338e-01,1.787092802965377673e-03,4.975772024819783215e-03,-2.392800436646513700e-03,1.017127037048339844e+00
-5.809507596473345581e-02,-4.771766658589213228e-01,5.974074534391160540e-01,2.375415408901584285e-02,-1.592768543564592474e-03,1.318524376451460541e-02,9.392784237861633301e-01
3.558831458839849943e-02,-5.629686051286965087e-01,5.744719748948070581e-01,6.567710234226061330e-03,-3.852950363156363439e-03,-1.391687911531121376e-03,9.855954051017761230e-01
7.247721433523879493e-03,-5.375664000890588712e-01,5.739020591648550385e-01,6.625127688244557451e-03,-1.048510804159961951e-02,-5.157970087974415299e-04,9.628619551658630371e-01
-1.431333977652468614e-01,-1.433816803679199836e-01,6.401137208594742667e-01,-9.462202938953030631e-04,-4.988518253641390388e-04,-2.901512719171301172e-02,7.849838733673095703e-01
-1.044327668565159795e-01,-9.907001914410998311e-02,5.638807086549655345e-01,3.307011718434257203e-02,5.633075781963007775e-03,-3.039715426972225409e-02,6.702504754066467285e-01
-3.608343985636031093e-02,-6.080962508796523558e-01,5.808735667711749651e-01,-1.039368130528202372e-02,-4.404905221451304968e-03,-7.478174950349520192e-03,1.030190229415893555e+00
3.688131816815366781e-02,-5.577077271501104105e-01,5.665745872934347949e-01,1.936541055136119585e-03,-2.349152883669029628e-03,-5.442799945219535572e-04,9.742122888565063477e-01
-2.705907187662887851e-03,-6.010558388451322509e-01,5.966774084467001416e-01,2.894788081286979106e-02,7.629584409015364131e-03,-1.144121715448591543e-02,1.038751721382141113e+00
-8.831005111089113013e-03,-4.269993017740332242e-01,5.497381393612403855e-01,1.006509255016297712e-02,-3.889080137432744059e-03,-1.826758333715793438e-03,8.489990830421447754e-01
-9.529686191289923891e-02,-3.737310977548413127e-01,5.684755056257065897e-01,2.606380568911569485e-03,-7.525939126233011610e-03,-8.550715759054597354e-03,8.386572599411010742e-01
-5.227228150494850345e-02,-3.302693664625289127e-01,3.133202247762716386e-01,-4.487639705947118335e-02,-5.593086585328219812e-02,-4.126869377253472582e-02,5.771565437316894531e-01
2.807848784809261269e-02,-5.827262291825341389e-01,5.819799521032571477e-01,1.232378548358560501e-03,-4.321210198759246960e-05,2.252021588525364177e-03,1.009076118469238281e+00
-1.349432326666302751e-01,-1.136449538605121545e-01,8.889632499260622378e-01,1.794631177436570996e-02,6.605547079781806663e-02,3.977497462250143001e-02,1.022659778594970703e+00
-1.433009761643173341e-01,-2.285698289887384549e-01,6.704749628061109634e-01,9.322579123114942828e-03,-1.709788197345718606e-03,-2.198066643673080370e-02,8.605874180793762207e-01
2.764641755915438204e-02,-5.770437981970900632e-01,5.824390259516674107e-01,1.053781316828521263e-03,2.222752939750483471e-04,-2.196821759309513546e-03,1.004460453987121582e+00
-2.669813051501310902e-02,-6.188412911264452587e-01,6.046886376602026436e-01,2.066221182664390425e-04,-2.461604096455163350e-03,4.373503201597127928e-04,1.059798598289489746e+00
-1.290637622122552952e-01,-9.675678495079564900e-02,7.771865724914078788e-01,7.676977269950009675e-02,-8.790295901708358728e-02,-2.761405385941939628e-02,9.144421219825744629e-01
-7.124235253482774644e-02,-2.204149386440590330e-01,5.426514805320790114e-01,-2.658393675416060534e-03,2.824981654699240327e-02,5.726353406534728796e-02,7.091875076293945312e-01
1.001784033248760437e-03,-6.076763746973604663e-01,6.069474826932341749e-01,1.883264269188646796e-04,-7.880187238816026285e-03,-6.373904855473368908e-03,1.052042484283447266e+00
1.618318000787343641e-02,-6.009550258322504668e-01,6.009619299684237914e-01,2.258574081168346522e-03,-9.424525220721785904e-03,-1.167536097755372294e-02,1.041348099708557129e+00
2.077988747650175508e-02,-5.860293660449858999e-01,5.910871456950849145e-01,3.060217237454941619e-02,-8.121389384693381008e-03,-5.800541426594142159e-03,1.021099328994750977e+00
-9.184905781781158018e-02,-3.284623950171871032e-01,5.555197386816970173e-01,-6.979309895973664565e-03,1.045433772652815813e-02,6.361536088669754799e-03,7.929967045783996582e-01
1.157566462237216362e-02,-5.905843545076565615e-01,5.939323087091653575e-01,6.430629032102465857e-03,-9.484577889083673982e-03,-7.847304039146586405e-03,1.026151299476623535e+00
-2.704127231508776999e-02,-6.123868506587115679e-01,5.989392474671461075e-01,2.061968146414827271e-03,-3.107618682721980871e-03,7.677992197350322519e-04,1.049256682395935059e+00
2.046646741809119222e-02,-5.902560024165094399e-01,5.919459554921969735e-01,4.098928063836987726e-03,-6.933038042628984418e-03,-7.397234727637337463e-03,1.024180054664611816e+00
-8.439052669638895388e-03,-6.008817504028631795e-01,6.046533873066634035e-01,-9.391782525392280674e-04,-5.499342486743464924e-03,-2.271152629478952710e-03,1.044127225875854492e+00
-2.182739267237678374e-02,-6.111690502869602248e-01,5.953434261407154482e-01,-1.473027283904200079e-03,-6.793882601763922766e-03,-1.296931752916496636e-02,1.045273900032043457e+00
-2.192614256966242403e-02,-6.114983588558842165e-01,5.956830413069604813e-01,-1.653726877041009373e-03,-1.767760644603046886e-03,-1.460400921826212684e-04,1.045552134513854980e+00
2.191825920413573159e-02,-6.176116527594678329e-01,4.292035778907770105e-01,1.123323727413336887e-02,-3.243409999016557549e-02,-6.282807923148369875e-03,9.159715175628662109e-01
-3.098477064841264478e-02,-6.105990016217082150e-01,5.966272784806271323e-01,1.501097817386813681e-03,-2.582648032503567868e-03,-1.756398112407039566e-03,1.045781254768371582e+00
-3.067400251600720107e-02,-6.227336834652881237e-01,6.051729406436876513e-01,-1.351370031803930151e-02,-3.762578691481896303e-04,5.375109880075275119e-03,1.063922166824340820e+00
-2.969514918324120401e-02,-6.100346900319585375e-01,5.668281957814653715e-01,-7.539027996067156068e-03,2.578073957168178654e-03,-8.257776427735261148e-04,1.019319653511047363e+00
-2.592746623053397703e-02,-6.154717776013800545e-01,5.799764090074778222e-01,-8.359601844784679200e-03,6.502302648721610019e-03,-7.096226677309176376e-03,1.035556197166442871e+00
-3.183579052383512381e-02,-6.103168605068107766e-01,5.835862853110753701e-01,-6.893789275086954944e-03,7.072969570852020299e-03,7.486628024006765705e-03,1.034338235855102539e+00
1.591209778278693948e-02,-5.846552585454669604e-01,5.954816253178302210e-01,-4.600375461458085236e-02,-3.993710121579046451e-03,1.911882632672847609e-02,1.025741696357727051e+00
-3.326728044270388374e-02,-5.547739618144428286e-01,6.630577436037298211e-01,-1.121811977749587741e-01,6.643939303269862096e-02,-1.446972231842860550e-02,1.082404971122741699e+00
-1.022049397171070628e-01,-2.385892725404628600e-01,5.365601193910100042e-01,8.410013496867652094e-03,4.779536342873850216e-04,3.214013479140523204e-03,7.169259786605834961e-01
-2.711340644606313743e-02,-4.109826375595656001e-01,5.890428770639138945e-01,-7.719778105200245100e-02,-6.838316584815895029e-03,1.388916758861433697e-02,8.843783736228942871e-01
-2.739715983243948272e-02,-3.989367836093917208e-01,5.695592521203238778e-01,-7.757027555796958129e-02,3.700139742974263026e-04,1.141096427227944639e-02,8.571079969406127930e-01
3.347281354325421995e-03,-6.063580158291966837e-01,5.971666014066713268e-01,-1.852678328671912913e-02,-9.384065159739762461e-04,5.487503595244552779e-03,1.042851567268371582e+00
2.915915881083559064e-02,-5.744995699813106871e-01,5.911589282880226337e-01,3.864505955987701524e-02,-4.152887679993278770e-03,7.752133389992132148e-04,1.011947393417358398e+00
-8.178943894097828043e-03,-5.219960992631803576e-01,5.847492132491699524e-01,-2.498354255776400953e-02,-8.093493829293828268e-03,6.267162322402757869e-03,9.604246020317077637e-01
-1.111643576254528823e-02,-5.282371656694461182e-01,5.929472943822923225e-01,-5.234067274044548052e-02,4.699593604804619754e-03,1.421321810973514817e-03,9.762026667594909668e-01
-8.876632498681963357e-02,-1.422201502515408889e-01,5.899227203125829710e-01,1.343431184012741642e-01,-3.794141169304747485e-02,-1.010927657365403715e-01,7.673830389976501465e-01
-7.953668373305021119e-03,-5.677959051563080672e-01,5.926324684939567877e-01,-1.973996841210921664e-03,-1.159315295756391424e-02,9.564972153615680650e-03,1.005509734153747559e+00
-5.340378021225087452e-03,-5.773933677496188022e-01,5.937467660383091150e-01,-1.094749848296960003e-02,-1.147203515405425221e-02,9.647535156992211383e-03,1.014836549758911133e+00
-7.104591422474326734e-03,-5.489946499067293040e-01,6.074250914769778742e-01,1.174196494681089553e-01,-1.574844782001344132e-02,1.738996932661119460e-02,1.023382902145385742e+00
3.552692942348664035e-02,-5.375763803765312154e-01,5.642470156883548915e-01,1.354684099952982619e-02,1.513430638260009802e-03,2.333955869762166773e-03,9.547656178474426270e-01
-3.290374358169221441e-02,-6.090225473058943351e-01,5.786268609160202248e-01,-5.724547070194463058e-03,9.509270497659815218e-05,1.511813988034367952e-03,1.028738021850585938e+00
-2.023222905548816702e-02,-6.135129133165935222e-01,6.137005739150656058e-01,1.332285754963202741e-03,-7.179841177187189574e-03,-3.669977221496692563e-03,1.063086628913879395e+00
-2.665066526158412635e-03,-5.826503919741374826e-01,6.001601690995109761e-01,-4.021153296108043976e-04,-6.542478103699200277e-03,-7.814129285492495483e-03,1.024559974670410156e+00
-1.081352183842606562e-01,-9.792327078232215820e-02,8.029985555505133599e-01,1.997526839489475667e-03,1.216087638100763479e-01,-9.409179741697380750e-03,9.303807020187377930e-01
3.806505157011842722e-02,-5.607223474905271843e-01,5.740201076751141329e-01,5.392328920323243013e-03,4.217141677077290707e-03,-1.693673745955522319e-03,9.832937121391296387e-01
-8.895489334796133005e-03,-5.876650296751495528e-01,6.070882538689945651e-01,4.674477431737189201e-03,-1.405532282993001911e-02,-7.685796634152566344e-03,1.035257577896118164e+00
2.972414166911233058e-02,-5.438972975054247039e-01,5.657741337585148189e-01,7.151196798797001056e-03,-1.877344580361593610e-03,-1.749996212541534910e-04,9.612725973129272461e-01
-1.017693589712401203e-02,-5.830345301513154554e-01,6.065747183656226005e-01,8.625416738829960435e-04,-1.432405401223796511e-02,-7.270714310309910750e-03,1.030842185020446777e+00
2.240295072335047460e-02,-5.162592476901598504e-01,5.578750836945864933e-01,4.157263599169003059e-03,-9.379891853577832341e-04,-1.073251346213792987e-03,9.302601218223571777e-01
-1.886129204626101757e-02,-6.126339837356744589e-01,6.211400612680770816e-01,1.863694819217546822e-03,-3.925160731715520226e-03,3.458583119217211398e-04,1.068756341934204102e+00
-1.181181742283541475e-02,-5.746889718832263183e-01,6.069190561667018313e-01,5.433930184717565039e-03,-2.396082879868933341e-02,-1.387128459787676654e-02,1.024849414825439453e+00
-1.851522395036132168e-02,-6.033253852969784337e-01,6.038827612594642735e-01,4.295809353720010659e-02,-2.533012751846151420e-02,1.166303487417870086e-02,1.049397945404052734e+00
1.507720691523159809e-02,-5.165552078679725989e-01,5.619434846817442653e-01,1.469396690519794539e-03,1.270341165001919598e-02,-1.086079372056082768e-03,9.343028068542480469e-01
-8.055583194813725756e-02,-2.627724245450854257e-01,7.547012140199703678e-01,1.437340579663108631e-01,-1.006784623990483185e-01,-9.564765533463688574e-02,1.001442551612854004e+00
-1.133211159625047842e-02,-6.091903422525761780e-01,6.071637713163190453e-01,7.600321198545487503e-03,-9.622891185436978009e-03,-6.637518255111931817e-03,1.053720951080322266e+00
1.670654202761604964e-02,-5.648290769639412456e-01,5.777939387977010233e-01,1.208202724489416957e-02,9.727483141314375442e-03,-2.251594152966145818e-03,9.899656772613525391e-01
-1.265559328997804996e-02,-6.041753341993834070e-01,6.110056936930247096e-01,-1.105996745295127412e-03,-9.898903981927744539e-03,-4.207927372651559003e-04,1.052641987800598145e+00
-2.424340584690982264e-02,-6.103736640666069801e-01,6.073969346594402241e-01,-3.449444507342419673e-03,-7.234696603925070205e-03,-6.979273581592252904e-03,1.055026292800903320e+00
2.670036990917957001e-02,-5.840806818239437925e-01,5.807317568991734458e-01,-6.186024000054484231e-03,1.200933967642809361e-03,1.431339747685489916e-03,1.009218215942382812e+00
-3.862733513406960140e-02,-6.141943211106289935e-01,6.143992089823381297e-01,-1.016319818381154066e-02,3.718796868073699635e-03,-1.574992450059067373e-03,1.064866304397583008e+00
-2.814507962483480882e-02,-6.124151837339163462e-01,6.157226243529650977e-01,-4.159366980096583163e-03,-3.359116040069694026e-05,3.408792488495057671e-03,1.064056634902954102e+00
-2.268410519982225551e-02,-6.139617032017808951e-01,6.190418469364596943e-01,-1.908389393162716928e-03,-9.560347849496417943e-03,-4.132513581759466974e-03,1.068267703056335449e+00
-2.447554095607426886e-02,-5.925325543247219606e-01,6.071934425277440983e-01,-2.420089422033539026e-03,-1.556094989156946162e-02,-1.329760757709310022e-02,1.040092706680297852e+00
2.929393929131703100e-02,-6.247161468235903348e-01,6.046367372299693566e-01,4.985871430947140526e-02,1.128070554143937232e-03,-2.274328481519866454e-03,1.068880558013916016e+00
-2.756200998601403274e-02,-5.334792862527930613e-01,7.035283489502587306e-01,1.208247835523494906e-01,1.196901786429874354e-01,5.001037022187644621e-02,1.120086073875427246e+00
-3.492500185070022967e-02,-5.910237952470719369e-01,8.203510535148123006e-01,1.161856161976283081e-01,1.543965101516120153e-01,-1.673409426914678963e-02,1.276406407356262207e+00
-3.489423097419418196e-02,-5.906517511260783726e-01,7.307503244290778355e-01,1.561946086790657606e-01,3.953751001599511289e-02,6.908968580169835491e-03,1.182630062103271484e+00
-8.260199000298745764e-02,-3.520527439041837847e-01,5.679069180476902234e-01,6.709488230955607500e-03,-5.800673279133678958e-03,-1.518646069444627537e-02,8.197399377822875977e-01
2.790356722348086294e-02,-6.228983965485498375e-01,6.309168522537104140e-01,5.330232491104953951e-02,-1.002000491640117966e-02,-1.817680576585249674e-02,1.090608239173889160e+00
2.393704243161755979e-02,-5.579164531988272113e-01,5.799594996253545354e-01,-1.875464054005865355e-02,9.118228171531179158e-04,-2.350874453819839973e-03,9.860590100288391113e-01
-1.813615772565442541e-02,-5.798758155228683764e-01,5.956934294876646829e-01,-1.025196072070078124e-02,-8.619313337801165487e-03,1.003478811079275973e-02,1.018818378448486328e+00
-4.272543284260024721e-02,-6.100717444002013989e-01,5.889399681475973036e-01,2.193036665830325974e-04,-4.050411274935390715e-03,1.720269736325966310e-03,1.038900494575500488e+00
-1.100394087899622675e-01,-4.221337196631175237e-01,9.890378265796362367e-01,2.037695207937423592e-01,-4.633722666785723698e-02,-2.464732657141213007e-02,1.334623336791992188e+00
-2.710711962292337851e-02,-4.212166506977413349e-01,5.600356907511699900e-01,-9.006013751334134010e-03,-7.990487421308291316e-03,-2.334754741012654965e-03,8.555166721343994141e-01
-7.053664721884037037e-02,-2.706103195839933973e-01,5.607256347174105482e-01,-1.139346795718797073e-01,1.251171832242377602e-01,2.202073921182091942e-02,8.075775504112243652e-01
3.465391118825439376e-02,-6.775231950265135916e-01,4.354974041264123574e-01,-3.717778887495989254e-02,2.158334198450286567e-01,1.792562020478628273e-03,1.047497868537902832e+00
1.129868818445726834e-02,-6.541906429277203339e-01,6.442385152752428956e-01,7.762818194735929267e-02,2.246935193546482218e-02,-3.437972081824317017e-02,1.134831428527832031e+00
-2.949904923623677955e-02,-6.125912327130259571e-01,5.969503022571264195e-01,-7.948216039412779599e-03,-2.381933107319007988e-03,-2.938041659086522515e-03,1.047828912734985352e+00
-3.968621517023929179e-02,-6.072534126999935555e-01,5.770480637274566504e-01,3.689754984530813596e-03,-3.839054125587388309e-04,-6.853949562358077445e-03,1.026018500328063965e+00
-2.263055060784669587e-02,-6.121474068058446738e-01,5.923878498643477819e-01,-5.871712799029931915e-03,-3.598964158707660798e-03,3.264292857364803628e-04,1.043304443359375000e+00
9.822616439598315374e-03,-5.347200324396325088e-01,5.797563368352256497e-01,-1.615205623840126675e-03,4.562974774969276166e-04,2.315388272327292916e-03,9.652610421180725098e-01
-1.943326147389065617e-02,-6.078847815936159193e-01,5.922649976362542867e-01,-1.375039899500305179e-03,-7.691480308682271255e-04,3.065484252578967554e-03,1.039442300796508789e+00
-3.230776995006175156e-02,-6.132295680134824956e-01,5.956062655033187436e-01,3.661311271483635478e-03,1.476134885079329745e-03,-3.008700625225281707e-03,1.047181487083435059e+00
-1.174609391990340812e-01,-2.639148015703738914e-01,5.477957064341951732e-01,2.811735541465936426e-03,5.443496839113011639e-03,-1.059897295894007309e-02,7.495959997177124023e-01
2.966913107377965042e-02,-6.126474376610443473e-01,4.483116139216357099e-01,7.458982595798431710e-03,7.812082831437366578e-03,-2.977332940156680180e-02,9.272229671478271484e-01
-6.320614287298297052e-02,-4.332020837108104816e-01,5.769041073806235875e-01,-1.362327919594142137e-03,-1.600791407329613808e-02,-1.040120823895600635e-02,8.857625126838684082e-01
-1.679296462074295060e-02,-6.224984798737247527e-01,5.967615210109222801e-01,-1.185292931295176726e-03,-5.733732627571225086e-03,1.142728620704276665e-02,1.056151628494262695e+00
-6.632347693768265995e-02,-3.901300462405985492e-01,5.674235370369411502e-01,6.830418831752274253e-03,7.289207228612574856e-03,-1.218396803004320565e-02,8.440628647804260254e-01
-1.127026962070684646e-02,-6.389691755148588781e-01,5.313573962124991112e-01,-5.741465913089888184e-02,1.353384693043283848e-01,4.038098905310648877e-04,1.045895218849182129e+00
-2.316004139098409506e-02,-6.176815002653448516e-01,5.985818133445743872e-01,-2.473400493040739910e-03,4.095514463759591245e-03,2.402992991107329949e-03,1.053443670272827148e+00
-9.352995001388073049e-03,-6.109915026679608729e-01,5.202083766308526203e-01,-9.033085392884247430e-03,3.103836390037837192e-02,6.786248268764981557e-03,9.819784760475158691e-01
-3.824904448361143849e-02,-6.176357113722384939e-01,6.043648545275147610e-01,2.707955556882813471e-03,2.300121198965306840e-02,-1.158981705692565048e-02,1.059705376625061035e+00
-5.420470655441309016e-02,-3.575637389591487802e-01,5.469443799019327868e-01,1.107634660393119752e-02,1.406296182685175082e-02,-4.899253709234115128e-03,7.980001568794250488e-01
3.140950231257882974e-02,-5.746533678763128261e-01,5.827046796211950985e-01,1.294114738209476735e-02,2.397904747712409964e-03,4.910586239515384727e-03,1.002970695495605469e+00
-8.770128124846031381e-03,-4.977193128466590455e-01,5.754012118930800224e-01,-2.127143987592981442e-02,1.873661782181671939e-02,-1.752312750549441314e-02,9.323568940162658691e-01
-3.383548378720725724e-02,-3.872044071826153400e-01,5.621540646591011159e-01,-4.585430575788922852e-02,-1.039724023143888225e-02,1.207809144092608297e-02,8.353126049041748047e-01
-7.458472600171101030e-03,-5.107230420937081128e-01,5.770662715971329737e-01,-2.316829593117982616e-02,-1.058091116245503567e-02,-5.667408728344851092e-03,9.440113902091979980e-01
1.826610089871413822e-02,-5.591903631111383444e-01,5.731855384799384723e-01,1.026293053814760631e-02,6.402303566923835815e-03,7.718973028082270734e-04,9.809557199478149414e-01
-5.083222398217041027e-03,-5.058960421567970656e-01,5.757903982962714329e-01,-1.839047410496427032e-02,-4.502109043751845695e-03,-2.392059258921529381e-03,9.382053017616271973e-01
-8.145360060353129539e-03,-6.112317323370638489e-01,5.139945039000269889e-01,-8.010971510619861041e-03,-8.128881347828218612e-03,1.125967026274740136e-02,9.757098555564880371e-01
-2.765928926245640046e-03,-5.819538928320016069e-01,5.969025131414837926e-01,1.916733867588413590e-02,8.775590113599780404e-03,1.620745855946656086e-02,1.022009253501892090e+00
1.793397030670062717e-02,-5.582828034541953421e-01,5.816318783510142643e-01,-1.333974575177551865e-02,-1.170242933361104925e-03,2.663981526289070103e-04,9.874874353408813477e-01
-3.830386494866978159e-02,-6.115766621627772848e-01,6.120782192230002083e-01,-2.247646860007786185e-03,-5.842895198215265241e-03,3.267656146366442697e-03,1.060487866401672363e+00
-2.809322380871008551e-02,-3.848492244110308658e-01,5.655232180135815190e-01,8.393029313869442010e-02,-1.869295998882695726e-03,-1.144820137782257344e-02,8.443743586540222168e-01
-1.944303789774174535e-02,-5.687232596360228820e-01,5.975980042784214685e-01,-9.961454778300323290e-03,-8.388364774921568470e-03,-7.017279391942381726e-03,1.010956645011901855e+00
-2.356860379632932587e-02,-6.128880655269528521e-01,6.149703564612443163e-01,-2.680463116356895936e-02,-5.927013830098594536e-04,1.149845547613822551e-02,1.064840793609619141e+00
1.525319185818148522e-02,-5.538762865031788829e-01,5.762495088937716892e-01,1.493486357588913157e-03,1.115904415633194556e-02,-2.923050199569732222e-03,9.789334535598754883e-01
2.098460196596887983e-03,-5.861668951541225692e-01,5.947855190767586953e-01,-1.082879784522437772e-02,-1.857244100458897143e-03,-3.674472788784075624e-03,1.022933959960937500e+00
-3.572263744565974675e-02,-6.496036989643176884e-01,6.662321616828511539e-01,-1.056523700901049190e-03,1.653192264531292864e-05,1.567687540748383254e-04,1.140399336814880371e+00
-1.705538650909377285e-02,-6.150436552271559831e-01,5.871970757958886455e-01,1.454628615343661353e-03,7.947606878336610546e-04,-4.773077871339069175e-03,1.041212558746337891e+00
-2.494730068766189135e-02,-6.209350963080522146e-01,6.074295838342230747e-01,-4.874991993236061499e-03,4.931066960057676595e-04,-7.286215991328139768e-03,1.064059257507324219e+00
-1.692920971910675393e-02,-6.033196831495777346e-01,5.450503308907613809e-01,-6.372876661071650087e-03,2.341445431241777689e-02,-1.551547761932178977e-02,9.958428740501403809e-01
3.219447078482491620e-03,-5.995431645654677455e-01,5.907190902805614652e-01,1.409499857658817745e-02,2.454859613463102573e-03,3.683646582336138134e-04,1.031123638153076172e+00
-2.330235867431696903e-02,-6.298211843548170430e-01,6.364903031923268006e-01,1.119134325089092205e-02,1.154573459991383583e-02,-5.022796295485641542e-03,1.097369313240051270e+00
-2.633325099655280457e-02,-6.122641106685886569e-01,6.099178450140786412e-01,-4.863763085201758089e-03,-3.582130929696524836e-03,2.843964966970570930e-03,1.058802723884582520e+00
-3.275428206711429591e-02,-5.886459465891440423e-01,6.049397431135076220e-01,6.606987227650200703e-04,-5.188565710335419842e-03,-1.097569902096708419e-02,1.034698724746704102e+00
-2.375632969034893044e-02,-5.946220995550919319e-01,5.822896796887184756e-01,-1.000530808769272166e-03,7.021274007842117672e-03,1.254590380324930926e-03,1.019463658332824707e+00
-1.634361381335657989e-02,-6.150982445013629674e-01,5.631420972166517602e-01,-1.021404494734416170e-02,-3.040971672987294316e-03,2.136043703452850454e-02,1.021268844604492188e+00
-3.044509228107412577e-02,-6.138049124871443052e-01,6.198515905501531531e-01,-5.683167937695357379e-03,-1.290017429027786634e-02,-5.281177892191114137e-03,1.069219946861267090e+00
-1.164024252746254443e-02,-5.756209447685597391e-01,6.065525839231835636e-01,6.465534950704596856e-03,-2.373715185819897863e-02,-4.138016765908372752e-03,1.025062203407287598e+00
-3.556249455841881124e-02,-6.671212355025961660e-01,6.876572090501449352e-01,-1.698498462810258758e-03,-5.636204243567057709e-03,1.107829128748241947e-03,1.174213171005249023e+00
-2.152241421607730548e-02,-6.187855311850214424e-01,6.121666828927674331e-01,1.649318648483605939e-04,4.043780776597189841e-04,-5.121274124694538861e-03,1.066228628158569336e+00
-9.580888672233410508e-04,-5.951577447931036824e-01,5.106641124742478111e-01,-5.311637758773850304e-03,7.910130707787624976e-03,1.653712414082723556e-02,9.591293334960937500e-01
-2.206722448188067759e-02,-6.126599660787237500e-01,5.613032026145905462e-01,-8.336858017942608279e-03,1.189190733390956163e-02,1.574095713199697225e-02,1.017364859580993652e+00
-6.223606773113966872e-02,-4.624205284577210806e-01,5.823824521484093353e-01,-9.556651985605728317e-03,5.315543509449511053e-03,1.260087254292426885e-02,9.134998917579650879e-01
-2.555185696540716173e-02,-6.162748399284360135e-01,6.065404675838473869e-01,1.432159865145115609e-03,-1.856751525729957416e-03,-1.585970218285724914e-03,1.059202432632446289e+00
-1.569976262007066400e-02,-5.824553031281076709e-01,6.063570500836840127e-01,-3.688986558698077386e-03,-8.631799600014818108e-03,8.656624487094390780e-03,1.030150413513183594e+00
-3.057568897642065631e-02,-5.096592518275527839e-01,5.848083613967604011e-01,-5.113217003476029122e-03,-1.242436817671739233e-02,-6.334066474311355124e-03,9.506317973136901855e-01
-2.420613556472546446e-02,-6.172313101622639575e-01,6.064121730379145037e-01,1.160390509492681627e-03,-9.759335896126703283e-04,-1.027638481837869723e-03,1.059877753257751465e+00
-4.610088644896292998e-02,-5.239779727678345322e-01,5.946356949649961310e-01,1.155749366185200838e-03,-1.401946178624178391e-02,-1.122315434919456470e-02,9.726637005805969238e-01
-6.784774530599305131e-02,-3.712388268163314686e-01,6.549626768566965129e-01,-1.428025932388317931e-01,1.076222259415548447e-03,6.451570623073163424e-02,9.526087045669555664e-01
-6.170756828706207286e-02,-3.093133389683626611e-01,5.540146912839523097e-01,-1.860911028031054506e-03,8.823736029743105974e-03,7.344404031990460317e-03,7.702497839927673340e-01
-3.256570396324375005e-02,-6.122567146264431548e-01,5.877445953197858453e-01,2.240385033288777236e-03,4.280053065334759980e-03,-4.080023910426850775e-04,1.039463996887207031e+00
1.315416276610925639e-02,-6.130990045400228627e-01,4.437829208076555232e-01,-1.555281764021744853e-02,1.944467206397094278e-02,3.490959464883151842e-02,9.234894514083862305e-01
-2.641345733067985632e-02,-6.163480899314629502e-01,5.973702352671448335e-01,2.836182659060975959e-03,-6.828951567588966483e-04,1.429392143252962259e-03,1.051262259483337402e+00
-2.575471418132395385e-02,-6.061881924285128509e-01,6.000960910156261097e-01,-3.872677209108020329e-04,-6.414835699188082239e-03,5.519386648248263486e-03,1.045022606849670410e+00
-2.576848919312441782e-02,-6.124597751184024386e-01,5.967635498015469997e-01,-1.495439519949362962e-03,4.004848570337869902e-03,2.839753143578871864e-03,1.047409176826477051e+00
-2.574349361297907993e-02,-6.112628813909640746e-01,5.994268040790730057e-01,1.038008843647252304e-03,-4.371649687270439365e-03,1.702559974114178616e-03,1.048708438873291016e+00
8.199939760599767036e-03,-6.175489053350839974e-01,4.625443041476782202e-01,-7.819806481149599656e-03,-1.822572085355504343e-02,1.810801342783762563e-02,9.404571056365966797e-01
-1.747893976113826242e-02,-6.125479264858888495e-01,6.031974476030286247e-01,1.003740581646322266e-02,-1.037702983626703247e-02,-5.144473616749769846e-04,1.053241491317749023e+00
-1.279128264231018663e-01,-1.630514074479330611e-01,8.757394357577030775e-01,9.184137486418292307e-02,-2.466576146969080841e-03,6.105686477727521183e-02,1.039387345314025879e+00
-2.110299155884699795e-02,-5.933930805010455556e-01,5.822830565651561097e-01,-1.154657028143598815e-02,1.334112535054211152e-02,4.282549123046522702e-03,1.018769621849060059e+00
-2.811219526247495798e-02,-5.975286668687906921e-01,6.029695318360779321e-01,-8.304667397761782231e-04,1.350495545641593013e-02,-4.722515138966987269e-03,1.040415167808532715e+00
-1.107449466948700126e-02,-6.039438024462432386e-01,6.555219791066381196e-01,-6.940255699539990553e-02,-2.250071389887711281e-03,2.484526503669630057e-02,1.098802328109741211e+00
-1.922030559803483002e-02,-6.064445153068799277e-01,5.903967895703773339e-01,5.473088006919950592e-04,-1.076125939056919072e-03,-1.765682384752582414e-03,1.036562085151672363e+00
-3.402230152314670436e-02,-5.617674641804055735e-01,6.164247512613163504e-01,-1.714377410028151971e-02,-5.412470374889350285e-05,2.423011957967441052e-02,1.023479223251342773e+00
9.128846035912182438e-03,-5.880580506622360426e-01,5.855576674369231682e-01,1.398853842468531818e-03,7.874687944376955115e-03,2.550889301264899073e-03,1.016538023948669434e+00
-1.992021514195051884e-02,-6.159812758573189884e-01,6.012672867066358728e-01,-1.028188716387938963e-03,2.644606738104781588e-03,-3.381786578305890061e-04,1.054254651069641113e+00
-7.944452763772340276e-02,-5.817675406566009677e-01,5.731839972827149632e-01,-2.707998553928547825e-01,1.666657789322896210e-01,5.940628238844768150e-02,1.148912549018859863e+00
-2.500041752209749765e-02,-6.155190978783702249e-01,5.954391942920063130e-01,-3.570631118311600859e-03,8.889862200378801987e-04,1.216231045880400517e-03,1.048848867416381836e+00
1.144642313097524872e-04,-5.544993111946666664e-01,5.819829074582626438e-01,-2.245389546277241737e-03,1.832245946981953325e-02,-3.629370599229602822e-03,9.848560094833374023e-01
-6.762077134382027226e-03,-6.030906674159312031e-01,5.948848356702225448e-01,-1.727499236129653335e-04,6.289761919516917085e-03,2.088562901421007253e-03,1.037544131278991699e+00
-1.176615096497950728e-02,-6.267217223495967771e-01,6.359386693195111517e-01,-3.116190609768474534e-02,9.271265504921763143e-03,1.893539601870270969e-02,1.095558404922485352e+00
1.590433420336844622e-02,-5.828388987287701495e-01,5.821684833495957001e-01,-2.583252485687889937e-03,-1.343179892706006240e-03,5.269071802834830905e-04,1.009069681167602539e+00
2.547385877868567003e-02,-5.837386946782711084e-01,5.810012336125658372e-01,-5.830492697961436530e-03,-5.110573874423623552e-04,-1.684043384023182046e-03,1.009106636047363281e+00
-2.159307053054046119e-02,-6.020911331504422703e-01,6.340387528195298161e-01,-1.122063520869582831e-01,6.798462622914494546e-02,-1.078054293052215645e-02,1.095175504684448242e+00
-7.704039682536866634e-03,-5.873425031356120929e-01,5.887266871384019273e-01,-9.552333763164823355e-02,1.077849702880699645e-01,-1.230930386286954205e-02,1.048859357833862305e+00
-6.689023836043622717e-02,-2.998257713410343306e-01,4.759966727345918969e-01,-1.991834897944979865e-01,1.509719258290476152e-01,4.908278639792598708e-02,8.185780048370361328e-01
-2.725804946225591011e-02,-6.285432122673204614e-01,6.081800576881517539e-01,5.156907222792088234e-03,6.444655462581712173e-03,-4.539929988847170653e-03,1.071294188499450684e+00
-2.965310709106652037e-02,-5.575580360582401696e-01,5.970721424065221772e-01,-1.862605822611140209e-04,-1.449896284582877747e-02,-6.917667563839622301e-03,1.001545667648315430e+00
-1.987499624826358918e-02,-6.121963984806289005e-01,6.041904333117187331e-01,-7.064486958919256529e-03,6.969110521753785724e-03,-3.356561504906058896e-03,1.053697705268859863e+00
-1.823397272328219909e-02,-6.240846419135186451e-01,5.845803093047113874e-01,-4.080470663034720222e-04,2.729495476620246493e-04,1.483527309797155573e-02,1.047051310539245605e+00
-2.344314340986922846e-02,-6.166860820815016631e-01,6.015962877489188232e-01,1.438179040285251196e-03,-1.329541496749153362e-05,-1.957407183707252519e-03,1.055191636085510254e+00
-3.072189884691265555e-02,-5.575938248323351054e-01,5.971073408303032570e-01,-6.751546762609819674e-05,-1.373937749942133468e-02,-6.945032219325006362e-03,1.001628756523132324e+00
-2.728975962493013913e-02,-6.246616195007519412e-01,6.066298690743555655e-01,-3.043551992467029266e-04,5.022070642966649547e-03,4.696015006881841883e-03,1.066552877426147461e+00
-6.101807864688377214e-03,-6.033886183754121335e-01,5.169524331540557016e-01,-4.316425859236320585e-03,1.799920299187396724e-02,2.117439499077080831e-02,9.721746444702148438e-01
-2.455760951084101293e-02,-6.303142098378761160e-01,5.967004487553798642e-01,3.336253606146732161e-03,3.825971711583945039e-03,-7.457307111884692308e-04,1.062691330909729004e+00
-2.418981735576819503e-02,-6.171695050266613469e-01,6.042661037686117842e-01,1.847724714323546518e-03,-4.271010579797857726e-03,1.245399939418128038e-03,1.057975888252258301e+00
-2.622479338486664521e-02,-6.109658055798771192e-01,5.766013317517142411e-01,5.377407996425997982e-03,7.622788267173397254e-03,2.224504576158335429e-03,1.028637170791625977e+00
-1.064794341083788454e-02,-6.170278926910822692e-01,5.027117710071931089e-01,1.733640318215817419e-02,-1.516296228248767940e-02,1.551916709625036569e-02,9.720287322998046875e-01
-2.284887729348978117e-02,-6.338085222999892965e-01,5.969622969490288034e-01,2.371367029411413068e-03,4.040050868760027350e-03,-1.181418341363894668e-03,1.065920829772949219e+00
-2.682681786198484047e-02,-6.060681447366168539e-01,5.988440979755066396e-01,-1.407678982274315803e-03,5.755604822695700729e-03,1.316270558266869175e-03,1.043795704841613770e+00
-6.200554229329539868e-02,-5.245686734643385529e-01,6.005396484740227470e-01,4.664591770613684893e-03,-6.564773791689246588e-03,-1.063028225640714856e-02,9.797618985176086426e-01
-9.497160615259703231e-02,-2.719645031486014886e-02,6.355847137065984143e-01,-5.564524380025155648e-02,-2.048410694758282316e-02,2.480136976726813811e-02,7.079447507858276367e-01
-2.228454489817585302e-02,-6.160878613372888779e-01,5.867860201333139347e-01,3.837434748615925571e-03,-2.033888042120858206e-03,3.350163408866186320e-03,1.041790604591369629e+00
-1.158972729585756034e-01,-1.983349652058995494e-01,5.360030432548252843e-01,2.891437302279177557e-02,-1.042684447216203408e-03,-9.284490691485749146e-04,6.985879540443420410e-01
9.546882648271479144e-02,-5.814764885908408898e-01,1.595226282318355504e-01,-4.587604670502114235e-03,-6.334748893801095924e-03,-2.175143001035006671e-02,7.122651934623718262e-01
6.586658839709155777e-02,-6.008208971678018484e-01,3.347377474882025639e-01,-3.112585320721537614e-03,2.289654112771670816e-02,-1.164364601506144049e-02,8.354791998863220215e-01
7.714664391180245384e-02,-5.817639851955083152e-01,2.746644506187231882e-01,-9.746876907220987374e-03,-3.019167686888844793e-02,7.162946886586186307e-03,7.787789106369018555e-01
6.672183548815743825e-02,-5.828765841509060408e-01,2.513411029605659985e-01,-8.559117353604065717e-04,3.654350208682742573e-02,-2.397127328265703794e-02,7.627077698707580566e-01
5.225326553232899351e-02,-5.918235499486514950e-01,3.357986440181233156e-01,-1.424662057674571649e-03,4.102057355828860052e-02,-2.763515736935008571e-02,8.277699947357177734e-01
-2.702579865584655433e-02,-6.120897742360290605e-01,5.865425449329370045e-01,2.658455236922495184e-03,1.301409425567367703e-03,-6.241484146647302209e-03,1.038212776184082031e+00
-3.293133598899040948e-02,-5.694462992202257157e-01,5.705418158252851812e-01,1.234920547242598704e-03,5.048055553044666563e-03,9.955356336953298871e-03,9.880176782608032227e-01
4.219403633787506547e-02,-5.946207252358364226e-01,3.529501670907158606e-01,1.903327214479927539e-03,9.263178771336345874e-02,1.408362302907796224e-02,8.522583842277526855e-01
3.371159224201994431e-02,-6.125725852381768144e-01,4.354539781560659018e-01,1.167541176890602404e-02,-1.120144691917330723e-02,-3.774236136156106092e-02,9.185742735862731934e-01
6.910282113106011592e-02,-5.984218518846790014e-01,2.836592246784980786e-01,-1.474910735735813008e-02,-3.724703068914566543e-03,3.128453026198153158e-02,7.990467548370361328e-01
-4.948941623921725153e-03,-6.067922369501523860e-01,5.256494195298768712e-01,-3.897115937564846113e-03,-4.413093496721383520e-03,-1.022442657087000058e-02,9.815827012062072754e-01
-3.778896817984718493e-02,-5.784314016452156704e-01,6.024251515341341179e-01,1.789719584583253495e-03,-1.582719070287262782e-03,-6.314467044781763190e-03,1.023929715156555176e+00
-7.936029270501562816e-03,-6.073777028134057510e-01,5.342349792799440111e-01,-6.934859701792782556e-03,-2.390771292160411075e-04,-1.297753132452210585e-02,9.894085526466369629e-01
-5.519666083874556761e-02,-4.983537915222086001e-01,5.944664632372927970e-01,2.999697811694392209e-03,-4.398450448873522482e-03,-1.565844275724341886e-02,9.524567723274230957e-01
-2.865690202994589098e-02,-6.125429737283212273e-01,5.953476163174837854e-01,-1.693207032221403455e-03,7.867371818639186994e-04,2.700936444956048271e-03,1.046271681785583496e+00
-2.383422615085425619e-02,-5.974526080505169201e-01,5.746011558828658661e-01,-3.132821602370850726e-03,3.553657988621410860e-03,-3.571174565988678544e-03,1.015156149864196777e+00
-1.560034477352720272e-02,-5.659257272461782895e-01,5.897818184628866867e-01,-2.044029929420512499e-03,1.611304289411511978e-02,-6.139866533935377582e-03,1.001702189445495605e+00
-2.002090750730538965e-02,-6.006762035470137873e-01,5.187848896079565453e-01,-1.478848456365373584e-02,-1.889226577364588877e-02,1.003627918730317292e-03,9.705990552902221680e-01
-3.487972486109118531e-02,-5.906803459638247933e-01,6.032253391240812723e-01,-6.914633954190284836e-04,1.288824875704111875e-02,-4.127765382601539246e-03,1.035037398338317871e+00
-3.691864394052509629e-02,-5.148499577419378692e-01,5.871961516371091427e-01,1.243302775289913597e-03,1.551670435945849170e-02,-6.998012015695603306e-03,9.576510190963745117e-01
1.811596801508918997e-02,-5.567006504730941385e-01,5.727903001904892655e-01,8.902856785959095340e-03,6.464778189215835726e-03,3.663334137408910066e-03,9.784258604049682617e-01
-2.112005169057835918e-02,-6.129629462307391030e-01,6.016772681854993809e-01,-5.015529233145287272e-04,5.428279465826594359e-04,-2.783186553323848539e-03,1.052034974098205566e+00
-1.645584791808578362e-02,-6.146505390608792974e-01,5.995311864268173530e-01,-2.121480637390281421e-03,5.550218562994107922e-03,-7.563661785652611713e-04,1.051601052284240723e+00
-2.822479468878597020e-02,-6.088072662998972318e-01,6.010673618903614734e-01,-2.876051296942828094e-03,3.661086724852293233e-03,-1.954514404315108381e-03,1.048101663589477539e+00
-1.385169240197555579e-02,-6.073863327835760106e-01,5.307632034483414918e-01,-1.290583652683379660e-04,1.418447393408600078e-02,-2.517198122599798374e-02,9.872391223907470703e-01
-2.769022825047453423e-02,-6.064072747892177428e-01,5.862326497253587121e-01,-2.629391628262742631e-03,8.511178743444664603e-05,-5.334994258209882316e-03,1.033057808876037598e+00
-2.263619853199045490e-02,-6.132195623640392945e-01,5.976072588520825457e-01,3.850898518996234070e-04,3.205660645209890657e-03,-1.890408438021890999e-03,1.048731684684753418e+00
-1.210139697752950390e-02,-5.810719082903117449e-01,5.917057484764369768e-01,-2.978346715532729193e-03,1.535778966856422498e-02,-2.938843955877541193e-03,1.016178607940673828e+00
-1.703751645301201934e-02,-6.117622226889783965e-01,6.019126930536353726e-01,-3.239728275568119309e-04,6.066485106171032836e-03,-2.179774041919892678e-03,1.051202535629272461e+00
-4.120003897408949789e-03,-5.721240114252355013e-01,4.948237116573115379e-01,-9.989151004556703906e-03,-5.370476356992499693e-03,-8.142887847542237476e-03,9.249649643898010254e-01
-2.844301659977789554e-02,-6.065652289951585230e-01,5.967843475107125206e-01,-1.506712795017007851e-03,8.157834091070974205e-04,-2.605052248813286009e-03,1.042411446571350098e+00
-1.409276762646309404e-02,-6.119295917545929386e-01,5.840268933376295823e-01,6.069274863774168013e-03,-5.494250706880830781e-04,7.020209462686999302e-03,1.035853862762451172e+00
-2.780224208288323978e-02,-6.126893303857217088e-01,5.930054556734770665e-01,-6.501973314748634358e-04,1.157625458027512202e-03,4.654253087708815594e-03,1.044350385665893555e+00
3.217269250379384271e-02,-5.218513268094020496e-01,5.630496876769345294e-01,3.317252645339973521e-02,-6.559907053404758284e-03,-7.182101614723671035e-03,9.415289163589477539e-01
-3.104101565853021466e-02,-6.121829108095782068e-01,5.842098812699653143e-01,-3.813578353022511590e-03,-5.355634855701204081e-03,-2.155806056982688228e-03,1.036316156387329102e+00
-5.842247343444383068e-02,-3.911596480107386586e-01,5.753455280884061107e-01,7.888176988705354609e-02,-8.849812636549063763e-03,1.560614335101309993e-02,8.619087338447570801e-01
-4.559935786875317365e-02,-3.576777458297256684e-01,6.401536016677593643e-01,8.713071661835598836e-02,7.414684392185314984e-03,-4.756914889098613763e-02,9.007704257965087891e-01
-4.020007725109218943e-02,-4.248990343116879620e-01,6.454508098575482133e-01,-1.082515551996183767e-01,6.738655347039197718e-02,1.108069636479412298e-02,9.648968577384948730e-01
-2.081535213293806558e-02,-6.121826249684406696e-01,6.058022226354780049e-01,-1.062587632327142723e-03,8.028179843365595763e-04,-1.888115081455061118e-03,1.054960608482360840e+00
-2.339941280675680163e-02,-6.081643346243692516e-01,6.056116368034386577e-01,1.305956068264644415e-03,-5.179828827331253889e-03,-2.516778517201898394e-03,1.051443338394165039e+00
-4.688690878226919878e-02,-3.881935931382676785e-01,5.705171179811264759e-01,-2.777519657547837181e-02,-1.182811245263412636e-02,3.140403224595834930e-02,8.450413346290588379e-01
-6.701726173655314645e-02,-6.047193722935315652e-01,5.945015350717662850e-01,2.179256789602779937e-03,-1.797472485542517262e-02,-4.385733461139113172e-03,1.040899634361267090e+00
-6.372821217374302627e-02,-6.378701877760802885e-01,5.861076392187405393e-01,-1.198605586035000371e-02,-7.288654579101781772e-02,9.944377555142042482e-03,1.068498373031616211e+00
-2.042339965313864913e-02,-6.178669469887240195e-01,6.056711328903215952e-01,8.673320304192404327e-04,-1.051508322033068658e-03,-9.885649324125991063e-04,1.059715867042541504e+00
-6.483147221683968620e-02,-5.919169679346476531e-01,5.534433904139826055e-01,1.369467173564446966e-03,-6.984714627846156515e-03,1.989492027184506639e-03,9.930410385131835938e-01
-2.622027637003757419e-02,-6.078444227295686231e-01,5.648586464143325880e-01,2.096797129227044067e-03,-2.259814578627917028e-02,3.595103262991141985e-03,1.016381144523620605e+00
-2.266387667898074262e-02,-6.161395741592877728e-01,6.041787655783072974e-01,1.707572940722064565e-03,-2.336632758954832519e-03,-1.382044031414579946e-03,1.056972980499267578e+00
-3.852332898838741609e-02,-5.355699929691244421e-01,5.950716331015677429e-01,-1.506100165489569070e-02,-9.536556415287781446e-03,-9.826581278834430402e-03,9.821747541427612305e-01
-4.529508880211779998e-02,-7.070563766525289617e-01,5.914485363636066140e-01,2.629843454645885807e-03,-5.212754910839698802e-02,4.890314874389674327e-02,1.131410598754882812e+00
-1.731732011138871485e-02,-6.079192303616975934e-01,6.042865411540581100e-01,-2.184681945433578326e-04,-8.795684531471623449e-03,-2.487281051518520393e-03,1.050034880638122559e+00
-2.878264671031104116e-02,-5.971551882800970601e-01,6.048887099625568364e-01,1.561559286130520226e-03,-8.656024008721825355e-03,-4.395091117990274077e-03,1.041651606559753418e+00
-4.409434340919688583e-02,-5.286099635678723763e-01,6.051427029257141488e-01,1.980935588950765835e-03,-1.580200502578281430e-02,-2.523394708415545307e-02,9.866614341735839844e-01
-4.440808219028172937e-02,-4.960325383526562604e-01,5.870545212575029037e-01,1.382852690736459953e-03,-9.111282099669050852e-03,-3.188653464083877898e-02,9.440332055091857910e-01
-2.754227053632601202e-02,-6.111013922045901436e-01,6.025317027758172461e-01,2.320385040696877187e-03,-2.334754088961244704e-03,-2.544350920564546811e-03,1.051319122314453125e+00
-3.300372764905350892e-02,-5.964996096449659557e-01,5.991603542033351326e-01,8.742053579035398902e-04,-9.725862042752478689e-04,-6.519401974236874522e-03,1.036105036735534668e+00
-2.637720146011988606e-02,-6.123016560440842637e-01,5.943965869922125389e-01,3.022888491010586732e-04,-2.981440870058681917e-03,4.599979732820241689e-03,1.045219898223876953e+00
-6.211798052149346966e-02,-6.253470793819007056e-01,6.069882776212756070e-01,-6.888802333551168749e-03,-1.097425164290102666e-02,-3.716953419703159650e-03,1.068800926208496094e+00
-3.599835666379926774e-02,-5.783568185501434256e-01,6.015367631833345996e-01,-1.603574673470075252e-03,3.404957366290864082e-03,-6.571765966260885786e-03,1.023009419441223145e+00
-2.946524947470365030e-02,-6.087679184325709425e-01,5.889055700168337459e-01,3.412802222536714253e-04,4.608174850892041326e-03,4.395857078284061935e-03,1.037458419799804688e+00
7.973002922131941853e-03,-5.377134167592690916e-01,5.982982265342926542e-01,1.359545503000018640e-01,1.211491584821672435e-01,-6.987226334315713161e-02,1.040441632270812988e+00
6.776118421941565440e-02,-7.072511163902265308e-01,3.314482484739522672e-01,-2.401432634888371609e-02,1.535055350772463467e-01,2.144777834548143580e-02,9.738262891769409180e-01
1.087504317527965003e-01,-6.743933543340092651e-01,2.855480846188519495e-01,-5.441550999850656295e-02,2.339874750674493520e-01,-6.098254705078110655e-02,9.835241436958312988e-01
-5.894994187466106456e-02,-5.409268160769530320e-01,5.896253839713515577e-01,-3.168396854408543021e-03,-8.044828813387715216e-03,3.506564663126304077e-02,9.846131205558776855e-01
8.251373369512163269e-02,-6.068095212691579921e-01,2.576501719404333812e-01,-1.992641348513939786e-03,3.574849240775160308e-02,3.507292404147122067e-02,7.963046431541442871e-01
3.807986500451608636e-02,-5.955364810592758129e-01,3.225435740171768151e-01,-5.480849059812410544e-03,5.924477854021208134e-02,-8.996238534031192682e-03,8.206661343574523926e-01
-2.886709041033988857e-02,-6.041790339319554892e-01,5.964395948417132720e-01,-4.223943413001604103e-05,6.617784196166023349e-04,-2.710595492754023020e-03,1.040077924728393555e+00
-3.407263715907954404e-02,-6.068157159392967293e-01,6.005841162734456562e-01,-2.051088124911117430e-03,2.335355255491327209e-03,-2.902576713744320618e-03,1.046123027801513672e+00
-5.234317059267276639e-02,-5.789737721728447362e-01,6.052750436179187288e-01,-2.589760748865154328e-03,7.265097451649975974e-03,-6.170687973915925557e-03,1.027821063995361328e+00
-3.736857763061373489e-02,-5.245590378539666254e-01,6.007742265210124222e-01,1.089468420083837021e-02,-1.917059249006468694e-02,5.277047477391925458e-03,9.782739877700805664e-01
-3.409388868436059872e-02,-5.914974074046873698e-01,5.941775404209330702e-01,-1.563419570075093171e-03,3.341750386276333071e-03,1.093105626450879136e-02,1.027630090713500977e+00
1.412527437208103975e-02,-6.498139959185836867e-01,3.735209356201519837e-01,-5.401093873265603966e-03,1.206157562413462114e-01,-1.383183569698127023e-02,9.235277175903320312e-01
6.560490950961575529e-02,-6.454409633642710364e-01,2.975192330188672352e-01,-2.266559840305236093e-02,1.438064469324731864e-01,4.857739524957752769e-02,8.915904760360717773e-01
-2.937159572968368881e-02,-5.904492631161147864e-01,6.009969791270979300e-01,-2.170916780387223324e-03,1.033504124409640595e-02,-4.428225369534335466e-03,1.032594680786132812e+00
-3.729571834745591674e-02,-6.051380413774627431e-01,5.788321449138414954e-01,-2.218387558285122609e-03,-1.538548869819007618e-02,-5.925151763550250833e-03,1.026037096977233887e+00
-1.101706486573219290e-01,-2.036890131036192542e-01,5.316568963546663973e-01,3.142672214709515358e-03,5.218800074176279703e-03,-3.044035275202259801e-04,6.934136748313903809e-01
-1.214608484935816302e-01,-1.642382477941485841e-01,5.732709452838744557e-01,4.044742545572865139e-02,1.401661734896333944e-02,3.878149552500482350e-02,7.240237593650817871e-01
-2.300239510927956296e-02,-6.132471826561329831e-01,6.018266027531312679e-01,-2.716071243439965258e-03,3.278363918745507040e-03,-1.900423259747568549e-03,1.052457809448242188e+00
-2.343484642376719024e-02,-6.162336183344366836e-01,5.876274034995412343e-01,-6.909145691226235321e-03,3.532212647741712116e-03,3.803702689169556009e-03,1.042721629142761230e+00
-1.175798253771391244e-01,-2.805800218068533192e-01,5.712724534656173914e-01,-1.594895562096444730e-02,-6.296642886649409573e-05,-7.347542987521456410e-03,7.837695479393005371e-01
-9.278052375651449357e-02,-2.544769017757182450e-01,6.291087542467834748e-01,3.898692071634956430e-02,5.147228670312531179e-04,-7.966045881769888426e-02,8.292133808135986328e-01
-2.575394119283054561e-02,-6.140470830494525467e-01,5.966988937241504143e-01,-1.930375039902114398e-03,1.684132576081000037e-03,1.443728819581496011e-03,1.048688292503356934e+00
-1.095097357893893425e-02,-5.991418698214604488e-01,4.699343450958762824e-01,-1.235236677335598172e-02,-1.080631387612258909e-02,-6.544485002659470793e-03,9.279052615165710449e-01
-1.963493013756957561e-02,-6.001866041034326082e-01,6.005408126925665391e-01,-4.155366742279570889e-03,1.189414026911396124e-02,-4.900722277375438307e-03,1.040312647819519043e+00
-2.392118723802869398e-02,-6.003723078084018949e-01,6.025511733749399079e-01,-3.229813735699329797e-03,1.368784821023363851e-02,-4.641196396585108713e-03,1.042378187179565430e+00
-1.900085538360193199e-02,-6.128780602660820476e-01,6.025588782842893343e-01,-2.001215853470231319e-03,6.922104914940023154e-03,-1.867323843576109517e-03,1.052769184112548828e+00
-1.992301543569742484e-02,-6.094929116446974326e-01,6.023052780086696201e-01,-2.245421450347820716e-03,1.122822906334479745e-02,-2.475695751542710422e-03,1.049771189689636230e+00
-1.980875830328581236e-02,-5.790121095979062771e-01,5.893871081430236414e-01,-6.987673110478887124e-04,1.385545934590325101e-02,7.532182728096787835e-03,1.012541294097900391e+00
-1.890415564790243544e-02,-6.155548903119258952e-01,5.987796386508597024e-01,-2.662073896933862729e-03,6.348054536005093285e-03,1.195324833127268992e-03,1.051766753196716309e+00
-2.211301588389419370e-02,-6.185792596375631058e-01,6.014233263690194065e-01,-1.228300217488504514e-03,2.822318650783310363e-03,1.275695033799420161e-03,1.056655645370483398e+00
-7.325705736829458622e-03,-6.104959823121829388e-01,5.967245818165681781e-01,-3.915239729358524143e-03,7.823564425590996338e-03,4.319619347922641780e-04,1.045593857765197754e+00
1.933147459378936270e-02,-5.719405888867723498e-01,5.805521250831828795e-01,4.618062202063150996e-05,-2.658585017203562995e-03,-6.879205396839229445e-04,9.982123970985412598e-01
-2.492864744324419304e-02,-6.084600542204086082e-01,5.958296314719446762e-01,-2.464719974750854449e-03,5.480211816998573418e-03,8.550312193874902910e-04,1.043164491653442383e+00
-2.639248799783804750e-02,-5.949219354777141033e-01,6.013252250066846161e-01,-1.656153400677180506e-03,1.151166436956072882e-02,-5.729493760029878008e-03,1.036646246910095215e+00
-4.043259623475396747e-02,-6.017220238818018485e-01,5.465984606736717932e-01,-1.790614970873383475e-03,2.762959236622198819e-02,-4.197746700845830618e-03,9.957400560379028320e-01
-1.938437904111022306e-02,-6.398814168145058323e-01,6.194403892136026712e-01,-4.051880059171684804e-03,-8.269084210174143176e-03,-1.808828170360265650e-02,1.091209650039672852e+00
-3.204506153600143042e-02,-5.035863114078397151e-01,5.801266600057340961e-01,-3.017224524605703270e-03,-1.727433485842662722e-02,-6.237590638293270991e-03,9.417052865028381348e-01
-2.670528521580113265e-02,-6.132302209867416254e-01,6.014908096418158934e-01,1.972180074892284675e-03,-3.362127161719578178e-03,-3.816645150766952545e-04,1.052207469940185547e+00
-4.707168123565220325e-02,-6.050274250587494018e-01,5.731422415488977018e-01,7.079494592228532468e-04,5.721384831609755382e-03,-5.097987693559953397e-03,1.020886659622192383e+00
4.294836831250821441e-03,-7.682094790795742645e-01,7.255955418463997386e-01,6.547943271738547455e-02,1.515106232883272654e-02,-4.096525449258555523e-02,1.301088571548461914e+00
-6.026359724306679100e-04,-6.120145646184900201e-01,6.355657222177041321e-01,5.883167060993623604e-02,-9.475731090208361004e-03,-1.092814238051520795e-02,1.085590481758117676e+00
-3.167970459861739474e-02,-6.141499726404516801e-01,5.949992976079722107e-01,2.596643201443056721e-03,-4.122221996110143612e-04,-2.300722179042722759e-03,1.047404766082763672e+00
3.848879692754186843e-02,-6.488390430778926410e-01,2.263100978013700693e-01,-1.437942935244772291e-01,1.085852690552862460e-01,1.962995849234712709e-01,9.218429923057556152e-01
1.197407693576882023e-02,-5.449131596200927907e-01,5.775170574142797220e-01,-1.908750708419996349e-03,-2.116292669393247949e-03,-1.588098360232810622e-03,9.720791578292846680e-01
-1.877642954592889657e-03,-6.270642892067810337e-01,7.404775280363512513e-01,1.255971080556451680e-01,1.326919457970826555e-02,-2.059521330408392234e-02,1.206310391426086426e+00
-1.132880846949997078e-01,-2.400381791100758555e-01,5.680338715081248990e-01,1.594607065575748966e-02,-2.465308367517397414e-03,-3.521076209407470597e-02,7.557269930839538574e-01
1.049745231863153938e-01,-5.900983921951223898e-01,1.801033807854592883e-01,-1.020040776898381400e-02,5.996046644507815188e-02,1.893456146243869837e-03,7.430339455604553223e-01
-1.675600489810288862e-02,-6.145672420520258417e-01,5.546573972876783776e-01,6.124545181211834936e-03,-1.817342902822911702e-03,6.010284995608591516e-03,1.012778162956237793e+00
-8.960061132393778299e-03,-6.061146100313314911e-01,6.160543699470583112e-01,2.832729462790511618e-02,7.515200478188260348e-03,-4.982198724760346538e-03,1.059772610664367676e+00
-7.267518708888148771e-02,-3.630163584297439461e-01,5.726695658987959181e-01,-1.638793219588585010e-02,4.820170661481066460e-03,-6.876192424114575819e-02,8.385690450668334961e-01
3.357017404844354902e-02,-5.934011409294279726e-01,3.983676405912583984e-01,-6.019368682686989172e-03,-9.756601289760749845e-04,7.039041949648248281e-03,8.689925074577331543e-01
-2.454842908661153400e-02,-6.056292597168053682e-01,6.033050550498224585e-01,-3.239439616641026209e-03,-2.088497508581049593e-03,4.675295276266749379e-04,1.047250628471374512e+00
-3.553417576964658375e-02,-6.136668407406938863e-01,5.970697184088715748e-01,1.811556392006507523e-03,1.703182279573725632e-03,8.676911769304653660e-04,1.048892140388488770e+00
-5.489448696124077376e-02,-6.001814379476031469e-01,5.721613872405083567e-01,2.596217102011017853e-04,6.192308075840142860e-03,-2.262218294987968815e-03,1.016165733337402344e+00
-6.888863739111687756e-02,-4.175628839472124709e-01,5.913605458727830833e-01,-1.151496522912607429e-02,2.149802390899542906e-02,9.629469464082111158e-03,8.886940479278564453e-01
-5.785833857721600637e-02,-6.134471197095908712e-01,5.942928212140726751e-01,3.573024581186064284e-03,9.988044025298016895e-03,-3.851944329475504112e-03,1.047229647636413574e+00
-9.963516672819072717e-02,-3.358328009486715171e-01,5.654322134817855172e-01,-8.673428227687213221e-04,3.209268392334791321e-03,1.386941548230285516e-02,8.098157048225402832e-01
-4.322273497623797811e-02,-5.965860006571436225e-01,5.557543807027188754e-01,-2.734264659975930815e-03,9.161278490073556519e-03,-1.372609463613385424e-03,9.983568191528320312e-01
-1.006551545258273783e-01,-2.741556995172544919e-01,5.550186565198031996e-01,2.097111237858702380e-03,-2.603579200566579366e-03,-2.304594653115904848e-02,7.585493922233581543e-01
-8.152097523663193179e-02,-5.083786730239262530e-01,6.656572654817259904e-01,5.707844595027981860e-03,1.270718758957083833e-02,-4.959995996590639555e-02,1.033142924308776855e+00
-7.520318706512166274e-02,-2.477621533674657095e-01,5.434272170857297191e-01,4.790488768844186618e-02,-7.693141646461476926e-03,-8.980950084055441124e-03,7.256270051002502441e-01
4.722576870487296685e-02,-6.961601028963966264e-01,2.731617973238956165e-01,-2.184831228371764134e-01,1.616647638372588902e-01,4.182651013627915193e-02,9.992430806159973145e-01
-1.092373710597823455e-01,-2.203417327141898863e-01,5.482855250628480004e-01,8.727264445902421786e-02,1.130102679105811705e-02,-1.350677859173542161e-02,7.358765006065368652e-01
-1.099346351539320921e-01,-2.889618287005332187e-01,5.915106257172940696e-01,9.135846191978097552e-02,-9.337115787932499193e-04,-7.204888258583011518e-02,8.308241963386535645e-01
-3.597428097445809492e-02,-6.025340690573447455e-01,5.998875572443450599e-01,-2.899905803000130729e-05,-7.334393627479541882e-04,-3.375502546462696117e-03,1.041921257972717285e+00
-8.067375663812784148e-02,-1.071869458832147015e-01,6.406155458083830911e-01,9.710272476048177615e-02,3.339338920623052820e-02,-3.657788476914288628e-02,7.587693333625793457e-01
3.479930620947247182e-03,-5.934185181559537003e-01,5.900724431410536708e-01,1.296801089763881948e-02,1.471784087251772760e-02,-3.621970172429685511e-03,1.025528311729431152e+00
5.223736786627872219e-02,-8.445962507857888157e-01,3.917932430449062586e-01,1.323422249378627680e-01,-1.871803818974560052e-01,8.889621680594976538e-02,1.185535430908203125e+00
5.043618753990038520e-03,-5.471169930840058537e-01,5.770068259553686740e-01,2.043521217424641712e-02,2.063138441322235478e-02,1.614573808302641536e-02,9.752694964408874512e-01
-5.414474217852953408e-02,-6.010409875152805670e-01,5.830399721099152055e-01,-1.157711238220324396e-03,4.276960488777223346e-03,3.168446234330687342e-03,1.026480793952941895e+00
-5.096703436482825922e-02,-6.005142513386952929e-01,5.731692989263140747e-01,1.906361938941438352e-03,3.713408316946786598e-03,-2.372581876011199686e-03,1.017157673835754395e+00
-3.643283477903341838e-02,-5.889425525079784451e-01,5.258951130226384718e-01,5.999471689721357429e-03,2.546343840478187872e-03,-1.865144597841636009e-03,9.655616283416748047e-01
-4.624154448720499411e-02,-5.971663280041741295e-01,5.659248886347716390e-01,-3.924537180369222673e-03,1.592072905587969128e-02,2.433090565826223281e-03,1.008140802383422852e+00
2.213683889615037162e-02,-5.281402603979723498e-01,5.655559632115604307e-01,1.351615742764353256e-02,8.734563225103761028e-03,5.391109995287260426e-03,9.476310014724731445e-01
-3.651087141980900036e-02,-6.072757460928336348e-01,5.436222590575080504e-01,-1.102043940974063892e-02,3.373892909983640821e-04,-2.904817182344851968e-03,9.969135522842407227e-01
-2.292002462976026195e-02,-6.121061012730732998e-01,5.938592341518147411e-01,5.478036138363451268e-03,8.554615236835136360e-03,-5.819767313949134047e-03,1.044684529304504395e+00
-8.547060273487400162e-02,-1.518909533475849005e-01,5.139803987377977723e-01,-7.788801265437772514e-02,2.065064166500438225e-02,-8.090166065209415322e-03,6.505722403526306152e-01
-5.257157024995680328e-02,-5.969858858384720079e-01,5.710259709109416493e-01,-8.679788021612663829e-04,3.212678352055637742e-03,-1.185301556419925042e-03,1.012320995330810547e+00
-2.920349771109775200e-02,-6.133152304141270550e-01,5.970318451644250901e-01,-1.939886121328785601e-03,8.423664219677948987e-04,-3.667931593837627652e-03,1.048428535461425781e+00
9.803822164889692409e-03,-4.981818894345828586e-01,5.656367057308717694e-01,3.229212924051422934e-02,8.991647164891997807e-03,-9.050092845380164341e-03,9.235645532608032227e-01
1.827288526028566368e-02,-5.611008166057374069e-01,5.736308033998186451e-01,6.850445326877775860e-03,8.015373976834430300e-03,2.901957793550116065e-04,9.829495549201965332e-01
-1.866936834387548233e-02,-6.016891689650730735e-01,5.945184367204907616e-01,2.687115120937989344e-04,1.342013732764593117e-03,-5.000334176613637285e-03,1.036094903945922852e+00
-2.365875791195739750e-02,-6.055741334827171585e-01,5.551650703744626103e-01,3.945951297139575070e-02,-6.430905758977413511e-02,1.188656329033862397e-02,1.013898968696594238e+00
-3.209989779029803064e-02,-6.139372115375852923e-01,6.110921074437343226e-01,-2.642793903060806741e-03,4.602915968035292509e-03,-3.630975277059002304e-03,1.061408400535583496e+00
-3.575171661968837289e-02,-6.039499952169470331e-01,5.768118334633828281e-01,-5.661604529806070311e-03,-2.036769496353058820e-03,-1.794330675144889010e-03,1.022868156433105469e+00
-3.017966935172772258e-02,-6.119399652754722307e-01,6.218726582329906494e-01,-2.679617721656397424e-03,-4.255998720573063443e-03,1.952391400078152834e-03,1.069131731986999512e+00
-9.936021275518246848e-03,-6.079519845248124721e-01,6.151199106610121259e-01,2.125276630270444504e-03,-1.557535752115006902e-02,-9.894046614673146945e-05,1.059647440910339355e+00
-4.766827171953840619e-02,-6.392030710534066795e-01,6.420384213085101877e-01,-6.802349183672069810e-02,2.918890674327573320e-02,-1.053996349031643964e-02,1.118197202682495117e+00
-2.885405011848697632e-02,-6.100015607423421304e-01,6.123547814753598217e-01,2.790171600077583471e-04,3.453460435019743854e-04,1.534714873378425094e-03,1.059021115303039551e+00
8.338607347370245032e-03,-6.044685926534778542e-01,5.999129110031192758e-01,9.374722697594789489e-03,2.076499975160523391e-03,-8.325430159376721873e-03,1.043311238288879395e+00
-3.743482433267734943e-02,-6.128895283707020969e-01,5.988152464886352666e-01,-5.357151390559812022e-03,-1.511277127309051645e-03,-3.474079365601418206e-03,1.049868822097778320e+00
-2.442146977508205183e-02,-6.161486973344222351e-01,6.168198219495963919e-01,-2.168340751809895526e-03,-4.788458468762303924e-03,-5.996245536273136015e-03,1.068158268928527832e+00
-2.491573926702945682e-02,-6.185580278915232544e-01,6.229473564224042859e-01,-1.280787181089420180e-03,-2.283690495575539919e-03,-1.560348977192120871e-03,1.075529932975769043e+00
-2.112333526063968694e-02,-6.084550757406026467e-01,6.210953255926674466e-01,-1.051625882515397391e-03,-6.185326398030747790e-03,4.197200421647206080e-04,1.065231204032897949e+00
-1.199551354527672239e-02,-5.993998366737467443e-01,5.912943147930813659e-01,-3.348890258533572788e-03,-4.390594940553349881e-03,-2.151761918295560985e-03,1.031253099441528320e+00
-2.633115529433613725e-02,-6.191691660814759857e-01,6.236660834885533466e-01,-2.930638797846895922e-03,-5.618977454204854109e-03,-3.477417212342237551e-03,1.076779007911682129e+00
-2.459498040635759233e-02,-6.157700599775239869e-01,6.197215605769864633e-01,-1.980651594634950160e-03,-1.925193947069157429e-03,1.266659946607753828e-03,1.070309996604919434e+00
-1.699007996032263212e-02,-6.154051197043849397e-01,6.154382064327071911e-01,-8.690287843102200566e-03,1.016236967586589719e-02,-1.714920128127700818e-04,1.066328883171081543e+00
1.050087387294287161e-02,-5.887604113974925779e-01,5.881095505939709644e-01,2.160881420439925843e-03,-3.796924087471420864e-03,-3.117055467252760441e-03,1.019299149513244629e+00
-3.051026102700842360e-02,-6.043071435210897180e-01,5.622425916844151494e-01,-7.950654699954798690e-03,-1.870308691867873319e-03,-5.276045743851040699e-03,1.010446548461914062e+00
-2.733514652130170433e-02,-6.062023329339260025e-01,5.882747392668370434e-01,-3.557530566844006349e-03,-8.117633482559441158e-03,-8.018090988555038462e-03,1.034817695617675781e+00
-3.084999525642838358e-02,-6.044647264792396557e-01,5.786436888804835643e-01,-1.953068539807584561e-03,-3.042390919004238879e-03,-7.921962485852852799e-04,1.024779081344604492e+00
-3.057032840822072189e-02,-5.977993994148994572e-01,5.685582613491391157e-01,-4.254478168331338140e-04,-9.116306741682855125e-03,5.230983097369482950e-03,1.010385513305664062e+00
-2.431360538116232248e-02,-6.034931088756716466e-01,5.879964785158693363e-01,-3.990108727245628324e-03,4.799133263961341198e-03,-1.653694705067152923e-03,1.032053828239440918e+00
7.473484097904986578e-02,-9.365478946608718491e-01,4.656590782597289646e-01,-1.038612375437464319e-01,2.121867076751948744e-01,2.775158751445710309e-02,1.319314599037170410e+00
-2.368320649521332005e-02,-6.007216126394160360e-01,6.044017865260006284e-01,-8.985758702882359894e-04,-7.365360405717591950e-03,-3.797566443172950210e-03,1.044079303741455078e+00
-2.149497478149749868e-02,-6.147999820714799002e-01,5.845875334908400278e-01,3.211898660672702667e-03,-2.859683731279276733e-03,3.695310043704226697e-03,1.038766145706176758e+00
-9.824898047314281277e-03,-6.539181346355704694e-01,6.759317580724693020e-01,9.921725077747453603e-02,5.218915925072205308e-02,-3.452399386274147830e-02,1.169653177261352539e+00
-2.880208201844139393e-02,-6.121567723780896308e-01,5.904249957255015557e-01,3.584928195919513064e-03,8.496844103510248908e-03,-1.296373702564534948e-03,1.041745662689208984e+00
-1.759802308380927632e-02,-5.959558300727058056e-01,6.011180647700397062e-01,8.010178697973575706e-05,-8.400544523325939247e-03,3.414893205247034220e-03,1.037011742591857910e+00
-4.423154845491711340e-02,-6.114844677982338439e-01,5.899077111867420120e-01,1.085442841430333660e-03,1.070268197545504868e-02,-6.274106756287497685e-03,1.041196942329406738e+00
-2.997499376776336516e-02,-5.689725834120221704e-01,5.964651261526928705e-01,-1.041923460884666523e-03,-1.114411968129733026e-02,8.467240032565565705e-03,1.010537624359130859e+00
-2.538869281048262289e-02,-6.087125651522204972e-01,5.906490922894375162e-01,-3.115996921836450273e-03,-2.554440334703669564e-03,-5.837193006001272465e-03,1.038879036903381348e+00
-2.516553922109030297e-02,-5.972309992352730079e-01,4.799128414688051958e-01,6.508046106446447113e-03,3.593964863179009706e-02,-1.730621623749696103e-03,9.355810880661010742e-01
-2.272180204336873149e-02,-6.098374131772137385e-01,6.045251871265104882e-01,2.366346322919410470e-03,-8.238810603758915316e-03,-1.073367589893018314e-03,1.051966667175292969e+00
-4.181710134987746269e-02,-6.018458883560110495e-01,5.570159669996179730e-01,5.108049983106864068e-03,1.203151208816407094e-02,1.422995390027549786e-03,1.004049658775329590e+00
-3.065607451665823199e-02,-6.114798356291814008e-01,5.880618220103023264e-01,7.524608472814511839e-03,-8.882465332409186093e-03,1.295474855415475537e-02,1.039444208145141602e+00
-4.603117192476968017e-02,-6.284204439721341462e-01,6.206572289302165757e-01,9.487153538661214497e-04,1.686273608224814202e-02,-6.121418203377620298e-03,1.083000898361206055e+00
-2.868692181056176072e-02,-6.019974825128125984e-01,6.077380334751036894e-01,-1.238503731280770487e-03,-1.027073522690818107e-02,1.765415937636101950e-04,1.048290014266967773e+00
-3.793328044451012293e-02,-5.988897979348429823e-01,5.402341718570456974e-01,7.407066673776036177e-03,9.159112924658353427e-04,-3.893559938621099243e-03,9.866555929183959961e-01
-2.988905805106397383e-03,-5.890938789698306755e-01,5.910346963236673412e-01,-3.315026226433193807e-03,1.571857804666426661e-03,-4.494983641077770868e-03,1.022078394889831543e+00
-2.363231605961231205e-02,-6.153677131317274451e-01,5.788867525289091986e-01,5.903291716602453772e-04,-2.111900808034848989e-03,6.123577601629846476e-03,1.034330129623413086e+00
-2.554980371032884029e-02,-6.107808751902203959e-01,5.978854341523693883e-01,8.787523247130061632e-04,1.819282528855239089e-03,-5.993429706259564491e-03,1.046967267990112305e+00
-1.907416370122710578e-02,-6.108946192877102721e-01,6.026125755355756786e-01,1.109091363299531501e-04,2.237991054109430417e-03,-1.267526686390639578e-03,1.051043629646301270e+00
-5.192774358324582507e-03,-5.900024359074348412e-01,4.417957320306978297e-01,-9.981195479989556779e-03,4.761399396119986131e-03,-5.448078729247574081e-03,8.964709639549255371e-01
-2.434882157516671253e-02,-6.162317088290295564e-01,5.925711726321141182e-01,3.039645716668484213e-03,5.776565150995467430e-04,2.494162225347059444e-03,1.046951532363891602e+00
-3.965565787181922486e-02,-5.934115480093146155e-01,5.274503000719040768e-01,2.043439913300017837e-03,3.469002963827092032e-03,-8.061861387667074033e-04,9.707438349723815918e-01
-1.847036522289221758e-02,-6.097023153357379321e-01,5.597081360353245438e-01,4.904440598136392340e-03,-8.606545435436040907e-04,-8.148883259193058504e-03,1.012895226478576660e+00
-1.803567185322634686e-02,-6.025298089901710563e-01,5.424470607885748530e-01,2.249833237450816516e-03,-8.321534963899908247e-04,-1.263961755815606706e-02,9.919020533561706543e-01
-5.381347651979177804e-02,-5.970750249358854900e-01,5.664379229586085085e-01,-3.713629788202577400e-03,9.420014012839858942e-04,-8.741092216688543630e-04,1.008389830589294434e+00
-1.647695134693719088e-03,-5.930771056942243380e-01,4.404450158197012466e-01,-2.355124314038478488e-03,2.831585216755429322e-03,-2.162719779146174241e-03,8.981959819793701172e-01
-8.433225000240110458e-02,-4.879257553626111799e-01,6.050031217041419440e-01,-2.593805895617344419e-03,1.084789400761138750e-03,1.160708596656374533e-02,9.574497938156127930e-01
-5.763501649020428413e-02,-5.703468351966825001e-01,6.165061101026027002e-01,-4.360524652105513856e-03,2.164865399464374531e-03,4.694332205750054859e-03,1.031075596809387207e+00
-2.506307401270697552e-02,-6.137395411922657029e-01,5.919992244331500064e-01,6.911115700611535594e-04,8.857524075635722595e-04,-4.896805766213802209e-03,1.044333100318908691e+00
-2.122290681074797195e-02,-6.332533722385532693e-01,5.924967642305172255e-01,5.451334398487344204e-03,2.240011904394872445e-03,3.026420615852620354e-03,1.061593174934387207e+00
-3.211003938088330401e-02,-6.213379049222900186e-01,6.175534068093473383e-01,-9.774970198862977314e-03,-2.906509525424062160e-03,-2.841184028899308364e-03,1.073493361473083496e+00
-4.221493519569401165e-02,-6.601207533154502816e-01,6.736501215390062747e-01,4.711369965222932804e-03,-1.089781614156196815e-02,3.327297137877969352e-03,1.156314730644226074e+00
-4.508156682649396008e-02,-6.411782616358191467e-01,6.677820329836596791e-01,-3.144114579291225602e-03,-4.612408848209164497e-03,1.239838946748911090e-03,1.135138511657714844e+00
-7.480732395450399863e-02,-4.071130501622512998e-01,5.879574990285278968e-01,3.091240199351033904e-02,-1.460691093974483649e-02,-4.726976238804170977e-02,8.832525014877319336e-01
-5.436302594357470680e-02,-6.323732539011567289e-01,6.375528040468250168e-01,6.455633862371538446e-03,-1.147928183562552280e-02,1.438101770472028154e-02,1.101779699325561523e+00
-3.078690539960170572e-02,-6.168974985282646983e-01,6.071287518420103169e-01,-9.176161786825636282e-03,-3.461775372780123445e-03,2.611328406844057575e-03,1.060499906539916992e+00
-2.311508648238150276e-02,-6.144568489157036240e-01,5.631467410058801359e-01,-8.030871845128892406e-03,4.997921733239328416e-03,1.610597101165461495e-02,1.020350813865661621e+00
1.953399891030062341e-02,-5.839905011813345537e-01,5.843041675140607794e-01,-4.534088047531428339e-06,-2.612334744003124744e-03,4.585003626519462867e-03,1.011999726295471191e+00
-4.335198336228110461e-02,-6.615608317839362096e-01,6.333950324785097008e-01,8.097326355762440517e-03,-9.870065372652102667e-03,2.264813471814886014e-02,1.122749924659729004e+00
-2.759788915261940714e-02,-6.185272704822627476e-01,6.207320669629513565e-01,-1.826639556705473080e-03,-5.811523600960999576e-03,-3.701916357952526968e-03,1.073684692382812500e+00
2.513070502297051756e-02,-5.717024083548992719e-01,5.790233601595041746e-01,6.738402220126231694e-05,5.511651538722252362e-04,-6.881126731918402184e-04,9.967901706695556641e-01
-2.316293979375171758e-02,-5.810217132687758301e-01,6.131081883079873007e-01,-1.774817403362909845e-03,-1.828533121316369692e-02,4.172910319983911924e-03,1.035404086112976074e+00
-1.253920569246617239e-02,-6.148079558355004082e-01,5.262645074880851759e-01,-1.575401343489843398e-02,-1.925858849168528807e-03,-8.316688315101482265e-03,9.891940951347351074e-01
-4.253599952126529971e-02,-6.470966645935383177e-01,6.785439735908000980e-01,7.203891362553663767e-03,3.502423805608982903e-03,1.478193031569894310e-02,1.149884581565856934e+00
-3.071304730082380363e-02,-6.914257994578004718e-01,7.155920975185130484e-01,-1.594552370985211770e-02,2.528180607195079990e-02,6.010106065327951467e-04,1.220363616943359375e+00
-3.335207262129671196e-02,-6.358574180537874820e-01,6.201108800505231722e-01,-2.929890999457291159e-02,4.859178125901937595e-02,1.756561328750715252e-03,1.092432856559753418e+00
1.454790741723435143e-01,-1.022633932099062948e+00,1.594794133949719583e-01,-7.059132362563315388e-02,2.210932035059812867e-02,1.614928568750262083e-01,1.214781284332275391e+00
-3.213886246401011226e-02,-6.165329794307731204e-01,5.989781566025015325e-01,-3.821760486769382073e-04,-2.170136494183737795e-03,1.000265327945379368e-03,1.052931070327758789e+00
-3.838158121697446412e-02,-6.874471174692732278e-01,6.815792465365659858e-01,-8.753219639924262468e-03,4.974820535091164370e-02,-1.828908596160732855e-02,1.189785480499267578e+00
-5.375144929667018123e-02,-3.447757750416384215e-01,4.865774363619756460e-01,1.510495474833051417e-02,9.526385146968276152e-03,7.721697300984209367e-02,7.434671521186828613e-01
3.771926404352632378e-02,-5.413958256274630232e-01,2.082811005390632908e-01,2.418080577785001236e-03,-1.024945217428208655e-01,5.954807008385790135e-02,7.109228968620300293e-01
-4.235518060562523668e-02,-6.241018123702707365e-01,6.161569451914908901e-01,5.449853603566028916e-03,7.578145628021303037e-02,-1.303573348740610753e-03,1.082809925079345703e+00
-3.920584796805875322e-02,-6.538643369778424086e-01,6.675246638157834589e-01,-4.142312483268270444e-03,1.538786561840520956e-02,-2.896604422843601385e-03,1.145625591278076172e+00
-1.900849673178862942e-03,-5.860976619655750008e-01,4.379973610773267856e-01,1.573898005354675477e-03,5.038442245694942437e-03,-1.782027797158760056e-03,8.898744583129882812e-01
-3.393555172312245211e-02,-6.494835328192956059e-01,6.819260148796121301e-01,5.924934110836177666e-03,-2.648001175054844839e-03,-1.489518756425183693e-02,1.154467940330505371e+00
-3.344963893312988962e-02,-3.469590330021838920e-01,4.010437482442231749e-01,3.927391722592030870e-02,-5.007368761847962729e-02,2.397251688390091354e-02,6.611837148666381836e-01
-6.936614172560966185e-03,-6.002572691466985244e-01,6.033967420766775946e-01,3.756995802959244013e-02,-2.018329827233806759e-02,-2.185430588636604662e-03,1.045050501823425293e+00
-1.639906656429399034e-02,-3.950866921208377458e-01,3.843247768148295163e-01,-1.604672564118295730e-01,1.694876148533001892e-01,2.014410021273465093e-02,7.876406311988830566e-01
-5.240486777737218826e-02,-4.928257437060251100e-01,5.526249055810636968e-01,1.235584696015159731e-02,7.278725263480156742e-03,2.475574046338217468e-02,9.104695320129394531e-01
-8.929689360522338748e-03,-6.103900110505275922e-01,5.422739106113313445e-01,-3.708703593016979532e-03,1.679110754658018735e-03,8.713622436747212041e-03,9.986913800239562988e-01
-5.297366268119027555e-02,-4.750595628723944808e-01,7.545013971057289437e-01,1.738363888527167112e-01,2.065639349494681823e-02,1.436329382453801172e-02,1.124078512191772461e+00
-7.202230615900978572e-02,-3.794959637280064801e-01,7.413983063924648453e-01,2.063758689886285580e-01,-1.945373838408493150e-01,3.136347127643419191e-02,1.118283033370971680e+00
-6.494646782216761949e-02,-7.038578422989598682e-01,7.067728963625317107e-01,-3.942090641405832790e-02,1.015053247288163762e-01,9.195585124146936698e-03,1.238000154495239258e+00
2.552660666744888118e-02,-6.055202715515349832e-01,4.435499229166663393e-01,3.544910960181119151e-03,1.266596695472887221e-03,1.301867071570661158e-02,9.150447845458984375e-01
-4.071857496167769624e-02,-6.688108227056575039e-01,6.712574847735842676e-01,2.443395555656870111e-02,-6.863678896000083296e-02,-3.503684862458056326e-02,1.169702172279357910e+00
6.187194746058760630e-02,-5.960351317774245095e-01,3.411886368712099271e-01,6.105106687032933049e-03,-6.924326752656492431e-03,-6.127401380965677609e-03,8.336619734764099121e-01
2.493032906083513835e-03,-7.038026042787455250e-01,7.282252240238922258e-01,6.585669064424097552e-02,5.323550539616989791e-03,-6.010926613638528648e-03,1.245522737503051758e+00
-3.213531089571733390e-02,-6.555590219563949272e-01,6.655319304646588607e-01,1.361589752702584977e-01,-6.460843646424921372e-02,3.626548363297829591e-02,1.175765752792358398e+00
-5.402849152240400687e-02,-1.064861242695816168e+00,1.063135323785030950e+00,6.879301628042922001e-02,-8.478219394922338614e-02,-1.174006901988913429e-02,1.853450417518615723e+00
8.293726245021074139e-03,-6.205259250715371433e-01,5.084073436759245501e-01,5.198514853762181177e-03,5.394688550892501669e-03,2.529048237768816154e-02,9.808650612831115723e-01
-2.335055463891527044e-02,-7.464786059302421783e-01,7.144422440773511296e-01,5.552421856762577990e-02,-3.957037491287743874e-02,2.167093062116330973e-02,1.271269559860229492e+00
-1.004633931040703650e-02,-6.330181501579772441e-01,6.462012186443429895e-01,4.056987974400995400e-02,-2.559359436982827293e-02,-1.491641679923299451e-03,1.111075162887573242e+00
1.455857730181261966e-02,-6.453897861049092688e-01,4.058959407138254538e-01,-6.499708534470929845e-04,-9.262460878754483207e-02,7.728853732701518320e-02,9.437155127525329590e-01
7.079058464948354001e-02,-6.248302411375057375e-01,1.738945770648575029e-01,-6.769386247954332914e-02,-1.654206050903909153e-01,-2.488347980922626240e-02,8.148232698440551758e-01
-2.629201741046279309e-02,-6.550127642337775224e-01,6.851057499564120468e-01,3.207315220356884988e-02,-6.464990236690719427e-03,-5.840006997123468662e-04,1.162694931030273438e+00
-2.815303010195766356e-02,-6.378917625683374615e-01,6.489855529997091699e-01,-3.733370292532762948e-03,1.362693398664717231e-04,-5.553623149873926357e-03,1.115038156509399414e+00
-4.966666250675636635e-02,-6.465238581098144977e-01,6.958847195725548218e-01,2.749985807691742584e-02,-5.384506626786710048e-02,-4.058700580314439886e-03,1.169653415679931641e+00
6.042627344639196589e-03,-6.128872538258770541e-01,6.394211719284622619e-01,5.991251039215730878e-02,5.501100224185035206e-03,-3.460195116240730260e-03,1.089566349983215332e+00
-2.884545455603619232e-02,-6.609192583621077421e-01,6.515668318348748489e-01,-3.315912871806724321e-03,8.132052270674611921e-03,9.994076363165495247e-03,1.137136697769165039e+00
4.892942640291511602e-02,-5.855822020422467578e-01,2.906482402268529830e-01,-4.898793765970615305e-03,-5.975006448553904503e-02,-9.245587284031395181e-03,7.908508181571960449e-01
-5.141572787339948603e-02,-3.576171694183008509e-01,5.502697779500603792e-01,5.751270568120408523e-03,1.098907748499866957e-02,1.497512119957292685e-02,8.007221817970275879e-01
-3.073479124701640475e-02,-6.689564479376710615e-01,6.687882366752837537e-01,-6.299214538417158109e-03,8.086026549643009556e-03,8.052087595732618924e-03,1.159146189689636230e+00
-1.175432747533614736e-02,-5.833534145540486548e-01,4.101300647352917328e-01,5.769956168015192600e-03,-6.187571829537044654e-02,5.919483724763616866e-03,8.703743219375610352e-01
2.629375352173203128e-04,-6.425953417050898064e-01,6.390303365272468339e-01,3.007970676237432372e-03,2.813066570614192966e-03,2.936546755527535447e-03,1.109956860542297363e+00
-4.177717130957379899e-02,-5.697211823158981892e-01,6.124737529777383171e-01,-2.434988716069977366e-04,-6.730905343425868173e-03,4.802915234053784649e-03,1.025856852531433105e+00
-3.914240696753906734e-02,-6.148886420806255471e-01,6.127665963009821803e-01,-2.467866615850753840e-04,6.964245407425222884e-03,5.682637925506757101e-03,1.063976407051086426e+00
1.852626955196197411e-02,-5.894348950627994466e-01,6.185307952496342798e-01,1.057085884547563637e-02,3.554097174271405452e-03,-1.239294583527066063e-02,1.046535015106201172e+00
-2.478137347631225590e-02,-6.173777102857094246e-01,6.147990989768730152e-01,-3.961747352627687305e-03,-3.898570936156880388e-03,-2.892358020246677420e-03,1.067410111427307129e+00
-1.496278305157017034e-02,-6.068081449990501142e-01,6.046425138291446899e-01,1.929350422206391191e-03,-2.963299742797963297e-03,-5.647746048372863370e-03,1.049302339553833008e+00
-2.932614463115304493e-02,-6.127482953919414221e-01,5.934942485139803603e-01,-1.781981615379412114e-03,1.439414029004772080e-03,5.270827707835730631e-03,1.044869780540466309e+00
-3.660347737086210636e-03,-6.384418597836407638e-01,6.412691204847746906e-01,1.690085552740922719e-03,-9.918895847416521125e-03,-1.580308966236813883e-02,1.108748793601989746e+00
-4.041121852202782250e-03,-6.581920334846521614e-01,6.632909239193520712e-01,4.374180191823620438e-03,-5.990607762934431132e-03,-9.174467537311036328e-03,1.144639253616333008e+00
-1.595426223069893248e-02,-5.937396651348030296e-01,6.119102153264883714e-01,-7.323359800007472366e-03,-1.166899061042175195e-02,-1.396084542322004532e-02,1.044975996017456055e+00
-2.365986366194724327e-02,-4.652092770157891799e-01,5.789230491559888003e-01,-2.758553686879288216e-03,2.272780961142214368e-02,-3.573369543044434965e-02,9.107937812805175781e-01
-3.596620809067087310e-02,-4.772836438113693402e-01,5.829038255570947458e-01,-2.892479887063138105e-02,1.090801271924358475e-02,1.649529915101240543e-02,9.244254827499389648e-01
-2.144431052120405329e-02,-6.209577032746741443e-01,5.981505733665577473e-01,-6.222271972802883959e-03,-5.616911333019627972e-03,-9.625130116050355927e-03,1.056057929992675781e+00
-3.104960029904679786e-02,-4.374404528707000472e-01,6.077548144656955698e-01,1.149755062079295120e-01,-3.648154528710965266e-02,-1.093748123170776576e-01,9.551796913146972656e-01
-2.814491908421723476e-02,-4.454827348742790849e-01,6.252019003559721178e-01,-9.903400756444744046e-02,2.810410675611276724e-03,-4.989528090073701294e-02,9.542613625526428223e-01
-6.198933918555281364e-02,-3.746821404663533972e-01,4.957714899341847392e-01,-1.156802002001705160e-01,-2.241155710764724737e-02,-1.146600925630347628e-01,8.150920867919921875e-01
-3.076963899500167327e-02,-5.883852583296400596e-01,5.940767301786471499e-01,3.757904690306521859e-03,1.049887334166373087e-02,9.172799359242478356e-03,1.024898886680603027e+00
-1.676855290622207562e-02,-6.234946372104405166e-01,5.471448687649269615e-01,-8.262710092090736662e-05,-4.006489248329760111e-02,2.789077371997338364e-02,1.017548561096191406e+00
-6.686512769372862652e-03,-4.991201383375972744e-01,5.846451341388928524e-01,-2.395815496979159312e-02,1.377916897580552628e-02,-2.665398626677837127e-02,9.422199726104736328e-01
-1.052656210286376237e-02,-5.512453583077936425e-01,6.107018502420770156e-01,-2.658670173522790017e-02,1.635024721957848912e-02,5.650656596056978509e-03,1.008578062057495117e+00
-8.469387193076813314e-03,-5.981273397272096615e-01,6.009431997507851397e-01,-4.882224576098866640e-03,6.574151451009726393e-03,8.937786911934322842e-03,1.038684725761413574e+00
7.254737299900698710e-03,-6.114322091997698161e-01,4.845797589384368553e-01,-2.085562996069030648e-03,-2.107730394945669244e-02,1.067209954652820723e-02,9.526882767677307129e-01
-2.636743259967267577e-02,-6.140432515159403026e-01,5.945756303956351019e-01,-2.891662779579085886e-03,3.731010355800230306e-03,2.418461784761647814e-03,1.046867132186889648e+00
-1.033318665911377859e-02,-6.060523056255511243e-01,6.052302935502525960e-01,-6.032472174724936437e-03,2.420782462544551067e-02,-7.329812421604091702e-03,1.050014734268188477e+00
4.974347966703024371e-02,-5.785036843443621679e-01,3.331662527446901945e-01,2.525238297946407525e-03,4.422938400997278308e-03,3.418760390553202046e-03,8.082050681114196777e-01
9.368020305753071986e-02,-5.773805768013697826e-01,2.365991986314897599e-01,-1.783236084266030894e-03,-3.862057647233513649e-03,5.765384114937051330e-03,7.528676986694335938e-01
1.298677353514271493e-03,-6.136251104507876031e-01,5.263062988568117939e-01,8.645773710101929341e-03,-1.521208728860063038e-03,1.335758609206649968e-02,9.886204600334167480e-01
-2.529405736224378531e-02,-6.140194054346965746e-01,5.876748488827392425e-01,-7.005856023494412554e-03,3.937730274248351856e-03,3.933184213340873772e-03,1.040883779525756836e+00
-1.247259317868707265e-02,-6.148532395509945792e-01,5.672910224554034153e-01,-2.983232654950495255e-04,3.632545120959714078e-03,6.288240276279704472e-03,1.023906826972961426e+00
-3.599597568854646934e-02,-5.900525872740584044e-01,5.951384746357348821e-01,5.661381072383332372e-05,2.661210193764719338e-03,9.391692712940427276e-03,1.027267932891845703e+00
-1.924709309679419056e-02,-5.857135850498655927e-01,5.359199185252546682e-01,-6.142573760586519244e-03,5.026796273512075010e-03,-5.713759719449689606e-03,9.715272188186645508e-01
-2.521021637599788964e-02,-6.140630006019386355e-01,5.996388262286292958e-01,-1.480120243756190713e-03,3.963103628848415119e-03,2.058346638564423521e-03,1.051282286643981934e+00
9.983561831180647050e-04,-6.181393533341131841e-01,5.397990707873234761e-01,-1.017229605275872702e-02,-8.343014443439199582e-03,-1.094567136876203016e-02,1.004045963287353516e+00
9.572872577709418129e-03,-5.959479379289152057e-01,4.442463087867051241e-01,-1.010359147538030834e-02,3.854786695415391568e-02,-1.723303897177811544e-02,9.079951643943786621e-01
3.821059000647916704e-02,-5.765568227814106272e-01,2.915542387019631199e-01,-5.831792091176154005e-03,-6.293321636174785405e-02,-1.263996270283629202e-02,7.812377810478210449e-01
-3.556089325943352641e-02,-6.027422961071867702e-01,5.976839923594349235e-01,1.224983498565000446e-04,2.823718930027085527e-03,-3.764538063172449475e-03,1.040156245231628418e+00
-2.242375469538091665e-02,-6.141784570183139724e-01,5.825890219026179651e-01,2.689232601927442519e-03,-5.282178141711735015e-04,3.998321081162482978e-03,1.036486268043518066e+00
2.021728823878318759e-02,-5.873772823200292814e-01,3.811859978438815189e-01,9.325545627302351745e-03,-5.659635375991836290e-03,1.435887811242181344e-02,8.483912348747253418e-01
8.641625991046156252e-02,-5.897334947294033958e-01,1.515536029420655462e-01,2.801671998039868480e-02,2.977478499579495202e-02,1.634044565893091605e-01,7.684929370880126953e-01
5.566335854760559587e-03,-7.068504976718010813e-01,3.745795235774463938e-01,-1.250468909584256660e-01,-1.382579323336334542e-02,-6.722146489204719466e-02,9.836866855621337891e-01
-5.964860041132545587e-02,-4.871493773582412645e-01,6.008656508158941589e-01,-1.789230820704063897e-03,-1.377102833612809524e-02,1.149737414701797536e-02,9.499375820159912109e-01
2.646735777398395717e-02,-6.157978941552967322e-01,4.456854563365272859e-01,-5.958048513056775526e-03,-9.330290010224949124e-03,-3.402676706560813641e-02,9.280834197998046875e-01
4.992569302504210049e-02,-5.924930851376120078e-01,2.958492161299397516e-01,1.555820030796067378e-03,-2.815210902509289806e-02,3.420847180612285841e-03,7.959812283515930176e-01
5.159733814042630207e-02,-5.821521184695913620e-01,3.254523077976059220e-01,-1.025607595561757977e-02,-4.379608540109116398e-03,1.211115317792525910e-02,8.068478703498840332e-01
3.102099442061891088e-02,-6.054085241242722626e-01,4.144202095447678813e-01,-7.773719269716751652e-03,-1.012748227823175549e-02,1.298664780378728546e-02,8.927704095840454102e-01
5.403246822661630921e-02,-5.868186672220286892e-01,3.149443824712579998e-01,-6.566181858744317770e-03,4.666671709975202600e-03,-5.904667259167699182e-03,8.039093017578125000e-01
2.021820575355192523e-02,-5.572118849160723197e-01,5.811674314105569339e-01,-1.644915800481713125e-02,-3.296486843137845513e-04,-9.253101633715477242e-05,9.863116145133972168e-01
-2.249877695469719441e-02,-6.152542961847669023e-01,5.959141017396543116e-01,-2.788053946471700465e-03,9.456072615052305572e-04,-1.438338423858321431e-03,1.048996448516845703e+00
4.624428761484436490e-02,-6.385317802062356884e-01,3.305113442607090501e-01,-1.518009869319774437e-03,-5.770363733486368052e-02,-8.763578318050231283e-03,8.686839342117309570e-01
4.575596416183906612e-02,-5.771837833154715991e-01,3.312320720669336693e-01,-5.733939188639083050e-03,-2.832638823337994480e-02,6.512783111635521427e-03,8.062369227409362793e-01
-3.402560606879623945e-02,-5.557936150213931281e-01,5.925407050583413326e-01,-4.286787719176168398e-04,1.361985859054509578e-02,-6.741731875901836243e-03,9.962142705917358398e-01
-4.426775170849161362e-02,-5.845573130830193920e-01,6.161752747083268922e-01,-4.896049494261788156e-03,5.498465528927970122e-03,7.794188595296923372e-03,1.041764378547668457e+00
-2.405286309822748936e-02,-5.764234469915123782e-01,6.083652833911663560e-01,-2.247253915639656869e-04,-1.150341942714732529e-02,-5.355988535351334338e-03,1.027072668075561523e+00
-3.462625573790076294e-02,-6.150312316289651138e-01,6.228154539099577391e-01,-1.629879060435375764e-03,5.170560976259185298e-04,4.956964166346027566e-03,1.072736859321594238e+00
-2.460765488370675672e-02,-6.376575182114478935e-01,5.715389236014688512e-01,-3.479308519076663303e-02,2.529952002374198303e-02,-3.459259715251860462e-02,1.051584601402282715e+00
-5.791520825595647404e-02,-4.323430832471004126e-01,5.362172547140413581e-01,-2.386217558055820503e-02,1.018821598186454326e-02,-2.962036485799267663e-02,8.487055301666259766e-01
-6.246603072204026663e-02,-4.608737358479403912e-01,5.957735167606170723e-01,-5.394520785850991790e-03,1.188771352118045800e-03,1.482226185117376145e-02,9.246655106544494629e-01
2.799106022516648085e-02,-6.180014703498686313e-01,4.672476149677695645e-01,-1.392404381139990735e-06,-2.941291041610822818e-03,-1.440075076009432117e-02,9.458631873130798340e-01
-2.295553075753916858e-02,-6.299616264186816972e-01,5.994940399172181689e-01,1.540884318377619584e-03,1.647421245113423090e-03,-3.394842595798921395e-03,1.064791202545166016e+00
-3.142268906496396841e-02,-6.207657037960531143e-01,6.197224427191133644e-01,-2.566258639520934120e-03,-4.704266325317865878e-03,-2.323759824456164691e-03,1.074786186218261719e+00
-2.133138312998815456e-02,-6.265585907929464016e-01,5.997090311439342569e-01,-6.767720687494697962e-03,-3.810941007917584538e-03,-8.760431349728581979e-03,1.062201976776123047e+00
-4.076100266393288540e-02,-5.923385793448836534e-01,6.141541058802715281e-01,2.695247491143150896e-03,2.771405683972098528e-05,-2.016814504146719617e-02,1.046723484992980957e+00
-4.367407935089219484e-02,-5.349569342058858590e-01,5.887977456080575323e-01,1.118345513378336299e-02,9.219258915752238936e-03,1.560490451151988998e-02,9.764541983604431152e-01
-5.820778344850598141e-02,-5.004284823388438497e-01,5.951453325960072149e-01,1.572633585849924059e-03,6.085799120088191370e-03,-1.442890053756867332e-02,9.550386667251586914e-01
-3.135030171745997740e-02,-6.113237440940992862e-01,6.038942510158272770e-01,-4.524346502801052800e-03,1.008758645871558716e-03,1.783929696123902949e-03,1.052807569503784180e+00
-4.337357339931453837e-02,-3.687115061621035750e-01,4.636934436156069927e-01,1.273162771924293835e-01,-9.997124994966065381e-02,2.876127792709266134e-02,7.803989648818969727e-01
-6.766807596621016163e-02,-3.527131573525509878e-01,5.506487231406049787e-01,2.416453371461689884e-02,1.488847368265941440e-02,6.682689869894195556e-02,8.097090721130371094e-01
-6.585292911165113727e-02,-3.598049243841481837e-01,5.623361211475402799e-01,4.330596362963994722e-02,1.286483649045518096e-02,4.809654756269526182e-02,8.238623738288879395e-01
-5.608971974600118759e-02,-3.692772882097736797e-01,5.625496265587474065e-01,8.527840335490508711e-03,-1.755525300805519176e-02,3.523647469397820069e-03,8.220287561416625977e-01
2.934065840110694490e-02,-5.804532544719842591e-01,3.998449719787430801e-01,-6.662932272071286390e-03,-1.861701785169721235e-02,-2.760923886397772739e-02,8.593678474426269531e-01
-2.268536356906883725e-02,-6.112051386737160641e-01,5.689249325543969116e-01,-3.429059266966510890e-03,6.849548789549689091e-04,7.352900589352361939e-03,1.022121071815490723e+00
-3.093996742199639494e-02,-6.041428707452570768e-01,5.990502363480296744e-01,-5.177982247456850394e-04,-5.464729533147669660e-04,-3.285236332274192508e-03,1.042398929595947266e+00
-2.568992314908245117e-02,-5.885892262234801997e-01,5.722708741748944172e-01,5.008208576892215352e-02,-2.209438323826390729e-02,4.578170662925196144e-02,1.013055562973022461e+00
-2.589178113342302523e-02,-5.780602338091206382e-01,5.675023923138116100e-01,-1.267038950049881318e-02,8.602583803977303586e-03,6.893223661667119938e-03,9.927267432212829590e-01
-8.118397235081950547e-02,-3.660120075036142340e-01,5.662397129606996371e-01,1.376173878492358872e-02,5.748576185052135974e-03,-1.352457515044414721e-02,8.281937241554260254e-01
9.069380068693888575e-02,-5.769692308656012569e-01,2.359104429094342481e-01,4.121483315651227816e-03,-1.433761448285763088e-03,2.296624684297069677e-03,7.509264349937438965e-01
-8.627704818404546838e-02,-2.845101521858992011e-01,6.374339199861522864e-01,1.399183756786769317e-01,-4.854399587131966003e-03,6.497665082407895476e-02,8.820348381996154785e-01
-3.987718373711382491e-02,-5.735357287217331956e-01,5.840538836759325836e-01,7.547828006549333474e-03,-6.522748433263191904e-03,3.084300357423530592e-02,1.005087018013000488e+00
-3.198597513288374550e-03,-6.190627384496633079e-01,5.121868132364331139e-01,-8.549273813161792704e-03,2.077836576861798786e-03,2.230054464895078747e-02,9.818565845489501953e-01
-2.286703897571970567e-02,-6.138015280830061426e-01,5.776991531838274740e-01,-8.094455707472325914e-03,4.391567507334840671e-03,4.795037115081643257e-03,1.032037734985351562e+00
-8.086265539450067374e-02,-4.375310342996520108e-01,5.860877115202783871e-01,2.046185992587008090e-02,7.004972993717118075e-03,4.732131019675839267e-02,9.044536352157592773e-01
-5.969779605349284646e-02,-4.478311711781129967e-01,5.787172476794167908e-01,2.416123466002965438e-03,1.401126614207825159e-02,2.618078865351686907e-02,8.992631435394287109e-01
-7.667064199917023037e-02,-2.963642273346520639e-01,5.853588583057297567e-01,8.202192848810302417e-02,8.590370293305648816e-03,8.263784289284030471e-02,8.202945590019226074e-01
-8.938535921991297428e-02,-1.067708578227771765e-01,9.011776284459767083e-01,8.131030811146506762e-03,2.948596756777724370e-02,-7.679146970888585388e-02,1.009572267532348633e+00
-2.829494474237634338e-02,-3.236297182509084158e-01,5.457007435505749626e-01,1.242242959622468779e-01,-9.527976413110605253e-03,-1.851766292000004213e-02,7.961222529411315918e-01
-2.108281305632471458e-02,-4.070153803216370880e-01,5.563534341561882091e-01,6.640757105134374727e-02,-4.197593663263097553e-03,5.471362311511900924e-03,8.477030992507934570e-01
5.241684285178581371e-02,-5.912180909244800775e-01,3.268274426219084927e-01,-6.452562294195048759e-03,-6.316732236892540556e-03,1.431937007132730484e-02,8.167294859886169434e-01
-3.329312916632438946e-02,-3.811279921777635527e-01,5.537872561072133548e-01,3.591597544906986739e-02,-1.328636334422349588e-02,-3.126273717647874706e-02,8.229161500930786133e-01
-2.823161302141005691e-02,-3.825278596284508725e-01,5.460928601733214816e-01,6.298283089433429072e-02,2.944232775298099344e-03,7.822758216426290703e-04,8.190138936042785645e-01
-1.199038666422792554e-01,-2.274191495980135147e-01,6.440407449028208164e-01,8.172094003621657721e-02,6.809144863656329009e-04,-3.314993249050950802e-02,8.370422124862670898e-01
-7.668546907923279310e-02,-2.738832867524538250e-01,5.872385235347659105e-01,5.991606015475842845e-02,4.101564654933661375e-03,1.000480650853260121e-02,7.884966731071472168e-01
7.794018189088300352e-02,-5.802470946672666496e-01,2.391244116049456303e-01,-4.846620305196897537e-03,4.104372369432984433e-03,3.656257122681590144e-03,7.519583702087402344e-01
4.831304882546823623e-04,-5.943294568793422439e-01,6.035309996947555433e-01,1.373804636365734150e-03,-6.159028788622298092e-03,-9.748544013308738489e-04,1.037444710731506348e+00
2.524478872780583361e-02,-5.981794723946118886e-01,2.554834763050232160e-01,9.792520200688633117e-03,-3.448343904499105023e-02,1.495203511358313697e-01,8.100173473358154297e-01
3.183224421127713033e-02,-6.531486612092521904e-01,3.668929569850883921e-01,2.861408252009907047e-02,-2.686538350986461196e-02,-5.042470299455877047e-02,9.073170423507690430e-01
-1.592068211869429595e-02,-6.120650261786677593e-01,6.165876315285272469e-01,5.691436726581694354e-04,-5.922291316991754560e-03,-3.199099513656564284e-03,1.064264059066772461e+00
-8.146610506928865514e-03,-6.080861499165686190e-01,6.091698148447374228e-01,1.939256837829098730e-03,-9.888659075301174314e-03,-6.443674236576817961e-03,1.054413914680480957e+00
-9.130447347455274490e-03,-5.988079176875248377e-01,6.114844633697031906e-01,5.253201233381838905e-03,-9.264747683235902143e-03,9.788808652992574914e-04,1.048421740531921387e+00
-4.147694542739562007e-02,-5.453659980534181217e-01,5.873144167703543417e-01,-8.762531214953352479e-03,2.837251057988532648e-03,2.581483482565240239e-02,9.840617775917053223e-01
-5.061414743447307379e-03,-5.852381258529787411e-01,4.995134560287398662e-01,-6.785338098831277497e-03,4.040031029582805307e-03,1.084701850449395523e-02,9.404698014259338379e-01
4.078352998484374714e-02,-6.379012141075954823e-01,3.511716688080193660e-01,-3.938300998325672611e-03,7.362719111606035038e-02,4.530785515009894127e-02,8.888629078865051270e-01
-6.461063304342436198e-02,-4.294496475644482558e-01,5.818128029590914352e-01,-1.469415349926305771e-03,4.048300696581771767e-03,5.048613595524693853e-02,8.913548588752746582e-01
-2.391791267807861360e-02,-6.105358530628486324e-01,5.861876147851163843e-01,-1.023985207521743712e-02,8.251487228611185595e-03,2.370872275173840742e-03,1.036717891693115234e+00
-5.933851835982220657e-02,-2.533193250712398314e-01,3.353495326824921796e-01,-1.058883121363103363e-01,6.382656878154972790e-02,5.619742497406959164e-02,5.703525543212890625e-01
-2.569319294909428245e-02,-6.262566833954469336e-01,6.079634873191792632e-01,-1.364319245963816927e-03,-1.792474205192680836e-03,-4.635448497121846638e-03,1.069031357765197754e+00
4.771355983937444756e-02,-6.373785173149527639e-01,4.045406770615653236e-01,-2.165100681577254021e-02,2.762126985216995304e-02,2.935364519494586960e-02,9.205521345138549805e-01
-1.294949933450546820e-02,-6.070192122958262271e-01,4.719034660187103603e-01,1.561741850973336586e-02,-2.973993094970663401e-02,2.051880710828465210e-02,9.384486675262451172e-01
-9.120223217804698801e-02,-3.180586367270450410e-01,5.716038120594463257e-01,-3.684776791499722037e-02,7.262779835576054117e-03,7.890441167609636708e-02,8.148906230926513672e-01
2.867768744449354645e-02,-6.169489137048009830e-01,4.563466048172919454e-01,1.248731819889146478e-02,1.000426912984346333e-03,-1.147102654852869517e-02,9.363302588462829590e-01
4.208603648084272009e-03,-6.136336694406840930e-01,5.025920676453788927e-01,-4.034113883741944837e-03,1.480073347626222882e-03,7.531694980810224940e-03,9.686397910118103027e-01
-4.650568606007195877e-02,-6.153010493116494173e-01,6.183062169982216361e-01,1.508532307158967894e-03,1.773712071970931850e-02,3.685172167520892571e-03,1.069876790046691895e+00
-3.082387923185744838e-02,-4.241457589273894824e-01,5.602799605911430447e-01,2.010696144340380631e-02,-1.483842333789230084e-02,2.336556484285080837e-03,8.593542575836181641e-01
-9.650611712027432065e-02,-3.962086473351454363e-01,6.145219530461507595e-01,-4.210100228872143413e-02,3.879931585832107482e-02,-4.053075291779084134e-03,9.046338200569152832e-01
-7.297029236505218203e-03,-6.288075583407635172e-01,5.725327712303457384e-01,-7.811800957726386515e-04,-3.377413799166466193e-03,-6.912801794643434056e-03,1.040686130523681641e+00
-3.067113182739623911e-02,-6.059214014561993267e-01,5.978370466860063459e-01,-6.649803363819742699e-04,7.123753472547258297e-03,-2.808297204071690933e-03,1.042910456657409668e+00
1.740990802194348208e-01,-6.816911665609838300e-01,-3.262296054424881908e-02,1.639733417959154255e-02,-6.209968785491937204e-02,2.309201205387428554e-02,7.824165821075439453e-01
-5.876479293336641513e-02,-5.997178340945733543e-01,6.203627557346429455e-01,-1.734903330115113076e-03,1.657770281241708124e-02,1.129289192814793459e-02,1.059451103210449219e+00
-3.294510676143394545e-02,-6.069913557428791018e-01,6.158591518155146494e-01,-3.520132521978957488e-03,8.119186899421393724e-03,7.333294435213228053e-03,1.059866070747375488e+00
7.292504400427540778e-02,-6.060932132662320004e-01,3.134871318517674088e-01,-1.020520146510467754e-02,1.790640053865549808e-02,-1.774752427630495134e-03,8.267803788185119629e-01
-4.149642041687792715e-02,-4.324809976305775683e-01,6.195871619228064953e-01,8.672224203961075017e-02,-3.223208846943120126e-02,1.244165649051498339e-02,9.351562857627868652e-01
7.357956685526487184e-02,-5.763586184423147296e-01,2.912784374913078289e-01,3.330054282738484361e-03,-3.941714740579407503e-03,-6.032565665968814966e-03,7.819797396659851074e-01
4.777221840430506683e-02,-5.928366260144358746e-01,2.894550685934040302e-01,-5.351801358947639621e-03,7.798705579317602443e-02,-4.551645615786963951e-03,8.012543320655822754e-01
-3.583629425040957966e-02,-5.896852874858504734e-01,5.934878329069934733e-01,1.882342527309960572e-04,-1.809996513885769409e-04,1.006592524270948780e-02,1.025501012802124023e+00
-1.020243328094511681e-01,-1.726899595405703702e-01,8.481103229063987614e-01,-6.960804684453210378e-02,2.764818515007372995e-02,-5.557011249887671041e-03,9.958981275558471680e-01
4.242001244552942585e-02,-6.420108891890807801e-01,3.931016364293797860e-01,-5.000696662472514133e-03,-5.782083308607201266e-02,8.406934828658427228e-02,9.288424849510192871e-01
-2.106962877403783380e-02,-6.028630920357560541e-01,5.993945586405421411e-01,1.026263337590358740e-04,5.373800518773146594e-03,-2.520804598051088006e-03,1.041415929794311523e+00
1.027131197055043133e-01,-6.977581217431757521e-01,2.104951598708056371e-01,2.611103534497663070e-04,-1.036912706144996199e-01,3.533979208634038804e-02,8.801420927047729492e-01
-3.309169807366311306e-02,-6.054483520238568284e-01,6.008328929523623074e-01,-1.033750084868455092e-03,-3.630392825590823651e-03,-6.085540217442313680e-03,1.045197248458862305e+00
-2.739973964825087940e-02,-6.040560877237313164e-01,5.967445259967403270e-01,1.303573144603689844e-03,1.259856608756359077e-03,-3.392668490963669618e-03,1.040216207504272461e+00
5.124058171189968536e-02,-6.038666845737534761e-01,3.322073046822041631e-01,1.479473399426167735e-02,-3.683085134844486797e-02,3.272554574240948977e-02,8.367258906364440918e-01
3.092690133650037587e-02,-5.833539979965138844e-01,3.628071549025777554e-01,-6.316772109035929603e-03,-4.419181987004126844e-02,1.019921210657561902e-02,8.352507352828979492e-01
1.943578028285881942e-03,-6.195001981911925082e-01,5.414835274731994996e-01,-8.408197042704283752e-03,5.709833956425273277e-03,7.506641329109455495e-03,1.006512999534606934e+00
-5.101909592169604109e-03,-6.034973422353122618e-01,5.914330725916681075e-01,8.736812142685557864e-03,8.710662880583221884e-03,4.434913030452337229e-03,1.035089612007141113e+00
4.448492977261656045e-02,-5.867903749343712505e-01,3.043251735126747404e-01,-1.263033239998727754e-04,-1.012732165037301124e-01,3.761878442230440905e-02,8.155185580253601074e-01
9.200596390693346893e-02,-6.049556839894411064e-01,2.581060024172258105e-01,-4.267972940380190469e-03,7.603857288588648788e-02,1.629717478704860098e-02,8.045539855957031250e-01
9.404819487267179756e-03,-7.265332048268317022e-01,4.505510480644034921e-01,2.326308879356843787e-02,-1.091063690484981447e-01,1.035202052248002241e-01,1.063182234764099121e+00
3.973294833436245843e-03,-4.032363829497523922e-01,2.654291651067098301e-01,1.074066169950105148e-01,-1.122097434271777106e-01,4.595474945026704894e-02,6.475827097892761230e-01
-2.707939057927132714e-02,-6.078418654085223638e-01,5.919474671651832054e-01,1.812258788466054133e-03,-3.752991932376598897e-03,4.762829186244699675e-04,1.039249539375305176e+00
-2.060342541068127531e-02,-6.087468768577932732e-01,5.988464851856054594e-01,3.217048451258688858e-04,4.984673045143031903e-03,3.058513433118303492e-03,1.045972824096679688e+00
-3.036619620439101955e-02,-6.217500880635620231e-01,6.154213132102847039e-01,-4.190287312875390358e-02,-1.706323790497508638e-02,4.585763921838648810e-02,1.077559471130371094e+00
1.484062790802181953e-03,-6.000812123573114887e-01,4.713657788832404938e-01,-1.490424506856545886e-02,-1.774095744735432233e-03,5.082390381546641502e-03,9.306381940841674805e-01
-1.448149233096014329e-02,-5.669398886952263794e-01,5.906608258665577704e-01,-1.698550807149260683e-03,2.072613608160232823e-02,-7.997252143847244713e-03,1.003599882125854492e+00
-3.133420967072100827e-03,-6.449578695995927813e-01,4.673543685060432828e-01,1.102405091923480684e-02,-3.941900844968478784e-02,5.010627331057741080e-02,9.735635519027709961e-01
-4.435089583007381653e-03,-6.324588187179055465e-01,4.799634623107814635e-01,1.346250909906035638e-02,-9.831714433019041188e-02,1.911145277950385135e-02,9.817880392074584961e-01
-6.468649630258627159e-02,-6.313557717619192600e-01,6.307659804560858952e-01,3.988279646820546732e-03,-2.836054911326063577e-02,7.316083582216150426e-03,1.096120953559875488e+00
-1.712610615421130550e-02,-6.072740929898693407e-01,4.886541543553158951e-01,-7.783961965616415651e-03,-6.909475657788254066e-02,1.722747045843636346e-02,9.581063985824584961e-01
-3.483396048520043947e-02,-6.389152650377825093e-01,6.164088763663323478e-01,1.636734211746640466e-02,1.545676742779369950e-02,1.680907265530553205e-03,1.088101029396057129e+00
-1.092035299693901729e-01,-1.067773281566073151e-01,5.690793003086542790e-01,6.992705280295408166e-02,-1.895801721934928241e-02,1.951113512111804504e-02,6.894327402114868164e-01
7.657136800174151048e-03,-6.208414479712028866e-01,4.712398079520573324e-01,-1.264825668885288801e-02,-2.473353556979968060e-02,-3.603394964783548232e-02,9.526231884956359863e-01
-2.220031327416854827e-02,-6.105997265787139749e-01,6.128381939309061055e-01,9.540554035341663325e-03,-1.439714276377600764e-02,-5.966071536853522449e-03,1.060257434844970703e+00
-2.356322033707792044e-02,-6.248796306904521591e-01,5.820034384212732226e-01,5.546824504435703823e-03,4.369776884744186463e-03,1.628541118824258782e-02,1.045645594596862793e+00
1.086752469667620624e-02,-5.842273255302929957e-01,4.068792546363776408e-01,-1.077506426743282501e-02,-4.688951953915172777e-03,7.940625845109079706e-03,8.644253015518188477e-01
-5.000602021522000673e-02,-6.147313501720963469e-01,5.329344428763796992e-01,3.805896085040802544e-03,-6.487337675911727941e-02,1.311512082644171635e-02,1.000560164451599121e+00
-2.189337748897733291e-02,-6.233062522044134912e-01,5.693130396942054361e-01,1.139948147176864796e-02,6.199034086766204432e-03,-1.038120392364147481e-03,1.033097267150878906e+00
-4.469710899661791248e-03,-6.100253484090031320e-01,4.882780337634886614e-01,-1.371281220812671682e-02,5.982893175991908959e-03,3.199800031315528509e-02,9.547917246818542480e-01
-4.753171328587389027e-02,-6.130280822661744455e-01,5.942406883580053645e-01,2.357631528363943532e-03,-5.823516966949651361e-03,4.593578598224959224e-03,1.046307563781738281e+00
-4.198934656107084634e-02,-5.917983551302109513e-01,4.843180285168224852e-01,9.760397583659881360e-03,-3.534496423188222131e-02,1.938118309746061918e-02,9.347825646400451660e-01
4.611607676496744246e-02,-5.851439908497638731e-01,3.078776556075991655e-01,1.019814360308361929e-02,-4.848299404504169408e-02,9.823158017652572349e-03,7.999383211135864258e-01
1.616801914756613168e-01,-9.800295095221377428e-01,2.511644936911547887e-01,-9.357442185450902394e-02,1.492360359224856048e-01,4.221703334767974020e-03,1.227521777153015137e+00
6.896659050617096054e-02,-5.974285206833497286e-01,3.182691591762698557e-01,-9.310895447878109188e-03,3.846702804051142094e-02,3.490578477977172162e-02,8.250591754913330078e-01
-5.759075871874665131e-03,-6.294485154260612836e-01,5.677427125699541222e-01,7.712539189179056995e-03,8.794040948856258712e-06,-8.630650290739122141e-03,1.037295341491699219e+00
-4.401418400919647478e-02,-5.770692273517956661e-01,5.961818533572567080e-01,-3.288732238429642463e-02,-4.529831994362392561e-03,2.369429228564290044e-02,1.019925951957702637e+00
7.479940299489284961e-02,-5.867099017359971302e-01,3.010063810749641355e-01,-2.516966548861719350e-03,1.528972834603616569e-02,-7.530117382178084552e-03,7.995577454566955566e-01
8.425481452416933026e-02,-7.073787589481421723e-01,1.265553586771107075e-01,1.075930549623898141e-01,-1.245513382693224647e-01,1.756060589437997976e-02,8.626428246498107910e-01
-1.941222932942347421e-02,-6.323103150665833061e-01,5.848784488469394027e-01,8.141198511886160727e-03,2.119799316193441124e-03,1.480220696991627061e-02,1.054537534713745117e+00
7.693533851736422680e-02,-5.989849983667908662e-01,2.827982610256167817e-01,1.019111313152435251e-03,3.254145705852325848e-02,3.788581043834422270e-03,8.010104894638061523e-01
1.035649864875902715e-01,-6.632451201900133597e-01,1.303152154200801216e-02,3.683229281503090907e-03,-1.478699474845113493e-01,-3.834297780024890911e-02,7.725411653518676758e-01
1.123843484749961113e-03,-5.917253865422773540e-01,5.922199028731000015e-01,2.790892477731748804e-03,1.692981709354855063e-02,-3.225256249549822343e-03,1.025772929191589355e+00
-2.029053304571771382e-02,-6.177190442585333008e-01,5.984173281772687814e-01,-7.213889548968192757e-04,7.595651789229163281e-04,2.066427139266581361e-03,1.053266406059265137e+00
-2.124836753468440503e-02,-6.164534530137938395e-01,5.983893499142746153e-01,-1.535017698691309301e-03,1.157568812104828142e-03,-1.213810948461520756e-03,1.052163004875183105e+00
-2.472445888549133775e-02,-6.185929716230152975e-01,6.035587644038057364e-01,-9.837674414260263490e-04,-1.886493405837959096e-04,4.229262951027372864e-04,1.058555960655212402e+00
-1.694103849693129327e-02,-5.988026548217346701e-01,5.973138154506600905e-01,1.043397560617325293e-03,9.498006769040381533e-03,2.424255857145890015e-03,1.036134600639343262e+00
1.225183543093127936e-02,-5.845943210443952376e-01,4.066433462060639048e-01,-1.024960326688353560e-02,-4.344208131745734558e-03,7.853870732724001907e-03,8.647068142890930176e-01
-5.287825634136682218e-02,-3.575342377825397877e-01,6.244346404598325462e-01,-7.718589962243094238e-02,6.347231913378683504e-03,3.964304545748219277e-02,8.835293054580688477e-01
-1.480783241119663397e-02,-6.122823738555742690e-01,5.447135548770845048e-01,-1.093654866758132609e-02,2.157154832838932036e-03,6.132145383940456121e-03,1.002409815788269043e+00
-2.219226982352015543e-02,-6.179611655780747892e-01,6.046201840682103867e-01,-1.578819252253064759e-03,2.149799115299266643e-03,-1.123488137918781391e-03,1.058912158012390137e+00
-2.277009050041355065e-02,-6.185083631260467341e-01,6.025074498508216081e-01,-1.497273474561627328e-03,2.340763444695174826e-03,7.440861174467080976e-04,1.057545542716979980e+00
-2.485555237684992924e-02,-6.169420952481283749e-01,6.026909877761987833e-01,-1.708981977229920507e-03,2.451005030055646797e-03,6.635223223524624797e-04,1.056395292282104492e+00
-5.056632129302661427e-02,-6.219544563349528321e-01,6.074648325994361775e-01,-3.479223377721152571e-03,-5.036947313720235853e-02,-2.891380519063352361e-02,1.070343971252441406e+00
-7.648010008048523878e-03,-5.857563530825347087e-01,4.508022277085726448e-01,-1.073566937481447436e-02,-4.444932277220503547e-02,-3.329012439120052503e-03,9.031755328178405762e-01
2.333500111238859254e-02,-5.711727285987322489e-01,3.533989225683438762e-01,3.999936917246107136e-03,-1.089724612218029472e-02,5.271400866465669917e-03,8.118465542793273926e-01
-2.157580647396182758e-02,-6.103179023698079853e-01,5.624415226557853975e-01,-9.730651864405893969e-03,2.550238963571566531e-03,4.251086311205187762e-03,1.015818357467651367e+00
-9.721153312808528818e-03,-6.135236055610018280e-01,6.038853896126636922e-01,-3.392350033202254454e-03,-9.510930002635772582e-03,-7.168512567917542135e-03,1.054536700248718262e+00
-5.409558411163424563e-03,-4.594000991352463759e-01,5.609308579013585483e-01,4.037553591083190355e-03,1.138407302424938525e-02,7.604267140921291621e-03,8.857613801956176758e-01
-1.707795811241355488e-02,-5.449828347627947434e-01,5.892443417835003805e-01,2.939898272609476042e-03,1.880859449090849581e-02,1.585079958124246957e-02,9.839876890182495117e-01
-1.709151111220040542e-02,-6.077253463414091783e-01,5.869154145799574396e-01,-9.791168310813302554e-05,1.799302431970728087e-03,3.015823505157302648e-03,1.034628748893737793e+00
-1.912952154013864564e-02,-6.015673321088130798e-01,5.879641062945206720e-01,-6.593102616803142189e-04,1.327541645420218797e-03,-3.517352640050860468e-03,1.030259370803833008e+00
-2.533538817899218254e-02,-6.134711628691932317e-01,5.980219761864049577e-01,-6.067439437961756263e-03,1.706433052943635842e-03,-4.149303942691756272e-03,1.049412965774536133e+00
1.719682496438877661e-02,-5.965998121202105153e-01,3.959149033013492081e-01,1.064753030687354274e-02,-9.045596480430875136e-03,-3.162708903820992627e-03,8.678969740867614746e-01
-4.741224124011938351e-03,-5.996896074655679865e-01,5.025052676647464578e-01,8.703110550242762478e-02,-1.355528506055810045e-01,3.278978259996911254e-02,9.970559477806091309e-01
-2.078446862432004050e-02,-6.559023294752704958e-01,5.330993980911976626e-01,5.618234499372516677e-02,-1.503692070550264603e-01,1.582676094690422045e-02,1.067706465721130371e+00
-2.582777223972009678e-02,-7.134393650716360780e-01,7.073966305436880653e-01,8.561509359171315392e-02,-6.692599940065116493e-02,2.419230417048438830e-02,1.245706319808959961e+00
-1.559789795052608091e-02,-5.956531269531699646e-01,5.915171363379062575e-01,1.992946277188021101e-02,-1.155624737627257252e-02,4.080887219733742542e-03,1.029006838798522949e+00
-5.672448638765346940e-02,-5.942055356858820803e-01,5.531169124214423416e-01,1.036503487299214252e-03,1.631030117829578019e-03,-2.368260205274824498e-04,9.942746162414550781e-01
-1.949694336162233893e-02,-6.077126401642822806e-01,6.068902490456873355e-01,4.109821206318559766e-02,-4.782889376671728421e-02,-2.934505805690659427e-02,1.058925271034240723e+00
1.844752818238107328e-02,-9.869036218196800547e-01,7.292264746969392419e-01,7.800250251088844400e-02,-2.493007173571945290e-01,-4.964707923660721320e-03,1.560544729232788086e+00
-6.685926111382821391e-02,-3.975300168903142528e-01,5.842404484573884282e-01,1.132096866359650830e-02,-1.351630389532399411e-02,-5.531909418672789625e-02,8.710262775421142578e-01
-2.397932341268508433e-02,-5.857719197397860400e-01,6.074425878378798549e-01,4.701246015409311918e-03,2.246731482351310011e-02,1.251414450589630710e-02,1.034931421279907227e+00
-1.069727242384774790e-01,-1.695648312036887040e-01,5.502444282843335088e-01,-9.180563927541029318e-03,-3.355595617738682101e-03,-3.924763115405486419e-02,6.941876411437988281e-01
-2.545327952840557156e-02,-5.975512523070696247e-01,5.850286039936963833e-01,-1.829769282590018847e-03,-5.429899154098297674e-03,8.899457661504692543e-03,1.024488091468811035e+00
-5.013447412851796542e-02,-4.803119965198795471e-01,5.258614293155727815e-01,2.714655198870003991e-02,2.016749580234104063e-04,-3.514767322593244370e-02,8.777935504913330078e-01
-8.082732519370663254e-03,-6.193818670082944511e-01,5.123590498524418502e-01,1.203908887295341429e-03,-1.056175308307255936e-02,3.111738055219434584e-02,9.828203320503234863e-01
-6.060514228340717346e-02,-5.218656334725534363e-01,6.027154052983365595e-01,2.036739150560009856e-03,1.194694531014886887e-02,-2.745876947049695135e-02,9.805210828781127930e-01
-1.064890907568589659e-02,-6.262081609653722403e-01,5.397154289190390086e-01,1.003239165019104845e-02,1.985854927851517845e-03,-1.575393891578611089e-03,1.010404467582702637e+00
-6.261504370683262932e-02,-5.025543379013465151e-01,5.939997480552221543e-01,1.695554855207989870e-03,-6.089219413123353984e-03,-2.638888891933756711e-02,9.569582939147949219e-01
-6.477303878850747265e-02,-4.887089936505485399e-01,6.021954458484998218e-01,1.055979978890339956e-03,-1.540979401143215306e-02,1.266673319889738067e-02,9.531618952751159668e-01
-2.287387756057607247e-02,-6.052885487768049355e-01,6.012749578338504319e-01,-2.794889100125321282e-03,-2.894984571178127984e-03,2.233380052385961975e-03,1.045153379440307617e+00
-2.173244759292727174e-02,-5.636266226500045162e-01,6.587945638195210618e-01,-9.749517428424191168e-02,-4.352097596046290012e-02,2.750307049640190321e-02,1.077964425086975098e+00
-2.090643633766999313e-02,-6.349596659972810420e-01,5.953762192131545339e-01,2.328437672939888316e-03,4.060605014758557341e-03,-3.900594859679795082e-03,1.065554976463317871e+00
-1.499954959466280472e-03,-5.953604699760812746e-01,5.974325665062192314e-01,-5.149564173768432724e-04,1.620191725906510935e-02,-4.893820769256198785e-03,1.033408403396606445e+00
-2.154385172810461407e-02,-6.363717233308072707e-01,6.031842366309598802e-01,4.032931272348085940e-03,1.342580799356853614e-03,1.004769216013110802e-03,1.073525071144104004e+00
-3.062871406063520652e-02,-5.920034868245984683e-01,5.863779549246475042e-01,-4.125690927544405431e-03,1.445507196793220997e-03,1.079657588581185539e-02,1.021086573600769043e+00
-2.166493205521297788e-02,-5.669359635387356544e-01,6.047848947828657895e-01,-8.944582488694773070e-02,6.836901826206004916e-03,-3.690494070882734123e-02,1.029355406761169434e+00
-1.890693140392359778e-02,-6.225189767111073413e-01,5.495424038725403859e-01,1.373642357790827093e-02,-3.562080625423041502e-03,1.553295901447488900e-02,1.015841007232666016e+00
-3.807412626395443450e-02,-6.202114120893256199e-01,5.790444899363981213e-01,3.874960987343801979e-03,-2.857119680159164211e-03,3.668881936633126666e-03,1.038786292076110840e+00
-4.529507403566397639e-02,-6.153110326300567090e-01,5.808288328471558071e-01,3.033863550273686351e-03,-1.024898389203286048e-02,1.381868608661352381e-02,1.036708950996398926e+00
-1.291512851014643172e-02,-6.331413229908792184e-01,5.690598552765948615e-01,1.197123795950336828e-02,5.007109141194167508e-03,2.239814723354312340e-04,1.041555047035217285e+00
-5.908825901464449110e-02,-6.062985786695621604e-01,5.833210456343506101e-01,8.604665775952438644e-03,-2.499642724662768517e-02,1.716077952426266554e-02,1.032783627510070801e+00
9.107698191725810410e-02,-6.929655234419267451e-01,2.296597721484064381e-01,-4.636827590463651200e-02,6.999234461541795245e-03,-2.416060136473923217e-02,8.665626645088195801e-01
-2.322914300540192614e-02,-6.149794828611639952e-01,5.873849865257407821e-01,-6.487338654735577866e-03,3.892897366206970761e-03,3.952500780081437230e-03,1.041425824165344238e+00
6.389714885012609535e-03,-6.136946527850722921e-01,4.818672704598756518e-01,-1.689606455663171525e-02,-1.067692311838615987e-03,2.698554148806233885e-02,9.531338810920715332e-01
-3.291571695314317314e-02,-6.075166346205725931e-01,5.790853439403385039e-01,-5.469170347845996342e-04,-3.013240088597186808e-03,1.946843410560587448e-03,1.027816772460937500e+00
-5.530471952748222675e-03,-6.019001991101419202e-01,5.246206281480035871e-01,-2.623233457074591705e-03,1.038284885044743304e-02,-9.029472671074461818e-03,9.764587879180908203e-01
8.924739007395082746e-02,-6.233439357714839479e-01,2.059299021788591477e-01,-2.602957512043967830e-02,1.610289136981302993e-01,-1.964001394078714394e-02,8.279667496681213379e-01
7.863415050552113872e-02,-6.661923298776089020e-01,3.328217834662213215e-01,-2.385737132716567524e-02,1.940290189260981610e-02,-6.545400020203403883e-03,9.009267091751098633e-01
-5.344196382043385485e-02,-5.943782982838369255e-01,5.622984206865773160e-01,1.376593758864872374e-03,-6.923470880446338377e-03,-8.882829843627143909e-04,1.002485156059265137e+00
6.026565651589690931e-02,-6.275672076260578880e-01,3.194722310332406279e-01,-1.711431254446047975e-02,9.494801997768685664e-02,3.430555035484117443e-02,8.660528659820556641e-01
4.745557704117984998e-02,-6.019731582533764946e-01,3.506832645420508432e-01,5.480560244332158661e-04,1.196196156744704954e-02,-3.351990100082472002e-02,8.452398777008056641e-01
-1.504496251640217996e-02,-6.172198871999307057e-01,5.801800150464336836e-01,6.465079759063391881e-04,2.410304650518411539e-03,4.777282225207935516e-03,1.037026524543762207e+00
-3.865045896396504532e-02,-6.154778122097849247e-01,6.052178118845966681e-01,4.428343737413861694e-04,-8.311338971383391838e-03,7.926041988900126706e-03,1.057872056961059570e+00
5.889790040023423767e-02,-6.080440464174063919e-01,3.484073926425971801e-01,9.704062895525128723e-04,1.481222863958011129e-02,-3.653569524181369405e-02,8.522786498069763184e-01
-1.877724403566473702e-02,-6.016403993912206039e-01,5.116351393612662557e-01,-1.181616753209276116e-02,-1.422093669929580702e-03,6.390385216921938040e-03,9.647652506828308105e-01
-3.445285683425271250e-02,-6.084609534480677207e-01,5.766101675462731446e-01,-1.251805815279755964e-03,2.224691133538875699e-03,3.623474517257478395e-03,1.026497602462768555e+00
1.286875180428238008e-01,-6.724359164925489685e-01,1.114388876798859673e-01,-3.242054426638341785e-02,4.965584926766539869e-02,1.645040096899259494e-02,7.997751235961914062e-01
9.543051002307154085e-02,-6.596552218013209679e-01,2.874228462731635569e-01,1.269909888685199009e-02,-4.604961723787509564e-02,-3.829042543810690785e-02,8.736304640769958496e-01
1.634427523137530619e-03,-7.416014457956674466e-01,6.546305256874515033e-01,-1.084604065143239954e-01,-1.314101718693511112e-01,3.853803727732101059e-02,1.247271418571472168e+00
-7.864646503034386504e-02,-6.337702815985585270e-01,6.366312814577952395e-01,4.124098127385019720e-03,-5.677692119566882245e-02,1.121194932052651562e-02,1.107678413391113281e+00
7.595054017764196752e-02,-5.770497641903753472e-01,2.417966619000276873e-01,-3.406194234158076584e-03,-1.165526321255085269e-02,4.375439020330478684e-03,7.501410841941833496e-01
-1.053864135035865734e-01,-9.325426071644529746e-02,5.718342513977523467e-01,8.030374153065848730e-02,9.304193306495869148e-03,4.020630011110246788e-02,6.892127990722656250e-01
-4.480456641955793406e-02,-6.031929758274642284e-01,5.555175911820567913e-01,-1.434939567200501677e-02,-3.329486530798259070e-03,1.433201279122066222e-03,1.004019141197204590e+00
-1.072034206863932415e-01,-3.011541888789031618e-01,5.824528891773826933e-01,-3.020016131124230244e-02,-9.856363190684698863e-03,-3.646732767736202488e-03,8.062689304351806641e-01
-4.991073322654712707e-02,-6.343813291930071596e-01,6.728871137147016679e-01,-8.816577153090081331e-02,-7.259995263259569342e-02,3.654854391260514007e-02,1.153098464012145996e+00
-9.590001815113026462e-03,-5.749383792368619739e-01,3.962231591256742402e-01,3.545034173505785553e-03,-5.544466726089373326e-02,3.580660904394000494e-03,8.503102064132690430e-01
-1.099859438757638114e-02,-6.192535432381334193e-01,5.385058733028595945e-01,1.318087037229411472e-02,1.543019204663581946e-03,-2.018774596379965900e-03,1.003348708152770996e+00
-4.413439384819294042e-02,-6.190056763025849618e-01,5.591304777538288473e-01,-1.065029730269465881e-02,-3.538312095107080946e-02,-1.460244304681719042e-02,1.022712588310241699e+00
-1.072156121055783673e-01,-2.601427529947019646e-01,5.711782590479830279e-01,5.368579671684334947e-03,-1.052034974594868305e-02,-4.006879804503730991e-02,7.697952985763549805e-01
-2.273635931971318760e-02,-6.130051606194134584e-01,5.811428888691744232e-01,-9.460360798039632764e-04,-4.543751006920502508e-05,6.102384404794427772e-03,1.034240245819091797e+00
-2.168757052640368777e-02,-5.352488717833481235e-01,5.912716942652931351e-01,-8.555508057824522160e-04,2.059598001546528515e-02,9.609824987982438366e-03,9.776544570922851562e-01
-2.293351128446596138e-02,-6.084266177563825151e-01,5.803422997778585612e-01,2.588149260637011197e-03,-3.521712241783354273e-04,5.914769081349446553e-03,1.029603362083435059e+00
-2.419624807517942178e-02,-6.345687828149247922e-01,6.023944270116925459e-01,2.894067529183752107e-03,2.602783279577989672e-03,2.184468811112133362e-03,1.071300148963928223e+00
-2.118750619177312694e-02,-6.245231545623893821e-01,6.050818868080438673e-01,3.463449463862937165e-03,1.348733136033171236e-02,4.640987863052041355e-03,1.065234303474426270e+00
-8.294625070561412183e-02,-2.935299951802837204e-01,5.715561661976310548e-01,4.068358168925072932e-02,-9.868533059927270257e-03,-4.680026287081222314e-02,7.889074087142944336e-01
-5.785312436923262247e-02,-3.158860648546556460e-01,5.569362627912735064e-01,1.116601426592403884e-01,-9.497057139360619987e-03,-2.187126000934670744e-02,8.014315366744995117e-01
-9.410638078094774039e-02,-2.294266357153756930e-01,6.050062843579816496e-01,1.259651132670168705e-01,1.509827057351015300e-02,-3.003367722290210470e-02,8.078773021697998047e-01
-2.673815663037736740e-02,-6.268367252517953458e-01,6.018445362555360223e-01,6.873968821926309614e-04,-2.949343914599610234e-04,4.816716423168223953e-03,1.064198017120361328e+00
-7.552443269594591446e-02,-2.223267504587498888e-01,5.444616012053680176e-01,6.946947691249867607e-02,2.872137066348507285e-03,9.488935696872527123e-03,7.153474092483520508e-01
-1.009579650312935895e-01,-2.594800749158916453e-01,6.283784574337654139e-01,1.060100476735072322e-01,2.491390041231308569e-02,4.726407493301760382e-02,8.455501198768615723e-01
6.622263711314171908e-02,-6.359017029876998794e-01,3.158602745357121377e-01,-3.990941886065615951e-02,9.056159949301063883e-02,3.543815837762840509e-02,8.739132285118103027e-01
-3.090578139960691723e-02,-6.279629155169529353e-01,5.928412223453883856e-01,6.654928598130890362e-03,1.008446756034820930e-04,3.280357917994545743e-04,1.057394623756408691e+00
-2.218218020765264434e-02,-6.294419990580341073e-01,5.755076447824016839e-01,9.376120704432562569e-03,2.311135984560345764e-03,-5.280288209007561644e-04,1.043662428855895996e+00
9.681883831357132597e-02,-5.917477226942855495e-01,2.380213008152633480e-01,4.761265343802068180e-03,-2.226016038922081202e-03,7.585172645915878344e-03,7.691195011138916016e-01
-2.054514957698435479e-02,-6.283819567371645709e-01,5.999151878311318464e-01,-1.959760656143855022e-03,4.717928963535579154e-03,4.579690083063788788e-04,1.063792347908020020e+00
-3.463644136784924110e-02,-5.739704480693250677e-01,5.747766680993006139e-01,1.137670658747311767e-04,-9.226338021273547754e-03,-5.893707587232148090e-03,9.956416487693786621e-01
3.913230254371087569e-02,-6.092067582613356347e-01,3.964761127869714241e-01,4.773852688135276495e-03,-2.159949355099896086e-03,3.920243725996340467e-02,8.856697678565979004e-01
-1.525036721159176573e-02,-6.259881321274926025e-01,5.509177361064306888e-01,-6.988377608209537899e-03,-7.020654704359529773e-04,-3.502053598796295297e-02,1.021349310874938965e+00
-2.611575983999186307e-02,-6.328023367126117682e-01,5.953546200450551273e-01,5.143789855136246709e-03,-2.322938097694669281e-03,3.944186467069604046e-03,1.063707709312438965e+00
2.088763824611014619e-02,-6.253635872274907470e-01,4.718067959200394901e-01,-2.771482608214394933e-02,8.798541524453225293e-02,3.847342723368037468e-03,9.684776067733764648e-01
-4.738491967228618262e-02,-6.086102538044410037e-01,5.710290417353628412e-01,-8.345960031728652181e-03,-2.863726353822760792e-02,-9.875440439455231839e-03,1.023445725440979004e+00
-2.911292573351640517e-02,-5.902503096708300312e-01,5.914188069605198494e-01,6.807141072423779707e-04,3.043174970539220224e-03,1.063835187767975601e-02,1.023966312408447266e+00
-1.234569657663169354e-02,-5.767379911416873339e-01,4.850487538176110336e-01,8.838950478288568058e-02,1.317245649249189354e-01,3.948158905696142612e-02,9.627222418785095215e-01
9.257263766662401916e-03,-4.208431021901027358e-01,2.875681909185062168e-01,2.657283330777942556e-04,-3.040202943482793723e-03,-8.263099049588959119e-03,6.183669567108154297e-01
-1.541753464911639789e-02,-6.187419953835621156e-01,6.157163536604975951e-01,-1.032447851628168559e-02,-3.310492799264995716e-03,2.912077304373759164e-03,1.069339513778686523e+00
-2.404759066266797668e-02,-6.118678060588043088e-01,5.953628397371802938e-01,-2.221632932703670234e-03,-8.757236694965445925e-04,-3.177824212157580666e-03,1.045634388923645020e+00
-2.730621889074331954e-02,-6.079684075130207255e-01,5.911306525870407835e-01,-4.367882080252447931e-03,-3.922940586939397886e-03,-2.418267530858851221e-03,1.038680195808410645e+00
-2.018224427030679974e-02,-5.901309851547454910e-01,5.931265676869285075e-01,3.818254802623449132e-03,-9.657828379912865302e-03,-1.413716931705055226e-02,1.025410652160644531e+00
-3.690305023499211579e-02,-6.078813219193072159e-01,5.921105668684306655e-01,-1.214283385783585011e-03,1.534342781838019844e-03,-5.613020108041827903e-03,1.039679527282714844e+00
2.970562620004232879e-02,-3.925084691671702486e-01,1.975494582989980596e-01,2.865695985668172477e-02,-5.385171311788106152e-02,9.135860080900419511e-02,5.599153637886047363e-01
-5.984573738521257145e-03,-5.990882718932791784e-01,5.905686370625757853e-01,8.299939667575820246e-03,8.260699197359670093e-03,6.401454488414365374e-03,1.030533790588378906e+00
7.787793056957675875e-04,-5.723827657519207079e-01,5.862824174558497470e-01,1.598213495755899515e-04,1.379781974528730346e-02,5.370294779571828381e-03,1.003780126571655273e+00
-3.092667597686618586e-02,-4.296678598482743250e-01,5.221222968877218262e-01,6.811423971762835261e-02,-1.216138789506474721e-02,2.867342530786714735e-02,8.379796743392944336e-01
-2.142205794935218843e-02,-4.494102725088267025e-01,5.634715396835987544e-01,2.669698518617852692e-02,1.879271497521456391e-02,9.887240176543203932e-03,8.826624155044555664e-01
-2.148063814069294669e-02,-5.031799479343728176e-01,5.826280675733187531e-01,2.331006051139971821e-02,1.875940648245917955e-02,1.970964433434333266e-02,9.443683028221130371e-01
2.627314820332999831e-03,-5.331393724576533044e-01,5.741803555882742938e-01,1.041187334848921002e-02,1.520199234411577331e-02,-4.010787738884269774e-03,9.596899151802062988e-01
-4.487468064670580015e-02,-6.048467810594797545e-01,5.822336514459992562e-01,-5.110352295972717118e-03,-3.606274534519089605e-03,-1.237022486580051806e-03,1.028648972511291504e+00
2.936533659180725481e-03,-4.979155237264234479e-01,5.650789116920141852e-01,1.766453379562699100e-02,1.746155350127980357e-02,2.090890190146832070e-02,9.228051900863647461e-01
-8.567461402194409895e-03,-5.897786469546203447e-01,6.062933021239549358e-01,-1.160446944734367346e-02,-1.013559329011489395e-02,9.639981128947400224e-03,1.036443471908569336e+00
-1.793513858254913024e-02,-6.186773185290904697e-01,6.037866157353370955e-01,1.039263715277722726e-04,2.284472524587810756e-03,-9.965737143048229198e-04,1.058745622634887695e+00
-4.856016309240925727e-02,-7.676453009359804902e-01,8.329014490670669790e-01,7.061935709756644863e-02,-6.971081175607812819e-02,-3.320204346212712182e-02,1.400268197059631348e+00
-3.289031341261216407e-02,-5.919460429290732684e-01,4.910377917026855776e-01,1.214730030913232367e-02,-5.605461236546143734e-03,-2.497825368766172545e-05,9.383420944213867188e-01
5.391894232192594519e-03,-6.476547121673521534e-01,6.899594823379693320e-01,-1.344828156727628510e-01,1.845393822702502407e-01,-2.468385180261671932e-02,1.224910736083984375e+00
3.983441079653184981e-03,-6.403827044685873604e-01,6.621219172781699358e-01,-1.467061677533121333e-02,1.310825388298333949e-02,3.402043843818458244e-03,1.128553032875061035e+00
1.546320807765803017e-02,-6.030595616928994263e-01,6.401466671255330310e-01,-3.956714438392223282e-02,1.618838021896306517e-02,-9.291159855503388840e-03,1.079315781593322754e+00
-2.418652707725538198e-02,-6.166584013806897246e-01,5.992704714236323227e-01,-8.287737163399348404e-04,-2.623972804230928431e-05,-1.181594802994060571e-03,1.053142189979553223e+00
-3.056112335757105170e-02,-6.464842469687105408e-01,6.588015530302838707e-01,-3.916777777756801429e-03,-5.837543730753834773e-03,3.056405260424760201e-03,1.131084799766540527e+00
-6.283125223541806414e-02,-5.945613791437394102e-01,5.616892350372114651e-01,1.184358468293707461e-04,-8.142093053015642861e-04,-1.925273467116673165e-03,1.002423167228698730e+00
-2.479014067721584114e-02,-6.264817631708073931e-01,6.309682797478237681e-01,2.709830464041117042e-03,9.442584935789175493e-04,-5.436674238497677183e-03,1.089371204376220703e+00
-2.750080144216088263e-02,-5.173954736439623225e-01,6.277546453256904746e-01,-1.070496808629600588e-01,4.654261333068919482e-02,1.763276106250240630e-02,1.015959143638610840e+00
-1.570212341244081903e-03,-5.921291599254286941e-01,5.895731999593918360e-01,3.054360849059670983e-03,6.983651324693363350e-04,-4.018562769734427068e-03,1.023422360420227051e+00
-6.666532594708621251e-02,-6.136769799692123328e-01,5.986198959631390260e-01,2.601428914581354473e-03,-2.149558589353443849e-02,7.850121600768216260e-03,1.052300453186035156e+00
-2.737110774436254251e-02,-6.574553257234423409e-01,6.215753067226799100e-01,-6.227080540880094994e-02,-3.732805350564367269e-02,-2.972743566731107789e-02,1.116016507148742676e+00
-6.569771226781977169e-02,-6.076393074223793711e-01,5.724624831156959193e-01,-7.317879618306385482e-03,-1.441127413660942512e-02,-2.644874869739377490e-03,1.023522973060607910e+00
-5.929272092976756864e-02,-6.328988035763359887e-01,6.125273679752508693e-01,3.574103441975503854e-03,-6.890053712756070460e-03,1.834054329638562866e-02,1.080238938331604004e+00
-5.277526045586264369e-02,-6.609069202865787140e-01,6.625639346946605723e-01,1.478840440355749623e-02,-1.864859702825564722e-02,1.304924762146243353e-02,1.148374915122985840e+00
-1.117167788553929259e-04,-6.300868221037952965e-01,6.193524181285230412e-01,-1.252267966377599261e-02,-3.925107420149395905e-03,7.536897608134171360e-03,1.082376360893249512e+00
6.567514195543001920e-03,-5.917358895790141293e-01,5.856382697746147503e-01,6.875534079909848689e-03,1.010824974926356409e-02,4.848069233978680170e-03,1.019935727119445801e+00
-3.133302994237061739e-02,-6.144301227776617358e-01,5.562007644001897289e-01,1.394318534001725597e-02,2.658394395538216451e-03,-8.850710001206949819e-04,1.014097690582275391e+00
-7.272948633584522954e-04,-5.378520072131879326e-01,5.819459789948093764e-01,-2.352325833710926933e-02,-8.692419413675881584e-03,-5.797241881080042979e-03,9.710648059844970703e-01
-2.560221902808415551e-02,-3.865738935090988759e-01,5.716858929450074900e-01,9.299476817270728446e-02,-1.301627657478043529e-02,-9.108775124705807691e-03,8.540251851081848145e-01
-2.723089029006587475e-02,-6.326167615276446776e-01,6.026960262620599806e-01,7.811752215293983961e-03,4.145941051987516932e-03,5.474806639914796096e-03,1.070034265518188477e+00
2.514005299042443298e-03,-6.115289932332793610e-01,4.800084817773379031e-01,-1.446693060731877797e-02,-2.103276805544822617e-02,-1.077886395186396229e-02,9.489760398864746094e-01
-2.205214093966817793e-02,-6.280276945097378327e-01,6.012474038854039859e-01,3.029247133305153911e-03,1.402217256138326351e-03,5.948842943998298993e-03,1.064684271812438965e+00
-3.047670776189083039e-02,-6.347450058744343870e-01,6.050411856891779738e-01,2.623731748688071415e-04,2.559545039715784790e-03,3.594544603517046640e-04,1.073809504508972168e+00
1.736672244029051349e-02,-6.038698969848531606e-01,4.430138201528362463e-01,-6.290297961103468762e-03,-2.728289404197406162e-02,-1.410606208290117111e-02,9.135023951530456543e-01
-5.387801040880824122e-03,-5.923333921035468519e-01,4.377492772658677089e-01,-1.700792731369680372e-02,-2.878816257091696557e-02,-2.652379057903698351e-02,8.980187177658081055e-01
-1.058691161050788823e-02,-6.087851622623200454e-01,5.436505767315732429e-01,-1.745477535356205687e-02,-3.100770387087873822e-02,2.410367938781301025e-02,1.001052260398864746e+00
-3.587981301140769075e-02,-6.281032394855473600e-01,5.908974134071753870e-01,7.401827122155290803e-03,5.189034249178977286e-03,-3.730306508850220930e-04,1.055943131446838379e+00
-2.894542462838206251e-02,-6.318004085434630879e-01,5.990430201006172739e-01,2.598997635143165518e-03,-3.988361599827120428e-04,2.792301683941207993e-03,1.066036462783813477e+00
8.992272777531722106e-03,-6.081255198007835538e-01,4.609903567424527004e-01,-4.823177429312258159e-03,-2.176576587786794095e-02,-1.249843524870310023e-02,9.306085705757141113e-01
-3.512080166005604465e-02,-4.381491201460991913e-01,5.926483495588757977e-01,1.656894414702478335e-01,-1.137166333027133797e-01,-3.946551949875942711e-02,9.671404361724853516e-01
1.860072498442710831e-02,-5.735165194517701792e-01,5.782172032639782966e-01,5.027544954771524105e-03,9.155970290758231114e-03,3.687896627482425797e-03,9.977475404739379883e-01
-1.137453414597245846e-02,-6.495576600678366619e-01,5.611107641505536092e-01,2.391968724979641817e-02,-3.093522992599429325e-02,2.738760887158505491e-02,1.052238225936889648e+00
-1.045843714817700290e-02,-5.971629039231305391e-01,6.128090188988837284e-01,1.227584761776223388e-01,-3.934166463184659429e-02,5.866092848198993515e-02,1.076352119445800781e+00
-1.736060838872378886e-02,-5.820359561954397964e-01,5.511633314176335174e-01,2.525130855409934722e-03,4.030732695891114242e-03,1.130645195568384838e-03,9.814177751541137695e-01
-2.049799248702616206e-02,-4.420453425717641993e-01,5.929420053939132851e-01,-5.584513506253500903e-02,1.367151363073853577e-02,-5.902954468329615206e-02,9.126746654510498047e-01
-4.361960567800564348e-02,-6.094282364027419074e-01,5.834660282217560834e-01,-6.280779847205532514e-03,-1.093158679737405792e-03,1.165680717835383901e-03,1.033591866493225098e+00
-2.436690023529414911e-02,-6.155634278691460848e-01,5.906811015213661031e-01,-1.162453609573837294e-03,2.918255481421455893e-03,3.127304446129286746e-03,1.044734716415405273e+00
5.891656759118849701e-03,-5.892070823281621017e-01,6.884704120677812567e-01,1.185193626460726152e-01,-3.547495932783342049e-02,-2.725568090859459627e-02,1.128894448280334473e+00
-3.297982473753358068e-02,-6.158385984036934824e-01,5.982872360946296375e-01,-4.081868370733425511e-03,-2.131504370895743637e-04,9.452339066810185346e-04,1.051767468452453613e+00
-1.204990356661289064e-01,-2.022394737514444096e-01,7.165033500731488036e-01,-1.264038609729661589e-01,8.961303272339468662e-02,-1.412000827169931048e-02,9.210292100906372070e-01
-4.161546522958670113e-02,-5.893793439315974103e-01,5.285210332078746909e-01,-5.723622393049352872e-03,-3.311225804382149536e-03,1.672656192297470928e-03,9.682668447494506836e-01
-1.013937337256929083e-01,-3.398040446241492596e-01,5.731800839414041837e-01,1.219515500608429545e-02,-4.254713661426634194e-03,-4.113530488893737957e-02,8.235845565795898438e-01
3.710320037757515454e-03,-6.206189166842418503e-01,5.056409005469847395e-01,8.008501313665329288e-03,-5.844789214141950755e-05,2.810207936484064237e-02,9.785974025726318359e-01
-6.536298781082539033e-02,-5.776118039488079559e-01,6.001198658745902081e-01,-5.150520574079955199e-02,6.746479197216270762e-03,1.423840052626351715e-02,1.027064800262451172e+00
-5.886593653969167395e-02,-4.490557617066995300e-01,5.803881228023979322e-01,-2.408804779089060086e-02,1.524589953330785820e-02,1.282844702685024749e-02,9.018070697784423828e-01
-5.061361387765254266e-02,-5.414959455958282541e-01,6.043100505958787227e-01,-1.879109813076117533e-02,1.441718197818087251e-02,-2.844044995564308162e-02,9.977426528930664062e-01
-5.213641633911503259e-02,-5.900733252716187094e-01,5.451818862278110522e-01,-4.913357081897647225e-04,-5.252112345322732835e-03,3.919257103612457365e-04,9.836507439613342285e-01
-5.029421191790130197e-02,-6.123328030707515524e-01,5.852505456213952240e-01,2.094929317032371424e-03,-7.483942857226967733e-03,-1.363614016559212523e-03,1.037878632545471191e+00
6.708075163638374527e-03,-6.087719810971478074e-01,4.633637412654282306e-01,1.664380563241781019e-02,-2.325535315721798200e-03,3.114968760392154354e-02,9.339008331298828125e-01
4.076941309437487337e-02,-5.958117609906936618e-01,3.674746967076783499e-01,6.316140365463428219e-03,-1.473037066665241861e-02,-7.208855031776497356e-03,8.490423560142517090e-01
1.563986963811618558e-02,-6.104523187805536155e-01,4.398230898150306545e-01,1.227276392487903697e-02,-1.457307793579315155e-02,1.483444479232615132e-02,9.161058068275451660e-01
6.021787038654274893e-02,-5.980613658245339526e-01,2.723399793031876515e-01,6.310568509619848832e-03,-4.226796328265267078e-02,1.881091913559378853e-02,7.902554273605346680e-01
-3.056890121145415529e-02,-6.025554691692274201e-01,5.403747568759383890e-01,-1.112513213355673276e-02,-2.031756047543317387e-02,5.881558267640606998e-03,9.906719326972961426e-01
-5.137061184418126314e-02,-6.901743640245202593e-01,7.210506774404673580e-01,-5.875444270750559972e-02,-5.360090733709818589e-02,6.910626858564367092e-02,1.237510800361633301e+00
-4.252775694946032276e-02,-5.979150913619325491e-01,5.385078553176960714e-01,-1.139662119014255709e-02,2.074143013702548183e-05,-5.511048121293203941e-03,9.844988584518432617e-01
5.340262472895385137e-02,-6.073800136792750770e-01,3.141802230777287486e-01,-1.992968770865521932e-02,1.436771048194796230e-01,1.515644712285745856e-02,8.606776595115661621e-01
-4.956635022047450878e-02,-6.681008935750241129e-01,6.693825363986412036e-01,-5.524203699419732300e-02,-1.055610098633826266e-01,2.672503246278283562e-02,1.178513646125793457e+00
-6.879014411578551758e-03,-5.847413748968394165e-01,4.012420285796828301e-01,-6.115548374679379701e-03,-5.105880732241319803e-02,-2.880046286864525878e-03,8.627187013626098633e-01
4.496828785107549742e-02,-6.015087723360412753e-01,3.450230301139741163e-01,1.051188289949049615e-02,-3.973787665119761503e-02,1.907112512727278386e-02,8.414890766143798828e-01
1.433302082781926293e-02,-5.428273231242938257e-01,5.858745148307054063e-01,-4.496765197954821769e-02,-2.476988734121244110e-03,1.487742018285843036e-02,9.809567928314208984e-01
-6.128657093606647288e-02,-5.963911471151789323e-01,5.558278116494759225e-01,3.076363851524953775e-03,1.339076517166889911e-06,1.197258610209611229e-03,9.987094402313232422e-01
-2.678169335573184207e-02,-4.280200660386400124e-01,5.754105974381646949e-01,-3.292067589578747885e-03,3.785816076776639741e-03,-7.816497577081355300e-03,8.749338388442993164e-01
1.566927708270667366e-02,-5.328161551785687289e-01,5.776736538294090506e-01,-3.958162244324655438e-02,-4.873845210951901694e-03,1.954326378248601864e-03,9.642195105552673340e-01
-7.365803619454158735e-02,-4.029169362329914073e-01,6.083222438709783297e-01,-2.160410401614488995e-01,-6.568129344438931871e-02,-1.940840475831638601e-02,9.757817387580871582e-01
-4.301102910746100461e-02,-3.794173931684806100e-01,6.197484200313942981e-01,-1.195453274527934484e-01,2.479967392590511424e-02,-2.601474678928559700e-02,9.067108035087585449e-01
-2.555073382914375274e-02,-6.109259045642453367e-01,5.913766758116671962e-01,-2.563126401570143338e-04,-6.745614017152169262e-04,-3.339555782498163181e-03,1.041360855102539062e+00
-2.063387247141294789e-02,-4.980330884406539704e-01,5.846520028325050689e-01,-4.215097005914435202e-02,9.071965317421531311e-03,1.136202360831458898e-03,9.427751302719116211e-01
3.876808413802057540e-03,-5.499423715188970219e-01,4.219254255272386067e-01,-5.447091406665448970e-02,5.090832694968864397e-02,-8.574840276174457154e-02,8.670284152030944824e-01
-2.324635270183462998e-02,-6.189525038426132442e-01,5.973799461214990281e-01,-1.709360690813677836e-02,1.704272298370357666e-02,9.985723828413279116e-03,1.054419636726379395e+00
-2.347601588990792104e-02,-6.356935091856771303e-01,6.039240898108052535e-01,1.436696221731300748e-03,-2.656466004875399252e-04,-6.461215319804829290e-05,1.073570132255554199e+00
-8.010220376724039304e-03,-6.233545682997649884e-01,4.769671121033550731e-01,6.769449530649258775e-04,5.511262004666570014e-02,-2.492463201283701135e-02,9.608626365661621094e-01
-3.843733642071710255e-02,-6.435353787863596908e-01,6.518532898693328859e-01,4.345185787109230981e-04,1.927674956483832122e-02,-7.495056533927517591e-03,1.123219609260559082e+00
-2.719380734884124448e-02,-6.056063050919167079e-01,6.062465554623889252e-01,-4.324267378636005923e-03,-2.741209778152930206e-04,6.757732413302766812e-03,1.049947977066040039e+00
-6.474299255910287085e-03,-6.971466808854068775e-01,7.177759972201467331e-01,-3.320652785330230339e-02,2.591896269352080839e-01,2.563536908456025840e-04,1.306381464004516602e+00
-6.182922304953808283e-03,-5.963368113797895553e-01,5.907175780065386794e-01,8.016178812833517613e-04,5.631992716266575293e-03,3.937020183443315502e-03,1.028094649314880371e+00
-3.409036231712672671e-02,-6.250035357546374071e-01,6.327024089760423520e-01,-7.140770796853890441e-03,4.373464523592177078e-03,1.282096792621547536e-03,1.089964628219604492e+00
-6.962528837746735644e-03,-5.944562842905770639e-01,5.136452777317124241e-01,1.595743976860280544e-03,6.170104742719405115e-03,-2.623009530290319746e-02,9.613642096519470215e-01
-3.396056001534052127e-02,-5.966281296591772199e-01,6.056329607607823240e-01,1.464707087970890109e-03,-8.171111837663206159e-03,-6.854978709942210341e-03,1.042065739631652832e+00
-1.010282892668651344e-01,-2.841827349182368123e-01,5.895052289627575881e-01,-3.247841029954093989e-02,1.523892265449517877e-02,-3.767678868696777011e-02,8.031041026115417480e-01
-4.442404531131091683e-02,-5.775394306374200815e-01,6.037467060084346082e-01,1.773943445199742354e-03,-1.941095482660210514e-03,-1.197621550208788702e-02,1.024860024452209473e+00
9.096564761778690167e-03,-4.829245028300152009e-01,5.616430265812710765e-01,4.013641983864888602e-02,7.713619540064027905e-03,9.484420767973365807e-03,9.080407619476318359e-01
8.965787959529687712e-03,-5.426225348358582057e-01,5.790250724794004933e-01,-3.323453410549312426e-02,-6.699888686626131150e-03,-3.551668783235900628e-03,9.732118844985961914e-01
-3.979985194631253942e-02,-6.044319155175025271e-01,5.805714117851471512e-01,-2.702659908186748079e-03,-2.713659445069558024e-04,-1.255353015793901844e-03,1.026634454727172852e+00
-4.430084526949239210e-02,-5.399556927821899110e-01,6.401436202798836961e-01,-1.259715993868450457e-01,3.355388242353204292e-02,-7.710956545025766419e-03,1.050975084304809570e+00
-6.220510726425124148e-02,-3.057801572258476708e-01,6.373254606392053656e-01,-1.245419048728068911e-01,-1.790789613852902199e-04,5.798731617833085411e-02,8.807268142700195312e-01
1.613826952670860404e-02,-5.146146451743176531e-01,2.564479964620020591e-01,-1.398900463112072723e-01,1.053558654722799998e-01,9.903528445931242263e-02,7.670878171920776367e-01
-5.680264248087577017e-02,-5.935068709860878977e-01,5.576492168304253427e-01,-5.181120049231721127e-03,-1.160500510398586836e-02,1.640092671557409404e-03,9.979348778724670410e-01
-2.277208979155208313e-02,-6.122201625603157504e-01,5.708466201081392466e-01,-8.782822001589366684e-03,2.094546688293032460e-03,-5.345800847033495805e-03,1.024729132652282715e+00
-2.104265029731780968e-03,-6.047417022292629341e-01,5.919137141660582024e-01,2.359598155705913355e-04,1.082646526995972294e-03,4.768248073936756128e-03,1.036377668380737305e+00
-1.706128650922025120e-02,-6.082947194971791705e-01,5.437158338071412800e-01,-6.651647054695643095e-03,4.376022863426157206e-03,8.019566646941426319e-03,9.979785680770874023e-01
-3.964058137907963686e-02,-4.821827252294668131e-01,5.915228482612668870e-01,-3.118343289241579108e-02,-1.123126445741625713e-02,3.202564491987033163e-02,9.380297660827636719e-01
-6.166678235772150157e-02,-5.917281099004212397e-01,5.528585282512685772e-01,-8.544733491731989431e-04,-3.051155779594738431e-03,1.991199125643531090e-03,9.921615123748779297e-01
-6.598085130611637539e-02,-4.803264621481755925e-01,5.995837340802943061e-01,-1.920655091942733914e-02,-1.894244712653539789e-02,2.864016215651309441e-02,9.460846781730651855e-01
2.534271914452454477e-02,-5.794332886237214542e-01,5.809087699631290125e-01,-1.926444093432662678e-03,4.379402124776764563e-03,1.972032534086873550e-03,1.005226850509643555e+00
-4.569983475654981059e-02,-5.840243947065074659e-01,5.185492151482758993e-01,3.276470549893559583e-03,-3.264556988932833682e-03,1.339138851957406666e-03,9.549811482429504395e-01
-2.912380054838364929e-02,-4.833659273898883724e-01,5.781709035118385298e-01,-3.867768333707311944e-03,-1.504377985262746360e-02,9.031042072428737896e-03,9.230222702026367188e-01
2.083927716554579215e-02,-5.500605452986463417e-01,5.907534773243672266e-01,4.629695629790747669e-02,-4.868761841412090272e-03,-7.556529267421916406e-03,9.913452267646789551e-01
-4.396188186945351739e-02,-3.399629701167372620e-01,4.539273848578994630e-01,-6.260547933685753352e-02,-4.896952156793696331e-02,-5.763923053166316451e-02,7.154057025909423828e-01
6.885044531045890308e-03,-5.928227638560441548e-01,5.904343553409071577e-01,1.880348890360895864e-02,1.386374531728516886e-02,1.048467221102942701e-02,1.025721907615661621e+00
-2.206298565904309117e-02,-3.943181520985825084e-01,5.530379913998543229e-01,4.839951666519779622e-02,1.577231997170560479e-02,2.147544641587822729e-03,8.313766121864318848e-01
-4.752306061544946114e-02,-6.125047923070573441e-01,5.676767464312109102e-01,1.977124642245046450e-03,-3.062225637349611472e-03,8.920901082892429210e-03,1.022511839866638184e+00
-9.389278798795315517e-03,-4.349536539911892929e-01,5.571653123303703659e-01,7.551537204921254104e-03,1.316446656911478101e-02,2.195844510423893003e-02,8.633261919021606445e-01
1.156744729672249533e-02,-6.051056217373136370e-01,6.026947413279294397e-01,8.462200452878355927e-03,-9.168102891858634709e-03,-1.193252861353127393e-02,1.046491026878356934e+00
-1.185399955470525790e-02,-5.478066298821179236e-01,5.848645558477123529e-01,7.518500085293691390e-03,1.863119665948832424e-02,1.320697439319719162e-02,9.822756052017211914e-01
-1.709402097932097297e-02,-4.303335836435848161e-01,5.636524209715241263e-01,3.930676407159027635e-02,1.500419227003755261e-02,1.399296481356443120e-02,8.682848811149597168e-01
-5.967180556362210175e-02,-5.901928747074948189e-01,5.469069679044653576e-01,-4.308322269481359816e-03,-1.216317171400926184e-03,3.617684295787638874e-04,9.855220913887023926e-01
-1.378163082602229181e-02,-5.611319351554510115e-01,5.646527031460976120e-01,1.434017062375804626e-02,8.715054228428607483e-03,2.094229094059994051e-02,9.761891961097717285e-01
-1.631468787959792360e-02,-6.104432784227213915e-01,5.990250221903017369e-01,-3.408041833192046715e-03,1.040289095330116688e-02,1.204599742898103519e-05,1.047655582427978516e+00
1.275508421799551387e-02,-4.713936598984929116e-01,5.586406267366623712e-01,3.377094230610962894e-02,1.039884863551709775e-02,1.415375348099188503e-02,8.950014710426330566e-01
-2.415925096232941771e-02,-4.295407376321027648e-01,5.626673438848051045e-01,2.544942326631135371e-02,2.000627814489825546e-02,2.559132052424104020e-02,8.670044541358947754e-01
-1.936881343366202157e-02,-6.214576197629769760e-01,5.895181662471716821e-01,3.731308319712416718e-03,7.619322615685124832e-03,1.433213349946831734e-03,1.048847198486328125e+00
-8.484122798979363764e-03,-6.100507492059376036e-01,5.970854539861104593e-01,-4.296819838226527584e-03,8.117520216034216154e-03,1.004057502719098242e-04,1.045533537864685059e+00
-2.127772513289650363e-02,-6.120151979381204255e-01,5.983260150169027458e-01,1.843261149833058405e-03,6.362682012510141941e-03,4.482483995764743878e-03,1.048377156257629395e+00
1.872488317345158415e-02,-5.797066533519126263e-01,5.827673522401767281e-01,-2.480218872300143755e-03,7.920890559921493377e-04,2.011803610372408808e-03,1.006894946098327637e+00
2.463950016601054727e-02,-5.745380659880381380e-01,5.835155017933847388e-01,3.554816921199329197e-04,1.246503792481926803e-03,-2.674173830266694547e-03,1.003119468688964844e+00
1.313290255807175039e-02,-4.466881792043362331e-01,6.525778319758186452e-01,1.318330854520936291e-01,1.310380683810147100e-02,2.625387334066914963e-02,9.844177365303039551e-01
-4.081343432346585393e-02,-5.938070857864352625e-01,4.931737426853897155e-01,7.152208401540728795e-03,-4.821045237002476820e-04,9.923869134835690015e-04,9.414844512939453125e-01
-6.108737871515079743e-02,-6.068046324685619775e-01,5.714633216766089596e-01,3.377708843170883039e-03,-1.516180165932477092e-02,1.350777871398887477e-02,1.021955370903015137e+00
-6.590323419953156292e-02,-6.213002436686904106e-01,5.970227037533012426e-01,-1.774666429260202301e-03,-1.765534419946860473e-02,1.601416903307575912e-02,1.057278394699096680e+00
-5.966975479022922080e-02,-5.887305291192199697e-01,5.321210818723495217e-01,9.484452318917758725e-04,-1.473104585303494467e-02,-2.380659410589656218e-04,9.715291261672973633e-01
-2.325821359596481896e-02,-6.116515447299681885e-01,6.003093088994723159e-01,-1.842362936069847018e-04,5.964289405326964923e-03,1.627481788766241191e-03,1.049790859222412109e+00
-1.927363186260153821e-02,-6.127481580915360437e-01,5.993916442546949330e-01,-1.297764833855542257e-04,5.952894127748748453e-03,2.207751347385907351e-03,1.049877047538757324e+00
-2.549972716044396348e-02,-6.322831093118582713e-01,5.983394980981983080e-01,7.508002186607828747e-04,3.152878034579555816e-04,1.989204100894094353e-03,1.065791010856628418e+00
-2.932001419923271207e-02,-6.132338270485914178e-01,5.964516367115532125e-01,-4.498210747376533807e-03,4.990033447206527507e-03,-2.400174903810919046e-03,1.047900199890136719e+00
-2.697994696093683475e-02,-6.333558855819959588e-01,6.034220876589633242e-01,6.658253690434486755e-03,4.798966584666752508e-03,4.247795154246869140e-03,1.071268081665039062e+00
-1.306584118821277514e-02,-6.310275195978929386e-01,6.032043619717770699e-01,4.864700301739374386e-03,-1.379313795616023000e-04,2.506928110393015323e-03,1.068918585777282715e+00
-2.409040285183742386e-02,-6.314863179432710361e-01,6.060118527482051265e-01,1.968205532053853447e-03,6.218832230760424316e-03,2.453426856344919325e-03,1.071833014488220215e+00
-2.517490846621908696e-02,-6.095430307351337174e-01,5.939816920338852890e-01,-4.826618740618991883e-03,1.802591604687627099e-03,-2.122425578860248196e-03,1.042472839355468750e+00
-1.886530798374478485e-02,-6.129784160696764017e-01,5.901234451386272450e-01,-2.372721104001014342e-03,2.310682599053058128e-03,3.762277372487030872e-03,1.041979432106018066e+00
-1.076949312060959396e-01,-2.810562757558103808e-01,5.701073992255540901e-01,-1.625689992100661299e-02,-3.587703596983069128e-03,-4.666707018550917546e-02,7.837983369827270508e-01
-1.045558798274290602e-01,-2.629786957730233521e-01,5.780641775290298323e-01,5.181620260608808468e-03,3.379146703394838441e-02,-1.568709560234968214e-02,7.768235802650451660e-01
-8.943904664124727177e-02,-3.027863188121305282e-01,5.514988680734022042e-01,1.019398400548345192e-02,6.442945592025166139e-03,5.506396481450016173e-02,7.762687802314758301e-01
-5.889301241033537138e-02,-2.592885523833434180e-01,4.669706451648403256e-01,-5.637480378336300751e-02,3.825375179733610242e-02,-7.902440721915438004e-02,6.743372082710266113e-01
-6.572739323328473382e-02,-3.722835546875474799e-01,5.763125571001354031e-01,4.786247748912965394e-02,1.174592952293507589e-02,1.272462562088468550e-02,8.430808782577514648e-01
9.147576469407716834e-03,-6.032269458677336216e-01,5.972513107591289616e-01,-4.917463170420963321e-03,1.536006872119337688e-02,3.740165000180301676e-03,1.040110826492309570e+00
-1.914596708568803984e-02,-5.814630188192561056e-01,4.442026620120979596e-01,2.262627995349550739e-03,-6.771359031692409346e-03,2.809191016518859576e-03,8.897290825843811035e-01
-5.688099125436837412e-03,-6.194539108448665621e-01,5.989434294764773847e-01,-1.992574479054827485e-03,1.067940521878173871e-02,4.853932173431949396e-03,1.055374145507812500e+00
-1.224603082502141380e-02,-6.244295703615393434e-01,6.009598398604272251e-01,-7.637948431660783379e-04,7.914918576497712369e-03,1.260203744334628326e-03,1.061310052871704102e+00
-5.467752762212765849e-02,-5.999632600218540723e-01,5.728108915265444079e-01,-3.077858639556395413e-04,-9.215651230407972266e-03,-3.262382668595886857e-03,1.016624689102172852e+00
-3.391733293969244334e-02,-6.214448488091530720e-01,5.998569648122109577e-01,5.595327065642798255e-03,-5.348185921064135427e-04,1.429995285823420018e-02,1.058265805244445801e+00
-1.207564665391457244e-02,-5.803528042278237598e-01,5.351286161060042623e-01,9.808333828571127316e-03,-1.872102903041237762e-02,-1.831736164010460202e-02,9.673064351081848145e-01
1.202565867999211106e-02,-6.040393107697743513e-01,5.999096580718821237e-01,-4.326466805985502463e-03,8.958721825823259821e-03,5.271339769787702217e-03,1.042927980422973633e+00
-1.009486344544161147e-02,-6.201938716777017913e-01,6.011323167436188886e-01,5.445554857083639323e-03,-1.928946650188339976e-03,5.270694966652591552e-03,1.057786345481872559e+00
-2.755247480306327601e-02,-5.918629449589658531e-01,4.898261760752774530e-01,1.273960952314689976e-02,-6.579829128390413465e-03,-2.253200409669821845e-04,9.373932480812072754e-01
2.240890109125023150e-02,-5.297573502177734817e-01,5.652085428255493316e-01,3.625536940535828857e-03,1.011917171535295194e-02,-2.931990207753152992e-03,9.484761953353881836e-01
-2.772916507326800978e-02,-6.217361066542361758e-01,5.857072728946096651e-01,4.069424661256986972e-03,-7.080193825903366781e-03,2.043931456829232302e-02,1.046416401863098145e+00
-1.916905147382688343e-02,-6.077559210540213197e-01,5.814637280975464284e-01,3.973259045968209201e-04,5.442815100527648858e-03,-3.067708437569870004e-05,1.029955387115478516e+00
3.712923344748250698e-03,-6.191045693487045032e-01,5.036513048602483389e-01,1.395012672829138052e-02,-2.644825260636812087e-02,-1.420171088781214085e-02,9.759599566459655762e-01
3.219007883590818426e-03,-6.032583956973268657e-01,5.990814422892987157e-01,1.126106603243747298e-02,-5.960947056868589992e-03,-1.239171122442343006e-03,1.041506409645080566e+00
1.015043081281480353e-01,-5.941971541318351591e-01,1.800919859726845540e-01,-9.482199237651738749e-03,4.304913852444184480e-02,1.172382432843100536e-02,7.423556447029113770e-01
5.390342896967263708e-03,-6.188846984368845394e-01,4.992552739527511552e-01,-5.801665117709084760e-05,-9.860551442824962848e-03,-1.197130283298749980e-02,9.709022045135498047e-01
-2.421293417095786091e-02,-5.799769011612543324e-01,5.709982691931578813e-01,9.421202808752511190e-03,-3.696233077808636427e-03,3.071662671539084934e-03,9.971371293067932129e-01
-5.459245810565596657e-02,-6.019502639137186417e-01,5.731646906792963181e-01,-1.668382046416438990e-04,-9.363686702941853568e-03,-2.325183250682018744e-03,1.018610239028930664e+00
5.650858390503904483e-02,-6.058053434765832135e-01,3.247515636880285439e-01,1.796641703601597963e-04,8.019779578289691624e-03,1.617817948041700565e-02,8.302128314971923828e-01
3.561650580982296532e-02,-5.958041395411478591e-01,3.407575788245573722e-01,6.982415521901992606e-03,-2.786514521880616851e-02,2.463612509278502102e-02,8.299228549003601074e-01
3.040505669697746854e-02,-5.645342425637106532e-01,5.758380728556686812e-01,1.257282184378371269e-02,-5.317928186190895579e-03,-1.289026315953770065e-03,9.881870150566101074e-01
-5.938458620839012769e-02,-7.303983622369616402e-01,8.158434560594631790e-01,2.190251826851715988e-01,-1.943935163196310878e-01,3.689765990885354729e-02,1.436990141868591309e+00
1.374380623595821208e-02,-5.683952303082977497e-01,5.865663019486830887e-01,5.481844059165232215e-03,-9.675152959496479896e-03,-7.997450620175011737e-03,1.000518202781677246e+00
-5.106690352680545025e-02,-2.925662637118223164e-01,3.234742667402116245e-01,2.301589300942441518e-02,-3.597629548753651652e-03,-4.345827306999699123e-03,5.392023324966430664e-01
-6.585451075446513425e-02,-2.481212646664708865e-01,6.310194384510197096e-01,1.428262883082654366e-01,7.694644946685616493e-02,1.432609506352283159e-02,8.517320156097412109e-01
-6.703705067199391965e-02,-2.399655160133140064e-01,5.857936374080712216e-01,1.502121189799430490e-01,6.186827069370486737e-02,3.586483763924862983e-02,8.074764013290405273e-01
-3.280068245188089149e-02,-4.260573517409827482e-01,5.629305010129799225e-01,4.010206142626365766e-02,-1.311478157689610277e-02,-2.974623706848903218e-02,8.670736551284790039e-01
-5.379873037000919289e-02,-6.081486776416135109e-01,5.736758448128678189e-01,3.606718925961186276e-03,-4.138052142056424486e-03,1.132981828720482954e-02,1.024375081062316895e+00
8.662565541371278210e-03,-5.762880632730372765e-01,5.894172582005066108e-01,-1.069818409372480083e-03,1.385271262751726351e-02,4.601532486396547363e-03,1.009850859642028809e+00
-6.125752893461233750e-03,-6.361180403193394950e-01,6.296709624705970620e-01,4.376128275680257751e-02,-2.993160044197730116e-02,7.496347941848155449e-03,1.100125551223754883e+00
-7.979498544508106805e-02,-2.500750774878509053e-01,6.428457499327177027e-01,1.760096900815001086e-01,7.730912782337356903e-02,4.774711963634972745e-02,8.899235725402832031e-01
-8.645519021954331529e-02,-3.288076047165151006e-01,6.773484805615396231e-01,2.131703869655759420e-01,-2.857531847465682659e-02,-7.744765123908127491e-02,9.919724464416503906e-01
-2.576120532858097029e-02,-6.226441736220241774e-01,5.914040538036463568e-01,4.259876581483880258e-03,4.368286896176239859e-03,5.021711787672631863e-03,1.051534652709960938e+00
-3.944310393175783774e-02,-6.235544598516149506e-01,5.943918293253741547e-01,7.304851463718523008e-03,-3.142188485463639960e-03,9.443959790191689893e-03,1.055282115936279297e+00
-4.207147393834875793e-02,-6.127721571440064574e-01,5.583468623636870243e-01,9.522084851221090246e-03,-4.783342739903465425e-04,-3.641870429457299001e-04,1.014462232589721680e+00
5.257641901451928779e-02,-1.080237974286362146e+00,5.784094075770105370e-01,-1.376590411039150218e-02,-2.204922392876738357e-01,1.934666697563600102e-02,1.517557859420776367e+00
-1.208866374333486537e-02,-4.203501196469233703e-01,6.287588116931631665e-01,9.398564442902999916e-02,-1.342472815647584305e-02,-6.225502710288404601e-02,9.368371367454528809e-01
-2.063849368671774945e-02,-7.294795110308274211e-01,6.542968093130386853e-01,-2.170666795971987455e-03,4.935641502924512786e-02,2.544446613186520517e-02,1.202364206314086914e+00
-8.199477456823423861e-04,-6.050185282313988999e-01,5.969631323021511449e-01,1.482213179698488098e-03,1.167356547029525099e-02,5.872621604104541308e-03,1.041200757026672363e+00
-4.796222630224063199e-03,-6.294365834638737667e-01,5.706138757852081689e-01,-4.176428002229978786e-02,-1.946208779597302652e-02,-1.305308015638229589e-02,1.042869567871093750e+00
-5.742208524607039788e-02,-5.010110070565797491e-01,6.960590787461098383e-01,-1.771026248515125689e-01,2.674580407715341709e-02,-1.992668531902544102e-02,1.093697428703308105e+00
5.187398845284477145e-04,-5.122722145482258016e-01,5.771464759380302567e-01,3.821371047578150937e-02,3.662863325978203341e-03,8.666017537725473558e-04,9.463440179824829102e-01
-3.083756019908727788e-02,-5.967537981665229641e-01,6.152284649605703759e-01,9.024291431559025535e-04,-1.162115785253023392e-02,-9.576604555691908133e-03,1.050697088241577148e+00
-2.476688547742815841e-02,-6.157732171593779391e-01,6.193470374237504128e-01,-2.006059419077555351e-03,-1.329387921932959028e-03,1.275147118808415492e-03,1.069985508918762207e+00
-3.216124087913178886e-02,-6.229754177887298905e-01,5.894172592137842948e-01,5.085550043727229616e-03,-1.163657899304045744e-03,7.406428090172983286e-03,1.050192713737487793e+00
-1.880104439944996902e-02,-4.939365247235106837e-01,5.831612519122514326e-01,4.315065632738409283e-03,-2.514894600696182536e-02,-2.589913769275773575e-02,9.370653629302978516e-01
-5.319204583361927807e-02,-6.050204832747012595e-01,5.635631611692454301e-01,7.897006948699998585e-03,-1.567255369257775088e-02,1.306652212452472095e-02,1.013252615928649902e+00
-3.407900585648861863e-02,-5.244593176544077862e-01,6.010416379410022936e-01,7.406358951902970549e-03,-2.124315128712329914e-02,4.475061727362394937e-03,9.782025218009948730e-01
-2.860067636392553056e-02,-6.115127031558812432e-01,5.919372166252897527e-01,-5.829586198871055357e-03,2.444832847878640209e-03,1.893442418398420465e-03,1.042450666427612305e+00
-8.714277714798969454e-03,-5.371079582672815267e-01,5.631231685822745137e-01,1.223168066107306606e-01,1.117885962882699397e-01,-3.409830950598354699e-02,9.971036314964294434e-01
-2.829319514653615142e-04,-6.150122768926329364e-01,5.953047882315443129e-01,-2.383918961056122766e-03,3.365003630528652385e-03,-1.795249961955541979e-03,1.048237919807434082e+00
-8.432419170342926595e-02,-4.090469355950605568e-01,5.570658835884741977e-01,-1.987501672688757881e-01,-7.779867558578372477e-02,-5.485386670303517287e-02,9.331611394882202148e-01
-2.526070196258894257e-02,-6.240695292681984752e-01,5.912377150992735864e-01,1.469275397645512901e-04,-2.911027399938091818e-03,9.157838641488847894e-03,1.052655696868896484e+00
-2.944588979299025272e-02,-6.350855105821168189e-01,6.035262203068645359e-01,1.957872594244675427e-03,1.617613785740684056e-03,3.201911156705900202e-04,1.072765469551086426e+00
-3.215243293603071983e-02,-6.198068644623924150e-01,5.893061185775938515e-01,3.850120186993280947e-03,-2.994957877221890528e-03,6.633274940240165875e-03,1.047356009483337402e+00
-5.298481840644235497e-02,-6.093863761276324675e-01,5.834859571009132218e-01,5.084767109868567822e-03,-9.908808530257476668e-03,1.160719039912974475e-02,1.034208536148071289e+00
-2.760785854515922580e-02,-6.286254939706872324e-01,5.892540319381148750e-01,1.108351474576861964e-02,3.054405336733297550e-03,-2.635211574641362531e-04,1.054932355880737305e+00
3.506320293797405424e-02,-5.788423866972820520e-01,5.835331372901308988e-01,9.330574844653551428e-03,-3.644339910049792814e-03,-2.370007454827986401e-03,1.007336020469665527e+00
4.085131782938800082e-02,-5.749398260961722240e-01,5.814031939206122379e-01,1.202375668031152416e-02,-3.456581892193191525e-03,-5.635546085978045822e-03,1.002410531044006348e+00
-5.759839467100229260e-02,-3.623119028542519104e-01,5.911711632579812470e-01,1.243962162860385995e-01,-9.989518390145443738e-02,-2.212383556168636550e-02,8.884086608886718750e-01
-5.584888769647741724e-02,-6.024598769160680600e-01,5.939935578893730250e-01,4.730718057309101117e-03,-1.799245920155313413e-02,-4.631455170664545463e-03,1.037975192070007324e+00
-4.044949423040637010e-02,-6.200425208161464141e-01,5.857592345811668544e-01,4.674495097361454701e-03,-2.017522219556912907e-03,5.821358588079369491e-03,1.044600963592529297e+00
-4.008528118419404235e-02,-6.259284146078434308e-01,5.934339019478724886e-01,9.616178864243999248e-04,3.622189689308560369e-03,-2.732458317382298611e-04,1.056287765502929688e+00
-2.749085800851041109e-02,-6.271979151537795394e-01,5.907730545050795534e-01,6.441252807655527268e-03,3.145687550209168900e-03,-2.144888994541487590e-04,1.054907798767089844e+00
-5.533293432880656559e-02,-6.163375292549544415e-01,5.966826382233324511e-01,3.811074515258148446e-03,-1.806039348704276820e-02,2.692438540242609885e-03,1.051987648010253906e+00
3.195829054791037016e-02,-5.556859499232735811e-01,5.706098794422511666e-01,8.539102578419863025e-04,-3.810745884664731593e-03,-3.140308922083470417e-03,9.757469892501831055e-01
-2.917182692826861962e-02,-5.974248914406575794e-01,5.959227794730616035e-01,-2.351968725085901765e-03,3.793854919621975508e-03,-5.213205164684118174e-03,1.033928394317626953e+00
-1.465748402916119963e-03,-6.075385212223882725e-01,4.588645801551837211e-01,-1.242509885128350450e-02,8.800569360315163570e-02,2.399881551383819742e-02,9.400254487991333008e-01
4.003538549583129935e-03,-6.060142451475648562e-01,4.174165033237212108e-01,-1.142391324501785752e-02,6.856761332553690247e-02,2.804935191019672022e-02,9.011535048484802246e-01
-1.861862157550600583e-02,-6.086068979526044753e-01,5.589765354313978030e-01,-3.095935751275986046e-03,-1.202286791379992420e-02,5.808987934823602040e-03,1.011454582214355469e+00
-3.419963952543246533e-02,-6.107977225628815621e-01,5.940254104955666747e-01,4.301165926898609972e-03,-9.171991287000795523e-03,-2.862291768755025664e-03,1.043885946273803711e+00
-1.073391143542189868e-02,-5.893174013472267658e-01,5.272738582784616268e-01,5.994528969350634319e-03,-1.008832673235105122e-02,-1.114002557203255112e-02,9.676151275634765625e-01
-2.398250576575307325e-02,-6.103204639757350281e-01,5.852154706984760146e-01,-2.364760637111650368e-03,2.220153853228170292e-03,-2.824412660945556201e-03,1.035454392433166504e+00
-1.019627462621547076e-01,-6.430106828957713461e-01,9.467604333958089535e-01,2.319449698657369829e-01,-1.204043449749343797e-01,3.302562417456633703e-02,1.472454309463500977e+00
-3.075088238291959208e-02,-6.107953247827453414e-01,5.923583857093002170e-01,-1.482117529321163750e-03,2.321749284874902002e-03,5.245073176932430782e-03,1.042234659194946289e+00
-4.376510629791213053e-02,-5.455309457672630202e-01,5.999318636851252995e-01,1.259034736295812536e-02,1.390882367262796793e-02,1.574979103673719572e-02,9.954395890235900879e-01
-3.127835194487997572e-02,-5.609389122518170234e-01,5.787181780627523864e-01,3.956576257026874941e-05,2.159063859077035765e-03,-6.231697252969123531e-03,9.878550767898559570e-01
-4.789395926885535448e-02,-5.968262894349848358e-01,5.640566301437550667e-01,6.604706901741783575e-04,3.455602517093261765e-03,-1.119982367684211255e-03,1.005868077278137207e+00
-4.104619894045819645e-02,-6.267081134067205017e-01,6.235959742200893885e-01,-9.411828612734313496e-03,1.477918771662495474e-02,6.619882001996755735e-03,1.084000587463378906e+00
-3.123761021647074310e-02,-5.929325642084358750e-01,6.061473624269522187e-01,-4.353944873258653973e-03,1.170361285891018989e-02,-5.435284306418327639e-03,1.039390802383422852e+00
-5.403731690603091192e-02,-5.966102034997184944e-01,5.654073822701360941e-01,-2.263309452607086599e-03,1.686506146781888019e-03,-1.018305488283659764e-03,1.007083892822265625e+00
3.643081934718168935e-02,-5.747862435979093076e-01,5.790693023794317718e-01,3.934358190490627044e-02,-7.039516895773522201e-03,-1.108139307268610728e-02,1.002433776855468750e+00
-3.290538660639850260e-02,-5.916321709516888516e-01,5.931837000514159630e-01,-1.693838290186855421e-04,1.567791379523291774e-04,9.722402188784982219e-03,1.026771426200866699e+00
7.962786283959855105e-03,-1.112270507302274059e+00,8.241463492772860278e-01,8.548199515004316351e-03,-9.634169517689017415e-02,8.967709182761704478e-02,1.699289441108703613e+00
6.530332064816316007e-02,-7.773353793877000317e-01,4.707019626135452439e-01,2.592300728226093476e-01,-3.033617586830670287e-01,1.582277410966079082e-03,1.301416873931884766e+00
2.225349510752335641e-02,-6.042642272034269846e-01,6.231938222228315949e-01,1.182298457696081585e-02,1.015762623554446707e-02,-5.325420177792876972e-04,1.063429951667785645e+00
-1.797553429652608281e-02,-6.120685494592935649e-01,6.173410474835879791e-01,-2.080770200513861606e-03,-4.355906367117512272e-03,1.138758603764509006e-03,1.064934134483337402e+00
-9.056129624483207768e-03,-6.090717413976660666e-01,6.123712206929651236e-01,2.788556623514617302e-03,-1.322050521615696084e-02,-4.696162787584928951e-03,1.058144927024841309e+00
-9.075177237380365608e-03,-6.159388833459958912e-01,6.169497206556437963e-01,1.335521593420152097e-03,-1.160692648483592493e-02,-4.905974866004492521e-03,1.067981362342834473e+00
-2.017751874813025412e-02,-6.171322056235435394e-01,6.176219908586263463e-01,-3.390368316198204713e-03,-7.764838875296212065e-04,2.418474005943708951e-03,1.069548726081848145e+00
-2.405365264371903816e-02,-6.182997011929316500e-01,6.222226546704709982e-01,-1.041161009210194322e-03,-1.920156155628226138e-03,-6.845432128091390395e-04,1.074646115303039551e+00
-2.182468328980824088e-02,-6.183591777978910686e-01,6.217276545530263654e-01,2.007348884302609151e-07,-1.295022874014861627e-03,-7.241909657608961576e-04,1.074207067489624023e+00
-1.478248190305462249e-02,-6.134296956246212407e-01,6.165907159553329908e-01,6.798470451980006407e-04,-6.332352136369662383e-03,-2.832287527090729309e-03,1.065423011779785156e+00
-1.971330586313434219e-02,-6.182699717632109682e-01,6.219346417435892560e-01,6.774439734858965067e-04,4.442297356324750521e-04,7.470810610504865262e-08,1.074265718460083008e+00
-3.725060042207087307e-02,-6.165497401626562901e-01,5.965790593695381450e-01,7.213551576409668164e-04,-1.079631279084879332e-02,1.359947949921003901e-02,1.051385045051574707e+00
-4.242595738249945597e-02,-7.137096333083112754e-01,7.732648721069054210e-01,-4.328919906247755134e-02,-2.369185814972444432e-02,-3.327223842219422054e-03,1.292622208595275879e+00
-2.509408695132225170e-02,-4.431259412954698940e-01,5.668153305588292667e-01,-6.185034814059154999e-03,7.067290682502032698e-03,6.404068256416233472e-03,8.791655302047729492e-01
4.491388072524540864e-02,-6.079690354136582098e-01,3.987109422298548700e-01,-4.496520682226342637e-03,5.154990768639156583e-03,3.952810335675954051e-02,8.872678875923156738e-01
3.077088764758991769e-03,-6.116858186422582389e-01,5.970804682676215114e-01,-2.181160072887333452e-03,8.617899749369051232e-03,-1.196078405339919557e-03,1.046989083290100098e+00
5.294247407329580324e-02,-6.005754123476458872e-01,3.298761932192690871e-01,-3.258098808988607077e-03,2.072116158328502801e-03,-1.107993310705328305e-02,8.277512192726135254e-01
8.448165895409809334e-02,-5.967127908567425587e-01,2.716128355218785373e-01,-4.674605899586644839e-03,2.690844103791316735e-02,1.508539575412944957e-02,7.933707237243652344e-01
-1.202771162246054487e-02,-6.196552039915071974e-01,6.102721030047836281e-01,2.527085333217364820e-03,-8.186974333928785305e-03,1.282291744205588460e-02,1.065508484840393066e+00
-1.593403457009687219e-02,-5.582141264143952730e-01,5.979802010438463045e-01,-8.040648431790116749e-03,2.057886764934727108e-02,-2.016773345380552113e-02,1.003272891044616699e+00
4.022811945322204031e-04,-6.189395297354595149e-01,6.152767367992371117e-01,-1.141082244406532850e-03,5.334302785043594335e-03,8.418262900236181748e-03,1.069006204605102539e+00
-5.805978367430530973e-02,-7.271420953685076016e-01,7.618416265534341258e-01,-5.518761352785088101e-03,-3.925565342061358709e-02,-2.683890864975652796e-02,1.294359445571899414e+00
4.095752416021971459e-04,-6.210197619315903639e-01,6.087779800575243705e-01,-1.311876113863125019e-02,-5.510195359945176813e-03,6.917565281631228406e-03,1.065408587455749512e+00
-3.654374436561081720e-03,-6.088610079020891908e-01,6.063218903098884782e-01,-9.213180258745620049e-03,-1.417179009023440597e-03,-4.906191325497505536e-04,1.052506089210510254e+00
-1.034274532580846048e-02,-5.967359375748173544e-01,6.197116868598562256e-01,-5.492185522287741650e-02,9.363277626888951918e-03,3.369547720417778898e-03,1.058126449584960938e+00
-7.647586134797768054e-02,-3.207281356041425391e-01,5.701378488953419144e-01,-1.438912145800309295e-01,6.023811221024371991e-03,-5.563629587235413565e-02,8.409604430198669434e-01
7.536830202825084424e-03,-5.546834916765840395e-01,6.268454203995038609e-01,7.144048307627735850e-02,1.427988978439929078e-02,1.149297992137672877e-02,1.031572580337524414e+00
3.855391617553524664e-02,-5.716947355091638316e-01,5.813437517368430507e-01,1.255443155663158415e-02,5.477754425218276865e-04,-1.937412488200713264e-03,9.993727803230285645e-01
-8.600518475804855290e-02,-3.298191613250869847e-01,6.342175713624025324e-01,-1.358946454101667700e-01,1.784547710240876744e-02,-5.512184956528383417e-02,9.051182866096496582e-01
-2.114548082666530687e-02,-4.798644993847521745e-01,5.715236737966263858e-01,2.420628886346404968e-02,1.807351552899865224e-02,-7.218700014067285300e-03,9.145723581314086914e-01
-3.713336266301763000e-02,-6.039487221440211773e-01,5.781827194930225788e-01,-4.647956307674915022e-03,-6.065341022835662316e-03,1.174659744029948020e-04,1.024128556251525879e+00
-9.826729874146794552e-02,-1.581609776017799396e-01,6.115404390912670962e-01,-1.267306820950231672e-01,2.259018715881188147e-02,-1.207388655143323657e-02,7.746467590332031250e-01
2.378801277427033956e-02,-5.989641355008419321e-01,6.060854850040825470e-01,1.818126464216938618e-02,-7.595809948922479030e-03,-7.126499994633611265e-03,1.044430375099182129e+00
1.990844500955012142e-02,-5.197410010965290983e-01,5.580001909467664500e-01,4.262644976201475019e-03,-4.942315764088204243e-03,-2.147577949131631702e-03,9.334274530410766602e-01
-1.752280602313936730e-02,-6.139330483096848701e-01,5.538714475635130308e-01,-1.814733196711023483e-02,-3.972501639696606260e-03,-6.619966063106321082e-03,1.012002348899841309e+00
-4.176993081427150811e-02,-6.308204656062039728e-01,6.210891510034280971e-01,1.108725772248651646e-02,-2.551506030411026735e-02,4.824282297242798133e-03,1.085915207862854004e+00
4.167868610773472517e-03,-5.997604394179910647e-01,5.914032022481963136e-01,1.113287525230115434e-02,-6.315984514497584475e-03,8.589451685178762586e-04,1.031851053237915039e+00
-5.025037019138595823e-02,-5.957297713943143780e-01,5.633076966447353451e-01,2.979200709225275287e-03,1.061770369304485939e-03,6.564647110226346990e-04,1.004348516464233398e+00
2.639929420630953566e-02,-5.982817081917836122e-01,5.887003379279016624e-01,1.822600248776693951e-02,-8.620400627970144919e-03,2.087211963626616276e-03,1.029028773307800293e+00
3.607753476392028258e-02,-5.588888096740076694e-01,5.676436496836386736e-01,1.743081078855559032e-02,1.352549140992016655e-03,-2.946700893981295255e-03,9.766035676002502441e-01
-2.376452141060764536e-02,-6.288902381249649176e-01,5.862100596169760314e-01,5.267082223993221728e-03,2.762938995554610477e-03,1.221207940849884481e-02,1.052573442459106445e+00
3.165850454344792952e-02,-5.625007781270577878e-01,5.755324845797084032e-01,-1.299373889540326099e-03,-1.978512048206453619e-04,5.790915201478201088e-04,9.858894944190979004e-01
-9.777587635934997801e-02,-3.837704834480205607e-01,5.892717373002536174e-01,-1.418141216667617808e-03,-8.946045499136346529e-03,-5.228677614139257829e-02,8.710724115371704102e-01
4.649643842604724020e-04,-6.349274821748127628e-01,5.497167497277308801e-01,-1.824451735104714797e-02,5.437920515066392568e-02,5.204315999888373123e-02,1.035561084747314453e+00
-1.173223696247688817e-02,-6.072398562627369101e-01,6.094904745971512217e-01,-1.268348081435689140e-02,-1.377606297810710523e-03,4.697033915576792965e-03,1.054060935974121094e+00
-7.293433633417373274e-02,-5.730425338692470838e-01,5.883412978401183491e-01,-7.477844950200066183e-03,4.531112573657319897e-02,-1.031923116246074024e-01,1.027801513671875000e+00
1.961811943454788709e-02,-6.171961673685236738e-01,4.170207951212038799e-01,1.751340254454358814e-02,-1.554436065775949283e-02,4.868563917538726998e-02,9.084541201591491699e-01
-4.894709941578524737e-02,-4.550502260256125142e-01,5.840350646201474261e-01,-1.395007473363564510e-02,2.206963448679792952e-02,-2.375173044003973249e-02,9.090542793273925781e-01
-7.417331394635710839e-02,-4.220349248957102617e-01,5.688351800163676808e-01,-1.612144556277925016e-03,1.109108039442071800e-02,-8.486195747162218750e-02,8.832480311393737793e-01
-4.177483456697486663e-02,-5.863773495681807724e-01,4.794635404077093321e-01,-2.430154470239074584e-03,-2.786901296311319887e-02,-3.916684743676581825e-04,9.243902564048767090e-01
-6.906001571452974330e-02,-4.188377404444691976e-01,5.829641661089174365e-01,-2.114488396571803652e-02,-1.179801921120291787e-02,2.969873609084262497e-02,8.831469416618347168e-01
-8.046491117591418607e-03,-6.379797372433234637e-01,6.400627750075380540e-01,1.813377842142456162e-02,2.861200585366999605e-03,2.880097304745957935e-03,1.107322454452514648e+00
-7.593347483560396183e-02,-3.594400189353428310e-01,5.717136783261579369e-01,5.642597464558636589e-02,1.306282385402506366e-02,7.282765199237731246e-02,8.422648906707763672e-01
-4.877313172884047143e-02,-6.362120889694645731e-01,6.531211377031814758e-01,-4.431529587389264856e-03,-3.064558469943574719e-03,-3.071918705784557405e-03,1.118112444877624512e+00
5.266372238067338479e-03,-5.963634999616956867e-01,5.955562150924962328e-01,-9.528660487897036352e-04,-8.993782282018254748e-03,-2.033768378944161674e-03,1.032373189926147461e+00
-1.225253389933422532e-01,-2.786946825750037382e-01,5.849803950735992242e-01,-1.234843304743700118e-02,-2.244040695313925457e-03,6.230353050531859185e-03,7.975167632102966309e-01
-1.023434557478651308e-01,-8.995324320666543416e-01,1.100321793071623144e+00,2.132229224021556235e-01,-4.113061664645756982e-02,-3.301311322869650983e-02,1.784769535064697266e+00
-7.904019650733129509e-02,-1.907088575186203783e-01,5.476765221800938832e-01,2.244591881690207597e-02,-4.163094566861117937e-03,2.158157780093029540e-02,6.915121674537658691e-01
1.937585459231380702e-02,-6.007836727199775684e-01,6.009186884903677806e-01,-7.283299480160976107e-03,2.654819253180295408e-03,-4.243917030092947060e-03,1.040996432304382324e+00
-2.035151345529294734e-02,-6.604717064763182544e-01,7.090918149510824220e-01,2.581194211602416688e-02,2.584586569372246401e-02,2.626631283168803007e-03,1.188611149787902832e+00
-3.282292607093195008e-02,-6.302078434026771037e-01,6.372856438450396066e-01,8.694693581418586753e-03,-1.931405551484944704e-03,-1.135487868969218411e-02,1.098568081855773926e+00
1.007933931293693991e-04,-5.353123853635816110e-01,5.777999388012974302e-01,-6.520328831444821560e-03,-4.586647556566294907e-03,-1.495431352020187279e-03,9.643177390098571777e-01
-3.016099222010695802e-02,-6.835100487911884848e-01,6.282961987527875269e-01,-1.208325450119846281e-02,6.153448877528544525e-02,-1.307832082046390954e-02,1.141465663909912109e+00
-2.208664152306423489e-02,-6.325907141028703773e-01,6.716067861031157493e-01,-3.410383423817311965e-02,1.562324175599258576e-02,1.124582126008144556e-02,1.132267355918884277e+00
-1.340999071568265907e-02,-6.185822768544204653e-01,5.168375524507482499e-01,-2.522688240054771561e-03,3.979782482761919093e-02,-3.273486444311132088e-03,9.864531755447387695e-01
-1.060799517093675703e-01,-1.964026446962723882e-01,5.875914153758765579e-01,-7.791853479790881998e-02,-4.098391821564633872e-03,-3.229903987334676457e-02,7.572228312492370605e-01
2.376004339254433884e-02,-5.839091994709626476e-01,5.824047918891827047e-01,-2.145079294034908223e-03,-1.223799819937290776e-04,1.157745710957691762e-03,1.010363817214965820e+00
1.156745238557577854e-02,-6.082243414933222736e-01,6.011025669818509387e-01,-5.315679492588133714e-03,7.691076315561265302e-03,4.315385808969683483e-03,1.047568917274475098e+00
1.418913994560366473e-02,-5.966434361116560448e-01,5.912040704508711997e-01,-8.326599031155457187e-03,7.384354238520332916e-03,2.721707301969555990e-03,1.029036402702331543e+00
2.174248325249335603e-02,-5.545751323507646102e-01,5.765009610083754454e-01,-1.893848477902798644e-02,-2.672623934857660307e-03,-5.314062669529287302e-04,9.801603555679321289e-01
-4.322513722128545899e-02,-6.170324738311441237e-01,6.168774590188290663e-01,-3.614640315147710139e-03,-1.254183335694714074e-02,1.053799181146947497e-02,1.069862723350524902e+00
1.786279336794149852e-02,-5.790298903046630086e-01,5.852305746550547916e-01,-2.481352213379642985e-03,-4.316955179984868947e-03,-2.416015813794290291e-03,1.008432745933532715e+00
-6.266563025266014275e-03,-6.525410764459317337e-01,6.149537389383161745e-01,-2.481334867542118322e-02,2.428328404683915281e-02,-7.597150282601828220e-04,1.099400758743286133e+00
2.338745867523329275e-02,-5.945144179568874199e-01,5.893699168979527059e-01,-3.810080429186745148e-03,8.838781270802275767e-04,-1.496679324649130604e-03,1.025628209114074707e+00
-2.065979355506170762e-02,-6.775049127724508402e-01,6.007308636731660823e-01,-1.776330234429951069e-02,1.017269350054981064e-01,5.910756828167459606e-03,1.121528387069702148e+00
1.192018273876373491e-01,-9.270455954653650243e-01,2.705070514003097282e-01,-1.055534940473965289e-01,1.656308738053494933e-01,1.296153717126979910e-02,1.179855465888977051e+00
-1.187100244511306302e-02,-9.222382833153720538e-01,8.350699104382471871e-01,-2.517875237904309768e-02,1.978329300152610326e-01,-2.527410898842404746e-02,1.561517477035522461e+00
-2.297220001415556032e-03,-6.171203631721677851e-01,6.009997741731765153e-01,-8.744908899062547522e-03,-1.922825819447069847e-03,7.662372621732645162e-03,1.055136203765869141e+00
-3.321632745149438737e-02,-6.106705486813417405e-01,5.944516937221434594e-01,-1.427904856506283455e-03,1.379606019491084329e-03,4.509006050757382970e-03,1.044003248214721680e+00
-9.032979933909304066e-03,-7.070076274821807116e-01,7.482731524808208246e-01,-5.527943416335548421e-02,-6.719634458843869174e-02,9.416664209248519490e-03,1.269740581512451172e+00
-7.418293038682605145e-02,-6.691653761859960303e-01,7.518557246205249678e-01,-4.861413768540650366e-04,-5.403481115715260547e-02,1.834505705780840401e-03,1.239593744277954102e+00
8.810961390964832524e-03,-5.864879346651576952e-01,6.180963008214936938e-01,-6.530636830195472517e-03,2.522282069481197094e-03,-1.477947613718923192e-02,1.043608427047729492e+00
3.520170667565490630e-02,-5.362096243424214759e-01,5.640181539145037171e-01,1.719429876204347021e-02,1.341853401541324769e-03,8.449700027059028667e-05,9.535312056541442871e-01
-5.006355492023968623e-02,-6.039810497345811102e-01,5.813221261493753955e-01,-5.058087381481375308e-03,8.591593253310600160e-04,-2.176685810727559123e-03,1.027278542518615723e+00
-3.562370351526542717e-02,-5.171051298441484700e-01,5.653457871899049136e-01,-4.198770239898509671e-02,-1.649243772640627149e-03,2.423534433562438833e-02,9.430819153785705566e-01
6.145404164635589160e-03,-6.020960966385293656e-01,6.132589508190890992e-01,-2.633853524975456745e-02,-5.422576056800049171e-03,5.772675237142740889e-03,1.053606033325195312e+00
-1.805085973534891614e-02,-6.110699571815608744e-01,5.986676985775341020e-01,-3.290317263508587848e-03,-1.280984437668776857e-03,7.320607495952052238e-04,1.047749161720275879e+00
-3.538665964947439180e-02,-6.573079048824806980e-01,7.884038355469427106e-01,6.425264686142369286e-02,-1.980693000880915169e-02,-4.694157024843081602e-03,1.261498212814331055e+00
1.179432275025888988e-01,-6.181050199800053324e-01,9.924447112774484325e-02,6.685958583965438684e-02,-1.406487362667417085e-01,8.422684372131215846e-02,7.889187335968017578e-01
3.849278740612435690e-02,-6.801371309418264843e-01,3.298450406775188526e-01,6.847174442335419303e-03,-1.362150157565731878e-01,3.575326525892488783e-02,9.329140782356262207e-01
-2.075442028579834938e-02,-6.204645795414197584e-01,6.075785765181592746e-01,1.014277626791108312e-02,-1.493817099719330597e-02,3.219257984202251489e-03,1.064087152481079102e+00
1.713777902166094963e-02,-5.947823539360990175e-01,5.899227198811645145e-01,-3.461543538730854283e-03,6.826912230145539863e-03,-2.071027207897865180e-03,1.026263117790222168e+00
-8.974754223062769709e-02,-4.085224295188321086e-01,7.096611222464891400e-01,2.130850271273191376e-01,-6.014922073932293944e-02,6.126370384807965780e-02,1.074165821075439453e+00
1.810128696237660040e-01,-1.021343657874939304e+00,1.448178876633271495e-01,7.773673758084756469e-02,-1.352736881427558657e-01,5.507834554579600639e-02,1.218843221664428711e+00
1.537701659173061342e-01,-9.199101740599991972e-01,1.972061055300086685e-01,-4.757973560082412456e-02,5.867238988110598519e-02,3.327615333097344585e-02,1.105329513549804688e+00
-2.324451364790829783e-02,-6.411275289809963418e-01,6.388668537619324184e-01,1.244072696432379360e-02,-1.439633235725497167e-02,2.422102019564550263e-03,1.109225869178771973e+00
9.087793483452072385e-02,-6.423920876305094785e-01,2.260874959865696310e-01,-1.370644136936969952e-02,1.105461189562544633e-01,-9.976228717515734506e-03,8.322470784187316895e-01
5.693672696094687069e-02,-5.861355708745689119e-01,3.133263148265094666e-01,-8.449115763208940588e-03,-3.973990813971030323e-02,-7.302761010332333574e-03,8.057708144187927246e-01
-6.791015019588777721e-03,-5.892813782962599278e-01,6.159515105497104237e-01,-4.360649087545911268e-02,1.781037535573551378e-02,-3.566477144633022761e-03,1.047157645225524902e+00
-8.154288340582828420e-03,-5.557646358815726551e-01,5.865052742822176590e-01,-2.558378298955249919e-03,-8.155260648445780691e-03,-3.401282203890198825e-03,9.896426796913146973e-01
4.699610561701758615e-02,-5.969459366127287669e-01,3.142838538029346651e-01,3.319005127890309326e-03,-6.194189506232401776e-02,1.440606457410051854e-02,8.187722563743591309e-01
2.146754292937738326e-02,-6.047080391758159479e-01,5.962367091939242414e-01,1.217123746140936179e-02,1.481246710788386130e-03,-3.111320191927936536e-03,1.040596842765808105e+00
-2.894402161977545351e-02,-6.095566026565474305e-01,5.428393637850164044e-01,-8.869882632129908254e-03,2.033484164439395420e-02,4.415739720281926239e-03,9.987826943397521973e-01
-2.398988746684625056e-02,-5.314771128883477580e-01,5.930809803118777257e-01,4.081236215192959177e-02,-1.900954251748046553e-02,-1.524159600760879689e-02,9.789041280746459961e-01
-4.228609273905500204e-02,-1.150181975860650851e+00,1.119556409664355101e+00,-7.044522637607084081e-02,1.764117582497699566e-01,-1.122226048634234266e-02,1.993273854255676270e+00
-5.391447944050771490e-02,-3.408240188375736834e-01,5.613971473937634515e-01,1.421356822173709678e-01,5.469363925582194919e-02,-1.346264105268346056e-01,8.725932240486145020e-01
-2.537721732049408319e-02,-4.212056544799838709e-01,5.614022725968866867e-01,-8.535300127009331009e-03,-1.010374039677652304e-02,-2.793209630841293322e-03,8.566227555274963379e-01
-4.190627033764979248e-03,-5.059830745003253138e-01,5.969698867793019614e-01,-6.374465669287918135e-02,9.943350596649815597e-04,4.426542239259186572e-03,9.628599882125854492e-01
9.997523762075542775e-03,-4.550449051627615260e-01,5.911020919083301850e-01,6.954291047016870897e-02,-7.812493289942551086e-03,-1.824896745085342192e-02,9.164475202560424805e-01
-4.776580493288575674e-02,-6.437295265052659365e-01,6.520591961573533046e-01,8.032631238402872242e-03,-1.989870677977240848e-02,6.142773490701539107e-03,1.124051928520202637e+00
-4.171162498576793526e-02,-7.887368558636516092e-01,8.501692880349792647e-01,-1.132416654239423309e-01,-1.560367433656207892e-01,-1.743112706260433603e-02,1.460198879241943359e+00
-1.373750867354294608e-02,-6.059027159111387562e-01,4.806059898169028344e-01,9.734814096610561185e-03,2.124549823608723118e-02,-2.031702520476469029e-02,9.437398314476013184e-01
2.794097403805953506e-02,-5.712401923663440462e-01,5.780271316710411389e-01,-2.013546599891960932e-03,-4.293737194460731099e-03,1.526587897481541218e-04,9.956312775611877441e-01
5.538898181599402615e-03,-5.989740443296419636e-01,6.036886829326882919e-01,-1.533944767078617615e-03,-6.642109176411015344e-03,4.365228792260237092e-03,1.041635751724243164e+00
1.808212369900055738e-01,-9.701738624190290317e-01,1.499166605665216423e-01,-4.918448352413092028e-02,2.632527340291552359e-02,6.424786696908289796e-02,1.145379185676574707e+00
9.067026062786501250e-02,-9.958039553648537767e-01,4.925083001689678497e-01,-7.605500627457767449e-02,2.271482849434872664e-01,5.354516567545169851e-03,1.396679878234863281e+00
2.061274146594832199e-02,-5.715396960571226259e-01,5.798948277469027079e-01,-2.868872519937366774e-03,-2.017521949008221546e-04,1.192095828562217999e-04,9.973194599151611328e-01
-5.161009815434543235e-02,-6.272266542083138052e-01,6.176315920021343553e-01,-4.959478173516732903e-03,2.339752727565473991e-02,6.464140183749560002e-03,1.079947710037231445e+00
2.037269062222241828e-02,-5.777669433820956657e-01,5.841956872653358834e-01,-1.462570422526215681e-03,-8.970824971315065344e-03,-1.377547751410610399e-03,1.006561398506164551e+00
1.360922956116436544e-03,-7.250355191253563536e-01,4.672795515007277523e-01,1.221656992439775456e-02,7.771923784538498081e-02,1.012393070206666496e-01,1.064185261726379395e+00
-1.036313077417115244e-02,-5.969998066440854734e-01,5.981691052792221797e-01,-2.800629467822014426e-03,8.219732818515935362e-04,-1.913775451537877556e-03,1.035122156143188477e+00
-3.025048335275306102e-02,-6.335115658473756683e-01,5.738548338407355454e-01,2.753146790172788898e-03,5.196532682812397136e-02,-1.834624094800688457e-02,1.049968600273132324e+00
3.814538226744973448e-02,-5.592496409124980694e-01,5.693851273497317900e-01,5.985661049186429862e-03,-1.583352386830499492e-04,-2.593173338640092362e-03,9.780512452125549316e-01
6.713076403765530498e-02,-5.721354173957924338e-01,2.698913606396537990e-01,9.685409234202841874e-03,5.771464194718257945e-02,5.340075634179338067e-03,7.679525017738342285e-01
4.248793981804423192e-02,-5.769711603269630507e-01,5.714144243056485939e-01,1.154258225080067278e-02,-3.727866300716642812e-04,1.150935079370675029e-03,9.957636594772338867e-01
-4.565501336528514364e-02,-7.754895429510302307e-01,7.825031762380340039e-01,1.098924166498804582e-02,3.224257142615767624e-02,-6.653205788177047643e-04,1.351445555686950684e+00
-3.728243760059066908e-02,-6.234602439116593287e-01,5.440591608432095994e-01,7.379607501242457096e-03,1.101949801532505491e-01,-1.586220115870403497e-03,1.029044032096862793e+00
-5.600381428170513043e-02,-5.974111918247876352e-01,5.806672524927348755e-01,-5.266356515279536736e-04,9.013140002546818005e-03,-2.422361053670671251e-03,1.021485447883605957e+00
2.444128934357886473e-03,-6.242051996051387608e-01,6.295538511051910202e-01,1.698150764507839333e-02,5.233342710387786124e-03,-1.114630463922971527e-02,1.086394906044006348e+00
3.863253196145738366e-02,-5.997717183322495149e-01,5.860606642494438079e-01,2.025881585699157786e-02,-1.949925511585449273e-03,2.898835145548137558e-03,1.028584361076354980e+00
-3.418534939554011137e-02,-5.954244256947839320e-01,5.335489256084616772e-01,-4.484610491477200069e-03,5.543665475816612377e-03,-8.189965398273112195e-04,9.778040051460266113e-01
-4.637029023140080974e-04,-6.497080100800640690e-01,5.563716490772618872e-01,3.264276497450793041e-02,4.346035356122516374e-02,-1.292542109256314062e-02,1.049985766410827637e+00
-1.886200595523495477e-02,-9.619735995169559351e-01,9.172370587790034113e-01,-1.421106577766675927e-02,2.231643301341001973e-01,-6.507183804110567779e-03,1.672939538955688477e+00
3.726712000642611045e-03,-6.029382863286908423e-01,4.419611328291675467e-01,-2.144706142713401209e-02,2.252974951306975851e-02,-2.451276304747425014e-02,9.114047884941101074e-01
-3.101596040368500076e-02,-6.116925071117624846e-01,5.875007172663133659e-01,-7.298057724967147450e-04,-9.461975313339601951e-04,7.642047004959488885e-04,1.038707017898559570e+00
-7.743867121594917927e-03,-5.894235551666473505e-01,5.977661260418875022e-01,-2.497349408460920739e-03,-1.447575087329476193e-02,-2.732849657280411824e-03,1.028531074523925781e+00
-2.090256607436272174e-02,-6.150058583974851167e-01,5.979561246154929677e-01,-3.297116969735990836e-03,4.486695248080751542e-04,-2.334105082432856495e-03,1.050552368164062500e+00
-5.098149843925714464e-02,-6.143637074381020913e-01,6.234985158315664577e-01,-2.252276235143077857e-03,2.153813188589629238e-02,-6.602848321808251625e-03,1.074174404144287109e+00
-5.886731417145851797e-02,-6.073538903618371787e-01,5.997459223456423905e-01,1.361039174466110915e-03,-1.683539087899360576e-02,4.476939607343362326e-03,1.047265648841857910e+00
-2.474872114976652687e-02,-6.167740607423699561e-01,5.956875827061625106e-01,-3.736596192133047334e-03,1.781246565500790727e-03,1.998321799002304808e-03,1.050148844718933105e+00
2.372552915893876013e-02,-6.231768745352865846e-01,6.111816840272378260e-01,2.490872893715954245e-02,-1.235292912938783629e-03,1.904213700274788113e-03,1.070276141166687012e+00
-2.386920803609210787e-02,-6.104572700568505761e-01,5.868471395902026266e-01,-3.523525692560875843e-03,2.664639542710343575e-03,-5.026273581875957512e-04,1.036994814872741699e+00
-2.366962349342503075e-02,-6.030056430865928796e-01,5.660947205551538630e-01,-4.984603304362161119e-03,-9.308154707019716118e-03,-8.013396125266396969e-03,1.012744307518005371e+00
-7.718572707268184230e-02,-4.335979537452385180e-01,5.804609333750866407e-01,2.483767889637031583e-03,-8.598266538539248161e-03,-1.020054246908253318e-02,8.913330435752868652e-01
-4.085562555182847833e-02,-6.092448996303363451e-01,5.982200930607146638e-01,-2.855199597821446098e-03,-2.648839771019304012e-03,-7.981280377016643918e-03,1.046405553817749023e+00
2.417568230816621866e-02,-6.114956876864673374e-01,4.299510791663564979e-01,-1.385101683733497811e-02,3.460670407792176828e-02,4.095837479644036383e-02,9.142607450485229492e-01
3.091538716229541572e-02,-6.091672816062909668e-01,3.910586627487400158e-01,-1.407309247496149086e-02,2.907030178583116728e-02,-2.838140140873159772e-03,8.792519569396972656e-01
-3.529482659719608562e-02,-6.345531616804552799e-01,6.577617359603959990e-01,-1.386490508232938361e-03,-2.907159749491438402e-03,-3.416458307204912805e-03,1.120189309120178223e+00
-4.504861244537693155e-02,-9.001732339960099027e-01,9.164811798142602495e-01,-1.382349219193462764e-01,8.603323867197308281e-03,3.598750184323640244e-02,1.593561887741088867e+00
2.708361248256554998e-02,-6.004386082073877029e-01,5.884798683493073224e-01,-1.267966233493699781e-02,2.318090435186576526e-03,4.699451458401181919e-03,1.030438303947448730e+00
-2.594962896895444335e-03,-5.984964162495023388e-01,5.975078511836880990e-01,-1.137290915049762961e-03,-7.363016467495049622e-03,-4.003794507991221760e-03,1.035875797271728516e+00
8.613246459180424336e-03,-6.188251960336028645e-01,6.365709618965410543e-01,-2.467377257320496620e-02,7.723245495772817874e-03,-1.120287205711968832e-02,1.088299870491027832e+00
-7.223580675208444990e-03,-6.014426501272063241e-01,4.888641525951034073e-01,7.904071091872333019e-03,2.272195971926257649e-03,6.196414119114021513e-03,9.456755518913269043e-01
5.674599791188755793e-04,-6.024126284207005355e-01,4.463396973942174717e-01,-8.526167760106163201e-03,3.984169818305840355e-02,-1.025629135503678367e-02,9.145410656929016113e-01
3.004662516952122386e-02,-6.071432274920934846e-01,3.861702418309187479e-01,-1.135026122845211351e-03,5.758450053990717826e-02,-1.397172935346777979e-02,8.776620626449584961e-01
-6.845369061103692698e-02,-3.570854621203141677e-01,6.475386122466092464e-01,9.445352727166234086e-02,-2.418470024264716967e-02,-5.170615869331150055e-02,9.160519242286682129e-01
4.386949738492200435e-02,-6.069692116426234074e-01,3.276078716418281966e-01,-1.155712476035314525e-02,4.083909003295927570e-02,3.754208125244704736e-02,8.357025980949401855e-01
-3.746974689897061839e-02,-6.730256172770899825e-01,6.810516363663947637e-01,-1.817041536980996616e-02,5.503727271743336091e-02,5.259211471083312080e-04,1.177685618400573730e+00
3.887692645978664541e-02,-6.791824890438760143e-01,4.376560822810604545e-01,-1.724187416508957821e-02,5.731714538463539982e-02,6.199926691125214745e-02,9.915949702262878418e-01
7.834175983255664902e-03,-5.671071353834886697e-01,5.850464940327211316e-01,-1.042678430281764740e-02,-6.288982849804595869e-03,-2.538850646885439793e-03,9.980275034904479980e-01
7.896159141323583208e-02,-5.874801911843900992e-01,2.259056396156228219e-01,-1.490627708176616231e-02,-3.528602949415476225e-02,-3.775664202085357579e-02,7.565351724624633789e-01
-8.312799815079535692e-02,-1.541772562920302181e-01,5.966168905681885626e-01,1.470328935164367523e-01,4.966996799766741633e-02,3.776569271597560867e-02,7.693715095520019531e-01
-5.492258930475697742e-02,-5.891918181133495303e-01,7.471079136485460070e-01,-1.425893866412746291e-01,7.141827797001458478e-02,3.831391874260981715e-03,1.197304368019104004e+00
1.998664381480151631e-02,-5.780526347695431610e-01,5.865565225877189537e-01,1.811269160401033284e-03,-5.917377468016947820e-03,-5.238609221878661251e-03,1.008801579475402832e+00
-6.875822574785649816e-03,-5.067547461282692067e-01,5.819710281834827859e-01,1.586858367357661323e-02,-2.582505879230384896e-02,-2.715889690880988680e-02,9.465414881706237793e-01
5.189793896411484808e-02,-6.032796017239102637e-01,3.221895627119837346e-01,-1.139090719146854114e-02,3.577428778683254713e-03,-8.863597550601743855e-03,8.246620893478393555e-01
3.275410251538156403e-02,-6.064581219358999853e-01,4.099906985398828474e-01,-1.495399592007364171e-02,6.032761225773151242e-02,2.682560427397818331e-02,8.976535797119140625e-01
7.996642795367217560e-02,-5.905198574443353277e-01,2.622254853206173464e-01,-4.648002935552037786e-03,2.701291657358645751e-02,2.545344484156480611e-02,7.804933786392211914e-01
2.647206004718729785e-02,-5.776352305171515988e-01,5.904469126486185937e-01,9.864918784743464952e-03,-3.619811083209495406e-03,-1.271969309609020937e-02,1.012191295623779297e+00
1.409989852939637356e-02,-6.446557468600522256e-01,4.262492398023799978e-01,7.038631919050450381e-03,-4.903960233400986996e-02,9.988353598777885423e-02,9.553142189979553223e-01
5.991119189706351801e-03,-5.908786436110194940e-01,6.004262370758550738e-01,6.300667402903346349e-03,-2.206773580996247187e-03,-9.812060484374674971e-03,1.031905770301818848e+00
3.979343763136261591e-02,-5.335194151368878313e-01,3.328053832612124507e-01,-6.480702014171206560e-02,-1.421438745957776528e-01,9.703013573974683670e-02,8.270369768142700195e-01
-2.351407574572712128e-02,-6.158732102902294558e-01,6.144227798437881249e-01,3.559025161960672253e-03,8.600879110022552343e-03,-3.200446724895027704e-03,1.065847635269165039e+00
2.683267360728897044e-02,-6.626333845827264701e-01,3.505807091049718549e-01,5.662531586436917418e-03,-1.385386056281926737e-01,2.417433498283402815e-02,9.288798570632934570e-01
-2.425168365918546620e-02,-6.388112287489146057e-01,6.462193856413537274e-01,9.278407810181079143e-03,9.358624730223141786e-03,-4.946072200872063916e-03,1.113487124443054199e+00
-4.936945203072456989e-02,-6.308495612749227544e-01,6.197824478294809980e-01,-5.705196286145149294e-03,2.338530378081972103e-02,5.960860972355633627e-03,1.084816455841064453e+00
4.173243203234254517e-02,-5.923277581248335144e-01,3.142577048757657643e-01,9.243093563748503577e-03,-3.449791340668167949e-02,1.687053733561469371e-02,8.085668087005615234e-01
-4.201126131878676895e-02,-6.067652610861821172e-01,5.529117611509091201e-01,2.516493403769674668e-03,2.678509613931643121e-02,-1.048967210527257561e-02,1.005667448043823242e+00
3.209456890990276812e-02,-6.045924560428871386e-01,4.332291218507763331e-01,-8.458752790127541457e-03,-4.912826409908126885e-03,-1.120400667950192768e-02,9.068297147750854492e-01
-1.263409700082509801e-01,-6.072178229816256323e-01,1.015739625351518294e+00,2.619476757859098837e-01,-2.750185861499188089e-02,-7.584515955591074332e-02,1.519923329353332520e+00
-1.162987972023004357e-01,-2.176290399690780641e-01,5.689286309126218022e-01,-2.051353088172963579e-02,1.633349429559811244e-02,3.501587522518848777e-02,7.449696660041809082e-01
4.575517276431682531e-03,-6.222093565756778855e-01,6.149856587669915164e-01,1.742875676030728252e-02,9.028892393358585455e-03,-4.155894894579337945e-03,1.072036981582641602e+00
-6.727880197692592823e-02,-1.248528985900982935e-01,6.209235014695457799e-01,1.044171585351419823e-01,9.903651246788416906e-02,-1.522622881919817872e-01,8.051365017890930176e-01
-8.996380458358321786e-02,-1.685477936833185697e-01,5.531494928663751587e-01,-5.598300029234570818e-02,3.142281236367203134e-02,1.895133276036417569e-02,6.955217123031616211e-01
-3.569549960952376338e-02,-6.363164051844992786e-01,5.777314739617073203e-01,3.891574629276695605e-04,2.440712476614523285e-02,-4.548009654729381207e-02,1.055209994316101074e+00
-2.589326355330226828e-02,-6.247416039842065283e-01,6.454041407198775060e-01,-1.481141516734483729e-02,1.950680705193156769e-02,-7.819622133871087857e-03,1.101475358009338379e+00
-4.893929970369155502e-02,-6.038607014111606608e-01,5.871437928986309451e-01,-1.049136128267479529e-03,1.142219075207235451e-02,-4.331529176219081623e-03,1.032456517219543457e+00
1.241169823102727943e-02,-6.620005930736296840e-01,4.792395285576830366e-01,3.097220334562112744e-03,-2.457128569378126681e-02,8.743833173758036592e-02,1.006166458129882812e+00
8.212332327732576459e-03,-5.544968650550163858e-01,5.829905630440809228e-01,2.903282341482260089e-03,-1.438947149297581905e-02,-6.189983150721664780e-03,9.854978919029235840e-01
-1.001017849481958821e-01,-3.366664971033974663e-01,6.401757569045515295e-01,6.451003050476317863e-03,3.207678294275428249e-02,-1.068211172567749417e-01,9.036266207695007324e-01
-5.360032929009098113e-02,-4.522037014851754133e-01,7.179129915705410037e-01,6.976187364040536965e-02,1.262650739207460682e-01,-2.819140809977981402e-02,1.061347365379333496e+00
-2.015088567202744790e-03,-6.003810545592126457e-01,6.039009927276915990e-01,-2.386753520274263914e-03,3.134910468994009727e-03,-4.905924440388562298e-03,1.043002605438232422e+00
-5.751772894974904737e-02,-3.596552613150655886e-01,4.365656176302216696e-01,-4.470147760618164295e-02,4.899367134717674474e-03,-1.201817086052489325e-01,7.308106422424316406e-01
-8.972918952679782151e-03,-5.905808602701562160e-01,5.959251824823448285e-01,-6.919072091194529428e-03,4.401327455658721709e-03,5.606346864789034552e-03,1.027754426002502441e+00
-3.469551442132169650e-02,-2.873968685715502791e-01,5.013158481644042208e-01,1.547853058629400369e-01,8.841010740744716101e-02,-7.322512064230285445e-02,7.733222246170043945e-01
-2.435958036299797069e-02,-6.167958472805198378e-01,6.076452983200981706e-01,6.804431659326532281e-04,-6.332604852717091740e-04,-1.807773471544981162e-03,1.060587525367736816e+00
-1.773342401042363875e-02,-5.898114547960466858e-01,5.994602063160253680e-01,3.578962034210032579e-05,-8.256383774944593690e-03,-2.909154193838385180e-03,1.030297994613647461e+00
-3.395895924294702051e-02,-5.816834542309663458e-01,5.722803224599282146e-01,2.247870253194743928e-01,9.910999395673551760e-02,-2.264964669654543836e-02,1.087278842926025391e+00
-3.782365571756948763e-02,-4.445732400111633842e-01,6.204213528421294033e-01,6.439927976312793956e-02,1.577732730539988248e-01,-4.132892637297332084e-02,9.791403412818908691e-01
5.206629798158143689e-03,-5.872868124790348032e-01,5.920978131462910632e-01,6.846104049108434541e-04,-6.548922594307090075e-03,3.170838848616257602e-03,1.021459341049194336e+00
-2.673769704779693085e-02,-4.927086276815223487e-01,5.829556603054717456e-01,-5.217829982960394720e-03,-1.298940642038809261e-02,3.280105568567814878e-02,9.363598823547363281e-01
1.085113849332450253e-02,-6.001907951392492224e-01,6.030927852220645535e-01,-8.326496927540219181e-03,5.175682565793669754e-03,-3.136732863483478553e-04,1.042255043983459473e+00
5.354962178594149455e-03,-5.643677473918837784e-01,5.906986676674949033e-01,-2.277348449003008604e-02,-5.065572281617772678e-04,2.332731692266168649e-04,1.001125216484069824e+00
-1.676574412478203102e-02,-6.254951528195500376e-01,5.570739792920452738e-01,4.977978359818384596e-04,2.570166829956098062e-02,4.736918044840732894e-02,1.028528332710266113e+00
-1.288438036870146255e-02,-6.107011996577634827e-01,6.026621106413465601e-01,1.608985050671528014e-03,-3.778564138141480774e-03,-1.478693546553752234e-03,1.050868034362792969e+00
-3.588642741176352458e-03,-6.007748469755415099e-01,5.971955695814030740e-01,-4.193727366806334830e-03,9.381257742295148576e-04,-8.855265655382718983e-04,1.037502169609069824e+00
-2.115452613789401207e-02,-4.264702065772129069e-01,4.509718679301413791e-01,8.085902320019112965e-02,1.336130073100836868e-01,5.693338449902807935e-02,8.132898807525634766e-01
8.662058450236470586e-02,-5.842479423117888926e-01,2.511366769007708499e-01,-1.331404271685790106e-02,-1.118148593990205691e-02,-2.652048643248141810e-02,7.684502005577087402e-01
-3.092277099634602872e-02,-6.144616292600750818e-01,6.136580793336741113e-01,-2.515241085523327660e-03,1.300403377735809751e-03,-2.149332338927898226e-03,1.064038515090942383e+00
5.122139432740614728e-02,-5.965027597391837633e-01,3.462821634772750845e-01,3.869501329583001099e-03,4.176055922889285177e-02,3.059977015645241188e-02,8.401257395744323730e-01
-3.927877164748311278e-02,-6.105183873089912172e-01,5.968369319217100566e-01,2.247433117188046229e-03,-1.071284250607112791e-02,-8.005010931275752164e-04,1.046276092529296875e+00
2.108925287835160950e-02,-5.903049737906633787e-01,5.918183038185981237e-01,3.492637972585108629e-03,-6.727515708967526063e-03,-7.775248941207901776e-03,1.024123430252075195e+00
6.783121774872454858e-03,-5.916255676940329611e-01,6.010789020630256108e-01,6.523189452085565582e-03,-1.585277702868286009e-02,-7.725420322810659483e-03,1.033427715301513672e+00
-2.372263203116686814e-02,-6.235407760631004326e-01,6.189591369691268552e-01,1.710718355316316261e-03,7.646223046598848647e-03,-1.007611341899724081e-03,1.076336860656738281e+00
-2.867079593597742990e-02,-6.089252858437542715e-01,6.035121552323088334e-01,3.497370984149592086e-04,4.788064474612843680e-03,1.860775934234364353e-04,1.050355553627014160e+00
5.149124243140343338e-02,-5.968068890338524835e-01,2.194778668081570072e-01,1.598011872748215240e-02,-5.535329436189458802e-02,1.517443590703379253e-01,7.977797389030456543e-01
-1.763129813085740488e-02,-6.047903934211016352e-01,6.071910700944592731e-01,5.676396909952838776e-04,1.230587250191430507e-03,-3.922826780422720289e-03,1.049800276756286621e+00
-2.163347503751549689e-02,-6.117687969864086250e-01,6.151388783159557061e-01,-3.293202221617236563e-03,-1.290684351002810773e-02,-2.478138713073328638e-03,1.063048124313354492e+00
8.092459260910386809e-02,-6.059276557609747371e-01,8.115205468271188827e-02,-7.200880835148508463e-02,4.035104869087263041e-02,4.717185847355317291e-02,7.064263820648193359e-01
-6.675017780062776629e-03,-5.418056721085273697e-01,6.069440766093061601e-01,1.338444393121519804e-01,3.255661374246780889e-04,-1.917473428181639197e-02,1.022793173789978027e+00
9.742267187641076576e-02,-5.495201941303919924e-01,3.744144469399804387e-02,-3.116136593807546790e-02,-8.749553056654136435e-03,1.174780438803861744e-02,6.220009326934814453e-01
-5.184016313716442032e-02,-6.139325925377637772e-01,5.944803247709440353e-01,-1.759919566030611901e-03,1.546149401162090486e-02,4.222342630337501401e-03,1.047735571861267090e+00
-3.690586866331679872e-02,-6.122145025263632245e-01,6.113990557296525852e-01,-9.964354902713135065e-03,1.885793458006929449e-02,-7.205991295256497335e-03,1.061025500297546387e+00
-5.802598681869129693e-03,-6.015999149984496697e-01,5.041261182292043896e-01,-1.704316198875801408e-02,7.349585529007322815e-02,-5.817347177967192168e-02,9.726482629776000977e-01
-4.884963060223438541e-02,-5.958500577836535195e-01,5.515332729103907816e-01,1.712014008770319524e-03,1.957862869481147641e-02,2.316604459034571524e-03,9.946123361587524414e-01
7.271915009737832392e-03,-6.005489645018722289e-01,4.539008056617560571e-01,-8.750572858933654274e-02,1.158520437738297104e-01,-1.157880894593976175e-02,9.508064985275268555e-01
-1.609216525261783493e-02,-3.263333899769421120e-01,5.752339738930272173e-01,1.411398008301174567e-01,8.434400244549694614e-03,-7.219863791577684452e-03,8.303620219230651855e-01
-7.420863355659937377e-02,-2.886424866189484240e-01,5.532595159871029900e-01,5.541031382769314589e-02,-5.506345330160487654e-03,-1.443364139908840868e-02,7.643136978149414062e-01
-8.193924505915325951e-02,-3.244520544065596646e-01,5.792201262997278555e-01,5.127157218456001447e-02,-7.572814023458551702e-03,-7.882953385346416070e-03,8.151862025260925293e-01
-5.326106622029577048e-02,-6.008228835357579678e-01,5.980773170338269384e-01,1.325675538475490226e-03,1.368281230227366523e-02,-6.165330544292477524e-03,1.039901256561279297e+00
-4.931724623257613405e-02,-6.008339697524981426e-01,5.750641372511190452e-01,-2.892085612981187045e-03,-4.809567397655394559e-04,3.027316722867762558e-03,1.019035220146179199e+00
4.203033481808837735e-03,-6.000835737839588235e-01,4.057118079270091715e-01,-9.827148709889172579e-03,7.520577071552471404e-02,1.032774704659271577e-02,8.868908882141113281e-01
-5.947517331680089725e-02,-6.113796171298652160e-01,5.909709682593395907e-01,-3.034358512530592640e-03,1.004951891458997874e-02,4.655218506110924900e-03,1.042620897293090820e+00
-3.456829820865259945e-02,-5.955503801411605735e-01,5.288467133636042261e-01,4.492325641821773817e-03,3.612164625655643353e-03,7.186843342734368714e-04,9.738091826438903809e-01
-6.893255426966227173e-02,-3.275721246762841599e-01,5.782001715671087894e-01,5.358461031489782783e-02,-4.380232490152376548e-03,1.352477813758075353e-02,8.137994408607482910e-01
-4.959093037537858073e-02,-6.123762359863292870e-01,5.951003791545542709e-01,-3.119076597114442666e-03,9.478289300148337593e-03,-3.486421088852715514e-03,1.046667218208312988e+00
-5.247765808795997605e-02,-6.116616411494549821e-01,6.168155195019612291e-01,-5.607949848362681414e-03,2.341376948478820011e-02,-2.961578745822216353e-03,1.066144108772277832e+00
-5.770112149927827949e-02,-5.035966379139732441e-01,6.032659991925569676e-01,2.257502870067322129e-02,-2.557792599279671598e-03,-1.913345161739330585e-02,9.659551978111267090e-01
-4.108334951163379600e-02,-6.082774324345765482e-01,5.775932724180353750e-01,4.322814185748139436e-03,5.268500913387473691e-04,-3.920811655618230453e-03,1.027366876602172852e+00
-2.236462246514760166e-02,-6.126504077270926718e-01,5.586573937312792060e-01,5.152388318305287443e-03,7.438924638671469414e-03,6.155550169999791238e-03,1.014569997787475586e+00
-4.459127119313354565e-03,-5.946268157364310580e-01,5.955174252901576093e-01,-2.469575625167802946e-04,5.470691309350591983e-04,3.206061134291073988e-03,1.030722260475158691e+00
-6.312048039617787140e-03,-5.471948732325730980e-01,5.116311200216563382e-01,-1.872687066043027260e-02,1.840887722468355706e-02,-2.607307578489951455e-02,9.192790985107421875e-01
-7.986644150263982889e-03,-7.040331288718737479e-01,5.718593589738756311e-01,-7.043553773652988514e-02,1.438118062244855277e-01,2.977232409249312359e-02,1.141880035400390625e+00
-1.019351106804215930e-02,-6.117424716496168147e-01,6.032950898477779100e-01,-3.602066319522182164e-04,-5.397298549453644068e-03,-1.881068133046237935e-03,1.052317023277282715e+00
3.955989140367675849e-02,-5.826042409671337019e-01,3.126597857579179185e-01,-7.805839057439978301e-03,-4.970782959038676230e-02,-2.293613561197403727e-02,8.004738092422485352e-01
1.669037596600096707e-02,-6.878529825102647210e-01,4.290243520949772460e-01,5.470858984919814427e-03,-7.319639406081870914e-02,-2.796696688049014889e-03,9.864553809165954590e-01
1.107723942428802677e-01,-8.792360735314234121e-01,2.409965448488245454e-01,1.736725640593140552e-01,-2.107240030854447277e-01,1.512836865353162918e-01,1.190948605537414551e+00
-3.546890910020254750e-02,-6.100734037841434310e-01,5.914288863978753863e-01,-2.254165540557516478e-04,3.614320438916752195e-03,-1.286914408273025527e-03,1.040881276130676270e+00
-3.659635552946986434e-03,-6.082162942974582709e-01,6.008060343855854413e-01,-2.373429467807049859e-03,1.643854439375250307e-03,1.737339864935034473e-03,1.047060370445251465e+00
-2.613684754209957828e-02,-6.156787854821856865e-01,5.997292660030043576e-01,2.505051532786843616e-03,-1.117190662123849999e-03,-3.628524891530329321e-03,1.052760362625122070e+00
9.541736621008525820e-02,-6.468653011876079884e-01,1.227553836314418945e-01,5.675810522632191574e-02,-1.465538256799534533e-01,7.723490799481087798e-02,8.148728013038635254e-01
1.867914504494813110e-01,-6.544622463910492183e-01,-1.316013003118328417e-01,-1.459783915049130479e-02,-8.156008931084839098e-02,-7.093489757879063717e-02,7.595546841621398926e-01
-2.158998653110510285e-02,-6.125533883540508207e-01,5.687763269350407658e-01,3.526162052157390172e-03,-5.733525648854547949e-03,7.819723228889250213e-03,1.023217678070068359e+00
6.990449924625372069e-02,-6.029438358112564345e-01,2.164083332307663032e-01,4.335472909380845563e-02,-1.314490338744128406e-01,-2.421963907834065802e-02,7.949832081794738770e-01
-2.004365934705771082e-02,-6.089025047323542994e-01,6.024741044019493730e-01,-5.640659052944301465e-05,2.836595382127145380e-04,-4.319842403809282839e-03,1.049244642257690430e+00
-1.822806444690309308e-02,-6.142302512533482917e-01,6.150016645615218325e-01,7.034453464291181646e-04,1.341879555266020912e-03,-2.470466791131836412e-03,1.064720630645751953e+00
-4.200448262211392558e-02,-6.004065252509400707e-01,5.631451557602327185e-01,-2.713356462230060318e-03,1.135001378683183661e-02,2.740050177184288459e-03,1.008150219917297363e+00
-2.416072089706650800e-02,-6.144336788336376420e-01,6.097094076312413735e-01,-5.724583117245680064e-04,6.505469308072294723e-04,1.423504968274321532e-03,1.060366988182067871e+00
-2.104052936774911814e-02,-6.143171559303105544e-01,6.112626419203442962e-01,1.002790136632131105e-03,-4.060847925462463849e-03,-1.864108618208048292e-03,1.061592221260070801e+00
1.479427851118270219e-03,-5.981663997106601016e-01,6.039364844566845747e-01,1.430699348716827669e-03,-7.767046356318212455e-03,-4.234028536458296112e-03,1.041168332099914551e+00
9.569980671521944454e-03,-5.751756815211592766e-01,5.936392228185904951e-01,1.317752257596465325e-02,-1.179466028398078355e-02,7.011989309267276224e-04,1.012687563896179199e+00
-2.283079500644152188e-02,-6.169889126907563970e-01,6.137210302315966315e-01,7.716426482165910359e-05,1.151956204510006790e-03,-2.289600047892873403e-03,1.066046118736267090e+00
-9.074555501884501441e-02,-2.971066453894987136e-01,9.208724611708740682e-01,1.304176262662425090e-01,9.400342128175807888e-02,3.779909593035566968e-03,1.162881612777709961e+00
1.031730517878488296e-01,-6.537021012375484608e-01,2.217655386088606129e-01,2.033790687184549792e-02,5.068493661546735751e-02,-1.586984318915420425e-02,8.284848928451538086e-01
7.403815794403781347e-02,-5.783017591634025401e-01,2.786111529131503617e-01,1.356191961362548243e-03,3.065545698812131847e-02,3.831259512832569216e-04,7.769644856452941895e-01
8.747541592554250456e-02,-6.668327156691523649e-01,2.988917846464462236e-01,-1.032328955455269828e-02,-6.038343558911516556e-02,-5.260022093739828014e-02,8.903422355651855469e-01
-4.486562888132848009e-02,-6.084808676362905011e-01,5.854089419999115584e-01,-4.598937086207805641e-03,1.308705050160948249e-02,4.655274454157875413e-03,1.034786343574523926e+00
-5.492485172858127540e-02,-4.185095441435168206e-01,7.022076790176485783e-01,2.192197124240059525e-01,6.284731697471526712e-02,-1.297014409109195935e-03,1.066185474395751953e+00
-3.805442672593778441e-02,-6.086847273856843543e-01,5.951736392807400744e-01,-6.085797867417259109e-03,9.043999363102524875e-04,3.597641704415624735e-03,1.043114662170410156e+00
8.151118730507327104e-03,-4.220834778996524483e-01,6.082847840255993788e-01,1.335796228401055219e-01,-8.272742781943778420e-03,-8.805283471575029363e-04,9.258502721786499023e-01
-1.418700065725662235e-02,-6.591658579714891886e-01,7.226616525480862308e-01,4.492929756435376509e-02,4.651387681746263492e-03,1.653179188064634242e-03,1.200135231018066406e+00
-4.509811770966959399e-02,-6.104349477775521393e-01,5.806553300725592059e-01,-1.333593989296933974e-03,5.089787249278987340e-03,7.205821046742589241e-03,1.032072424888610840e+00
-2.275850851890656029e-02,-6.121963208267088286e-01,6.183387783713990560e-01,-5.174242252670371509e-03,-8.285945498509283622e-03,1.134073859812565095e-03,1.066123723983764648e+00
-2.027140410284522520e-02,-6.155772959400334088e-01,5.933676324490474441e-01,6.263746032633038356e-03,3.899541889356972039e-03,4.589007044638416209e-03,1.047125339508056641e+00
-5.978867719154094817e-02,-6.278648092592052921e-01,7.435734680258166973e-01,2.600543469944354147e-01,6.628801916596027688e-02,1.206187968898836740e-02,1.281005740165710449e+00
8.731607295760158288e-03,-5.302599185085264955e-01,5.770352591151335364e-01,3.205213525073162539e-02,-1.026972276035828004e-02,-9.684881169361817324e-03,9.609742760658264160e-01
1.652837005348269453e-02,-5.799807834207716395e-01,6.557070818271063528e-01,9.600097039901177298e-02,1.572782503935283476e-03,-2.230507567689862108e-02,1.083880543708801270e+00
-3.575759341337517161e-02,-6.136176599180859226e-01,6.121889608116948267e-01,-9.011558249902463114e-04,5.611603471686962656e-03,-3.792332010538840888e-03,1.062223792076110840e+00
3.017723744617412107e-02,-5.981338589577434028e-01,5.988786082952499701e-01,1.514753922606943380e-02,8.774929365788076800e-04,-2.036630552892550530e-03,1.037410497665405273e+00
-5.469137170476547072e-02,-6.003559519660972565e-01,5.734818988633308967e-01,1.973729450419840878e-04,6.862788733054510197e-03,3.615821344912497400e-03,1.017498850822448730e+00
-1.666836735780687084e-02,-6.190526170193900724e-01,6.573655991978115676e-01,3.587998300697455012e-02,3.726489913704497670e-02,4.851253241108082967e-03,1.109646201133728027e+00
-6.063288469245812357e-02,-6.010221261067735243e-01,5.940017652625900757e-01,-5.007490759443850980e-04,8.559544282277495308e-03,-3.701936731400271366e-03,1.036622524261474609e+00
-2.374138946432101729e-02,-5.992547557041055795e-01,4.888563235717507949e-01,6.119443166122102637e-03,2.897696334760051576e-02,-5.987123915056931714e-03,9.443081021308898926e-01
-1.914848643705089129e-02,-6.674766793016396749e-01,6.329433052044267649e-01,-6.450276451914464804e-02,7.797773047134326507e-02,5.339861240524674396e-02,1.143503546714782715e+00
-5.508077380997188077e-02,-6.004233916301230378e-01,5.739485411076846733e-01,6.208260189149032758e-04,5.294000794418688913e-03,1.068668988619577093e-03,1.017939925193786621e+00
-2.764598427529183639e-02,-6.310144254160149346e-01,6.261040041116981980e-01,1.633633685097102967e-02,1.247651309944402577e-02,-3.545368914276285366e-02,1.091298818588256836e+00
-4.716092003603623850e-02,-6.037332602605366416e-01,5.837858205478203555e-01,1.413037997207932349e-03,3.544931005387594748e-03,-3.919516693495351915e-03,1.029137372970581055e+00
-4.549805673512397064e-02,-6.011606734148609021e-01,5.719075621152260869e-01,8.572554422750982899e-04,1.410324384827078533e-04,1.282562603364758224e-03,1.016379356384277344e+00
-4.362658741950914409e-02,-7.931919900487628405e-01,8.109161537268677611e-01,6.548575549189031286e-02,-6.642788131325616519e-02,2.416963403960367164e-03,1.399552702903747559e+00
-2.495814941600701942e-02,-6.119973641824357768e-01,5.766950188709025760e-01,-7.727970158518667615e-03,4.162909087987343333e-03,-6.147069225830789629e-03,1.029631018638610840e+00
-2.494200841967975785e-02,-5.944452004926089606e-01,6.171554929338463058e-01,-4.644448778967152740e-03,-1.361015611353725077e-02,3.113267475767093114e-03,1.050213813781738281e+00
-3.677410983788535065e-02,-6.127924433756821720e-01,6.010328668445220623e-01,-8.501453517859425659e-04,8.511117473304286507e-04,-5.035915975926510794e-03,1.051695704460144043e+00
-2.961606249377673680e-02,-6.107858158445684804e-01,5.655456255193809234e-01,6.850705220208779499e-03,7.601716894903113968e-03,-6.938699633232434799e-03,1.018981933593750000e+00
-2.493009582164371421e-02,-6.001073313928771968e-01,4.813877939686258545e-01,1.295859947371071465e-03,3.877927561184649902e-02,-7.910181724058665959e-03,9.397411346435546875e-01
-2.678313265964867712e-02,-5.582931611765860058e-01,6.100980232209564091e-01,1.923190363937400801e-03,-2.042405181743507311e-02,-1.563373513336072107e-02,1.014211535453796387e+00
-3.710281544987376057e-02,-6.102096818814430890e-01,5.961380884373601585e-01,9.871534935961842703e-04,-3.447664103051729608e-05,-5.205563543988807849e-03,1.045200705528259277e+00
-2.507643166370361609e-02,-6.111196971999106609e-01,6.178110695808242125e-01,-2.552250535053195157e-03,-8.353411518538389133e-03,-6.667058192159237969e-04,1.064772844314575195e+00
-1.811397748333398727e-02,-6.165064911525758307e-01,6.034177774868800803e-01,7.220388683866707730e-04,-1.278660212830138427e-04,3.166571856663773308e-03,1.056563735008239746e+00
-2.709151831711267139e-02,-6.158077429173615114e-01,6.026985541879512631e-01,2.328424174720147583e-03,7.072849229982776072e-04,-3.033080630079879395e-03,1.055478692054748535e+00
-2.187217089604506087e-02,-5.867403949554503839e-01,6.164494524948095355e-01,1.075003502713310155e-03,-2.123850881392025033e-02,-7.865176234958944426e-03,1.043379306793212891e+00
-1.387090351610161454e-03,-5.929436942453565340e-01,5.945354640965340165e-01,-2.797313118194299456e-03,-1.244440313828560230e-03,5.217197278806606948e-03,1.028442859649658203e+00
-3.327459993550246214e-02,-5.927762702370129588e-01,6.160035146515741022e-01,-2.885810169878832293e-03,-1.692490207568785390e-02,-1.978905568662446546e-02,1.048778176307678223e+00
-2.345311698849999321e-02,-6.168923686030042264e-01,6.052990013087762300e-01,1.606471198707606733e-03,-1.860137652356542472e-03,-8.330152475974207486e-04,1.058605551719665527e+00
-2.579200005547203217e-02,-6.168368851923426988e-01,6.048647484371787453e-01,1.750161386372864770e-03,1.286845301769734854e-03,-1.562183169923095534e-03,1.058220148086547852e+00
3.079814858872118033e-02,-5.994778838401774168e-01,4.230924924576104362e-01,1.098868149638925450e-02,2.542068621029137596e-03,5.794888738303153632e-03,8.938001990318298340e-01
2.121498023590144555e-02,-6.065258564488925641e-01,4.264523683494086947e-01,2.208983176540842575e-03,4.569048333538662868e-03,7.066495680905181959e-03,9.016025066375732422e-01
-5.020735864519880465e-02,-6.852354544744303499e-01,7.434190363048400751e-01,-2.529161430822466153e-02,4.724809688800260705e-03,-6.448330489548527097e-03,1.240640640258789062e+00
4.514481039065244838e-02,-5.745347460577087118e-01,3.385259797492582989e-01,-6.620868459480781787e-02,1.024454259450258559e-01,1.213963730881899815e-02,8.348386883735656738e-01
6.897592472733563018e-02,-5.788327873638883236e-01,2.750719447751506230e-01,-3.826458219055250097e-03,-2.135901021603939503e-03,7.809824001481737409e-03,7.719346284866333008e-01
-2.838132063543635786e-02,-3.872212736321202775e-01,5.457778818701072288e-01,6.751001073442648714e-02,5.374963428250112418e-03,2.188591241284646230e-02,8.244104385375976562e-01
4.050845864331703572e-02,-6.393555960417021122e-01,2.330498406443889392e-01,9.821489398004308591e-02,-1.109732651645668478e-01,1.383965354840761552e-01,8.680632114410400391e-01
6.738721375710868267e-02,-5.776650204002603539e-01,2.928020379204885892e-01,-7.751506323081570633e-04,-7.596073311197230372e-04,-5.414484498352389527e-03,7.825599312782287598e-01
-1.762628471217757634e-02,-5.942950716956187929e-01,5.438896533286136092e-01,-1.081176177070728231e-02,-1.157248704453954632e-03,-1.568175011110338468e-02,9.862799644470214844e-01
4.595573795713079994e-03,-5.998675290392104786e-01,5.958589964428572250e-01,1.725642853835256509e-03,-2.345138133614737495e-05,-2.316737365572679903e-03,1.035562634468078613e+00
1.294204868516493981e-02,-6.193821016121283662e-01,6.087296114065998687e-01,-2.476260456444549438e-02,4.308119130379441629e-03,4.723897709306092499e-03,1.064654707908630371e+00
-5.050820888265913911e-02,-6.005030293764491711e-01,5.671663278181119372e-01,4.443241629729743729e-03,2.058126133655976931e-04,-1.436747112275956265e-03,1.011829733848571777e+00
7.873797446498354002e-02,-6.626179954780472281e-01,2.145914647298187705e-01,-3.454934486566909463e-02,-1.985537082360194217e-01,-2.544173825342762457e-02,8.902663588523864746e-01
-5.185823705299281994e-02,-6.588578537792159073e-01,6.276008637795957856e-01,-2.752070738104177572e-01,2.620369259672140627e-01,9.536098330694678382e-02,1.305002927780151367e+00
-5.123706178539751133e-02,-6.306044348593454751e-01,6.539938757687098203e-01,-4.341019728786171816e-03,-2.023154371941543461e-02,1.441469604400690864e-02,1.115129113197326660e+00
-6.843680003202298745e-02,-4.476120703214864216e-01,6.717492418533558274e-01,-1.088481702075194679e-02,1.111829554453225705e-01,3.607953998272112744e-02,1.006804347038269043e+00
-2.728946954726532530e-03,-6.193838695637301495e-01,6.095353575151504222e-01,-1.298566907549485692e-02,5.847653572645162591e-03,8.827055680992926647e-04,1.064564466476440430e+00
-1.758678554936349975e-03,-6.173938998789971766e-01,5.280362123688995268e-01,-7.333003610012918047e-03,1.456474542694047303e-02,1.617432288850783814e-02,9.936962723731994629e-01
-4.320579324850868513e-02,-6.436102635427253249e-01,6.761886796993545889e-01,-2.050111683612388562e-04,-7.304747709337343310e-04,-4.863520448951998490e-03,1.144558548927307129e+00
8.802319768087298046e-05,-5.554720192195196082e-01,5.862613103110678736e-01,-4.682184436598214872e-03,-1.402327218975539351e-02,-2.942773837732211382e-03,9.892331361770629883e-01
3.351398151960481575e-02,-6.229635100798163183e-01,4.053139821218696426e-01,2.401794249607741225e-03,-1.864513719988521862e-02,-4.032872316122679962e-02,9.051053524017333984e-01
-1.992249558616003557e-02,-6.151406990600505331e-01,6.057440510676052048e-01,-7.078183484811733338e-03,6.967194991159317286e-03,-2.379062942328774403e-03,1.057574748992919922e+00
-4.898193451260816206e-02,-1.000279662723235763e+00,1.084545299542248653e+00,1.007060365734657320e-01,1.496544490468944277e-01,-3.240511165138167636e-03,1.834616899490356445e+00
-1.078530276296752952e-02,-6.405051308536454657e-01,6.587204941963469285e-01,1.717365970137512896e-02,-5.701121622979837822e-03,-6.068097466806259173e-03,1.125823616981506348e+00
1.958826351231779395e-02,-5.987592179926169988e-01,4.241143751213244939e-01,-1.239041720591990345e-02,-3.247853611429641816e-04,1.364217280480871722e-02,8.928336501121520996e-01
4.001714394871599967e-02,-8.215531445991862691e-01,4.521674087116164253e-01,1.864014053849873676e-01,-2.088068441803131448e-01,5.283533138849490218e-02,1.229097127914428711e+00
-6.397510419177858398e-02,-5.966578120359168347e-01,6.339741487376153728e-01,-1.039990781480707588e-02,3.919910906300102323e-04,-1.603682023748832092e-02,1.069469928741455078e+00
-6.880319294927078611e-03,-5.925885861673658717e-01,5.215190741476142255e-01,-3.332219814975632098e-03,1.572646000911609573e-04,-6.077191319451696015e-03,9.653456211090087891e-01
-8.568099517758297201e-02,-9.301664921571105582e-01,1.044459182207868153e+00,-1.752185856340989778e-01,-5.010274712201218811e-02,5.888048635510422651e-02,1.747797369956970215e+00
-6.208814973262795356e-02,-4.628542852431801746e-01,6.317186047772094248e-01,2.325696188672585901e-02,1.191316875020760439e-02,-7.938551195987728071e-02,9.700464606285095215e-01
-2.473764360134026591e-02,-6.187616415386156810e-01,6.000944008047296441e-01,3.679722793981471569e-03,-1.279330244317480707e-04,-4.784564578639258735e-03,1.055724501609802246e+00
-2.473304352322098359e-02,-6.302708258818729981e-01,6.441406489438957772e-01,1.363004306937898140e-02,-1.535348479671269986e-02,-7.386697260656748150e-03,1.104773521423339844e+00
-2.721123255941347574e-02,-4.049635641955690590e-01,5.887520753587340838e-01,9.778387700073465361e-02,6.020114116512370953e-03,-2.437977964566360664e-02,8.862088322639465332e-01
-1.704726113963060501e-03,-5.915452827701043192e-01,5.940749250984475038e-01,1.257331752701093715e-03,-4.531821725577173977e-03,2.919904283854642124e-03,1.026826262474060059e+00
-2.500516377183650135e-02,-6.118776668826335641e-01,5.330341665951665586e-01,1.516956161121229413e-02,1.044262267723050338e-03,-2.856277739919118111e-03,9.919895529747009277e-01
7.623122315044573299e-03,-5.035053653475380919e-01,5.745204974321652669e-01,2.836216899697875313e-02,-1.268806707984739858e-02,-4.669298400466610939e-03,9.355981945991516113e-01
-6.899040390835720071e-03,-4.844125104758876255e-01,5.693787804655618956e-01,5.413330147498850858e-03,-1.436282313083109795e-02,3.990016313942077071e-03,9.143578410148620605e-01
1.088963856471764600e-02,-5.977396648078194819e-01,5.973167170507850399e-01,5.841271530194754730e-03,-2.229793760184152485e-03,2.672015265675659664e-03,1.035075664520263672e+00
-7.765959913624799482e-02,-3.507333135186535555e-01,5.635560517792299606e-01,1.610728763821870149e-02,-7.455219344853380135e-03,9.908852298995589683e-03,8.136740922927856445e-01
-8.146048240954287256e-02,-1.832360776859096041e-01,5.210729379632161873e-01,-6.078564998928517871e-02,-1.507075735135517298e-02,1.975625684704264418e-02,6.690776944160461426e-01
3.206787242692171747e-02,-5.748979943735066378e-01,5.942066169547698395e-01,6.654159415470236108e-03,3.420890484680385018e-03,-6.380662094267942029e-03,1.012865543365478516e+00
-3.012867532101412560e-02,-6.086164141706006392e-01,5.958289488132341161e-01,2.003264455585658380e-04,-1.034265794666966811e-04,5.397438291127648960e-03,1.043392300605773926e+00
2.161479996343109583e-02,-6.209352519578091867e-01,5.141826829953258793e-01,-5.897212162325879067e-04,-8.817196536726790851e-03,-1.177862595254671428e-02,9.862269759178161621e-01
-1.173963464343095731e-01,1.080733827309365847e-02,6.181767556612844938e-01,2.092982617499252948e-02,1.372632464853068557e-02,-7.256337209944460631e-02,6.934525966644287109e-01
-1.215885635431185885e-01,-2.410169587289094917e-01,5.480470098885502628e-01,-1.322985899524246542e-02,-2.382182848453429796e-04,-5.362982214676828042e-03,7.370617389678955078e-01
5.623214465245271465e-02,-6.694521463062709232e-01,2.932324167049479291e-01,5.030348570874577929e-02,4.407591944321064686e-02,-1.215006427897582508e-01,9.013771414756774902e-01
-1.093322339626628080e-02,-6.036192637393077431e-01,5.387385911296134200e-01,3.624943702035620437e-03,-1.524556542205090333e-03,-9.036836615186599059e-03,9.896919131278991699e-01
7.567693065442734901e-03,-6.042060918778986434e-01,4.614228684410155434e-01,-1.437494022439485611e-02,-2.016115819330075234e-02,2.251892582212866589e-02,9.280458092689514160e-01
-3.519670511426996329e-02,-5.901179138982618477e-01,5.952941340717050611e-01,-1.438692105444985304e-03,-2.660012416349293810e-03,7.018860003475477748e-03,1.027377367019653320e+00
-8.502014988671580120e-02,-1.344023249334743708e-01,8.506556254433305098e-01,2.118327743640096086e-02,8.585452308932203791e-02,6.660983432113020374e-03,9.735120534896850586e-01
-2.570787284466201708e-02,-6.124844838396462654e-01,6.150303143888139479e-01,6.162675589129934343e-03,1.226149358673931690e-02,-5.592778791424663507e-04,1.063667416572570801e+00
-1.465396934833082879e-02,-6.116722220031092228e-01,5.757775031852507830e-01,-1.009026397232920492e-03,-2.977410326498271991e-04,2.498582265063182400e-03,1.028377652168273926e+00
-1.000128864909823334e-01,-2.575834173481658107e-01,5.495783618133018855e-01,5.636391369794643835e-02,-6.315984903628169868e-03,1.347538921711076247e-02,7.478962540626525879e-01
8.215255194028306396e-02,-6.682845430784466467e-01,2.690939064698474326e-01,-3.301613405913617072e-02,7.406534340077403078e-02,8.497362552105074129e-02,8.830512166023254395e-01
-1.883529517631988420e-02,-5.785310375794396887e-01,4.413751767530876835e-01,5.833192301305191799e-03,-6.548220503037180916e-03,2.736077657982888614e-03,8.848073482513427734e-01
-2.907704967556377917e-02,-4.146556308909031263e-01,5.613730893262939281e-01,4.917594795035531291e-02,-2.133688525235474809e-02,3.782456610011888237e-03,8.565224409103393555e-01
-1.291855816707697668e-01,-8.736453048332373794e-02,5.586618905440117189e-01,1.920473822066045763e-02,2.516052278152194552e-02,1.920018628390757209e-02,6.709904670715332031e-01
-2.723887755637574223e-02,-6.209572992929728308e-01,6.011924616801179733e-01,1.244973649682269050e-03,-1.384940125655942768e-03,1.111021270216926149e-02,1.058734893798828125e+00
-1.677099672229856453e-03,-6.236140093901809678e-01,4.273159923431847917e-01,1.105148472671801073e-02,-1.117833314054723221e-01,4.306429284635538562e-02,9.386499524116516113e-01
-5.430167871768984411e-02,-3.472879231899665964e-01,5.451227842363575160e-01,8.792542059297286244e-03,-5.119508361033007354e-03,-3.430775652420421130e-03,7.881114482879638672e-01
-1.167041226022560649e-02,-6.005547063207695713e-01,5.998859571809128655e-01,3.924060079278404202e-03,-9.363884322991417736e-03,-2.372094476560164100e-03,1.039830684661865234e+00
-2.283186802860455444e-02,-5.812304696406643822e-01,5.705523826135103782e-01,-1.145790812096094465e-04,-2.144881511143546717e-03,5.586016804161399001e-03,9.976804256439208984e-01
-5.804365350384262101e-02,-3.551758688928263186e-01,5.734150983239635346e-01,-2.873809277395629122e-02,1.417009551936493084e-01,-7.975147262742304788e-02,8.697416186332702637e-01
-1.713828325849929210e-02,-1.014764947779655646e+00,9.230646078202563443e-01,-4.216686111759063681e-03,2.380907717911622257e-01,-3.572643530168765486e-02,1.729495882987976074e+00
-1.435471333504838819e-02,-6.443805874261937516e-01,6.466040315600686261e-01,-2.529326117711949381e-04,4.907687912617655045e-03,-1.007907643543953444e-02,1.118301153182983398e+00
-2.603001033848433010e-02,-4.875202683197658038e-01,5.761702514915109097e-01,-5.150083909408750306e-03,-1.272936884327535711e-02,4.842911003934300025e-03,9.242099523544311523e-01
-1.108235742517911793e-01,-2.263082869125723762e-01,6.276054694261035127e-01,9.716102883438020033e-02,1.025308986558918015e-02,-7.551311566315180301e-02,8.304422497749328613e-01
-4.838316541000070754e-03,-6.322095432840355578e-01,6.327609446584326891e-01,9.675409367096231283e-03,3.783558962517662595e-03,-9.302451031479079535e-03,1.095774769783020020e+00
-4.482987668562825323e-02,-6.684165543968083600e-01,5.391488574523317645e-01,2.418980940724608369e-02,-1.655981773846951222e-01,5.757015054878310278e-02,1.089963078498840332e+00
-8.026788109262423740e-03,-6.434714234134610855e-01,6.635959820092955930e-01,-2.510469375954767299e-03,-7.250109622177432211e-03,5.892405869284732603e-03,1.132222056388854980e+00
-1.793202895840676631e-02,-1.138269774932275880e+00,1.015340429437228353e+00,-6.592634132172037198e-02,1.559104112312238721e-01,-5.744232171124916131e-02,1.891106724739074707e+00
-2.234775052456377392e-02,-6.100441923306291203e-01,5.754093471068980614e-01,-6.801749784126398524e-03,3.227402704178392338e-04,-2.510363182051345184e-03,1.026722192764282227e+00
-8.055170503299799445e-02,-2.644694341980109997e-01,5.902865191872712636e-01,1.245606451061489622e-01,2.504887664038478109e-02,-6.574693310049381512e-02,8.176949620246887207e-01
4.677395720605995871e-03,-5.909560427191349330e-01,5.915720514557939458e-01,-1.165631331146019332e-03,-5.322725909117485658e-03,4.099561444253337940e-03,1.024176836013793945e+00
1.624327386807104118e-02,-7.027396827523223477e-01,6.768247084531991975e-01,6.343957897659394107e-02,1.461797116396887711e-02,-2.557377294881359349e-03,1.200410604476928711e+00
-3.201873133913595015e-02,-7.469327741327687065e-01,7.798591684921671874e-01,3.952743268299113710e-02,-6.246622001713104250e-02,-3.426455908674631845e-02,1.330633759498596191e+00
6.456414866564873407e-03,-5.566607937540973827e-01,5.821305094231800092e-01,2.716165851316866553e-02,1.296381088950313877e-02,1.960646866962328580e-02,9.882025718688964844e-01
2.726779694283107056e-02,-5.476340864558134625e-01,5.866184135649054054e-01,8.783990670620223096e-02,2.800377921773484959e-03,1.331368284951215016e-02,9.943137764930725098e-01
1.702336223611041616e-02,-6.179822565324695205e-01,6.334303827689007349e-01,2.640860417372393673e-03,-7.816871392391636086e-03,2.278094347275321386e-03,1.083896398544311523e+00
1.539849487853432453e-01,-1.087895506639884768e+00,1.883813007969735720e-01,-6.249747231402911357e-02,-1.069796717022492571e-01,1.445132240292621231e-02,1.277828097343444824e+00
-9.203238277037725790e-02,-3.289518402208108094e-01,5.616521693466683951e-01,-1.330359863378364517e-02,6.638918280968483451e-03,1.315328952599731545e-02,7.996793985366821289e-01
-6.984780361953648806e-03,-6.225362494337705055e-01,6.447337238146393368e-01,1.656112219763814300e-02,-1.186586104724545940e-02,-1.444962646476253545e-03,1.098206877708435059e+00
-2.160035201001458960e-02,-6.285989274233780844e-01,5.865530041038072850e-01,-2.990065307291120585e-03,2.736065680882563203e-03,-8.244208629150246923e-03,1.052472829818725586e+00
-6.416303735076400727e-02,-6.613671817525811347e-01,6.194972131747863431e-01,1.480727406226422724e-02,-7.562058140052772826e-02,3.480001803469587318e-02,1.119721055030822754e+00
-3.552140132736493483e-02,-6.009446763201450326e-01,5.374202726820196396e-01,-1.345404576097227432e-02,-1.497300415409213124e-02,-9.611396739975743356e-03,9.866169095039367676e-01
-4.666711380989311403e-02,-6.724263343367068435e-01,6.887941030949552568e-01,-1.269483351012891739e-02,4.107005749816147917e-03,-3.317083798209169952e-03,1.180367112159729004e+00
-2.976715619442216881e-02,-5.993975668637135934e-01,6.321197951223268552e-01,-8.822784848361592269e-02,-3.381378642874959678e-02,4.115419257793412333e-02,1.082343578338623047e+00
-5.354127805766094317e-02,-5.901016551452442638e-01,5.522052863107371756e-01,1.314064783531750536e-03,-3.000200737787379543e-03,8.311932235698404545e-03,9.899924397468566895e-01
-6.047861990060711401e-02,-4.340104787863641178e-01,5.860654108443821286e-01,-2.484484275797542788e-02,2.504802694467037419e-02,-4.004934203468898252e-02,8.986634016036987305e-01
-4.399634544023053873e-02,-6.401173963787101240e-01,6.361522997887859576e-01,-1.347506631688458884e-02,-3.134093509514314368e-02,9.751973007163057192e-03,1.107786178588867188e+00
-4.373498554976446018e-02,-4.369433426355681105e-01,7.634167078126475880e-01,-7.019353623297970579e-02,-2.737377406486775355e-02,-1.927638086015718843e-01,1.118922948837280273e+00
-8.056200876288624468e-02,-2.675247423572101324e-01,5.724770760540024428e-01,-8.014487246156434819e-02,-9.290495265275769410e-03,-1.217190818772459146e-02,7.768411040306091309e-01
-5.158262912731360200e-02,-6.006089505307381504e-01,5.695988566155647526e-01,4.498931144150865140e-03,1.888091854157651281e-02,8.791832059526506196e-04,1.014629840850830078e+00
-5.004467725369682318e-02,-3.662127610072068995e-01,5.693930495886461163e-01,-6.267320733035883218e-02,7.328993644000182835e-03,-6.324403532316389027e-03,8.316109180450439453e-01
-2.105053159122458398e-02,-6.179070903673277160e-01,5.708040726760444938e-01,-1.422473877513170601e-02,-3.542025198530718202e-03,-8.797737649868504414e-03,1.029882907867431641e+00
-1.679134776729103440e-02,-6.253303346279065478e-01,6.277588153440214480e-01,-2.855111809443094603e-03,-8.290753093673794080e-03,5.285913545029457053e-03,1.085501313209533691e+00
-4.732536331763176687e-03,-6.146025270775318239e-01,6.205363359956427294e-01,-1.297766962048128511e-02,5.948594163956249375e-03,-8.264948999639910171e-03,1.070070862770080566e+00
-2.266357647769094708e-02,-6.337891288287602620e-01,6.281228398222584719e-01,-1.280415440573099035e-02,1.433390616367869776e-02,7.657429341055870496e-03,1.093614935874938965e+00
-1.887948609400924918e-02,-6.142101942256128488e-01,5.972097494131615170e-01,9.959549620042376216e-04,-1.194014328655479320e-03,1.997472409948732215e-03,1.049180984497070312e+00
-5.145531556842274784e-02,-7.634416059374115049e-01,7.391419107090887453e-01,-3.390504517476149171e-02,5.207059084687332834e-02,-2.096131749196589872e-02,1.306814312934875488e+00
2.013407120648699755e-02,-5.734316598944685373e-01,3.544817618105408630e-01,1.035592611450702897e-03,-1.177840190952439761e-02,4.751919245025952934e-03,8.142807483673095703e-01
-5.868061258960018123e-02,-4.277812652760330514e-01,6.445277587195049618e-01,-5.975875950713905455e-02,1.864608543110817321e-02,-2.618482708501517972e-02,9.508445262908935547e-01
-3.390011123382448421e-02,-6.053868231297021563e-01,5.897308318072015387e-01,4.120018824859441632e-03,-9.304942980922062401e-03,-3.856907299665957110e-03,1.035502195358276367e+00
-3.949156850650559214e-02,-1.087571465108823743e+00,1.044464963675402647e+00,2.295681032640710384e-02,-1.273833323004483764e-01,-1.438633250241220379e-02,1.860211730003356934e+00
5.736104355902091334e-03,-1.143180410246537715e+00,9.034690986748460384e-01,-9.782742773186695745e-03,-2.251269611210915955e-01,2.076173579369295502e-02,1.819609999656677246e+00
-1.634406582074096961e-02,-7.471256707031382893e-01,7.449843146094227153e-01,9.595672408081135085e-02,-1.821249117913725513e-01,-1.024377643260991448e-02,1.340698957443237305e+00
-2.185148149924848529e-02,-5.860871510471340473e-01,4.632002127988498197e-01,-1.065079835615168578e-02,-6.077761511652668251e-03,3.556101294616798286e-03,9.098404049873352051e-01
-3.890945203601139935e-02,-6.832769261579848541e-01,6.887785785171064434e-01,2.434396147858556847e-01,-2.288519001334556324e-01,-5.542375608476781540e-03,1.322360754013061523e+00
-5.138769065759571375e-02,-5.933372973963736419e-01,5.530639775019257076e-01,-2.872335634802626429e-03,-3.668232376853666332e-03,9.067443744750704367e-04,9.933383464813232422e-01
-9.602127382217662266e-02,-4.394018327797282186e-01,8.323507244257433157e-01,-2.008737740507509917e-01,-4.156240850714229551e-02,-5.712631923862235284e-02,1.197744965553283691e+00
-2.943317429668791674e-02,-6.111972589849598014e-01,5.777407250840289610e-01,3.012616512778642543e-03,7.536286093023898160e-03,1.295068709361317212e-03,1.029827237129211426e+00
-2.888071532590196985e-02,-6.614272148605524482e-01,6.611161281903793485e-01,-3.395501845206296866e-03,-4.865365312362268072e-04,-8.450754467934177075e-03,1.145825147628784180e+00
-4.768762756922902135e-02,-7.824317485035117148e-01,1.039360576520076851e+00,3.976337661061220968e-02,1.584913426190125429e-01,-3.190915627782479891e-02,1.613499760627746582e+00
-1.176610314056374673e-01,-7.288112616382171893e-01,1.042796005385300928e+00,2.740005615887920465e-01,-1.372188634230239179e-01,-8.476205134770073424e-02,1.653072476387023926e+00
-7.740430102204134966e-02,-3.021497646035420925e-01,5.721098574358928213e-01,-5.054973378203683060e-02,1.968597337808685940e-02,7.131919527620161556e-03,7.920451760292053223e-01
-9.074296965438402585e-02,-4.316485956275212810e-01,5.929259303786704738e-01,-3.784262359177457957e-02,1.031919979520395589e-02,-5.623199968620918449e-02,9.114758372306823730e-01
2.847613540234762014e-03,-6.229487257136934186e-01,6.149528153844934231e-01,1.763661726122581208e-02,-1.273897900968119778e-02,1.752604173665222665e-03,1.072742342948913574e+00
3.881008972455861523e-04,-6.196753001779227166e-01,6.295476594599146436e-01,1.742442680351263817e-02,-1.193504801665939627e-02,-8.431574921441161927e-03,1.082585215568542480e+00
1.119331021101049178e-02,-6.180672347349969176e-01,4.604598731203417561e-01,3.011916769672420315e-03,-3.748805200070432896e-03,-1.172755479501223080e-02,9.386143684387207031e-01
1.382752334833223934e-02,-5.970667212101722354e-01,6.068013369126673551e-01,-2.933811360712734045e-02,9.586546049953433360e-03,-1.332818322723496561e-02,1.044243693351745605e+00
9.072588752196850126e-02,-5.772679225816301773e-01,2.359530980946873968e-01,3.173450491429905419e-03,-1.415939897756417556e-03,2.299499804961553998e-03,7.512453794479370117e-01
-1.132751533715984915e-01,-2.423283869014988823e-01,5.567245366846634846e-01,-3.419095971646715637e-02,5.005174139352175020e-03,-2.124781703851878756e-02,7.462952136993408203e-01
-2.114044188819486775e-02,-5.989735469830518300e-01,4.893613320269644129e-01,-1.707769523933603054e-02,-1.019231873304966536e-03,-1.191370644020747077e-02,9.438176751136779785e-01
7.631166991804466671e-02,-5.859999189042809364e-01,2.812366266258035652e-01,-4.588774973847772713e-03,-8.604509772676526697e-04,-9.236112873471216678e-03,7.853001952171325684e-01
-4.279814353979024405e-02,-6.041077425691255831e-01,5.508194132357822070e-01,6.517303883726161158e-03,-6.873706049576181094e-03,5.693547073184602667e-03,1.000509858131408691e+00
1.374472948402922778e-01,-1.068936761451903639e+00,2.175401967919066148e-01,-4.539357077393196827e-02,-4.500254189804860083e-02,7.711283496741809518e-02,1.260355830192565918e+00
6.636330879542309824e-04,-5.986889339113522501e-01,4.712971333278566100e-01,-1.457916713290929867e-02,-1.970291389986639653e-03,5.419222549598694261e-03,9.292643070220947266e-01
-3.747264603889387258e-02,-6.053294777372505431e-01,5.168910364141096059e-01,-1.045268199785898480e-02,-2.062586159204374617e-02,-1.413405655484216428e-02,9.730277657508850098e-01
-5.289067752314216553e-02,-6.052755340507419701e-01,5.458166071113712547e-01,4.774344549794104151e-03,-6.531448026883056313e-02,-1.074272384944416651e-03,1.003576636314392090e+00
-5.239985295479665517e-02,-6.121553087651144809e-01,5.743338796391286305e-01,1.227740755366107939e-03,2.217749707491758517e-03,-4.659641714939706351e-04,1.028085112571716309e+00
8.477965189390992973e-03,-6.166911431695403234e-01,4.713637967973226539e-01,-9.210077444576808200e-03,-5.455382210110737776e-03,-1.426630581619215549e-02,9.462747573852539062e-01
-6.264549135381808354e-02,-5.903635391228755358e-01,5.511703010117808832e-01,1.366253704143529724e-03,-1.337210670001644924e-02,-7.519674204199965377e-04,9.898088574409484863e-01
2.612435190720872880e-02,-1.029325253859173284e+00,7.349484094404650225e-01,8.163422368260848938e-02,-2.367928047178755047e-01,4.402225562085115146e-02,1.599547505378723145e+00
5.004717056166901878e-02,-5.827211538501089194e-01,3.150971627240763961e-01,-6.384285620527317857e-03,4.691335123941414026e-03,-5.929488473267381134e-03,7.991597056388854980e-01
-5.215929139784641205e-02,-6.158020710097047434e-01,5.865772618466622568e-01,8.201660458601121861e-03,-8.317440132345669743e-03,1.853425606289310287e-02,1.042658448219299316e+00
-3.944280253071625469e-02,-6.152683923582020764e-01,5.895004839380441064e-01,-4.749214315506865725e-04,5.244264265585744152e-04,1.011271451788918127e-02,1.043846130371093750e+00
-1.568404457912429828e-02,-6.200311532098069511e-01,5.996395435521488793e-01,4.093410675679690601e-03,3.196617183285779904e-03,9.168511251612830246e-03,1.056437730789184570e+00
-3.985479797013290193e-02,-5.852006249886031464e-01,5.208143850020293675e-01,-1.691267953836780302e-01,-7.033236826687931653e-02,1.047038246328429456e-01,1.025207638740539551e+00
-4.444526976269087132e-02,-6.230933412409873640e-01,6.272663503568683963e-01,-5.793499270070751918e-03,-1.681788299302620221e-02,8.384144468488598234e-03,1.084377646446228027e+00
1.468464498988187317e-01,-1.081121049891004660e+00,4.096247149781168106e-01,-4.754226602622738107e-02,2.373039572976601841e-01,-8.447401820525309371e-03,1.440685272216796875e+00
-2.053494883006081254e-02,-6.363055157705767018e-01,6.036822132908946648e-01,9.457018078165017189e-03,1.587520793778911254e-02,-2.745886494627465188e-03,1.074356555938720703e+00
-4.368228683392741396e-02,-5.907385398920940167e-01,5.092342691217270900e-01,7.555882483240766723e-03,-8.862102145490132268e-04,-1.256766941437211307e-02,9.529486894607543945e-01
-4.230274021257118128e-02,-6.283132141499672141e-01,6.240932157990116691e-01,-4.479748697333680793e-03,1.123414043810735258e-02,2.223979011057078924e-03,1.085569262504577637e+00
-3.891358865430077224e-02,-5.761830765751926320e-01,5.805398384651684340e-01,2.301439192474579853e-03,-8.020480684596955701e-04,-1.573562494447049501e-02,1.002973198890686035e+00
-2.877813601336283791e-02,-6.463399246414153199e-01,6.409172146509628520e-01,1.386633997127156154e-02,1.347954991017809995e-02,-1.036819419106267334e-02,1.115749597549438477e+00
-1.254390121434817984e-01,-1.879942241343015019e-01,6.672589859430557713e-01,-2.877839061405387464e-02,9.739808339689862149e-03,-4.793829720474197809e-02,8.315852880477905273e-01
-1.300219191517401097e-02,-6.151096173516612531e-01,5.423931145545153321e-01,-1.556238800185742906e-02,-3.464156159108296770e-03,-1.206813658828075238e-02,1.003296732902526855e+00
-4.410069290651689317e-02,-5.863812043542386832e-01,6.201228711316402187e-01,1.991341413336601153e-05,-7.813553951136633854e-03,5.406590543885691873e-03,1.046769976615905762e+00
1.685838430407694127e-02,-5.892687346263383308e-01,4.374325034423305891e-01,3.089087561999877968e-03,-5.132443405610626237e-03,3.033838827038983985e-02,8.955796957015991211e-01
-3.296947240095682991e-02,-5.990897195360468386e-01,6.098348610129814551e-01,-1.380154686081994141e-03,-6.367778020559932816e-04,-1.437578419148578292e-02,1.047960400581359863e+00
-8.546152966192960276e-02,-3.807453055728270974e-01,5.874471103720756426e-01,4.663244636065568688e-03,-1.345873295214115514e-02,-5.446954309072522815e-02,8.649895787239074707e-01
-2.574085714657260715e-02,-6.138159293815234063e-01,5.329209541839575737e-01,1.523179392714078817e-02,3.411961937673482943e-04,-2.841478938807535763e-03,9.935748577117919922e-01
-2.585458226028958251e-02,-6.108911326137997921e-01,5.989391052459294151e-01,-4.705415713285625127e-03,8.960317809191797531e-03,-5.954522749312026993e-04,1.048079371452331543e+00
-9.067412225687279670e-02,-3.362747464168155398e-01,5.638695909111370863e-01,-9.097517182165198784e-04,-2.289631301885603626e-03,1.526847901562458990e-02,8.063628673553466797e-01
-2.610301620526931862e-02,-6.149799568699050312e-01,6.027822303100478507e-01,-3.275980403356729478e-03,4.036393100551606203e-03,-1.475083720892919224e-03,1.054844260215759277e+00
-2.499237336011788865e-02,-6.137048314610781263e-01,5.688746395535427824e-01,-4.044652135802498383e-02,-6.050348495526421816e-02,-3.601111984316610146e-03,1.031894326210021973e+00
-9.881232398268424699e-02,-7.244939728008594759e-01,9.370124473783488783e-01,-1.995521421301236220e-01,-9.687918544143377109e-02,1.093920914257402038e-01,1.515264630317687988e+00
-2.414422972014036717e-02,-6.148333663665546123e-01,5.982782158560164820e-01,-1.495495824907487050e-03,4.212123034343018789e-03,2.049452350158248101e-03,1.050739765167236328e+00
-2.285116451636484691e-02,-6.176846311399741829e-01,5.999819238610196726e-01,-1.379419458915814205e-03,2.529104357653339137e-03,1.596493394168422555e-03,1.054638504981994629e+00
-1.760333294127705561e-02,-6.070951727507879481e-01,5.259879172045959228e-01,-1.580649799425211735e-02,2.402546755825387445e-04,-7.128269455204524693e-03,9.820065498352050781e-01
-2.723024934853284645e-02,-6.056666427882736459e-01,6.459444978984901775e-01,-8.666674944154217561e-03,1.009852331060196035e-01,-3.041776839525503137e-02,1.100334882736206055e+00
-2.381210920258058916e-02,-6.132679351821050950e-01,6.008931446226523088e-01,-2.871863272424429910e-03,4.563470302478159733e-03,-1.700433063641890044e-03,1.051687598228454590e+00
-6.111308304885909592e-02,-5.905961857690348316e-01,5.529610591703826294e-01,-1.487856920491904128e-03,-9.422792104567230889e-03,4.304823282679338427e-03,9.914181232452392578e-01
-2.848822263612552780e-03,-5.820779760045191598e-01,6.266013763629908473e-01,2.432162330852618085e-02,-1.092827550677638766e-02,-1.858768535527981561e-02,1.048560619354248047e+00
-1.299992267489284703e-02,-6.063742836333764208e-01,5.248265355627805828e-01,-1.311317289267570872e-02,-1.240128741115675403e-03,-7.291510942320708621e-03,9.803891181945800781e-01
-8.137252595138275146e-02,-3.035163896001403794e-01,5.703198132389593056e-01,-3.633508191970987421e-03,1.583375300909957428e-02,-6.750224219894790378e-02,7.957899570465087891e-01
-2.954244387587437459e-02,-6.825077480582033562e-01,8.420857015366115528e-01,-2.790169692971534304e-02,2.303791757120301487e-01,-9.301390890482197360e-02,1.393827915191650391e+00
-3.909823689074726216e-02,-5.893576601530533532e-01,6.067504715233545953e-01,4.780126875277415643e-03,2.944230357339740201e-03,-5.495215442498799230e-03,1.037051320075988770e+00
-4.695929041382585628e-02,-5.822869490327114983e-01,5.687557007558180500e-01,2.898527262297805746e-02,-1.036573993729520207e-02,2.902926789775344199e-02,1.000330328941345215e+00
-2.458538063497296700e-02,-6.129450824316861057e-01,5.896747490188717356e-01,-8.729050997030416911e-03,6.392419048191337085e-03,1.096354377083681161e-04,1.041748404502868652e+00
1.807616057742553184e-02,-5.989405109640636438e-01,4.341498612087407727e-01,-1.737412605777266875e-02,4.263139591357190312e-04,2.015256550831007534e-02,9.014853239059448242e-01
3.569283865629033214e-03,-5.933776670652993745e-01,5.927394878423655200e-01,2.437415550081496914e-03,-4.537418715496666782e-03,1.727908393144986622e-03,1.027258038520812988e+00
-7.046675449153953774e-02,-4.008897853396917732e-01,5.762418179961138476e-01,-1.338655613360921958e-03,-1.068140621958727984e-02,-9.768896607427987253e-03,8.612390756607055664e-01
9.415778138654357088e-02,-5.921352634556873440e-01,1.902520000667102806e-01,-9.197984787018788008e-03,4.232394672572588334e-02,6.706242776151215626e-03,7.429291605949401855e-01
-4.914370156540380508e-02,-7.414268039215734518e-01,7.354766978449834847e-01,3.652183708869161972e-03,7.102927738155516424e-02,-1.832814097311308982e-02,1.286175608634948730e+00
7.250250502110738154e-03,-6.203536875327844147e-01,6.217066383341679492e-01,-2.277283408638431511e-02,1.099571386198313705e-03,1.646598930112896930e-02,1.076778292655944824e+00
-2.852417768979194357e-02,-5.995010944310156242e-01,6.050510074772447178e-01,1.703198584533453059e-03,-7.784395192937818009e-03,-3.171695372805252364e-03,1.043747901916503906e+00
-9.910024239307915414e-03,-5.518827535559095443e-01,4.859315864624179637e-01,3.189063409286838069e-02,-4.918958168409755943e-02,-5.011229095772906606e-04,9.047853946685791016e-01
-3.657011785450080266e-02,-3.840812555551263441e-01,5.610719941102755293e-01,-6.246875434620527412e-02,-1.269331587396045104e-02,-1.003979699650331750e-02,8.355358839035034180e-01
-1.289992357043902999e-02,-3.975743238598652418e-01,3.751158151885137237e-01,2.572883924501854352e-02,-2.378943986367816968e-02,5.719166106904510771e-02,6.791809201240539551e-01
-3.940218813179019453e-02,-5.149125289681626416e-01,5.862239600351947244e-01,6.304854846424156820e-04,1.800822896784624177e-02,-6.615066384737128616e-03,9.571390748023986816e-01
4.087477798318012168e-02,-5.265647625183620395e-01,2.207905180363913811e-01,5.931656244843147921e-03,-7.232158941607411129e-02,-7.628578849638720238e-02,6.997885107994079590e-01
-4.377307721016104880e-02,-6.013676283481428353e-01,5.340461359623297488e-01,-5.105529863229493672e-04,3.995191361953295828e-02,-1.146600121452880962e-03,9.857833385467529297e-01
-1.666895219968491521e-02,-6.113254841980571008e-01,6.025767324761042154e-01,-5.508796609408997923e-03,4.139355279844722860e-03,-4.338851796482137528e-03,1.051436662673950195e+00
-1.174486917126642826e-01,-2.039801921649955774e-01,5.371589608716804687e-01,3.772771402206208727e-03,2.958847120738973253e-05,-8.247079431593402768e-04,7.019172310829162598e-01
-9.223625747857572277e-02,-1.981039118380081288e-01,6.709692972135518074e-01,1.170196211058919245e-01,-1.073980558112981815e-03,2.818382272488232851e-02,8.473232388496398926e-01
8.401991608244058218e-02,-7.031830491456858567e-01,1.194479570994840811e-01,4.273659222628874155e-02,-5.671183056843984160e-02,2.517509187828746442e-01,9.241732954978942871e-01
-4.649116259064015044e-02,-5.379243353957132712e-01,5.909032768604381980e-01,-7.222109019355601317e-04,-1.050312165984827219e-02,1.450658460422234869e-02,9.808052182197570801e-01
-4.115472058810076827e-03,-5.714943656653364012e-01,4.018086580244257244e-01,-2.059524319881204935e-01,1.908519146474858819e-01,6.648428227680296121e-02,9.832543134689331055e-01
-5.406092136804029058e-02,-3.415877223837126553e-01,4.870413650246147585e-01,-1.534859853478174885e-01,1.176713396912905246e-01,-4.883188294746199781e-02,8.064811825752258301e-01
-2.312038220920070719e-02,-5.946403827138005971e-01,5.870086102238606385e-01,-1.034440467008236738e-03,-4.363107477938706373e-04,-2.660436829366290019e-03,1.023532390594482422e+00
-4.010845274980155695e-02,-5.963927301663647373e-01,5.317652638849162949e-01,-4.477844489174360662e-03,-2.597975401720738252e-04,2.726289256931121140e-03,9.770869016647338867e-01
-3.655963826319606758e-02,-5.871648291508835271e-01,4.930264907197960955e-01,-6.600678481018269067e-03,-1.821519675724077997e-02,2.732664048673066979e-03,9.361457824707031250e-01
-2.364103284941501681e-02,-6.115397306838520342e-01,5.898233940969385136e-01,1.168581191496969240e-03,-2.167521966520940049e-03,-3.081339564006337940e-03,1.040511965751647949e+00
6.888576600392435842e-03,-5.777029579229417955e-01,5.898762162203391446e-01,-1.615087681640752296e-02,-6.354201494636912452e-03,4.364384183221088273e-03,1.011628508567810059e+00
-1.262636383145072094e-01,-3.854208006118067242e-01,7.795763474166151896e-01,-2.312478914807439556e-01,1.800861886087276875e-01,-4.137619831257277614e-02,1.176995873451232910e+00
-5.799606605105891294e-02,-6.030023041182899224e-01,5.923358485472981494e-01,-1.727039206833341344e-03,1.131427394294888013e-02,-5.111816721841157089e-03,1.036759257316589355e+00
-2.862100206306427558e-02,-6.082068734093363238e-01,5.860290431424306501e-01,-1.761265619848171899e-04,-4.606444979341759095e-05,-4.912090173081737343e-03,1.034422278404235840e+00
-4.347832656516348315e-02,-6.142239595822863718e-01,6.156071603512472956e-01,6.344133292960582073e-03,-1.767859321136257614e-02,4.523439168171648241e-03,1.066505551338195801e+00
-2.187673720803177957e-02,-4.763436100665308093e-01,6.059643720294627389e-01,-6.697229393935205666e-02,-2.016025859477271320e-03,2.944073401530662368e-02,9.498031139373779297e-01
6.960787113971233023e-03,-6.081555241975264980e-01,5.983612500892738773e-01,-9.690733995536425852e-03,2.084269530301940520e-03,-1.628656194797520752e-04,1.045082569122314453e+00
-6.500613374015187795e-02,-2.093039490531853897e-01,5.805793849388696248e-01,-2.323486674516476308e-02,5.405384749268219574e-02,-1.407055742977951669e-02,7.360286116600036621e-01
-1.859600672983555136e-02,-4.384396084076613298e-01,5.609097801804012740e-01,1.114170322904481196e-02,-1.600470436416494280e-02,2.483896452994876830e-04,8.697921633720397949e-01
8.725706334698235880e-03,-6.050789833233152226e-01,5.982254160196992521e-01,-5.731235260136934018e-03,6.417617121186748597e-03,-2.331252227086113606e-03,1.042277455329895020e+00
-1.018529528137107620e-01,-2.934391488219347810e-01,5.424403997837855540e-01,2.108072379470969735e-03,-7.327184607809230504e-03,4.282651239747385652e-02,7.621900439262390137e-01
-2.487973250154041846e-02,-6.055885963985865317e-01,5.803712059448766780e-01,-5.550357642524716929e-04,-9.736625978725997653e-04,-8.083389577983561905e-03,1.027241826057434082e+00
-6.316986401444479871e-02,-1.951592250184913113e-01,5.958796881276328117e-01,4.944708514053793589e-04,4.519249603923317093e-02,-7.266859538057800216e-02,7.488157749176025391e-01
-5.255529422482520252e-02,-5.950497288438895138e-01,5.607253641584282189e-01,-4.026444458245568778e-03,-1.540003978448499164e-03,-2.055224623083200079e-03,1.001590251922607422e+00
-6.808490993980211015e-03,-4.294139985644420676e-01,5.999567983910677471e-01,9.546702336007430179e-02,4.979494694330689405e-03,-1.061248667916343986e-02,9.115568995475769043e-01
-9.708764510859901886e-02,-2.777864786486667903e-01,5.732810015879453713e-01,1.134821568449323054e-01,-4.029420190905998178e-03,-1.341654310245552623e-02,8.015013337135314941e-01
-9.166126376656952290e-02,-1.219399409350072072e-01,8.830575050791623637e-01,-4.354986949168189458e-02,6.026524452890747591e-02,-5.526625137371612984e-02,1.003122687339782715e+00
-2.280918337019161371e-02,-6.449995331551180433e-01,6.328988895314826557e-01,5.870345440037327833e-02,4.843381428110157816e-02,-6.904131161721736680e-03,1.114705324172973633e+00
7.503164529067199440e-04,-6.000915780410506217e-01,4.466477549140699388e-01,-9.788639621541918648e-03,4.065329815925288609e-02,-1.175617243355282261e-02,9.129126667976379395e-01
-5.304232391305379463e-02,-6.006841979212744764e-01,5.681987550921411279e-01,-1.162779090403975825e-03,1.000065684116309764e-02,3.185493851848158597e-03,1.013116121292114258e+00
-2.326074399016367714e-02,-6.036319994333764205e-01,5.063808511873127971e-01,-9.224488901658035866e-03,2.692853827013209217e-02,1.898259916405968875e-02,9.634581208229064941e-01
3.492914058986616027e-02,-5.709469358501659819e-01,5.788499722490387800e-01,8.890598524217929038e-03,-5.613546061958524756e-03,-1.114584886383367460e-02,9.965885281562805176e-01
-1.223335746274116231e-01,-2.381128469334043429e-01,5.708225867091657468e-01,1.909828701641142976e-02,7.524197601972785684e-03,-3.727566916327355873e-03,7.585704922676086426e-01
-1.077302019075081496e-01,-1.747546916269345219e-01,8.376996069510272980e-01,1.274127372859517326e-01,-4.063326853969618027e-03,-5.067334707816246314e-02,1.009034991264343262e+00
-7.990430333011749875e-03,-1.028935180358851564e+00,9.068222238160775772e-01,2.009262208673893713e-01,2.115909662821679749e-01,-7.319018085230992454e-02,1.756325721740722656e+00
-1.217898144966229057e-01,-1.429643819149840622e-01,8.701294944594718528e-01,9.596962397415606527e-02,-3.433065365499521349e-02,-2.673824831412517991e-02,1.019150018692016602e+00
-3.540659887172115106e-03,-6.018614612728028224e-01,4.852403204439568185e-01,-1.742912345156485965e-02,1.919727125362812232e-04,1.077693487851491029e-02,9.437173008918762207e-01
2.848439132084912631e-02,-5.652226323700724198e-01,5.714775126269996397e-01,1.863540089585995554e-02,1.175188975509358809e-02,1.036289438471603430e-02,9.856402277946472168e-01
-1.391774585846360622e-02,-6.236259141343430956e-01,5.784353811304564497e-01,-7.370182169742856351e-03,3.170313910473224607e-04,-1.680910973702344144e-02,1.041537165641784668e+00
-1.139911237768716223e-01,-2.452707735330700856e-01,5.649922879929814012e-01,1.643528681782336536e-03,-4.174873854206590342e-05,-9.998605337166822926e-03,7.534570693969726562e-01
-2.753636257410638916e-02,-5.946582781295062237e-01,4.766143163937983651e-01,-3.900327489316502555e-03,3.508449756222173366e-02,7.122666572976438584e-03,9.303766489028930664e-01
-9.884958262003445961e-02,-2.036925842567018918e-01,8.570761257775850739e-01,1.174156772174314300e-01,-3.364436437757586940e-02,-8.360053395459360326e-02,1.044380426406860352e+00
-1.372441814785981262e-01,2.482889231881307834e-02,6.306826222990409292e-01,1.878724224176922877e-02,5.996783132258293181e-03,2.567880258594260404e-02,7.033235430717468262e-01
-1.280768630912457705e-02,-6.366742532926752407e-01,6.353692605235556901e-01,2.005303783915214806e-03,1.095690055874884959e-02,-3.937513354698242256e-03,1.101879119873046875e+00
-6.392141117436758724e-02,-5.841897520335959104e-01,8.760994029598097033e-01,2.014255863021729154e-01,1.634568169181352115e-01,-5.490199712148627342e-02,1.361725091934204102e+00
-2.071660480525160455e-02,-6.334618141912654599e-01,5.878674610822124391e-01,7.405630053351658880e-03,3.744569190368412549e-03,8.648491331938304438e-03,1.057907938957214355e+00
3.884896550168031454e-02,-5.611490710837516716e-01,5.654500822063870391e-01,6.214579041021792323e-03,-7.447742050372264770e-04,7.534052634529370520e-04,9.764145016670227051e-01
-9.950567580912254503e-03,-6.158674602282184773e-01,6.035482566036745045e-01,2.585150957581779530e-03,4.109477491193336274e-03,-2.104307246420070252e-03,1.056091547012329102e+00
7.840890648590542744e-02,-5.985856676587093528e-01,2.814793060094610277e-01,-7.072290257079418691e-03,3.245091714154178103e-02,1.047643992316999763e-02,8.004219532012939453e-01
6.900169259998181238e-03,-6.037443800151519602e-01,5.998554535766977835e-01,3.163570965528148416e-03,-1.384748637749214214e-03,-1.554254833216236163e-03,1.042406201362609863e+00
-4.910024531061134984e-02,-6.309737039110011603e-01,6.558576808480668374e-01,8.060862188812818047e-03,-1.985158303746526257e-02,-4.112469377156867043e-03,1.116766095161437988e+00
-2.779155767936503790e-02,-6.245578924155913425e-01,6.019294828533691133e-01,1.156979181751788353e-03,7.193613856638207162e-03,-1.864074740054022256e-03,1.062376856803894043e+00
-7.540543150240797479e-03,-5.968224752363362473e-01,5.983003774035456912e-01,-2.467048835075503436e-03,-8.420918798346832546e-03,-3.621001827284366439e-03,1.035170435905456543e+00
-2.111836989100726591e-02,-6.162318581316931221e-01,6.223859735759686984e-01,-9.316990693475563686e-04,-2.920037024969161180e-03,9.273539524595556796e-04,1.072961688041687012e+00
-2.345215948501062214e-02,-6.310773311589708001e-01,5.865799145144310334e-01,9.042915673078539412e-03,1.241807559466124190e-03,1.000668079276557584e-02,1.054783701896667480e+00
7.350210854623806522e-02,-5.848493784433644871e-01,2.691500541816980729e-01,-8.903345541804325372e-03,-5.553491694528646209e-03,-2.307218431240001116e-02,7.761682868003845215e-01
-5.057433563541770261e-02,-5.878796869962655824e-01,5.252336131042624201e-01,-3.621301370191664162e-03,-1.680455984305037742e-05,-1.558429464592218060e-03,9.642007946968078613e-01
6.329305598703011126e-02,-5.831797061330602494e-01,3.231420466472904041e-01,-4.538011338615298776e-03,-1.260164348430146530e-03,1.185690322053474001e-02,8.086545467376708984e-01
-1.384444574238475820e-02,-6.218895309350447320e-01,6.012618337382893419e-01,-3.250763055057202550e-03,9.845614760366383500e-03,9.935025463364782414e-03,1.059577941894531250e+00
7.316512622908605268e-02,-8.959904749374328903e-01,3.495364611538031019e-01,1.863008137460397118e-01,-2.042005702253089638e-01,1.611471534916969484e-01,1.261195182800292969e+00
-2.355501202147002038e-02,-6.154467846102809059e-01,5.937047613906891730e-01,-3.841300021449708078e-03,1.585803007541396539e-03,1.425699275409022084e-03,1.047260403633117676e+00
-3.975456850543815368e-02,-7.597933504896373647e-01,7.686295219127783351e-01,4.148576937819124094e-02,-2.756617842623539354e-03,8.537353371080393105e-03,1.326428771018981934e+00
4.498529929712967446e-03,-7.080336816011462142e-01,5.338461608920770374e-01,-6.262351698230768371e-02,1.274757839639459045e-01,4.621399878878932471e-02,1.109959840774536133e+00
-2.434749701510213749e-02,-6.142300966264170325e-01,5.740966959493049027e-01,4.681844660664589985e-03,2.277146072431087027e-03,7.933520814316266656e-03,1.029261350631713867e+00
2.803451587331477757e-02,-6.019134650350570492e-01,3.818330505542598119e-01,-5.022843003116394221e-03,5.687732651133996925e-02,5.467447026964658216e-03,8.687652349472045898e-01
-8.437664261531555021e-02,-4.381301684312300937e-01,7.299411710584073898e-01,-1.875319784758545938e-01,-5.733917451971654033e-02,-4.693059632990485147e-02,1.094668149948120117e+00
-6.607582365627238941e-02,-8.305528816150014038e-01,9.042736990400299657e-01,-1.697459953773673980e-01,-7.388480851584752762e-02,1.481242982539986456e-03,1.539687633514404297e+00
-2.643435630650015078e-02,-6.321352799511975595e-01,5.938227965500387784e-01,7.649140638127036908e-03,-3.100756926660572146e-03,8.515756511081301605e-03,1.061934471130371094e+00
6.239510880474133901e-03,-5.840887863049526452e-01,5.935691160825108392e-01,-1.265352908726958062e-02,-4.551460828137905701e-03,4.439656142392708026e-03,1.020177721977233887e+00
5.924556612810175094e-02,-6.749693248966484038e-01,3.126920741105789769e-01,7.847934978526714678e-02,-1.960952406147329352e-01,7.898351682918695882e-02,9.705375432968139648e-01
-4.503326670520896302e-02,-6.296634543437235054e-01,6.290895943838137327e-01,-4.881749080157303869e-03,-1.654088788661800882e-02,1.225961388202469367e-02,1.091645479202270508e+00
-3.480226856460670593e-02,-7.250803542047059569e-01,6.684999146838033202e-01,-2.774764117756675294e-02,-5.350615303073735785e-02,8.365654097852533513e-03,1.211486816406250000e+00
2.384844700973262621e-04,-5.959503983063201282e-01,4.609096076587366753e-01,-7.528412489336338762e-03,-9.491300472340103919e-03,-2.327305913267836701e-02,9.188967347145080566e-01
2.838364950888087879e-02,-1.106211944045738083e+00,7.987112256739574701e-01,-8.075038433095416135e-02,-2.776478900038518716e-01,5.362323461686297615e-02,1.736137986183166504e+00
-6.355656976653629997e-02,-5.967130388151252740e-01,5.700629218338508775e-01,2.597544253933005507e-03,-1.097138963296610814e-02,6.338086501156859655e-03,1.011953353881835938e+00
-1.262127069987025452e-01,-3.918836208323260295e-01,8.405120866069619723e-01,-2.586118138526338206e-01,1.764286515808037026e-01,-8.274795348074501233e-02,1.255600094795227051e+00
-6.238254490751422854e-02,-5.891301704001510320e-01,6.741102670614530501e-01,-2.730245943829355260e-01,2.574447609321131036e-01,7.224033740652545735e-03,1.276889920234680176e+00
-2.037311298628635692e-02,-6.024669857555040586e-01,5.755712698499308999e-01,1.231887177380931427e-03,9.267308032427378633e-03,2.019417663617472519e-02,1.020962357521057129e+00
-6.608275673260638472e-04,-6.020145124356267585e-01,4.555941066585117438e-01,-1.904769213205144418e-02,-3.776464483030009256e-02,-2.411210735757238210e-02,9.226464629173278809e-01
-3.729005735260233767e-02,-5.794977365073249453e-01,6.049383554360842075e-01,-2.026239792466346442e-03,-1.208764501496611575e-03,-7.765185899561644761e-03,1.027066349983215332e+00
4.535684678748187759e-03,-6.039731901259330904e-01,4.722589854771724882e-01,-1.020578117472074366e-02,-2.327710034413439308e-02,-2.923628393086672925e-02,9.371041059494018555e-01
-6.574897956200528859e-02,-9.218770373125092510e-01,1.003681046127655740e+00,-1.860805353002295270e-01,-6.211554277376457600e-02,6.244915907389806536e-02,1.708612680435180664e+00
-2.242871063933800369e-02,-5.277525019030575582e-01,5.903566797466699434e-01,-9.074854582200666403e-03,-1.374418715119373781e-02,1.925225795919649832e-02,9.707928895950317383e-01
-1.663517614811666628e-02,-6.218169151982175791e-01,6.022062057775863231e-01,2.449007375289016450e-03,4.468427969060688107e-03,7.848236161451223672e-03,1.060181021690368652e+00
-8.673196213525016796e-02,-3.018496039019060717e-01,6.217450106524432529e-01,-5.921068768611028460e-02,8.696507394423335160e-03,1.927190777352974504e-02,8.440852761268615723e-01
-3.219713929450045142e-02,-5.946236709644225904e-01,6.626872442764519811e-01,-6.968880968184655578e-02,-2.663391671608081844e-03,-4.317880000867960720e-03,1.097568273544311523e+00
-1.227783879886777396e-01,-2.690400415568849901e-02,5.969540272381370638e-01,-5.430089165646683619e-02,5.603064657994664445e-03,-2.060646636399353099e-03,6.834877133369445801e-01
-3.143709368772131668e-02,-6.202707332778109039e-01,5.542366629876147588e-01,1.232571283584482820e-02,-1.663443320223824060e-02,1.008494934022257337e-02,1.017936229705810547e+00
-2.500194758987987070e-02,-6.693283237404440422e-01,5.811324991811230856e-01,-3.237859000361387879e-02,-6.643676204396284368e-02,-2.231576934695531620e-04,1.090637683868408203e+00
4.546814277103565505e-02,-5.891220715770145722e-01,3.444013870871970862e-01,3.928266366250131487e-03,-2.935389971894903152e-03,-9.738186658458401757e-03,8.259071111679077148e-01
-1.186835304196110288e-02,-6.086072836352059978e-01,5.440845094613679933e-01,-1.541309035081497641e-03,1.226341431482668928e-02,-5.208527340131234064e-03,9.987388849258422852e-01
-1.839136108430476646e-02,-6.291396661724206751e-01,5.705740108633967633e-01,1.699131835542923904e-03,-5.606725332948466660e-04,-8.623608544206047902e-03,1.039151549339294434e+00
-2.812730200090783617e-02,-5.803908063953137075e-01,5.732536915776481612e-01,-1.043893431838116862e-03,-2.669918863270353930e-03,3.895946929608062360e-03,9.994223713874816895e-01
-5.861712268903061795e-02,-5.469190833778653227e-01,6.176912158476205450e-01,5.675358332719330524e-03,1.368495111401646543e-02,2.315079290810870272e-02,1.014071345329284668e+00
-2.499036282654105295e-02,-6.558839509616611885e-01,5.077000251110483919e-01,-1.161205070364550174e-01,-9.533085096011617229e-03,5.344727207379659784e-02,1.033030033111572266e+00
-2.589249815568275478e-02,-5.950349127626685108e-01,5.995954985822599115e-01,-2.827942142979086859e-03,1.467305997149082400e-02,-1.422416568033746474e-03,1.035290360450744629e+00
-4.551983583412576306e-02,-6.352139543665644705e-01,5.945965165953737142e-01,3.989564133336821750e-02,-1.316134013244515955e-01,-2.546054149760837437e-02,1.092541456222534180e+00
-9.019787027994038975e-03,-6.400651031806854352e-01,5.104652100517110824e-01,5.409453340718527875e-03,-2.484455852443656285e-02,-4.013291522912109874e-03,9.989441037178039551e-01
-8.442852672883552345e-02,-3.331147364691678936e-01,5.559738321380900405e-01,3.293248732886163137e-03,-1.175987911503379238e-02,7.656232315305502856e-03,7.948852181434631348e-01
-2.458551365434281238e-02,-4.748496679427171019e-01,5.116756282413892354e-01,6.693390634039735054e-02,-1.216344973527434294e-02,1.091122823826089563e-02,8.637212514877319336e-01
-3.700821261088946268e-02,-6.217726768589181274e-01,6.124828348295764391e-01,1.546590972919680614e-03,1.971875258027763755e-02,7.565110066136605631e-03,1.070015311241149902e+00
-4.781437982628313280e-03,-7.039626771991401855e-01,6.940485366117165045e-01,1.645072515150838022e-01,2.440128631191453290e-01,-6.963421873724306987e-02,1.319161891937255859e+00
-4.627603378006846929e-02,-5.536273842521378663e-01,6.090158464740221822e-01,2.917448681593871502e-05,1.833238276611594275e-02,1.056400379370253835e-02,1.010256886482238770e+00
-1.967263784187961440e-02,-6.090362306902863399e-01,5.592281086586449179e-01,-9.831709102151276261e-03,-2.182388851362826541e-03,-8.755649482522092492e-03,1.012024164199829102e+00
-3.170098947716053217e-02,-6.221778850480715883e-01,5.481166725921352567e-01,4.404220576079466605e-03,5.734222967860453518e-02,-2.058436170850156798e-03,1.018408417701721191e+00
5.569321578844232956e-02,-8.551106313790096669e-01,3.336002978532156549e-01,-7.837381038111528031e-02,-1.401655673302391013e-02,1.347252311097455260e-02,1.086036920547485352e+00
-2.066718509210079338e-02,-5.629177056174988758e-01,5.352283170909848398e-01,8.226683389537838009e-03,-1.314693267544712017e-02,-2.536311133934350884e-02,9.524397253990173340e-01
1.339593446126310233e-02,-5.967005764252957256e-01,4.446557611238415864e-01,2.112723127813569569e-03,3.079425561691703431e-05,1.389281237075293794e-02,9.065899252891540527e-01
-1.034683000586777979e-02,-4.704117608557522034e-01,5.567715789961763528e-01,5.757630184508023136e-03,1.395820745590677960e-02,-3.985068884301307124e-03,8.915861845016479492e-01
6.104695282855529537e-02,-5.977894305188068413e-01,3.421760096639480109e-01,-1.335806046285295675e-04,-1.272735512784368798e-02,-2.148330516473321433e-02,8.367721438407897949e-01
-1.693669035118258032e-02,-6.138091753533746475e-01,5.980873477040348218e-01,-1.365867510937712542e-04,5.098736733889244060e-03,6.826312753448762977e-04,1.049610257148742676e+00
-2.340110787383905405e-02,-6.074234309816399779e-01,5.985874402718692755e-01,-1.634371152370543560e-05,6.935536463641787247e-03,1.935392149414044694e-03,1.044682979583740234e+00
-1.709452971424222506e-02,-6.416281402636914155e-01,4.829845005089281607e-01,-9.114064645817496549e-03,8.310113290581501444e-02,3.188558718509722917e-02,9.881569147109985352e-01
1.783787667687164458e-02,-6.095176576545690006e-01,4.240034329791101397e-01,-1.479094649931163817e-02,6.320732381036618663e-02,1.143370949594701459e-02,9.090597629547119141e-01
-8.660564478579282910e-04,-5.416774146862706196e-01,4.016826198385432534e-01,3.297198654792828781e-04,-1.598742006418114869e-02,-3.082815871777193004e-02,8.220970034599304199e-01
5.438427911408275084e-02,-6.084433720811422974e-01,3.372740655208429361e-01,-1.626157135836700214e-03,4.217426380764410787e-02,-3.498965370406730002e-02,8.461034893989562988e-01
-2.531224819175510732e-02,-6.035338124296752982e-01,5.949405737595954147e-01,1.610889600525278707e-03,5.319174925829852317e-03,4.995604074817752531e-03,1.038202643394470215e+00
-3.903712077249812951e-02,-5.962557592617242497e-01,6.077275804193001951e-01,2.315444533188743548e-01,8.285516747939929150e-02,-1.372084177846941977e-01,1.151997566223144531e+00
1.272874254210729084e-01,-5.791381470041558899e-01,6.370492977449734862e-02,-2.652794077411608012e-02,2.059206800080949987e-02,2.506328279668723971e-02,6.807578802108764648e-01
1.018792909933667890e-01,-1.020792007476717167e+00,4.245217951258082323e-01,-3.582465766183790673e-02,1.250308373929949202e-01,5.821889438755785406e-02,1.337021708488464355e+00
-5.510621267698034148e-02,-5.886919368551044585e-01,6.222147547429992542e-01,3.293747469269145411e-02,-8.409025777778402974e-03,-5.908030184876169807e-03,1.052833199501037598e+00
-5.996588889354812629e-02,-7.740610026607810390e-01,7.277017144080035749e-01,-2.160700182485696674e-01,2.000378407516555934e-01,5.115584996590124417e-02,1.400277376174926758e+00
-5.076396074350568444e-02,-6.000334671781359930e-01,5.701711435663343597e-01,4.968388008847980306e-03,2.008429494134722493e-02,-5.595867492780918530e-03,1.014739513397216797e+00
-2.283780122652324940e-03,-5.866460271403349802e-01,4.405532956440211811e-01,-6.654529520118971503e-03,5.029661265919967844e-03,-5.176499841515984704e-03,8.925526738166809082e-01
-4.856314178845462515e-02,-6.323981191223506659e-01,6.338145267769944580e-01,-9.133199753032382809e-03,1.278460941562480774e-02,5.752067899572381460e-03,1.098061203956604004e+00
1.873713602095349040e-02,-5.854148193572503711e-01,5.891874187386979544e-01,-1.373666510191730479e-02,1.068750669018297787e-02,-4.382770293512157529e-03,1.017849802970886230e+00
-4.822368039348359781e-02,-7.160205868708977572e-01,7.917142027626250522e-01,-4.248096183565772815e-02,-6.764175159301460960e-02,-1.084374254918320235e-02,1.315997362136840820e+00
-6.533254026687140836e-03,-8.945927959442212529e-01,7.253785128714042019e-01,-1.756942385494635328e-01,2.570223277643954307e-01,1.363529814752059352e-02,1.505214452743530273e+00
-2.607293706406695749e-02,-6.126390477952362579e-01,5.974500500249875223e-01,-4.861592501210009777e-03,3.892149586803128787e-03,-7.793316212916937338e-04,1.048187136650085449e+00
-3.061537866109240516e-02,-6.541540985135193553e-01,6.430115615842695309e-01,-1.733106646872817694e-02,4.896425424404958482e-02,4.360259493174724376e-04,1.127253532409667969e+00
2.401639807872534005e-02,-5.797056026409820317e-01,4.393600265403612148e-01,-1.159491505957853386e-01,1.739581713741792379e-01,-1.392801657811167104e-01,9.884616732597351074e-01
-2.462293689950048950e-02,-5.932998386125940549e-01,4.759202213385506086e-01,-9.345844446868899810e-04,3.381342928295693467e-02,5.525061938393818761e-03,9.284979701042175293e-01
4.457527338028063890e-02,-9.942245456683799221e-01,6.631975178705429297e-01,-7.733575749524317089e-02,2.280732977224727287e-01,-1.995510246472852883e-02,1.509838581085205078e+00
-2.873319309152240139e-02,-5.982151554794010728e-01,5.945491920824486076e-01,-4.857765685949430937e-04,6.284322323315728528e-03,5.205031880558948394e-03,1.033411383628845215e+00
-1.727809267154907513e-02,-5.595245376214382782e-01,5.964587567389281197e-01,-1.050149794819640013e-02,1.891896654505352895e-02,-1.739171401701155445e-02,1.002902150154113770e+00
-1.819132742292070212e-02,-5.957449425423543277e-01,4.831126479016821795e-01,1.606627419162997769e-02,-4.736190924323051624e-03,-1.623993350028922521e-03,9.355497360229492188e-01
-4.791945344498573477e-03,-6.241311058009797463e-01,6.011643984115201400e-01,-3.709643694049683492e-03,1.123841385126886968e-03,5.281622782532890623e-03,1.061218857765197754e+00
-1.517209925637469370e-01,-2.831239943131982351e-01,9.083093536188473482e-01,-1.690380221760569013e-01,3.618021258051214097e-04,-2.289943952349099074e-02,1.169409036636352539e+00
-1.042115794025636200e-01,-3.182255333149319743e-01,6.686766243821045119e-01,-2.063330861200209920e-01,1.829004883738482301e-01,-2.853226856968946179e-02,1.019356250762939453e+00
-1.500831278093052445e-02,-5.731673934381903424e-01,5.209545419122505461e-01,-1.766724038005674513e-01,-1.389672073863747748e-01,3.950813413160014949e-03,1.024486303329467773e+00
-6.361069954947207172e-02,-6.302649291256452457e-01,6.301539375126345988e-01,8.399707586781006777e-03,-2.427229679630497558e-02,1.857400196371039244e-02,1.094780802726745605e+00
-5.087001213414095446e-02,-3.248183340829035592e-01,4.541587911398842214e-01,-1.081835842506971984e-01,6.787089834558659995e-02,-3.796538317075932173e-02,7.222936749458312988e-01
7.730936210793722639e-04,-5.710389480287444419e-01,5.842397318508041337e-01,1.904002446049882918e-03,1.361683092241741493e-02,5.385293836793222585e-03,1.000844478607177734e+00
6.987427027383302271e-04,-5.991582605807052042e-01,5.966868287413018557e-01,6.837581331166401287e-03,-1.872000618175893036e-03,2.585339451205477795e-03,1.035716533660888672e+00
-2.386109763342741247e-02,-5.488348450956196389e-01,5.956965919689769517e-01,5.896488545801826771e-04,2.388649377606403071e-02,-1.592445533826302231e-02,9.935663938522338867e-01
3.893883725678067009e-02,-5.952440658052661204e-01,3.197298569793192713e-01,4.467117574919306916e-02,-2.079615293731875980e-01,8.642972570216149453e-02,9.040161967277526855e-01
1.257350399937248731e-02,-5.999855920817208643e-01,3.565319004271828573e-01,-2.788655668801645702e-03,-1.081971585338516867e-01,-1.353636558506646215e-02,8.601882457733154297e-01
1.664658459793658118e-02,-7.311117457870658365e-01,4.791866367654383785e-01,-1.963175004190894843e-02,-1.762588952418837618e-01,-2.358531450510246985e-02,1.102261543273925781e+00
-5.186215563427971909e-03,-6.120257016311266840e-01,5.985217851398068056e-01,-1.903563381344793894e-03,1.222560000265574378e-03,-7.732802423730931627e-04,1.048374176025390625e+00
-2.420816572856590229e-02,-6.281524751360584302e-01,6.015062608034206226e-01,2.753603797501214673e-03,-1.023874280454518688e-03,3.498717259118077835e-03,1.065000772476196289e+00
6.005805408986991667e-02,-7.474938819199975493e-01,3.118470672902637353e-01,9.203873757629104854e-03,-1.465547222269652505e-01,1.220713768545672040e-01,1.014033436775207520e+00
-7.520757863635635365e-02,-1.117401122630569121e-01,8.646173156558251138e-01,2.785130134162185772e-02,6.984771221959565346e-02,4.961487069195171656e-02,9.712300300598144531e-01
-1.139180681988357646e-01,-1.543436670519434117e-01,8.943854469827470233e-01,-1.013288112382935563e-01,1.641466656918488462e-02,-6.484084096832561095e-02,1.050378680229187012e+00
1.037077825699786182e-01,-6.884568862199237360e-01,1.468986253066548731e-01,8.352743342485494105e-03,-1.329469769829866310e-01,1.154962093690505565e-01,8.699750900268554688e-01
-1.180975552952544250e-01,-2.239088031025585068e-01,5.475729637155325458e-01,-2.524899823758360289e-03,1.741735485697815415e-03,2.300570599997166146e-03,7.244258522987365723e-01
-1.103291968319049798e-01,-2.105241042316732258e-01,5.810814758388280765e-01,4.017922305975155789e-02,1.776664885188933285e-02,5.885420228120952224e-02,7.573276162147521973e-01
-9.590850132082873181e-02,-1.397900891644590082e-01,8.509623482760667601e-01,3.378230619383346123e-02,9.577611455718202304e-04,-6.008416344377956464e-02,9.768812656402587891e-01
-2.367008499373725317e-02,-6.290273181998035090e-01,6.019355077364504369e-01,1.580666178882816865e-03,8.421767343060253957e-03,-2.642031897246159729e-03,1.066206216812133789e+00
-2.799971498118828186e-02,-6.638059304490845358e-01,5.446377313076898874e-01,2.299907648048801073e-02,-3.740027188978629208e-02,9.250624679965653921e-03,1.049899816513061523e+00
-3.961653703552463213e-02,-5.957509024890071947e-01,6.325927745319482876e-01,-6.575802837106527708e-03,1.301138270633108232e-02,-1.389753646048764134e-02,1.065929889678955078e+00
-8.203457091446644811e-02,-3.257616949113512073e-01,6.421654687069833223e-01,-9.830764887406899522e-02,6.766370081999536351e-03,-7.658753423942223082e-02,8.983892798423767090e-01
-1.043379647134447252e-01,-2.635030929221736651e-01,5.406214388978827223e-01,3.282309165777756721e-03,1.269196154987684141e-03,-1.037117387294428025e-02,7.377811670303344727e-01
-5.322796363178741719e-02,-6.694104357372472336e-01,6.157375203200086133e-01,9.278775486171593825e-03,-7.165879657787471713e-02,2.372886551362643134e-02,1.121049880981445312e+00
-4.503770713205274001e-02,-6.300080428970697977e-01,6.401500371992879801e-01,4.350612231147259895e-02,-9.082009630644392872e-02,-7.774886111580834583e-04,1.114859700202941895e+00
-8.598243078455341387e-03,-6.159091982994366887e-01,5.101280921753602593e-01,2.273863751847093038e-04,-9.276532862477009610e-04,2.204321549007338954e-02,9.769300222396850586e-01
-6.390512384658036948e-02,-6.197469226837941658e-01,6.281021817280229014e-01,2.396365349799609544e-03,-2.420967371265853041e-02,-8.067647071063972688e-04,1.083631992340087891e+00
-1.279333016839451220e-01,-2.308863599018581292e-01,8.738177399826444480e-01,-1.086394833636480650e-01,7.145541935528553976e-03,3.848409647146545237e-02,1.075751662254333496e+00
-1.067884018082135844e-01,-1.679238713217769408e-01,8.609254630408175180e-01,1.156330583093094916e-01,-1.604555225429048562e-02,-5.275548229466064942e-02,1.024013757705688477e+00
-8.564955602751719854e-02,-2.348091673414752778e-01,6.289263943913007138e-01,-8.036529205932337050e-02,-8.202481731074800705e-03,5.035005287923120798e-02,8.164779543876647949e-01
-4.061412555913681416e-02,-6.204859981426159576e-01,5.948818984435765289e-01,9.817013873393893100e-03,-1.514991405398696291e-02,1.341200713566073968e-02,1.053627133369445801e+00
-1.243607659465290408e-02,-6.292575463290347448e-01,5.406915367564454344e-01,7.551100063271699338e-03,1.078301707783487244e-03,-2.838075146934113113e-03,1.013803958892822266e+00
-2.796988723696842982e-02,-6.646448087847450781e-01,6.552919056601183012e-01,-4.085958385671636765e-03,1.886772282133783452e-03,-1.785988542214032426e-03,1.143366813659667969e+00
-3.591173237896910786e-02,-6.309546856843759599e-01,6.182415698266737758e-01,-1.645930407638796986e-02,5.234679133359022851e-02,2.566049144606898438e-03,1.086413860321044922e+00
-2.156121380417613115e-02,-6.280435885644627403e-01,5.988231215623199821e-01,2.932241953893701802e-03,3.940990659571237155e-03,1.053037485935858983e-03,1.062556147575378418e+00
1.160861391455178526e-02,-7.519550864158198733e-01,5.964048026707985395e-01,4.784742094955687333e-05,1.805867529985586417e-01,5.321923123616618956e-02,1.215679526329040527e+00
-4.383053300243160838e-02,-5.125254577278592905e-01,5.921275885669555761e-01,-4.370913283807789651e-02,-6.918694574810118529e-04,1.042631946387487241e-02,9.634557962417602539e-01
-6.168741075958507347e-02,-5.982162064459798367e-01,5.592541330766158669e-01,1.495057460230433889e-04,3.656598063117123560e-03,5.838157351799980492e-04,1.003307461738586426e+00
-1.355532057634328651e-02,-6.069859263438186492e-01,6.088386107288353832e-01,1.082215761632490886e-03,-2.318252414848041582e-03,-8.036932751805425310e-03,1.053135871887207031e+00
2.135037034718583610e-02,-5.809828074685726707e-01,5.924197699268480832e-01,-3.374936770661045651e-03,1.141040811197762458e-03,-4.162996536781133836e-03,1.016360998153686523e+00
-5.726428507731196049e-02,-5.991207361009674992e-01,5.531206468021906408e-01,1.557001896913805944e-03,-8.127681246632954826e-03,6.677616337556590252e-03,9.986282587051391602e-01
-4.951894807441636903e-02,-6.174001369768561398e-01,6.037507990043000650e-01,-4.453219785184414463e-03,8.928927561828299509e-04,7.255857742126438532e-03,1.058513045310974121e+00
-2.459537246874314922e-02,-5.881414168588304792e-01,5.746839913096295493e-01,-1.752406851985813686e-03,8.171761528466952099e-03,1.385316308128375831e-03,1.007301688194274902e+00
-5.338172977894448112e-04,-6.133298546595431500e-01,5.219000948404300955e-01,3.643025841190296928e-03,3.208868623055348424e-02,5.338689261396539591e-03,9.858072996139526367e-01
-1.593270302022981727e-02,-5.921627203057201472e-01,4.735277610626208444e-01,5.495421474314315588e-03,-5.492455242717381170e-02,5.268741976935970017e-03,9.289124608039855957e-01
-2.612802463789076074e-02,-6.148936449360883350e-01,5.972952815181197250e-01,-2.915233305290119287e-03,4.090030214699655331e-03,3.236718232990326224e-03,1.049980401992797852e+00
-6.041507969171604903e-02,-6.194350385900462275e-01,5.938628633148040903e-01,1.468611479828806554e-03,-1.473012456662992423e-02,3.682853656335676601e-03,1.052157521247863770e+00
-8.033648489637352369e-03,-6.263145975658211961e-01,6.014752897689821243e-01,-2.180467329337182261e-03,5.113413893344157142e-03,6.634433319106098660e-03,1.063411951065063477e+00
-5.633687748706772691e-02,-8.311918525977253225e-01,7.130700563316986207e-01,-1.805459179731810637e-01,-1.515910839125488019e-01,-4.271441700555536278e-03,1.398338556289672852e+00
-1.154074348860003284e-02,-6.097986788048906925e-01,6.058302756092132091e-01,-7.224961378542112166e-04,-5.463878122032023513e-03,1.128526422023658736e-02,1.053033590316772461e+00
-2.449433023853459651e-02,-6.241484171144264792e-01,6.344452037511344455e-01,-5.880112210195517775e-02,4.005733111291549103e-02,9.249278830153541062e-03,1.097435712814331055e+00
2.685382547930516544e-03,-5.866588091426759854e-01,5.946672124164614770e-01,-1.103388034214260183e-02,-1.547787147892242194e-03,-3.405274925068399721e-03,1.023258209228515625e+00
-7.202084027278435330e-02,-4.234912733292354181e-01,8.279539182469910497e-01,-1.116013993004778271e-01,4.850546961024351095e-02,8.599179082130488372e-03,1.137736916542053223e+00
-7.964577568437838928e-02,-2.885894954831685899e-01,5.513658158016014887e-01,-3.455720105979493209e-03,7.679444045198731590e-03,4.098495183170083986e-04,7.575567960739135742e-01
-6.356293217995959144e-02,-6.044123980585605072e-01,5.902557731409028285e-01,8.635859650171193863e-03,-6.782948747000708267e-02,-5.163810022455185729e-03,1.042938590049743652e+00
-6.390984673942504135e-02,-2.734025162594290181e-01,5.394627142900919603e-01,5.497967387419057383e-02,1.071513585709221901e-02,8.344938341095894246e-03,7.375428080558776855e-01
-7.486083771144982912e-02,-2.746655976429435153e-01,5.373357988110154526e-01,4.973254099628435232e-02,3.087963370471528989e-04,5.261369012073098062e-04,7.378668785095214844e-01
5.567819478432198266e-03,-5.307580604295187854e-01,6.032079635722277233e-01,8.072267536226350459e-02,3.708593905819593858e-03,-1.807829491860165130e-02,9.929346442222595215e-01
-4.153526196881874438e-02,-6.442840543815135934e-01,6.664638628847394664e-01,-1.834615818973656630e-03,-8.286702281229024400e-03,-1.221914507111443058e-03,1.136457204818725586e+00
-6.135777778869232202e-02,-5.967139070581414240e-01,5.510053575579203500e-01,3.806532221713846992e-03,-3.601926492553010617e-03,2.994317291908513666e-03,9.947544336318969727e-01
-1.479084374771102994e-02,-4.345972314499074174e-01,5.572516354495162805e-01,6.886094908881532084e-02,1.148302225937877959e-02,2.256904924578911897e-02,8.716456890106201172e-01
-1.626517276339160822e-02,-6.266546281719199696e-01,5.610836570433820336e-01,-3.827223245448364581e-03,1.937517714544912317e-03,-6.068663254254550755e-03,1.028824687004089355e+00
4.519544269451834795e-02,-6.006998512072273533e-01,3.551475369625699541e-01,-1.933949591087685133e-02,1.250170512071885646e-03,7.058391879842793037e-02,8.541197776794433594e-01
-3.677297144556722353e-02,-6.135942903225064526e-01,6.210829357527093419e-01,-5.959629275317327238e-03,2.340204826012134975e-02,-2.116634009913693354e-02,1.071473836898803711e+00
5.370100115138984331e-02,-5.886202874801002016e-01,1.994433368430545972e-01,-2.177266019556068147e-02,-3.543669139335663132e-02,-1.449805128259122958e-02,7.302402853965759277e-01
-5.773075587330683822e-02,-5.983410446021347751e-01,5.673038967090539009e-01,1.451662214706470099e-03,-4.857865606075770573e-03,-1.035471308430493216e-03,1.010400056838989258e+00
-5.539129099393220491e-03,-6.228121505180789219e-01,5.994950015451665504e-01,-2.842307433493973436e-03,1.072957227836575031e-02,-3.332325507731549643e-03,1.058757066726684570e+00
-2.082620558188156071e-02,-6.151709357462868955e-01,5.702488763029132102e-01,-1.269659595961282125e-02,-3.613943979358025770e-03,-9.317224728525745625e-03,1.026986360549926758e+00
-3.759736890367283701e-02,-5.412295169243878101e-01,6.087880152948967893e-01,1.184701089124861814e-02,-1.636849867593690930e-02,-1.518109875461281372e-02,9.994578957557678223e-01
5.868006080530122071e-02,-6.417395006619580622e-01,3.294474238185337023e-01,8.486850600932364930e-02,2.029501790414048046e-01,-3.995576089055079272e-02,9.505351185798645020e-01
-8.227200782244420418e-02,-7.000503852095097956e-01,9.337423318508447645e-01,2.322614428385008090e-01,9.319919123773445779e-02,-6.961115540144338643e-02,1.498011469841003418e+00
2.630135611268127893e-02,-9.395550251789439589e-01,5.527531564840991729e-01,-9.790909686258165989e-02,-2.097212302377535753e-01,9.252770878341243233e-02,1.380180597305297852e+00
-1.267322175363264913e-01,-3.654200236911863131e-01,6.728814012104094022e-01,-4.464174598978642994e-02,1.292491123917630796e-02,-8.769352814621617087e-02,9.574769735336303711e-01
-1.291575343461382475e-01,-1.635746657653534553e-01,6.272488670085570872e-01,2.898203642798868537e-02,1.242453562016929483e-02,-3.222963408608817831e-02,7.781180739402770996e-01
2.264427606818228411e-02,-1.008055960278027019e+00,8.584494439210941241e-01,1.244323208909090400e-01,3.018769015051687710e-01,-2.777468842977307353e-02,1.715963721275329590e+00
8.183064234531747805e-02,-6.551034321151421036e-01,2.201101975669503830e-01,-5.722621365565035492e-03,3.574401530439013513e-02,-1.040740113876058304e-01,8.369715213775634766e-01
-3.655150062635788288e-03,-6.110681308055938565e-01,5.099675347260249625e-01,-1.083741700947170143e-02,2.328430090210023735e-03,1.178035333403708480e-02,9.723809957504272461e-01
-8.644856192589778568e-03,-3.485697979010876635e-01,2.860388851751785588e-01,-5.511039959474589578e-02,7.825499281493634995e-02,2.264886558290993973e-02,5.758296251296997070e-01
-1.237123932861919351e-03,-5.992231882641784191e-01,4.449967425317268854e-01,1.457259874404861480e-03,4.272573971518437742e-03,-8.241028099433772916e-03,9.076445102691650391e-01
9.182079233623102743e-02,-1.013104209091665542e+00,3.112623123784133972e-01,4.531023578526153367e-02,-1.634358030205782519e-01,1.149487321617527757e-01,1.279614329338073730e+00
2.383530246319297968e-02,-4.466477193507557564e-01,5.996382881198615289e-01,1.331983374172335255e-01,1.551868784298133727e-02,3.225272332355387517e-02,9.385507106781005859e-01
-1.138684554137035509e-01,-7.515617659105217063e-03,6.099556279283409044e-01,9.475137063891507505e-02,-2.533404488561932723e-04,-1.737291268845271922e-02,6.972019672393798828e-01
-4.141446386257275486e-02,-6.089786428698313880e-01,5.888357106790452766e-01,3.177728527482911406e-03,-8.402395671968958995e-04,-1.399837944398583988e-03,1.037829518318176270e+00
-3.174885522429324314e-02,-3.471520399973371807e-01,5.527202451677153405e-01,7.866377510474337198e-02,7.070039600889387911e-03,2.751204542860025484e-02,8.039970993995666504e-01
-1.227454968903615717e-01,-2.848134535909616072e-01,6.181477405653902357e-01,-4.169089128877371403e-02,2.146835351536500319e-02,-4.095380563465173679e-02,8.407690525054931641e-01
-1.352232864218240460e-02,-6.017368041428624581e-01,5.920365197898331822e-01,-5.689583336173071812e-03,1.223313643223296852e-02,-9.057646896835254424e-04,1.034139633178710938e+00
2.966019731982394436e-02,-1.020243861482950543e+00,7.859341815314208057e-01,8.040057930462286839e-02,2.504290998295856108e-01,-8.531090348908022813e-02,1.642447829246520996e+00
-2.960804253180786272e-02,-6.061899713503503540e-01,5.820562314319208674e-01,-2.121294407929130710e-03,6.194932564999886069e-04,-7.928600919142736805e-03,1.029299616813659668e+00
-1.218877884451216587e-01,-1.149039985295401967e-01,6.572289992318658403e-01,-8.503715914462479930e-02,-2.020708623845469606e-02,1.670173733738556515e-02,7.908137440681457520e-01
-4.574972688005923827e-02,-6.545900314498882544e-01,6.457147676065864150e-01,1.064966457617764139e-04,7.075309247091880749e-02,-1.397459501933188790e-02,1.133756995201110840e+00
-7.904652576639337180e-02,-1.502832936626560811e-01,8.567390937755884339e-01,7.429428384527472784e-02,-8.147267102571626243e-03,-1.585636792309739335e-02,9.823156595230102539e-01
-6.934573002369928685e-02,-1.752373000430232919e-01,6.136498610113277907e-01,5.457131558181717995e-02,-5.177759563800269499e-02,-9.728519517817621476e-02,7.716149091720581055e-01
-1.669267535971654878e-02,-3.395454266213399075e-01,3.962611192026975759e-01,8.957107619212086036e-02,-1.113855233734126066e-01,-9.421421787514214566e-03,6.853053569793701172e-01
-1.891850720782860956e-02,-4.188858089249130057e-01,5.544217372587167958e-01,4.800741619473681415e-02,1.457667761277764429e-02,-5.222347930211632995e-03,8.518471717834472656e-01
-1.027551931723683643e-01,-8.751357361657834399e-01,1.011407533179327745e+00,-2.502290826014874625e-01,8.174840732961216605e-02,-1.046497750030553515e-02,1.704907178878784180e+00
-8.482212588853248539e-03,-6.602478036781459503e-01,6.722602158774154679e-01,-5.373113935528681107e-02,3.289526355301857635e-02,-4.192525110823880352e-03,1.159246802330017090e+00
-2.718671390679393979e-02,-6.336863676932015244e-01,6.029356976816877545e-01,6.741270308566558317e-03,7.078848286012093781e-03,6.784787901605303026e-03,1.071209549903869629e+00
-8.597187313624471069e-03,-5.552533837200371858e-01,5.776733549125228073e-01,-1.483254321682074828e-01,1.149488800889024998e-01,1.497012509441222362e-02,1.034092783927917480e+00
-5.975310458231913868e-02,-3.910927284467002885e-01,6.640052793859113622e-01,2.153327777367134710e-01,4.137605763462761516e-02,-2.631775508516361745e-02,1.009822010993957520e+00
1.554725423958555966e-02,-6.234764328577855341e-01,6.340371338192520856e-01,2.070831504195149234e-02,-1.005368414998107467e-02,-1.681507266496326189e-02,1.090205788612365723e+00
-1.656317647879216454e-02,-5.335721742439226700e-01,5.835340648646408779e-01,1.308937719898951900e-03,2.208972208915640362e-02,-6.472852080648564509e-03,9.691570401191711426e-01
-1.121708740354789291e-01,-5.868202310247913056e-01,8.401158178700280921e-01,-2.199571136702337670e-01,1.702272201765746840e-01,-2.418465611747030661e-02,1.348322749137878418e+00
-1.398663753747628191e-02,-7.037574744452108622e-01,7.246678605310851173e-01,3.627343375529228087e-02,3.109848166011279069e-04,-1.889576255554606746e-02,1.239320516586303711e+00
2.049313699786127138e-03,-6.446848933890010347e-01,6.280252800561340054e-01,2.557387596392819706e-02,-7.101643853128760710e-03,-1.844883147348867075e-02,1.103669166564941406e+00
2.722919505130722700e-02,-6.225378489559938444e-01,6.017210581810285008e-01,4.805497154557490658e-02,-4.448883057273572000e-03,-1.101093208174917445e-02,1.064365983009338379e+00
-5.076030139623062543e-02,-5.957545153791351522e-01,5.563024088447249271e-01,6.837161307467970808e-03,1.256352678277704044e-04,-4.813476601479815923e-05,9.982633590698242188e-01
1.249885916865753344e-01,-1.101214091688478947e+00,2.945966706337720398e-01,-4.912494450126831530e-02,-1.688736894191638360e-01,7.005175367928086205e-02,1.359349250793457031e+00
8.345454306456545623e-02,-1.022747367910411764e+00,3.673262886029995400e-01,-1.033577462683929055e-01,-1.716318406301407529e-01,8.205035189926787598e-02,1.326236367225646973e+00
1.912212121995613637e-03,-6.068706635863794219e-01,6.076185855095909139e-01,6.627061399759381043e-03,-5.273585961371239465e-03,-1.171355283071359721e-02,1.052077651023864746e+00
-2.178662876158078687e-02,-6.259857864512289316e-01,6.050490185958452560e-01,6.506138862107949334e-04,5.036233431757665413e-03,-1.698231317383397040e-03,1.066207885742187500e+00
-1.354366047317502597e-02,-6.254240174930444374e-01,5.322153442275562307e-01,1.146186814204218016e-02,-1.622008343326171182e-03,2.042641358851965058e-02,1.003913998603820801e+00
-2.950191701595016383e-02,-6.196171504905529925e-01,6.061916636540223280e-01,2.175708778878700841e-03,3.059517324970306186e-03,3.300823415180872359e-03,1.061861515045166016e+00
-2.629565646571144222e-03,-6.415927697982034550e-01,4.888723988408303356e-01,-6.453465524661174124e-03,-3.440360370055030835e-03,8.247635173640943673e-02,9.922032952308654785e-01
2.215822054290472742e-02,-6.125988833127329336e-01,4.180013696897880715e-01,1.518215698071287770e-02,2.925734442416484237e-03,1.075399087024918668e-02,9.010753035545349121e-01
-3.029451235081768654e-02,-6.314970781412946321e-01,6.048299765630336111e-01,-1.304885354307835010e-03,1.164966294677571498e-02,3.924287133171163594e-03,1.071038961410522461e+00
-7.250498785232138699e-02,-4.808984856559678223e-01,6.013017012244276094e-01,1.031406361133578933e-02,4.186644424045401006e-03,1.245163220768391588e-02,9.470036029815673828e-01
1.563387996414231096e-02,-6.181644321271235754e-01,4.673437830080572342e-01,1.493521947936794531e-04,4.800232012328928440e-03,-1.450288625705031462e-02,9.448466897010803223e-01
-1.246619293486375679e-01,-2.028320273419852993e-01,6.136105690390168954e-01,-1.070812956103989882e-01,4.549105222686276873e-03,-5.071944500572985078e-03,8.021259903907775879e-01
-8.854902001715636572e-02,-4.382751335913200874e-01,6.436331690346513978e-01,-4.038345813830873654e-02,-9.940768480431946830e-03,1.800083864570573705e-02,9.594911932945251465e-01
-3.359613286061644000e-02,-5.987665711955404424e-01,5.319077349354616180e-01,6.208871881421934927e-03,3.636471862200160721e-02,-5.700743396509929360e-03,9.813249707221984863e-01
-5.306148940827637439e-02,-6.051696066104994554e-01,5.675405990042268201e-01,3.831281703713346892e-03,-9.506263955087849993e-04,5.837407522830786663e-03,1.016247391700744629e+00
-3.009167594793530839e-02,-5.967905598823172175e-01,6.152414307505472690e-01,1.060042530264564435e-03,-1.116610018065777865e-02,-9.454969312300576592e-03,1.050693869590759277e+00
-9.421018321790725070e-02,-4.483058530895053795e-02,6.140840658345783076e-01,3.132882010583560098e-03,4.940853221776034254e-02,3.253268521538731084e-02,6.925835609436035156e-01
-1.471582495451193018e-03,-4.932467812671537666e-01,3.280774316748911734e-01,4.568350304134408818e-02,6.147813840876132502e-02,-1.116572502984890941e-01,7.533333301544189453e-01
4.843507205995730390e-03,-5.805789278823813016e-01,5.861267550045042851e-01,9.383902562824381890e-04,-8.604566775762925376e-03,-1.774353163345257023e-03,1.010514736175537109e+00
1.334524029849026294e-01,-9.761566447388791978e-01,2.676744992183883176e-01,-1.939537150442703292e-02,1.621742261602301671e-01,2.000240828415718319e-02,1.216310858726501465e+00
5.614446942728829049e-02,-8.448912842977583937e-01,3.305677455253122066e-01,-5.264206602335670671e-02,3.181273504720494999e-02,2.143722636082819738e-02,1.071058869361877441e+00
-9.404444335643430408e-02,-1.918278345182792832e-01,9.467731143843368669e-01,7.416387427765361307e-02,7.558698180159503788e-02,-2.990297121715789971e-02,1.109486818313598633e+00
-9.319293401732522963e-02,-9.548967875363126301e-02,5.741572884850867364e-01,1.156046206974092327e-01,-2.752375053441579594e-02,-3.795109035600548880e-02,7.025532722473144531e-01
-5.792657390844846432e-02,-4.672520380832965170e-01,6.326289979102683869e-01,3.960212943649664419e-02,8.547164604620677286e-02,-4.339785650240469972e-02,9.794629216194152832e-01
-1.253408853988624838e-01,-2.192122392244470475e-01,6.190409238611011000e-01,-8.008522007102418516e-02,4.673875446131211912e-03,6.877624542151733467e-02,8.162654042243957520e-01
-6.925043119774160205e-02,-4.765892840279316589e-01,5.873644430731975730e-01,5.446177825904363959e-03,2.715918913059224907e-03,1.161607913686304831e-02,9.300799369812011719e-01
-1.033235023116914619e-01,-5.926498886047946169e-01,7.889407871474131140e-01,-2.802495066180359928e-01,2.120786520854384682e-01,-2.467431718192266907e-02,1.358146667480468750e+00
-3.256254664665024501e-03,-6.114042483253114835e-01,5.044743534563440601e-01,-7.408466810692655204e-03,3.381556931860821335e-04,1.632422364976801599e-02,9.681808352470397949e-01
-8.061697330340462930e-02,-4.991807202329106019e-01,5.996215751557198992e-01,1.672866453592316768e-03,1.046113077068750938e-02,-1.573137098798892478e-02,9.611048102378845215e-01
-1.215330036308573392e-01,-1.249050529418537225e-01,6.561272990385053072e-01,1.781937614057063982e-02,-7.939242134709222076e-02,-7.564530414635442512e-02,8.027564287185668945e-01
-1.340943048867163645e-01,-1.368480407438906199e-01,8.836290408271388896e-01,-7.251087031901522206e-02,7.062880155333828291e-02,-4.241256349089290306e-02,1.036680340766906738e+00
-4.874760134483455132e-02,-5.996900640623853418e-01,5.577441884488878454e-01,4.979631329216254072e-03,1.654532773388279684e-02,-4.664293205599858230e-03,1.003231167793273926e+00
7.236406656306121343e-03,-8.555972474283765061e-01,6.256304956461689049e-01,-2.073801213325010551e-01,2.519478703682340726e-01,4.440809834309503851e-02,1.409196019172668457e+00
-5.588270283404615790e-02,-6.936074280626022270e-01,8.273758482362572053e-01,-1.896712582800087199e-01,1.164084601715405648e-01,-1.642218881081925277e-02,1.378224134445190430e+00
7.992949994263306990e-02,-9.261697712354355350e-01,3.906508260890138029e-01,-1.963995539810091118e-01,2.677149033071270501e-01,1.727770046945154570e-01,1.357087969779968262e+00
-4.343692738315405033e-02,-6.063944435450911996e-01,5.694181521943899593e-01,3.877470611896247695e-03,1.341315849321850391e-02,-2.834612495914199705e-03,1.018887996673583984e+00
-4.654266239794666721e-02,-5.787423302727303653e-01,6.026713952108485595e-01,2.904333684285071576e-03,1.048039906785952144e-02,-7.202341384103995263e-03,1.025054812431335449e+00
1.060382212405084658e-02,-6.026152365182426696e-01,6.142616033793931729e-01,4.215336823688716622e-02,-1.940192254831015969e-02,-2.320756272396208575e-02,1.057681679725646973e+00
5.770105103457195961e-02,-6.005615013965190929e-01,2.987568185232545859e-01,-7.704482203433941044e-03,-6.988500781005985499e-03,-8.761729730123036033e-03,8.066290020942687988e-01
-4.886435336620285896e-02,-6.024380784958485169e-01,5.835406240435995207e-01,1.091238409469473753e-03,7.498194972984166887e-03,2.554623729036279486e-03,1.027937054634094238e+00
-2.378310454415813111e-02,-6.067129185380075729e-01,5.270730567005571521e-01,3.572321020855216689e-03,2.182868894590847889e-02,-2.461912286744413064e-03,9.827746748924255371e-01
-2.392648673797429654e-02,-6.050092881495302555e-01,5.160624868180031521e-01,5.531266148492138685e-03,1.539509882218158439e-02,7.978803428177770607e-03,9.716055989265441895e-01
-1.351059458082643286e-02,-6.187016594947930548e-01,6.005465168900837591e-01,-4.447338093802563922e-04,1.145233816317847188e-02,-3.003590210384743039e-03,1.056108593940734863e+00
2.358897807485585418e-02,-6.184816581974570404e-01,4.467948499743238377e-01,3.638526589882192571e-04,1.894758157561419673e-02,-2.145901609878602886e-02,9.303466677665710449e-01
-2.628221528475593177e-02,-6.130899258340940516e-01,5.864341574514617683e-01,4.830455841239503396e-03,3.976752108118462165e-03,-5.879842324290803120e-03,1.039005517959594727e+00
-2.627362073649057439e-02,-6.108577857235895081e-01,5.923381088061794308e-01,2.302796036206045290e-03,9.486964804895171854e-03,-7.080666927842605915e-03,1.042346477508544922e+00
-3.099951703414615192e-02,-5.856285872579781726e-01,6.029598724394241716e-01,1.036593465808447433e-02,-1.562347488264231518e-02,-1.165294274639062239e-02,1.030821084976196289e+00
-2.400943220503067022e-02,-6.296469891049052414e-01,4.748289298199444008e-01,6.528509068978235498e-03,1.102245752241197696e-01,-2.837069937089043911e-02,9.781322479248046875e-01
1.055283790969605284e-01,-5.859002882539080526e-01,1.709931257696337692e-01,4.166258692364541508e-03,6.669142106126656373e-03,2.397032190427946310e-03,7.265164852142333984e-01
1.064769392363661971e-01,-9.913512374198492072e-01,4.077048937998161149e-01,2.007811207124848840e-02,1.834965613712785659e-01,-1.199829910586762971e-01,1.331191778182983398e+00
-2.055810789816644307e-02,-6.114318221263360664e-01,5.986028894701874714e-01,-3.537921700921488680e-03,-4.278196591209005098e-03,1.299220750948689969e-03,1.048062801361083984e+00
-4.532690188634694479e-03,-6.223871160201165376e-01,6.306562827392351300e-01,1.654304573832535152e-02,1.160824167292655480e-02,-4.236280097612226715e-03,1.085791230201721191e+00
-3.304236609273113884e-02,-8.754215009619581433e-01,9.351355070359065325e-01,-7.447938370756806981e-02,1.672073850371649795e-01,-1.088405227478008025e-01,1.612017035484313965e+00
5.272820938495778598e-04,-8.780084118382532887e-01,7.381554148326435749e-01,1.585091511537435605e-01,7.549132928134634490e-02,-1.103736751556527555e-02,1.434151530265808105e+00
-3.910111198100947594e-02,-6.020170917342771988e-01,5.687240143098253320e-01,5.268952261052091759e-03,-1.434891283999056031e-03,1.290534298093923976e-03,1.014186739921569824e+00
-2.221341281736047973e-02,-6.162691657036645232e-01,5.796217613644055744e-01,-5.121341469751241986e-03,3.508352589183851835e-04,5.968496388390169202e-03,1.035768985748291016e+00
-8.012371617906882681e-03,-6.117173527625261453e-01,4.890501574385216488e-01,1.116663959903798492e-01,-1.749346181366766284e-01,1.905585160991785793e-02,1.020741820335388184e+00
-5.126072311441917141e-03,-6.033523499275625923e-01,5.973617442840126746e-01,-2.993547741168163783e-03,6.302659131550076774e-03,-2.069601266162546336e-03,1.039927482604980469e+00
-5.210734343098785346e-03,-6.171855899502665110e-01,5.977961442553380023e-01,-6.616438712735652275e-03,4.878699433608336099e-03,1.081398724398278683e-03,1.052312612533569336e+00
7.205604476187105201e-02,-6.158465824927222831e-01,2.051143480406008579e-01,5.268447440577463114e-02,-1.774140766615607823e-01,1.982224162550258462e-02,8.284797668457031250e-01
-8.163970227216980902e-03,-5.933448582906314384e-01,4.527451411770029299e-01,-1.202827536815230525e-02,-3.174016563529358931e-02,-2.356642512506684425e-02,9.108850359916687012e-01
1.331873028764307687e-02,-5.910749454552045590e-01,4.186831839569253866e-01,-1.658917194651119906e-02,-2.988015409652089709e-03,-2.973598543714730050e-02,8.821092844009399414e-01
5.502273534523938192e-02,-5.170199080494921606e-01,1.140491730699785822e-01,-4.748269468643461985e-03,-5.966099911224592711e-02,2.582642769487634646e-02,6.141901016235351562e-01
-6.418424090478061506e-02,-5.067936233264981327e-01,5.915010898864327960e-01,6.465362654994673188e-04,2.000419602542510833e-02,-1.264372610836807416e-02,9.579771161079406738e-01
3.095680811448268954e-02,-6.129480950473545908e-01,3.147120971210720097e-01,1.006140738423265402e-01,-1.785317241263711940e-01,7.010142584632364504e-02,9.047513008117675781e-01
7.464470076407433985e-02,-5.923386271706803097e-01,2.365556403740789460e-01,-4.616497016277041135e-03,-6.075289868483931682e-02,3.273251949122422716e-04,7.682517766952514648e-01
3.088179800254359231e-03,-5.889771113066865071e-01,4.066429513204130042e-01,-1.967746695439427651e-03,-4.337406709398579363e-02,-5.083181169257734548e-03,8.706673383712768555e-01
5.985254091925559794e-03,-6.050893668178424223e-01,4.702710875751889841e-01,-1.727650391317691811e-02,-2.120809233107924172e-02,-2.535823489207972639e-02,9.364084005355834961e-01
-2.184206490693632249e-02,-5.942231187599871234e-01,4.842366454610578241e-01,2.292184008440137973e-03,2.695855098213682452e-02,3.044322431030205365e-03,9.357507228851318359e-01
6.134362664049153313e-03,-6.143877505165618036e-01,5.197598907328547790e-01,7.896847844000394120e-03,-1.248252896511671583e-03,1.402610735136816493e-02,9.840512275695800781e-01
-3.558254244048557335e-02,-3.282460350439562191e-01,3.997406865822349387e-01,-1.078898786410340399e-01,1.128039320237293336e-01,2.306582584468472308e-02,6.908345818519592285e-01
-1.799698030133278434e-02,-5.911968441274637609e-01,6.002932450087127281e-01,-1.125108875389514360e-02,-1.032185734657264063e-02,4.841907338018078266e-03,1.032479763031005859e+00
-3.462888935979793747e-02,-6.073084210412308392e-01,5.902951721036807653e-01,1.189483801573386953e-03,3.331234152637605004e-03,-3.472831198330625369e-03,1.037519574165344238e+00
-1.614627308684421850e-02,-6.007484919603685025e-01,4.796090480443255810e-01,5.175532175387785074e-03,4.070098403668609421e-02,-7.917176403592967801e-03,9.394630789756774902e-01
-4.971758417062092927e-02,-5.005213109459621945e-01,5.691453780796560391e-01,-1.130641950000078541e-02,1.599416991194592061e-02,5.392620721619753588e-02,9.354550242424011230e-01
-7.844559982584417557e-02,-1.419321469807987013e-01,6.319389846916276809e-01,2.950007965071898761e-02,-1.230882343188714409e-02,-1.105051102910622751e-01,7.703740000724792480e-01
-5.237918348762021087e-02,-6.024358798228978129e-01,5.668009452016761207e-01,-7.384517788158896819e-03,1.431760414843824374e-02,4.822561779161981844e-03,1.013597011566162109e+00
-5.373659349313097966e-02,-6.177888235600386135e-01,6.002875620366322496e-01,9.621514498551610867e-03,-1.113859506318630975e-02,1.472450539392549870e-02,1.056459546089172363e+00
7.253846354740606239e-02,-5.835899937896500411e-01,2.392113964136112769e-01,-8.504560979483913666e-03,-5.657238588007411362e-02,-6.302869460954256542e-03,7.599873542785644531e-01
-2.256721527838368574e-02,-5.885339004325890189e-01,4.744384013109498310e-01,-5.076078993108322501e-03,3.776079309801680384e-02,-5.862896081388543212e-05,9.235672354698181152e-01
7.465466797056055648e-02,-6.929993914179635173e-01,2.987508665807951380e-01,-1.970349185917037380e-02,-4.205816378588083521e-02,-3.630199614079859805e-02,9.066228866577148438e-01
1.150800095156503944e-02,-6.146478510081618829e-01,3.938107482018692318e-01,-2.283799120675406025e-02,4.673543311665907807e-02,3.197715672548133437e-02,8.881399631500244141e-01
-5.207210830457532913e-02,-5.941140685960726309e-01,5.553677677502456556e-01,-3.293258540076935727e-03,-3.940507969618205382e-03,-1.738433259976729546e-03,9.960616230964660645e-01
2.816641238369327338e-02,-5.870092598394501815e-01,3.499209400311008578e-01,-2.478431666676746484e-03,-7.311630569819895648e-03,-4.633164370854063116e-03,8.247095346450805664e-01
-5.106098034865058644e-02,-6.465866801355911742e-01,5.737845130498296919e-01,-1.530399371314780099e-01,-9.069629000383058748e-02,-7.163484159733107294e-03,1.101040124893188477e+00
3.362062542166657786e-02,-5.968527024144384407e-01,3.823121432170586420e-01,-4.061248444411968105e-03,5.886054677197033458e-02,-1.085980592264485130e-02,8.658638000488281250e-01
-3.110174382148662639e-02,-6.212325693602815946e-01,6.045867602735793822e-01,7.093351861062054467e-03,-6.732182755002991299e-03,1.099828307584132560e-02,1.062140941619873047e+00
5.649004451871950105e-02,-6.349231836968841636e-01,2.677497498895220485e-01,4.289595915852893737e-02,-1.498907182948230610e-01,1.549300102220928232e-01,9.020435214042663574e-01
1.427050258112479431e-01,-8.783891500134707320e-01,1.314961826225550801e-01,-1.253414178313496663e-01,1.267818579675351887e-01,7.422379516850052816e-02,1.069202303886413574e+00
7.508161512751415634e-02,-5.893066055084507093e-01,2.652748866078651346e-01,4.992077048269229905e-03,-5.573281375026824074e-03,3.774344457677620418e-02,7.799929380416870117e-01
1.173790754451979890e-01,-9.930362028687285125e-01,2.331618999069775544e-01,-3.801712599924392949e-02,7.469233687629921181e-02,1.913944046599201643e-02,1.182017922401428223e+00
-9.521075751809221499e-02,-2.407246702038128294e-01,6.013293993027509776e-01,8.647134210608382887e-02,4.539331822026246993e-02,7.714494909830421632e-02,8.088055253028869629e-01
9.759273520674213720e-02,-6.062900250431899618e-01,1.848176560191084894e-01,4.966587646388981141e-03,7.785645348772407548e-02,-2.758758778544451867e-02,7.648512125015258789e-01
-3.161465750113029438e-02,-6.209102202106037138e-01,6.191608791367598785e-01,-7.822304647505981534e-03,1.465148470033644052e-03,6.636158103387506529e-03,1.074522852897644043e+00
-3.373452715716278305e-02,-6.452117549184445133e-01,5.952660834780231225e-01,-9.975255577558394052e-03,8.856049260413394186e-02,-8.360966925883890621e-02,1.094972491264343262e+00
-1.067771313605645478e-01,-3.113270655726009806e-01,6.017110986919914639e-01,3.493678515099918336e-02,-3.683841289486024760e-04,-1.254542946916618607e-01,8.599976301193237305e-01
-1.058554319929947418e-01,-3.587132074563585404e-01,5.712903328785937651e-01,-9.411208573907748481e-03,1.602723196214316664e-02,-2.196704284615408342e-02,8.343673944473266602e-01
7.457565343608410502e-02,-9.273563525418315745e-01,3.671630843719847492e-01,8.518127150916599000e-02,-2.132771644023527535e-01,1.734996681640358848e-02,1.241676211357116699e+00
1.011717407417848935e-02,-5.944572029163958105e-01,4.444524884330009473e-01,1.504799521855809674e-02,-4.143033517907034925e-03,-3.678764810345497467e-03,9.041663408279418945e-01
-9.868215845841107892e-02,-1.943268355660375812e-01,5.403582561174953280e-01,6.597623894750453966e-02,7.087741844749946910e-03,-1.315094275327405582e-01,7.373837828636169434e-01
-2.557763260408545472e-02,-5.500484674267657192e-01,5.795764950075705801e-01,6.791416695613844423e-02,6.413368679333866784e-02,-6.327205390840685839e-02,9.984254240989685059e-01
-2.179585404715971009e-02,-2.302896820699718572e-01,4.383059247906085920e-01,3.961344659714174238e-02,4.470306567968782008e-02,1.017669524788831492e-01,6.267886757850646973e-01
-8.937022961922333475e-02,-4.084458931117018188e-01,7.022766278830329112e-01,3.054917962251881003e-02,5.114002063987760360e-02,-4.934603266320827450e-03,9.959056377410888672e-01
-1.370578289844003039e-02,-5.666022979614480093e-01,5.826329694187870611e-01,2.031546571430101547e-02,6.164481195949055893e-03,1.041514099785489228e-02,9.963461756706237793e-01
-1.137083576699583209e-01,-2.423719811540155922e-01,5.586700787264661239e-01,-8.820627985294551832e-03,7.105708469230196007e-03,-1.941966295316777157e-03,7.453548908233642578e-01
7.180829905739896657e-02,-8.765474504493990793e-01,3.210354395401570637e-01,-3.895995906214347326e-02,7.377869339560537421e-02,-7.472837718504733717e-02,1.111523866653442383e+00
-1.086590779551167840e-02,-5.479459285518775147e-01,3.065555798925334585e-01,-1.711337956763950563e-01,1.147287987979459661e-02,4.172864777393291841e-02,8.081900477409362793e-01
-3.518510223737100762e-02,-6.586950640275552882e-01,6.890337975472193843e-01,1.984854187608329785e-03,1.161477444057383568e-02,-6.688199373720879470e-03,1.168488860130310059e+00
-3.205374225744465899e-02,-6.655610824839022222e-01,6.787305395830816046e-01,-4.596170280620954542e-03,1.410933044039574917e-02,8.759416102198311349e-03,1.165214061737060547e+00
9.376193629592513221e-03,-6.034849726880718856e-01,5.980894963512199958e-01,-3.574331082288387945e-03,-5.325444055937069788e-04,-7.874124459612199135e-04,1.040683746337890625e+00
-3.148433995963233201e-02,-7.939351443503610550e-01,7.220122812526938993e-01,-9.600148374304237966e-03,5.373339138100180490e-02,-1.529864962984867939e-02,1.316523075103759766e+00
-3.427296942718612016e-02,-1.068121206310509219e+00,9.075536251090845496e-01,-7.531176018953249229e-02,-2.008744713428999018e-01,-1.865671206993077536e-02,1.751769542694091797e+00
-5.287202334952979810e-02,-6.196597153586225204e-01,5.976041572809448477e-01,8.933978795431514464e-03,-1.005342693817497766e-02,1.736716187031938502e-02,1.055697321891784668e+00
-4.669433334384060635e-02,-6.599963848635105323e-01,6.602184906396697528e-01,9.515088244330940567e-03,-2.370612551451012698e-02,8.929499591292168470e-03,1.145256757736206055e+00
-7.092565819363547130e-02,-3.525779396061320958e-01,6.258978908413997955e-01,-1.711670423180354783e-01,-3.923339561918491591e-02,2.573036052085946046e-02,9.250142574310302734e-01
2.233905074101572574e-01,-1.000861870379631036e+00,1.097628200480089689e-01,-2.745135528603403000e-02,-6.643813842406939493e-03,-3.389842993664318738e-02,1.174068450927734375e+00
-5.170411337176963190e-02,-6.601356809038039231e-01,6.823923862257403883e-01,7.370980430608333779e-03,-1.855232428142227288e-02,-3.866876892460755031e-03,1.164892554283142090e+00
-6.711065435316537764e-02,-6.226002619203000465e-01,6.250170054810380016e-01,1.113029663333949155e-02,-7.715837575024925288e-02,5.810238064324756146e-03,1.091060161590576172e+00
-7.004589686274299842e-03,-6.022094009823073524e-01,4.013521228046014189e-01,-1.655952205471842090e-02,-7.106961524313600009e-02,-3.146555632002798197e-02,8.848872184753417969e-01
-3.048473861326882195e-02,-4.967400395473180463e-01,6.879911694102388564e-01,1.275451158889224501e-01,6.987949038291931501e-03,2.211559531225997660e-02,1.057833552360534668e+00
-4.694258536167851548e-02,-6.446652269952182213e-01,6.927435434605309084e-01,-1.444482937149107419e-03,3.566815634753667252e-03,-7.457867512819986531e-04,1.160422801971435547e+00
-4.144445639157877392e-02,-6.631802238649414649e-01,6.948602084288609815e-01,3.372861315620831121e-03,4.928029537872308762e-03,3.829310130374460625e-03,1.177555918693542480e+00
-3.226187475604394561e-02,-6.746368242241126412e-01,6.959826715570903710e-01,-4.947805836543352903e-02,3.522525028451600065e-02,5.122611528071187477e-03,1.192450046539306641e+00
-3.846042566501444576e-02,-6.891218536122196703e-01,7.010154175268574761e-01,-2.101140917088881177e-02,5.740631987884122628e-02,1.942659811888094654e-02,1.209824919700622559e+00
-3.796971042304998767e-02,-6.576387785309055767e-01,6.690423929608606546e-01,4.687244018182337713e-03,-3.433073052120468992e-03,1.657947344347906636e-03,1.149816870689392090e+00
-4.232070509406173076e-02,-8.317434826331565612e-01,6.717846492906864864e-01,-2.140727673337963766e-01,-1.381334544342528170e-01,3.824485541633984576e-02,1.376945137977600098e+00
-5.772549317716851175e-04,-6.206503724778994480e-01,6.538521974159202665e-01,-2.028092704912158942e-02,1.827948202860777902e-02,-1.074245853014651336e-02,1.105054378509521484e+00
-9.495377551719823631e-03,-5.974936148105051137e-01,5.982049207602989638e-01,-4.754069161436720418e-03,-4.619728699741970125e-03,3.638984740889711182e-03,1.035634994506835938e+00
-1.554614774221782167e-02,-6.187227339586256480e-01,6.083235878404166241e-01,-8.492227926179408970e-03,-7.501047983402079657e-03,6.054362400723134127e-03,1.062936544418334961e+00
1.614408040821752391e-02,-6.056371844263686022e-01,5.990741984110892204e-01,-3.834863113363966292e-02,1.052123381825569503e-03,-2.659496635451711992e-03,1.045615077018737793e+00
-7.031950397231066796e-02,-6.021253010028448927e-01,5.934175361469343768e-01,1.545666521567847515e-03,-1.325239920111867704e-02,7.550380802514936214e-03,1.037809491157531738e+00
-1.038046352724156934e-02,-6.105427349910264034e-01,5.978013922629388244e-01,-1.944472380622327100e-03,4.879955313926128205e-03,1.585102138395452559e-03,1.046507596969604492e+00
-8.064023530983174121e-03,-6.050133723273867226e-01,5.959349929139368118e-01,1.708394351869658642e-03,5.372408055845654881e-03,2.211799930546589407e-03,1.040110707283020020e+00
8.591626706639640676e-03,-5.949244001745143118e-01,5.910136510503725127e-01,2.230286193980305504e-03,9.430183751182746182e-03,-2.641340908330912490e-03,1.027253985404968262e+00
6.889964773172003142e-03,-6.294727812371706532e-01,6.403815514489643590e-01,-1.622190541222525914e-02,1.505945886360854184e-02,1.839728540473398134e-03,1.100399732589721680e+00
-9.984618178819304468e-02,-2.795072088608671623e-01,7.373127316962996280e-01,-1.756895992173214960e-01,-9.298927306425834594e-02,6.365863753537453172e-03,1.001089930534362793e+00
-2.917578296054638282e-02,-6.187240058192731151e-01,6.094119449791535192e-01,-3.291230610952877288e-03,-6.024853629516084379e-03,-4.793018916700416548e-03,1.063978314399719238e+00
-1.148528470465034479e-01,-6.092851878059761805e-01,8.353759710399010219e-01,-2.209344724601187970e-01,-9.393226833614949645e-02,4.317755704802512390e-02,1.340045094490051270e+00
-6.614841226699289325e-03,-5.955290857553680040e-01,5.929789507689210426e-01,1.820184886638427689e-03,-5.222271792084203466e-04,-2.697812356724496249e-03,1.029307842254638672e+00
-3.132222561167183339e-02,-6.292197843137680158e-01,6.280475856995274553e-01,9.746129916564429466e-03,-2.373454540551162093e-03,9.544055243398071736e-03,1.089523196220397949e+00
-3.419725023155337912e-02,-6.101642602782259006e-01,5.466927237639491732e-01,-1.043878955578983123e-02,-1.258175732268282387e-02,-1.747880090026546901e-02,1.002727746963500977e+00
-1.695182528791218390e-02,-6.192332426884943342e-01,6.175763830424105816e-01,-8.412937393948815082e-03,-9.351242383962366303e-03,1.092497146197032865e-02,1.071618556976318359e+00
1.951051746697517186e-02,-5.840002824031296225e-01,5.844744150363254676e-01,2.878061505376238520e-06,-3.970050329982657659e-03,-4.511599175408027330e-03,1.012165784835815430e+00
7.742249309611176633e-02,-9.939948541477389155e-01,3.521914380341464312e-01,-2.016192311777627588e-01,-1.666837161592538141e-01,1.443162720437630303e-02,1.312917113304138184e+00
-3.613516291822368998e-02,-6.198646002272343303e-01,6.039777101963047512e-01,-2.160057574272354879e-03,-8.199498177415723982e-03,1.249126015090852061e-02,1.060575842857360840e+00
-6.281916055855735204e-02,-6.261636045617444690e-01,6.063108235064685880e-01,4.026034850191673523e-03,-6.022560040142462684e-02,-2.469240292006611315e-03,1.073774099349975586e+00
-6.657933378622299392e-02,-6.620307651089738510e-01,6.520768987908646119e-01,1.069526797722933874e-02,-6.884126100660217795e-02,1.474669682929704434e-02,1.146371245384216309e+00
-1.095475500021086956e-02,-1.064526219741325219e+00,7.769008221868168862e-01,-1.754690162492062167e-01,-2.044456051034178323e-01,5.525342579313646677e-04,1.666899681091308594e+00
-2.540586729307735617e-02,-5.816676931297170006e-01,6.005251240091342702e-01,2.287627373182079399e-03,1.834560085178947586e-02,9.608999682128560246e-03,1.025036931037902832e+00
-1.598312574687894838e-02,-6.476590724385258291e-01,5.317361783615055515e-01,6.339988124194019178e-03,-5.528103609199244706e-02,-1.197199008174632765e-03,1.026783823966979980e+00
-3.220179128770341015e-02,-4.946433602544747510e-01,5.872462002937370862e-01,-2.444567447815992195e-02,1.929915611138703982e-02,-2.733389892264772789e-02,9.429624080657958984e-01
1.104363837922797686e-02,-7.897278500954287850e-01,4.131098102802884808e-01,-1.255618088315582914e-01,-3.461755819322942518e-02,2.943160713728102187e-02,1.085516691207885742e+00
-5.294630233757750132e-02,-6.156496936473780934e-01,6.425333275935963817e-01,-5.177193660264365824e-03,-4.850181567037518786e-03,-1.093765978915945715e-02,1.091872572898864746e+00
-5.554530529205939371e-02,-3.638037624154061289e-01,5.622753265170669090e-01,6.565299889058013975e-03,-8.734007207007002047e-03,-1.007388752290328156e-02,8.172127604484558105e-01
-4.211191205645285762e-02,-6.023961407193593187e-01,6.585083543153822383e-01,3.212636672468607846e-02,-6.609457959601328092e-02,-2.923984413404390886e-02,1.102769374847412109e+00
-5.297291784490892191e-02,-6.646392192228506302e-01,6.950046217867114073e-01,2.843872772531459703e-02,-7.802751670913193882e-02,-1.482074671437775583e-02,1.188473343849182129e+00
-2.452000780087625065e-02,-6.162490443662800299e-01,6.045025915008994666e-01,9.116734754326233023e-03,8.648965582327207066e-03,1.752030481545620993e-02,1.058025598526000977e+00
-2.269516013760143613e-02,-6.301831685897653079e-01,6.062217799814221264e-01,1.682748521040348857e-03,6.470092370305109697e-03,2.203842439812002049e-03,1.070881128311157227e+00
-5.299719815242924514e-02,-6.517647869964199314e-01,7.112141459246283937e-01,2.566459523497574002e-01,-2.111786883787987457e-01,1.586829960664022307e-02,1.316158294677734375e+00
2.128947846943328448e-02,-6.242453930279783236e-01,7.114644250340038667e-01,1.339350944758538886e-01,-9.739579266420508863e-03,-5.670840770576587864e-02,1.184202909469604492e+00
-2.570856776057955234e-02,-6.355745691914881368e-01,6.050020997563679837e-01,2.464901554302066731e-03,1.765348216387186949e-03,1.238337487533661390e-03,1.074436426162719727e+00
-9.747343687925907885e-02,-3.388694540867686622e-01,6.794177555978703209e-01,-4.418576446494319743e-02,1.735149787359279577e-02,-6.542909054454419671e-03,9.253427386283874512e-01
-5.355836996801655037e-02,-3.430661564860935098e-01,5.447927674476144011e-01,1.103578069719220178e-02,-2.163384935426220824e-03,2.434892013025708249e-03,7.845147252082824707e-01
-8.168759416378823524e-02,-3.435288265760663151e-01,6.004682260080655976e-01,5.303714633262743977e-02,1.855809453188273991e-02,8.166875038995946579e-02,8.613914847373962402e-01
-2.028883440820436826e-02,-6.292503718518169809e-01,5.755158893630392125e-01,9.459865293994453375e-03,5.015545093345916226e-04,-2.078107948661842702e-03,1.043514132499694824e+00
-2.424667297619136769e-02,-6.315934764392370226e-01,6.015862875371885687e-01,7.220921027623067832e-03,8.168836231587560393e-03,1.330407613900162290e-03,1.068174481391906738e+00
-3.579198347309317518e-02,-6.136113034503833941e-01,6.006670918114463964e-01,-4.454445314208831282e-03,-7.640617624229992071e-04,3.755994358627898097e-05,1.052033662796020508e+00
-5.228006680031850595e-02,-4.842906480224080656e-01,6.964396703079365203e-01,7.986330315708670136e-02,1.597955404762533282e-01,-2.939224004165488444e-02,1.081202626228332520e+00
-3.974633299421327648e-02,-6.188317634739400885e-01,5.790159484198824646e-01,1.209830959392054275e-02,-5.265532480830855018e-03,6.507521778701529092e-03,1.037869095802307129e+00
-2.838138644108500336e-02,-6.212398454380299029e-01,6.003280761170560753e-01,-7.472053554427074765e-03,-3.812131112406206158e-03,-8.763158327365133324e-03,1.058269262313842773e+00
-9.945380801893743961e-02,-2.737058005266602145e-01,5.421186195971232635e-01,8.612484311909531301e-03,1.028158558619841900e-02,-6.468485069017282721e-03,7.446068525314331055e-01
-1.333730234890740385e-01,-7.431925317034626666e-02,7.707051145014893745e-01,-3.489616640520800533e-02,-1.135080895059363132e-01,-3.290491956299157472e-02,9.016701579093933105e-01
-2.521680193198718584e-02,-6.331005043641884100e-01,6.035930313285351456e-01,4.157866706724763425e-03,3.947317077723742039e-03,3.330960625253201642e-03,1.071120738983154297e+00
-2.560867052604268168e-02,-6.351211463335690866e-01,6.040652367595512606e-01,2.887213242838735684e-03,1.179858987352845606e-04,9.844744763555960890e-07,1.073225855827331543e+00
-6.375739306661910855e-02,-4.070843739140967976e-01,6.306414622103839740e-01,-1.507197327087575200e-01,-7.855660564217332997e-02,-3.884915538222569187e-02,9.641885757446289062e-01
-1.318293427414412577e-01,-2.331619097780227023e-01,8.920341085817612425e-01,-1.328407080662646900e-01,4.493461169116300113e-02,-4.953665085052025296e-02,1.108455777168273926e+00
-1.276734429714052044e-01,-1.703369111315857776e-01,5.517480738696164400e-01,-5.429488839823698107e-03,-1.393872524379260146e-02,-3.698175986226120288e-02,7.051202058792114258e-01
-1.170164745831353270e-01,-2.282538205225844719e-01,5.390015817801485642e-01,7.151915023798994034e-03,1.526313588027326329e-03,5.802697757008545149e-03,7.183095216751098633e-01
-8.550775909815508391e-02,-3.879862504095366593e-01,5.758591672061751376e-01,-1.914539611351085899e-02,-1.330584841818806827e-03,2.152040038112608758e-02,8.552444577217102051e-01
-7.148766677350301690e-02,-1.979515468642050746e-01,6.333947791435522445e-01,-8.710182212861379558e-02,9.943965512743513369e-02,-8.241287959152229781e-02,8.214591145515441895e-01
-1.712196717069153218e-03,-5.574537352777289012e-01,3.902473470779348474e-01,-1.382808946611400469e-01,1.291873326256750554e-01,8.166276474287705034e-02,8.987482786178588867e-01
-8.045440405161144448e-02,-1.531297825949164138e-01,4.926237279395147550e-01,6.461742780357114524e-02,-2.105902523714961450e-02,2.512265933884049590e-02,6.253791451454162598e-01
-3.009656059414650767e-02,-6.040601865870180998e-01,5.860305110830902331e-01,-2.051409361097519465e-02,1.788044619471759744e-02,1.096563728484331937e-03,1.031943082809448242e+00
-7.604440575601562058e-02,-1.900560882365587845e-01,5.366929266526210274e-01,1.578089619727648940e-01,-6.968874049940944337e-02,-4.283769592209662330e-02,7.437006831169128418e-01
-1.321622971738347641e-01,-3.136172206771777882e-01,9.113118795376544679e-01,-1.916550477523156770e-01,8.533770811604311779e-02,-6.177967890694999881e-02,1.206068158149719238e+00
-2.033417707414644435e-02,-5.946519875808853328e-01,5.843359408460776505e-01,-1.215288237989246281e-03,9.327291831664384636e-03,3.313177506036479696e-03,1.021292328834533691e+00
-1.029703956565306555e-01,-3.752353292547039310e-02,8.777761015601330818e-01,-5.307139710614766463e-03,2.135112051599975108e-02,-1.548236408702304834e-01,9.875846505165100098e-01
-2.571139059059155546e-02,-5.094706576313563495e-01,5.823158481900259087e-01,-6.222523743468662272e-03,-1.420204631303431490e-02,-6.726030328340461620e-03,9.480062723159790039e-01
-1.155596648797468651e-01,-2.977725592519121500e-01,6.214109267089032995e-01,-7.163779195666453159e-02,1.853737470989864217e-02,-2.692077986854217800e-02,8.539401292800903320e-01
-7.768554570568288187e-02,-3.630547232798090329e-01,5.618017452080671381e-01,-3.216409361663211466e-03,-1.141048792731529093e-02,-7.067663887350629677e-03,8.206345438957214355e-01
-3.365189061781552471e-02,-5.111729016936693570e-01,5.195278233880520347e-01,-1.965979154423336608e-02,3.729531541980846826e-02,4.624411366795358989e-03,8.964293599128723145e-01
-3.529992916698558580e-02,-5.314811269669638127e-01,5.668352835510194199e-01,-1.731766938138657591e-02,-3.639779254228146018e-03,2.795405277247219045e-02,9.543660283088684082e-01
-8.040136767753333635e-02,-9.610620160327454364e-02,3.287693481013405639e-01,-1.888845686749737393e-02,1.779467383349311524e-02,2.449350807209994037e-03,4.196802973747253418e-01
-8.295299126622718289e-02,-1.989184079744958367e-01,5.716858689944963601e-01,5.935248170522987310e-02,-5.805146920227684942e-02,-5.331582119374783657e-02,7.396764755249023438e-01
-6.211080960217627012e-02,-2.098487349895453713e-01,3.489030403740430719e-01,4.517788045622812138e-02,-2.233886026071298797e-02,3.120887156210484445e-02,5.118821859359741211e-01
-6.289280448084191844e-02,-6.232338198800217999e-01,6.065804745541883980e-01,1.042566691728677095e-02,-7.884877931136993756e-02,1.240472325181210186e-02,1.075522661209106445e+00
-1.201705909363114388e-01,-1.304254343895525081e-01,9.039846999767026103e-01,-7.919987430373630344e-02,7.558974879208514575e-02,-5.087764357865070391e-02,1.050346016883850098e+00
2.296019505670340161e-02,-4.809599736980607609e-01,3.446460526535303770e-01,-1.535030511429287259e-01,1.841836925431840355e-01,-3.407297725745502687e-02,8.339452743530273438e-01
-9.372815753487886981e-02,-1.649630318432627196e-01,7.071641485779670555e-01,-5.495819279138264984e-02,8.194995776188702952e-02,-5.085260577064371762e-02,8.605352640151977539e-01
-2.119927709443812994e-02,-6.074050455037738327e-01,5.906876783616236137e-01,4.922451998711377348e-05,-3.515239176609773978e-03,-3.972029359451922622e-04,1.037676334381103516e+00
-5.470607198914144431e-03,-5.793832333415972480e-01,4.142930446771082020e-01,-1.003356068243490412e-02,-4.604778049168579968e-02,4.433524832827624024e-03,8.678750395774841309e-01
-2.856765161903278977e-02,-6.048512563897107119e-01,6.016138676579178002e-01,-3.528245738344185436e-03,1.364377168064018165e-03,-4.295973470449702437e-03,1.045223951339721680e+00
-3.000229621137086300e-02,-6.060272353296398684e-01,4.006439193705798041e-01,-2.013848413789675329e-01,-4.782258936102951746e-02,9.604316549002386849e-02,9.599610567092895508e-01
1.926539385169595553e-04,-5.905776751830208449e-01,4.031104295473964538e-01,1.134716050189782388e-02,-3.498679269944202086e-02,2.575931943046527728e-02,8.691566586494445801e-01
9.388057775258490389e-02,-1.045574160301791622e+00,3.337004293495614560e-01,-1.094113810624251781e-01,-1.408860696652825539e-01,-3.011097463098717439e-02,1.314273118972778320e+00
9.003759835019753410e-02,-1.038331033258815150e+00,3.554125345791168122e-01,-1.191101262267319494e-01,-1.536337266487813324e-01,-9.838077194239134085e-03,1.325421571731567383e+00
1.161142437707223495e-02,-5.963055485029150615e-01,6.097575919693049018e-01,-1.234294059719809149e-02,-7.940963967450866481e-04,7.086461520778440833e-03,1.044784545898437500e+00
-3.040734657866132548e-02,-6.121657593526684815e-01,6.093212860605673464e-01,-5.433838659448791443e-03,-4.797974593204072983e-04,3.307780146128260716e-03,1.058293581008911133e+00
-5.567542456878547819e-02,-7.050871459608819558e-01,6.317356391559192375e-01,1.463821079833857626e-02,-1.468546765024862089e-01,3.006660556457112915e-02,1.186901926994323730e+00
-2.397559420001152061e-02,-6.691578838429590448e-01,6.801162478417095425e-01,1.045481960105225649e-01,1.950884369954033748e-01,-7.219337595523250828e-02,1.236478209495544434e+00
-2.872779550156476236e-02,-4.395632777293775884e-01,5.993263871797219755e-01,4.655312296038580794e-02,-3.285113753880167242e-02,-4.389904923013976390e-02,9.147596955299377441e-01
-4.752046922985510291e-03,-5.737387447363809789e-01,4.482798750850083835e-01,1.048720570253457857e-01,-1.940997597418935294e-01,7.662158778143994542e-02,9.748764634132385254e-01
-3.024616847671617731e-02,-6.564413652718477099e-01,6.572962942099378481e-01,2.185964695523299420e-03,6.548579410914024714e-03,3.779656163647050499e-03,1.138225197792053223e+00
1.677755091454749548e-03,-4.978861109022951759e-01,5.643187418183089887e-01,4.339300493998750341e-02,-1.176224665077143378e-02,-1.152317215033664584e-02,9.239406585693359375e-01
-1.025738880591652025e-02,-5.556898581760534306e-01,5.980606133444452688e-01,1.049034329720583553e-02,-1.854971831465569362e-02,3.277075866013863439e-03,1.000369071960449219e+00
-2.048010639544296102e-02,-6.262301341736683513e-01,5.750610080971955140e-01,-5.901639821286592744e-03,-3.385092403729495283e-03,-6.928505656382981555e-03,1.040497064590454102e+00
-1.335448706306223143e-01,-1.603357855288767286e-01,6.532934890500402547e-01,-4.535047989759555080e-03,1.511748675176651305e-02,-6.415837156146251066e-04,8.010374903678894043e-01
-1.107453750333719372e-02,-4.528699454290647797e-01,5.959744056269055124e-01,1.498093043012299064e-01,-3.766910589604668090e-03,-1.036701973018631928e-02,9.484601020812988281e-01
3.430472641017575514e-02,-5.273187361538046458e-01,5.684334618429341957e-01,3.975140961432835351e-02,-3.723917075456263832e-03,-3.080664564812478357e-03,9.515798687934875488e-01
-1.003082463474394004e-01,-3.672222197505951025e-01,8.589055033450825327e-01,1.952730361063484410e-01,-4.830398613165166888e-02,-4.526689186492202643e-02,1.172562718391418457e+00
-4.025650091023059290e-02,-5.378492191566448533e-01,6.045071110225556099e-01,2.507538386319762419e-02,-1.478603906184168190e-02,-3.766102493329664957e-02,9.954624772071838379e-01
-9.110514195257835013e-02,-1.823193850547230044e-01,8.619309918780149182e-01,8.079034771502760504e-02,-8.668872583118563194e-03,-8.398899887778540907e-02,1.022006630897521973e+00
-6.944160096163753959e-02,-2.980005926699544339e-01,5.406919610823827105e-01,3.406885361765084330e-02,8.375290888392490293e-03,-5.702078844602301473e-03,7.534877061843872070e-01
-6.041744209875886396e-02,-3.757877526496644083e-01,5.614080248562691722e-01,2.998426332296631053e-02,2.157915594548433583e-02,2.012228983854968956e-02,8.291800022125244141e-01
-7.022346993700609441e-02,-6.829454848497437114e-01,6.959755154074033223e-01,2.670346188273970967e-01,-1.665238179730197110e-01,9.832312646960451874e-02,1.325922846794128418e+00
6.262931067330113066e-03,-5.880242493211267352e-01,3.752529569242040730e-01,-1.328663051669036997e-03,-5.886663049585191126e-02,1.033502593309405457e-03,8.479512333869934082e-01
-6.582719692990263161e-02,-5.253863058573003952e-01,7.016694623418782140e-01,5.143614886384251239e-02,2.316218961642812352e-03,-4.804288974593172445e-02,1.080663323402404785e+00
1.162081607117268489e-02,-9.327300151760348212e-01,7.443691510482407514e-01,1.247955319850967970e-01,2.539534637525865945e-01,-1.108225508729904080e-01,1.548461794853210449e+00
1.739601510555043029e-03,-6.064105296332761297e-01,4.308659132198932595e-01,9.320396391425908936e-03,4.606332289053602369e-02,-2.460700873068436337e-02,9.074203968048095703e-01
1.843310364291535219e-02,-5.676967294205652603e-01,5.858052249528524769e-01,2.416284311911311329e-03,-6.619072233244410915e-03,-1.010420517229356982e-02,9.992338418960571289e-01
-1.708811877930611206e-02,-6.000191379290029658e-01,4.532732998442023931e-01,-7.660103664639837662e-03,8.891208594282164202e-02,3.027243936794428089e-02,9.283738732337951660e-01
-5.164106644555016903e-03,-5.849289917685162044e-01,6.053431903334105524e-01,1.155211643854832382e-02,-1.834618949217329403e-02,-1.868816265281847411e-02,1.032111883163452148e+00
-2.772597496057299313e-02,-5.052121272217144909e-01,5.333853477479312266e-01,-4.466729384767035085e-03,-9.020880468445463193e-03,-2.313020648850955610e-02,9.014825820922851562e-01
-3.456647247575371507e-02,-6.148305069213807483e-01,6.227683262730764335e-01,-1.768027313675507800e-03,-3.701949577072176888e-03,8.735261788398970481e-03,1.072614789009094238e+00
-7.387986775928688521e-02,-5.185174685975409981e-01,6.760275228103888034e-01,-2.396167739042784697e-03,-9.991262325692296803e-03,-5.591575350811761602e-02,1.050331950187683105e+00
-2.505048835269302332e-02,-7.316183509694463849e-01,5.844167021746760060e-01,-9.435530245321167321e-05,9.158183633443579830e-02,3.649440716354218628e-02,1.153462409973144531e+00
-9.465212463227673512e-02,-2.523039310929420243e-01,9.739570155051681111e-01,1.217601991868309114e-01,6.000611440521780304e-02,-6.650848485235587304e-02,1.184819221496582031e+00
3.289111634974723614e-02,-5.792899806950833064e-01,5.954906861169736443e-01,9.103485079210516320e-03,-7.744816660661985042e-03,-1.501229854628770982e-02,1.018234491348266602e+00
-2.401488225715805655e-02,-6.267155449895633890e-01,6.415623619449210002e-01,3.668561098346723864e-02,2.322083040602997139e-02,-1.301592697374829091e-02,1.101611733436584473e+00
-9.973190100162721006e-02,-1.174126542977200205e-01,7.418718510288662138e-01,-3.871389148290923371e-02,1.449982495658509382e-02,-1.101438445357962592e-01,8.746494650840759277e-01
-9.865012354702795694e-02,-1.808418641174467378e-01,9.137856009443502403e-01,1.556834066328241159e-02,6.098875489239431735e-02,3.384151016776054677e-02,1.063163757324218750e+00
-1.075629410524654370e-02,-7.395542264408878630e-01,7.715721000275359565e-01,-1.042073621122526980e-02,2.555444240856553084e-01,-7.841791367374235933e-02,1.388533830642700195e+00
-1.257179802015446768e-01,-1.496680806059482727e-01,7.499875537159961247e-01,-1.257392960964815072e-02,7.664195592076878359e-03,-1.033177658450962905e-01,9.061353206634521484e-01
-1.241596350599837306e-01,-2.669712035634539959e-01,7.853530664964692987e-01,-1.164209873254167388e-01,-1.137361413912841950e-02,-3.794328194090248324e-02,1.011368393898010254e+00
-1.302461875529345448e-01,-4.152283621180472561e-01,9.317032662498673234e-01,-1.757811071404555558e-01,1.145572457657911304e-02,-2.070626034761075419e-03,1.266764283180236816e+00
-1.026740463997325437e-01,-9.297184499757032983e-02,8.906948853663505528e-01,8.065888243144001685e-03,5.568456124456230144e-02,-4.223658531826601087e-02,9.960358142852783203e-01
-5.994113106799599244e-02,-3.976039067413235095e-01,5.649185636293909685e-01,2.996614818134236274e-02,2.076669510755859219e-02,1.755542376201202045e-03,8.482066988945007324e-01
-1.143225507219395864e-01,-1.290143848114004843e-01,8.776057774685203094e-01,-8.284451572435445887e-02,7.963199861871518570e-02,-4.638625067644969874e-02,1.022144436836242676e+00
1.010285734209362407e-02,-6.713640251816562765e-01,5.991196209895749414e-01,-1.218604207092529312e-01,2.299163089939033899e-01,-2.686731058878456813e-02,1.190811991691589355e+00
-2.766943301446915179e-02,-6.039825003749954568e-01,6.003726374145066380e-01,5.479806789390314009e-04,-6.337858323773142011e-03,4.553819321184717460e-03,1.043410778045654297e+00
-1.074363255709518891e-02,-6.064009441362340214e-01,5.243315525945924094e-01,-1.042564227314514425e-02,-9.957590450782303516e-04,-5.191348964879380530e-03,9.799206256866455078e-01
-2.797448945736471029e-02,-6.111409192607409890e-01,6.044576737275934031e-01,2.289259443642306571e-03,-3.394403702330359932e-03,-2.987177219004531238e-03,1.053063988685607910e+00
4.840765457277554709e-03,-5.911697166620869526e-01,6.108667006302884728e-01,1.384268164204970931e-02,5.539989849170180725e-03,-3.641705065212839324e-04,1.041326642036437988e+00
-5.775775926381375436e-02,-6.588069558094269418e-01,6.827847228038784744e-01,-1.847974037723701043e-02,9.463073900320712051e-02,-3.414091015267181617e-02,1.177349567413330078e+00
-4.638174543055033350e-03,-6.501548371394276771e-01,6.360734833727008652e-01,3.028119768300849713e-03,4.096720589063688328e-03,-1.033342424381599551e-03,1.113945364952087402e+00
3.014775126661393967e-02,-5.398184151280815968e-01,5.627165248250090013e-01,1.710152889656180175e-02,8.413852157942828397e-03,-9.329276955921336507e-04,9.555780887603759766e-01
-2.817233896345323896e-02,-6.281251279884531025e-01,6.156967349626490948e-01,-1.727534159690567728e-02,4.643366398334910355e-02,-4.206146648673604431e-03,1.080841541290283203e+00
-1.959487334357122926e-02,-9.909918574872330632e-01,8.990912371840331652e-01,1.809303874253371733e-02,2.449271911305649363e-01,-3.332013389791357166e-02,1.692420125007629395e+00
-2.729111376359795449e-02,-9.766745740028098810e-01,8.870195535695526434e-01,-5.594629558016505451e-04,-2.132024103448772745e-01,-1.730329819265584435e-01,1.682709813117980957e+00
1.640270438317755885e-03,-5.717793117052153429e-01,5.838861789062774754e-01,1.711121183552128527e-02,1.664632060189566963e-03,-1.832201857762783643e-03,1.001293301582336426e+00
-2.393613570223841053e-02,-6.289709094355361296e-01,6.308907532266179174e-01,1.502710269559694688e-02,-1.392767404597683792e-02,-2.749282289597716929e-03,1.091943383216857910e+00
-6.850109556038676967e-03,-6.452400484981409834e-01,6.524946582375437121e-01,1.615735465236997279e-02,-1.223528442938078171e-02,-1.311625648095957747e-02,1.124697566032409668e+00
-4.658441146396874455e-02,-6.897022633673903780e-01,9.474532215735341767e-01,3.786618619575417982e-02,-1.907010491557859511e-01,-1.687448414424176091e-01,1.496603250503540039e+00
-2.168281155486848771e-02,-5.969961492742791309e-01,7.243268208796427299e-01,1.509695218160226615e-01,-8.982078074827996861e-02,-9.138327056935825754e-02,1.197637915611267090e+00
-6.110754064600974755e-02,-6.553888563378331700e-01,7.515439192175157324e-01,2.857313456104105809e-01,-2.453038563083396184e-01,-8.031240363004765390e-03,1.386419415473937988e+00
6.944584917958529675e-04,-5.950338240704434734e-01,5.883665662494707016e-01,5.426101786141911999e-03,7.546895952984184266e-03,3.732545105143854434e-03,1.025009512901306152e+00
2.625994773477034055e-02,-5.592949551795816099e-01,5.715245932228300019e-01,5.059727557099234774e-03,4.163423280290712812e-03,6.909889377111454048e-04,9.795920848846435547e-01
9.884174003163374855e-06,-5.797920684831852078e-01,5.860261489524171141e-01,4.998058851099530797e-03,7.123290835931213143e-03,3.270888055637504160e-03,1.009761333465576172e+00
7.541799534029697272e-03,-5.752572615811070156e-01,5.815627314384720359e-01,-9.635924667914274374e-04,9.484906341162252508e-03,-2.378974893169083678e-03,1.001989722251892090e+00
-3.020165976158895038e-02,-6.419536500714156935e-01,6.350629886852161565e-01,3.160233079824450574e-03,-4.452983566566061629e-04,1.133872954566891508e-02,1.106440544128417969e+00
2.585605018552463927e-02,-5.692376208817105931e-01,5.732806944273827199e-01,1.938132131986532994e-03,5.663462557735509870e-03,3.668239304883813730e-03,9.898115992546081543e-01
-5.739862733770426106e-02,-6.592325092316391189e-01,7.173081327931885021e-01,7.014365555435712017e-03,-1.534682910618769859e-02,-1.146122845171723519e-02,1.195770740509033203e+00
-8.783927170836659803e-02,-9.962338566723507594e-01,1.036853695268674658e+00,-1.135888082407405103e-01,-5.908234194361251107e-02,2.830585230963464025e-02,1.778584599494934082e+00
-1.798717778441994222e-02,-6.493306429050110795e-01,6.612305918238933211e-01,2.439632770068485713e-03,6.860064028631816455e-03,3.189772444159747291e-04,1.135301947593688965e+00
-2.563198919851765456e-02,-6.163326398708728338e-01,6.019209692435653070e-01,7.096745394483154265e-04,-7.449603309052680537e-04,1.375942577879030009e-03,1.055203676223754883e+00
-3.111593891952988203e-02,-3.540203642422308783e-01,3.710265719352068836e-01,-7.083732703688155885e-02,6.817965454191785013e-02,5.738612090119906556e-02,6.593315601348876953e-01
2.423606235811085613e-02,-5.745819937593759086e-01,5.776638042092931968e-01,-2.905552743102480205e-03,-1.441429044971952579e-04,-2.396982979903748614e-03,9.981535077095031738e-01
-2.377506734884186554e-02,-6.175028938400974887e-01,5.800623876577711835e-01,-8.500956735457355007e-04,-8.954098191276147010e-04,6.192783445983556824e-03,1.037191987037658691e+00
-2.670074916839890872e-02,-6.048719571258571737e-01,5.784787896750983593e-01,-3.328686617104125584e-03,-4.277751798510453715e-03,-8.884283227782200851e-03,1.025059342384338379e+00
-3.136640509293125295e-02,-5.935735962977588542e-01,4.263560810696725989e-01,-2.695659989794486067e-01,1.842273859316684026e-01,4.849760706224225809e-02,1.053467750549316406e+00
-2.353496640136614956e-02,-6.123045709264144376e-01,6.016104380508887628e-01,-2.682522782803193478e-03,-2.419114640568779864e-03,-3.210193986040915225e-03,1.051471829414367676e+00
-2.746116504121651897e-02,-6.192072517719989788e-01,6.227523550435170030e-01,-2.565001116235035399e-03,-3.768427539956981879e-03,-3.679701620765480751e-03,1.076013565063476562e+00
-3.168244125200439520e-02,-6.122285120930107682e-01,5.847045012269788122e-01,-3.709079731041994843e-03,-4.044713969383603031e-03,-2.348468136407555647e-03,1.036780834197998047e+00
-4.228689002724105722e-02,-5.584254547976650329e-01,5.827570985040213536e-01,-1.882592745909769921e-03,5.683415481951066550e-03,-9.074428638747402895e-03,9.899711608886718750e-01
-1.753213696780256750e-02,-6.128001417627414460e-01,5.886305960618685162e-01,-7.082458400047449403e-04,4.745194670778416965e-04,1.137908605300748735e-03,1.040486693382263184e+00
-2.386440077561294976e-02,-6.248393821299805806e-01,6.083556836725521055e-01,2.997683220557153388e-03,1.391044709072245499e-02,5.523453491749455609e-03,1.068419694900512695e+00
-2.967302402703690667e-02,-6.080036554096367452e-01,5.859884541723303641e-01,-3.618351800116932030e-03,1.653833779282992906e-03,-3.972220337397008166e-03,1.034241795539855957e+00
-3.127845382818893877e-02,-6.122630212206865430e-01,5.916404141101512248e-01,-3.578563934689752563e-03,-1.499064616561904435e-03,-1.573412287956099448e-03,1.042847037315368652e+00
-1.491580437995157840e-02,-6.095201953256234040e-01,6.035817509005484416e-01,1.288506895573416017e-03,-3.014636184924872515e-03,-1.205640275749626051e-03,1.050662398338317871e+00
-3.069626878385607258e-02,-6.084132712847343250e-01,5.803430676599059534e-01,5.790634019711724889e-04,-3.426390158886897640e-03,1.069377519154196456e-03,1.029647231101989746e+00
-4.197341477698723899e-02,-6.038334516529143547e-01,5.703586877232198482e-01,-4.555283097203118199e-03,9.093960639876566771e-04,-2.934022891930206881e-03,1.017237782478332520e+00
-8.518360136615980849e-02,-6.902095548828448557e-01,8.738583836234452562e-01,-2.142104357141751680e-01,3.998489312668919438e-02,-3.919930228281109930e-02,1.418847322463989258e+00
-6.591784694402239540e-03,-6.290434715327249959e-01,6.113990456806475127e-01,3.101533917088072564e-02,-2.228976601115126299e-02,-1.738102486436981782e-04,1.076292037963867188e+00
-2.187201597945033146e-02,-6.270823796090800872e-01,5.749936196792944099e-01,1.074740121659884320e-02,2.186439888377487116e-03,-1.149422043656785856e-03,1.041211962699890137e+00
7.240896531943416536e-03,-5.936507499350571759e-01,6.115303148845973036e-01,-9.436684610505830656e-03,-5.879224171628190561e-03,6.522253850259057163e-03,1.043957591056823730e+00
2.098473729326097784e-02,-6.060235789434091913e-01,5.913558556830706969e-01,-4.543654329495177939e-03,1.347394632404827421e-04,-4.444581157817721964e-03,1.037406086921691895e+00
-7.821153879182063048e-03,-5.614156557198574093e-01,5.897650535782297254e-01,-1.765502251460180499e-02,-1.028776203791882150e-02,-2.934937621863133346e-03,9.978351593017578125e-01
6.542509040020416840e-03,-5.810004739810763486e-01,5.946707487923312829e-01,-2.047027616195579505e-02,1.797764847403322732e-03,3.772354121837853506e-03,1.018804073333740234e+00
-4.322683537434357515e-02,-4.994541511180798921e-01,5.802597068842975103e-01,-3.352876793337173505e-02,-1.523390669494832129e-02,-3.154786723462121509e-03,9.409723877906799316e-01
-9.631046951776631171e-02,-2.386219768323001311e-01,5.604055274092245575e-01,-2.212375772377696281e-02,-3.910351689415858881e-03,5.128120587443736784e-03,7.393103837966918945e-01
-6.775721176717153238e-02,-3.452825999326160078e-01,4.996680841379152471e-01,-2.043405274844992681e-01,1.524699379284909506e-01,3.780403444307058741e-02,8.693448901176452637e-01
3.171290207403790196e-02,-9.662474250998631664e-01,5.972561301062661032e-01,7.519544999070749969e-02,-2.647941860671116365e-01,7.978368766122156952e-02,1.458273291587829590e+00
-2.265922593563416895e-02,-6.142168564278523979e-01,5.847433969209570037e-01,2.945429624462564400e-03,-3.194099135631683125e-03,3.861162970402476705e-03,1.038409113883972168e+00
1.052022656840250273e-02,-5.635396473349030266e-01,5.864719413116914470e-01,-2.101570300081650675e-02,-5.714828067253758907e-03,-2.233773704646955464e-03,9.966613054275512695e-01
-4.590530243354269679e-03,-5.310427439192243471e-01,5.744391226165824760e-01,5.112364759470970632e-02,-3.787747688629313891e-03,2.514340979289322528e-02,9.628287553787231445e-01
-2.814451663075306226e-02,-7.056435944253526271e-01,6.779129370530537768e-01,-3.837553886257139002e-02,-3.643289930384747966e-02,2.751519536042046007e-02,1.202724695205688477e+00
-2.406877543494123639e-02,-5.276260690876485304e-01,5.887487354224647529e-01,-1.071700523683324652e-03,1.911688823893771191e-02,8.941969693572776601e-03,9.690426588058471680e-01
-3.109757002366177886e-02,-5.573482440364943002e-01,6.005670938363583122e-01,-1.445770649034236466e-02,1.886678692419584830e-02,1.092237061528685341e-02,1.005189895629882812e+00
-6.822348498698281583e-02,-6.119901013084892982e-01,6.070804009847232674e-01,2.295353978997556176e-03,-1.878193631156227159e-02,9.314054266061529141e-03,1.058423161506652832e+00
-4.108478711715801701e-02,-7.024753435125540291e-01,7.411173949536670191e-01,1.202597836865573581e-02,8.431792222361652114e-03,3.842477382979509609e-02,1.253672719001770020e+00
-4.094485076964340942e-02,-7.696021282898090066e-01,8.048238143919572707e-01,-1.280370862608620763e-02,-4.211067419988276557e-03,-7.830927322164988810e-03,1.365016698837280273e+00
-5.998497968996955448e-02,-7.770336557117987208e-01,8.041651217204558444e-01,5.846493473404938690e-02,-2.310760035199202825e-02,9.153639456177323219e-03,1.375739693641662598e+00
-3.494310858631195088e-02,-6.096266084853190215e-01,5.889541766906466469e-01,3.662453686581696420e-03,3.808105252579932227e-03,-6.286011503430000147e-03,1.038390398025512695e+00
-7.438733211509308829e-02,-8.310017478906441823e-01,1.011500041101024205e+00,4.990652455604212973e-02,-9.737360929556405920e-02,6.096162600769865214e-02,1.618728041648864746e+00
9.373950905386153887e-03,-5.989785902796442851e-01,4.454295871366277804e-01,1.222281678831002409e-02,-4.157088449804924833e-03,-3.717958057949978957e-03,9.088753461837768555e-01
-4.510119411116864097e-02,-6.270693104000253371e-01,6.262938320782355239e-01,-3.530302665183834582e-03,1.198092183716124165e-02,4.230835250871100434e-03,1.086604952812194824e+00
-5.146666117823588127e-02,-5.860986642096522869e-01,5.301147820124091359e-01,-8.951375183250284001e-03,-5.875439848969582664e-03,2.515294332417497124e-03,9.671418070793151855e-01
-4.441717104880560374e-03,-7.585645714147271068e-01,6.709479108601371644e-01,9.120948749123039545e-02,-1.706513569343931502e-01,3.330298574091810487e-02,1.284456968307495117e+00
-5.110347451767354582e-02,-7.201311244080031981e-01,7.259027726859601515e-01,-2.815014301637238422e-04,-4.325226672812194223e-02,-1.483608764733109105e-02,1.255964994430541992e+00
-2.461847969685593968e-02,-6.181529026194136911e-01,6.050974150430100673e-01,2.402607661996744928e-03,-3.491604694894186178e-03,5.528828997340171992e-04,1.059546113014221191e+00
-2.262454133235682410e-02,-6.180975800087024075e-01,6.072905083803985526e-01,2.362566959553203793e-03,-3.993399650741065866e-04,5.052922329014252097e-04,1.061365365982055664e+00
-2.850161653395491546e-02,-6.122192170296750779e-01,5.905116172724182988e-01,5.505888278444891724e-03,3.097034427439027994e-03,-3.521048084502733516e-03,1.041820287704467773e+00
-2.677882584415947065e-02,-6.165672578451435459e-01,6.034735632323866561e-01,2.939032760044834203e-03,9.666235912791994352e-04,-2.937065565777025045e-03,1.056805849075317383e+00
-2.673353108125367875e-02,-5.796266922264321497e-01,5.882732651096785892e-01,1.078955505618144073e-03,1.175411412074435329e-02,4.042716721115995754e-02,1.014533519744873047e+00
-2.322165024597592359e-02,-6.116942437315708858e-01,5.669608169545001797e-01,2.410520098337387042e-03,1.130190291852728977e-02,-7.891450216276511614e-04,1.020942687988281250e+00
-2.960658483099211022e-02,-6.122316774951669371e-01,5.888537305742211903e-01,5.155962566534273532e-03,2.812380137935514314e-04,-3.714114994553499149e-03,1.040383100509643555e+00
-1.999137678787938494e-02,-6.085871790331823794e-01,6.018264969499572681e-01,-1.377369406213971997e-03,-4.516194921584552879e-03,-1.049947175732880364e-03,1.048414111137390137e+00
-2.498796973318872031e-02,-6.158164034070090498e-01,5.979120960503487847e-01,2.308919011634004512e-03,7.346500474353695920e-05,-2.973762894665324917e-03,1.051262259483337402e+00
-1.880175401887241096e-02,-6.173751198843913102e-01,6.031418117004984092e-01,-1.178225881776848562e-03,-1.938512438790407257e-04,-5.925278212040151898e-04,1.057065725326538086e+00
-2.658448266743120708e-02,-6.180120742809607215e-01,6.015548891559681088e-01,3.142740828654930034e-03,-1.255809556186017256e-03,-1.949337812208561246e-03,1.056357145309448242e+00
-2.098718125163584816e-02,-6.076706130831321939e-01,6.180987959445354285e-01,1.624001926640281568e-03,-1.043530422063565499e-02,-7.042401922798142803e-03,1.062098383903503418e+00
-7.466613559044829596e-02,-2.273902404521967457e-01,5.201773245354416320e-01,1.465331166308356248e-01,-6.541830641476219232e-02,2.021610173484565676e-02,7.392502427101135254e-01
5.978104790358412975e-03,-5.993889026575581758e-01,5.941792292412476639e-01,-8.207194122452570557e-04,-6.366775410379332811e-03,2.203626735831739052e-03,1.033762812614440918e+00
-2.012720155509402017e-02,-6.185500307498674744e-01,6.064134000052948670e-01,-7.259615077054206844e-04,-5.216336143111253119e-03,-2.439710501372834299e-04,1.060981869697570801e+00
-3.968641383015760610e-02,-3.508155071553685778e-01,4.236981476843266203e-01,1.716356044497135414e-01,-1.220205827380007463e-01,6.882520924144137908e-02,7.765005826950073242e-01
-3.228391285289604340e-02,-3.943036335272265269e-01,6.383704419920240847e-01,1.000713447164011394e-01,3.635472894795743759e-02,4.291293294578932271e-03,9.261148571968078613e-01
-1.029821167051250819e-01,-3.806355480974646932e-01,7.597039185026731589e-01,-2.468379814509450432e-01,1.827670743867270409e-01,-1.045517684482032000e-01,1.173302173614501953e+00
-2.082436978175317838e-02,-4.440568112142502799e-01,5.673655645109827450e-01,4.492591219194708857e-02,1.191233762587414965e-02,-5.142060990500575170e-03,8.835124373435974121e-01
-3.528469438330356783e-02,-6.118039370325141224e-01,5.953508859247547136e-01,1.470980248808230299e-03,3.016046559131117799e-03,2.665206114125833609e-03,1.045803189277648926e+00
-1.656963103004367027e-02,-6.044425667792628909e-01,5.238793792648019920e-01,8.365818481014938510e-03,6.404597888608098283e-03,-1.747701930528496386e-02,9.780820012092590332e-01
-2.297931726800379187e-02,-6.127112394058290556e-01,5.629760540415645886e-01,5.358079736036577140e-03,9.400007520263159097e-03,5.231105400886158253e-03,1.018389582633972168e+00
8.462886993059092616e-03,-6.124984558093514719e-01,6.092077826646193905e-01,9.034254934688410029e-04,-7.571686205107320232e-03,-9.479789016255242562e-03,1.058286786079406738e+00
-2.545100990040105940e-02,-6.087382420222712254e-01,5.771349156175550332e-01,1.405315354679507632e-03,8.054543384990460464e-03,-5.610361897640992260e-03,1.027185201644897461e+00
-2.920951025283512539e-02,-6.135196010276807721e-01,5.950134137273747070e-01,2.058405267912801016e-03,-2.321018581310077978e-03,1.281997476405729534e-03,1.046826720237731934e+00
-3.098548194845041071e-02,-6.121577507080790959e-01,5.897003765030427447e-01,5.204564276038685031e-03,-2.543622082101776056e-03,9.144186255497741564e-04,1.041076660156250000e+00
4.499675644538297936e-02,-7.144170929849806839e-01,5.213957073723488600e-01,-3.635514423441281451e-02,-2.305813004700457691e-01,4.831960032842682294e-04,1.152787208557128906e+00
-9.512966618803084251e-02,-3.629038898955704862e-01,5.735421208957802719e-01,-7.066708884814550118e-02,7.668700453626187477e-03,3.129473399782962961e-02,8.461525440216064453e-01
-2.142885847316312181e-02,-6.123307726877527113e-01,4.215047770470560229e-01,-6.139134652038026954e-03,-1.029659094422967353e-01,-1.481890087208011762e-02,9.163314700126647949e-01
-1.231993506364805757e-01,-2.997108897472725575e-01,5.830672871534974266e-01,1.224374971481852897e-02,8.576034962251915042e-03,9.422456761081478283e-03,8.096726536750793457e-01
-5.622683683262751780e-02,-5.963663982717061218e-01,5.274650910865426034e-01,-1.714571466509540870e-03,-3.382157013695970271e-02,2.034672044531035106e-05,9.752756953239440918e-01
-2.565832905281063142e-02,-6.153291983425490663e-01,5.993828436476834609e-01,-2.965417156129275013e-03,5.115018436477881654e-04,-2.173162884005471873e-03,1.052139759063720703e+00
-6.487581458909158147e-03,-5.936027674547096344e-01,5.940983844147663673e-01,-9.770846598377120554e-04,8.420001639171788288e-03,-3.251257821268133379e-03,1.028721570968627930e+00
-4.377588099788096154e-04,-5.725436188896761980e-01,6.964770935041690869e-01,9.201883173324908183e-02,1.036634646753508858e-03,6.702086028936994622e-03,1.112315058708190918e+00
-1.888897575003364859e-02,-6.106408387401451865e-01,6.166320016522760517e-01,-4.341594409711066233e-04,-5.994078791004737311e-03,-3.960799873299019128e-03,1.063147783279418945e+00
-8.507744143336357090e-02,-2.929248747055441249e-01,5.355763626551441892e-01,1.585959089833494443e-02,-3.971725334681520947e-03,2.722812819566445414e-02,7.486247420310974121e-01
-7.036932632429529488e-02,-4.192255337242241642e-01,5.839654031249487121e-01,1.339255571994426436e-02,1.536969555778946138e-02,3.082811853707822722e-02,8.844327330589294434e-01
-6.087469950709599453e-02,-5.025062804678055439e-01,6.087330901376341030e-01,1.056515229189041762e-02,7.468439833123531428e-03,2.936695363364837802e-02,9.706814289093017578e-01
-7.479460976814911177e-02,-3.523605523126028261e-01,5.727305996312401781e-01,-3.655711777952234259e-02,-7.640406156262566882e-03,2.125464717032871098e-02,8.255921602249145508e-01
1.108599533728105851e-02,-5.348676021160913008e-01,5.710847842394743967e-01,-8.867566059595974326e-03,-7.886638532159401249e-03,-2.617639175386363582e-03,9.580398797988891602e-01
1.023763992563849271e-02,-5.345190330844098447e-01,5.767659122083073076e-01,-5.454928233268284410e-03,7.109924797302329298e-03,3.269277135670767710e-03,9.626043438911437988e-01
-1.376757618636040639e-02,-9.264258941728246155e-01,8.470938297074794843e-01,-5.114805711618864575e-02,-6.669518151773613790e-02,8.865716950092127069e-02,1.550636410713195801e+00
-1.023867183528660851e-01,-2.303482236539856065e-01,5.549573637657100322e-01,3.065459979368491059e-02,1.434545445427383957e-03,-5.423707791003470891e-03,7.317811846733093262e-01
-5.095767178579388434e-02,-6.349518147060075890e-01,6.029076957656371860e-01,-8.745289265295948244e-03,-5.669905656585089160e-02,1.412878992203679858e-02,1.077457785606384277e+00
1.184831102186146429e-02,-5.658001961031903226e-01,5.861308104558503596e-01,9.123812315480811855e-03,-9.013547960408967857e-03,-4.858786033738512339e-03,9.978857040405273438e-01
2.829057888860842668e-02,-5.899267178238879472e-01,5.836684385530677144e-01,6.877924132826588807e-03,-9.895617963809231424e-04,-1.413416553747522250e-03,1.016922950744628906e+00
-2.098654431734356396e-02,-9.056618057027792101e-01,7.793875782715997680e-01,-6.744491701063398681e-02,-1.982133038387479673e-01,6.390614090181565010e-02,1.508338212966918945e+00
2.399348626194948084e-02,-5.876539311017514589e-01,5.860402836244413827e-01,-1.491625779459491465e-02,2.203576185765387507e-03,4.033886584255548004e-03,1.017110824584960938e+00
8.000716609262326084e-03,-7.579524019319088257e-01,6.623658709718572846e-01,5.299642386933995503e-02,-2.113117412765324887e-01,2.463576207295399556e-02,1.288524508476257324e+00
-1.449062195432036793e-02,-6.052945679188748151e-01,5.990106329419486730e-01,-1.938431184530506985e-03,7.447947317413699826e-04,-3.516772824070066566e-03,1.043044686317443848e+00
-4.565365869298640411e-02,-7.136639445592947162e-01,7.416173213227709171e-01,-4.076044206876242026e-02,-4.769214380839714024e-02,-1.602778054416424680e-02,1.266695261001586914e+00
1.218662529054020949e-02,-7.028173755663539302e-01,5.155114812848313743e-01,-3.378231224891958817e-02,-2.111410557158576173e-01,4.142991510464433952e-02,1.125504612922668457e+00
-2.588899906446956792e-02,-6.355638518656446800e-01,6.201467606282167200e-01,-9.465337514173732814e-02,6.906869237715450305e-02,1.577123726527766487e-02,1.106739759445190430e+00
5.812639826770646390e-03,-6.275314471119869397e-01,5.061289509591363478e-01,1.106509032052284576e-02,2.766146778890763921e-02,1.087784498004869607e-02,9.855614304542541504e-01
-1.468172514112697086e-02,-7.059188105233427102e-01,5.863580722094768882e-01,-5.901958564300080479e-02,1.012745093141221020e-01,-3.700989411646362845e-03,1.138322949409484863e+00
2.370641107938337155e-02,-5.644868420328184033e-01,3.974103720451714894e-01,2.033233356568989788e-03,3.654214794377680375e-02,-2.128011593730862530e-02,8.430972695350646973e-01
5.094510556811530921e-03,-6.210961699864711028e-01,4.943004956089855906e-01,7.353632516394176255e-03,2.447534685862576276e-02,-2.627031770776170477e-02,9.704654812812805176e-01
1.516746304061977052e-02,-6.142754820108542457e-01,4.879939474499085383e-01,3.721374329123879575e-03,1.836283962598814212e-02,7.686147403349575906e-03,9.584419727325439453e-01
1.003107441241057884e-02,-6.425602837855014515e-01,4.524534238620843141e-01,5.095697293306823000e-04,8.046549238614995880e-02,-5.274661189075900269e-04,9.642404913902282715e-01
-6.120418687971952015e-02,-9.955122367140287754e-01,1.024746794294311814e+00,-2.045475399464300459e-01,1.802158007800711836e-01,-1.952973801732049014e-02,1.814092159271240234e+00
-4.090739146131763121e-02,-6.409318476447930513e-01,6.611129728302032049e-01,-1.922632156948166126e-03,-8.133285900811575153e-03,-2.129291029427329666e-03,1.128855347633361816e+00
-2.765889059895657552e-03,-6.167002287592394660e-01,6.232777886068807671e-01,-1.273411224493997337e-02,5.451193375230008534e-03,4.302322776429438021e-03,1.074163317680358887e+00
-1.373511459254788368e-02,-6.156198485115953467e-01,5.985238625591241535e-01,-2.668294002322386949e-03,9.428164114853966127e-04,3.230337408056395323e-03,1.051518440246582031e+00
1.674741707775987895e-02,-5.985225852099735899e-01,5.967829616993299835e-01,-9.162151500942183890e-03,-2.961618726599719691e-03,-1.716189286379280388e-04,1.035449266433715820e+00
6.130197345821927768e-02,-5.758491261346140311e-01,3.253536867237048491e-01,-6.397859365299087518e-03,-4.800608955469694294e-03,-2.627617714110881686e-02,8.038587570190429688e-01
2.237244983002356635e-02,-1.136238918240651596e+00,7.897380931130724147e-01,-6.742345951450555430e-02,1.776718136483168009e-01,1.432967298632778497e-01,1.729233980178833008e+00
-4.820985654692924727e-03,-5.505933413196680837e-01,6.026265910505472778e-01,-6.047391890819694971e-02,2.345590867218507944e-02,-1.587911727695488773e-02,1.005865931510925293e+00
-3.976274185123943039e-02,-6.064206114048826812e-01,5.771639812778428524e-01,2.076710426980959111e-03,2.758623183932866745e-03,-2.196734965179189709e-03,1.025346994400024414e+00
-4.401906651268795712e-02,-6.041222713943774636e-01,5.571373539585450230e-01,6.504870947107553245e-03,-5.917701487342922999e-03,4.392698803512075020e-03,1.006033897399902344e+00
-2.047318694400493411e-02,-7.239973045286597353e-01,6.875919076099823446e-01,1.415582537135548664e-02,-2.395750917606348507e-02,5.439372256678431158e-04,1.223424315452575684e+00
-8.206801998230921213e-03,-4.778965591440478278e-01,5.654815894522222663e-01,-3.260286137263409406e-02,-8.110415058721382950e-03,-2.394802061365546887e-03,9.069651365280151367e-01
-1.241008653559827479e-02,-5.645339656845759224e-01,5.529136874182537520e-01,6.327537466431600033e-02,-7.161306716701915098e-02,-2.476476753782331022e-02,9.827497005462646484e-01
-4.815954944481025402e-03,-5.959892599288866277e-01,5.895437935354502779e-01,3.631258763788058029e-03,-2.346296595084338462e-04,1.355497958005460763e-03,1.026725053787231445e+00
-2.105249245922074727e-02,-5.984741144416300118e-01,5.665257405336281415e-01,-3.988468112028421050e-04,1.669029402484121377e-02,2.571822501319350959e-02,1.010329008102416992e+00
4.904866175959649022e-02,-9.506490456896835584e-01,5.103241374280296228e-01,6.843707315158507887e-02,-1.977204529181215142e-01,9.838699756439689761e-03,1.343476057052612305e+00
-2.022752879686382649e-02,-6.093071336472939414e-01,5.411009232794143919e-01,-1.213550469311520767e-02,1.741969018421285660e-03,5.504851570013692338e-03,9.966510534286499023e-01
-4.406959904048789178e-02,-4.679314808148142824e-01,5.717336648753069683e-01,-2.182462181033111709e-02,2.649568776090029804e-02,1.569006643638925363e-02,9.078334569931030273e-01
-6.008300326150603499e-02,-6.015823775755341218e-01,5.609470463286619912e-01,-9.475763098591696767e-04,-8.612389678467906665e-03,4.455559260127413962e-03,1.007706284523010254e+00
8.358411020015413251e-02,-7.488433291921504642e-01,3.070866012120273547e-01,1.033325247062045517e-02,1.228219159640139835e-01,1.694907019108811974e-01,1.029900789260864258e+00
-2.210841623347206686e-02,-6.044247474651962548e-01,5.115297646573859769e-01,1.892512294858030020e-02,-1.691649461023630226e-03,1.186943382087773426e-02,9.675298333168029785e-01
-3.029510195847439150e-02,-6.175622835584539949e-01,6.164845931258514655e-01,-6.262800184334259453e-03,-1.257977793413781907e-03,-9.789426582707265630e-04,1.069188714027404785e+00
-2.442411077316559292e-02,-6.154871315975080082e-01,6.182723204277127405e-01,-2.429056479226334581e-03,-4.292904047942018521e-05,1.821949319825956525e-03,1.068791866302490234e+00
1.612540669492543502e-02,-4.680515899512557310e-01,5.512800692759206589e-01,3.672024736482263491e-02,-2.432501894300555592e-03,-2.045104579603465762e-03,8.854393959045410156e-01
2.911806757332857654e-02,-6.118445441945017382e-01,4.802561004371020958e-01,-1.127300501036618552e-01,2.100976323278704594e-01,-1.417498642585814095e-01,1.065057516098022461e+00
2.693695439750745657e-02,-5.894313040390851688e-01,4.153308995770284007e-01,-1.650832393439846972e-03,5.085819009428173970e-02,-3.594180866795222695e-02,8.841926455497741699e-01
2.726632262378399230e-02,-5.853179266227092059e-01,3.880714045812426183e-01,-7.929557702868704483e-03,5.021489342082288698e-02,-9.723442312883745335e-05,8.568643927574157715e-01
-1.773879785671473794e-02,-6.154182610135454645e-01,6.011337755952098627e-01,1.532218499171894858e-04,2.345268599493450287e-03,-1.688687567246834271e-04,1.053626179695129395e+00
-2.740807437237956223e-02,-6.105358419510598100e-01,5.546394966729272236e-01,8.673741280751429486e-03,2.493627222300079729e-02,-1.625795682156994451e-02,1.010499715805053711e+00
-3.201778875813653807e-02,-6.282303312601883460e-01,7.100273539358267216e-01,1.759222038593177828e-01,5.167303933074789829e-02,-1.041283746403266243e-02,1.204034209251403809e+00
3.859347579465362277e-02,-6.459686816945829912e-01,4.297014031144772983e-01,-5.207892673162160813e-02,2.183660037295879486e-01,-7.458437677286094449e-03,1.020138740539550781e+00
-1.205241471570739353e-02,-5.079544140100870075e-01,6.144288695325015315e-01,7.621248106457044480e-02,-2.052303858165511422e-03,-6.365197070198273799e-02,9.892741441726684570e-01
5.801335017577735620e-02,-1.023585940053519217e+00,5.748822230639308861e-01,1.119320074760121742e-01,1.522859287479774171e-01,6.446910012446104010e-02,1.454538941383361816e+00
-6.668773623999528499e-03,-5.984690840410031853e-01,5.941558506269485340e-01,9.533954580255034859e-04,4.947575808708102284e-03,1.957710107681085929e-03,1.032895803451538086e+00
-1.751082216165934791e-02,-6.149647457911548987e-01,5.261574921364313706e-01,-5.191772616005916295e-03,3.521736566570961985e-02,4.951188514987966797e-03,9.905647039413452148e-01
-1.672113629639619334e-02,-6.266407508161079276e-01,6.019244700535950621e-01,9.658648023531722290e-03,1.442019505005436453e-03,-1.694071522744116515e-02,1.064516544342041016e+00
-1.883178315305647499e-02,-7.094380463104240642e-01,6.016716857233762594e-01,-1.707989006926214151e-02,9.297090144400112222e-02,4.069572832480097477e-03,1.147754669189453125e+00
-6.315099151461311608e-03,-6.106554661215165547e-01,5.975058678195596107e-01,2.132268369281053316e-05,6.251906006000165425e-03,-2.192341034593540267e-03,1.046361327171325684e+00
-6.493189466993475045e-03,-6.010729702273528430e-01,5.945651296319990342e-01,-9.377001290370292957e-04,5.100785064810819079e-03,2.215112531888357994e-03,1.035504102706909180e+00
-2.207349857035839288e-02,-5.489862511702605641e-01,5.285562718404970273e-01,-6.274338321229666615e-02,7.489622671603521353e-02,6.347135128246260416e-02,9.548237323760986328e-01
-2.501376929121955361e-02,-6.042020056823050878e-01,5.824413176342543297e-01,-3.228840460994225180e-03,2.831552145852874250e-03,1.891629727548447843e-03,1.027792572975158691e+00
-3.105008120793414927e-02,-6.160142848542783378e-01,5.997595982749356347e-01,2.676373711878471222e-03,-2.577778178419994244e-03,1.380080521122644657e-04,1.053160309791564941e+00
-1.133146730677637819e-02,-6.099668864256675427e-01,6.015490786775506971e-01,0.000000000000000000e+00,1.684646223314734961e-04,7.971458187170036690e-04,1.049228668212890625e+00
-1.906015687425806002e-02,-6.642670480170586034e-01,6.410564201664281647e-01,-1.004135205912193435e-01,1.301872640946805659e-01,-6.530779208822357074e-02,1.171259045600891113e+00
3.634980446516129782e-02,-5.978684657156152493e-01,3.658432515415138142e-01,-2.975153553517761052e-03,-2.176083480313003790e-02,-2.862350828931355465e-02,8.506906628608703613e-01
-1.797861825881764616e-02,-6.111359200807329195e-01,6.008588234324000465e-01,2.703111107759310384e-03,-1.206478614777341452e-04,-2.369017209401787314e-03,1.049715280532836914e+00
-4.349350391734072355e-03,-5.792011313694873653e-01,5.978397412914304709e-01,-2.591642457477452352e-02,-1.212617902706683570e-02,1.833087848885954496e-02,1.021136641502380371e+00
-6.454052660101072814e-02,-5.960426079374676611e-01,5.630755651429800723e-01,-3.731566476114086487e-03,-3.814582748285123143e-02,-6.664705311439974439e-03,1.007231831550598145e+00
-6.645181617424464338e-02,-5.995574262184431014e-01,5.662639829585275342e-01,1.637902335295911586e-03,-1.549781407690882171e-02,8.028432519659723515e-03,1.011314630508422852e+00
-6.756038582041984375e-02,-5.923411729168281958e-01,5.701537100479185938e-01,2.878780721643491979e-03,-1.652664245073117572e-02,1.130847464341814927e-03,1.008752822875976562e+00
2.180279194144377208e-02,-1.090912406237771304e+00,7.475316387478884161e-01,-7.359247400867097166e-02,-2.387507589426676735e-01,4.464776042764868891e-02,1.663003444671630859e+00
-3.593729752304682806e-02,-5.739455426434457719e-01,6.047521024651240085e-01,-1.130556316404815881e-01,9.095249788072369210e-03,1.120325898858565150e-02,1.040961742401123047e+00
9.345138528531960614e-03,-7.006492189421432704e-01,6.874446423106194137e-01,5.654246489150119293e-02,1.416140822284073925e-03,-2.053377343709916411e-02,1.206739306449890137e+00
-6.210848533381403691e-02,-5.896731685917395716e-01,5.547396462846054810e-01,2.931703232475290450e-04,-4.525977701689137822e-03,-4.189835745943791263e-04,9.921268224716186523e-01
-9.631447577622365142e-02,-3.284662856524667718e-01,5.491940369187501281e-01,-2.113160760916114878e-02,-3.204395568222707675e-03,1.600622417518821755e-02,7.890315055847167969e-01
-6.216028240714709108e-02,-5.915889805772663879e-01,5.476270402620180278e-01,3.638821864378433504e-04,-6.352851976857953539e-03,4.255769529125557130e-03,9.874968528747558594e-01
-7.647393952851358478e-02,-6.008599748064880064e-01,6.072888772479004826e-01,3.090334803974970068e-03,-2.350407095528397883e-02,2.800722529224947133e-04,1.050121068954467773e+00
-2.740144224742746201e-02,-6.081596608771874246e-01,5.983084468320409854e-01,1.809595846996591459e-04,2.177183363906117983e-03,-3.276079305438416196e-03,1.045096039772033691e+00
-2.613542496105842466e-02,-5.693899707844571889e-01,5.745180389014661326e-01,-2.094439523861681054e-03,2.703399562591054031e-03,1.335729247606381662e-02,9.913567304611206055e-01
-1.018477079047318545e-01,-2.523631517865367324e-01,5.395119439442859210e-01,-2.850316283963761146e-02,4.710638377140628254e-03,-3.313153209291745498e-03,7.301153540611267090e-01
-3.181127291186012368e-02,-5.867199863077422473e-01,4.734592890807551857e-01,-8.649898159619652180e-03,-2.249461012603064247e-02,-9.462747487338142582e-03,9.195717573165893555e-01
-1.282724019355086995e-02,-6.031740631437226829e-01,5.991099390289820192e-01,-2.613787306605459999e-03,-6.250539332057605639e-03,3.788864224160660814e-03,1.041351199150085449e+00
-7.651182273111445387e-02,-3.938781262555405283e-01,5.703939814896097360e-01,-1.053872734515005644e-03,-1.790495007483462395e-02,-9.749018586102720096e-03,8.519183397293090820e-01
-6.120037975433624544e-02,-4.782324220975837092e-01,5.824735509094968178e-01,-2.163144032992669885e-02,-1.552854283692979391e-02,2.237660988521965322e-02,9.275202751159667969e-01
-4.094220518338277659e-02,-6.066338419169206020e-01,5.825299229657728839e-01,3.093321977383113250e-03,9.919802804100499426e-04,-3.768561588463279974e-03,1.030287265777587891e+00
-2.032274037389086851e-02,-5.571316126080984032e-01,5.711515475039354861e-01,-2.424647889749908386e-02,9.534332211820298678e-03,7.635029127955980655e-03,9.786345362663269043e-01
-2.768527426896016594e-02,-6.141737337482535697e-01,5.962694674126292060e-01,-5.772771730301217612e-04,-3.326642364440956243e-04,-8.761062052208019174e-04,1.048443675041198730e+00
-6.958021867782550676e-03,-6.029607063186971372e-01,5.971367334867822008e-01,-2.615779854072834091e-03,-7.937267502778766123e-03,3.597473541809370710e-03,1.039442181587219238e+00
-6.151931425939867470e-02,-5.956102163239986869e-01,5.533467336056709929e-01,-3.741459793501147532e-03,-3.040954600890807824e-03,-1.615658218831715837e-03,9.958841800689697266e-01
7.379022952953624703e-03,-6.067671262659967146e-01,5.950719767238213942e-01,-8.596019896538983560e-03,-9.668725212531835422e-04,-1.151310523226136036e-03,1.041016936302185059e+00
-9.468872478227970818e-03,-6.008025416555970999e-01,6.003750060778002551e-01,-5.642907587349898710e-03,-2.233286674948957093e-03,1.176304590227989291e-03,1.040346503257751465e+00
-1.438471838772026334e-02,-6.029990307425823204e-01,4.712155633296505330e-01,1.566360755744897887e-02,-2.802654269153344313e-02,1.791171799580410992e-02,9.338954687118530273e-01
-2.708872256675189105e-02,-6.158540645454457785e-01,5.982504740931814391e-01,3.916996377447669320e-03,-2.165892965964061334e-03,8.057735744760128466e-04,1.051633834838867188e+00
-1.344721869292015391e-02,-5.981023782321707172e-01,5.991972925759647683e-01,1.436334028280467426e-03,-4.974981452799223311e-03,3.610392066288416191e-03,1.037044048309326172e+00
-2.190762953957060138e-02,-6.160240782032938567e-01,5.942736907052724726e-01,7.964826164898477188e-04,1.193112686572283913e-03,1.448418089785210010e-03,1.048212647438049316e+00
-3.445404522069549225e-02,-6.139240589837987594e-01,5.922224796189314855e-01,1.818294720572491462e-03,4.537915668949024650e-03,-2.206724695611653100e-03,1.044861435890197754e+00
-2.668116304872347050e-02,-6.185835878442023095e-01,6.088166906211834872e-01,-6.110626026506370961e-03,-3.632270744096437621e-03,-5.160053632738922404e-03,1.063292145729064941e+00
-3.382639410505330901e-03,-6.014055918581932003e-01,3.905623940637965585e-01,1.138525547312746987e-02,-7.910091288065626558e-02,4.440767628149303037e-02,8.794817924499511719e-01
-7.778208701014906190e-02,-4.947467276190761210e-01,5.942258844529169082e-01,5.836557834093429598e-02,-1.132068482288297109e-02,3.186993044850251755e-02,9.588059782981872559e-01
1.390198397505942873e-02,-5.787213664498093157e-01,3.254191279284393556e-01,-1.674498519832813906e-03,-1.218330057550821022e-01,-1.803469356057006007e-02,8.236332535743713379e-01
-1.887140094102008128e-02,-6.134336481129072371e-01,5.643248246833565407e-01,-1.241878377487512335e-02,-4.747694286440329141e-03,2.535542886488648812e-02,1.021189332008361816e+00
-2.876168358387749813e-02,-4.013282901835454886e-01,3.799437206622863772e-01,3.832650307245440147e-02,-3.853736650826545401e-02,7.731112338146189922e-02,6.963542103767395020e-01
-2.665507025774626129e-02,-6.193590757393748758e-01,6.089565143394861657e-01,-2.394621235689378593e-03,-5.189824384646835216e-03,-5.013025410858466986e-03,1.064050316810607910e+00
-2.490454386630219785e-02,-6.238548992884823674e-01,5.949123927669028866e-01,-3.117179674073538177e-03,1.360316214875675368e-02,-5.473290354441976216e-03,1.055854320526123047e+00
-3.086725396422439552e-02,-6.112921158881440276e-01,6.194449343747965298e-01,-3.042019949793520715e-03,-2.176466733084639598e-03,2.840039192014801993e-03,1.066453218460083008e+00
-3.746700614669463969e-02,-5.967689558062541089e-01,4.709929192546857823e-01,2.910794738545374456e-04,-9.531684860252472025e-02,-2.850210061283483393e-02,9.409708380699157715e-01
-7.388496577294602352e-02,-6.135065856972691245e-01,6.003056943177320637e-01,5.592373916229212601e-03,-2.819919003834428853e-02,1.342646252544881652e-02,1.054776072502136230e+00
-2.968997384543681922e-02,-6.065334898341919745e-01,5.205487950178443457e-01,1.642944426934984589e-02,-1.473617688336207980e-02,1.344920851656733474e-02,9.771984219551086426e-01
-2.024043919652689788e-02,-5.924679124532016283e-01,4.883002016213473517e-01,1.610421086129442195e-02,-4.973785166858942126e-03,-3.674617338238755503e-04,9.369692802429199219e-01
7.889132912713689438e-03,-6.986014222456647937e-01,4.229146765339305558e-01,-8.969331849706434212e-03,-1.364662665229523786e-01,1.760299426480559787e-02,1.010755538940429688e+00
1.032810743182513979e-01,-9.772058000664972655e-01,3.660409904971195783e-01,-6.912976236945456154e-02,-1.910323952666949654e-01,7.745737417006504089e-02,1.289270758628845215e+00
-1.013059033181261392e-02,-5.333071346952396041e-01,5.805036292983682955e-01,4.925721658078398291e-04,1.947032846459718566e-02,-6.711196114631281899e-03,9.658372402191162109e-01
-4.139365754402181408e-02,-3.357858924655309774e-01,5.510096848126060376e-01,8.835299253238383665e-02,2.682848414019655195e-03,3.207133492810323311e-02,7.990829348564147949e-01
-2.984437501358760264e-02,-6.058034700258800864e-01,5.457694474069448853e-01,9.451473111028362017e-03,-1.725434901521035640e-03,3.756803455894117561e-03,9.974514842033386230e-01
-4.256310314856509569e-02,-6.259314054297349106e-01,6.012667173839552071e-01,-6.430059104016352077e-03,4.618066335184963650e-02,-2.493902110603953611e-03,1.066286087036132812e+00
-9.252712025034565135e-02,-8.912337513356290986e-01,1.090805747861412822e+00,1.462361514727053280e-01,1.565039927963660787e-02,-5.354522603907706929e-02,1.748380899429321289e+00
4.963863274392621427e-02,-1.094058050707236829e+00,8.253271972284421665e-01,-1.082525172940021346e-01,3.432846232020048127e-01,4.058595104948456087e-03,1.784832119941711426e+00
-3.384541324992974831e-02,-6.551640451059621562e-01,6.537124789252304335e-01,-5.008017672305882430e-04,1.177605086256381869e-02,7.540875614487539680e-03,1.134263038635253906e+00
2.708504089607634280e-03,-6.948992008862857617e-01,6.539630279366624999e-01,-6.649435199583707268e-02,4.230666827927095051e-03,2.054729321434895992e-02,1.174603700637817383e+00
-2.257059458526628620e-02,-6.428505367797285874e-01,6.617719863355526755e-01,-1.338661665751529964e-02,1.529221132408028336e-05,2.486712785209319737e-03,1.130536198616027832e+00
-2.559275439467577004e-02,-6.255184163749385462e-01,6.301212978813010013e-01,-1.308359644040334689e-02,1.893867454550186152e-02,-6.192694335426651838e-04,1.088504552841186523e+00
-1.682945113718607374e-02,-4.578241895928454874e-01,4.667561268242499950e-01,8.146992839447855447e-03,-2.274100150654261021e-03,1.169183114209524157e-02,8.013830780982971191e-01
-2.449827983716128602e-02,-6.125841133437799346e-01,5.890132262983202027e-01,-7.395837011258141278e-04,-2.510124542867381986e-03,-3.908931902375114772e-03,1.040723323822021484e+00
-2.387820510646144340e-02,-6.159979442938767757e-01,5.966612517869955834e-01,-1.308692929089131447e-04,-8.139671844197470191e-04,7.917622736878448478e-04,1.050291657447814941e+00
-2.263527852877003643e-02,-6.166097506520962224e-01,6.010876575848442815e-01,-2.262197977191049512e-03,-6.069728061238049716e-04,-1.679351832633422430e-03,1.054673552513122559e+00
-2.461046096532936919e-02,-6.177718750741185705e-01,6.018409461968098340e-01,-2.027537213988852074e-03,3.270898697226529931e-03,1.127991500652760631e-03,1.056369662284851074e+00
-3.724149704583957360e-02,-5.575313141174440545e-01,5.798846137061229866e-01,5.118974819135323900e-04,8.195316771353230653e-03,-9.148800442783553213e-03,9.864501953125000000e-01
-1.958292637552289800e-02,-6.160443484217267285e-01,6.027645560064929242e-01,-1.890221592710543278e-03,1.462065359471965672e-03,-8.599753146003244345e-04,1.055608034133911133e+00
-2.233357249228824781e-02,-6.065142876572634512e-01,6.023045322269861002e-01,5.032346046481198489e-04,9.800048556647501102e-03,-3.084366889080343913e-03,1.047214746475219727e+00
-2.321604877013880904e-04,-5.970571887263939059e-01,5.923486633583731065e-01,7.826353800666841290e-03,6.358834271567024785e-03,2.327662743179455349e-03,1.030213832855224609e+00
-1.182559361413151704e-02,-5.947401512603099905e-01,5.955047385142999694e-01,-6.512911374284480659e-05,1.157130593793641651e-02,4.583596749585963290e-03,1.031080007553100586e+00
-2.647130168920570903e-02,-5.315736966144146702e-01,5.517567874469218037e-01,6.695110833482409429e-02,-1.521279149755211391e-02,2.352500400499063851e-02,9.472815990447998047e-01
-2.239765412232685299e-02,-6.161473463063463774e-01,6.022245019446457182e-01,-2.243661370246532744e-03,3.982441524018530583e-03,-7.002087689966431799e-04,1.055284261703491211e+00
2.558116164853682650e-02,-6.060321449936227900e-01,4.398668743998430108e-01,-2.391369869163828543e-02,-7.410894805228348745e-03,-2.271827555482265268e-02,9.141471982002258301e-01
-3.234967001677080400e-02,-5.965060288051362569e-01,5.959278622989270247e-01,5.887348729737182070e-04,-3.642443092621798235e-03,7.566086655368349512e-03,1.033278465270996094e+00
-2.554615129708652510e-02,-3.338650307010645468e-01,3.879894889020226723e-01,-6.115566951877485224e-02,8.254207475828480300e-02,1.522802018597140677e-02,6.526319384574890137e-01
-2.610844309179287739e-02,-6.125682564510300798e-01,5.865462967829219165e-01,-8.030391995816890324e-03,4.074139963796432479e-03,5.134693872751554256e-03,1.038701415061950684e+00
-2.285453241707769562e-02,-6.070309686472116217e-01,5.797125238649797341e-01,-4.616744769859856302e-03,1.551838835538469404e-03,-9.697992568882415898e-03,1.027963042259216309e+00
-8.597383613407602598e-03,-6.164939265425638526e-01,5.433059301149165687e-01,-1.208650203896324479e-02,1.605305767565884129e-03,8.699856805631824008e-03,1.005141139030456543e+00
-2.410948432102781591e-02,-6.030067320302865408e-01,6.014121612649390158e-01,-2.182587252313025663e-03,1.096551255661036908e-02,-3.135915821946728965e-03,1.043511629104614258e+00
-9.107281954281704062e-02,-1.194530043490277249e-01,7.883751143001629380e-01,-4.999565493193914439e-02,8.797645623404554138e-02,-4.683007892237553427e-02,9.145985245704650879e-01
-5.691927971215666321e-03,-6.109914757930778872e-01,5.991236908909997050e-01,-5.480657282296567089e-03,8.736586163735219138e-03,4.518273444206149028e-03,1.048171997070312500e+00
1.504876590845374840e-03,-5.869827322661460567e-01,3.944297866853006540e-01,-7.550022716939413202e-03,-3.128584333947696805e-02,-1.852605779251928486e-02,8.579487800598144531e-01
2.513834679071269562e-02,-6.105822741818536237e-01,4.013794683634646088e-01,5.186222345794789385e-03,-6.513153066155978957e-03,4.693170995294897174e-02,8.897741436958312988e-01
-1.886052681715967572e-03,-6.287626020480385769e-01,4.499398536227614542e-01,1.630244974037301994e-02,-2.882360376503012578e-02,8.774545641361719550e-02,9.522328376770019531e-01
-1.569108592853792061e-02,-6.216174004174754852e-01,5.320850216767342156e-01,1.610645662531144315e-02,4.010202028018021859e-04,-2.885666453349848819e-03,9.999605417251586914e-01
-2.644540648192561169e-02,-6.297736913038518569e-01,5.890360502746873061e-01,1.112658167830060142e-02,3.032182951181603553e-03,4.317438991260092178e-05,1.055726647377014160e+00
5.949697687566123105e-02,-5.951769288339654462e-01,3.424151881874675785e-01,7.956748173039989921e-03,-5.764640310699126712e-03,-8.592719665510874238e-03,8.332892060279846191e-01
8.254375224780499676e-02,-6.271778956797228188e-01,2.450995106489832209e-01,6.709924049184919949e-03,1.117409020649612686e-02,7.911500081649505689e-02,8.153439164161682129e-01
-2.147104311409830588e-02,-6.232344897148256457e-01,5.682795628164525326e-01,-1.131071883128870539e-02,-4.721798862390947857e-03,1.941658960948426920e-03,1.032122731208801270e+00
-3.003517498683264120e-02,-6.215389647650935157e-01,6.178984989622554602e-01,3.630025835994581986e-03,1.048556768461879340e-02,5.439719595362841470e-03,1.073968410491943359e+00
-2.184253488923365225e-02,-6.325107071479315612e-01,5.884801842099592895e-01,7.508118157700817072e-03,-2.175874539604352037e-03,1.476106694920056167e-02,1.057804822921752930e+00
5.267962222612207479e-03,-1.006425858139655904e+00,7.646163547651778636e-01,1.138753677142147203e-01,7.680523421852170074e-02,3.991447102131313179e-02,1.558762907981872559e+00
-1.017835668303357088e-01,-3.452994282621211219e-01,8.847119867339373611e-01,1.918773950234521353e-01,-7.587504156863852933e-02,-6.225279854669327206e-02,1.188296675682067871e+00
3.156318606208710631e-02,-6.000494449022751864e-01,5.995914767137034973e-01,1.390005018558014907e-02,-5.933613030976618748e-03,-1.300820215101128156e-02,1.039979457855224609e+00
3.657490657163531278e-02,-5.751132030619013902e-01,5.718831930080717774e-01,1.002642477380141610e-02,-1.145584887338529532e-03,1.803234646348675883e-03,9.942204356193542480e-01
1.528770903600223767e-02,-5.796435552815915049e-01,5.809742990661985740e-01,7.396366914989581202e-03,-1.217282955226982885e-03,-2.521839729158506472e-04,1.005314826965332031e+00
-8.089290197737120797e-03,-5.563345644640265153e-01,5.885311753516239142e-01,2.697755233358669139e-02,2.186682166460556312e-02,2.395264932202667563e-02,9.944658279418945312e-01
3.593702689488317836e-02,-5.588082361166522016e-01,2.442225385745294686e-01,1.637989845832282451e-02,-8.258233791724238493e-02,-5.776830161163203081e-02,7.431403398513793945e-01
-4.465918271724525490e-02,-6.227804331135422533e-01,7.607516416653429259e-01,1.720091221757562294e-01,-1.077652049497914571e-01,-7.139566489226152612e-02,1.259932279586791992e+00
2.826730175565556405e-02,-5.827291704893138302e-01,5.789009756297401887e-01,2.933973858667114284e-02,4.355906440958890596e-03,5.582104165374672348e-03,1.007810592651367188e+00
2.449275321398654975e-02,-5.309531507600464550e-01,5.673323604641767881e-01,2.356584774009339717e-02,6.933878196343403431e-03,-3.118597509829594636e-03,9.521304965019226074e-01
6.230844734539359164e-03,-5.982658479159947973e-01,5.966902443444983550e-01,4.032649899178182562e-03,4.113432436887121298e-03,5.899245172989091377e-04,1.034934759140014648e+00
-3.083738736745146938e-02,-6.089965124479601588e-01,5.767360403948970093e-01,-8.194377583278518017e-04,-2.963243753570255282e-02,-1.053714780270234054e-02,1.028424501419067383e+00
-7.510680572939686106e-02,-5.802493596546265398e-01,7.063324700320677829e-01,2.608688511418703060e-01,-5.393583735430056841e-02,1.703774633789315734e-02,1.214211821556091309e+00
2.099278861570236243e-02,-5.370013624722436152e-01,5.664425218144383267e-01,9.677842694312530948e-04,-3.076641331477724360e-03,3.165526658116980395e-04,9.556475281715393066e-01
-1.112982512210469732e-02,-4.344485963508796234e-01,5.563507407378120995e-01,5.748220150872272206e-03,-9.279837351847718477e-03,-4.130727600748735316e-03,8.613169193267822266e-01
-2.780196658122780634e-02,-4.593748852740383026e-01,5.785632614106668292e-01,6.096678649744672468e-02,1.254855385146874322e-02,2.495359258620004003e-02,9.105581045150756836e-01
-5.409815655328566175e-02,-3.576798843849493537e-01,5.544435022751876829e-01,8.145269543024242012e-03,-1.553434524345595480e-02,-2.723298306592030968e-02,8.064581751823425293e-01
-1.130832565326978650e-02,-3.933384296021571469e-01,2.467414804997858924e-01,4.053014823825907414e-02,-5.100479836933252686e-02,9.472296425204272674e-02,5.922578573226928711e-01
-1.058693608726324065e-01,-1.250716610251012550e-01,4.703030071702294368e-01,-9.081754201584982256e-02,7.705104468990180144e-02,5.025918402380112615e-02,6.273270249366760254e-01
-9.652051601563194083e-02,-8.915534055861784601e-02,6.070750685680669223e-01,-4.873421560040194778e-02,2.171343562774978933e-02,-9.674131630328269837e-02,7.256273031234741211e-01
-1.184396451152506247e-01,-2.688018154781741109e-01,6.473451728062697974e-01,-1.192781229016731531e-01,2.192714101868515481e-02,5.991635579010007838e-03,8.765912055969238281e-01
-6.445997739815956251e-02,-3.483240767612216793e-01,6.256473501039114815e-01,-6.146467548249968937e-02,1.176497214473097748e-02,-6.599655097401922743e-02,8.817818760871887207e-01
-1.329863194636483371e-02,-6.770606973424651009e-01,6.641326357039387673e-01,-2.058573826742874507e-02,-2.669876967595321421e-02,3.209714343674267140e-02,1.164322495460510254e+00
-9.058650831893105826e-02,-3.498820132441569086e-01,5.745712244751066677e-01,-4.118333592724766901e-02,2.191895152290330648e-02,-9.475258659414365092e-05,8.298619985580444336e-01
-8.282100274958614783e-02,-2.346126376401008184e-01,6.048541385329082587e-01,7.729500206162291664e-02,3.176640996107057274e-02,6.036208196637242451e-02,7.951117753982543945e-01
-5.045357225663442413e-02,-3.977322524329856002e-01,5.054675329470457168e-01,-1.275710725282384328e-01,-7.589745708461176354e-02,-1.462144543814777042e-01,8.677273392677307129e-01
-1.139450547892240651e-01,-2.139741440144700690e-01,5.672687623685975788e-01,2.449578915861745296e-02,-2.952976979198728563e-03,-4.427632628550889210e-04,7.375813126564025879e-01
-4.415832867845470577e-03,-5.084346331972897648e-01,5.901347434442381079e-01,-3.089150830597677672e-02,6.651167224423722157e-03,-4.905000443579653549e-03,9.540742635726928711e-01
-4.733220026942799863e-02,-8.520511635746375045e-01,8.705976620694989565e-01,1.902887407059412062e-01,-1.521535475173112217e-01,6.304292354576257473e-02,1.555264711380004883e+00
-3.065325350853266920e-02,-7.169716806258993325e-01,7.269960128932861920e-01,6.377967408790720903e-03,2.802114636552234181e-02,-1.083300187576106965e-02,1.252151608467102051e+00
4.884965446939531185e-03,-6.104059047689653905e-01,6.060464473031409449e-01,3.312686346938497044e-03,5.495001303117803652e-03,7.763032670203638252e-05,1.053560972213745117e+00
-1.711095308049117095e-02,-6.147975652157968707e-01,6.104352679332882836e-01,-7.921106071274410442e-04,-2.018404795726787531e-03,-3.888604291549387429e-03,1.061215758323669434e+00
-4.296477665990686146e-02,-6.163658293670929433e-01,6.228613573359590427e-01,1.217877272069021501e-02,-2.583163366491513305e-02,-5.370657314488420583e-03,1.075375199317932129e+00
-1.543111693429588711e-02,-6.351461851358680688e-01,6.359769152636272072e-01,1.784497524487515824e-03,-1.020494208017010823e-02,-6.584636563527160313e-03,1.101144194602966309e+00
8.482368057906055497e-03,-6.075734139800336164e-01,6.110041700604292858e-01,4.031264782227670339e-03,-9.348872823196512083e-03,-9.562792364093582187e-03,1.055618047714233398e+00
-9.163980285282755101e-02,-4.666166447760871083e-01,8.603058300757944199e-01,2.189396732140678481e-01,-1.241882526656334640e-01,-7.123976087940765700e-02,1.268488407135009766e+00
-2.216732942909964768e-02,-6.118931994472578406e-01,5.501511017591594888e-01,4.212534722938047343e-02,-4.822589692794189420e-02,-1.619963660802564232e-03,1.012494325637817383e+00
2.062213125914075240e-02,-6.220154634687203865e-01,6.306745007898046929e-01,2.505668433586346819e-02,-6.424097708211185150e-03,-9.680771202439680811e-03,1.086037755012512207e+00
-9.362633478612553128e-02,-2.587356811371645526e-01,5.555736818168850455e-01,-1.035096381103727892e-03,1.882744735679712893e-03,-4.657816714303188860e-02,7.499554753303527832e-01
2.486687928352643989e-02,-5.772943204326207445e-01,5.830498385980872333e-01,-2.059241687955407768e-02,9.712909117383100458e-04,-2.881706268699715193e-03,1.005774497985839844e+00
1.950072636357269573e-02,-5.900173486624261665e-01,5.888863197610031408e-01,4.797512326055916295e-04,6.239450975485068274e-03,-1.196078654659087515e-03,1.021217346191406250e+00
-9.703756539066682452e-02,-2.613266959996032868e-01,6.412899605325387276e-01,-1.222511582107488060e-01,-1.326310137227879223e-02,7.206219662653996771e-02,8.685391545295715332e-01
-7.895601233435686761e-02,-3.981677356398346523e-01,6.447818069860898893e-01,-1.454565395924417304e-01,2.445924813655587712e-02,-1.953528255038652905e-02,9.607968926429748535e-01
5.690087543137879213e-03,-6.028831687478665158e-01,5.966635144884472330e-01,2.114541765913558434e-03,-3.210596496858757719e-03,6.027770300033936934e-03,1.038949012756347656e+00
2.613894045907357369e-02,-5.964007571436716892e-01,5.847478671853769683e-01,-6.792509294072434332e-03,1.876520157395314675e-03,3.990386987159413520e-03,1.023500204086303711e+00
1.360765464940484615e-02,-5.811863504303688144e-01,5.886274436591162340e-01,-7.809347242637570963e-03,7.192342145877151510e-03,-1.602617943517694720e-03,1.013307332992553711e+00
-1.123276128409362862e-01,-2.244558222400923064e-01,9.151902862058035604e-01,-1.105637132594982502e-01,-6.144046651663286930e-03,-6.341267009014936451e-02,1.110148310661315918e+00
-2.629996946729273866e-02,-6.129368399586104799e-01,5.639901820499096941e-01,-1.343159470212123945e-02,1.293436643971378631e-03,3.682563209234511036e-03,1.019538164138793945e+00
7.798594808724973459e-02,-1.012328684127803857e+00,3.678712973277119547e-01,7.852272235904736442e-02,-2.627323187572583318e-01,1.043133922635575278e-01,1.359084963798522949e+00
-2.473619726595348289e-02,-6.000573807343710930e-01,5.126765770977301795e-01,-1.399667053466181581e-02,-1.585468179325874713e-03,6.439072954030490570e-03,9.642155170440673828e-01
-5.388908931658004803e-02,-5.996362242722329539e-01,5.609387047618035194e-01,-7.404321840559232627e-03,-1.114209396235006297e-03,1.325782994197382582e-03,1.005766987800598145e+00
-1.325746598798013820e-02,-5.958932283977222966e-01,5.969146338217063974e-01,-2.267214663537345763e-03,1.216418416153831374e-02,4.612787744542213718e-04,1.033316254615783691e+00
-5.803416208775477592e-02,-3.986337558418710514e-01,5.681728129245928738e-01,3.164502022253855990e-02,1.770680669863938794e-02,-1.138876266592658316e-02,8.519172668457031250e-01
1.992793288548277975e-02,-7.341785652087658987e-01,5.174070374184454035e-01,9.046317503986330000e-02,-1.988107665702169013e-01,-4.887163825854738686e-02,1.158277869224548340e+00
-1.995045852406408804e-02,-5.485592294480192699e-01,5.860090820641413734e-01,1.851633237005909094e-02,1.625368289759182919e-02,-3.861826236094308227e-03,9.842741489410400391e-01
-4.623254478157640124e-02,-5.877085751629728128e-01,5.163286462042333547e-01,-2.493440807585700549e-03,-3.724899019663467648e-02,8.598659441196357910e-04,9.583674073219299316e-01
3.623955438033568503e-03,-6.051271846565611234e-01,5.958274009004878025e-01,3.508562528181982665e-02,-1.287222640928732328e-02,2.661526565199772831e-03,1.042112588882446289e+00
-1.593400231549112200e-02,-6.962270140110757843e-01,4.992403203644840692e-01,1.156396307680283495e-02,-1.323759699780105159e-01,1.577396761652000157e-02,1.064138412475585938e+00
-3.802300614841648552e-02,-5.679757048532152464e-01,5.770794038063890019e-01,3.050512108967443157e-03,4.836402334453610702e-03,1.099150310154664405e-02,9.927923083305358887e-01
3.991465522782636222e-02,-6.854640529388951187e-01,2.605975479185824173e-01,7.944541198867087484e-02,-9.981552258320336435e-02,1.708563599465877936e-01,9.334632754325866699e-01
1.355603748768254846e-01,-6.911212717816873630e-01,1.702093669352423566e-01,-8.244966844494452940e-03,2.321062603211365011e-03,1.461021585411764745e-02,8.450486660003662109e-01
-2.325882292390943351e-02,-6.015464079833444666e-01,6.013227005377195233e-01,1.313395016712948487e-03,9.800926764545843037e-03,5.814199938109396951e-04,1.042113542556762695e+00
-2.165998763540818300e-02,-6.137981600999613541e-01,5.993618016626042211e-01,-1.447700622297449797e-03,2.439974088711686570e-03,-9.261590658095680481e-04,1.050739288330078125e+00
-3.835440737073142481e-02,-6.118672945845639033e-01,6.168494211492457913e-01,-1.842386455267018422e-03,-2.140390783056397850e-02,-1.499239813705482115e-02,1.065849781036376953e+00
-6.169276791821198813e-02,-5.971554330431472213e-01,5.608929544685157254e-01,-1.398713540028867107e-03,-3.284106551999175366e-02,4.260447024432908493e-03,1.005485296249389648e+00
5.827894087533050382e-03,-6.229725178324524437e-01,5.007088780066064615e-01,-7.127368804004512517e-03,-1.070435413676790702e-02,7.829395964782659423e-03,9.757861495018005371e-01
-4.141878558172428643e-02,-4.119926661938859147e-01,4.534202557081949414e-01,1.386346178919511951e-01,-9.391472355623421697e-02,-8.097279506959098594e-03,8.061515688896179199e-01
-2.857780995815149827e-02,-5.950611044983795672e-01,5.948072419958072565e-01,2.830983586395478639e-03,-2.989888780040314900e-03,7.857859343219419923e-03,1.030963420867919922e+00
5.754625875639773902e-02,-6.101354245476589000e-01,3.167654018226979673e-01,-2.183867029357813155e-02,1.503617334040140696e-01,2.872833530380163036e-02,8.705182075500488281e-01
-5.325067029150397369e-02,-5.957488279865473801e-01,5.621903998819486326e-01,-6.163571148564608165e-04,2.529127501476656579e-04,-6.192177394590570602e-04,1.003468990325927734e+00
-5.403917307396858410e-02,-5.967555053905660989e-01,5.663845345017852750e-01,-1.098159606064261088e-03,7.063899386212023519e-03,-1.243532930014632247e-03,1.008136272430419922e+00
2.744186245002527835e-03,-5.816264909699045971e-01,4.361775572143032353e-01,6.390555816556944477e-03,3.722909198951170583e-03,-2.835467391107323112e-03,8.847754001617431641e-01
-5.374163260000322517e-02,-5.968892589072715138e-01,5.712744469278767667e-01,-1.798856110374588962e-03,4.254062044396452087e-03,4.050273915703479473e-04,1.012519121170043945e+00
-3.243136133688994532e-02,-6.147575678559096257e-01,6.530056159430684959e-01,-6.587993339222300571e-02,1.365214130837921758e-01,-2.281259527883530008e-02,1.130739450454711914e+00
4.659546469574132876e-02,-7.400075300898414365e-01,4.511380524484677190e-01,1.233971172879277890e-03,2.206696180940899976e-01,-2.067299224638129498e-02,1.117132663726806641e+00
-4.864226032398710070e-02,-5.944289676856272520e-01,5.608992323016209758e-01,2.345412574268290751e-03,8.848230824942526079e-04,-4.718021799426411981e-04,1.001060962677001953e+00
-2.117245902039062433e-02,-5.301309891494707660e-01,5.860430259873979919e-01,2.923871065524191390e-02,2.669864085302562154e-02,2.616747357697779552e-02,9.713672399520874023e-01
-6.962710770536773702e-03,-4.681837011709510943e-01,3.938052526065523029e-01,1.056213654894520015e-01,-7.835586331528041071e-02,8.055501432896705616e-02,7.934331893920898438e-01
3.421510572515075455e-02,-6.167115087656065420e-01,4.075665734941873453e-01,-1.408065395987201547e-02,2.560463863032543669e-02,-4.341466958275733146e-02,9.024063944816589355e-01
-6.318317197838180244e-03,-5.971397224145422733e-01,5.100260346846401394e-01,-5.888547482078875135e-03,9.421621084542353836e-03,-1.535820248127209124e-02,9.601180553436279297e-01
-3.396411636645299548e-02,-5.708018608832875485e-01,5.211277621447375497e-01,1.805072392561429470e-02,-1.681985666486264866e-02,3.961780492234007189e-02,9.491316676139831543e-01
-3.407298596162150472e-02,-6.022431179968004145e-01,5.878127807674400351e-01,-5.402863573331569656e-03,-8.811644711057164958e-03,-5.996421589518123596e-03,1.031176328659057617e+00
-5.526224097264511442e-02,-5.757004008004679152e-01,6.046723908850007989e-01,6.346372753659760765e-03,8.111207060074312331e-03,2.939606046925505138e-03,1.024777531623840332e+00
1.229229435319725318e-02,-5.956100160472435068e-01,5.917006589165489938e-01,-9.419876402764702436e-03,2.038679394337724639e-03,3.219733626025257037e-03,1.028490543365478516e+00
-8.626414955426695008e-02,-6.320580198703171226e-02,5.783238350926900306e-01,3.519869159054451330e-02,2.321202318037130299e-02,-6.450115384414074893e-02,6.668575406074523926e-01
-4.392765996489921693e-03,-5.952495681272319539e-01,5.963837654715453684e-01,-3.423979887006084639e-03,1.300076529353158799e-03,-2.219317714344962796e-04,1.032016277313232422e+00
-5.265585349187547337e-02,-5.025022647694653566e-01,5.946801601503889367e-01,-1.223172445976355646e-02,2.196742299961518090e-03,-1.750815991615299952e-02,9.560284614562988281e-01
-5.000554504569135889e-02,-5.396094450735465786e-01,5.888270684048363401e-01,-1.084839590591788090e-02,1.171190621116201779e-03,3.362853477512958017e-02,9.820101261138916016e-01
-2.775639239047392529e-02,-5.634672084568528305e-01,5.721465711023902001e-01,-3.433131212327789061e-02,1.054713893377237513e-03,2.672795212668901965e-02,9.868771433830261230e-01
-2.582775925198542433e-02,-6.107247486323960084e-01,5.926550910582260023e-01,2.073696274339930420e-03,-2.155267878996531151e-03,-4.718954678963250236e-03,1.042337775230407715e+00
-3.589114136714376124e-02,-6.248596911414462385e-01,6.102095422310549466e-01,-7.274991822637611426e-03,1.801439801349289521e-02,1.485891279603441563e-03,1.070514798164367676e+00
-1.628846040214181057e-02,-6.221749693393398006e-01,6.245396169626206140e-01,-2.848323952196007199e-03,6.185387195540471492e-03,-8.570394492549992388e-03,1.079994320869445801e+00
-3.236690866216457296e-02,-6.413521661779453265e-01,6.679889808452746935e-01,-4.553909746531258768e-02,1.204014881940827092e-02,-4.008483370631232487e-03,1.137792706489562988e+00
-3.090974624028142853e-02,-5.417035417438095246e-01,5.741563643609587375e-01,-5.003576054748245378e-02,4.336548789074162746e-02,4.105376658909565962e-02,9.768766164779663086e-01
-2.377085489018525288e-02,-6.172223611098918150e-01,6.094675649292193853e-01,-2.772376499674060382e-03,-9.924255994331640345e-04,-4.647423124664371193e-03,1.062573671340942383e+00
-1.333516772216845891e-03,-6.158687205902230177e-01,5.061183447870100105e-01,-1.015191191586855245e-02,6.237047952365567388e-03,5.281000383597999823e-03,9.734051227569580078e-01
1.222879846917273097e-02,-5.808081922365422312e-01,5.891419518490135232e-01,-5.335418001750147528e-03,4.017296274821519878e-04,1.216449274967999875e-04,1.013280987739562988e+00
-1.128394859057672006e-01,-8.335384588111924287e-02,5.465114310250552832e-01,-6.989167956726162478e-02,1.741230123503349422e-02,-4.140430677852980496e-02,6.609680056571960449e-01
-2.618239961554193196e-02,-6.135157778079286528e-01,5.568234668272853405e-01,1.154388480889998077e-02,1.978472846045960243e-02,-2.373281985709125436e-02,1.015154600143432617e+00
-4.901147178409358263e-04,-5.889793071186195661e-01,5.336165172236210230e-01,-1.257551133992406978e-01,8.890915422245164457e-02,-6.606929299770042396e-02,1.014967203140258789e+00
-4.446724506230474022e-02,-5.333269676491070310e-01,5.691852165995081592e-01,-3.583778355642967123e-02,4.232005243804000047e-03,4.047691519575488672e-02,9.614390730857849121e-01
-3.181871495350147711e-02,-6.190434126167950746e-01,6.312854511435213034e-01,-1.883451205465851847e-02,4.635266740871171742e-02,-1.289984812192859938e-02,1.087170720100402832e+00
-5.096753990112871946e-02,-6.217477154979806908e-01,6.183772698672858059e-01,-2.493266834650883623e-03,1.943615614758638713e-02,1.868523881029186427e-03,1.075650334358215332e+00
1.148378157094128160e-01,-6.650773736317225904e-01,1.927908664956486384e-01,-2.264765715445443695e-02,8.439458073008580807e-02,-3.469759274908363472e-02,8.376508951187133789e-01
-3.044377281586361714e-02,-6.143992764344784474e-01,6.100953321909370342e-01,-3.834570304679497162e-03,-1.444462190431521987e-03,2.142013842091660628e-03,1.060850977897644043e+00
6.719107497289197872e-02,-5.793885269256561221e-01,2.892481753276132661e-01,-5.117713499662441060e-03,-2.255339075285990938e-02,8.378068855191283040e-03,7.827945351600646973e-01
5.795607536063368537e-02,-5.865187434525177546e-01,3.197462603870534492e-01,8.187568980750422817e-03,-2.660650686107750990e-02,-5.291064187845967784e-03,8.093255758285522461e-01
1.581617681424216659e-01,-6.666365627645596259e-01,-2.621250431803989756e-02,-2.930874520405332001e-02,3.670486336109411024e-02,-1.193648662417207997e-02,7.544937133789062500e-01
6.119237798532289885e-02,-7.415986868796240472e-01,3.719649482982387290e-01,-6.598841249015492683e-02,1.725303457294204978e-01,-7.016761622729092429e-02,1.052460193634033203e+00
1.672612930402063436e-02,-6.080399247487445757e-01,4.310073725676447642e-01,1.200743902480429399e-02,-2.020606550121731640e-02,2.628064461311422836e-02,9.080307483673095703e-01
1.220915368554789660e-02,-6.822879656415570260e-01,3.883838293414507148e-01,-1.007382747068767403e-01,-1.812449838788393053e-01,-2.939102444797628971e-02,1.008301138877868652e+00
-4.908475402927288400e-02,-6.129461304761782969e-01,5.818320024620659003e-01,-2.412157700352541862e-03,1.237908553993527332e-02,2.568355958632756973e-03,1.035491228103637695e+00
-3.711698510836316384e-02,-6.247686126785956251e-01,5.495356484101487915e-01,3.975647699381788282e-03,3.221780651180360805e-02,6.328527616568797344e-03,1.018589496612548828e+00
-5.552845570871363379e-02,-6.002604450751128917e-01,5.749195857548948796e-01,-7.015472412039673459e-04,5.710612671471134230e-03,-3.275304450852397178e-05,1.018686532974243164e+00
-3.739715761072399947e-02,-5.988805848906795237e-01,5.330686927500513095e-01,5.865493127641454099e-03,3.618768605380451309e-02,-5.794767518818431072e-03,9.824126362800598145e-01
-2.986914712815036746e-02,-6.188176132852769573e-01,6.158150770222529102e-01,-2.446420591863637892e-03,-1.646135819863904590e-03,-3.948583677214441943e-03,1.069633603096008301e+00
-3.279909873809569443e-02,-5.676225855290270017e-01,6.418584781612971524e-01,6.750053351248955225e-02,1.576253273740103600e-01,-6.672178380092973204e-02,1.097079396247863770e+00
-3.067569817345698613e-02,-6.189179995915001786e-01,6.220840238533231759e-01,-4.207879870806136707e-03,-5.939643001443510768e-03,-2.224115219454765157e-03,1.075304150581359863e+00
-2.563831637879229741e-02,-6.168143120425531034e-01,6.210555334735998745e-01,-1.453506878351173721e-03,-3.868143052048733481e-03,-1.417187779721625030e-03,1.072412729263305664e+00
-1.015899566176373392e-01,-4.650381465566408301e-01,6.566547054001756756e-01,1.910240912037153987e-02,-1.647584882412587298e-02,-8.660758553579787911e-02,1.003505825996398926e+00
-2.469283599300466786e-02,-6.183403281628804260e-01,5.960619233195734168e-01,-2.375887481763939209e-03,4.086031921733602914e-04,-1.200448114191013209e-02,1.052004337310791016e+00
-1.462227929336340840e-02,-6.173832207684373241e-01,5.499520795555887798e-01,-1.045949427372660882e-02,1.038702596085248203e-02,-1.202205560541927745e-02,1.011658906936645508e+00
-8.409838659254589843e-02,-2.981524570067400903e-01,6.416753094528671042e-01,-1.100895830392891322e-01,4.389807744503789258e-03,-7.745055936171804656e-02,8.844965696334838867e-01
2.141818063927624673e-03,-6.214596200443870400e-01,6.037195772987968834e-01,-3.106891312878833425e-02,6.556174997873087662e-03,-6.810429881410021147e-03,1.062583327293395996e+00
-2.919687937432668273e-02,-6.153631861898394284e-01,5.352173400837625383e-01,7.514078006154396860e-03,-4.491267978768215263e-02,2.776455241005306579e-02,1.000763893127441406e+00
-3.460124222934393701e-02,-6.164262933438274805e-01,5.926919016409877283e-01,-2.202782133627914640e-03,-8.056195813044727400e-03,8.271293467079826947e-03,1.047571659088134766e+00
-6.107687889872789183e-02,-6.047598637217682649e-01,5.844587445588361740e-01,9.407341811610996129e-04,-9.923715319831685061e-03,1.162989370254987644e-02,1.031493067741394043e+00
4.747355871748379363e-02,-6.397381320902232327e-01,3.008966162889861740e-01,-4.755439371370477619e-02,-1.063059001557502443e-02,8.498708237970178936e-02,8.599012494087219238e-01
1.918193977349302859e-02,-5.310560477558423642e-01,3.512724685053522644e-01,-6.663840873875716275e-02,-1.255571756351361867e-01,1.080339891259249202e-01,8.315074443817138672e-01
-8.741119880653575036e-02,-3.799867524374733740e-01,5.769048786796578954e-01,-4.629270387986415825e-02,1.537538921273341741e-02,1.252123499408614241e-02,8.537490963935852051e-01
-6.273450665481900002e-02,-5.968306551252592351e-01,5.643125207199226612e-01,-2.707897609097639855e-03,-9.684296821360594346e-03,-2.308545309504663173e-03,1.006811499595642090e+00
-3.639269278335156843e-02,-6.163346186560731965e-01,5.563972478007523925e-01,1.109110754670465659e-02,-1.318812902880536937e-02,1.109600926280698147e-02,1.016256093978881836e+00
-3.101103126880686359e-02,-6.170116194749839522e-01,6.043847190214653997e-01,-8.315447358723427815e-03,-3.153050314608356092e-04,-6.941085946667517430e-03,1.058215022087097168e+00
1.366013993320994158e-02,-6.204877846774371486e-01,4.779127632089023026e-01,8.726946017281456830e-03,-8.289762375818086502e-04,-2.684954865601097557e-02,9.562803506851196289e-01
4.250485742487711271e-02,-5.914644554151565758e-01,3.341691708881410761e-01,-1.032759951531861224e-02,5.882376882504826432e-02,1.162782843659338795e-02,8.264367580413818359e-01
-2.373563305790370864e-02,-6.152888407834167239e-01,5.844371287809728699e-01,1.902619604859616962e-03,3.152623953853397215e-04,4.184792918889817213e-03,1.039057016372680664e+00
3.232253577672090927e-02,-6.063122345798717117e-01,4.223004689944392376e-01,-8.847990913265194393e-03,1.876555351056966015e-04,1.705683161325069128e-02,9.000546932220458984e-01
3.328891322865075442e-03,-6.128019414471725934e-01,5.046689813890570253e-01,3.984994533265172854e-03,-3.832219995074369898e-04,1.823520256621900468e-02,9.699978232383728027e-01
-3.230283483986706033e-02,-6.132411998710314283e-01,5.933396366276237899e-01,3.149839478067692836e-03,-2.096050745526090370e-04,-3.592926642707650747e-03,1.045201539993286133e+00
-3.496064864436687625e-02,-6.097145249574893455e-01,5.821277087987378751e-01,9.534900688199744387e-04,-3.169412556620752018e-03,2.495185458457217960e-03,1.032407641410827637e+00
-1.299419951374568283e-02,-6.326021010832754143e-01,6.438684361077835483e-01,-3.312807240078837617e-02,-3.775104821854292133e-03,-1.580157694940891510e-03,1.107123494148254395e+00
-3.303458135967578257e-02,-4.767266854156649858e-01,5.845742767923225447e-01,-2.451540799455321357e-02,1.814817478081525923e-02,1.222602396510349791e-02,9.249708652496337891e-01
-5.931107725876352821e-02,-4.094122084669695738e-01,5.832240982089347270e-01,-4.813444838312508356e-02,1.441900320423788670e-02,-8.513053594758235310e-03,8.764510750770568848e-01
-1.139314301599070323e-01,-2.830265326017285532e-01,5.643006372331849096e-01,-1.938683660963915964e-02,7.361507327233628856e-03,-2.804374938235511608e-02,7.790552377700805664e-01
-1.485488024385506547e-02,-6.149938606585827472e-01,5.967385844667991712e-01,1.083837262040688882e-03,1.047325822720305763e-02,-3.681580740772039031e-03,1.049584507942199707e+00
-1.106362425645548986e-01,-2.528094453117231688e-01,5.480261891084560189e-01,-2.787840938637513311e-02,7.074569985643783775e-03,-2.821206431815311087e-03,7.417541146278381348e-01
-1.135052540245629904e-01,-2.349792463668957110e-01,5.550008474935308467e-01,4.496254325412747080e-04,8.272186869152544156e-03,-4.294504827049678425e-02,7.406761646270751953e-01
-9.913621100628158822e-02,-3.705689682073086688e-01,7.258906207316042636e-01,-7.685972965503885812e-02,-1.950064902435950888e-03,7.163149026761173044e-02,1.005689382553100586e+00
-5.308338257232551871e-02,-3.955701456248404968e-01,5.797389126710487117e-01,-5.705210395508858445e-02,1.284266237711503660e-02,-5.465457471529455019e-02,8.681678771972656250e-01
-8.832299620359268522e-02,-3.950754833552173606e-01,5.916902453276937646e-01,2.007921316262457380e-03,1.217151683512512211e-02,-6.635400994379923867e-02,8.824828267097473145e-01
-1.319556727211209646e-01,-9.443274650451349839e-02,8.148143562349532409e-01,-4.739625162371207540e-02,6.410923952475783283e-02,-1.144727915198447306e-02,9.389985203742980957e-01
-1.178805557072609145e-01,-1.206270765998948280e-01,5.472955971418027588e-01,-1.780500794942486975e-02,-4.624506132230084293e-05,-9.429436115084946154e-03,6.674665212631225586e-01
-6.715469883997919609e-02,-4.495177796225367506e-01,5.792987888242441263e-01,1.473227922476661811e-03,2.243027358192868984e-02,4.969445308942622291e-02,9.056534171104431152e-01
-8.732290130653028171e-02,-4.036544125089338575e-01,5.792770309022705622e-01,2.229697784874296301e-03,1.385653653055059394e-02,-2.194660523801746435e-02,8.702433705329895020e-01
-9.833235635751569337e-02,-2.044620656606340736e-01,8.602311794558253899e-01,1.040272772053712907e-01,-3.468405929730720288e-02,-6.111053059759738448e-02,1.038805603981018066e+00
-1.084240406964056547e-01,-1.475483844311661907e-01,5.376608298593247293e-01,3.093157366134753269e-02,1.503591960759475231e-02,2.598022954227420175e-02,6.706768870353698730e-01
-1.442910287477341263e-02,-5.666371668930371142e-01,4.201268706682844689e-01,-1.211552104123052309e-01,1.114001173349701140e-01,1.280532400473562982e-01,9.296217560768127441e-01
-4.440847319555178696e-02,-2.745335101381937704e-01,4.180958248188976212e-01,1.219411939278357837e-01,-9.615289073839862477e-02,2.341593657585841134e-03,6.675800681114196777e-01
1.852151537137475962e-02,-5.630353416658733234e-01,5.779570647147506124e-01,2.423265925740184293e-04,-8.180695961279602774e-03,6.388980315254211024e-04,9.882925748825073242e-01
2.885697022094090014e-02,-5.552400135064867737e-01,5.711531120649486759e-01,1.518574339575475690e-02,-5.248293787453213975e-03,-5.272486142427950349e-03,9.761484265327453613e-01
2.971318484805396398e-02,-5.776302039215887030e-01,5.784929309480122406e-01,7.281604382152481215e-03,-2.069611482079559712e-03,2.329646620707600223e-03,1.001754045486450195e+00
-2.398026627720059242e-02,-5.805595874177447158e-01,5.375619660566820501e-01,1.914140606668221847e-02,-4.922693700147649787e-02,-7.713729792218021117e-03,9.727284312248229980e-01
-1.950289417888150661e-02,-6.075534589075756164e-01,5.405685652468822378e-01,-1.443319667861041669e-02,-1.257593488998304775e-02,9.318086317821265563e-03,9.950847625732421875e-01
-2.697380461155754472e-02,-5.924896109355174412e-01,5.132494688284421347e-01,-1.217054311484535439e-02,-2.044390117819139263e-02,-7.915568267092379026e-03,9.586659073829650879e-01
-3.079858439563009156e-02,-5.908075080358373699e-01,5.925639875037906901e-01,9.906903891740241868e-05,-1.795025662394563143e-04,1.015711953144896040e-02,1.025470137596130371e+00
1.437458336527656921e-02,-6.071483318989342459e-01,4.082451586327294213e-01,-4.238169968597007425e-02,-1.463976565484948270e-02,-1.405640936002365213e-02,8.904204964637756348e-01
-2.225865979157541294e-02,-6.058900529734621010e-01,5.731583756115880002e-01,3.207301387269378100e-03,-1.879781452279224779e-03,1.143961272924376264e-02,1.021315455436706543e+00
-2.098891155390425825e-02,-6.118237673410265032e-01,5.723410624855186368e-01,-7.884648287605650410e-03,-6.489735405311200349e-04,-6.328160021855817712e-03,1.025667667388916016e+00
7.828508858387348002e-02,-6.784579682407633205e-01,2.621219465278813443e-01,-5.782842633797949730e-03,-1.659277989475475557e-01,-4.058855008948669685e-02,9.128044843673706055e-01
-9.614714459068182673e-03,-6.098535797950467297e-01,4.951327983736113492e-01,-8.076026586821377987e-03,-1.891123659209338137e-03,2.165386847307792031e-02,9.589780569076538086e-01
1.815008835884972249e-02,-6.226329857352803643e-01,4.011897255907752591e-01,-1.262090673568931967e-02,-7.580320914318992853e-02,1.380991788227934995e-02,9.061214327812194824e-01
-3.939290865750964127e-02,-6.126066769862126282e-01,5.682159569883905581e-01,-5.768610739505815495e-03,7.438665614875199922e-03,-7.780301475030530420e-03,1.022985696792602539e+00
5.403646565923961309e-02,-7.041233817384834337e-01,2.955048029059888504e-01,9.625246626268059436e-02,1.082972593873005873e-01,-1.327184900830765124e-01,9.654045701026916504e-01
1.435017625154197396e-01,-1.020030674180965935e+00,2.638436123326273752e-01,-2.669301048916895153e-02,1.656969685971866890e-01,-4.919609738795965859e-02,1.264941215515136719e+00
-2.188581943267904270e-02,-6.231625554711724968e-01,6.004220531559145702e-01,4.103868772917948493e-03,8.384483044659545026e-03,6.579473204468816623e-03,1.059892177581787109e+00
-5.295913345070353551e-03,-4.473566173717076766e-01,5.936643475632957800e-01,8.694106507943315243e-02,-9.749183728121908060e-03,-1.859834190968442935e-02,9.181213974952697754e-01
7.646080485205097865e-02,-5.873875210314486450e-01,2.814372379510668987e-01,3.520257712088926613e-03,-2.897608207835926722e-03,-9.072099186142719429e-03,7.868242859840393066e-01
3.541536265727242283e-02,-6.394755885614592517e-01,3.741350435086872039e-01,1.105490245549618084e-02,1.026393693725315970e-01,-4.371180056749297133e-02,9.146097302436828613e-01
-1.828706066534239311e-02,-6.528006473152920819e-01,6.208845783411237607e-01,4.426603533752953602e-03,-7.244603905791813150e-04,-2.347652125132200854e-02,1.103822827339172363e+00
7.303626153615671093e-03,-5.858349311335135923e-01,5.987793719064422593e-01,1.829575934775404256e-02,-9.964418863406820925e-03,-8.653401711906974145e-03,1.026650190353393555e+00
2.428856768401634059e-03,-6.151362115829377419e-01,5.062572727883094537e-01,-2.548889318157838979e-03,-1.343989893524392574e-03,2.264036142305803079e-02,9.736216664314270020e-01
2.083253321390528268e-02,-6.448906125280114976e-01,4.082109509968866456e-01,1.240286800412393475e-01,1.705267359836165342e-01,-2.973517164178189620e-02,9.935673475265502930e-01
1.581000463134370204e-03,-7.089419417678102242e-01,5.681504783966283556e-01,3.286076330129453910e-02,-1.686900732865020403e-01,-7.221868402178611805e-03,1.147680044174194336e+00
-1.134345464649058784e-02,-7.076284344625540790e-01,6.598053279956404005e-01,-3.794396100951480388e-02,-1.852424432661910203e-01,1.202567677164632053e-02,1.228927016258239746e+00
-2.392914984238665721e-02,-6.747651790178982312e-01,7.271346349978355939e-01,-5.816719099639763857e-02,2.272804487029902662e-02,-3.100520112625268845e-02,1.221101045608520508e+00
1.585206100837258103e-02,-6.276547713713698240e-01,4.117806664221447810e-01,-5.782380145665375754e-03,-7.974253172641126985e-02,-5.832567822850487360e-02,9.246760606765747070e-01
-4.111530918889086395e-02,-6.099826163129234979e-01,5.469194073341178131e-01,9.128170299041565502e-03,-3.573792203011428529e-03,1.058670249152530475e-03,1.002097964286804199e+00
-8.529190658006183257e-02,-5.930746416563513757e-01,7.824760471525348260e-01,-1.908846911811214742e-01,-1.949237927158012709e-02,4.703327019512892199e-02,1.252433300018310547e+00
-1.704258161958069340e-02,-5.988898071989195993e-01,5.911615268588240601e-01,-4.916913759715464769e-04,3.046864708671938229e-03,-2.883487570190789231e-03,1.030724883079528809e+00
-1.199547239719199465e-02,-5.988185416702362929e-01,5.995085457171271948e-01,5.077754032141363380e-05,-8.544777848747480212e-03,-4.383482711647127689e-03,1.037988305091857910e+00
2.722679237096822802e-02,-5.869549216995785246e-01,3.195046063601934550e-01,-1.329271241294818079e-02,-1.331747216589490579e-01,-3.547364339572268207e-03,8.342251181602478027e-01
-5.846260699306142505e-02,-6.144056270217267413e-01,5.931100275635696750e-01,1.329006020358336152e-05,-2.093140783652498726e-02,-7.426856193515213311e-03,1.047538399696350098e+00
-7.178204946381126772e-02,-6.702967064692199051e-01,6.283584954329840544e-01,3.130530289367021955e-03,-6.793137490112216570e-02,2.986450974131732786e-02,1.133141636848449707e+00
-1.768596908560718384e-02,-6.081669749788368717e-01,5.972953003482309731e-01,-1.661896851805360568e-03,-1.887631155098492284e-03,-1.993630796096483582e-03,1.044047594070434570e+00
3.361169856597861355e-02,-5.585078943989978395e-01,5.719056380250595595e-01,3.002520817467386159e-03,-8.485228983500741826e-03,-3.374349618296006067e-05,9.794607758522033691e-01
1.940196323473885112e-02,-5.782697605323063872e-01,5.854240576164670973e-01,3.535833755205098489e-03,-7.658170580510031272e-03,-5.730410050751905300e-03,1.008067369461059570e+00
3.240804717606328433e-02,-5.651243393684995953e-01,5.773518818496220506e-01,9.093919670043438055e-03,-1.187479842378044671e-03,-4.227903847450679813e-03,9.899173378944396973e-01
2.006217667407473454e-02,-5.590493838763402890e-01,5.756639478554855804e-01,4.984348163874693753e-03,-1.181984641074375515e-03,1.013679489519035004e-04,9.828009605407714844e-01
3.172516555254639714e-02,-5.600007273914830996e-01,5.678263240046975691e-01,1.430830077516841853e-02,-3.021505552274516768e-03,-4.818481583123397985e-03,9.774866700172424316e-01
2.834530365779630579e-02,-5.601516311354284294e-01,5.804963044534976468e-01,1.244840745548333148e-02,-9.028486621414083882e-03,-5.101379717660036069e-03,9.883956909179687500e-01
3.536532396134046963e-02,-5.598322351322847501e-01,5.676902603740651143e-01,2.206794266419558493e-03,8.871841866268364435e-04,-1.793005861822949886e-03,9.769826531410217285e-01
-2.002273384613969739e-02,-6.066875024073441480e-01,5.840399092694137373e-01,3.397132076187651430e-03,3.447239329972317211e-03,-1.929186187572622200e-03,1.031276345252990723e+00
-1.739154438335852038e-02,-5.933275289685211451e-01,5.957334366352656785e-01,7.560476403985440588e-03,-2.617371759148590625e-03,-1.137297167131355417e-02,1.030206441879272461e+00
6.353646260034684357e-02,-5.803200928093530386e-01,3.173548897764166821e-01,-6.333241366679914601e-03,-1.624008431872497752e-03,7.248095335355042752e-03,8.016754984855651855e-01
-1.661026136356022476e-02,-6.124137240740230581e-01,5.559432551609267970e-01,-1.001595151432316429e-02,5.035035048180900880e-04,-9.596660685127426926e-03,1.012179136276245117e+00
-3.024808170982462574e-02,-5.228430259511706035e-01,5.581966274372975878e-01,4.744869428201915068e-02,-5.006287244966493161e-02,-2.429064807101527848e-02,9.459518790245056152e-01
-2.918060067670889823e-02,-6.100138383923435770e-01,5.817245430411761564e-01,-8.054181250623506858e-03,1.427485469878342220e-03,-4.212363009011812348e-03,1.032308220863342285e+00
-3.381690316281465991e-03,-6.133295110628116387e-01,5.151519170627665289e-01,7.282991954510763255e-02,-9.089993531280267380e-02,4.001180918687483740e-02,1.001346945762634277e+00
-9.481465030405375818e-03,-5.733229954068096434e-01,5.896764167607512208e-01,2.670912537562992930e-03,2.057876033489363862e-02,2.277679185687574593e-03,1.007990598678588867e+00
-3.219717777514127799e-02,-5.260474469094231775e-01,6.489036348562097212e-01,1.097672650876186651e-01,-3.656927991776107167e-02,-1.841611440318935422e-02,1.041788935661315918e+00
-2.826815230036072019e-02,-6.019219340101525928e-01,5.213856217130828918e-01,-4.677938604485508065e-03,-2.205268197469723371e-02,2.279077199586517356e-04,9.736701846122741699e-01
-3.560664451219726356e-02,-5.515235895737646832e-01,5.921693640132482672e-01,1.540168618836429545e-03,1.537371336112681140e-02,1.513223028408463081e-02,9.927519559860229492e-01
-4.398735432290609010e-02,-5.080516661553973190e-01,5.875060364877213726e-01,1.840021515597113026e-03,1.141568836771652759e-02,-1.055532685552379966e-02,9.528528451919555664e-01
-5.809523267410135472e-02,-4.648242263529199225e-01,5.777108098025923733e-01,1.166375110604381217e-03,1.804980451562749125e-02,-2.414837606488657012e-03,9.106467366218566895e-01
-4.044018491121485065e-02,-5.996993314773831907e-01,5.609464205502255885e-01,3.101477680351407318e-04,-4.498936354903049044e-03,1.495773566241511516e-03,1.005403041839599609e+00
-3.990519934402906449e-02,-4.799867228076455383e-01,5.040776518555448726e-01,2.666699474072831144e-02,-1.357713281214038142e-02,1.894941888303157407e-02,8.560079336166381836e-01
-3.694581709507469003e-03,-5.855662398342837971e-01,6.662800192521165510e-01,-8.581228980932474604e-02,2.206017057400367493e-02,6.043233698791345386e-03,1.095874309539794922e+00
-2.529961639481493815e-02,-6.168509615984263394e-01,6.209849887077578678e-01,-4.330941292087493017e-04,-7.778662522760591315e-03,-4.519295558424776468e-03,1.072460055351257324e+00
6.646381041222060304e-04,-6.902597200210324191e-01,7.515545981215171478e-01,8.822431967142276010e-02,-2.027641672868807712e-02,-1.748000618408217938e-02,1.259174704551696777e+00
3.152452537416033929e-02,-5.438662812976328143e-01,5.669051650176291091e-01,1.390264025364096150e-02,-5.253299703792012852e-03,-4.892266195922950756e-03,9.625458717346191406e-01
-9.400601095604879665e-02,-2.818550784869944259e-01,6.741696640987884237e-01,2.066250937363957874e-01,1.493715053342641735e-02,9.663449761397655110e-05,9.478572607040405273e-01
-8.114655827969814370e-03,-6.087860145990146021e-01,6.062818277320478622e-01,-7.193239503981919058e-04,-5.770652305592124769e-03,-4.880209490540758123e-03,1.052384138107299805e+00
-1.890949567169537132e-02,-6.225753320775656574e-01,6.095750021709216426e-01,4.199331364962372026e-02,-4.830466794782053985e-02,-2.727979224967782765e-02,1.073928594589233398e+00
-1.629999563684756889e-02,-5.533326244402064775e-01,5.828941018811510943e-01,2.390897915159138562e-02,5.496756033592215158e-03,1.465993172236594632e-03,9.854117631912231445e-01
3.593773152722359865e-02,-5.553756689578760453e-01,5.696601740684189563e-01,6.684780273938216270e-03,-2.740006763306104213e-03,-5.095858464138493249e-03,9.748553037643432617e-01
2.059059626205706622e-02,-5.717266200217987482e-01,5.783138219365561161e-01,8.616194865857745508e-03,6.596137618561238002e-03,-1.290608747597000311e-03,9.962942004203796387e-01
-5.084864808789020703e-03,-6.420894496479636615e-01,6.190732316417369985e-01,3.980751334503854905e-02,-3.631651799452417090e-02,-1.781082324542083333e-03,1.096202492713928223e+00
-5.147050968031119389e-02,-4.094761310228773876e-01,5.689806145146083516e-01,3.735485328010834400e-03,2.276144304473484356e-02,2.055512253440727050e-02,8.591369390487670898e-01
-5.813814024339979125e-02,-4.377062976302236175e-01,5.795539115211142400e-01,-1.113039899186378003e-02,-9.992045787602829923e-03,3.624153665710989902e-02,8.929626345634460449e-01
-1.091452822236203823e-01,-7.676271792719200349e-01,9.471731564503881318e-01,-2.205194016386523570e-01,-3.875106721765401302e-02,2.389207070010745254e-02,1.548249840736389160e+00
-2.757489838893495415e-02,-4.726115263203147787e-01,5.918151357561027837e-01,-5.778106454283330612e-02,-3.407025719978125453e-03,-1.576836816985350978e-03,9.313490986824035645e-01
-2.519390768995311697e-02,-4.723417412414061545e-01,5.829517659689916753e-01,-5.597579330300700429e-02,2.295328468399878742e-04,-3.873875885919556613e-03,9.225824475288391113e-01
1.312087664882226334e-02,-5.842717676654061165e-01,5.892639886556070294e-01,-4.834680068322752891e-03,-8.206390755506813399e-04,2.544001701708571185e-03,1.016412377357482910e+00
-2.642824528346968821e-02,-4.438445961736343093e-01,5.738950506078821512e-01,-3.251466294063800385e-03,3.038067319643485489e-03,8.137818504301761596e-03,8.862659335136413574e-01
-4.156157125167946054e-02,-5.675416209897831132e-01,5.983312518152575921e-01,2.519917572317224852e-03,2.900928714471505496e-03,1.706843223093692163e-03,1.011307001113891602e+00
-1.781821804039688401e-02,-6.025368921689238100e-01,6.065055213841732407e-01,2.114513572063579823e-03,-2.317371829184422440e-03,-5.719332920395593791e-05,1.047262787818908691e+00
-1.173332089425136587e-02,-5.940442661701444971e-01,6.790140177970805935e-01,-8.438732555226012566e-02,-4.042228671339073882e-03,-2.686254629726193832e-02,1.114461779594421387e+00
-4.669530963390011030e-02,-6.753095782966322957e-01,6.863090522619043066e-01,-5.468083364718959172e-02,-9.058259789716459343e-02,1.702973806822728406e-02,1.194857239723205566e+00
-8.790492373291608486e-02,-3.861945420283622310e-01,6.561877855158519957e-01,-5.511177777991912302e-02,-2.533096476244265510e-02,3.496978195884838103e-02,9.377160072326660156e-01
1.582344486288703167e-02,-6.069107089966306878e-01,6.059057338228726053e-01,-3.473501575244694606e-02,-6.955667712079069984e-04,3.904722686103180573e-03,1.052200555801391602e+00
-3.319649927655304172e-03,-5.009015004855797981e-01,5.765584032835003869e-01,-3.114881277280560565e-02,1.263213879099482455e-02,-7.547563767332738337e-03,9.359185099601745605e-01
7.550571526461515720e-03,-4.998965740929914858e-01,5.741876940975311205e-01,-2.096677394498174668e-02,-3.825350075080362431e-03,5.026910025764951689e-03,9.314274787902832031e-01
-3.943039877978702507e-03,-5.448291983323992893e-01,5.891682577430524814e-01,-1.545517733031681953e-02,1.503977877461937229e-02,8.065487175605580081e-03,9.832267761230468750e-01
3.775377353229629473e-04,-6.007019946137921451e-01,5.925203624569608252e-01,4.807905969075152927e-03,6.486208326197650739e-03,-1.934143579920024475e-03,1.033470630645751953e+00
4.320679904534403121e-03,-4.959559500715181590e-01,5.689036392923119134e-01,-3.501086203376500144e-02,-1.295523709443718516e-02,1.588264889218689302e-02,9.254273772239685059e-01
5.824037634898429627e-04,-5.146839076166979110e-01,5.781305531955455157e-01,-4.632976627165215355e-02,-1.479765661042962283e-02,2.202773953990655106e-02,9.514222145080566406e-01
-7.406190241243977568e-02,-4.488765251759822550e-01,6.233285005675625046e-01,-2.165955964334627115e-01,-7.111434098562420536e-02,-8.197128402641336298e-02,1.031650185585021973e+00
7.921684011255450408e-02,-7.674008817873829713e-01,2.017760278051390910e-01,-8.975964159516104657e-02,4.526619498817770204e-02,1.382678255197639094e-01,9.608405232429504395e-01
-7.915688000076231273e-03,-6.206309893915897824e-01,5.378678063783499663e-01,-6.269731052393809519e-03,6.172708053768412306e-03,-9.530871794098769167e-03,1.004098773002624512e+00
-1.673149131427308089e-02,-6.123903022004203445e-01,5.542498178048574919e-01,7.270148369017520248e-03,-1.817382223504875396e-03,5.992855176986535727e-03,1.010552048683166504e+00
2.088237649085093739e-02,-6.127743725458097979e-01,4.831193310066403956e-01,4.667891245838040430e-03,-3.296880930211413727e-04,1.849541815881926635e-02,9.535068869590759277e-01
-7.170142931590044177e-02,-4.595367195169978158e-01,5.799367153713214096e-01,-1.226268352113096122e-02,3.277427286815122291e-03,7.517751668827126962e-03,9.101811051368713379e-01
-8.366123989682595907e-03,-6.072568378999343430e-01,5.002293141153195677e-01,6.598617902614796471e-03,1.676502248039394433e-03,9.785076402966020118e-03,9.603950977325439453e-01
-1.229543982883000292e-02,-5.296172871808088045e-01,4.560266356325716752e-01,-6.607068750454291040e-02,8.876137200622737089e-02,8.247609595936437887e-02,8.867690563201904297e-01
1.323335684334044082e-02,-6.033140500441328546e-01,4.283781570188384680e-01,7.040776029136356848e-03,3.185573260341405949e-02,1.165859911022696510e-02,9.011288285255432129e-01
-7.161432948565998879e-02,-1.702813934374759475e-01,5.226043459053650864e-01,-3.849979092026423189e-02,9.536506239451132683e-02,-3.051062359229226098e-02,6.752656698226928711e-01
-6.627911534963558393e-02,-4.003608362305813850e-01,5.111875379759680538e-01,-1.440108895574238219e-02,3.465323519317585216e-03,3.822536429052043883e-02,8.018984198570251465e-01
-5.886166510538001773e-02,-5.047349344136394800e-01,5.912517635178480280e-01,4.563292162446499003e-04,6.184146696093308603e-03,-1.214514877976480972e-02,9.549222588539123535e-01
-4.450001831316253292e-02,-5.413821085237396913e-01,5.636482473201537280e-01,1.103670944394053409e-02,-2.175144451489955527e-02,4.283379711503955412e-02,9.623944759368896484e-01
6.723934251104227156e-02,-5.422037538686234059e-01,1.712339354759592203e-01,1.227866907195956370e-01,-1.627640457319289580e-01,8.577547393193903080e-02,7.696706652641296387e-01
-4.655354498489035209e-02,-6.205434124890573111e-01,5.977751679928192674e-01,-1.179765105262875133e-02,3.820265231440389542e-02,1.124797331561092940e-02,1.058129191398620605e+00
-3.752195873090083400e-02,-6.032729617656429344e-01,5.865356262190070114e-01,-8.967097984416171671e-04,2.994332191003794535e-03,5.553261641273346771e-05,1.030830979347229004e+00
-3.693886041748035282e-02,-5.270801668785303207e-01,5.976635627418513952e-01,-3.452383085418880837e-02,-1.343801252365488773e-02,2.203539626091603407e-02,9.795803427696228027e-01
-3.708436875068128052e-02,-5.283159446431077155e-01,5.960752694225393000e-01,-1.687626861993889518e-02,-8.231229803905875525e-03,-1.178150044886352478e-02,9.770883917808532715e-01
-1.900961403408617939e-02,-5.749818833881675806e-01,5.947484125831341562e-01,-1.224979154061165733e-02,-3.332591704222409319e-03,1.288914227316826549e-03,1.013669133186340332e+00
-1.558863309752072518e-02,-5.605466435877531906e-01,5.069192071057320170e-01,-4.138016366973243029e-03,-3.291249207080660343e-03,-2.056312224633793234e-02,9.252517819404602051e-01
2.911777408461532768e-02,-5.901512995359943226e-01,3.764058620129654975e-01,-1.746839456203606519e-02,-5.630975899001757629e-02,-3.340174226342161601e-02,8.561207652091979980e-01
4.514216167922494027e-02,-6.030352357756251225e-01,3.380054946352799017e-01,-5.149823517192999786e-03,-1.687591961268512797e-02,-4.123696380646030279e-02,8.377145528793334961e-01
-6.549361360500233209e-02,-4.474685506780614608e-01,5.795159924377928373e-01,3.082164946783801183e-05,1.854399022204809150e-02,3.004524539517248322e-02,9.011434912681579590e-01
-6.406136006135655647e-02,-4.160914171824467989e-01,5.079622068455463824e-01,1.435132878645367996e-02,-3.939260686601420841e-02,5.925228436687791922e-02,8.175030946731567383e-01
1.380759609425184775e-02,-6.166947754771886503e-01,4.498771827769260101e-01,-1.824667699775958185e-03,-4.098165463351103655e-04,-3.375774587400060672e-02,9.306245446205139160e-01
6.332065656971946899e-02,-6.026652100072784624e-01,3.208222633340823693e-01,-4.479242889515353335e-03,-1.770097538383463235e-03,-4.115489710682612712e-02,8.285453915596008301e-01
1.135277625780939381e-01,-5.971842493508734417e-01,5.669925060903924230e-02,-5.824034705275071833e-02,9.128344933658932847e-02,2.500797349364195302e-02,7.106351852416992188e-01
2.279568170232174618e-01,-1.088312347229682731e+00,9.320056409935212338e-02,-1.173471564721813992e-01,-6.368073856595667104e-02,3.759783509089326820e-02,1.277131915092468262e+00
6.447662621245753289e-02,-6.016134717658208064e-01,2.125007860328530507e-01,-5.973373077171811180e-03,-1.327325182679331070e-02,-7.277616594154495688e-02,7.620428204536437988e-01
-9.732074497933878438e-03,-5.293342316081854904e-01,4.753107204439004363e-01,-3.232680536635269136e-02,-9.791361181786705642e-03,-1.289835167324442089e-02,8.724700212478637695e-01
4.415196023627103450e-03,-5.290586344658056994e-01,3.903049855100995669e-01,2.125292545936829924e-02,-4.265115586335750664e-02,-3.888000926694175352e-02,8.066689372062683105e-01
-2.551719348846803043e-02,-6.120529426513057203e-01,5.887624262551046650e-01,1.758746911952582728e-03,-2.479832611052494584e-03,-5.729428941793094851e-03,1.040089845657348633e+00
3.394291226669658712e-02,-5.828936461712102002e-01,3.892210422375516066e-01,-5.545466921119437259e-02,1.005844811258660987e-01,-2.037820070461143426e-02,8.756035566329956055e-01
-4.524173899047408132e-02,-3.247596194052357887e-01,5.258033179016666780e-01,-6.017577051120874543e-02,7.281150862391633227e-02,-8.753124951293382583e-02,7.833217978477478027e-01
5.984371685743480884e-02,-6.217418210878227214e-01,3.057665476310834629e-01,-2.196355979971620007e-02,-6.392870510818984831e-02,-5.275983462167285060e-03,8.405032157897949219e-01
-2.016958599798277310e-02,-4.581398935375722292e-01,4.085764797531180603e-01,1.236359966339925370e-01,-1.318599040523253940e-01,6.149023486986134046e-02,8.202323317527770996e-01
-2.642094434876202103e-03,-6.118473983103438485e-01,4.975305890600746350e-01,4.316690629071036345e-03,1.423998527892711592e-02,-1.696379754761801958e-02,9.630883932113647461e-01
-8.351546080325972926e-03,-6.149241569536890717e-01,5.316891880102949663e-01,8.391366716514581754e-04,1.337547289276447109e-02,1.165677275948530031e-02,9.940295219421386719e-01
7.275984741971644465e-02,-8.969084716048211225e-01,3.438827110038003010e-01,-2.044451049620107652e-01,2.282261624281509971e-01,1.892050963974626632e-01,1.290625452995300293e+00
-2.515010856756886778e-02,-6.023230012040278192e-01,5.795150132450688218e-01,1.083174108495412857e-03,-1.750635088902209764e-03,-1.181206575721471287e-02,1.023804664611816406e+00
-8.556081091871751976e-02,-3.843616147218328893e-01,5.737383106658958676e-01,-2.185284562353087545e-02,-3.844674611148236800e-03,-1.415618784718870177e-02,8.503143787384033203e-01
-3.552281051305729298e-02,-5.775005060326605655e-01,5.934617102314335702e-01,-1.526471234659980197e-03,-5.468130619073110349e-03,-3.957907271358811381e-03,1.015086531639099121e+00
-2.152975734109876041e-02,-6.056207895034424471e-01,5.641644281763816826e-01,-3.468487090189488389e-03,2.413874244575315610e-03,6.796779159337221557e-03,1.013158917427062988e+00
-1.543615583146131301e-02,-6.000605567227864645e-01,5.042950164002256708e-01,-1.046742418041980011e-02,-2.010640294126241068e-02,-1.334296048472705630e-02,9.580340981483459473e-01
-1.428001301570069881e-02,-6.022105901186297627e-01,4.936677104852189579e-01,-1.309234524273041392e-02,-1.506847705904438076e-02,9.741548284369856703e-03,9.506794214248657227e-01
-4.200343291858974620e-02,-6.058550187911033724e-01,5.713920735178608101e-01,-1.957780567292832178e-03,-9.411868456588154755e-03,-9.328022928032463426e-03,1.020090699195861816e+00
-4.186250242381627656e-02,-6.044696658757765517e-01,5.752923971522055924e-01,-3.792856509623230166e-03,-8.259739260827214961e-04,-3.866860353043199451e-03,1.022111892700195312e+00
-2.501077707418110363e-02,-6.057176424843336848e-01,5.738245430441213379e-01,-4.039210764092862442e-03,-1.045940507013543366e-02,-4.387090824049220093e-03,1.021766543388366699e+00
-2.526212393762088809e-02,-6.148678219968000125e-01,5.978110275655247330e-01,-1.491581739640422764e-03,3.061872075219321428e-03,2.054241666554659177e-03,1.050366640090942383e+00
-5.607985833548266574e-02,-5.236524525795542839e-01,5.870452671549204471e-01,3.849177754432156571e-03,4.402846337561621207e-03,1.832183694304966373e-02,9.664633274078369141e-01
-2.349438050576213230e-02,-6.102046076447676937e-01,5.858433093685700976e-01,-3.701178795223615536e-03,-8.056679038446086776e-04,-3.914203288950294894e-03,1.035912632942199707e+00
-9.857638561928919185e-02,-1.994588890608396947e-01,5.842779100856683172e-01,1.251791337507460189e-01,-3.666653442031220927e-02,-1.749076774937569079e-02,7.728621363639831543e-01
-2.591589568997618859e-02,-6.052196533074302165e-01,5.974570268623604630e-01,-3.786700044532690301e-04,8.718958911456022379e-03,3.871423684338150522e-03,1.041912794113159180e+00
-2.530194234323733526e-02,-6.103970949789082612e-01,5.942577282683456641e-01,-6.758190780107171426e-03,2.561165210558224298e-03,-2.123519723425091026e-03,1.043485522270202637e+00
-6.246983506727998847e-02,-5.961102602398524741e-01,5.623049463762029854e-01,2.140565187109637769e-03,-7.991192038825336436e-03,6.108313534212744984e-03,1.004409313201904297e+00
-4.900508490526121058e-02,-6.080853754940250822e-01,5.396168762582068679e-01,7.925615075106610605e-03,-4.721294400509527117e-02,8.726918453664704936e-03,9.976159930229187012e-01
-2.050650718805364578e-02,-6.342964497178403827e-01,6.023320277546728718e-01,4.747468470902860456e-03,6.299717656218722407e-03,3.668668426044997821e-03,1.071067214012145996e+00
-2.097342547210498398e-02,-6.302218762144522479e-01,6.073158361235366787e-01,-4.875091148524812040e-03,-2.659162828874603573e-03,1.762984969608800967e-02,1.072259426116943359e+00
-5.057835043771556627e-02,-6.038364556183393184e-01,5.571024282131503691e-01,9.288884267477067261e-03,-1.441874999965002749e-02,1.304620151754654414e-02,1.006463050842285156e+00
-4.894009068674264745e-02,-5.953651466534107817e-01,5.417925747449692242e-01,7.442746459363180390e-03,-1.641423537134775734e-02,2.806073337001154379e-04,9.855512380599975586e-01
-8.963816774943006438e-02,-1.740453054907600827e-01,4.640938576699823459e-01,6.264757527784121927e-02,-4.644204088510463929e-02,3.309730696670529909e-02,6.180725693702697754e-01
-8.423729446770575335e-02,-3.470078409950643761e-01,5.820374380345861853e-01,2.153340797118400152e-01,-6.514006388540252712e-02,6.905956437442049844e-02,9.242247343063354492e-01
-1.575161008996775122e-02,-5.425406219751622849e-01,5.896003628293242649e-01,-5.296629691582747631e-04,2.259318149932316652e-02,1.395076401767835449e-02,9.823271036148071289e-01
2.685966427223028183e-02,-5.274433450318686267e-01,5.665806211128906478e-01,2.617004333945079433e-02,8.199817661792868639e-03,8.776095783890824897e-03,9.487923383712768555e-01
-5.626962580302141692e-02,-4.261344129661319147e-01,6.475393798303834547e-01,1.221696984340763931e-01,5.419045443846833357e-03,3.236854153410662072e-02,9.697777032852172852e-01
-2.391552762474975086e-02,-4.697437770936352952e-01,5.743655042364974594e-01,7.169489855222323238e-02,2.013357759813155096e-02,7.187160851343438184e-02,9.249685406684875488e-01
-4.047620401035068038e-03,-7.218144435498381473e-01,4.919152957372190382e-01,2.455495522386224316e-01,-2.092191934590954816e-01,1.021708760256587606e-01,1.208582878112792969e+00
-6.432717903459114761e-02,-6.136720489148419500e-01,6.021056103436237539e-01,1.112388103199440492e-03,-1.669662260447257740e-02,4.598919259751425154e-03,1.054949045181274414e+00
2.326239875515903610e-02,-5.936606497542978866e-01,5.958164107936704257e-01,-1.693544850714962316e-02,2.266244383049386205e-03,-3.534040783091665743e-03,1.030799269676208496e+00
-1.822198041278067643e-02,-6.853936774042924673e-01,6.028950344339309986e-01,-6.588710391193140781e-02,1.109981149785865678e-01,-2.703429850803800577e-02,1.139067053794860840e+00
-5.989496415033846236e-03,-6.017944068088391107e-01,6.075253437231769027e-01,-3.106488758157156110e-03,-6.678178049464769846e-03,2.961115897348786264e-03,1.047429323196411133e+00
1.561917512096104577e-03,-6.005553274186330448e-01,5.974947971745269149e-01,-5.786532790916181120e-03,-5.826772998886882091e-03,2.507683427181911506e-03,1.037653088569641113e+00
-1.319746358563831934e-01,-3.571401814788458529e-01,8.519895806680221062e-01,-2.183787255032732799e-01,1.459358607197764890e-01,-1.058901325024025897e-01,1.216978907585144043e+00
-3.678705794389964395e-03,-5.637837270291535807e-01,5.897670847069597100e-01,-2.206049935882460275e-02,-8.721902551891909036e-03,2.474824403532869480e-03,9.999970197677612305e-01
-2.259127672892604147e-02,-5.849833334870793156e-01,6.018213077791145782e-01,-1.704686879038536454e-02,2.120978414375497556e-02,-1.480438815836092499e-02,1.029669523239135742e+00
-3.854453070997243547e-02,-5.597660300925513255e-01,6.038321576611759278e-01,-1.672902589278643312e-02,-6.778195093787978132e-03,2.144305718187696982e-02,1.010691404342651367e+00
7.753788285820975568e-03,-6.108735758235465108e-01,4.666921102066475813e-01,5.891678564620762490e-03,4.073316602248366891e-02,-3.490373847323292172e-02,9.412611126899719238e-01
1.117869872624838168e-02,-5.578464851392250790e-01,4.012259872783699444e-01,2.814401954203030187e-02,-7.240546693377197807e-02,-1.629162091099643078e-02,8.466247320175170898e-01
-2.465994468906627934e-02,-6.109963981011103940e-01,5.901241415830378312e-01,-3.740401626135609909e-03,6.801550964470295035e-04,-1.980776679829531709e-03,1.040324687957763672e+00
-2.492095498173941756e-02,-6.139060235105678887e-01,6.022378668055540230e-01,-2.407161498229116493e-03,3.768370924018141568e-03,-1.176605725465917646e-03,1.053414940834045410e+00
-8.426999693169223704e-02,-3.025743810264467371e-01,5.693117820055840772e-01,5.133261929748259011e-02,-1.170129091818082612e-02,-9.031226274032447612e-03,7.912434935569763184e-01
-1.485132989379144008e-02,-5.721097352678661263e-01,4.927036384779700517e-01,1.503778165726662487e-02,-7.624684202094969554e-02,-1.231330822482040385e-02,9.325032234191894531e-01
-1.868183314429527550e-02,-5.414560032609793128e-01,5.457731566459284034e-01,3.368565974781533023e-02,-2.862177402289835249e-02,-1.121276458967754470e-02,9.451051354408264160e-01
-3.798065415564558928e-02,-5.585768487061412158e-01,5.927917118203170910e-01,2.944948074371780185e-03,1.825693816243628004e-02,-9.668391191398405943e-03,9.992888569831848145e-01
-3.589726235264386472e-02,-4.931961269961169236e-01,5.757470688301169481e-01,-1.305771293473216021e-01,-1.380813036613039446e-01,6.769620573870666069e-02,9.924888610839843750e-01
-1.648622328112792079e-02,-6.218526150953660458e-01,6.314712364184170701e-01,-1.116497042483870911e-02,8.506361203491963341e-03,1.963244104512874323e-03,1.085896730422973633e+00
-4.599798070847273962e-02,-6.158625724516251232e-01,6.073327229491362056e-01,1.537302288666897183e-03,-2.190917784506714924e-03,5.183513269540794034e-03,1.060188055038452148e+00
-4.667905631566274249e-02,-6.126586078268824176e-01,5.760774072533094703e-01,1.096710375790922558e-03,2.323399813862840699e-03,7.254827460916300937e-03,1.029953241348266602e+00
-3.476269514710209063e-03,-5.300314366649206965e-01,5.813533429135735453e-01,-3.832903682519759464e-02,1.328530589746256679e-02,-5.729964935357430116e-03,9.655394554138183594e-01
-5.215798767512008771e-02,-4.323242307822279806e-01,5.862007344905498796e-01,-6.206270500464950574e-02,2.773675922236212843e-02,7.460199191160777352e-04,8.992083668708801270e-01
-1.928803840946374110e-02,-5.519229978210831167e-01,5.987958602411072029e-01,1.246657127763750508e-03,2.813647288998157373e-02,-1.680045893959675532e-02,9.990831613540649414e-01
-6.423050655477026416e-02,-6.361160342895932907e-01,6.866205117557542259e-01,-1.747706056018716592e-01,-7.534612611382761338e-02,1.012691908473695446e-01,1.208165049552917480e+00
-1.059296782499105916e-01,-3.480391852349315474e-01,6.072200290279005097e-01,-2.024366372799344671e-01,5.009127279014544826e-02,7.882874150855392892e-02,9.428525567054748535e-01
-2.473448122687202377e-02,-5.410192574453910330e-01,5.872086722927114533e-01,-3.328909910669980432e-02,-2.162614152742511203e-02,3.763149659565494243e-02,9.828211069107055664e-01
-6.932874305741418275e-02,-2.747174882267442997e-01,5.874158683173774653e-01,-7.747982323717075848e-02,-9.574030721000513500e-02,3.124067806963570781e-02,8.104454874992370605e-01
-1.405755070422648467e-01,-2.670441142379481603e-02,5.762904888279274385e-01,-3.331762236103810726e-02,3.845992176564298065e-02,-7.145432512653394908e-02,6.843376755714416504e-01
-6.843670091429616964e-02,-3.555897215755453589e-01,5.588407336455271102e-01,-8.174633602491246376e-02,-1.020504487858595738e-02,2.886423644151429879e-02,8.239645957946777344e-01
-8.025103728838291206e-02,-3.670573034887363861e-01,5.734483115623775218e-01,-5.995654667154987766e-02,-5.672749504953699014e-03,-5.826412258431292422e-03,8.414561748504638672e-01
-4.964089469490948203e-02,-5.202411049899600126e-01,6.033072751770903741e-01,-1.556834578644050206e-02,-5.740470530464523123e-03,6.597127530630435797e-03,9.777729511260986328e-01
5.545805546533128655e-03,-6.218403177744474819e-01,6.161125835599525757e-01,1.927787413641413039e-02,8.473597828722504929e-03,-8.888888788997576645e-03,1.072862386703491211e+00
-3.586088246129476992e-02,-6.257725707324187647e-01,6.198456679394039881e-01,-3.993189649159530210e-05,2.170546697483790796e-02,-5.384878905764068843e-03,1.079933404922485352e+00
-5.171499530469524097e-02,-6.328293867759089419e-01,6.317000292140052542e-01,-3.567566893974595185e-03,1.722089867412758199e-02,-3.124453737582509084e-03,1.096744894981384277e+00
-3.238671544654925238e-02,-6.577932757453106571e-01,6.623316494844221358e-01,8.690785563608521532e-04,-6.535964121105665436e-03,-3.863049541673550542e-03,1.143863439559936523e+00
-2.704330966906023925e-02,-5.830000322833683857e-01,6.525392218761697505e-01,1.091939624631123457e-01,-5.967097678864320687e-02,2.582026561062794254e-02,1.094162106513977051e+00
-4.952248181317148862e-02,-6.044014876927786828e-01,5.800202072486433380e-01,-6.358110265311650404e-03,7.196360346218150239e-04,-1.551355737325403562e-03,1.026481747627258301e+00
-1.147210526838934042e-01,-7.930728843368841652e-01,1.035249784106487603e+00,2.733612062504109930e-01,1.987738611591259238e-02,-8.949507781107669813e-02,1.676923155784606934e+00
-2.761424036374802646e-02,-6.391756172059120944e-01,6.507866327435919418e-01,9.262967715453603035e-03,-5.921503531427619628e-03,3.516327257199948378e-04,1.117802262306213379e+00
-2.397473427817797820e-02,-5.884460973715928134e-01,6.011541994458271532e-01,-6.820605354563571629e-04,-6.924815253995353359e-03,2.118196204916147126e-03,1.030747413635253906e+00
-1.898314745960508199e-02,-5.080294860448122396e-01,5.949166954565326959e-01,-4.179956207014906555e-02,-3.627920910574692227e-03,5.359089576451501157e-03,9.600167274475097656e-01
-3.044272414346810285e-02,-5.288653738689195194e-01,5.913833306287824554e-01,-2.770750586796027776e-03,-1.865556080783376675e-02,1.520837353863827186e-02,9.730292558670043945e-01
-7.830469787685293004e-02,-1.599660534133945378e-01,6.058245504049485364e-01,-7.090992584664215781e-02,1.473755827887265890e-01,-4.591846002848876118e-02,7.855808138847351074e-01
-4.368041415068364686e-04,-5.415184094759933897e-01,5.841982020710515533e-01,-3.479645642599190399e-03,-1.258000646617735314e-02,4.516254252940879975e-03,9.754357337951660156e-01
-9.395209430157192704e-03,-5.120853741276034654e-01,5.814270722832762806e-01,-1.551733032584813425e-02,-9.846688619136054199e-03,6.088991404447456623e-04,9.485690593719482422e-01
-2.947702395868133027e-02,-6.153397598601797469e-01,6.304031133203277237e-01,-1.016976001026782123e-01,7.167670754977678582e-02,-7.587710785015501502e-03,1.100858211517333984e+00
1.783270680954087903e-02,-5.378726066806144290e-01,5.874938173362089788e-01,-3.924646045203997180e-02,2.090371278455879171e-03,3.322818799747640352e-04,9.769954681396484375e-01
7.734411682679985522e-03,-5.847536851856854900e-01,5.855918362808343325e-01,9.566070845653302677e-04,5.455923933554486863e-03,-2.161108248619755118e-03,1.013627648353576660e+00
-1.984981877517800683e-02,-5.607372080635216749e-01,5.049007885526649586e-01,-8.176178040361872790e-03,1.695541508718023714e-03,-1.830794739327043161e-02,9.235627055168151855e-01
-4.208723170658481422e-03,-5.411153696660120360e-01,5.887113837602659938e-01,4.824828398058859935e-02,1.503880938636747988e-02,3.284138869478227252e-02,9.844102859497070312e-01
-2.658982388218705112e-02,-6.063180108592614026e-01,5.837456230625266418e-01,-2.202491402377941727e-03,4.314171881420637324e-03,-4.685459202155596407e-03,1.030804991722106934e+00
1.915365028901419575e-02,-6.191415561544738599e-01,4.791624699347707406e-01,-1.164738710514743453e-02,1.724118057210745347e-02,-8.114479926954678776e-03,9.561101198196411133e-01
3.776808161747563508e-02,-3.010216339346006298e-01,1.301009104729816679e-01,-7.941210738814357545e-03,4.594864554526313649e-02,8.167517325146991802e-02,4.255828559398651123e-01
-4.592092475510142768e-02,-4.198360182947651897e-01,5.657274820013703520e-01,3.988986024537857777e-03,2.446740165031404887e-02,2.331856737812799257e-02,8.637741804122924805e-01
-9.225767162049475223e-02,-3.909612704125363103e-01,5.773771670547946933e-01,3.218617862335876757e-03,1.880670826243944702e-02,-1.304555405453152080e-02,8.598021268844604492e-01
-1.631632497555693048e-02,-5.410620465251099187e-01,5.847277273002039477e-01,1.502259643329636020e-03,2.156340203827681462e-02,1.171730450175618825e-02,9.766375422477722168e-01
-8.245321569981875487e-02,-3.006420060523977700e-01,5.571965413990329630e-01,-6.140940918533535631e-02,-2.160931795687776567e-03,1.016710576459878453e-02,7.797179222106933594e-01
-2.359475111467850689e-02,-5.341197665878472112e-01,5.862281689955863850e-01,1.848172802666273734e-02,1.791560046007929438e-02,-6.558289240638955075e-03,9.726079702377319336e-01
-4.411619640008576648e-02,-3.239745985900290282e-01,5.587060379125433629e-01,7.453011311471885447e-02,1.160602990021550145e-03,-1.355080544166194223e-02,7.922369241714477539e-01
3.565333546009366583e-02,-6.277113885515449576e-01,3.980349975852048305e-01,6.671652142157848998e-03,4.797751290693469395e-02,-5.605193143738838174e-02,9.100708365440368652e-01
3.611851442651020129e-05,-5.867640000582062809e-01,5.890915568103831657e-01,5.435414626556233503e-03,8.339220819593233178e-03,-2.674310086531202831e-03,1.018477916717529297e+00
-1.559524833560380075e-03,-6.129130890582458191e-01,5.057276957410149487e-01,-3.369893852313595676e-03,1.121023950024412422e-02,1.827069160643439785e-02,9.708954095840454102e-01
-2.382821985450259486e-02,-6.175213780137479569e-01,5.810351514410861951e-01,1.130491857727048419e-03,-2.113592772497588108e-03,5.116396338837097754e-03,1.038041591644287109e+00
4.276843409457663225e-02,-5.918474516264868868e-01,3.502174875393588849e-01,-9.302928468453803765e-03,1.690830712385629070e-02,-2.918973225535526766e-02,8.342947363853454590e-01
9.559337739128703770e-03,-6.004586058365610768e-01,4.519694369645662069e-01,9.625103529739312616e-03,3.961341826643435121e-02,5.297373827967260043e-03,9.180394411087036133e-01
2.609856094583071218e-02,-6.159024843019840212e-01,4.403780637832765410e-01,-5.069057583605638719e-03,-4.636629784549813104e-04,-3.554459219373199558e-02,9.239202737808227539e-01
-1.578264711027247552e-02,-4.090723520232769084e-01,5.624220862085759221e-01,5.261013728790148170e-02,-1.623584499840420581e-02,-2.604868448409162346e-02,8.529533147811889648e-01
2.722695933522851705e-03,-5.675088413024476086e-01,5.989200959848016703e-01,2.120530378837570326e-02,-1.850484650329209044e-02,-2.153164893980052258e-02,1.012103319168090820e+00
-7.858675644597135079e-03,-4.670891029996069865e-01,5.700358125055330349e-01,3.541038912244128586e-03,-1.163354734300826691e-02,-8.883599896946507354e-03,9.005119204521179199e-01
-2.593862377860892132e-02,-6.086439604310237561e-01,7.189810738815283209e-01,1.977140045302639981e-01,-1.404188470461844862e-01,-2.844905258141300353e-02,1.227751016616821289e+00
-1.664599408616117965e-02,-7.826210452903731296e-01,7.592358901902677148e-01,1.354669558336879243e-01,1.835852679203559823e-01,-1.719865674738524364e-01,1.424050331115722656e+00
-4.547431334536899961e-02,-3.321996505682012768e-01,6.463333962152295609e-01,1.846486081869840590e-01,1.141559338882846830e-01,4.991051882799475009e-02,9.529015421867370605e-01
-5.921976287706198772e-02,-3.801013464981614076e-01,5.842814227686009554e-01,-2.092554488244750995e-03,1.025248463771898143e-03,-6.053999634465076496e-02,8.570635914802551270e-01
-8.708173368316902627e-03,-6.008411065164956932e-01,5.945196021075591641e-01,-4.251038112435699592e-04,4.733816336305417607e-03,-1.999074026121674692e-03,1.035266160964965820e+00
1.422431941744519562e-02,-6.434511861119421861e-01,4.992293403167896715e-01,1.492869356521210307e-03,-2.607719404744033090e-02,7.854815109032159404e-02,1.003642916679382324e+00
-7.469030373748110352e-02,-4.751601857397372841e-01,5.998753775792268206e-01,-1.770912204808150481e-02,6.308934336857351024e-04,2.101943281597418514e-02,9.422450065612792969e-01
-8.415846704833850403e-03,-5.912267208400130425e-01,6.048897844545457758e-01,4.052371207013942371e-03,-8.297304337258675985e-03,-4.247629594612106242e-03,1.036129117012023926e+00
-7.554750136622001566e-02,-2.708455714510776824e-01,6.056055462855806093e-01,7.172301698175961859e-02,2.317750214718333757e-02,-1.388414948514277852e-02,8.079363703727722168e-01
-7.383037631539659390e-03,-5.837824139428553494e-01,5.083555121094579521e-01,-3.437438027482188525e-03,1.896720456579817707e-02,1.172110884090065037e-02,9.471117854118347168e-01
-2.976841618222510200e-02,-5.163219719799034824e-01,5.493916142855755913e-01,-6.789810656429183001e-03,8.193229064673190204e-03,-6.205296394979005481e-02,9.305076599121093750e-01
-6.319945970825122106e-04,-6.154896989773634974e-01,5.019138754867769059e-01,-2.765573902023951963e-03,8.723394642549533312e-03,-2.555565715568317801e-03,9.694675803184509277e-01
-2.215183269420969298e-02,-3.570257903190865445e-01,3.489185730267055363e-01,-1.246365944408209248e-01,1.054676063572901196e-01,4.724306038874049457e-02,6.787962913513183594e-01
3.160919931087548262e-02,-5.788201721856566229e-01,4.022315379854888850e-01,-2.049489487030990015e-02,2.474071140023126336e-02,-3.286630554024835144e-02,8.617196083068847656e-01
2.132962109651875826e-02,-6.154659008706977463e-01,4.991237862000020842e-01,1.022558954351984826e-03,2.419704612743212458e-03,7.520204590408230937e-03,9.686295986175537109e-01
7.273535999975884458e-03,-6.129181449771928802e-01,4.533278517574922395e-01,-2.639182426312193346e-03,1.154034951932465108e-02,-2.989882701963007122e-02,9.291628599166870117e-01
-4.555270961261288776e-02,-5.508389683739945974e-01,6.007501874871827852e-01,-6.628367940030404888e-04,-9.007962536632409950e-03,2.504701240399851217e-02,1.000857830047607422e+00
-2.977915261850636736e-02,-5.940178625021925729e-01,5.924161087097664646e-01,-4.842838461038102144e-03,3.004379317589041167e-03,1.883691963378832709e-03,1.027943134307861328e+00
3.814255201048877275e-02,-6.111279266439415547e-01,3.827495739945614428e-01,-2.398520047718280881e-02,2.685396996234912237e-02,6.965791375944763164e-02,8.845876455307006836e-01
-5.790784821457065773e-03,-5.971735269320865847e-01,4.962829344193742109e-01,-1.629877944620546429e-02,3.380464940966508504e-05,-1.800921453358722557e-02,9.489464163780212402e-01
-2.895877160840437670e-02,-6.041937195932023386e-01,5.696376911746247051e-01,-1.215547474367868232e-02,-1.580308922998259957e-03,-3.608695166404465599e-03,1.016875863075256348e+00
-2.160457830412392324e-02,-5.867471590330960440e-01,5.966490634182116670e-01,8.302494030377510076e-03,1.438712960768741451e-02,-8.941195638227135293e-04,1.025599956512451172e+00
-2.019721302606572455e-02,-5.784985179690673718e-01,6.218666917375852421e-01,3.410680469327918157e-02,-1.366456687924917472e-02,-1.575503898361883467e-02,1.042691826820373535e+00
-2.462689131651791055e-02,-6.068787021323910347e-01,5.834574087003259191e-01,-3.418073002308909345e-03,1.181816987549007877e-03,-4.025343620874568575e-03,1.030984878540039062e+00
-9.852889839072412337e-04,-6.113775438074721125e-01,5.052438817224972345e-01,-2.806755180794196641e-03,-2.764589351906587226e-03,1.483778441614520306e-02,9.687889814376831055e-01
-2.912801194825171205e-02,-5.985629293200794843e-01,5.969090917464199286e-01,-6.603667535371385972e-05,7.379517387289616544e-03,6.610804432883519467e-03,1.035838007926940918e+00
2.176214058181236144e-02,-5.986805967228749914e-01,4.216536401508422793e-01,-9.148963206993428882e-03,1.647980755345308714e-03,1.195590895645414278e-02,8.908761143684387207e-01
7.960394498704503885e-02,-5.931210163497693255e-01,2.408164488932501013e-01,-2.325740629632410631e-03,-9.159724933224134419e-03,6.047168727887580406e-03,7.664057016372680664e-01
-1.744549958182893545e-02,-2.960808181081255874e-01,2.448535113103833538e-01,1.416302273779959306e-02,-2.352908120043344098e-02,3.165479385404075096e-03,4.709743857383728027e-01
-2.594785185416765075e-02,-5.821793862224047267e-01,5.802274017981861043e-01,-1.101930041518933007e-02,5.707842937111652463e-03,-4.453369002126865081e-03,1.007242441177368164e+00
-2.050034380408184004e-02,-6.030239951926281705e-01,5.183776125640928711e-01,6.127807120597434688e-03,1.829230050264667867e-02,4.315491762743402585e-03,9.720106720924377441e-01
-3.547598194627172435e-02,-6.006978782662946159e-01,5.370726426275632681e-01,7.669029417041014519e-03,1.915170370211528861e-03,-7.033484210762190256e-03,9.855154156684875488e-01
-3.256101246164886526e-02,-6.165832569341334057e-01,5.868559605563568038e-01,-1.700453518473967612e-02,3.377146703503514785e-02,1.710133487321262302e-02,1.044834494590759277e+00
-3.824559407586762549e-02,-5.946497247344613157e-01,5.295065894162351849e-01,3.129245989855598212e-03,3.509146368428510236e-03,7.449787725433241071e-04,9.735993742942810059e-01
-5.133119261109109210e-02,-6.057821657435914497e-01,5.778093706818511199e-01,2.877897352769259471e-03,3.979301031043241087e-03,1.921326150485069611e-03,1.025741100311279297e+00
-3.457624347524600184e-02,-6.200858783847567057e-01,5.959044679649060372e-01,6.625965792767587841e-03,9.097202511945973061e-05,-3.771375777984587330e-03,1.053401350975036621e+00
-4.044770522492019404e-02,-6.026650905768994315e-01,5.629564928812499369e-01,5.886935062431186347e-03,1.074628289549845947e-02,1.017280521171951479e-03,1.009892463684082031e+00
1.012644222285287443e-03,-7.961984212489593427e-01,7.175134814137021921e-01,-1.744904125248795956e-01,2.049237346151045192e-01,1.662811518778217063e-02,1.392218589782714844e+00
1.723870392066513546e-04,-6.206023078498732470e-01,5.453774294944703227e-01,-8.599848925198698424e-02,9.616312364045447036e-02,3.404797095738847090e-02,1.036564707756042480e+00
-7.020713149720171631e-02,-9.634727991611428122e-01,1.072157284470673488e+00,-1.313155183320890984e-01,2.064215323882982733e-02,3.346625910568902821e-04,1.782235860824584961e+00
-1.645771662522640261e-02,-6.151023846697897257e-01,5.992797807003908961e-01,1.104404452354518663e-04,5.330077583550509902e-03,2.277597173326911112e-03,1.051768422126770020e+00
-3.495147951626059735e-02,-6.421464236762253197e-01,6.361315380282759335e-01,-2.849971465046792149e-02,5.216925264457315803e-02,1.810777864945237571e-03,1.112262487411499023e+00
-5.671081228623896242e-02,-6.077528453996560165e-01,5.791020950696522673e-01,-2.789689858997076305e-03,1.765647270630354244e-03,-4.826960062420317978e-03,1.028769969940185547e+00
-4.169325467626420340e-02,-6.254072584378864708e-01,6.272100483913859437e-01,1.947646536072705032e-03,6.500630591671396202e-03,-8.205572284282711473e-03,1.085790991783142090e+00
-3.503583879632034270e-02,-6.431382892904818904e-01,6.593330735237604712e-01,-2.661859558725375788e-03,-1.781139410832752092e-03,2.654499416228986628e-06,1.128811359405517578e+00
-1.106375489892057751e-01,-2.660599749036315353e-01,5.469773365471872761e-01,6.986482517053502032e-03,4.755245108334207123e-04,-9.492931378609960683e-03,7.478228807449340820e-01
-6.046345706106509565e-02,-3.851122582229880020e-01,5.620808024429443384e-01,-4.096319618248162042e-02,-4.548478465370721022e-03,-5.274439383777481706e-03,8.368069529533386230e-01
-7.878498201280899338e-02,-3.717941049945924781e-01,5.745665450414038089e-01,-2.928337566069622640e-03,-1.485392489527517443e-02,2.729609972758768530e-02,8.408825397491455078e-01
-1.245407358303937673e-01,-1.133845802098536748e-01,6.024989834235023878e-01,-8.354671586639406122e-02,6.646272774273560141e-03,9.145571831835419899e-03,7.361547946929931641e-01
-9.588250489479355210e-02,-3.275418047340324379e-01,5.722652514737882612e-01,-2.683994310649872109e-02,-3.629395054937658693e-03,4.519243432300405067e-02,8.143696188926696777e-01
-4.992694315647774883e-02,-3.978994993923982149e-01,5.726760417550506022e-01,-6.739603388274363616e-02,1.026528859701806261e-02,1.121134928983481306e-02,8.600511550903320312e-01
-2.685723618477211388e-03,-5.430364973568385656e-01,5.846217698738559454e-01,-2.056113287582557458e-02,1.642599106438163634e-02,2.705537479630263503e-03,9.779369831085205078e-01
-8.549777710507117101e-02,-2.036198544299445135e-01,4.569134395481267430e-01,-9.729446462836717491e-02,4.842469820759488092e-02,1.306021168596477149e-02,6.388886570930480957e-01
-7.624789523520278389e-02,-2.776383674478434260e-01,5.460289343106450310e-01,4.701555293904198518e-02,5.734264613296660186e-03,4.851876804483807454e-03,7.482699155807495117e-01
-1.146663934749963254e-01,-2.337486741050847638e-01,5.629892760553029118e-01,-6.250565041074976347e-02,2.682993314287464379e-03,8.988090483776531650e-03,7.523824572563171387e-01
-1.159990102742184670e-01,-4.793992226521068267e-02,5.573198369025003096e-01,-1.721871186170942716e-02,2.203255466820409555e-02,1.794242903483801027e-02,6.445745825767517090e-01
-1.142836144167642086e-02,-6.035064062836722476e-01,6.069518779153152410e-01,5.483437166385167656e-03,-7.622896074421776566e-03,-9.754747080195557904e-03,1.048632383346557617e+00
-6.825863622198313427e-03,-5.985424227868358926e-01,6.096001344737308481e-01,1.809848265149744144e-03,-1.734638376758792068e-03,-4.934874173600490438e-03,1.046398997306823730e+00
-8.759423490235698079e-03,-5.497531924197603947e-01,5.948437631496038547e-01,5.315636402107594936e-03,-1.936474096676814999e-02,2.752018526282583224e-03,9.923654198646545410e-01
-2.254948999734341861e-02,-5.639453190311106701e-01,6.096467288487148473e-01,5.206639290674053289e-03,-1.990266781774532173e-02,-1.770402044836412100e-02,1.018459558486938477e+00
-1.497847551534078024e-03,-5.858102593479549425e-01,6.015320594726447645e-01,1.763921316849277610e-02,-6.828809794293556196e-03,-7.295602111723375333e-03,1.028910517692565918e+00
-2.098493333884698595e-02,-6.086323105866671135e-01,6.086640281613129311e-01,-3.917954089085161525e-03,3.159396222957344073e-03,-2.665945449928541116e-04,1.054454803466796875e+00
-6.471032879862473504e-03,-6.130513236944832300e-01,6.132128680256010433e-01,4.522942972242637374e-03,-1.482483865974324085e-03,2.058332592614802673e-03,1.062034130096435547e+00
-2.073395283942042894e-02,-6.116953852992277341e-01,6.176416305313241484e-01,-1.485410062903344876e-05,-5.313414038994389993e-03,-2.865619999705883852e-03,1.064952373504638672e+00
-2.548931098842620313e-02,-6.171494182689698516e-01,6.194739457857602050e-01,-4.068362514302797733e-05,3.021071781170356439e-03,-2.424985135070475799e-03,1.071299791336059570e+00
-8.152464835297421400e-03,-5.825675224912103545e-01,6.028230048729842361e-01,2.430542560085879964e-03,-1.585416150119471623e-02,-6.749799437734042493e-03,1.027183413505554199e+00
-2.970259124901881986e-02,-5.932512729904435567e-01,6.025521321506727146e-01,-3.549728033566913049e-02,-1.647032114335432798e-02,2.609048054516857271e-02,1.039363026618957520e+00
-6.320105732765791962e-02,-6.066207023518902508e-01,5.344165080303753257e-01,5.121599574458540749e-03,-6.700156682932130459e-02,1.494770300398675159e-02,9.957034587860107422e-01
6.890154288285987860e-05,-6.134070416574078921e-01,4.344676665590471165e-01,-8.080476372008599251e-02,-1.411194564188504030e-01,8.391810020622834931e-02,9.654052257537841797e-01
-2.831282114286070434e-02,-6.338848071876063139e-01,6.656267478734253507e-01,-6.215602907926635889e-02,-2.049092283128074732e-01,6.184535911944449155e-02,1.190599799156188965e+00
-6.732750158840791754e-02,-6.970817679899842245e-01,7.195653418272984769e-01,-2.151621105064682182e-01,-1.148496441953392039e-01,2.763560320305509174e-02,1.300802350044250488e+00
-2.620053165892937200e-02,-7.321173339906739130e-01,6.745892030120541616e-01,-8.614934474603788694e-02,-2.461202402576662951e-01,-1.684269183780633464e-02,1.299602150917053223e+00
-6.384131179763800901e-02,-6.069504112664897422e-01,5.483377671389744190e-01,3.132337115043787659e-03,-5.788476251892606811e-02,1.425925373690714246e-02,1.006430387496948242e+00
-3.861147262318213175e-02,-5.961030787115111362e-01,7.028222242031620937e-01,-6.770852029342633305e-02,-3.760785445587163951e-03,5.148475451984866648e-03,1.134786009788513184e+00
8.014250970600232671e-03,-6.221893439186998442e-01,4.895483699286441448e-01,1.381162125761400961e-02,-1.286889599850343270e-02,-2.013107555740661480e-03,9.662181138992309570e-01
-6.586912239227282750e-02,-4.045601167150872923e-01,5.628653690760435646e-01,-1.479868370525252996e-01,-1.640677969938698216e-02,-1.106833711431083472e-01,9.089695811271667480e-01
-1.127623174824731594e-02,-5.954393517940265168e-01,5.947959693674865767e-01,-3.382224798073742264e-04,1.105415041599231915e-02,-8.127075202374886911e-03,1.031106233596801758e+00
-8.605311698351014726e-02,-3.853708362347474936e-01,5.850085134245283092e-01,4.733855118677699099e-03,-8.686605102733538711e-03,-5.309692447777406704e-02,8.657522201538085938e-01
-2.116705350844939187e-02,-5.974642181123412943e-01,5.934119389189800309e-01,1.845926760708599314e-03,1.524240336532831086e-02,-5.657903150026897740e-03,1.031895875930786133e+00
-4.897092326593235900e-02,-3.741463106874093891e-01,5.547444917616919380e-01,-6.552089053085335957e-02,1.142334703115909476e-02,6.524287392468078144e-03,8.245743513107299805e-01
-5.163581768260164240e-02,-4.828370025499301166e-01,5.731453073954404509e-01,-1.086307841016600183e-02,1.304717224428479129e-02,-2.618513716339024647e-02,9.212024807929992676e-01
-9.540614403730190984e-02,-1.413948654961512674e-01,5.768581607068183903e-01,-1.613971992702632058e-02,3.817522745310867986e-03,-1.365073323341194599e-02,6.973916292190551758e-01
-2.611546568594486084e-02,-6.133899833373281929e-01,6.009824581937616150e-01,-8.322202732209632667e-04,1.094710861561513579e-03,-4.104036065526203529e-03,1.051892638206481934e+00
-2.377177441640477076e-02,-6.156110115471957744e-01,5.961525530909181914e-01,5.145926642072550829e-04,-1.059946126344530519e-03,9.539491520027768446e-04,1.049515247344970703e+00
-3.173769108634279940e-02,-6.122562007596179523e-01,5.887360341362156690e-01,-3.342449355794561722e-03,7.015828540407079107e-04,-1.933929429929641397e-03,1.040303826332092285e+00
-2.746599532879737127e-02,-4.479311633870745601e-01,6.097186457176604346e-01,7.977183650880764754e-02,-2.851651031587943211e-02,-5.859644273676189140e-03,9.339927434921264648e-01
-2.740732078923354895e-02,-6.071622623658855522e-01,5.883439200203336439e-01,-4.480202486725393465e-03,-8.330967017428123067e-03,-8.521130138332812243e-03,1.035729885101318359e+00
-2.319704373497796790e-02,-6.082558799313771969e-01,5.985993978712774721e-01,1.020978616108650502e-03,6.781584540812992702e-03,2.372160076670550878e-03,1.045404314994812012e+00
-2.368597626573958059e-02,-6.150352166648707097e-01,5.906566221966892405e-01,-5.456431979136828342e-03,1.807611188520566762e-03,2.887043642739599552e-03,1.044282436370849609e+00
4.341607484319308548e-03,-6.025274153265262056e-01,5.880922493551513641e-01,6.221378839013781692e-02,-9.800161103797109738e-03,1.066958564257983536e-02,1.037090301513671875e+00
-1.249902964641117636e-02,-5.856598373319973350e-01,5.903725943454660730e-01,6.712438731256945013e-03,9.032855887044938595e-03,6.774868502190990044e-03,1.018836379051208496e+00
-1.109194993370990825e-02,-5.995980478125961799e-01,5.950378930854278714e-01,5.397808392068980179e-03,1.141576706977551897e-02,1.262969078130839543e-03,1.034856081008911133e+00
-3.393300867040652258e-02,-6.075820139731228364e-01,5.802460066897542346e-01,1.235290031112027233e-03,-2.294875465576384343e-03,-1.825780341805968232e-03,1.028903603553771973e+00
9.837986509423482517e-03,-6.314122146371463629e-01,4.395288297029950053e-01,3.544886322322655936e-02,-6.640218249263971084e-02,3.758000387603583486e-02,9.447802901268005371e-01
-3.209730200171237446e-02,-1.896085776678275714e-01,3.469216733060487279e-01,7.413229741270739581e-02,-3.884295853104796636e-02,1.881865610914789516e-02,5.002404451370239258e-01
5.646584546993382858e-02,-5.884638458785600434e-01,2.430870670101706876e-01,4.755189067672522391e-02,-1.498203645421530561e-01,-3.143024974647022629e-02,8.051117062568664551e-01
-1.119335832417226242e-02,-6.201928675875024721e-01,5.358089750004041418e-01,-1.746168897328994815e-02,2.347778789624641732e-03,7.070581984144941150e-03,1.002146363258361816e+00
-3.078247115272736423e-02,-3.929982604977423910e-01,4.036269008892726662e-01,1.743315185446250026e-01,-1.210544126795575215e-01,3.154231646758352131e-02,7.844637632369995117e-01
-8.017808501359666162e-02,-2.790792570547175333e-01,5.782844552994493847e-01,1.538223758945856112e-01,-5.298109745657569869e-02,-8.365417017615431328e-02,8.393465280532836914e-01
2.153149295180803446e-02,-4.340179745664450306e-01,2.562648234200072261e-01,3.612267861454060425e-02,-6.757731058489939435e-02,2.077329374702327133e-02,6.232711076736450195e-01
9.284134315349523714e-02,-5.807840192908971799e-01,9.964916791081634972e-03,-7.318274249043778268e-02,3.057328310935286328e-02,2.721267365961642648e-01,8.036430478096008301e-01
-1.808911502066059759e-02,-6.001128998426490391e-01,5.876646475442695028e-01,-2.327698158408387976e-03,3.785023798058597712e-03,-3.658601143119535794e-03,1.028762221336364746e+00
-1.104716594155600029e-01,-8.866547113410686021e-02,5.478680487892038098e-01,3.767884297503167751e-02,3.336774988209949278e-02,1.358261851348941014e-02,6.539751887321472168e-01
-5.581789325793724832e-02,-4.355029938807529755e-01,6.189461087504006809e-01,1.062469528034878236e-01,-2.670031468114771240e-04,6.477976291598303016e-02,9.497998356819152832e-01
2.927891109080523607e-02,-5.979392063168816884e-01,5.971183733107841007e-01,1.886310738004133916e-02,-2.793883705745703674e-03,1.534110447478229155e-03,1.035906076431274414e+00
-2.381254060799456451e-02,-5.724902109672069805e-01,5.808201705260948033e-01,1.731139600857090066e-02,1.104843870158751795e-03,-5.798885512446547152e-04,9.996399879455566406e-01
-3.503901023272965043e-02,-5.993785317176368865e-01,5.968636948058256841e-01,2.768243328522737318e-03,2.671218610140356584e-03,9.505530607885323557e-03,1.036678910255432129e+00
-1.512461118922278289e-02,-3.545471432860042849e-01,3.985933315991285752e-01,1.335830329438952024e-01,-1.164036221015023465e-01,-1.571610157626063958e-02,7.223012447357177734e-01
-1.758568695892390177e-02,-3.834164591612019279e-01,3.963487647089793398e-01,1.069234782799604461e-01,-1.068222989238526849e-01,-3.012992079776842178e-02,7.265384793281555176e-01
-3.186085974237152368e-02,-6.782913480022682018e-01,6.340726607163854611e-01,2.023316597488462321e-01,-1.271210953174403968e-01,1.123291967248407977e-02,1.209748625755310059e+00
3.688313820361358020e-02,-5.495619056625739018e-01,3.878289258347943913e-01,1.073878097415239402e-01,-2.108127849233249196e-01,1.176847798279673230e-01,9.393416643142700195e-01
-6.660698892145297534e-02,-2.456605245029087059e-01,5.063734954824182788e-01,1.608259479156109173e-01,-6.288319978302531199e-02,1.619386467814310296e-02,7.437778711318969727e-01
-1.041238987017602813e-01,-9.365141859840797611e-02,6.131119444072575808e-01,1.198928091651715599e-01,1.293240606320060319e-02,3.517422248745970259e-02,7.445548772811889648e-01
-2.183517801540751924e-02,-6.125315736929886068e-01,5.928922417348169160e-01,1.584034391136306509e-03,2.236108624806812731e-03,-7.359048350698715489e-04,1.044008374214172363e+00
1.131280765572390337e-03,-5.554538153776141796e-01,5.766958020663325302e-01,4.118685059977322122e-03,8.525975635134431033e-03,-1.409529831245378596e-03,9.806564450263977051e-01
1.818804731203690558e-02,-5.557370355858763933e-01,5.726326375419229509e-01,6.049415753359378180e-03,7.654614037632116730e-03,3.527881214935997024e-03,9.774105548858642578e-01
-1.371556332903527131e-02,-4.192884346983292709e-01,5.917741489443257841e-01,1.214705804757271052e-01,-3.569932356346396801e-02,-2.883559911667738646e-02,9.095385670661926270e-01
-2.492018483041283719e-02,-6.086945649588136886e-01,5.940475060632677273e-01,-1.000732022104872674e-03,2.268626888477282780e-03,-1.057136574519575547e-03,1.041764259338378906e+00
-7.071386037184140827e-02,-1.530257800062001516e-01,5.413130406011472662e-01,1.360973134041996158e-01,-5.367346197171168204e-02,-7.469360072374610360e-02,7.160144448280334473e-01
-1.097209124617012643e-01,-2.321851321218599273e-01,5.575089626586140490e-01,2.714076552748948684e-02,-4.199334953298377617e-03,-8.870974745843687378e-03,7.378372550010681152e-01
-2.474310423855712038e-02,-7.622295751275878217e-01,7.069742564077957647e-01,2.903869102511775352e-02,5.423166000273717258e-02,3.210524069927494541e-03,1.276836752891540527e+00
-6.410960483538455379e-02,-2.815728415927514772e-01,5.369134149082992469e-01,6.194423825238858095e-02,1.248057979854290921e-02,-5.998616125369842129e-03,7.424997091293334961e-01
-9.286018968844861332e-02,-3.287659931917353284e-01,5.648885547758439873e-01,4.972202559175918461e-03,1.528584521088720803e-02,3.470083686231565517e-02,8.048846721649169922e-01
-7.898050855870272779e-02,-2.770793546858653644e-01,5.512655848741677689e-01,4.702351556322240111e-02,-1.063683670329875755e-03,-3.254764747622459868e-03,7.536399364471435547e-01
-3.354785517681121987e-02,-3.907958863362177016e-01,6.022417561137280995e-01,1.403281884142786595e-01,2.204038834326678235e-03,4.259072597491842666e-02,9.074809551239013672e-01
-1.017923206103205636e-01,-1.988856975384935000e-01,5.504146807143217579e-01,1.198950140189863900e-01,-2.648621113542875410e-02,-4.113718778008429965e-03,7.371606826782226562e-01
-1.522626235171177511e-02,-3.709061207648330916e-01,5.398321005418542651e-01,5.888709888433678319e-02,-4.350729803341159448e-03,-3.857600591987156869e-03,8.015769124031066895e-01
-7.137253624776929151e-02,-3.825633358114184368e-01,6.680606222628086011e-01,2.260941550701670300e-01,-4.896958928077826956e-02,-3.883615693741309608e-03,1.017005801200866699e+00
-3.911530633417897862e-03,-5.835304952302986514e-01,7.190176163716647251e-01,4.726683063324279427e-02,8.468879688696914505e-04,3.486438170238726625e-02,1.134882926940917969e+00
-3.108016313773523387e-02,-4.267165361781894983e-01,5.835589418115681992e-01,7.373133286651001317e-02,1.301731976541748055e-02,2.975066332495830690e-02,8.927236795425415039e-01
-2.401803826313207019e-02,-6.258830898557865563e-01,6.262950911968754308e-01,-2.441941052484884918e-03,6.427410554637102893e-04,2.578990570376726507e-03,1.084706664085388184e+00
-3.005645223955155307e-02,-6.481850023388781024e-01,6.493404978520498361e-01,1.917232971558093793e-03,9.290639025211480315e-03,-5.068573764307518145e-03,1.124261856079101562e+00
3.270670015803621433e-02,-5.979017891528096706e-01,5.937895671714108481e-01,1.506163343358150712e-02,3.341974180391490534e-03,-1.258372756263085365e-03,1.032968282699584961e+00
-1.858206939511269917e-02,-5.879255635225668630e-01,7.029128750962988503e-01,1.513097015971850423e-01,4.362479989688554383e-02,1.024023235412299671e-03,1.153205037117004395e+00
-4.319300231096909193e-02,-6.158025504818218643e-01,5.913248136836547486e-01,7.907717992875812688e-03,-1.013075293151871267e-02,8.439577997322738473e-03,1.046200156211853027e+00
3.316390764510813993e-02,-5.829681634234403775e-01,5.963987398052714717e-01,7.553985702491503376e-03,-7.763588817471021516e-03,-9.293647688642015306e-03,1.022003173828125000e+00
-1.058518098022459553e-01,-2.945178272172029321e-01,5.641055146493610950e-01,3.015525890402347142e-03,2.121195982214808384e-03,4.164870742928182545e-02,7.849079370498657227e-01
-3.698185333220341958e-02,-5.340874807572375538e-01,5.842919815119027582e-01,2.228301064661425326e-03,1.141502633332693376e-02,1.987751732551474096e-02,9.713521599769592285e-01
1.145859636117971259e-02,-6.041486926899443111e-01,4.177718727132320176e-01,8.465125168553352258e-04,-7.133478933090411922e-02,-2.734557742755626408e-02,9.009459614753723145e-01
-1.075261467158421524e-01,-3.784093742160648532e-01,6.455614954475260570e-01,-7.833064631051950277e-02,1.088440211070013791e-02,2.239173381702809495e-02,9.299377202987670898e-01
-3.000370176820797707e-02,-4.461773063465012124e-01,6.383398249891916176e-01,1.773329015029782019e-01,-2.164900252446052831e-01,-2.936607894388498438e-02,1.065627574920654297e+00
-1.561379994835706414e-02,-7.482045832786292650e-01,7.607866193723890058e-01,9.077484116175227324e-02,-1.664949270677678062e-01,-4.907546833671992681e-02,1.350325107574462891e+00
3.842356763489673116e-02,-5.754938654970286338e-01,5.759315253999283124e-01,4.081197715188942393e-02,2.972693226710503771e-04,3.717363812515966405e-03,1.000416636466979980e+00
1.649973113714833794e-02,-5.906686005112631310e-01,6.282318649394231791e-01,1.250869937144323540e-02,-8.448029529896377773e-03,-2.222647958624034831e-02,1.056626439094543457e+00
6.850953068273477053e-03,-5.305608040203746434e-01,3.575089945205888742e-01,1.624928377215850983e-01,-1.437232124249468723e-01,1.081268870557360734e-01,8.811783790588378906e-01
9.824172399763103636e-03,-5.763439552266123034e-01,3.847356614188680579e-01,-1.672519680042759433e-03,-8.209525118594727944e-02,-5.207959847410145032e-02,8.557318449020385742e-01
-3.411263177943341107e-02,-4.887743321549246067e-01,5.572895789122578325e-01,4.912472943939356212e-02,-2.503837403597006933e-02,2.749623966068630299e-02,9.147406220436096191e-01
-2.580644810187562865e-03,-6.098284192874694476e-01,4.965697548839694830e-01,-1.549663784967694052e-02,-1.334770638954419636e-03,-2.152910952736970460e-02,9.607940912246704102e-01
-1.566890226050882823e-02,-6.883894343326069087e-01,6.974342557084650673e-01,6.792961964344637615e-02,-1.306672704894010217e-01,-4.576927811009932900e-02,1.229690074920654297e+00
-4.459284606537382983e-02,-7.242304588543924115e-01,6.531064256640156662e-01,1.654715863158601414e-03,-7.245655867087236190e-02,-8.116332837939324238e-03,1.199512362480163574e+00
-2.142070104136348241e-02,-6.050677442323645350e-01,5.296961358575269507e-01,-1.461863981243562670e-02,2.377112550451380730e-04,-1.322143728855196265e-02,9.834617972373962402e-01
-9.458784337364403369e-03,-5.857984074813484821e-01,5.896171905393240431e-01,4.865118407990665431e-03,3.708036716548502340e-04,-7.890321101631411456e-04,1.018039226531982422e+00
-2.611773502969939875e-02,-5.426554047100008438e-01,5.929213041706031806e-01,3.533987209065174440e-02,-4.199432928182774555e-02,-1.498517600468543196e-02,9.896910786628723145e-01
-1.992814375013991432e-02,-5.978210435260848943e-01,4.821036105421658835e-01,-1.451911775009894455e-02,-1.868844749590770028e-03,-1.489202439612719031e-02,9.367095828056335449e-01
-1.310913284602923182e-02,-5.993924383715855120e-01,4.913729984107215731e-01,-1.523587014364953356e-02,-2.129882416972840586e-02,5.763024011695636918e-03,9.466555714607238770e-01
-3.612215132818928642e-02,-6.177650171686619451e-01,6.184992755348461824e-01,-2.150008922600844374e-03,2.147077923806555572e-02,9.615347461528129733e-03,1.072039008140563965e+00
6.232501465072357028e-02,-6.453009819373908273e-01,2.980122119475451803e-01,-4.702428549709909353e-03,8.790354971527830630e-02,-4.354873467658158803e-02,8.671783804893493652e-01
-2.498113512325299268e-02,-5.852602895920872017e-01,5.824379817403376736e-01,2.035572079929701128e-02,2.480440355402725727e-02,-1.966692307225278297e-02,1.013629198074340820e+00
-6.034644713544030925e-02,-5.953484911020182624e-01,5.277684046715686028e-01,1.266020931362298345e-03,-3.565134416141824830e-02,1.828930406656196442e-03,9.749752879142761230e-01
-3.990077317872994800e-02,-6.166786483508316374e-01,6.014961894068620030e-01,-3.020198181523001471e-03,-9.573438617914089774e-03,9.199888541688527183e-03,1.055728435516357422e+00
-3.809652746279737490e-02,-6.195852575671726425e-01,5.998353228870901832e-01,1.929226660661518254e-04,-1.894462722421172418e-02,6.569128164313336841e-03,1.056996941566467285e+00
-9.651918726428000000e-03,-6.105580897122444561e-01,6.019122769822972119e-01,-2.345818000064354286e-03,-3.680769678775614676e-03,-1.580735678307391805e-03,1.050074458122253418e+00
-2.359376674956593228e-02,-5.982950427928156456e-01,5.859390236495918280e-01,-3.504101007628926488e-03,-3.004161768958363114e-03,-4.554363298701328720e-04,1.025756120681762695e+00
-1.584361866476974995e-02,-6.211633838294716714e-01,6.046383830391058867e-01,2.874898711071172293e-03,5.193175498645861976e-03,5.792778436931897076e-03,1.061699748039245605e+00
-1.818632437871222848e-02,-6.109442753597048581e-01,6.137984376874516812e-01,-1.680310392566500277e-02,9.695606516869306746e-03,-1.796691454065402205e-02,1.061827778816223145e+00
3.834277954548495626e-02,-6.189832854087869984e-01,2.924652055941097117e-01,-1.121961295975234668e-01,-1.607450531872479105e-01,-5.981651450082232924e-02,8.886573910713195801e-01
-1.867274065680919748e-02,-6.002874102283329849e-01,4.687471735952083440e-01,1.610465937760172800e-02,-8.562890821666420405e-02,1.507255558992979215e-02,9.395748376846313477e-01
2.147416505214912175e-02,-9.389466344043851942e-01,7.532464979911490666e-01,-4.382810729621165746e-02,-2.523600176704594578e-01,6.715370758479977109e-02,1.539823532104492188e+00
4.252362313338584054e-02,-7.580629697594524208e-01,4.560918127704762792e-01,2.825354654700217363e-02,-2.764669919769650042e-01,-7.375179219741216652e-02,1.179444551467895508e+00
-1.127332039591524837e-01,-2.688836724360136876e-01,5.428322467094079951e-01,3.194744959815843353e-03,-2.253347139474756126e-03,4.359211972287583420e-02,7.498416900634765625e-01
-7.063902976064167366e-03,-6.356823217435585427e-01,6.454254421115974694e-01,2.531566736786985440e-03,3.859322455115960643e-03,6.278747617308115536e-03,1.109618186950683594e+00
-4.053411589707326540e-02,-5.302114943336417863e-01,5.709235557228989899e-01,3.526881466158358902e-02,-5.591957643570812792e-04,-9.732364116107405927e-02,9.722292423248291016e-01
2.145616578107118616e-02,-5.432612404098194903e-01,5.924663723921482772e-01,4.917526707426064098e-02,3.529262229591635441e-04,1.787014855774631461e-03,9.872600436210632324e-01
-8.190208964911549483e-02,-1.855883249538584634e-01,6.082991133118922367e-01,1.807957732264906525e-01,-5.837988269771197253e-02,-8.385741787037082062e-02,8.295028805732727051e-01
-8.737098942523782719e-02,-1.819310193642693085e-01,6.080442746334134840e-01,1.847864844341625679e-01,-7.686657459253423696e-02,-5.127578612190952789e-02,8.284646272659301758e-01
-3.016859725012797921e-02,-4.504554398343038613e-01,5.927999682012472515e-01,3.511972381520935688e-02,-1.195725605755208754e-02,-1.630497839733098878e-02,9.118568897247314453e-01
3.898199198203076976e-02,-6.199487748814581645e-01,4.125602439445466563e-01,-4.108589233658700192e-03,-2.499425185467449122e-03,3.539166394696129786e-02,9.076011180877685547e-01
-7.110084356807702677e-02,-2.219135011997658280e-01,5.427953618225604959e-01,7.712419035073131424e-02,-2.229829891200721306e-03,-8.476446491003120434e-03,7.143326997756958008e-01
-3.561973759172951809e-02,-6.122367763473387514e-01,5.852677276340253476e-01,5.214547762141179960e-03,-1.384459845701383049e-03,2.331606843946839452e-03,1.037355422973632812e+00
-2.804299048121043636e-02,-6.141646603431544227e-01,5.941522704586136294e-01,6.065115352929977607e-04,1.196877208707433334e-03,-3.504601716078898851e-03,1.046608805656433105e+00
-1.284658482145429985e-02,-6.036558861011587229e-01,5.954774112701683997e-01,2.421771741004886871e-03,-7.857011308487177326e-03,-3.541570441592372114e-04,1.038614630699157715e+00
-1.998833750443229293e-02,-5.785028078572561627e-01,5.939091383960076742e-01,-8.682000477876383911e-04,1.604820578553663168e-02,6.473080579892059698e-03,1.016159296035766602e+00
-2.455354493834790985e-02,-6.146830505609345296e-01,5.935479900690561195e-01,-2.848808240853041053e-03,-1.977956182530259902e-03,-1.910260190039074534e-03,1.046474695205688477e+00
-2.448381908151361225e-02,-6.130488597229665215e-01,5.911571219855379367e-01,-4.027235913204136111e-03,6.119575475266512922e-04,-3.709117177313726258e-03,1.043004512786865234e+00
-2.449268019649382400e-02,-6.109479685311017816e-01,5.909419091077656727e-01,-4.874056952858872409e-03,1.221750325723412398e-03,-4.595274410727176115e-03,1.041034817695617676e+00
-2.275006467979232352e-02,-5.825885892661161192e-01,5.942254515655347458e-01,3.147065203975041824e-03,1.346082770675658194e-02,8.737785613510675939e-03,1.019944548606872559e+00
-4.723917050103056819e-02,-5.302714108912678359e-01,5.878700445371819461e-01,1.792866731496867150e-03,8.972603744486924368e-03,1.620951291561717467e-02,9.718546867370605469e-01
-2.661024643831831626e-02,-6.059318189536786470e-01,5.972974671285214976e-01,1.495567493750511344e-03,7.904192757534409322e-03,6.427296859353046933e-03,1.042418122291564941e+00
-2.132687775154301635e-02,-5.574643497982610940e-01,5.902062660346677481e-01,1.534648086500606072e-02,1.521581422670142264e-02,9.658693172059695797e-03,9.954712390899658203e-01
-4.241532877184452099e-02,-5.999611817132330938e-01,5.549150010235321950e-01,3.012266963414706074e-03,1.011671387631404850e-02,1.444354678840997861e-04,1.000517010688781738e+00
-4.865996073557461721e-02,-5.941107857485828925e-01,5.466798826113475895e-01,2.494968072441487890e-03,2.118281353494076355e-02,-5.404223528055969493e-04,9.889592528343200684e-01
-5.317199214313884925e-02,-6.024550616573739470e-01,5.736899003831080757e-01,-7.768874925697150276e-04,1.920432576419305384e-02,-1.062827304965346942e-03,1.019854903221130371e+00
-4.948231579570282201e-02,-6.026049264193890087e-01,5.806020875077588794e-01,-6.043839314153031349e-03,1.327648088011039972e-02,-3.521524493478688628e-04,1.025721073150634766e+00
-5.003531248814348242e-02,-5.963242477454193669e-01,5.489052585262828021e-01,-1.051388742634764553e-03,1.917351316760244895e-02,2.262916817858768518e-04,9.927045702934265137e-01
-3.335082411472525127e-02,-9.074145223539712424e-01,8.452426452011712055e-01,2.284818537598063970e-01,-1.529920173228562497e-01,6.662383893227076526e-03,1.590856790542602539e+00
-1.982234819625172673e-02,-3.928100276498302512e-01,5.532749058563555256e-01,4.611567253873338768e-02,1.246264080416623239e-02,1.369931546110407343e-02,8.298960328102111816e-01
-5.288871800157414482e-02,-7.453490517646974567e-01,6.665916960658756496e-01,1.552773574313790622e-02,-1.114818138569101946e-01,1.347295369135515127e-02,1.238514184951782227e+00
-6.215499852469269504e-02,-5.959056013259581563e-01,5.645739220051034790e-01,-3.529760496455513694e-03,-9.225454415369869696e-03,-2.923946030692324734e-03,1.006237626075744629e+00
-6.312609783691552900e-02,-5.952774565322743738e-01,5.540695122755556756e-01,4.558183764753851765e-03,-2.082066393741318841e-02,7.270099218488978131e-03,9.970347881317138672e-01
-2.050467350353756685e-02,-5.852859558279643881e-01,5.995633170250210808e-01,-1.115788015298184097e-02,3.230255518798694995e-03,1.009057826380238207e-02,1.026827812194824219e+00
-6.457342485805928067e-02,-6.078523083320925835e-01,5.912595143613798010e-01,4.130166011128522802e-03,-1.574880838999436969e-02,1.478281594705121646e-02,1.040682435035705566e+00
-3.992976010007599774e-02,-7.450715714070504925e-01,8.135019890572766643e-01,4.196111273158106836e-02,-1.883792672552148800e-02,-1.732058994552786169e-02,1.354477047920227051e+00
-2.302565372778146366e-02,-6.262452993518501376e-01,6.569470597783108046e-01,3.966346070035085825e-02,3.727208323246092303e-02,6.725394861013229454e-03,1.115989565849304199e+00
-5.399579464304052334e-02,-6.269821011087365337e-01,5.870589779872860126e-01,1.329090487190385389e-02,-4.955090766194798074e-02,4.145112000465957930e-02,1.058125972747802734e+00
8.591300171338342451e-03,-4.264959149070569611e-01,2.969068732007920652e-01,-9.064681048005805708e-02,-1.371721648483368028e-01,8.635565422829075133e-02,7.080538272857666016e-01
2.809399893865792419e-02,-5.939173580902971095e-01,3.471304264152577090e-01,1.070763344631474323e-02,-3.630803707023832344e-02,2.059942489322689682e-02,8.322850465774536133e-01
-6.974233530221321531e-03,-5.905201759639292503e-01,4.248853668759625668e-01,1.533614338049271025e-02,-3.618783693753384323e-02,-1.579427326221875903e-03,8.852571845054626465e-01
-2.288032369587593776e-02,-6.064230218393850125e-01,5.117178412965118772e-01,1.913873794841079029e-02,-2.469163873029925176e-03,1.192216455737128006e-02,9.694440364837646484e-01
-5.975635771614843175e-03,-6.157359167968237124e-01,6.246927829811693700e-01,2.992890290999195013e-02,1.027636425914313367e-02,-1.274618177038543652e-02,1.075917363166809082e+00
-1.286268750292545934e-02,-6.216355371875553759e-01,5.360431493742595643e-01,1.706499529992573996e-02,6.175731619507695419e-03,-2.180177993698163407e-03,1.003525376319885254e+00
-6.095754565463820662e-02,-3.028558626676436383e-01,5.524362387934576013e-01,1.223773062262330374e-01,6.226358612460358016e-02,-1.063922753644880037e-01,8.207694292068481445e-01
6.344622733863319874e-02,-6.125645965412497285e-01,2.491357761871749177e-01,-1.473946876046324829e-02,3.963744880065530468e-02,-1.322187286926276295e-01,8.214681148529052734e-01
-6.173536126234024923e-02,-3.156560607499924731e-01,5.618594436937824899e-01,1.327161541710117076e-01,6.304092882562618849e-02,-7.520801859908775311e-02,8.327195048332214355e-01
8.274465201330291619e-02,-9.745559975483735204e-01,5.816625224722014043e-01,4.179322671592469035e-02,3.110811675432596513e-01,-3.355203509665008292e-03,1.479830503463745117e+00
1.560559168363945953e-02,-5.568626508014875576e-01,6.155075740645756799e-01,7.366017067703337085e-02,2.213206862809186624e-03,-1.227910114160850850e-02,1.023607134819030762e+00
-3.061382513904142497e-02,-6.029561404173912065e-01,5.560037828291066742e-01,-6.283104308861708204e-03,2.166164555817670038e-03,-3.043218365609197309e-03,1.003793954849243164e+00
-1.211859782564762844e-02,-8.942225137196482265e-01,8.078245389848903724e-01,1.483248807024961646e-01,8.364936960950125622e-02,-3.776975572568493783e-02,1.504978775978088379e+00
-1.830638188798017901e-02,-6.184862830596056238e-01,6.277057101331747768e-01,4.497410192077820092e-03,-1.105147934460085253e-02,-1.033105938501752662e-02,1.079823255538940430e+00
-3.306355451748344693e-02,-5.919538252581183491e-01,5.871902236091333105e-01,3.088760127021527094e-02,-5.653972910389389733e-02,-1.537771510857689414e-02,1.028050899505615234e+00
-2.463916062901917725e-02,-6.752373585322282157e-01,6.840322776089488022e-01,3.019648828093331877e-02,3.297829386176265309e-02,1.770404679497093389e-02,1.180462598800659180e+00
4.758682792922486193e-02,-6.638586954609447810e-01,4.168456463931932143e-01,-1.167297006412358756e-01,2.363270656995597185e-01,1.828434460084489566e-02,1.055768013000488281e+00
-1.647095253282183230e-02,-6.781125920626652759e-01,7.432158669342250334e-01,5.414745669505426073e-02,-9.474148145104124841e-03,-1.926137029927606562e-02,1.236006617546081543e+00
-2.417646616756284617e-02,-6.067724831921083029e-01,5.328829909582597502e-01,-8.323540627014033508e-03,3.075380717191703549e-03,-4.869884158151304224e-03,9.872088432312011719e-01
2.901835629667417343e-03,-7.576195108417596025e-01,7.312913530617621838e-01,2.057878046017475315e-01,1.760123629289119807e-01,-5.337089975099169187e-02,1.375293493270874023e+00
-8.393159689881002361e-02,-6.812182263242975155e-01,1.045122451100860328e+00,1.254398661366620538e-01,1.379080974227550778e-02,-3.428613776801683194e-02,1.535313010215759277e+00
-1.204499050374562841e-01,-8.343928309890960016e-01,1.083971897373357640e+00,2.849406335335743501e-01,2.921883045751051330e-02,-2.889715659663448163e-02,1.751820325851440430e+00
2.888984570977998212e-02,-5.978828005096639142e-01,5.992092006429594608e-01,1.872598891583590608e-02,-6.169083296836570633e-03,-1.772165877711280937e-02,1.038112282752990723e+00
-3.334060807393504633e-02,-4.456002989055528607e-01,6.188671047269294068e-01,1.418236712633106078e-01,2.080895901080520561e-04,3.155946401686790526e-02,9.630897641181945801e-01
-2.599880482480249055e-02,-6.106720673436185631e-01,6.405422860216146708e-01,-5.298685364449425006e-02,-2.470481639924842002e-02,-1.133022266208923677e-02,1.089250922203063965e+00
2.558312688010458066e-02,-5.962553686752749549e-01,6.060921998843650238e-01,1.578782846270141912e-02,-3.427321727892414086e-04,-1.369818945987518648e-03,1.041830420494079590e+00
-2.897500836939430682e-02,-6.414979864767933471e-01,6.684902880484561161e-01,1.278331172906152849e-02,7.374819184866412448e-04,-1.466777203309817604e-03,1.135497331619262695e+00
-2.831307636097089506e-02,-6.824010680512153648e-01,7.146116291427209166e-01,9.270306632700034410e-02,-7.019515570387029058e-02,-2.971208760288435429e-03,1.227312684059143066e+00
-4.754877049840913750e-02,-9.675688764239450679e-01,9.848727976026261377e-01,2.179521891929181721e-01,-2.026141537242156510e-01,-2.551947390232454579e-02,1.769124269485473633e+00
-6.381121696508486318e-03,-5.918946787140672017e-01,4.237066329966776568e-01,1.587046416017265024e-02,-3.631562619962062227e-02,2.242913355482080049e-04,8.856275081634521484e-01
-3.743455788312345656e-03,-5.884260295129453144e-01,4.106241626437707182e-01,8.103982651171653950e-03,-5.243047443525858387e-02,1.511788583742824064e-02,8.746183514595031738e-01
1.477716784622446489e-01,-1.080851782936288474e+00,1.662185148579033989e-01,-3.714169643241543861e-02,-1.262625013363408988e-01,1.885163491253494805e-01,1.300423264503479004e+00
2.097840051092744740e-03,-6.155340537259934575e-01,3.736387875717690488e-01,7.604135821702452322e-03,-1.157542476032079742e-01,1.227084166027690888e-02,8.887124061584472656e-01
6.850064610711523172e-02,-5.999672025368153472e-01,2.967278501424018833e-01,5.078146556218882980e-03,-2.946768440721370206e-03,2.526229280218625362e-02,8.084042668342590332e-01
1.847570589818414710e-02,-5.857347823109844143e-01,3.715892370216820617e-01,-1.273125412700217875e-02,-6.435513353727047130e-03,-1.785729947406929086e-02,8.394531011581420898e-01
9.026425853289940515e-02,-6.883284875005128978e-01,2.206675939761021388e-01,-5.392035715516681205e-02,-1.911766659154023051e-01,-3.551414691194005463e-02,9.202685952186584473e-01
1.315575773579241367e-02,-6.103484343629808073e-01,5.982363940597685836e-01,-8.568516910053008626e-03,8.445720480787746731e-03,2.016700687057699267e-04,1.047048926353454590e+00
-1.237337904103297768e-02,-6.105665488405102037e-01,5.990883356244401936e-01,-7.275519236366329544e-03,2.141461822053523228e-02,-1.283226856943548572e-02,1.048580646514892578e+00
-5.458076246191300926e-03,-6.954799587584659104e-01,7.211578950727693949e-01,5.486008564032963247e-02,5.193831712220965680e-03,-3.510930961727216221e-02,1.232188940048217773e+00
3.456810642179347290e-03,-5.673124914250314843e-01,6.024354102418469914e-01,-9.969975396169193649e-02,5.351859391509784271e-03,-1.752901647639012322e-02,1.028231143951416016e+00
-2.080971572917272167e-02,-4.809781079759195555e-01,5.754627541972262561e-01,-2.901285200488438760e-03,2.382866699372453850e-02,-1.443875263278036891e-02,9.187141060829162598e-01
-7.704189774546707503e-02,-2.569562109990833343e-01,6.291642712888778632e-01,-1.417306343303377236e-01,-4.223622798534511745e-03,1.115183397802831447e-02,8.478456735610961914e-01
-8.578018239229021069e-02,-2.624774554919704350e-01,6.940684861011685580e-01,1.762739709685400835e-01,-2.887205689443549887e-03,-1.094776901967791788e-01,9.520407915115356445e-01
-4.320598502621642023e-02,-6.066778305018745154e-01,7.480419945870077081e-01,1.353127952557232339e-01,-2.300006375537947956e-01,-8.397249727004491016e-02,1.274442434310913086e+00
-2.102557716721109582e-02,-3.827448156195895623e-01,5.503401554476972102e-01,6.040089824053506556e-02,-5.293366538220058669e-03,2.075086925765574301e-03,8.215931653976440430e-01
2.743007394650953668e-02,-5.031096893961237715e-01,5.593215903482148255e-01,2.061803543163048813e-02,-3.365630977570698099e-03,-1.603677796011055865e-03,9.208081364631652832e-01
-1.133729745987611670e-01,-2.438465079255401347e-01,9.626559944020477433e-01,1.555370709274845886e-01,4.085187805603600342e-02,-4.918057860806965276e-02,1.183255314826965332e+00
-1.211202475147797331e-01,3.783261206749694017e-02,5.991004709920624283e-01,6.246475509772714263e-02,1.288319534931049726e-02,-1.331801311313852813e-02,6.650100350379943848e-01
-6.619136969990474517e-02,-2.765910381392274742e-01,5.362539801308148224e-01,4.261159327592495272e-02,5.254249276533604074e-03,1.177131787302473746e-03,7.345045804977416992e-01
-2.178269893336322663e-02,-6.446419725581420401e-01,6.721991957087350977e-01,-5.316733958754990552e-02,2.327239327500040325e-02,5.665251050883320615e-03,1.145434021949768066e+00
-2.377974617696251153e-02,-6.341557800952013491e-01,6.505131017092673495e-01,-1.246597445017236239e-02,6.443641109888314546e-03,2.272750182500216359e-03,1.113287091255187988e+00
-2.199380776420370442e-02,-6.179540745441748362e-01,6.279757506292095171e-01,4.867833820297913158e-03,1.707445054490190628e-02,-1.525521152712744528e-02,1.080106019973754883e+00
-1.977574625581467530e-02,-6.446562797638616393e-01,6.332398311031695037e-01,-5.628779641488013130e-02,4.093478389188055788e-02,2.051691584175068320e-02,1.113892555236816406e+00
-3.591281781605415446e-02,-6.624227576461994005e-01,6.686514260110241192e-01,2.584616185966314914e-03,-5.059120903322680829e-03,7.503769301300139763e-03,1.153519749641418457e+00
-2.503944202342344577e-02,-6.172007987348748781e-01,6.110889814976769863e-01,-9.119381922813663346e-03,-1.311821579214037664e-02,-1.859443233035976053e-03,1.064321994781494141e+00
-2.866971337078512427e-02,-7.616023057273656471e-01,7.975200082058523376e-01,5.887022141501256460e-03,7.824154899411252251e-02,4.116817748038950620e-02,1.359733343124389648e+00
1.314335339107415568e-02,-5.923519142945250504e-01,5.909511287139374014e-01,-3.286770062360177408e-03,-4.594558597972837151e-04,1.881698568270814961e-03,1.024885296821594238e+00
2.180507832911520588e-02,-5.570457995830523368e-01,5.806758743269668788e-01,-1.881798250863173441e-02,-4.512452392865483330e-03,4.806607022408660931e-04,9.859167933464050293e-01
3.135112517076855520e-03,-5.944460844747779804e-01,5.938806484173101419e-01,-1.231806078744693061e-03,-5.198524710012012232e-03,-1.022176674147825528e-03,1.029169917106628418e+00
1.615510579740117234e-02,-5.954676461266132925e-01,5.946544677981637772e-01,-8.254598965179762646e-03,-5.115829992450963114e-03,3.071597448703391737e-04,1.030946373939514160e+00
1.327716294230905578e-02,-5.823548889462590861e-01,5.858377442779844069e-01,-2.149760106082173987e-03,2.185951174555856934e-05,-1.441493185644587447e-03,1.011760234832763672e+00
2.019855375655837948e-02,-5.746955735738011883e-01,5.840257550528920039e-01,4.138873306138506850e-04,-5.742411858444248195e-03,1.132120203531821953e-03,1.003653764724731445e+00
-8.591998494860239588e-03,-6.146769931202833437e-01,6.104394917075474103e-01,-1.006265839709375581e-02,-7.175164562703393797e-03,2.475569273263123447e-03,1.061226367950439453e+00
1.143183836448627075e-02,-5.921143138800639694e-01,6.093532556334835260e-01,-3.699289496711274938e-02,-2.904287125550623471e-03,-4.864009858985764872e-04,1.042488694190979004e+00
-5.495034792957993741e-03,-6.061837043308101469e-01,5.040564157254292521e-01,3.459267996081668781e-03,1.195953979592633519e-02,-1.074043794033746439e-02,9.629966020584106445e-01
-2.615215411567603510e-02,-6.119440988902781209e-01,5.778135535263178024e-01,2.966095978096419152e-03,9.218049166497873509e-03,1.990357386044234664e-03,1.030542731285095215e+00
-8.417986802160912913e-03,-6.135215427783511366e-01,5.185095291563462938e-01,7.333079894132931917e-03,5.385842281620759758e-03,2.466433623719966467e-02,9.822025895118713379e-01
-4.395582060937643087e-02,-6.337177914326479478e-01,6.044200645490088730e-01,-2.313808921721059383e-03,4.781200286999310461e-02,-3.038964587741600516e-03,1.075871586799621582e+00
1.070539048380285407e-02,-6.076761676668078760e-01,4.663565139338065046e-01,8.595765740322187237e-03,-1.780396399025246284e-03,-3.248370675313674155e-02,9.355087876319885254e-01
-1.032112068304940136e-02,-6.140585589325086024e-01,5.360220764547674044e-01,4.071634083030120513e-04,1.074547699413157774e-02,1.063068401242278638e-02,9.967564940452575684e-01
-2.933693135491667603e-02,-6.123192264455072920e-01,5.961931334253199877e-01,5.481118185915817564e-03,-1.080709446802720266e-03,-8.211621702991666509e-04,1.046864271163940430e+00
-3.139960631768926036e-02,-5.924564205093667546e-01,5.559181482593776868e-01,2.981754981185743853e-03,3.150855255304021996e-02,-1.722626135996776012e-02,9.965645074844360352e-01
-1.081567552182000069e-02,-6.704195064191407205e-01,5.481394694793889633e-01,2.294635691858672860e-02,5.477188765657024089e-02,-1.890408129376274643e-02,1.062002182006835938e+00
-3.840158350729203085e-02,-6.370773455203241342e-01,6.364798121298369526e-01,-1.540540317446780286e-02,5.179009886064067647e-02,-9.731505247841353012e-03,1.107680201530456543e+00
2.910956696508713859e-02,-5.776440609721658070e-01,5.833320878075582971e-01,1.122203911707336278e-02,-9.154640794167624371e-03,-3.218042119154963625e-03,1.006106019020080566e+00
-2.500277100159261842e-02,-6.474329856712581766e-01,6.631033058101597488e-01,-6.953498575763308875e-02,8.233567854476987746e-02,1.951650353405353158e-02,1.151170253753662109e+00
-2.389776077154646614e-02,-7.268114063177374407e-01,7.490008781257567749e-01,-3.727970513056421548e-02,-4.448942895698309447e-02,-2.104056502306511298e-02,1.283033967018127441e+00
-8.143109357284075700e-02,-2.326651384751841078e-01,5.516159499895264551e-01,-4.938334700806924771e-02,-3.874926138067954096e-03,-9.584948323382518444e-05,7.257546186447143555e-01
-2.465756904558648321e-02,-6.368028057287139498e-01,6.512664390108251489e-01,-1.191414272501068079e-02,-7.789874298954060743e-03,7.824553842735316577e-04,1.116229534149169922e+00
2.278126512830674910e-02,-5.801629699631898340e-01,5.843403700142734136e-01,-1.706234929956008603e-02,-4.572213545001088848e-03,-2.628909956297784470e-03,1.009175896644592285e+00
2.202782792336517581e-02,-5.810830400115103433e-01,5.907843485129133931e-01,-1.741145266279332110e-02,-5.805881608212783672e-03,9.966094115390791534e-04,1.015511512756347656e+00
-4.490873548371657198e-02,-4.547407858698335748e-01,5.768761288094432782e-01,-2.702232776024130617e-02,-1.170807466784951414e-02,-8.865543355818449392e-03,9.012456536293029785e-01
-4.195913195222682537e-03,-5.944626702003815710e-01,5.979564464518426492e-01,-5.946879753171902851e-03,-3.227282688154517031e-03,-3.515413476440798924e-04,1.032749056816101074e+00
-1.905900877040337532e-02,-6.166287763318236692e-01,5.852303166861171357e-01,-1.206969471314168476e-03,-2.782835225211106270e-03,-1.377048579616379272e-03,1.040861964225769043e+00
-2.574197494059816613e-02,-6.198972621581908538e-01,5.829234437815710157e-01,3.595288516987130058e-03,-1.199718615801425702e-03,9.860695799964703037e-03,1.041859269142150879e+00
-2.674593560872566556e-02,-5.472722800967606549e-01,5.906156533597267666e-01,-7.130202531750523542e-02,2.093728419154699746e-02,-5.574707012626235053e-03,9.950358271598815918e-01
-1.455912426678739394e-02,-6.296620098762840678e-01,5.624991982807109325e-01,3.131570609390774140e-03,1.652172361356829544e-02,-7.124534909631872505e-03,1.033101439476013184e+00
2.685919209503687122e-03,-6.177122697272204865e-01,4.733513964736345558e-01,4.836678926195246003e-03,-3.994391515139818216e-02,-1.014274000340177791e-02,9.505710005760192871e-01
-6.676530859975181309e-03,-6.107370956005279128e-01,4.700661369806421463e-01,1.653055154973612911e-02,-2.311810722371038934e-02,2.402314544772827382e-02,9.403768777847290039e-01
6.830455154861928002e-03,-5.930951898152659885e-01,4.620431971176558461e-01,-1.560851471855980235e-02,-2.926098585482231340e-02,3.841423352305058103e-02,9.208418130874633789e-01
6.927105745178914475e-03,-6.112646093895623967e-01,4.637144051094755914e-01,1.653451214578872952e-02,-2.393198059671332572e-03,1.874720302881509315e-02,9.354621767997741699e-01
4.666585315414886748e-02,-9.194839317568413994e-01,3.260216304811942578e-01,-2.676051274668539426e-01,-1.339442517957207257e-01,1.848719313440050360e-01,1.285526394844055176e+00
-4.273056578324498089e-02,-4.377508780730089422e-01,4.684423461933733268e-01,-1.562991065423957326e-01,-8.034687557647468559e-02,-1.265678123113842257e-01,8.717659115791320801e-01
5.407847800400022997e-02,-5.796952911229531491e-01,2.698980174990392999e-01,1.039791841524378424e-01,-8.837006283729406664e-02,2.404982048954163593e-02,8.016395568847656250e-01
-8.996717150787619799e-03,-7.114921591106200260e-01,4.761984188803674023e-01,-1.471554435685490381e-01,-4.731652193611526197e-02,-3.048193784214331750e-03,1.068396091461181641e+00
-2.764861804694448977e-02,-2.943509196791886384e-01,3.507371378884898139e-01,2.794005503019237474e-02,4.633264989305498766e-02,1.393513894554673912e-03,5.692188739776611328e-01
-3.550321785038990791e-02,-6.005914059400117022e-01,4.758211746735360181e-01,1.394894787546073663e-02,-5.880478780652544785e-02,1.822016490325608154e-02,9.389751553535461426e-01
-1.741928909527465028e-02,-6.121205074610688301e-01,5.263779251457189057e-01,1.751060613140719216e-03,6.407003125652974140e-02,1.780870073906245035e-02,9.930042028427124023e-01
-5.722345938812323229e-02,-2.461176311169773756e-01,6.236351468083723981e-01,-2.309551551432630426e-02,1.446800870779033077e-01,-1.767793365679317663e-01,8.865718841552734375e-01
6.035593752774515153e-04,-6.261683331452089218e-01,5.576383083464970802e-01,3.847186059734275521e-03,5.421533648147590367e-03,-4.468073417352916472e-03,1.025893211364746094e+00
-8.076461222323853828e-03,-6.211455615720634649e-01,4.935369131142050003e-01,1.325963678019869904e-02,-1.501194301430088147e-02,-9.639923927034306419e-04,9.675741195678710938e-01
-2.619564194224395168e-02,-7.309580550120544640e-01,7.384003266358626361e-01,1.522513000552459458e-02,-1.060610081259666902e-02,7.201454985856095038e-03,1.273320078849792480e+00
-3.872376304813886227e-02,-6.579145149560781114e-01,6.851824230579915964e-01,-7.139008563972438701e-04,-3.842630158475872164e-04,-7.279445918301169320e-03,1.164402961730957031e+00
-2.434872071631979246e-02,-1.082194184812026672e+00,9.296063362311881573e-01,3.094931688007803924e-02,-2.073763823211011714e-01,5.051495611922073026e-02,1.782623887062072754e+00
3.977231579403777556e-02,-5.567865274818187826e-01,5.686351458770515510e-01,8.432658217250059082e-03,7.063819464911061516e-04,-8.341108928478797174e-04,9.753425121307373047e-01
1.595534134443937768e-03,-6.949941267894510499e-01,6.422570438767362111e-01,-6.623975402007234448e-02,1.688344145006261468e-02,1.728783127783320092e-02,1.164850831031799316e+00
-6.112465791774684964e-02,-6.293419645706449517e-01,5.998973835359894258e-01,8.613562050849288276e-03,-1.409944021786296679e-02,1.887603955861289623e-02,1.066448807716369629e+00
-4.791398522761439183e-02,-4.810486812570053949e-01,5.874309179235215339e-01,3.321635032408415660e-03,2.241622710277788380e-02,1.635084480531805162e-02,9.320951104164123535e-01
-3.242548448390455973e-02,-5.033227987619811605e-01,5.839911856450682448e-01,1.270257116219686809e-02,2.547448773116121196e-02,3.079647013783079826e-02,9.472375512123107910e-01
-2.994035933786214770e-02,-5.463405851891596221e-01,5.903447912051495994e-01,1.202432562606568778e-02,1.839798400017365887e-02,-9.262604391912390364e-03,9.866330623626708984e-01
-3.101365822999291311e-02,-5.501413498972446137e-01,5.880828256372124807e-01,7.134644696599760395e-03,2.283146975165628589e-02,7.433686564390280284e-03,9.879506230354309082e-01
-2.848869707018790443e-02,-4.592655696234927420e-01,5.668918833096654453e-01,4.997754217484084299e-02,2.087626521018948883e-02,3.743050630263999867e-02,8.997370600700378418e-01
-7.655267463713982812e-02,-3.234715803964864911e-01,5.888753412746030591e-01,5.398357423807541300e-02,-3.403974445398946086e-02,9.059086738799678601e-03,8.249455094337463379e-01
-2.097740768174152781e-02,-4.590225607198105129e-01,5.737092681337249145e-01,4.065902540371964247e-02,1.654535847421540265e-02,6.140854943055623454e-03,9.010711908340454102e-01
-2.324546286726855704e-02,-6.004930194574915614e-01,5.733070494509681092e-01,1.373946152164544354e-02,-3.289325496043942615e-02,-3.337687409163134916e-02,1.020099163055419922e+00
-5.756588294826663066e-02,-5.892028396834604331e-01,5.360625681416408828e-01,-4.871119957691374806e-04,-1.164914974276804079e-02,1.654218909369101556e-03,9.752145409584045410e-01
1.666563360975457930e-02,-6.412218623776300142e-01,3.588826438232401439e-01,-9.181222907819530654e-03,-1.073459522003650801e-01,2.309749289634693663e-03,8.999483585357666016e-01
2.662373477731458382e-02,-9.227689805231418241e-01,5.950274836451232563e-01,1.529290380064878552e-01,-2.087741863009026089e-01,4.127061418992707814e-02,1.403602242469787598e+00
-4.057389467861635679e-02,-6.209975096884184920e-01,6.007025108120142010e-01,-4.254153678222395880e-03,-1.479176116824359446e-03,-1.990513887839939332e-03,1.058495044708251953e+00
-4.703441293350081598e-02,-6.141417062848334441e-01,6.025006504242839123e-01,7.223006157141070686e-03,-5.095606413268020420e-03,2.027674170815866803e-03,1.054565906524658203e+00
-1.190807966143993257e-02,-7.033530628481983182e-01,5.568387071126613685e-01,1.052231205147787924e-01,-1.779021278919113436e-01,-5.117361920833542882e-02,1.153622865676879883e+00
4.759038538505697136e-02,-7.075013427419958312e-01,2.514363491308984067e-01,5.467260922492152980e-02,-1.260798675531100144e-01,1.744122989458023465e-01,9.558000564575195312e-01
-2.881205061115769614e-02,-6.077628870925209092e-01,5.271080322059288337e-01,-7.506749990494727097e-03,-3.203389156812603417e-02,-8.271701777118152174e-03,9.846494197845458984e-01
1.574706068850655061e-02,-9.090614018475950964e-01,5.928196928531910270e-01,-9.141178788714367925e-03,-1.641710264815028075e-01,5.144911203458883697e-02,1.345738887786865234e+00
-7.634906036263350293e-03,-8.904414307794386030e-01,6.730187162271548118e-01,-9.869422220349874375e-02,-2.164343317860682736e-01,1.889435586602500328e-01,1.456150531768798828e+00
-4.190440982531332126e-02,-6.079031686355297337e-01,5.683638838923579240e-01,9.612469271986664966e-04,-1.915605927226891880e-02,3.303276115451345488e-03,1.019475102424621582e+00
-2.346460238940055107e-03,-5.647834481709503862e-01,5.708364107782153418e-01,7.181773880700571822e-02,-1.443472200966546860e-02,-5.228357859034245096e-03,9.916822314262390137e-01
-4.881161752148514832e-02,-5.991130493856966499e-01,5.409893632687104992e-01,-4.607184161490912068e-03,-2.806841451008062344e-02,-4.289527099957739578e-03,9.888111948966979980e-01
-5.173093353396301247e-02,-6.093921370488396549e-01,5.948182129079223612e-01,-4.824674189345018113e-03,-1.404834411797621467e-02,-1.070447382471128445e-02,1.044304966926574707e+00
-3.229282715374391655e-02,-5.980381346878490545e-01,5.278228237865726369e-01,-9.795106210246335571e-03,-6.396426462053120786e-03,5.399324769150316838e-03,9.752836227416992188e-01
-3.445324503325529475e-02,-6.043862708292588870e-01,5.672136129060005860e-01,-4.300208565663767371e-03,-1.427419713267022352e-03,-2.052270918333493586e-03,1.014795899391174316e+00
-3.139165754663252039e-02,-6.288920326694480423e-01,6.156493946903792702e-01,-1.165968721428085365e-02,-1.436641191067028998e-02,-5.862236114833455081e-03,1.078613042831420898e+00
-2.063292045419739748e-02,-6.427439254239427635e-01,6.591443734629784945e-01,-1.074655939045050974e-02,3.852267701840230178e-04,-4.494499203458703551e-04,1.127990961074829102e+00
-5.087757393764600483e-02,-6.413902969139876342e-01,6.559221837548723233e-01,-3.325604103394596937e-03,-1.747197586695942856e-02,1.059900291749438315e-03,1.125432252883911133e+00
-1.050985803946003112e-02,-6.185450157584679864e-01,6.300943688125724140e-01,3.671810080969003381e-02,3.507880848688885167e-02,2.821496505018959971e-03,1.085057854652404785e+00
2.255786355174233676e-02,-5.831581372699257138e-01,5.922586908402551753e-01,5.171742947334981300e-03,3.174641335832205109e-03,-6.461868017780753384e-03,1.018215894699096680e+00
-1.712591975451347587e-02,-6.101783908982271187e-01,6.119505044271366101e-01,-4.480964097093456146e-03,7.047278478263367847e-03,-3.608734887214395644e-04,1.058646917343139648e+00
1.753165428727709169e-02,-5.982853071026669189e-01,6.028049543133287003e-01,7.140215698388068834e-03,3.319031113953828643e-03,-3.243718085793366370e-03,1.040391325950622559e+00
-3.991943095196831548e-02,-6.543037526890116418e-01,7.550223769135817609e-01,1.404833095242763730e-01,-2.329934003085267213e-01,-7.646688446446293919e-02,1.318107128143310547e+00
-4.855148577292159318e-02,-6.138456474077191860e-01,5.961876340437027855e-01,9.674342509060707487e-04,1.166600972777154938e-02,1.046409421292621546e-03,1.048869729042053223e+00
-5.465351481884840601e-02,-5.987328589527777245e-01,5.776350081548280446e-01,-5.648999919834308365e-04,1.922860066825705927e-02,4.604473942689826603e-05,1.020262956619262695e+00
-5.390113533463086748e-02,-5.983908866359539669e-01,5.653335564535566515e-01,7.400966892229329406e-04,-1.388908389274164882e-04,-9.274183328157412510e-05,1.008508443832397461e+00
-4.146386725650785809e-02,-6.185436029078058562e-01,5.987749071661110367e-01,-7.076905954863603639e-03,6.857465528637593857e-03,7.823850626317935264e-03,1.054926753044128418e+00
-4.190588581170380522e-02,-6.308310271910094746e-01,5.960449353180133913e-01,-6.024511847943253562e-03,7.065574460861986927e-02,-2.285355838934833433e-02,1.070594072341918945e+00
-5.049046247217452849e-02,-6.005625585547625933e-01,5.699499649190975514e-01,2.546930304418572148e-03,3.447980180778985760e-03,9.287753237433119544e-04,1.014332413673400879e+00
1.990316954256881633e-03,-5.967513396795214309e-01,6.030305802596501730e-01,7.051382284151402197e-03,-4.886652858478271119e-03,-7.983758715220749466e-03,1.039240479469299316e+00
5.216777161466189250e-02,-6.051288978922879647e-01,3.705605715505992381e-01,3.734781997245664731e-02,1.870748795171285339e-01,2.342697248321413614e-02,9.238579273223876953e-01
-5.986720638014308288e-02,-6.303975651277002878e-01,6.245133207105633133e-01,-7.057152729232789301e-03,7.413740339131978663e-02,1.865851340392852761e-02,1.096368670463562012e+00
-2.451994828826252470e-02,-6.060613441582636263e-01,5.975491365627134677e-01,3.930341578071056691e-03,4.504889808479017009e-03,-3.428291803116912360e-03,1.042622566223144531e+00
3.361021657928754680e-02,-7.534500379641149159e-01,4.770380433890855087e-01,-3.463415294867223265e-04,1.114222376563654138e-01,1.928828990138832522e-02,1.097022175788879395e+00
5.425469656700122878e-02,-6.545590087628342379e-01,4.157740364384121534e-01,-1.476599108935515783e-02,1.992328833388538056e-01,9.532110023824405878e-03,1.004674553871154785e+00
-9.627498321832558825e-03,-6.968037598272961430e-01,5.445661873919480644e-01,1.022304003555893487e-01,-1.993828095207479389e-01,2.929305358553721886e-02,1.146018505096435547e+00
1.501419718674984471e-03,-4.677778149856677836e-01,3.321283643950141418e-01,1.440589932085332980e-01,-1.764232631589673916e-01,-7.679941765307037385e-03,8.003155589103698730e-01
-9.267735717958747177e-03,-4.079789311597233903e-01,3.848201167481232754e-01,1.936951602630549163e-01,-1.667037037720649206e-01,5.078467108712436673e-02,8.216229081153869629e-01
-4.842755544057264494e-02,-4.136748753024215852e-01,5.436986296851710199e-01,1.696875486987269033e-01,-9.124363994804343680e-02,5.988669399184119724e-02,9.068674445152282715e-01
-4.561045864233278374e-02,-7.624352515525834040e-01,6.806845738719490280e-01,2.427147993130211387e-02,-9.112070217999743149e-02,1.436810632835954817e-02,1.260660171508789062e+00
2.716289769900042533e-02,-5.806454309450918005e-01,5.888227147910709558e-01,3.947125775053843960e-02,3.971094552576743576e-03,-5.720158279212897955e-03,1.015427827835083008e+00
-2.209353363385922059e-02,-6.308804336919890954e-01,5.847982472596391368e-01,1.716281240976956154e-02,-3.067301369892382057e-02,8.683098199918172500e-03,1.054674983024597168e+00
2.527208200844331329e-02,-6.062917915212112652e-01,6.133620976185926166e-01,5.122410397403944632e-02,-5.980613638223040464e-03,-6.573776978320387300e-03,1.060305595397949219e+00
-2.752529312232678688e-02,-4.806054323098113978e-01,5.662078830852340650e-01,8.408997778123297739e-02,-6.874853966666699678e-02,-9.574388648616458108e-02,9.432404637336730957e-01
-2.554417036394984047e-02,-6.122896702224834842e-01,5.940648131686999678e-01,-1.592838028326510691e-03,3.576392130933123571e-03,2.152551926382190520e-03,1.044891476631164551e+00
-2.650064260647871581e-02,-6.121814859806639086e-01,6.013236864816771110e-01,-2.854721711969079780e-03,3.222590838691701161e-03,-1.993489128631776436e-03,1.051169633865356445e+00
-2.761787276458994161e-02,-6.110262858815368459e-01,6.013622361404599159e-01,-3.409856544189157016e-03,4.607964753879123174e-03,-2.827494424040372534e-03,1.050264835357666016e+00
-2.656453925007489641e-02,-5.721283617510594111e-01,5.919465036652177270e-01,9.808404267163148976e-03,1.332855397360138694e-02,1.522800479219453898e-02,1.009529709815979004e+00
-3.771072198627736793e-02,-5.459826166650528778e-01,5.890447259402376012e-01,2.131126731215052163e-03,1.700546092255754080e-02,1.432369970985309868e-02,9.855057597160339355e-01
9.855076541980631322e-03,-5.986583045014703952e-01,4.579017825740122616e-01,-3.690847643784991167e-03,1.416236380127248659e-03,-1.190922975858111840e-02,9.187759160995483398e-01
-2.726129318777862492e-02,-5.846388230768538863e-01,5.955460733016719743e-01,5.434541154377825825e-03,1.229238814958214139e-02,6.711214296309859530e-03,1.022924542427062988e+00
-2.530693781440905912e-02,-5.730445239026658033e-01,5.394891959505456747e-01,-1.712694752227874673e-03,1.836090505949423057e-03,-1.764783324260573230e-02,9.640147686004638672e-01
9.488274862776533911e-03,-5.429772733925691819e-01,5.862656989059285007e-01,3.635623166951206658e-02,-1.467939299413776461e-02,-1.350290114481423817e-02,9.806624054908752441e-01
-5.716700763274899788e-02,-4.377478237625407331e-01,5.938517369980736982e-01,6.158664927504416478e-03,-2.103078385405758588e-02,-2.635115561073628557e-02,9.055143594741821289e-01
-7.002249054452780452e-02,-1.916873047185800316e-01,6.528872910247088823e-01,1.335797426790341635e-01,-8.926864838103477917e-02,-3.360596114349428953e-02,8.403445482254028320e-01
-5.793634016548340759e-02,-3.907331706025012341e-01,6.096714669187780489e-01,1.211969904214603294e-01,-9.821999833351002449e-03,1.995058136416522770e-02,9.078443050384521484e-01
-9.949569917353212611e-02,-1.339334427377820713e-01,6.540988764453075088e-01,1.365026755772848210e-01,-1.227860604315686444e-02,3.333868228904819653e-02,8.091529607772827148e-01
-1.174629522096609091e-01,-2.062772234967675811e-01,8.862905929041051678e-01,1.169573726679307840e-01,1.200854579275393019e-01,-6.676896863557410522e-02,1.096462368965148926e+00
-1.060448361153170094e-01,-1.075814537862957720e-01,6.002285346034221813e-01,1.000883788522054230e-01,-7.380569808448611546e-02,-1.003301618026952169e-01,7.592779397964477539e-01
-3.813613034941557012e-02,-6.082404696981700276e-01,5.795475862874293060e-01,-5.139652747580479922e-03,-1.576756070366051171e-02,-7.482197648823375562e-03,1.029412150382995605e+00
-5.348254705808473675e-02,-5.999374277540802103e-01,5.728540332374084665e-01,-4.895121616160066219e-03,-5.173034125948498992e-03,-5.291963374802435838e-03,1.016568422317504883e+00
-3.643854462712466102e-02,-6.057611152200885751e-01,5.772397943182978608e-01,4.179078384857304145e-03,-9.967867497207194734e-04,-2.429271302642629048e-03,1.024784564971923828e+00
-3.541636567439682137e-02,-4.154812075530982529e-01,5.354327354803588568e-01,7.566513068533012309e-02,-2.142447047856979939e-02,-3.334533783177683823e-04,8.401373028755187988e-01
-3.126303079396087342e-02,-6.093407259936373110e-01,5.843487087164453975e-01,-5.047132503577583459e-04,-1.229173154891910133e-03,1.873062305032269616e-03,1.033943414688110352e+00
-3.016299434305853844e-02,-5.997992534110317964e-01,5.043352040587687490e-01,-1.329486867548129725e-02,-1.506232615811793803e-02,-1.320174278202818248e-02,9.572758674621582031e-01
-3.291686085648059396e-02,-6.060762489410341791e-01,5.618150608293179804e-01,-1.058997721335863543e-04,-1.265730547809086615e-02,7.059204582632204385e-05,1.011718630790710449e+00
4.762427718596133619e-03,-5.842647877759107322e-01,5.905503483812124532e-01,-1.478145576853483103e-03,-5.114805469369225824e-03,2.258295281125498322e-03,1.017470359802246094e+00
-7.215541674544176387e-04,-6.614732008792385543e-01,6.244512480700846746e-01,-5.463385524989951975e-02,3.434441747746837248e-02,5.610740088126975680e-03,1.119421839714050293e+00
1.931390626774347891e-02,-5.799912345586840656e-01,5.840770079048558383e-01,3.010338210982271574e-03,7.064591840119124715e-04,-1.578799495051573824e-03,1.008278489112854004e+00
-4.039185496292883870e-02,-4.758138198362228954e-01,5.842532249723484394e-01,-2.608172919276033688e-02,-7.036857750937680622e-03,1.140731179681263481e-02,9.243038892745971680e-01
2.764130729831391995e-03,-6.066666846763085763e-01,6.019089095883173313e-01,-7.958406995258364772e-03,3.240298471856197741e-03,8.404484134183485330e-04,1.046776652336120605e+00
-3.340697186636791549e-02,-5.685593166714479896e-01,5.740679777551457308e-01,-1.233820056582268657e-03,-1.842555752293533302e-03,1.392276964637264094e-02,9.905058145523071289e-01
-7.454674037330072389e-02,-4.358360238865739422e-01,5.812929667942936529e-01,-3.049537772067765357e-03,-9.935149988832120676e-04,2.794169806806470410e-02,8.944141268730163574e-01
-2.163791232470106685e-02,-4.118449606758071702e-01,4.591661679537442087e-01,-5.460080928832164449e-02,7.863867353846099029e-02,2.316229415551292886e-02,7.746951580047607422e-01
-1.824580981247317379e-02,-5.929361010089861939e-01,6.015079184599814166e-01,-9.207651004049261650e-03,-1.533563314730533242e-02,1.621144088231030178e-02,1.035508751869201660e+00
3.689826440929788037e-02,-5.772017879857889167e-01,5.794905645686927453e-01,6.659606487983831501e-03,-3.548962981188211532e-03,-9.247799454378828957e-03,1.002575993537902832e+00
1.927076902273343675e-02,-5.861335491736663350e-01,5.998608567381056300e-01,3.104390272131262590e-02,-8.241580711891072220e-03,-9.076151919378307176e-03,1.028801798820495605e+00
3.574183794138173498e-02,-5.582242183139933811e-01,5.737256841901893223e-01,5.540281843706948255e-03,7.960951759580412422e-04,1.584148227433594376e-03,9.807486534118652344e-01
1.856957128243245936e-02,-5.374639490076380532e-01,5.834435032569669222e-01,2.383470423593314624e-02,-1.072100199889857407e-02,-1.413353891132991015e-02,9.721075296401977539e-01
2.525882303872718782e-02,-5.708365558423186270e-01,5.821441792686822270e-01,1.425340345724481622e-02,-1.282689131311716413e-02,-5.083105399613772717e-03,9.992939233779907227e-01
1.660568603554118255e-02,-5.543227140380961870e-01,5.710860575310671150e-01,-4.814361745906855670e-04,6.675817642458462854e-03,-1.393767759249856094e-03,9.747391939163208008e-01
-9.674875018214849215e-03,-6.110537246314728943e-01,6.069902260303524644e-01,-8.691335347178828774e-03,-4.481895801470665505e-03,-4.564693881592424155e-04,1.055020928382873535e+00
-6.924123354215462600e-02,-5.279241135881533875e-01,5.869783344670920222e-01,-1.212717351167388012e-02,5.085088744831392504e-03,4.954251933607579060e-03,9.708775281906127930e-01
-4.687765292733947486e-02,-6.226226113142384611e-01,6.167126312836788138e-01,1.502101750894090657e-03,1.982265347366253191e-02,-7.389341262836565671e-03,1.074822068214416504e+00
-4.295767017713181257e-02,-6.060312215835128580e-01,5.812321715862366345e-01,-2.924761888125389318e-03,6.085925270500273064e-03,3.062759028070346796e-03,1.028734445571899414e+00
-3.579014711613706656e-02,-6.511779759102043208e-01,6.595202893829620328e-01,-3.801517950744152941e-02,3.828876984269674599e-02,3.442975578669030257e-02,1.141198515892028809e+00
-3.197656985404293689e-02,-6.340830659972173100e-01,6.157049020366873737e-01,-6.121579358075643351e-02,5.319356261622036619e-02,-1.127255968834556081e-02,1.091837286949157715e+00
2.218991304993593594e-02,-7.576983524861020669e-01,6.152964853922859856e-01,-8.652259659331361374e-02,1.830592072465951625e-01,5.711303603145415075e-02,1.247130393981933594e+00
6.021335044108774848e-03,-6.451689198850742990e-01,4.733318260522495491e-01,-2.375925524009602635e-02,7.598956527781991488e-02,3.897625623724374627e-02,9.850431680679321289e-01
7.242317467935879133e-03,-5.984576082777649519e-01,6.101882597758865323e-01,7.644256288566200763e-03,8.293000107728213527e-03,-1.818440847428226276e-03,1.046905994415283203e+00
-1.299075630191959818e-01,-3.673207116563617092e-01,9.087781280542430729e-01,2.281710219487707580e-01,-4.387008825082447383e-02,6.077706846445456862e-02,1.246945023536682129e+00
-4.793474920904501613e-02,-6.056038214801444663e-01,5.968392760950246290e-01,-2.548030511899458325e-03,9.958086912347299813e-03,-5.197265559011192762e-03,1.042447566986083984e+00
1.876394641282810166e-02,-5.562199286154577704e-01,6.264791133833045311e-01,7.962858286623543391e-02,-2.404574365395329219e-02,-2.239278125869550995e-02,1.035186767578125000e+00
-1.042142605460126270e-01,-2.788974779135878213e-01,9.077741855264316317e-01,1.799518363079775363e-01,-1.152867127410989873e-01,4.622864544498833661e-02,1.172537684440612793e+00
-8.009299923383179920e-04,-5.226841208881561895e-01,5.930628247245115503e-01,7.523212473549677204e-02,1.424377413306125197e-02,-1.007524452374558392e-02,9.761437177658081055e-01
2.592874922411601835e-02,-6.741153724724301410e-01,4.722092816061183029e-01,-1.355405100554037644e-02,1.147513574120919422e-01,-9.877357189855119277e-03,1.020779848098754883e+00
5.032587743630954902e-02,-6.310625043182793714e-01,4.024190102524677903e-01,-1.591624496657674179e-02,2.342611632151474915e-02,-3.425062730971129010e-02,9.132893681526184082e-01
3.368881424354422394e-02,-6.063402889693770836e-01,4.219244836483082572e-01,7.901759115802211089e-03,1.145232794132278360e-02,1.696788308557248964e-02,9.001615643501281738e-01
1.171465559100725307e-01,-6.260447300013723959e-01,1.369640873686324700e-01,-1.532630505710723748e-02,6.039866586330951137e-02,6.967903059562199908e-02,7.704988121986389160e-01
9.920117639019149225e-03,-5.916690044864041376e-01,4.167422326552785439e-01,-1.689857867421932017e-02,-3.523865661433901297e-03,-2.405079175275941922e-02,8.802174329757690430e-01
1.134933707701483996e-01,-6.870262020765222077e-01,2.104040299898084498e-01,-1.442744880452539492e-02,6.298844859890354031e-02,1.634860265851333788e-02,8.608896732330322266e-01
1.450245515338725866e-02,-5.699428739163174829e-01,2.873395734537423918e-01,1.538931817642971989e-01,-1.250201739334869944e-01,7.323103858987105308e-02,8.423197865486145020e-01
1.517157141196059933e-03,-6.334158656709578672e-01,3.979846972749641609e-01,-2.421266162265266197e-02,-1.012425154629693069e-01,5.200659907773441670e-02,9.234066009521484375e-01
-1.101408713968800301e-02,-6.100661722181704993e-01,4.837574930763320902e-01,-1.728789889129593582e-02,-2.249553260963840437e-02,-1.283745916595525893e-02,9.502449035644531250e-01
4.556169713014104894e-03,-3.897406346599631699e-01,2.406465485683657035e-01,2.773968318155071999e-02,-3.768023253669109535e-02,7.592022183348112740e-02,5.728506445884704590e-01
1.487818333617534766e-02,-5.987155232643622815e-01,4.527024183103223742e-01,-1.317266673563404801e-02,-6.909362478200421157e-04,-1.865638725930561168e-02,9.156416654586791992e-01
1.821465806187595737e-02,-6.091980007956305787e-01,4.899763971707479238e-01,1.827609662054186217e-03,5.707890466515395944e-03,2.481293817496337331e-02,9.561118483543395996e-01
4.850824401384452866e-02,-5.927635139290762245e-01,3.729733859175946020e-01,-1.140108061661646889e-02,2.723656328795877671e-02,9.496216121767309809e-03,8.529146313667297363e-01
2.008181700414367289e-04,-5.847435269508634015e-01,5.872361050752729072e-01,4.756829029694481861e-03,7.570093770000022905e-03,-2.078083674705459138e-03,1.015089154243469238e+00
7.509758861422507169e-03,-5.920936262789670002e-01,5.888609869411343123e-01,-2.677350221573019263e-03,-2.711248513393835669e-04,-2.575083938339052005e-03,1.022797703742980957e+00
-6.943390529343279952e-03,-5.926801235873369045e-01,5.916773172512728163e-01,-2.130022940529762657e-03,8.538141368193259695e-03,-2.603919551120193430e-03,1.025827050209045410e+00
-4.416118119933522875e-04,-5.912039489759892685e-01,5.880044321180116773e-01,9.978002945896795491e-04,4.192408754997769063e-03,-3.022961850243779253e-03,1.021265745162963867e+00
-1.360356982200018258e-02,-5.999969310424658753e-01,5.922418078388977936e-01,-2.769546170799787842e-03,-4.452966951376914791e-03,-2.683374368069139926e-03,1.032605290412902832e+00
-1.874024305209965116e-03,-5.402029547874438453e-01,5.707508568408248273e-01,7.874645487845353953e-02,-2.513536897192841530e-03,2.568064099075370241e-02,9.729122519493103027e-01
-1.360721160069201970e-02,-5.837349768458109933e-01,5.930646438901640005e-01,7.182604836890940647e-03,9.252647190412506203e-03,5.387476325214241371e-03,1.019546747207641602e+00
-3.631612374520665210e-02,-4.059896374649880624e-01,5.714519437054336182e-01,-1.998514059695441214e-01,2.200234051280301473e-01,1.478147430611406743e-03,9.978855252265930176e-01
-8.414799964450941916e-02,-4.369196648799117955e-01,5.917814046661913352e-01,-1.596187521742578608e-02,3.374033166835971060e-03,4.517158330090607909e-02,9.092288017272949219e-01
-1.140044713328241810e-01,-3.157954189607037332e-01,7.295029254811433717e-01,-2.047706433460108610e-01,1.672874465806723498e-01,-2.759534307595319300e-02,1.065114736557006836e+00
2.058358361535017611e-02,-4.727933173751583951e-01,2.572076543030471507e-01,-7.406069632546712078e-02,7.066757079613265879e-02,1.193716524632946474e-01,7.002442479133605957e-01
-1.093370755328364474e-01,-3.003829773549990811e-01,5.954104250089966577e-01,-5.535522127362318967e-02,5.998583791103503926e-03,-4.264564714140405867e-03,8.228984475135803223e-01
-1.096581173983870450e-01,-3.391306013113484785e-01,6.181134434374325748e-01,-7.638082870755091847e-02,-1.185140605797700523e-03,1.229610771445482920e-02,8.759409189224243164e-01
-4.458078133108601959e-02,-4.761072944064710932e-01,5.837623250255241647e-01,-2.969180282326322126e-02,-1.344288899203666815e-02,2.197871122804799862e-02,9.256419539451599121e-01
-8.478356521109134403e-02,-8.386604711691908465e-02,3.537194752579991275e-01,-2.387325920836450358e-02,1.153564582747709441e-02,-5.098517714973531401e-02,4.492114186286926270e-01
2.303413346096780390e-03,-5.158468887470268882e-01,4.214612151989898248e-01,-4.656114636417446606e-02,5.582222451909170380e-02,-3.065616831834075059e-02,8.246400952339172363e-01
3.906525247589962002e-02,-4.619368457829341468e-01,2.368904823917944436e-01,-4.057960385505438028e-02,6.142599088025808840e-02,2.426116394598906364e-02,6.381803750991821289e-01
-2.062569201382540712e-02,-4.075060232356430001e-01,3.804371663652575397e-01,-1.991934858754404458e-01,1.785371227446498343e-01,5.120702799992794124e-02,8.295891880989074707e-01
-3.975705348331369515e-02,-5.852252431745735839e-01,6.030519200398785085e-01,-5.467895754528328232e-03,-8.152371615166114499e-03,4.050338272152434818e-03,1.030392646789550781e+00
-6.560976106280055897e-02,-4.304502788808062252e-01,6.873748458998526489e-01,-1.063075827000667939e-01,1.225607429417038298e-02,5.636785885281565128e-02,1.009306788444519043e+00
-2.876965650928708235e-02,-5.586745981847366371e-01,5.636987047716457422e-01,-8.336311411843941310e-02,6.512953023256608243e-02,1.027381393074486282e-02,9.897779226303100586e-01
1.114356489530309371e-02,-6.080211035932427954e-01,6.042283854559662437e-01,-3.247593824650661654e-02,-3.967488634611994816e-03,1.034249749961952194e-02,1.051600575447082520e+00
-3.277910070932792130e-02,-5.241937577988932118e-01,5.934503798332212421e-01,-2.774632112672295505e-03,-1.824684189990656916e-02,1.655144922421939585e-02,9.712022542953491211e-01
-8.619819093017774825e-02,-4.011851766266115726e-01,8.073714504097435629e-01,-1.347313424052156705e-01,1.229873450375798122e-01,-7.531948403709066986e-02,1.138420224189758301e+00
-6.041849633218052823e-03,-5.382845109242577752e-01,5.814484884082072869e-01,-2.654814481776614568e-02,-4.721622177146909960e-03,-3.109156045292657284e-03,9.712491035461425781e-01
-4.965343742068069333e-02,-4.424293777960499052e-01,6.638938634538990025e-01,-1.349866864192866001e-01,1.890927031523107968e-02,6.181321427781746869e-02,1.005428433418273926e+00
-6.303048267008029559e-02,-4.103379956010503871e-01,5.660735137305230591e-01,-1.237185147901929266e-01,7.961056700993698887e-02,1.657959787711905941e-02,8.947870731353759766e-01
-3.481739732725199626e-02,-5.523712016422647197e-01,5.901435547603236520e-01,-1.706110603949549318e-02,-6.321764041476832068e-03,1.836625199225434477e-02,9.919143915176391602e-01
8.160008820192393708e-02,-5.899717427759549881e-01,2.440074001204161624e-01,-3.015295181687729833e-03,2.271327884596403834e-02,-1.015742318520862150e-02,7.670316100120544434e-01
-2.184039995680014945e-02,-6.150762929900518428e-01,6.017392349516156314e-01,5.566510021917402996e-03,-7.771944291931637966e-03,-2.208996822089397388e-03,1.054039359092712402e+00
-2.514948635456689535e-02,-6.141884813344086202e-01,6.121637353489683964e-01,-3.026462347791044390e-03,-4.257518912778940172e-03,-1.951529510244747086e-03,1.062370300292968750e+00
-2.268159131837281864e-02,-6.134391358246175097e-01,5.811950730943572507e-01,-1.067034921318658382e-02,-2.663500046948423950e-03,5.850298490777523959e-03,1.034829378128051758e+00
-1.388184943430615520e-02,-6.083568287255344265e-01,6.060139722437223320e-01,3.263740854556404156e-03,-1.001904324160789519e-02,-3.823140269089300367e-03,1.051931977272033691e+00
-2.861907868331406771e-02,-6.102154607265662944e-01,6.037164326500458200e-01,2.081185565696813493e-04,3.783550181915420335e-03,-3.983147060883412277e-03,1.051645040512084961e+00
-1.932943476483768575e-02,-5.044388257260620234e-01,6.820236849084687636e-01,1.325111641428307341e-01,-2.528518663929117845e-03,-7.897107111281674585e-02,1.067176818847656250e+00
-2.364589457679163592e-02,-6.179612401961199764e-01,6.087905957873276375e-01,-5.443895460493779204e-03,-1.180070003269600466e-02,-1.093201024159725677e-02,1.062976241111755371e+00
-4.192415020950495536e-02,-6.141637026064258320e-01,6.034539307998746382e-01,-6.568894564837726539e-03,-1.197722038054765091e-03,-2.595510813990456727e-03,1.055194616317749023e+00
-3.644796270704859370e-02,-6.025070878406184605e-01,5.599562494457026585e-01,-4.360402712086410004e-03,-8.414262746389599909e-03,8.175639462083332488e-04,1.006971955299377441e+00
-4.504799638400888706e-02,-6.116856626043264411e-01,5.752807071103119840e-01,2.687345134907394989e-02,-5.923645560624005851e-02,2.487247997642125577e-02,1.035343885421752930e+00
-9.120229344423601281e-03,-6.067411099368908989e-01,6.214317325900108324e-01,-7.158894296320973683e-02,1.802133634936472703e-02,-3.820214005989495953e-03,1.071433901786804199e+00
8.833660908976245091e-03,-6.030392172852601096e-01,6.003585625841890705e-01,-2.841037948483134731e-03,-8.086312785199246565e-04,-3.041603921167193234e-03,1.042248606681823730e+00
1.969602741093613718e-02,-5.460079401403323818e-01,5.791128708925435964e-01,2.409091044957880484e-02,-1.076152984178940265e-02,-3.173263557188654542e-03,9.754748940467834473e-01
-4.734454486949327134e-02,-6.301003851701220126e-01,6.270754128300604080e-01,-3.399284782612503261e-03,-1.687468770796785381e-02,7.927344937925654908e-03,1.090204715728759766e+00
4.003740289280622450e-03,-5.482593794122907482e-01,5.810768583467286197e-01,-1.396035265614349423e-03,-8.344672191856462168e-03,1.173117894584504561e-03,9.782243967056274414e-01
-4.492432797883190443e-02,-6.278861544532573502e-01,6.256825658415270386e-01,9.727943499046633191e-03,-1.627223922209672033e-02,1.763470768413145581e-02,1.087431669235229492e+00
-1.667372654108274788e-02,-5.470006302642941298e-01,5.434074118468575909e-01,-8.954471740619243322e-03,7.177858818086389064e-03,-1.417634418637260703e-02,9.449664950370788574e-01
2.074954317172513982e-02,-5.864657653050454611e-01,5.885573069686698133e-01,-3.591521494660418392e-03,-5.483458013575018362e-04,1.078490932612451332e-03,1.017811775207519531e+00
3.703362051182693473e-04,-6.393630770657765527e-01,6.168159818213373446e-01,-8.566740391032386798e-03,4.990663289054638949e-03,-3.742761395158317357e-03,1.088100075721740723e+00
-2.422328842059652196e-02,-6.464948778879946456e-01,6.664474449840526171e-01,-2.876807934602689399e-03,-2.528612065784885746e-02,8.607813688757090173e-03,1.138506889343261719e+00
2.086760251276698411e-02,-5.995296759803206976e-01,5.960603783632406616e-01,-1.026899154213028673e-02,1.969724157761156523e-03,-4.227403963131524424e-03,1.035842299461364746e+00
2.996675690049632745e-03,-6.139565807119293783e-01,5.995662740830692838e-01,-2.581056973792254794e-02,7.260650686915698371e-03,8.917035581012521320e-03,1.052129983901977539e+00
8.583165442900428377e-03,-5.943656142830792133e-01,4.690557034646687384e-01,1.962535546193694760e-02,-1.371369635933184471e-03,5.986467964825396143e-02,9.301268458366394043e-01
-8.078800099428758152e-02,-5.308523985712481075e-01,6.616867681528852962e-01,-1.236011057341478842e-02,4.709457122184144105e-03,-3.650220491631432640e-02,1.045232176780700684e+00
-2.557673238827381373e-02,-6.204232308526766992e-01,6.127895094512120222e-01,-5.189367312325141729e-03,3.363435392139428690e-03,-3.591363453642612384e-03,1.068287014961242676e+00
4.412847052064683417e-02,-6.705606971733608646e-01,1.977998955850720497e-01,9.915438470950804772e-03,-1.922606348670467258e-01,1.695250145742359729e-02,8.696392178535461426e-01
-9.380477161693373533e-02,-1.637397394962060160e-01,5.995726989219991587e-01,-7.799579629578003159e-02,-2.579777100696319797e-02,8.189970672769436577e-02,7.579734921455383301e-01
-2.226397176445792797e-02,-6.235677472994739512e-01,5.807640905244596530e-01,-8.005696487465638680e-03,-3.551826044121728088e-03,-8.048202521445080651e-03,1.043185830116271973e+00
2.380081818569497465e-02,-6.079293646325200084e-01,4.090873916353101603e-01,7.734283858390610979e-03,-2.792678348978772096e-02,2.570225626234799721e-02,8.918671011924743652e-01
2.469985289265742845e-02,-5.975972512380237633e-01,3.989556692152557149e-01,2.917965420519462796e-03,-2.771908055851647970e-02,-1.317984485068486589e-02,8.735394477844238281e-01
-1.388728281252398118e-02,-6.239497441036296888e-01,5.656801163126098375e-01,-2.350980613699991777e-03,6.927978423676180164e-02,-5.573917801101603738e-03,1.037379264831542969e+00
-2.332686509813896442e-02,-6.335496561596763998e-01,6.003195041778877084e-01,4.096846147683953950e-03,4.013247754775728197e-03,1.875511416446801151e-03,1.068634271621704102e+00
-1.878762212717893093e-02,-6.304309894980925089e-01,5.840754271729271530e-01,3.839934275974973485e-03,2.051023649986610450e-03,1.194866605493220650e-02,1.052033185958862305e+00
-6.217975635872280415e-02,-5.082589642388926077e-01,6.003853553975291302e-01,-4.606348173478608775e-03,1.387678450272304687e-02,-2.850065993927130767e-02,9.677881598472595215e-01
-2.716003378269658125e-02,-6.213122121115962626e-01,6.011542451760061301e-01,3.222148645912195457e-03,6.072210724622282944e-03,3.364682665729816675e-03,1.058907747268676758e+00
-2.536221083014435218e-02,-6.211659012113799339e-01,6.007205134155733095e-01,2.382758849635802697e-03,2.764251517199123494e-03,6.033448163281245578e-03,1.058363437652587891e+00
-3.025197541856692457e-02,-5.659836242692125596e-01,5.908842934364637589e-01,-1.468174710908461827e-02,1.260276421906307912e-02,1.358774402316155960e-03,1.003349304199218750e+00
1.409875304517928252e-02,-6.845164194758411869e-01,4.843438044175455426e-01,5.916669731729756049e-03,-2.085389937889163547e-02,1.317372233965011241e-02,1.019629478454589844e+00
-2.051096779699862482e-02,-6.202389558868082187e-01,5.797456888076869541e-01,3.398712591455382848e-03,2.404547521118542404e-04,8.525153469178620158e-03,1.039338827133178711e+00
-2.489183648667673068e-02,-6.356837274947151339e-01,5.976123493717497848e-01,3.461374361370066384e-03,4.272003584652916269e-03,-1.040878442005132654e-03,1.068125724792480469e+00
3.199726973869539137e-02,-5.546567749230121303e-01,5.685475016767435053e-01,1.662605227424102106e-02,-5.203908130170698150e-03,-6.026069023830400544e-03,9.735696911811828613e-01
-3.174381741469892160e-02,-5.805273482536168483e-01,6.759246965721016354e-01,1.898758106228449205e-01,-1.139267193757943497e-01,3.009959413148923478e-03,1.156476736068725586e+00
3.663381450038104281e-03,-7.451008672315224679e-01,6.794913976758382157e-01,4.310495915932878452e-02,1.309786912673687343e-03,-3.200718655489283998e-02,1.237772107124328613e+00
-8.320589471601184950e-03,-1.142389367095916208e+00,9.404312280013846781e-01,-1.130014898741712494e-02,-2.352195893555375783e-01,2.636504860015988216e-02,1.852200031280517578e+00
-3.025124208962582523e-02,-5.911703158444715500e-01,6.890256185181291571e-01,9.874107229760366311e-02,-7.287421623512847779e-02,1.497450957098498021e-02,1.131945013999938965e+00
-4.964317623938653556e-02,-6.567019147248366329e-01,6.730771414952677612e-01,-1.395447570296597974e-02,-3.465087087383427605e-02,2.067373084747852786e-03,1.154892921447753906e+00
-5.205504634404486269e-02,-8.382809309856900093e-01,8.937366052771311686e-01,1.579592090121488268e-01,3.927543051424245424e-02,7.307155899747040835e-03,1.528371691703796387e+00
2.820222204719105563e-02,-8.669892873096478603e-01,6.782427862314187594e-01,1.059013768984212603e-03,-2.093596997947574367e-01,7.290334838546254359e-02,1.397595763206481934e+00
-4.579074477150882339e-02,-6.828465158283396619e-01,6.868632353174636274e-01,-2.083722334531451850e-02,-2.640194349374033050e-02,-5.144918853992418509e-03,1.188627958297729492e+00
-2.155715310020063502e-02,-6.192153202569167236e-01,6.223060500698820441e-01,4.595920792601468723e-07,-1.195923103869666118e-03,-1.795720272779461994e-03,1.075443744659423828e+00
-2.185116797074826422e-02,-6.160048890478889705e-01,6.229255682804591965e-01,9.714573519119881631e-04,1.781058263958709305e-07,6.289864788091817545e-04,1.073245644569396973e+00
-2.413181436968851040e-02,-6.167930143095281537e-01,6.098099665800752467e-01,-1.627735145656926787e-03,-2.936293208705285668e-03,-4.829515472471208361e-03,1.062518715858459473e+00
-3.187312929371213799e-02,-6.176740361844184068e-01,6.161772662091401509e-01,-3.996616440689967735e-03,-1.504057081868276531e-03,-2.883169528890201696e-03,1.069037079811096191e+00
-1.477939835838580282e-02,-6.035729181862564685e-01,6.136079722168810147e-01,2.979152223310923674e-03,3.073191895622936673e-04,1.227965638017269575e-03,1.054310321807861328e+00
-2.901919700336926672e-04,-5.983734732559398140e-01,6.039062125919197888e-01,2.066178555498778165e-03,-6.574444981646827661e-03,-4.967948345598331879e-03,1.041313171386718750e+00
-7.248844388379940828e-02,-6.179542423112891480e-01,5.953342292735384067e-01,7.653680873939928617e-03,-5.660780063233326886e-02,1.482888655227240782e-02,1.057470202445983887e+00
8.732610580614195636e-03,-5.001529085629369265e-01,5.630490496055966521e-01,3.418071815011530790e-02,5.684429400643589009e-03,-4.776334895485827986e-03,9.230304360389709473e-01
-5.250046683609209397e-02,-6.548001443485910178e-01,6.600111044181826703e-01,-1.251098238618345102e-03,-3.683383970289036326e-03,7.014506879624791622e-03,1.140077233314514160e+00
-4.497806121611545860e-02,-6.246833294580730334e-01,6.251717830629133221e-01,-5.075719876946181708e-03,-1.549562720107777215e-02,1.269571670568810789e-02,1.083941698074340820e+00
-5.484528186224188473e-02,-6.211908639053184134e-01,6.125860805756699889e-01,-5.336966701980572908e-03,4.579914304178886973e-03,8.164032284492644606e-03,1.069839715957641602e+00
-3.958346188868125393e-02,-6.414344931945807904e-01,6.291802308438757541e-01,9.967775535408514298e-03,-6.491134362119167084e-03,1.287304640252804992e-02,1.101311564445495605e+00
2.252062363613938425e-02,-5.829473639811388885e-01,5.856139660287950077e-01,-1.654344656296190264e-02,1.054163200608231737e-02,-1.018760465550097929e-02,1.012949347496032715e+00
2.371329550498888633e-02,-5.631097253284247373e-01,5.787221031470463073e-01,-2.197908726272992941e-02,5.571729842161234937e-03,2.262920824792387028e-03,9.897705316543579102e-01
-3.453585997753891301e-02,-7.740409600282446290e-01,7.899639945397545215e-01,-1.531544233240429015e-02,3.610491810543350888e-02,1.506702689215065963e-02,1.357087016105651855e+00
1.469042966742438276e-02,-5.817631613410971791e-01,6.017545131018793292e-01,-1.386802301805974483e-02,2.381324148458294470e-03,-1.632487546837148003e-03,1.025260686874389648e+00
-3.515718277662882585e-02,-5.237111346444811577e-01,6.690995217413109319e-01,-1.208039084252950229e-01,3.150455159115395087e-02,1.357633313514077997e-02,1.061150908470153809e+00
3.216273041797085286e-03,-5.675638252011550033e-01,6.292687445511288002e-01,5.849063750313482357e-02,-7.720337833816650133e-03,-3.885184470369111576e-02,1.044050097465515137e+00
3.078045511922402472e-02,-5.587792801275925925e-01,5.714883006492615936e-01,1.354505994869026342e-02,-4.939407416229906270e-03,-2.419086839397371035e-03,9.794725179672241211e-01
8.325777751577716213e-03,-6.494463597277546629e-01,6.836018058297530509e-01,9.949068114781439709e-02,4.609042585877415332e-02,-1.658175239399580642e-02,1.170355796813964844e+00
-2.185987153413166198e-02,-6.150779998779885016e-01,6.081667020488586983e-01,-2.418420116989124669e-03,-1.054845108414591759e-03,3.464281169137854808e-03,1.059547662734985352e+00
5.390477069453919468e-04,-6.056910993291767520e-01,4.751273509491268365e-01,-7.744577127878393523e-03,3.414403981920504511e-02,-1.374478133995222888e-02,9.405865073204040527e-01
-4.915078768843235413e-03,-5.524711500917383056e-01,6.067904941366013549e-01,6.861069120875810945e-02,-2.226565710197028758e-02,-5.992909110178069182e-02,1.017510890960693359e+00
-4.082599110535334308e-02,-6.127510445956105833e-01,6.088850373386632819e-01,-4.466653027963778111e-03,-4.407932583537638171e-02,2.942812545216718506e-02,1.062683224678039551e+00
-4.473283997340024576e-02,-6.095058022567428901e-01,5.680481655860869505e-01,8.079097461902419453e-03,-7.050797098723086270e-03,1.722690111212187708e-02,1.020679354667663574e+00
-1.887308441815408952e-02,-6.222712513134439627e-01,5.858097200153060680e-01,2.389376151239101017e-03,1.653684416750513539e-03,7.458611661941567071e-03,1.046320915222167969e+00
-5.019134460930526481e-02,-6.077627947571888622e-01,5.686988505063442778e-01,6.750040268955856404e-03,-1.279813436429264040e-02,1.391095006117715541e-02,1.019899606704711914e+00
-2.264081184834269844e-02,-5.889319073087602163e-01,5.756061252175088683e-01,-5.347202116314245246e-03,1.145140895867784473e-03,-6.399396117870887217e-05,1.008690595626831055e+00
-2.249626168228320913e-02,-6.318903880029893561e-01,6.057224528535187780e-01,1.942939810116979223e-03,5.183926572907588716e-03,2.980465987836866410e-03,1.071900844573974609e+00
-3.026261393869697502e-02,-6.137966680679507459e-01,6.545152458111775928e-01,-8.608963432630581392e-02,-3.414533435036887915e-02,-2.810200689207198455e-02,1.112261295318603516e+00
-3.768633076240399810e-03,-6.167705945131949363e-01,5.963296169044910444e-01,-1.807943410513123544e-02,2.798615575804367251e-03,1.042843361614861908e-02,1.051228404045104980e+00
-4.283380473626919455e-02,-6.165208060926604672e-01,6.066256529827855903e-01,6.698413758327775858e-03,6.801750270722455808e-05,1.231505352339619386e-02,1.060231328010559082e+00
-5.321321457225555024e-02,-6.157117541638287284e-01,6.001011530983493270e-01,8.848764122677618346e-03,-1.300206946627852599e-02,1.593020875479485982e-02,1.054616570472717285e+00
-2.762934792633763015e-02,-6.286788199231289065e-01,6.027739154503940489e-01,1.069005558199252488e-03,8.046336337404716432e-03,-2.806430694601772316e-03,1.066674113273620605e+00
-2.413630397495367813e-02,-6.349016699202022496e-01,6.029184088620249682e-01,7.240213434427873566e-03,8.760311196473970566e-03,1.121894573794293129e-03,1.072197079658508301e+00
-2.394969544386290825e-02,-6.258343121395458786e-01,5.990234224371512317e-01,1.531599375664356635e-04,2.422319523527622330e-03,3.236791659987990621e-03,1.060833454132080078e+00
-2.714572056930094832e-02,-6.226092761889657767e-01,6.103801196514088145e-01,3.290665515177525983e-03,1.329700180169943874e-02,4.167945237047014119e-03,1.068295121192932129e+00
-2.321437940052347229e-02,-6.350533033372073310e-01,5.962509174000720780e-01,2.124064310918858962e-03,4.027212162674328501e-03,-3.818143100279071042e-03,1.066397190093994141e+00
-2.055889735125554160e-02,-6.239686560725760112e-01,5.507186450178421788e-01,1.298892551308025375e-02,-7.266536361111523151e-03,1.673809340424784256e-02,1.018175244331359863e+00
-1.752603865820907825e-02,-6.237036558110866658e-01,5.440969569613682832e-01,1.246266578982466351e-02,-1.106976836624798486e-03,1.389752335379493622e-02,1.012108683586120605e+00
-1.666573845745704038e-02,-6.266808035766291418e-01,5.572258388212382174e-01,9.995795438693010765e-03,-1.803559942374639152e-02,-1.565827100440507144e-03,1.026077628135681152e+00
1.868740980823494630e-02,-4.667782542366384346e-01,5.496621659010008099e-01,3.077579117658212071e-02,-5.902231559075542776e-03,-3.098183389360016898e-03,8.822447657585144043e-01
-1.877366661578019208e-02,-6.229158919895949609e-01,5.462110596801432738e-01,1.442263944018480452e-02,1.310714046748442994e-04,1.387275000263398991e-02,1.013275980949401855e+00
-2.635539480739543250e-02,-6.167230294230509058e-01,6.074173387319365958e-01,7.025435772076310829e-05,1.324436367476658841e-02,6.122414710812843115e-03,1.060659885406494141e+00
6.409189771080245346e-02,-6.438857455509161554e-01,2.405974474393707263e-01,-3.440909261430612903e-02,-1.419964828576222859e-01,-4.619198930935181774e-02,8.531064391136169434e-01
-3.525644179927181487e-02,-6.438768202760347670e-01,5.728616066253545691e-01,-1.446256630102594753e-01,-1.069104384317450251e-01,-1.064930787325893066e-02,1.098962664604187012e+00
6.255908287993772188e-02,-6.802223997820017187e-01,2.415096970881868144e-01,1.110608624007866987e-02,-1.624927239155373182e-01,1.089589863696635436e-01,9.120672941207885742e-01
4.949305324097535985e-02,-6.704508242919147154e-01,3.427110089967150275e-01,2.401490345101952792e-02,-2.381822311093506339e-01,1.543611022117427969e-02,9.939988255500793457e-01
-1.091114104446237396e-02,-6.165494170368384097e-01,5.452300205763124241e-01,-9.986561479006271849e-03,1.362892502027981262e-02,2.024914547938946180e-02,1.007470846176147461e+00
-3.212393003655853591e-02,-4.965079563330300205e-01,5.870609829538613322e-01,-2.859643502704526871e-02,1.957075924837276687e-02,-2.154571519298359092e-02,9.442335963249206543e-01
-2.453662450534742356e-02,-6.288820701061383911e-01,6.002180879586186402e-01,2.340415122048260591e-03,8.542766506052667033e-03,-3.861134598042001887e-04,1.064591646194458008e+00
-2.039911282642260446e-02,-6.125519310601809098e-01,5.518107020874525315e-01,-1.089595007550279125e-02,-4.156501771909607360e-03,6.110120963268230940e-03,1.008674740791320801e+00
-7.768789896008465590e-02,-2.948046592784502318e-01,5.496443427171515683e-01,5.761374180508624376e-02,2.151346586357058555e-02,3.671889678208296870e-02,7.695980072021484375e-01
-1.252568404373861216e-02,-5.721020133190658497e-01,5.236214675051741319e-01,-4.609619152720635313e-03,-6.863749457789991397e-03,-1.243426251805617409e-02,9.493490457534790039e-01
-2.450937449962777362e-02,-6.037374721891247686e-01,5.934938299442111820e-01,-1.391824760244523077e-02,1.805044044006732726e-02,1.089693844499059310e-02,1.037936806678771973e+00
1.534959125447048489e-01,-7.384638571656895190e-01,1.251952916827048234e-02,1.023710906026417122e-01,2.379075637829676168e-02,-7.095073854306525873e-02,8.590464591979980469e-01
1.799193604137599642e-02,-5.983704109202875321e-01,5.926353748318776704e-01,1.123020839228883530e-02,8.944929674149951909e-03,7.575823534720638186e-03,1.032035231590270996e+00
4.645818158555324595e-03,-4.813558137484840183e-01,5.882318589587897106e-01,5.890169258914183109e-02,1.714380091197186678e-02,3.699100841848220605e-02,9.358359575271606445e-01
-9.621066708226646766e-03,-6.479197444641117132e-01,6.633950369185225293e-01,7.097917860108059196e-02,-5.188194559751976853e-02,-6.654026845044756777e-03,1.145985722541809082e+00
3.045999558985167804e-02,-5.431319777781932201e-01,5.690450620837240736e-01,9.845762131227567965e-03,-4.630228902290959951e-03,-3.657137596926848203e-03,9.635377526283264160e-01
3.538684119823054530e-03,-4.352307457856529616e-01,5.884987832737574864e-01,7.167699825416412596e-02,5.855688342177672867e-03,6.249438533680503824e-03,8.983275294303894043e-01
1.449575508784273041e-02,-6.137723427163236378e-01,6.320890611459002439e-01,5.378232865437155251e-03,-4.236813770531914179e-03,-5.677115261086783209e-03,1.079070806503295898e+00
1.620373689953255938e-02,-5.364171469442932105e-01,6.223426886691620918e-01,1.206231381004863601e-01,-4.086351299136248977e-03,1.246197283012893432e-02,1.025634050369262695e+00
-3.356651605999143306e-02,-5.406882318848903468e-01,6.877444157915325595e-01,1.096094205971811925e-01,-6.227465686422925528e-02,-2.307695406652536876e-02,1.092029809951782227e+00
-2.037967885736979151e-02,-5.210827652035632251e-01,5.798903390486808140e-01,3.114564029841195708e-02,2.428785324985684863e-02,1.458589681269080625e-02,9.575504064559936523e-01
-2.277706719530637330e-02,-6.080770830733772669e-01,6.070765743122564784e-01,-2.298327672334912405e-02,2.480136446079830512e-02,-8.087666414922022387e-03,1.054310798645019531e+00
-1.596840202653919405e-02,-5.848654508078532377e-01,6.184121642228872506e-01,-4.833581146087471275e-02,1.698187760037316377e-03,2.253053695148507160e-02,1.046671032905578613e+00
-4.610933864510063929e-02,-4.750172850104251721e-01,6.640376209561936749e-01,-1.476272329268206174e-01,4.895345765221920803e-02,1.088700627869408112e-02,1.032368540763854980e+00
-3.243301822589378380e-02,-5.916852222567575703e-01,5.900872797149337989e-01,-2.346301315205081509e-03,-2.634279630876137143e-03,9.373588549940784290e-03,1.024080753326416016e+00
-3.709758119062682435e-02,-5.838210761338616939e-01,5.954154389818410165e-01,-6.212750969760731309e-03,-4.642784310759674456e-04,-5.841181423427062053e-04,1.022206664085388184e+00
-2.542856961908901425e-02,-6.167955912235274507e-01,5.897455393105173194e-01,-7.030862117044594205e-04,3.554353097399776725e-03,6.363177445359102053e-04,1.044982552528381348e+00
-2.674527516901308369e-02,-6.024808391102407512e-01,5.888107110800618882e-01,2.909970542378385915e-04,-2.479956959231048499e-03,-1.572082500692706299e-03,1.031893491744995117e+00
-1.954483533016887833e-02,-7.017590695805433487e-01,6.820056370406203383e-01,-1.509284375338625084e-01,1.116099646096497811e-01,1.013676323463020071e-02,1.241859078407287598e+00
-2.684565683439399386e-02,-7.545711540717712218e-01,6.767460061067440691e-01,-1.355447230784580584e-02,3.984000546983266361e-02,1.984495207977829412e-02,1.242232441902160645e+00
-2.049751477972050484e-02,-6.095862653087888994e-01,4.709543627114368691e-01,2.285505621012208846e-02,1.120514318833430861e-01,-2.259665669217271119e-02,9.585534334182739258e-01
-3.542311667393395480e-02,-6.447200292061520122e-01,6.544411655096227243e-01,-1.373918145401371730e-03,1.190877437858249045e-02,-3.059022395763073138e-03,1.126031398773193359e+00
-3.913770691053806983e-02,-6.507394552140697286e-01,6.236452703761709015e-01,6.531956880561727921e-03,5.200750669043377634e-03,8.953628154613771373e-03,1.104149818420410156e+00
-3.224014047589882082e-02,-7.297826223488361741e-01,7.283735026947438795e-01,9.867893892426739255e-03,2.539915194952743413e-02,-2.134388776156178127e-02,1.264615774154663086e+00
-1.254757330479526131e-02,-6.171432888502859093e-01,5.239908386670326657e-01,1.527442781186436581e-02,-5.055782085857157306e-03,-3.455624222557901384e-03,9.892475605010986328e-01
8.919587533423270487e-03,-6.135160692110952496e-01,4.561298147030296013e-01,1.779649348351673016e-02,-3.121690334621960664e-03,2.829129601391025192e-02,9.322893023490905762e-01
-2.722654717771811131e-02,-6.747566436242762311e-01,6.212770315632180074e-01,-5.729716366429465912e-02,-5.184553025427650341e-02,2.163881112383347211e-02,1.130970954895019531e+00
-2.244790182553775895e-02,-6.075867515744322045e-01,5.792754058170298537e-01,5.854522479941514507e-03,5.401924145709275163e-03,3.184343625352614379e-03,1.027993679046630859e+00
1.101044899330452798e-03,-6.059705323730454340e-01,4.661041617833430184e-01,-1.577130749836327299e-03,-5.438418214125417816e-02,1.725027361578950966e-02,9.363904595375061035e-01
5.776899528509460424e-02,-5.710833454342327808e-01,2.992415303512515612e-01,-4.676435316289885395e-03,-4.319674209761973499e-02,-6.816381631684156200e-03,7.819319963455200195e-01
2.664961571056133349e-03,-6.589095132957722978e-01,4.937736668205470192e-01,-1.899037176845530875e-02,8.333176855642383807e-02,-4.657964755594670714e-03,1.012794733047485352e+00
-4.208294363167270485e-02,-5.990210235057434884e-01,5.548680911040783093e-01,-7.358487997826407799e-03,-6.296186822177606869e-03,-1.489739478478726599e-03,9.996415972709655762e-01
6.146590698821619014e-03,-5.785857711983528606e-01,3.287298723465387207e-01,-2.601351527208413221e-03,-1.351447851363277164e-01,-1.231996820467499455e-02,8.305810093879699707e-01
-3.612161050399043116e-02,-6.026705335863729029e-01,5.611584345276009467e-01,-4.377242547187330107e-03,-6.653590417922695390e-04,-7.451076723100823196e-03,1.008134365081787109e+00
5.026968701067760503e-02,-6.717571387286440654e-01,3.189599420976084176e-01,9.372063552817096188e-02,-1.786924084781441879e-01,2.038442558817215103e-02,9.544155001640319824e-01
2.880757312562565176e-02,-6.644865205798720087e-01,3.178797561593136312e-01,3.072132775379880082e-03,-2.049477930098070888e-01,8.968474064038100060e-03,9.438812732696533203e-01
5.702520491589654905e-02,-4.808844189727719542e-01,2.134030123762999387e-01,1.424708150481817648e-01,-1.855929717878924690e-01,1.655061170930997860e-02,7.503117322921752930e-01
-9.468196072066500935e-02,-2.077797128536230109e-01,6.315622195868200173e-01,1.917739730927776332e-01,-3.290333427272211205e-04,-1.023963671500676825e-01,8.741541504859924316e-01
-8.377531571593230253e-02,-1.538994217936027198e-01,5.863969902950993962e-01,1.479754564839144415e-01,5.617025864267329721e-02,3.293937453793736175e-02,7.612187862396240234e-01
-1.931806127070769680e-02,-4.435773123333751067e-01,5.682713611844656398e-01,5.439666957697071592e-02,-1.056301109305069104e-02,-4.794399455975523693e-04,8.853021264076232910e-01
-3.574780917500487015e-02,-6.018301013579687719e-01,6.189864942817576710e-01,-1.320356160756911215e-03,-8.751969240991442148e-03,-8.885414432862580314e-03,1.058409929275512695e+00
-4.298276212785401978e-02,-5.379529578718443839e-01,6.007264675985478641e-01,-3.787899486436693396e-03,2.956131575867815969e-02,1.760118902834780646e-02,9.907411336898803711e-01
1.923476074553814863e-02,-5.306246265618057567e-01,5.673342499425573227e-01,2.884048224994210929e-03,-6.563160518921001829e-03,-3.803933380806031033e-03,9.509645700454711914e-01
-2.242582378485867556e-02,-4.046768208046072068e-01,5.627283880790278081e-01,4.048084344824664366e-02,-1.115974104520190899e-02,-8.526349739378645889e-03,8.471746444702148438e-01
-4.314301793062602641e-02,-3.723624796147650962e-01,6.974150967872043694e-01,1.780896309784244236e-01,1.564795953408082418e-01,-6.568338361723034813e-02,1.040272116661071777e+00
-6.523807015543503507e-02,-2.571964995835209766e-01,5.003150968474538995e-01,1.183697727140215483e-01,6.527783962969083142e-02,-6.898220199642375594e-02,7.309955954551696777e-01
-3.476276988828054526e-02,-5.730757141886005934e-01,6.025026997820979169e-01,-2.246943017737332016e-01,-1.622498496669812773e-01,9.445379763154579389e-02,1.138480782508850098e+00
2.333104130800150999e-04,-1.016562548877856464e+00,7.323378344649936755e-01,-1.419217893029453004e-01,-2.191270683402962161e-01,2.280128364073458203e-02,1.587541103363037109e+00
-3.590943811900040861e-02,-5.258195492865544995e-01,5.426193870376243567e-01,-1.019126343939660839e-01,-1.014994147015553100e-01,2.195445991838530439e-02,9.600237607955932617e-01
-1.329262671184476205e-02,-6.901983779167326638e-01,7.218669575484251144e-01,-6.591278676045871088e-02,2.165970727915725660e-02,-3.988601475201170553e-03,1.229139328002929688e+00
-8.503192497777792291e-02,-6.203294138531555424e-01,9.530036910197527966e-01,-7.507619521041508648e-02,-1.056994870483626836e-01,-6.159271092914922474e-02,1.407667040824890137e+00
-1.297781475855932717e-02,-6.693713385937080096e-01,6.527740369895126404e-01,-2.033063545710709144e-02,-3.072969664240913015e-02,3.557180041149923116e-02,1.148452043533325195e+00
-1.945840809579421626e-02,-7.544180190617761905e-01,5.621320512935048530e-01,-1.932013700259943567e-02,-9.353615118456008737e-02,-5.307167352079448369e-02,1.158307075500488281e+00
-3.319977458935480935e-02,-7.534384222737394721e-01,6.755951885528227452e-01,-2.110494265721717666e-01,-1.562131839837639924e-01,-1.111430608578814830e-02,1.318650603294372559e+00
-9.643496540380941395e-02,-3.095915444960206653e-01,6.504920328109244920e-01,-1.902266291269009146e-01,-7.918859612880348176e-02,7.604683495194369813e-02,9.525064229965209961e-01
-3.006896103270952081e-02,-4.629696220724121014e-01,6.556623929537682693e-01,1.094746530095439402e-01,1.907936127010996866e-02,-6.010234981709083879e-02,1.001182794570922852e+00
-2.633970175928068008e-02,-4.502439075400179180e-01,5.764561279996460730e-01,3.489550801772817179e-02,-1.631511654751597110e-02,-1.827215079545077905e-02,8.966819643974304199e-01
-1.217030893267346051e-02,-5.624995999622227627e-01,6.000116708473312022e-01,1.207779052927641754e-02,-1.484818849243215756e-02,-7.460778997450548747e-03,1.007867455482482910e+00
-2.375294881722916918e-02,-6.150238697886432071e-01,6.119512253617960251e-01,-2.643181359885864688e-03,-3.223964982812931902e-03,-3.909895459185141336e-03,1.062869906425476074e+00
1.852643594313326675e-02,-4.750395022663899125e-01,5.583803433637963831e-01,3.073869611338407234e-02,-8.402241987744618265e-03,-5.367864677925100574e-03,8.970149755477905273e-01
2.835328447792380760e-02,-5.719944400549228369e-01,5.805947764228525099e-01,1.683966831956603067e-03,3.638884037869230428e-04,-3.880195633125222299e-03,9.984883666038513184e-01
2.492538519303913805e-02,-5.658596374252816696e-01,5.813744838363555933e-01,1.065090849548452727e-02,-1.285742050489417816e-02,-6.895063792653767162e-03,9.941746592521667480e-01
1.007627785829773998e-02,-5.784837484280824782e-01,5.947109490241910823e-01,3.635145190873716788e-03,-2.136329560145733362e-03,-7.753050972607780818e-03,1.016133308410644531e+00
-2.003330039940331986e-02,-6.720107706434620409e-01,6.801960965719197061e-01,-8.298187155512337654e-02,-4.511634219371726817e-02,6.410825339569016512e-02,1.187865138053894043e+00
-3.152940072610743022e-02,-6.234760533987653286e-01,5.494602827641376086e-01,1.527050768391386218e-02,-4.066577932333733519e-02,4.345561748697178428e-02,1.021367073059082031e+00
-4.154559721426883886e-03,-6.282079662553462507e-01,6.481734493693058763e-01,-5.589859239344799335e-02,9.880732488352379078e-03,-2.009450334989343334e-02,1.110378384590148926e+00
-3.938916588438144684e-02,-6.274334252135841394e-01,5.995645772074879032e-01,-8.802602632348584602e-03,3.822988770437200229e-02,1.201546685667972958e-02,1.065289258956909180e+00
-3.077791927761006768e-02,-6.247269209794119593e-01,6.313114681405491702e-01,3.198084303135299324e-03,-7.244196870857742528e-04,1.128447348030091855e-02,1.088484883308410645e+00
-4.333698091371186029e-02,-6.111024482161003801e-01,5.937653739410668763e-01,1.585528669276244128e-03,-1.470084636186562259e-02,1.673459039879586496e-02,1.044738173484802246e+00
-3.287179972270494466e-03,-5.847016999360743483e-01,6.163130343185476701e-01,-2.864548912847592749e-02,1.014806238159929146e-02,7.411757581424263924e-04,1.041616082191467285e+00
1.115285660581062308e-02,-5.832831570331545867e-01,5.898051363683457504e-01,-1.114778620212875798e-02,1.445562499860479459e-03,3.839402838660725941e-03,1.016163229942321777e+00
-2.678211008224602729e-02,-4.536829208819617709e-01,5.909486895709772369e-01,-6.887115756674029587e-02,3.282931051613741796e-02,-4.851768709072180191e-02,9.230765700340270996e-01
-1.225541786232665215e-02,-5.695044574094962897e-01,4.902319161091110988e-01,9.063438589829558856e-02,-1.469324913159990031e-01,5.394542854748131389e-02,9.701402783393859863e-01
-3.507054346492993746e-02,-5.978526801585962724e-01,4.658191028887799234e-01,-8.775637505147161274e-03,-6.777636361763592077e-02,-1.737497643697817964e-02,9.297438263893127441e-01
-5.141027886524448393e-02,-6.672684180953210031e-01,6.761749325268079369e-01,2.119416348595896671e-01,-2.205290710277499622e-01,-7.570161936598270025e-02,1.286312580108642578e+00
-1.449304711680557065e-02,-5.610323488496609112e-01,5.715612750405180131e-01,1.026651817208354689e-01,-1.565131796676915987e-01,-3.135781085466081419e-02,1.034662246704101562e+00
-2.892816718527407849e-02,-6.159488620215124444e-01,5.799778195719978990e-01,-1.015697142413512361e-02,-2.105360328386014692e-03,-4.831950939373197071e-03,1.035950303077697754e+00
-4.260507014374360912e-02,-5.946875711996260083e-01,5.308491001366788531e-01,-2.012512479124137655e-03,-4.359811704188973347e-02,-5.718652585444428680e-04,9.777291417121887207e-01
-2.689719237854725289e-02,-6.055878215450292146e-01,5.791203937798061752e-01,8.455771676223071409e-03,8.954067767957514870e-03,-2.096073512079562814e-02,1.026942014694213867e+00
-5.013848574627414317e-02,-6.091716855854106827e-01,5.941918595647220913e-01,-7.918103118352658523e-03,-1.443679797465278331e-02,-1.015445330799461497e-02,1.043553709983825684e+00
-1.869517223672042400e-02,-5.942683800745555134e-01,4.825255978073199614e-01,-2.136667175841008501e-02,-4.457471257738651604e-02,8.674254690014841437e-03,9.373111128807067871e-01
-6.626621439026375571e-02,-5.948420249403912896e-01,5.651886618394870165e-01,1.334428017366738606e-03,-3.494147135180761254e-02,1.064915200372658702e-02,1.007922410964965820e+00
-6.495109944936561241e-02,-6.114861353732989890e-01,6.150003327661623942e-01,1.094049266989257502e-02,-6.328373241374235514e-02,6.998617631112766593e-03,1.070127248764038086e+00
-4.568627508277588178e-02,-5.960816775251460697e-01,5.229094259862127059e-01,-2.028332424827875013e-03,-3.448747393525307403e-02,9.387167057304402894e-05,9.709630012512207031e-01
-1.270210438432880368e-02,-5.739811082568218037e-01,5.277853170795061555e-01,3.437464866580100965e-03,7.921150764072810296e-03,-5.982808622151912503e-03,9.543877840042114258e-01
-1.152310892955673433e-02,-6.040417829015990447e-01,5.178057328345313515e-01,9.763312925230279229e-03,1.865008834525593245e-04,-1.739043996057324307e-02,9.726756811141967773e-01
-3.782491019585901282e-02,-7.302473000922576896e-01,7.181396196956020272e-01,1.381325606713569923e-02,6.343607900493070106e-02,-2.128956177507810785e-02,1.260310411453247070e+00
-1.079986017025278550e-02,-6.777344596336840610e-01,7.703236897824056184e-01,1.029426698421989361e-01,7.189841694391682636e-02,1.456078333682952163e-02,1.274303674697875977e+00
-3.891241166812516028e-02,-5.965631651690557202e-01,5.239373403697462628e-01,-5.614801952358557460e-03,3.721209955824605203e-02,7.478866926227278715e-03,9.726583957672119141e-01
-2.375023714489209181e-02,-6.421734251503570245e-01,6.670638279291107864e-01,4.439270531535981917e-02,4.767222484283941547e-02,-2.384096082366113020e-02,1.140755057334899902e+00
-5.588314874937172494e-02,-3.371333395410878175e-01,6.308341148180153235e-01,2.404543920389926037e-01,8.673381117347800373e-02,-1.077665877307839963e-02,9.696356058120727539e-01
2.970302600144008459e-04,-6.041951594155416938e-01,6.178405654539909087e-01,5.346047838187034142e-03,-7.794645763178234370e-03,-1.180781272183462766e-02,1.058658242225646973e+00
-3.415030807420545676e-03,-6.230640541345163763e-01,6.220140289021628410e-01,1.525591617487010408e-02,-6.924683016115225527e-03,-1.441933523004748814e-02,1.078952670097351074e+00
-3.583789693565828105e-02,-6.087000990790131238e-01,6.021846279053932882e-01,-3.615544777994111024e-03,7.291615937603543839e-03,8.173243323115345418e-04,1.049258589744567871e+00
-4.443834701512675012e-02,-3.854839650662407191e-01,5.713641205455194383e-01,2.099076653141729032e-01,8.078717886926498060e-02,-1.309156619050718395e-01,9.532689452171325684e-01
-2.788743457198929535e-02,-5.958327805301002478e-01,6.069899369047779825e-01,1.164226156874249461e-03,-1.094408054168240392e-02,-1.829640210611965107e-02,1.042868375778198242e+00
-2.493408920413541993e-02,-6.114512971331736990e-01,5.497289943033701887e-01,8.445225137972632232e-03,2.030158394007491873e-02,-1.132787178454379082e-02,1.006541252136230469e+00
2.953921160079935049e-02,-5.903071945389761765e-01,4.026127764956615174e-01,-1.150436680931649081e-03,6.190915862613283194e-02,5.544900158417875348e-03,8.753491640090942383e-01
-4.789018717184721774e-02,-6.247476118604625706e-01,6.162912148025589953e-01,1.761246493140263599e-03,1.893824719531966849e-02,-7.232651376892847324e-03,1.076234936714172363e+00
-1.577739225416742441e-03,-6.006993810277059254e-01,4.856860607482521575e-01,3.144665617168695103e-03,8.276952581681058102e-03,1.215806847059075144e-02,9.428582787513732910e-01
-1.020202008132472388e-02,-6.180289541822896471e-01,5.171198031734663969e-01,-7.248993884615152414e-03,3.555306258066001646e-02,-2.197298162129001503e-03,9.859039187431335449e-01
-6.582425099072931884e-02,-4.560541985298883771e-01,5.936599575571830378e-01,-5.193225396755487416e-02,3.802229446295825668e-03,5.364035171754150122e-02,9.280707836151123047e-01
-1.950243595315023781e-02,-5.069299114997256606e-01,5.885609837872965988e-01,-4.177345028728461640e-02,3.492467511275158028e-03,1.000054620231155718e-02,9.535644650459289551e-01
-1.035790999787597477e-02,-6.109084652570545559e-01,5.126629541236367160e-01,1.158165591447647171e-02,4.549312859222739741e-04,-2.268283289427101834e-02,9.748122096061706543e-01
-2.258548542182719013e-02,-6.473073380669138732e-01,6.550841709753341124e-01,1.484914633892104041e-01,-2.064852250465535055e-01,-3.485289853567802298e-02,1.212670803070068359e+00
-4.855510920041598844e-02,-6.642588747963539264e-01,8.249398159054988078e-01,1.652586889343067300e-01,-1.517716132875234214e-01,-4.497637709720848573e-03,1.353142499923706055e+00
1.701992876949746936e-02,-5.336819596648062491e-01,3.465653046472910170e-01,-6.573433974542718279e-03,-7.273003050423791638e-02,-1.156994899352900737e-02,7.808675765991210938e-01
4.700582658459315222e-02,-6.043065960973713624e-01,3.547716439535008592e-01,-1.548796302915849722e-02,-4.092339194218858403e-03,-4.064715806196514403e-02,8.515314459800720215e-01
4.877814675508324038e-03,-6.746034530626567882e-01,4.973734736597682504e-01,8.265461703382297187e-02,-8.788509666495945838e-02,-1.259080794119931714e-02,1.040687561035156250e+00
5.427911538796112434e-04,-5.681458137306768519e-01,4.558000085770190779e-01,2.862670153818683283e-02,-6.072114893007208442e-02,-7.639481471630175935e-03,8.962478041648864746e-01
5.039823704312837438e-02,-6.734291783469446013e-01,3.285034024431366384e-01,2.885475945405541892e-02,-1.837726218922812460e-01,-8.904614251613697518e-02,9.644538760185241699e-01
-9.085088378076325299e-03,-5.885317326517439662e-01,4.253550215348069208e-01,2.171277394080826095e-01,-2.095958533427238757e-01,-7.548698038387204046e-02,1.032739520072937012e+00
8.893370024984759148e-02,-9.385422917884513883e-01,3.626657124251476683e-01,5.988265137556852274e-02,-1.870227938848078864e-01,2.555296423467682404e-02,1.236745119094848633e+00
-4.299626213857665746e-02,-5.921373996599968992e-01,5.312677413939185245e-01,-8.653538065689041561e-03,-2.409490555586869115e-02,-1.328052384212741622e-03,9.739911556243896484e-01
3.741258678652388536e-03,-6.057861610179636758e-01,4.762583188381361854e-01,-2.161833391659386677e-02,4.856953340731535312e-02,-1.498230663348470125e-02,9.444366693496704102e-01
-2.390994804436919266e-02,-5.872320614872027500e-01,4.682611116057542322e-01,4.611278764347821052e-03,3.696004109166942803e-02,-3.978221755630876547e-04,9.170482158660888672e-01
1.113040084580925460e-02,-6.135612237745914355e-01,4.374042004895719038e-01,-2.095891561931118377e-02,4.327721840025229583e-02,1.843980109769701586e-02,9.198887348175048828e-01
4.603689569062080489e-02,-5.978871908713674355e-01,3.465727871962442364e-01,-9.041426167554217005e-03,3.455113269606070216e-03,3.287217018813108627e-02,8.378574848175048828e-01
1.329486315041881195e-01,-8.135240032794257559e-01,1.802380062002096328e-01,-1.025845696896243997e-01,1.086782857728073731e-01,1.589584242540104456e-02,1.005269408226013184e+00
1.385705774008948177e-02,-5.927289733921862203e-01,4.203618441695656238e-01,-3.421529849212718351e-03,4.705881331854443184e-02,-2.475395942963628040e-02,8.878569006919860840e-01
-1.207996739812740028e-01,-2.061229077838507839e-01,6.460180935040549244e-01,3.006104892494340999e-02,-2.224136067300431369e-02,-3.339874881881420288e-02,8.174707293510437012e-01
2.115828364562996264e-03,-6.155651582912675668e-01,6.024040905445768868e-01,-2.472626994350772198e-02,6.660420073102944066e-03,8.647109828616748178e-03,1.055866479873657227e+00
-2.242453740840258739e-02,-6.126608936988678922e-01,5.469706588602878394e-01,-1.210485923719763733e-02,1.524017165565505483e-02,2.031726179757176176e-02,1.005506038665771484e+00
-6.341606971000869619e-03,-4.147277185087945295e-01,5.611709515315564945e-01,-9.077393003460471066e-02,4.606642360949016538e-03,-1.407852220837499998e-03,8.633674383163452148e-01
-4.505096880094976164e-02,-5.156743654962855361e-01,5.985361183203247171e-01,-1.358972173410947365e-02,1.150744892416966786e-02,1.587295671840181430e-02,9.696829319000244141e-01
1.955719193716648485e-03,-6.621539374588742977e-01,5.102246599211487377e-01,1.237209336073725151e-02,-5.819463142778705245e-02,5.800499633096685426e-02,1.028415322303771973e+00
-4.319002008171441559e-02,-5.335665278792803834e-01,5.914744589207304726e-01,-1.256361470083962491e-02,1.430443998802390614e-02,-1.190048144252030433e-02,9.777550697326660156e-01
-1.354305601081488841e-02,-5.696540288908329419e-01,6.834693386022557826e-01,-4.454013474165281761e-02,1.054794540716045941e-02,-8.422304220439588707e-03,1.090504407882690430e+00
-3.894322386833870553e-02,-5.523816839451668459e-01,6.237555152533241776e-01,-1.883032899056939768e-02,5.506279279884149919e-03,1.676197191486434451e-02,1.022272586822509766e+00
2.545891395810562230e-02,-6.534978958459366494e-01,4.844205116901855179e-01,-2.974719860889442000e-03,8.389275537906799255e-04,7.941883334527173599e-02,1.001096367835998535e+00
7.175073198089743087e-03,-6.008653988372311128e-01,4.874888324359262226e-01,4.854440761185924852e-03,6.204825792424451675e-02,-8.477137271240293981e-02,9.621039032936096191e-01
-2.791567984859110590e-02,-6.211620224155467440e-01,6.021823910744696917e-01,1.343601665440804496e-03,1.074063023983314567e-02,-3.755422308259835640e-03,1.059793353080749512e+00
-2.472708558221601086e-02,-6.226953386817791758e-01,6.004552242867700063e-01,9.986923430512948622e-04,8.371175161755709318e-03,-5.835662862883160898e-03,1.059515714645385742e+00
5.708694391166016513e-03,-7.301819935354666447e-01,5.265021583252428305e-01,2.581064269303784409e-02,-4.946452707215036326e-02,3.983934188797228632e-02,1.100049257278442383e+00
1.492222379782739416e-01,-9.426078979593902618e-01,2.044581592812861337e-01,-8.510768181903288765e-02,7.758340126198630393e-02,1.813519275648860229e-02,1.138519406318664551e+00
1.564674974825496778e-01,-6.412147922189013194e-01,3.518885145887346022e-02,1.874861948906512629e-02,2.925390880039771026e-03,6.762997171335408120e-02,7.543641924858093262e-01
-2.951218753312024462e-02,-6.124064422576490641e-01,6.118148387620589990e-01,-5.453909482137229287e-03,-4.518077044163586534e-03,-3.405185104044492232e-04,1.060680270195007324e+00
8.705681564547299023e-02,-5.754101074670330274e-01,2.563366402895344009e-01,9.756012221740223292e-04,2.883721604370151348e-02,-4.655401643360608695e-03,7.630353569984436035e-01
-2.578272585736088307e-02,-6.117090017880757458e-01,6.045608582503380068e-01,-5.462981497486138656e-03,1.050274865301338307e-03,3.502247566196317261e-03,1.053616166114807129e+00
1.280228713218217740e-02,-5.996404767704479610e-01,4.365862355997132127e-01,-1.574012344546448991e-02,-1.078654418069017031e-04,-1.242112768423516388e-02,9.030107855796813965e-01
-3.573151751345496341e-04,-5.633632447379919306e-01,6.232547650494789648e-01,-5.115077418746794696e-02,-3.953733400258546866e-03,-5.663132673875468856e-03,1.031967639923095703e+00
5.391688138925432305e-05,-6.544895321115240527e-01,4.101236135478775746e-01,3.247126669011074756e-03,-1.432259260533308709e-01,4.512409760060109853e-02,9.657504558563232422e-01
7.517151833393992399e-04,-7.234819657365937351e-01,5.542788323330934963e-01,-2.202187338969673058e-02,-5.168277282565410247e-02,2.260109621155484763e-02,1.114805102348327637e+00
-8.297293299366924335e-03,-6.500661905406508456e-01,4.531463342939950900e-01,-1.608983933193938454e-01,-1.727573258599544304e-01,9.802180827702680621e-02,1.056864500045776367e+00
2.958950704199229953e-02,-4.879801351190577452e-01,2.541353482299614774e-01,-9.930023212198799132e-02,-1.423361477669141117e-01,2.416731061065449659e-02,7.256926298141479492e-01
6.781159212498130695e-02,-8.061600734582112793e-01,3.169340593778846027e-01,-5.151836026020238657e-02,-1.824531260914380448e-01,-2.723910997927194225e-02,1.074090361595153809e+00
-3.603800952933663287e-02,-6.227056044842075311e-01,5.959090200205628962e-01,-1.723106257079115300e-01,-1.763575946896501490e-01,9.000209753057595782e-03,1.138815402984619141e+00
7.765470609332211782e-02,-7.664667799607911558e-01,2.234495522621228747e-01,1.438127758893766595e-01,-2.380646403025871993e-01,1.580210116524563557e-02,1.043880105018615723e+00
7.832130715530524756e-02,-8.173751463717588983e-01,2.457648048440251864e-01,-1.140030566836317399e-01,-1.590121352285651102e-01,2.875627470850019782e-02,1.047670483589172363e+00
-5.054496596035802647e-02,-8.389380613305411627e-01,9.216687831999693659e-01,-7.030204380228995825e-03,-2.130512014056547797e-03,-1.877855420436945824e-02,1.527897119522094727e+00
-2.623647017738940657e-02,-6.161710593780795886e-01,5.260247526254400174e-01,-4.037061377660984551e-02,-9.022982316862625252e-02,3.099591991236688021e-02,1.005489468574523926e+00
-5.848812778116647265e-02,-9.965821044958155239e-01,9.883622411496104654e-01,-2.058243250534997348e-01,1.618825617521679194e-01,-1.626087972958948150e-02,1.778893470764160156e+00
1.063056090506809929e-02,-5.970698994770643475e-01,5.945103139520809821e-01,-4.860279453349827632e-03,1.456370115156992683e-03,-3.482717158845750546e-03,1.032062530517578125e+00
-2.716472886428019859e-02,-7.304317463182199432e-01,7.269274130196281547e-01,1.179376851154903018e-02,4.606602259693833717e-02,-3.376845243796320652e-03,1.265063405036926270e+00
-4.181300593980904340e-02,-6.589160272872567337e-01,7.165963780757190760e-01,-1.648074186725074358e-02,5.190331248513507106e-02,-9.892313120099315710e-03,1.197166681289672852e+00
-2.552230137384752309e-02,-6.691468283385373361e-01,6.243720159502629263e-01,-1.334689473560120125e-02,4.853551990251948195e-02,1.009254774491395506e-03,1.123613595962524414e+00
-3.894755129061574367e-02,-6.474096318835428354e-01,6.362345654533774209e-01,2.362996704282102709e-03,5.829149322861926913e-02,-1.868198515610048043e-04,1.116749882698059082e+00
1.808217007567450296e-02,-6.151585731684124925e-01,5.435488028588928433e-01,6.953490493651737214e-02,2.341411099570051002e-01,-1.408228490051622039e-01,1.117282748222351074e+00
-5.224352879862007720e-03,-5.732402082630921880e-01,6.419783392928724020e-01,6.978404942076739392e-02,1.990751097190934793e-01,-7.865743992383303351e-02,1.123030662536621094e+00
-8.203842706509384408e-02,-2.532339559935670170e-01,5.533627237169531643e-01,1.328800602802038822e-01,4.047134555640541365e-02,-1.340179272213052886e-01,8.084478378295898438e-01
-6.309515677506763454e-02,-5.177425425119508429e-01,6.370901704210188976e-01,4.797462823053506853e-02,6.943923265872726028e-03,-5.920283754773356805e-02,1.016299843788146973e+00
-8.160928770286010603e-02,-3.621979431262715154e-01,7.238060309935462344e-01,-2.071661088395745226e-02,1.034301024494978793e-01,-3.893652406832434631e-02,9.956622123718261719e-01
6.950166855625825035e-02,-6.036283641129697175e-01,2.882116407578355077e-01,-1.056271227091578301e-02,3.425996974354204860e-02,1.372570263980309180e-02,8.078238964080810547e-01
-2.326170084801513355e-02,-6.331289846598792126e-01,6.014608149117685043e-01,-1.576258954549223117e-04,1.929127882990467301e-03,-6.936691178419869845e-04,1.069217801094055176e+00
-2.179683914582023277e-02,-6.322201031042573582e-01,6.054289407696037406e-01,-3.716284046713260033e-04,4.810729698974117109e-04,3.143558157935019519e-03,1.071882724761962891e+00
-1.323258953441323535e-02,-6.228388400427569138e-01,6.007331563573071742e-01,-5.098613208345477476e-04,5.658787821217185592e-03,-8.676447650086302173e-04,1.059693455696105957e+00
-5.085780061774015925e-02,-6.047444945852860076e-01,5.528030524586395877e-01,3.636956314166265268e-03,-6.293950831788469244e-03,5.693906433202026648e-03,1.002902030944824219e+00
-1.851433840411568707e-02,-5.989462833679476406e-01,5.980757770798376116e-01,-8.076395586090200779e-03,7.322034928298231521e-03,8.161167260195414464e-04,1.036982059478759766e+00
-4.550662357842645556e-02,-6.198378447589273366e-01,5.784673995287096249e-01,6.978226326916445871e-03,-1.032624667035521651e-02,4.189186471721197819e-03,1.038309335708618164e+00
-2.257819170207224502e-02,-6.239359516621215684e-01,6.031396247703656455e-01,2.585975833190603222e-03,4.807278457383498162e-03,-3.846374041537967028e-04,1.062790632247924805e+00
-2.427852791930112247e-02,-6.356978255535097322e-01,6.008957835686336013e-01,3.729153103405717824e-03,3.520415793602685566e-03,3.989499087749324275e-04,1.070980668067932129e+00
-3.700660357390598426e-02,-5.842384364360976301e-01,6.184819377952339714e-01,6.757631879672302069e-03,-1.657683743807671084e-02,-8.578956775091663156e-03,1.043558478355407715e+00
2.329764966154841688e-03,-6.228865066859574640e-01,5.310166512653330395e-01,9.594903048891147146e-02,1.079617594813738618e-01,-1.115047848718155182e-01,1.049206733703613281e+00
-1.893473144804311975e-02,-6.018418887412809726e-01,4.724535281098989348e-01,3.081298443075889890e-03,6.181750518747817363e-02,-2.444739779668748947e-02,9.385960698127746582e-01
-5.518158668856379401e-02,-5.966083872566032564e-01,5.728780962969695079e-01,-3.085021439270651394e-04,5.175208841161945371e-03,-7.434588199328419009e-04,1.013771414756774902e+00
-3.795604172307386059e-02,-6.066551782200132470e-01,5.492145708941269522e-01,1.181595709031070529e-03,2.514935992231648321e-02,-2.565448562189864661e-03,1.002014398574829102e+00
-4.124764193435996595e-02,-6.225870250782125082e-01,5.946758812384685955e-01,2.690148137732279419e-03,4.710926782167141474e-02,4.368196148798179045e-03,1.057723164558410645e+00
-5.406093050838882419e-03,-5.971888365225945794e-01,6.906603367483079570e-01,1.038174800113986357e-01,-1.244884716146202504e-02,-6.625423419726295116e-02,1.136927127838134766e+00
7.809306901396484424e-02,-1.044424144605618165e+00,5.278717268913761806e-01,-6.239141533055003047e-02,2.209585792447153474e-01,-2.807746141808584867e-02,1.458677887916564941e+00
1.016370533695140910e-01,-6.277141023323260516e-01,1.569940721283861751e-01,-2.269511252275806940e-02,9.360936052440390828e-03,2.693982418189047948e-02,7.611685395240783691e-01
1.688090977342144861e-01,-1.015384502424928836e+00,2.500352460877601213e-01,7.190178439253422371e-02,1.574107687289809654e-01,-5.195434797657504794e-03,1.262942910194396973e+00
8.679210332670224404e-03,-6.196158897238394081e-01,5.102189956043792218e-01,1.020584693277870169e-03,1.767735809806448080e-02,3.205766285685583000e-02,9.825658202171325684e-01
-1.660698154012223149e-02,-6.472705463145232985e-01,6.427764477797691667e-01,2.676455929507210937e-02,5.519424439806719894e-03,-3.195587212038706638e-03,1.118321537971496582e+00
-5.443488736882620693e-03,-6.311323839721413309e-01,6.823933247472294683e-01,8.116843000484375015e-02,3.898111667087484494e-02,-1.634398898146846232e-02,1.148957252502441406e+00
1.162392442418067919e-02,-6.113192325436778152e-01,5.941037205957757639e-01,-6.502828876568490964e-03,1.853866500218380410e-03,5.563523836007479295e-03,1.044233083724975586e+00
1.996480684094671231e-03,-7.314857987470947398e-01,7.436484342403210102e-01,5.049158598254627900e-02,-1.265761264267667267e-02,-3.829754963823250868e-02,1.282404541969299316e+00
-1.212962888842919126e-02,-6.402328000831256638e-01,6.328659106733988127e-01,1.674661893812547445e-02,1.475681270257091227e-02,-1.018180509630132189e-03,1.103247165679931641e+00
-4.979279600377520265e-02,-6.151479403088457865e-01,6.029174570916147058e-01,6.804759119336832368e-04,5.945757388144979998e-03,2.269323305524993065e-03,1.055837631225585938e+00
-3.167611571260675607e-02,-6.687611225801060044e-01,6.782876849729825297e-01,3.260572039106076226e-03,2.943613633643649575e-03,1.497423930364622478e-03,1.167175173759460449e+00
-1.185684940414546452e-02,-6.381160246593537977e-01,6.528561577429451424e-01,1.626084950695632150e-02,-5.178299378847361391e-03,-1.319671521969907960e-02,1.118804097175598145e+00
-6.139691038921341049e-03,-6.349887952662879309e-01,6.495852011417398986e-01,6.018127788549019336e-03,-4.030439405220177969e-03,-9.501162790115964471e-03,1.112747311592102051e+00
-1.265387907196654799e-03,-6.223791096774426990e-01,6.124794398265442918e-01,1.463833059047687894e-02,-4.859988705991423290e-03,-1.492213997416551828e-02,1.070070981979370117e+00
-3.865757310362583077e-02,-6.253872261874213745e-01,5.964707821457200243e-01,-6.621414562953012277e-03,5.248629048214946240e-03,1.328470857668832480e-02,1.058787941932678223e+00
-4.305148711375599013e-02,-6.200839438753434907e-01,6.246401656214563003e-01,-7.663913857321187628e-03,8.281118213989017984e-03,8.565038145920859242e-03,1.079194307327270508e+00
-8.175227477795782294e-03,-5.669470885312788422e-01,5.912974169468478980e-01,-7.731096368211462858e-04,-1.238107749263133578e-02,7.564206157701570087e-03,1.003591179847717285e+00
-4.047245256245150802e-02,-4.749202950130702039e-01,5.855910535348649582e-01,-1.932290942412156695e-02,-9.089792798560375128e-03,3.311638781966638051e-02,9.259322285652160645e-01
-7.892177982643612533e-03,-5.614687639588080703e-01,5.902778291872606831e-01,-1.765442205762509861e-02,-1.062770739707014946e-02,2.043046844058654318e-03,9.983354806900024414e-01
-2.531945877908998999e-02,-6.070279844278071435e-01,5.910008109042397262e-01,4.038932164962056779e-04,-1.511978144786601088e-03,-2.835806964441896097e-04,1.037671327590942383e+00
-1.357788608009253412e-02,-5.853949564532510141e-01,5.961194257330610924e-01,-9.115883066988095598e-03,3.581348038279805798e-03,-3.174453513898555478e-03,1.023552060127258301e+00
-1.155402037256865744e-01,-2.886530238462658438e-01,6.352855681076408079e-01,-1.607434452415204508e-03,2.974479458317146052e-02,-3.611746383279262895e-02,8.545527458190917969e-01
-6.677387905706008708e-02,-1.818286213517227856e-01,5.364992966802870633e-01,4.992426353273891892e-02,1.902605385611792072e-02,2.927704067882292566e-02,6.765502691268920898e-01
-4.214772220475343500e-02,-6.226961553626596535e-01,6.275371374011955439e-01,1.023954363834359178e-02,-6.333878314440128700e-03,7.252955564752962443e-03,1.083924174308776855e+00
-2.183399981120074437e-03,-5.914355827453412484e-01,5.952687107221001916e-01,-7.399414293536369681e-03,-4.072296361805238102e-03,9.167202324963775670e-03,1.027951002120971680e+00
1.977095218306290300e-02,-5.788499446135563220e-01,5.854508847950642414e-01,3.736237371135301202e-03,-6.129933635146103850e-03,-2.910256736014985024e-03,1.008537888526916504e+00
1.692594086082016558e-02,-5.342306734043565930e-01,5.900128196581621021e-01,9.714865785783866059e-02,-6.972788046871728450e-03,-2.175682128484151406e-02,9.889096617698669434e-01
-2.969794900025492582e-02,-5.964167703875244975e-01,6.064211367903218353e-01,-3.108307947876868399e-02,2.124354054788081189e-02,1.299287412338287484e-02,1.044546365737915039e+00
1.278448752026323937e-02,-6.232390991782275069e-01,4.739062252444673495e-01,4.121963504326425429e-03,1.660164263201343096e-02,-2.117685573940309221e-02,9.553359150886535645e-01
-9.370478530471623019e-03,-5.748907814988863940e-01,5.977622360471722684e-01,2.020527164132004689e-03,-1.100140588845565856e-02,1.220234607478133714e-03,1.015947341918945312e+00
6.501291832981435752e-03,-5.559672678032193671e-01,5.867338193616304931e-01,1.167376831888175016e-03,-1.730952383858862589e-02,-5.763157452792345807e-03,9.901544451713562012e-01
-2.411381979486459243e-02,-6.138692862045332932e-01,6.055586161113377663e-01,-4.754649701524477946e-03,-1.039250324680975925e-03,3.930904299031646489e-03,1.056299686431884766e+00
-1.462933217463561857e-02,-6.113421692366560745e-01,6.157934365276129807e-01,-3.422982026840764940e-04,-4.252623236465610627e-03,-3.189616626279917402e-03,1.062904357910156250e+00
-1.759964574555107283e-02,-5.693072447540953318e-01,5.560907392557585815e-01,1.409588588951130907e-02,1.500739611325351171e-02,-5.528873376799050415e-03,9.753844141960144043e-01
6.609367409664834714e-02,-7.275031380651846291e-01,3.853709931374121878e-01,1.036739801760978297e-01,2.508000932198674593e-01,-7.766656220011329548e-02,1.106415152549743652e+00
-1.257650139493669550e-01,-4.360342345939796638e-02,6.156228198537730956e-01,-6.511391718513005744e-02,2.882298872372336847e-03,-6.116072955219659796e-02,7.207351326942443848e-01
-9.174537111282882185e-02,-3.767194819293797625e-01,5.809454771242884563e-01,1.981719296130467645e-03,1.273405298938609480e-02,-8.233201372861466416e-02,8.638614416122436523e-01
-1.026364571151627825e-01,-2.420889679668599137e-01,5.549113887306036386e-01,-3.502461078818279450e-02,4.820367703015758336e-03,-2.116752675116572238e-02,7.406800389289855957e-01
-8.411694445062384284e-02,-3.096757958566674351e-01,5.551900394715224563e-01,-1.048221193280596394e-03,3.384078201893759956e-03,7.982916483011920014e-03,7.771874666213989258e-01
-1.043535114038710576e-01,-1.394950741859739829e-01,5.426592343564244914e-01,-2.699729198375726974e-02,4.420909311053976623e-03,1.230582620655561860e-04,6.669653058052062988e-01
-2.644671456827092648e-02,-6.107938886743372597e-01,5.927730154087033076e-01,7.951915294271070774e-04,-2.453028383560220045e-04,4.549496548314925677e-03,1.042496085166931152e+00
-2.969801239501189058e-02,-6.107761905751653009e-01,5.935058120187093333e-01,-7.768004608396314459e-04,6.934866411111003997e-04,4.516162783765248663e-03,1.043182373046875000e+00
-3.226063520626008818e-02,-5.994824910707401422e-01,5.970750754763461954e-01,-2.105596299916683879e-03,2.811799451812323474e-03,-4.347615248814632079e-03,1.036759734153747559e+00
-5.212744170425522711e-03,-6.038971422274396206e-01,5.978812856899250461e-01,-7.666113787286138416e-04,6.272366827275093620e-03,7.346970586275135620e-03,1.040908336639404297e+00
-3.018099646803687822e-02,-5.821655880047023057e-01,5.637444734857153250e-01,-3.131793831175398030e-02,1.423389319621435299e-02,1.725465229657275126e-02,9.948444962501525879e-01
-1.737239240203339655e-02,-5.983630326707269909e-01,5.508874376928171168e-01,-1.621442951754272985e-02,2.442216421207681065e-02,-8.262814194480962854e-03,9.966974854469299316e-01
7.651817014824105478e-03,-6.187979491017899791e-01,5.008660404304489111e-01,4.207157439740815373e-03,-2.287546688645265055e-03,3.146087725190385015e-02,9.735048413276672363e-01
-1.593957415495803748e-02,-6.394906717379343908e-01,5.995490993684684522e-01,6.647333714457965073e-03,8.656645325911659777e-03,1.944945209772015520e-03,1.073219299316406250e+00
-1.576763974863255868e-02,-6.129196526423044133e-01,5.355859850481697881e-01,-1.686630041128573884e-02,-1.184693642913687466e-03,1.230228149623856411e-02,9.955576062202453613e-01
-2.026157856881666275e-02,-6.000352253294906069e-01,5.593979871587559938e-01,-1.655321916477295926e-03,-1.123483178755949920e-02,-2.088231897865187175e-02,1.004942297935485840e+00
-1.518202188606962259e-02,-6.288862592793049711e-01,5.689550104069085457e-01,4.494639283926564477e-03,2.834495566612835887e-03,-4.536265153200393606e-03,1.037536859512329102e+00
-1.652011956547347338e-02,-6.039633746809589532e-01,6.053637494190172719e-01,5.820394858865880761e-03,-5.030154618702057691e-03,1.440026186966827070e-03,1.047537326812744141e+00
-3.086240358818698529e-02,-6.139531608136358232e-01,6.080553222916403877e-01,-4.399233338537394955e-03,-1.281414793528875455e-03,4.457054436048301857e-03,1.058716297149658203e+00
-2.903390667447115769e-02,-6.208778705112304452e-01,6.077232806915967567e-01,-8.623816135053740187e-03,1.782225428007808469e-04,5.682008232915176406e-03,1.064387083053588867e+00
-2.191503028357655314e-02,-6.245840557159055839e-01,6.211648644508087624e-01,-2.112832308659341393e-03,-3.076065534169232507e-03,8.998924114682946675e-04,1.079059839248657227e+00
-2.136300294916783360e-02,-6.156951401217491959e-01,6.196302724276756546e-01,-2.833258296723455659e-03,4.159103881391530548e-04,3.154795472474052889e-04,1.070089221000671387e+00
-1.646335596772403181e-02,-6.157870287587416946e-01,6.149699008464168948e-01,-1.584130663055389294e-04,-3.735097738378870789e-03,-5.958225872837890659e-03,1.066057324409484863e+00
-1.996886283547791296e-02,-6.109416632283236614e-01,5.662206931571432955e-01,4.390895683035210550e-03,2.459518562463584770e-03,-8.846036975325150334e-03,1.019607663154602051e+00
-2.841906346611768747e-02,-5.715189676008187725e-01,5.926562289326517963e-01,-3.904858205274659450e-04,-1.081773424306342428e-02,7.931809202168108378e-03,1.009226560592651367e+00
-2.508808801003796496e-02,-6.183623148333161623e-01,6.020755556412288323e-01,1.315569553312501551e-04,-3.364884084450889268e-03,-3.819742962232018776e-04,1.057082295417785645e+00
-2.781771840683232300e-02,-6.095980730919207113e-01,6.008842756417516195e-01,2.198423987258510696e-04,-8.868659376404273509e-04,-2.074357560534236845e-03,1.048578262329101562e+00
-2.664745093270703274e-02,-6.139483694569385364e-01,6.014223475316253786e-01,1.872504291432811139e-03,-3.246846316579164640e-03,1.094866065184482327e-04,1.052759289741516113e+00
-2.635267139303565376e-02,-6.131394607443887423e-01,5.953012989745242178e-01,8.322285781283000764e-04,-2.617164001777718980e-03,2.690009855155988273e-03,1.046706795692443848e+00
-2.315018412602199219e-02,-5.972501559025999995e-01,5.995182799891625169e-01,5.974640756681420242e-04,-9.265782866558752023e-03,-7.446144053356770201e-04,1.036841869354248047e+00
-2.864298911165220202e-02,-6.109079216748778407e-01,5.954069126165995041e-01,8.635180988388701075e-04,-1.936718700725992455e-03,2.043602705351801972e-03,1.044920682907104492e+00
-2.971463009695011689e-02,-6.109270491393469227e-01,5.942454636491718567e-01,-7.128849593048577730e-04,-2.923419579753462920e-04,3.738188491402262559e-03,1.043949723243713379e+00
-2.312693128388342706e-02,-6.130253472746548526e-01,6.067746276847962861e-01,3.445568842662904713e-03,-4.151455248665263803e-03,-5.891163346728455451e-03,1.056657671928405762e+00
-6.814231737807885381e-02,-2.801352467662549528e-01,5.841613953625225397e-01,2.720195681140343685e-02,3.083726945081154570e-03,-1.119192129215283438e-01,8.053266406059265137e-01
-4.951969867898588229e-02,-5.033417952338401502e-01,5.852741268571419742e-01,1.989720090507816203e-02,3.743767511674958755e-04,-3.461683244791532305e-02,9.496232271194458008e-01
-1.341966649122678518e-02,-4.392167844265743026e-01,5.883836590278688217e-01,4.712860557036765291e-02,-1.811911947962614386e-02,-4.626597966736041567e-02,9.021010994911193848e-01
-3.661352090456534980e-02,-5.969706231579287037e-01,6.172625056603457949e-01,1.512090990982288856e-03,-9.324908660915584221e-03,-9.421954956079192992e-03,1.052849531173706055e+00
-5.080356411396584615e-02,-3.850624137371640998e-01,5.669307833035633903e-01,7.258608906649999248e-02,-2.022884261840060191e-02,-5.814879615955244330e-02,8.526344895362854004e-01
-2.637557143571260532e-02,-4.911045100949419373e-01,5.861393280270204009e-01,2.911687613912962783e-02,-2.425530436997964945e-02,-1.239278805167187605e-03,9.381438493728637695e-01
-3.064266982230728908e-02,-3.631022565785596568e-01,5.823804394275281515e-01,9.084531569221343528e-02,-1.937545178808219165e-02,-3.892838574721577821e-02,8.488599658012390137e-01
-1.110837847861672334e-01,-1.514148997520662898e-01,6.233779367175054098e-01,1.035830561464523708e-01,2.629512194971586267e-02,1.029366701190730371e-01,7.979553937911987305e-01
1.751190633351486572e-02,-6.023754437618329405e-01,5.981530492461287762e-01,1.476539829226179929e-03,7.859275522033486519e-03,5.742422648499548830e-03,1.040013194084167480e+00
-7.838904124566919984e-02,-6.056503390764622630e-01,5.737545035807839477e-01,-2.312186301084302176e-01,-7.318006844883731543e-02,1.062678273730440978e-02,1.106316685676574707e+00
-4.800662660215658517e-02,-6.075577268088205862e-01,5.727146795951096880e-01,-3.818474050285131614e-03,-5.126323276251334299e-02,1.408592700466818060e-02,1.026762127876281738e+00
-9.065803589416879249e-02,-4.188595409687614346e-01,6.007524740973250177e-01,-1.107436660302301007e-01,2.799074887755360896e-02,1.765786019455106368e-02,9.234527945518493652e-01
-5.243796100473083199e-02,-4.457098756364081815e-01,5.938293285901449226e-01,-6.858674904207499867e-02,1.058521891946406952e-02,-3.649966585615227466e-02,9.191997647285461426e-01
-3.535087185036776131e-02,-5.443821954013833286e-01,6.265358143399895052e-01,-8.070781391246784064e-02,-5.303134783465554298e-04,2.395570337850962475e-02,1.027322530746459961e+00
-2.857529119632239850e-02,-5.446276982677809020e-01,5.844288539167576957e-01,-2.582462953848023782e-02,2.055832358476558999e-02,1.144851613462108224e-02,9.808610081672668457e-01
-5.602617960424723098e-02,-4.338632074675526362e-01,5.703771348450411560e-01,-5.381995774438061431e-02,4.262081694100029218e-03,-4.209007313979679088e-02,8.864983320236206055e-01
-1.034288354650679705e-02,-6.104757360402692790e-01,6.125431622717375513e-01,-5.143247612979488445e-03,1.119041413409960407e-04,-1.267936178804682972e-03,1.059266328811645508e+00
1.617777151655142021e-02,-5.518855426890147964e-01,5.862502222732806079e-01,2.816630206889726012e-02,-7.819287076530279795e-03,-6.282830401793675253e-03,9.870145320892333984e-01
-2.726302924651623910e-02,-6.117683853513828929e-01,6.123498965855399545e-01,-5.617900998383344204e-03,-1.372260377998583318e-03,1.839627160835294664e-04,1.060522913932800293e+00
-1.647218682825553684e-02,-6.112658079738647610e-01,5.986511228969803033e-01,4.688278730923508934e-03,1.229064616035548292e-03,-1.015201094565570603e-02,1.048049211502075195e+00
-2.863497950738031969e-02,-6.118084020309801918e-01,6.032727086294978891e-01,-5.259485275231266105e-03,-2.370790478748006740e-03,3.649094773537256246e-03,1.052639603614807129e+00
-2.758785053829283102e-02,-6.142137747342473197e-01,5.910010347765112249e-01,-6.221620606255850831e-03,8.161321495535061796e-03,7.376407360209399390e-03,1.044098496437072754e+00
-2.300445054331140549e-02,-6.083090905336806520e-01,5.953260656767199732e-01,-3.492694478451830852e-03,-6.055487026074739612e-03,4.981739362172039973e-04,1.042580127716064453e+00
1.661420718659413834e-02,-6.053221218988078522e-01,6.016425398922166101e-01,2.177836369562565280e-02,-9.943855222033970778e-03,-1.280807052160713722e-02,1.046482205390930176e+00
-1.117274773762952714e-02,-5.737273643965705716e-01,6.016150345311352954e-01,1.083207009992611693e-02,-1.606585621575479239e-02,4.165977717275762618e-04,1.018739461898803711e+00
-3.113979532960940017e-02,-5.597091801965238256e-01,6.043255370202775811e-01,-1.143063766353684049e-02,2.007171143751736511e-02,1.401078896013904784e-02,1.010583400726318359e+00
-5.918757927680470821e-02,-2.699585720888397211e-01,5.899207026707473656e-01,1.119300303896893778e-01,-1.130345689585554175e-01,6.219251900009726414e-02,8.307215571403503418e-01
-7.109211082845244556e-02,-1.615507185416902303e-01,3.884262868325377704e-01,7.937483127918620873e-02,-3.716918892161032856e-02,-4.133832142337899584e-02,5.376612544059753418e-01
-4.016482131760094193e-03,-6.150292928896917699e-01,5.954436053065920165e-01,5.277420254425624346e-04,6.579805098638451775e-03,-2.223867050634587700e-03,1.048385620117187500e+00
1.607948145465988576e-02,-6.054959572527118805e-01,4.318832503384015808e-01,1.158049441333633585e-02,3.446320864295154829e-02,-1.324173414135805874e-02,9.067489504814147949e-01
-6.881152076317786914e-02,-1.204516062424526579e-01,6.044781236000396074e-01,8.460164482353690896e-02,-3.010958246852011265e-03,-7.738545618062989129e-02,7.281616926193237305e-01
-5.954222961608980624e-02,-4.153794029245025943e-01,5.783123691260779742e-01,3.014809444153499288e-02,1.816821761452037942e-02,5.763261624193358017e-03,8.742240071296691895e-01
-7.154645435883014160e-02,-2.728276324976745548e-01,5.091712446834162353e-01,7.517345692066403073e-02,2.347666366501164822e-02,-1.070731745999645677e-02,7.166486382484436035e-01
-3.981297334775747709e-02,-4.982333547848936117e-01,5.858140868919587962e-01,5.931114938409565163e-02,-1.296661883183334793e-02,3.418568016260522396e-02,9.502223134040832520e-01
-2.338155235563342191e-02,-6.187316799466253681e-01,5.788128263419635156e-01,2.702977128725081880e-03,-5.382865936633387735e-03,3.110983243137752877e-03,1.037176132202148438e+00
-5.697868509342325638e-02,-4.929836964881173511e-01,6.008106305704919992e-01,-3.565554521270904859e-02,1.818429248276284479e-02,1.537853312688172713e-02,9.566096663475036621e-01
3.847012493588615467e-02,-5.833435340344693687e-01,3.685924168699818426e-01,7.214455043083841008e-03,1.529393987640594998e-04,-4.559999240161688450e-02,8.410123586654663086e-01
8.686270753076701101e-04,-5.966071847130696160e-01,5.349522871895843190e-01,2.457648753924285279e-02,2.022997424954405682e-02,5.047216002013930891e-02,9.859040975570678711e-01
-5.988758882824203600e-02,-4.837764927609284893e-01,5.936865551698512489e-01,4.003627632322616196e-03,2.363980718842102757e-02,-2.834640868027470811e-02,9.423475861549377441e-01
-2.772787067065663955e-02,-5.917734899342639299e-01,6.013513185947109152e-01,-1.151594371184669861e-02,2.270109610734925495e-02,-8.209538094139764292e-03,1.034825325012207031e+00
-1.828012252083336883e-02,-6.183292148133802124e-01,5.731563688124509115e-01,-8.926111311446582527e-03,1.110219258806458692e-02,1.813591868940613375e-02,1.032638669013977051e+00
1.026194002611158923e-02,-5.409258238861583967e-01,3.842307305130439610e-01,3.910495800440368791e-02,1.923447644206152662e-01,6.257972793934619971e-02,8.815403580665588379e-01
-8.965432226813729866e-04,-6.063556587280071186e-01,4.606291762099514742e-01,1.049881444654483451e-02,4.859670392319630737e-03,-1.411325988119442078e-02,9.273730516433715820e-01
-2.432411380020534433e-02,-5.863793030307622445e-01,6.034531011869792572e-01,2.681533242239676502e-03,-9.233671274582178762e-03,-5.616579629746890935e-03,1.031129360198974609e+00
-2.026036123787446769e-02,-6.090740724929329941e-01,6.098189531777971073e-01,5.507189466271198743e-03,-1.476679818971252632e-03,-4.158253375396319708e-03,1.055864691734313965e+00
-3.156858049145713774e-03,-6.106143097118278407e-01,4.753234223344112719e-01,-1.274723708460768698e-02,3.880126274474524073e-02,1.254195133464846776e-02,9.455581903457641602e-01
-2.471115791277899570e-02,-5.968338093597337357e-01,6.164081308389551817e-01,3.921319585156857364e-03,-1.205603568417648423e-02,2.441857507993487521e-03,1.051502346992492676e+00
-3.187547277957025749e-02,-6.134765846794614230e-01,6.225413344145316330e-01,-4.278396440068451580e-03,-4.739241242897146780e-03,1.598047935839093511e-03,1.071102619171142578e+00
-2.760964499082034160e-02,-6.102177103864805385e-01,6.228821095967513877e-01,-4.535967788680261847e-03,-4.941979123774745651e-03,1.320514982687170198e-03,1.068500638008117676e+00
-2.942740851566416280e-02,-6.119268349506327143e-01,6.236100461858653521e-01,-2.801335939578359843e-03,-6.069592135006469068e-03,2.210232346346484387e-03,1.070656895637512207e+00
6.835349446231448606e-03,-5.317153771224369940e-01,5.804174418314703709e-01,3.100087485972021981e-02,-1.345156057904181232e-02,-2.316880866867649172e-02,9.659051299095153809e-01
-3.022773593891795590e-02,-5.633077594744727579e-01,6.169381099241552091e-01,2.559364487937705948e-02,4.077918379284523054e-02,4.393264882998521720e-02,1.029919028282165527e+00
-2.781404344191316241e-02,-6.212131911762054370e-01,5.998470653807138619e-01,-7.545281441518154539e-03,-3.728826504046472284e-03,-8.840712775119925412e-03,1.057819247245788574e+00
3.387581450635637759e-02,-6.517293206102657832e-01,4.079532003445879851e-01,6.451420987411637074e-03,9.146024011125331032e-02,-3.254051785366699617e-02,9.459673166275024414e-01
-8.468430915055762814e-03,-9.154994157380799136e-01,8.157823960247528872e-01,-1.499181524703794566e-01,2.234577413990878059e-01,6.822134592889222970e-02,1.575088739395141602e+00
-4.147388857408053353e-02,-6.530514709796917394e-01,6.436637532873471512e-01,-6.314062685416555604e-03,1.252815270393367695e-04,-9.274762333465266448e-03,1.123758554458618164e+00
-4.135435825357945683e-02,-6.120814659939243230e-01,5.941635209655866667e-01,-5.162472861858527669e-03,3.917406580581904614e-03,-1.290586105594632030e-03,1.045203685760498047e+00
-2.597817702064188911e-02,-6.580824779089481380e-01,6.969184631399885088e-01,6.067142835442511373e-02,-4.646569309090946287e-02,-2.235223439513063168e-02,1.182412981986999512e+00
-1.322824962780036473e-03,-6.196013942602270896e-01,6.123293835919033645e-01,1.459292158885664402e-02,4.562491734697487859e-03,8.846239545339791219e-03,1.067324519157409668e+00
-2.326298242665130606e-02,-6.103354525605404479e-01,5.908230672141550066e-01,7.304259799729409010e-03,-1.883209685862040177e-03,9.672403507848982692e-04,1.040404915809631348e+00
-3.608287098820760208e-02,-6.308035960053929303e-01,6.471136250594387018e-01,8.794900577583104201e-03,-5.252538157958648937e-03,6.636908150614722907e-04,1.107735276222229004e+00
-5.557419806696239223e-02,-6.362921392496940776e-01,6.295686368001511823e-01,-3.916630859314147554e-03,-2.340027057964595356e-02,-2.110531830235110821e-03,1.098285436630249023e+00
-5.824313381358049019e-02,-6.361598975292369618e-01,6.128445963100898064e-01,-4.913602607282801724e-03,-1.130897248361344490e-02,-4.561953518843243102e-04,1.082883238792419434e+00
-1.947371112365081300e-02,-5.866115390540247443e-01,5.602128243900509341e-01,3.424998094938562498e-03,-7.025066103925395149e-03,1.273837128848305349e-02,9.935361146926879883e-01
-4.772200913791059540e-02,-5.272037742819029038e-01,5.770590777445058217e-01,-6.839233488572050990e-03,-6.510076594871865366e-03,7.423581393493311996e-03,9.593008160591125488e-01
-1.107737524490888179e-02,-6.134982139155158443e-01,5.652894922489325458e-01,-5.352706415156889379e-03,4.882394521727276802e-03,1.089395055179506223e-02,1.021194696426391602e+00
-4.549959098947645164e-02,-5.832026117645887631e-01,5.939193349570692781e-01,-1.958619103825289670e-02,7.944419889453151196e-03,2.529970605141152948e-02,1.022281289100646973e+00
-5.780495880684161092e-02,-4.567316422021345801e-01,5.852916735640600887e-01,-5.584595650008153563e-03,-7.298015580694051582e-03,2.527533797978533114e-02,9.118300676345825195e-01
-3.176892979479780527e-02,-5.869167143634764772e-01,6.025848664850433911e-01,2.939280886634127506e-03,4.209400449350259553e-03,2.350677273939952121e-03,1.030945897102355957e+00
-8.215434463996851289e-02,-4.203519191046758419e-01,5.832342139530292124e-01,2.987175515502294180e-04,7.607398620161670739e-03,5.112979262582719592e-02,8.889145255088806152e-01
-1.523741201349394780e-02,-8.579731296377109961e-01,6.381540845446799226e-01,2.054508220591540479e-01,-2.508041739186718244e-01,8.980485717565768466e-02,1.423830509185791016e+00
-6.098030751789471071e-02,-6.812614590020781291e-01,6.387786813547001730e-01,-6.587845585019115775e-03,-8.757271462327251288e-02,-8.942950995763181837e-03,1.154051899909973145e+00
-3.238843546751417335e-02,-7.411379747056495715e-01,6.399261109507542455e-01,2.659332134705482548e-02,-1.009587095167960441e-01,8.021914656504248314e-03,1.209846258163452148e+00
-1.976041291373722975e-02,-6.669517652080017012e-01,6.648753832407333642e-01,4.602902738291926588e-02,-3.305962738836877579e-02,1.985231013859187210e-02,1.158227205276489258e+00
-4.322584545516738874e-02,-6.481731046460348367e-01,6.947990142242758127e-01,4.721636920852809866e-02,-7.625991197913588315e-02,-4.358618707938659298e-02,1.177685022354125977e+00
-3.983873152876574175e-02,-6.442103512330299431e-01,6.502755954265281302e-01,-9.957105767435144028e-04,-1.420023274715064010e-02,-6.093001607328637700e-03,1.122197628021240234e+00
-2.708592838842606085e-02,-8.153859700162868762e-01,7.600414614121892010e-01,4.198907723048419388e-02,-1.793762762400429381e-02,5.740886833104794085e-02,1.370263099670410156e+00
-7.793491818246467417e-02,-7.042426510745981583e-01,9.888859802920381137e-01,5.614236792559599426e-02,-6.266032243284380687e-02,-1.513505898655104487e-01,1.512773036956787109e+00
-5.208669813411752336e-02,-7.441836342574676966e-01,8.098360965448475612e-01,4.212560267949463227e-02,-3.575001926443026334e-02,-2.180715207222754318e-02,1.352415561676025391e+00
6.324454278681090891e-02,-5.961443774617278812e-01,3.182180403527670176e-01,-9.811532746849900479e-04,1.443697780091212322e-02,-3.990390118166934480e-03,8.176844716072082520e-01
-1.573566909842485928e-02,-6.019432822702164287e-01,5.101602689710360572e-01,-1.071289468325468779e-02,1.498864061393622099e-03,3.255760749816050126e-02,9.654124379158020020e-01
-2.862900306043439369e-02,-5.840865516724043083e-01,5.643132242694958167e-01,-1.589212283238617025e-03,1.036719027791021749e-02,8.965691859903995690e-04,9.948870539665222168e-01
