sxx,syy,szz,sxy,sxz,syz,smises
6.368615792408457987e-02,-3.156302793220525094e-02,2.087897146789671199e-01,3.251647362929059940e-03,-4.946254789197829238e-02,1.607042812386104717e-03,2.265558242797851562e-01
8.264410226743984511e-02,7.188566637672477722e-03,2.721940710686139298e-01,2.708671988958798269e-03,-2.531572511805912570e-02,2.160979986924100975e-03,2.405909448862075806e-01
1.297527936098596679e-01,2.695501250975153307e-02,2.639465197307138133e-01,-2.814305048575476884e-04,-2.982261121581799429e-02,2.356060623709708545e-03,2.122621238231658936e-01
8.907318653659442032e-02,-8.873328616877534936e-04,2.682788839028761307e-01,6.946029725783578468e-03,-3.850968046108008830e-02,-1.715792121600683007e-02,2.486079782247543335e-01
1.216249341376325205e-01,-1.308636749591833570e-02,2.110476196455511877e-01,5.453094749924882086e-03,-8.608877672722194119e-02,9.839025793307778350e-03,2.465831637382507324e-01
1.088341042075159221e-01,-2.005696765241567203e-02,2.110447005774128693e-01,-6.135411835614849353e-03,-8.661186233681336666e-02,1.952601767958856566e-02,2.529733479022979736e-01
2.368509200296926021e-01,5.783854876810740064e-03,2.329971252924232239e-01,-1.982532768275996164e-03,-1.180857138415001683e-03,-1.858633027068564130e-03,2.292219251394271851e-01
2.260020768522711387e-01,1.682925375291549619e-03,2.258966286212775454e-01,-2.147032038014510917e-03,2.496834444374908257e-03,-2.224056943955829164e-03,2.243720293045043945e-01
2.302114446241394496e-01,1.034759267721338527e-02,2.367649665979206508e-01,1.633687653543516708e-04,4.185962768257153743e-03,-5.158955662629116081e-04,2.233324646949768066e-01
2.395450509529106209e-01,1.002843786960105898e-02,2.323209873803323833e-01,-2.144577997621239900e-03,3.648976077979611005e-03,-5.926372601562847342e-03,2.263429462909698486e-01
2.306966552135860937e-01,2.857978162936064548e-03,2.258428389060089247e-01,-5.353246834577318584e-03,1.820311797501577384e-03,-8.077379542786453787e-03,2.260968387126922607e-01
2.312009158916313312e-01,2.881046270577725110e-03,2.253887787102145657e-01,-1.855869884391759487e-03,3.015940325534389316e-03,-2.654591415468687647e-03,2.256002575159072876e-01
2.266539844396316949e-01,4.522135643709263020e-03,2.263306865576820426e-01,-1.456417211638176817e-03,7.395372757197116740e-04,-2.019397596604600390e-03,2.220159620046615601e-01
2.209730446325944286e-01,-3.709161562157281544e-03,2.226302739322781055e-01,4.978910746516564297e-03,-2.131570055699668839e-04,-4.860492317106930235e-03,2.258374840021133423e-01
2.116779437563786614e-01,1.967446188798518958e-02,2.019996428476418249e-01,3.289268867352418760e-03,-9.629575201656829717e-03,3.843849769350564903e-03,1.882968693971633911e-01
2.168150143573822075e-01,2.065665598973059902e-03,2.139100288822656792e-01,8.784298707619963772e-03,9.042355633294096168e-03,-1.065782574731304923e-02,2.152194976806640625e-01
2.246283316348139936e-01,6.464046776215454093e-03,2.282398186129682427e-01,7.018241168390907704e-03,2.846970276266828307e-03,-1.242416035505726664e-02,2.214311510324478149e-01
2.080930591422824882e-01,-5.226758192339919784e-03,2.150216642344893181e-01,4.678461606165339355e-03,9.654464170611980894e-03,-7.822450033310808862e-03,2.180830538272857666e-01
2.169367191052429811e-01,-3.327224959442098839e-03,2.220344607074167254e-01,5.198410387112589910e-03,1.903774905404503979e-03,-6.518408517008533916e-03,2.233482748270034790e-01
2.415788782820117442e-01,5.194374138306923072e-03,2.350119428299144442e-01,1.282964708621368854e-02,1.192133699326942443e-02,-1.114147373026922773e-02,2.359258085489273071e-01
2.200202954286449852e-01,-4.506663476267713797e-03,2.202647162896194666e-01,9.290023181445675009e-04,-5.389799895960529206e-05,-1.637020043576615938e-03,2.246729433536529541e-01
2.291124687597450860e-01,1.640987741790811416e-02,2.378751701591308998e-01,7.902487571639667599e-03,6.685173564159334683e-03,-9.306703039935325383e-03,2.185504436492919922e-01
1.700713619483233130e-01,-2.894601351629841335e-02,1.920534936794697778e-01,6.764266084052155542e-03,3.117233020822610806e-02,-1.072960855284065158e-02,2.187778204679489136e-01
2.210137740124767936e-01,-3.872417299065900043e-04,2.242752276744924833e-01,3.770095018121772095e-03,-1.545546700087409558e-03,-3.898220414303332944e-03,2.232633680105209351e-01
2.300449562528094627e-01,6.295767921343370377e-03,2.255816834567618279e-01,6.345387403791667713e-03,2.120644720449080690e-03,-1.024374331916198810e-02,2.225624620914459229e-01
2.198124643505934284e-01,2.123979819784266310e-03,2.251130138899460897e-01,4.803576280523291601e-03,-1.019913218204784758e-04,-2.759854012296949436e-03,2.205954343080520630e-01
2.165347630924041034e-01,-6.735394050011334066e-03,2.144089165036120737e-01,3.685615408969314735e-03,1.762581477575399192e-03,-2.947455793339466903e-03,2.223861068487167358e-01
2.272927057498463355e-01,2.135225790028089099e-03,2.206210946486513169e-01,3.832225477519850786e-03,2.455650653388463320e-03,-4.465565278575308987e-03,2.221715748310089111e-01
2.354016044448417611e-01,1.140676998815479126e-02,2.337764211710806894e-01,3.518679355354993512e-03,4.711921564122028595e-03,-4.987206766098536276e-03,2.235859185457229614e-01
2.034035216033160953e-01,1.579259291408198485e-02,1.887843386431843073e-01,-1.992342417211728951e-03,3.447537627764100249e-02,2.674833352686489547e-03,1.904412955045700073e-01
1.539416673456169837e-01,-2.539906045759231235e-02,1.382039302958475435e-01,-3.131542868370341091e-03,5.406289989675729796e-02,4.979964632253727590e-03,1.961136609315872192e-01
1.734936258584696689e-01,1.134890764121787576e-02,2.062225181677003749e-01,-2.011253133828150557e-03,3.655996495516681405e-02,3.525017950950826845e-03,1.916460543870925903e-01
2.026546386394845189e-01,9.113462255953941327e-03,2.386861566378421506e-01,1.900558460831079134e-03,-6.475367104693121678e-04,3.357129135891794274e-03,2.139531373977661133e-01
1.785353482884997067e-01,2.661694698692820826e-02,2.294006957093342458e-01,1.160830802978136088e-03,1.277126593732071970e-02,2.568320689987789365e-03,1.841385662555694580e-01
1.637327560580928432e-01,5.015623506931007891e-03,2.081164938979137013e-01,-5.029345212014644725e-03,5.132674419769753249e-02,6.714683784687241336e-03,2.057181298732757568e-01
1.925428726554593295e-01,4.206080829818423239e-03,1.623466435925992879e-01,6.172021265035535810e-03,4.855827254505801216e-02,-4.500231090611125744e-03,1.947928518056869507e-01
1.525578492317492540e-01,1.293463784752350854e-02,2.103297017378154554e-01,-2.851360794240430634e-03,3.084718023058044198e-02,-5.252210607849538276e-03,1.840117275714874268e-01
1.898987634996139595e-01,1.058448661400550328e-02,1.844265989027857322e-01,6.391043950589908769e-03,7.053749401173263489e-02,-7.623215497035691277e-03,2.154664844274520874e-01
2.260636387915050394e-01,3.556645421801118978e-04,2.219426417484641201e-01,1.135326454377535467e-03,-6.009453931701565612e-04,1.678845064246343262e-03,2.237059175968170166e-01
2.247659924582113000e-01,-2.049877181687753680e-03,2.259471274307775501e-01,6.741769190532037300e-04,-2.029266076028691699e-04,1.373087861020942961e-03,2.274244427680969238e-01
2.178841284997424244e-01,-1.207718068027563429e-02,2.027479659052101868e-01,2.153595433192450129e-03,6.707073923368180772e-04,5.831215864850794982e-03,2.230422496795654297e-01
1.815335371362426231e-01,6.435934708330814935e-03,2.478294230831014633e-01,-2.584472232555564547e-02,-1.471394538452156994e-02,3.042168228086042391e-04,2.220724970102310181e-01
2.183098735168846616e-01,-5.587541198329340486e-03,1.045489027236592705e-01,-4.293397277834006681e-03,1.698856282633721612e-02,8.615044505211099171e-03,1.968365162611007690e-01
2.333300734900742857e-01,3.228994998157461160e-02,2.910470421992464307e-01,-2.692191463847098953e-02,7.747487702221382555e-04,-6.657499754072966278e-03,2.401269227266311646e-01
2.016497278669619475e-01,-3.950488633378351766e-03,2.033608352197692759e-01,1.491577543202258571e-03,5.742373902760165936e-04,-2.332119192196532246e-03,2.065191566944122314e-01
1.514057430436754337e-01,3.072556370258325287e-02,3.224598596381368920e-01,-3.332564700857097023e-02,-3.524954571745429754e-02,-2.001886106921356781e-03,2.674649059772491455e-01
1.501040638520173831e-01,-1.715736506639742309e-02,2.415137382841893721e-01,-3.581249436294504929e-02,-2.699990014534814700e-02,-1.721758709232203144e-02,2.419614642858505249e-01
2.566869270053102614e-01,3.689993994961496271e-02,2.484125468869446407e-01,-5.859745466475285887e-03,4.303627373265127981e-03,-5.441273013995781907e-03,2.163413465023040771e-01
2.240619300138118608e-01,8.607169016919963278e-03,2.245141590120441344e-01,1.074847820642775391e-03,-3.254265049897727552e-03,4.634308929361804813e-04,2.157643884420394897e-01
2.420642403083416716e-01,1.510834813762682027e-02,2.371669715878283458e-01,-1.167726895814617371e-03,-4.287870087464743288e-04,-6.960851368731642980e-03,2.248810827732086182e-01
2.393540522872819598e-01,1.926375808934377432e-02,2.343233397710020594e-01,8.660236635890815673e-03,4.152372389073538672e-03,-4.341337072288239431e-03,2.183829247951507568e-01
2.476598136502819736e-01,2.611566101879911339e-02,2.441137707686941993e-01,-9.266428628977279171e-05,-1.528645606714751273e-03,-1.378807029416146942e-03,2.198215574026107788e-01
2.445090558810404380e-01,2.342185943140534521e-02,2.409155046439130365e-01,-1.609526727543269566e-03,-5.248243924435369058e-03,-1.529806680426091430e-03,2.195345014333724976e-01
2.368145319374042601e-01,1.267834676255780169e-02,2.298586506062519075e-01,6.799896638015925617e-04,-8.570022829071539125e-04,-5.741977610325207796e-04,2.207508236169815063e-01
2.091012957944218265e-01,-1.370332834647194908e-02,1.866215773617249940e-01,5.658683528964413359e-03,1.131902094231937266e-02,-6.242064802933226277e-03,2.138596922159194946e-01
2.311509051119897407e-01,-3.503280092473776142e-03,2.000228150523046811e-01,4.805283507831572404e-03,1.073918415455986028e-02,-8.781015897517348290e-03,2.222021371126174927e-01
2.456430757432885859e-01,1.790554593780091519e-02,2.246864288025488543e-01,6.019504113055035126e-03,1.059623769316395993e-02,-1.842087707257364718e-02,2.213469594717025757e-01
2.023994462831218977e-01,-4.137520303191510873e-02,1.343719163827633289e-01,7.495988870234878386e-03,1.399789825739764827e-02,-3.248726165327942700e-02,2.267004549503326416e-01
2.336734595090395328e-01,3.229085549710827840e-02,2.390747236775984663e-01,1.231758991761959130e-03,3.072639725467792883e-03,3.550892923616277581e-03,2.043099403381347656e-01
2.259137789979248634e-01,1.238669059722682930e-02,2.129322233551776966e-01,7.541117250703035547e-03,1.075632202224084850e-02,-1.582776823164083746e-02,2.103798538446426392e-01
1.957102887784668566e-01,-2.618341755692379924e-02,1.438101272343758064e-01,1.228201346910775572e-02,2.878561299834744500e-02,-2.298374083813133420e-02,2.119840979576110840e-01
2.150849341964300998e-01,1.984969529346866657e-02,2.258167454311527378e-01,-8.461992419666568635e-03,1.726731331651776280e-02,8.449161320215763799e-03,2.040849328041076660e-01
2.328575770111851462e-01,1.889830167827030727e-02,2.377357603708554201e-01,1.890060731580903164e-04,7.383644851739067268e-04,1.791418117927426855e-03,2.164658606052398682e-01
2.223122203216320869e-01,1.758520937560958952e-02,2.133638913853272145e-01,-9.216971122211150072e-03,1.374129063637869082e-02,7.481870482570311676e-03,2.028558999300003052e-01
1.867899911292045800e-01,-5.050413632736339142e-03,1.772098329689161533e-01,-1.235409912192192081e-02,2.928116308780892574e-02,1.429604381582419946e-02,1.967227011919021606e-01
2.324268393367874830e-01,5.614853701711247647e-03,2.266662646656552593e-01,4.266586104952443601e-03,-6.648354645813900820e-04,2.699547294393331385e-03,2.241608649492263794e-01
2.272461663518638986e-01,1.560636479836435830e-02,2.331748095969970735e-01,-8.826822881622030381e-03,9.272016540577009483e-03,1.212177862062474229e-02,2.168265581130981445e-01
2.111127809891517049e-01,-4.502480463411090428e-03,2.047792296207593399e-01,-1.180148872706276476e-02,1.273492004370446913e-02,1.034497000142017668e-02,2.153830528259277344e-01
1.938592309731906604e-01,-1.652544355758556183e-02,1.907391476950873466e-01,-1.794727077512464977e-02,1.977582019209857267e-02,2.067261476515705465e-02,2.168793678283691406e-01
1.895772476637798409e-01,7.399190383486103917e-03,2.727075324417118085e-01,2.470904418381918849e-02,-8.407679149116061880e-04,3.910768922144897131e-03,2.390054762363433838e-01
2.145195898337719509e-01,5.362436875234355416e-03,2.452683899357976927e-01,2.390006465073286207e-02,-1.525462069427677841e-02,4.776212730741838733e-03,2.315247803926467896e-01
2.244915666398636933e-01,-9.262842336031917867e-04,2.262244029111220023e-01,-8.694167005508619209e-04,-4.941306890396197004e-04,4.879332125506721232e-04,2.262974530458450317e-01
2.431266940573689750e-01,1.795767316694518723e-02,2.439732180857387966e-01,6.429806841081043070e-03,3.981276029033847981e-03,1.118546666364565951e-03,2.259817421436309814e-01
2.288098960735221454e-01,4.874841300945509381e-03,2.294812250387254504e-01,7.885192074044937785e-03,-1.390974218603009726e-03,2.307052101667298252e-03,2.247353941202163696e-01
2.031948022338750937e-01,-1.843191224529333594e-03,2.245671266339306360e-01,7.254823636789190476e-03,-4.564051681007662764e-04,1.416529123004657163e-03,2.168963700532913208e-01
2.097054775195336673e-01,7.773257660342813846e-03,2.363409522728540102e-01,6.369462988910899563e-03,-1.779357653864878548e-03,3.750221678596261411e-03,2.168825268745422363e-01
1.984972367694420869e-01,-5.161666215291904614e-03,2.278625566193435703e-01,1.748968138431355665e-02,-7.829188573459208884e-04,3.157484241321740267e-03,2.219666540622711182e-01
2.096221552273953570e-01,6.947244815331987677e-03,2.447174806450430062e-01,8.450195607092337094e-03,-6.573650590827163995e-04,-3.945088911154131877e-05,2.227942198514938354e-01
2.226572303487139581e-01,-1.140296851897476538e-02,1.814043017669491054e-01,-7.136418208106990249e-03,1.008511529537558897e-02,1.864060071195090817e-02,2.198423147201538086e-01
2.152550926650378949e-01,-1.275010937365561592e-02,2.008851040031063850e-01,-3.710950314880630870e-03,3.327900673056900099e-03,7.398288081764422749e-03,2.217096686363220215e-01
2.238565932871833253e-01,-2.532196708905531946e-03,2.080526658403766826e-01,-5.747678718459319804e-03,2.148709343535789608e-03,8.526297705029916782e-03,2.196699082851409912e-01
2.341488476898381799e-01,2.165080035209404619e-03,2.123639799192406086e-01,-2.183412526424586674e-03,9.333926206852402596e-03,1.812988752053800931e-02,2.247199565172195435e-01
2.315145030486004118e-01,-1.301447738875305404e-03,2.046198039178227512e-01,-8.346028161244144900e-03,6.007068452461436329e-03,9.947047981737913713e-03,2.219890356063842773e-01
2.324861844409031597e-01,5.851968460313106135e-03,2.313452872486280176e-01,-3.048927328657189025e-03,-2.647555270979602693e-03,5.447549374534534777e-03,2.263708114624023438e-01
2.071946574005961439e-01,8.330079417181168733e-03,2.047887010882405434e-01,1.667572166889847189e-03,1.634459587833593866e-03,-2.002184608724696686e-03,1.977443546056747437e-01
2.361288130235210669e-01,1.170633780798327472e-02,2.323633682480011342e-01,-9.259977281885186165e-04,-2.311911606642590156e-03,3.472670283378401224e-03,2.226866930723190308e-01
2.351713123980405107e-01,3.342256279794383889e-02,1.614926591617717733e-01,-3.482750641269476708e-04,-3.095098337206841563e-02,-1.903144812972950900e-04,1.847725361585617065e-01
2.157355395211827676e-01,6.450524675567087529e-04,1.347071800488182924e-01,6.981944415050457889e-03,-2.937381025082358085e-02,2.275587434972024120e-02,1.992216855287551880e-01
2.383070405963063076e-01,1.710813243752865032e-02,1.754244080233515191e-01,1.125080070474233224e-02,-3.192180955501113665e-02,1.515737971676721710e-02,2.076044231653213501e-01
2.225082735856019067e-01,-2.595233624846648990e-03,2.217629656197236954e-01,-6.537739000678570141e-04,-6.763318350133256957e-04,3.307456195942099419e-04,2.247384190559387207e-01
2.012253125073032445e-01,-7.972435131805954978e-03,1.545438074480352530e-01,8.021991700623773425e-03,-3.076796595319643279e-02,1.591940421945349168e-02,1.999263316392898560e-01
2.001922752384853732e-01,-6.096644793579866772e-03,1.548152774727269698e-01,7.856116184228469079e-03,-2.542449918265602890e-02,1.346255137657331909e-02,1.947344690561294556e-01
2.036335545445837059e-01,-1.404149822920852664e-02,1.110294952145686465e-01,3.920949099226743971e-03,-3.220945367709623919e-02,1.529095932428569879e-02,1.991488337516784668e-01
1.798844580354911071e-01,-2.040026946259310137e-02,1.248618144729870955e-01,9.402417619686482403e-03,4.786872984330461239e-02,-1.397174990996183711e-02,1.996155232191085815e-01
1.522757322248209089e-01,-1.985890015443821099e-02,1.439322657113361048e-01,6.820793531400877636e-03,5.384466278267461409e-02,-7.139444521634198508e-03,1.930128782987594604e-01
2.140853606383214813e-01,1.941719645372780301e-02,2.221448344587053647e-01,1.268552624446358731e-02,2.147323847275493108e-02,-1.288080808603813548e-02,2.046787440776824951e-01
2.384649621922201868e-01,3.567293529949258635e-02,2.006891254598436314e-01,9.061822606537459773e-03,2.723133023486169410e-02,-1.200566167168790575e-02,1.944077610969543457e-01
2.213972508902476988e-01,3.974975056591067979e-02,2.189647820807481826e-01,4.366563571100862302e-03,3.059590083177114728e-02,-3.685495794086838389e-03,1.883246004581451416e-01
2.299637182603743168e-01,1.002098975027571059e-02,2.211221190931665082e-01,-8.759053122580134562e-03,-1.305139811448060411e-04,6.774776391593476110e-03,2.165092080831527710e-01
2.155552669138894595e-01,3.737508393818311792e-03,2.221829042452738712e-01,-6.480618421015312512e-03,1.077755820088353248e-03,7.697557577059025401e-03,2.159207612276077271e-01
2.066779103477997537e-01,-6.891104001136072466e-03,2.064898953637273049e-01,-6.435337974244034580e-03,3.597709548866962013e-03,7.160501558511246471e-03,2.142159938812255859e-01
2.053603204178789943e-01,4.373464040199476210e-03,2.061868118860341048e-01,-5.192226731200655886e-03,8.266871993180940556e-03,3.531644226793159355e-03,2.022024542093276978e-01
2.348021364884314566e-01,1.944809762233271067e-02,2.343289504878188212e-01,1.267322935837198296e-03,-6.283454363657839901e-03,5.500104135251259428e-03,2.156147062778472900e-01
2.007629445940057600e-01,7.028572568164026535e-04,1.887150305353776369e-01,-9.249477727742146799e-03,2.352654959530424070e-02,1.245630965903340298e-02,2.003534734249114990e-01
2.291765429411882493e-01,-1.149530571311341287e-03,1.794558415398110063e-01,8.064428526930208022e-03,1.272777404503321746e-02,-1.297169288813530830e-02,2.127349525690078735e-01
2.228514036533184584e-01,-5.134255239501062107e-03,2.011788640751155377e-01,7.507388659634389033e-03,5.366035507810457648e-03,-6.739934982300709032e-03,2.188558429479598999e-01
2.315181060206273622e-01,-4.981414538492684452e-03,2.042232276266001401e-01,4.983763651840404131e-03,7.956432895527911636e-03,-9.353058461812098143e-03,2.252746671438217163e-01
2.361161200081657863e-01,1.211154724155011353e-02,2.138486373377942729e-01,2.652373717528051702e-03,4.076643400251788764e-03,-9.598985193566573343e-03,2.145536243915557861e-01
2.258378125961006955e-01,7.430831887560690463e-03,1.906408366395725973e-01,-1.475582630615011534e-02,-4.292991305950669134e-02,-1.473718883468498088e-02,2.192871719598770142e-01
2.268624967199584785e-01,1.079343985611164181e-02,2.079746407396960706e-01,6.567810709217152335e-03,9.589606025548650520e-03,-7.265740201945645668e-03,2.086268663406372070e-01
2.201035894647633273e-01,3.951050781314191518e-03,1.980594099723755053e-01,4.718934769440724826e-03,9.367112859720794910e-03,-9.942346203908063521e-03,2.075320333242416382e-01
2.299414090930431698e-01,1.052978052363676142e-02,2.106358079139492023e-01,8.291759507316554326e-03,7.766406837176868631e-03,-1.376752979014210336e-02,2.126832008361816406e-01
2.286352419412997772e-01,6.316554998719581260e-04,2.258823144784511960e-01,-2.601063942290088868e-04,-5.302044111706519366e-04,1.188205430289509222e-03,2.266513109207153320e-01
1.916992742941490691e-01,-1.242145856040724472e-02,2.204373003874325609e-01,1.423051656306780453e-02,1.415217891347522348e-03,1.074617381985911151e-03,2.213010787963867188e-01
2.267637381918020112e-01,1.447771510242362725e-02,2.352011546318518720e-01,1.793224588596333512e-03,8.489143882729071906e-04,-2.551287627517152563e-03,2.167003154754638672e-01
2.288683206608040643e-01,3.493432649091243736e-03,2.299653695418337751e-01,3.505231940979319782e-03,2.441787352264965412e-03,-3.698214520347510429e-04,2.260474413633346558e-01
2.331640761664612316e-01,1.525430942763111863e-02,2.364047790851487585e-01,4.663147475146521819e-04,-1.961536443533500561e-03,2.175749223801034821e-03,2.196081727743148804e-01
2.227879038742640039e-01,5.368109759633005185e-03,2.234387085406901730e-01,1.557641989710996117e-03,1.043105943956113045e-03,2.244368458039814088e-04,2.177704870700836182e-01
2.170272643313194139e-01,-3.448340926076681745e-03,2.227905124061413389e-01,4.248618639359814236e-03,-7.872562084941301221e-04,3.061686037430837794e-05,2.235383093357086182e-01
2.384649013850783095e-01,2.260380748086449065e-02,1.895325137021388051e-01,-5.217277882098521162e-03,-8.873860737439735052e-03,-9.203813055377903576e-03,1.974837183952331543e-01
2.274665830265245603e-01,1.772155226543975504e-02,2.267690145732104701e-01,-1.739495780607249820e-03,-3.690490678949412146e-03,1.316668861273737013e-03,2.095287293195724487e-01
2.231340734553275695e-01,-1.982364438924669181e-02,1.698483100533307588e-01,8.013297939113443649e-04,-7.654353603801321466e-03,1.497568344328222174e-02,2.230967134237289429e-01
2.194061126511740456e-01,-6.621784948021985917e-03,2.026707346999187531e-01,4.059157171095799724e-03,-6.068282972124205933e-04,8.520846871770890174e-03,2.187564224004745483e-01
2.416246042011188089e-01,1.394467672671650949e-02,2.344068528063618095e-01,6.744540239355336156e-03,-2.929098778398557079e-04,1.001831690332792221e-02,2.251327037811279297e-01
2.306535387567344442e-01,-1.489528642090204302e-03,2.036431579202751530e-01,-9.485830371281342476e-04,-1.099261006379618490e-04,9.334264076674456817e-03,2.204854041337966919e-01
2.254496568972305659e-01,-6.891440701713241745e-03,2.040154949279973651e-01,6.769079151644629040e-03,-9.573291722110728033e-04,7.963771489385785066e-03,2.231417596340179443e-01
2.175874455157687237e-01,-6.603603201814217671e-03,2.069375964426067305e-01,1.124206711200364216e-03,-7.058605319886648334e-03,4.814873455316697436e-03,2.195683419704437256e-01
1.902745444269074437e-01,-2.185173282687034868e-02,1.094795380460678730e-01,-1.081327577458865083e-02,-6.649028491409789132e-02,-1.740774436400890218e-02,2.211546748876571655e-01
2.244239865058441086e-01,2.262022023573062590e-04,2.105019077604055877e-01,4.047258826912219880e-03,-1.767252096376276723e-03,6.030871644017264145e-03,2.179559469223022461e-01
2.090402103560196345e-01,2.217339606008911224e-02,2.232159344489668129e-01,-6.374220169033602106e-03,-9.435574170059531085e-03,-4.136945357238423250e-03,1.954723894596099854e-01
2.048268925368761373e-01,7.012542792594445018e-03,2.200785863330413927e-01,-6.196561146926882722e-03,-5.669454420573553401e-03,-8.260848991298601687e-03,2.068731039762496948e-01
2.922581896956928382e-01,7.750031464717077601e-02,3.645628388191693436e-01,-3.357036779260286208e-02,5.726997861783023058e-02,1.117799908761132194e-02,2.836762368679046631e-01
2.264780329663446390e-01,4.526639515528452229e-03,2.269922845635013453e-01,2.941224538262294640e-03,-1.956383857359822800e-03,-2.661320254082631242e-03,2.223409712314605713e-01
2.159439102189523729e-01,-5.592748880483638940e-03,2.187305197562252612e-01,8.294709052908685399e-04,-1.239515862234296555e-04,-2.568644839695582733e-03,2.229921519756317139e-01
2.191647706285541897e-01,-2.652399015060286080e-03,2.184108861316552130e-01,4.524125781068365736e-03,-5.534235833743162379e-04,-4.274068541152582605e-03,2.217054963111877441e-01
2.851664945822441344e-01,6.147791766591997886e-03,1.660298620532885960e-01,1.684532718255323316e-02,1.983488848091876158e-02,-4.429447015576409852e-02,2.583044469356536865e-01
2.282202999524536868e-01,6.402307278860763784e-03,2.232431208124956157e-01,4.910102114049738793e-03,-2.036602671489066377e-03,-3.618447801955682747e-03,2.196543067693710327e-01
2.189727546727354979e-01,-5.304369374918627145e-03,2.150396905121957913e-01,3.695369086871503912e-03,4.276357524765463450e-04,-2.684032590332373520e-03,2.224785983562469482e-01
2.060964654516615480e-01,8.693057360053935145e-03,2.077966573469937350e-01,4.765068928333751928e-05,-8.656798474478209597e-04,-2.284157494252567894e-03,1.983041316270828247e-01
2.273431138834093312e-01,5.604918231385758176e-03,2.270779364927370259e-01,5.912883657147647784e-03,-9.660550135565157794e-04,-5.849278543839671503e-03,2.220797687768936157e-01
2.215942213790492166e-01,-3.626953211302713642e-03,2.204331327131947849e-01,4.461029481765662989e-03,-5.199204251568551385e-04,-3.650029403957449035e-03,2.248664200305938721e-01
2.276100731835107860e-01,8.914319589460262261e-03,2.274260771603005549e-01,5.195515622512108210e-03,-3.595901131806290580e-04,-4.645426064153240255e-03,2.189377397298812866e-01
2.146355885958537435e-01,-3.611783945173197008e-03,2.114559062627143216e-01,4.848068353822211629e-03,2.248805689088963396e-03,-4.099143997602157537e-03,2.169888466596603394e-01
2.243574060071488740e-01,6.566419294298353471e-03,2.224641332130465332e-01,3.485754754287040576e-03,-4.579902927039757195e-04,-2.318166444002096784e-03,2.169731855392456055e-01
2.214331956497965770e-01,-4.450344739733880228e-03,2.201839100398869098e-01,1.003890487358069820e-03,-2.551883644114637294e-04,-1.128514203952765216e-03,2.252771258354187012e-01
2.193417243378478210e-01,-2.199102395262275689e-03,2.207441260554778018e-01,1.654809831078794683e-03,-8.650613732246208902e-04,-1.390569017940638478e-03,2.222819328308105469e-01
2.230307121708677565e-01,-6.689348197680133890e-04,2.217752089626412459e-01,2.422205028671424801e-03,-1.839398906170153355e-03,-2.475914939135380639e-03,2.231779396533966064e-01
2.602837074582050048e-01,2.282473199602341740e-02,2.428116258892404900e-01,-3.185733880858372842e-03,2.388968797000965653e-03,-8.537550819992066956e-03,2.298029065132141113e-01
2.300189300079698573e-01,1.316293740833132664e-02,2.364293495961619640e-01,1.338670955243573615e-02,-1.939361763816887380e-02,5.508605727869950695e-03,2.240864485502243042e-01
2.207632173359827532e-01,-2.666299718765974269e-04,2.232751899434527731e-01,7.632592489152207997e-03,-5.766905906948642177e-03,4.071431020827793838e-03,2.230246514081954956e-01
2.243505057116501333e-01,5.306067361672717198e-03,2.260620803759674502e-01,8.832108637737489526e-03,-4.592867025042858889e-03,4.802590414889583437e-03,2.207369506359100342e-01
2.292505839349589791e-01,1.256544612797344529e-02,2.478911419190464316e-01,8.183625060723075800e-03,6.942346622738615458e-05,2.873010475478828679e-03,2.270787209272384644e-01
1.992643520039975302e-01,-6.652816748832807159e-03,2.209832653303283601e-01,1.202149624313894258e-02,-7.780652906344531425e-03,8.219422885724778777e-03,2.194623649120330811e-01
2.342781733187095927e-01,1.592113961117633258e-02,2.348410541268414753e-01,-7.088771105121214472e-03,5.854982766678720404e-03,8.188880457419571782e-03,2.196765542030334473e-01
2.295638258427959988e-01,6.512201027545072574e-03,2.299962598734871799e-01,-1.096255466972373589e-02,2.945843339828436297e-03,7.272984732747640041e-03,2.244859188795089722e-01
2.273291676463224942e-01,4.065781025731907139e-04,2.276766476492612101e-01,-8.986080056222825463e-03,2.278775923285846026e-03,5.348707775957612688e-03,2.278518974781036377e-01
1.563467600049563144e-01,-2.029582783143751845e-02,2.156407325507043726e-01,-2.059923574318552747e-02,1.708641590279625505e-02,5.745518914642470942e-03,2.178074270486831665e-01
2.338953790329429128e-01,9.589012009707575945e-03,2.407051162084291873e-01,-9.855325737318381546e-03,-5.676209621764841205e-04,6.918023445682902617e-03,2.287424653768539429e-01
1.933414639833397619e-01,-1.141432495302419081e-02,2.256980738413541521e-01,-2.436063920118508933e-02,5.451822513669392876e-03,-1.183306971908004533e-04,2.268625497817993164e-01
2.248262293724952732e-01,1.995920273068457762e-02,2.442786936688720045e-01,-1.399679467980308525e-02,1.207310531161762297e-02,4.141051715948081829e-03,2.177395671606063843e-01
2.300661085161407882e-01,1.923477333475484552e-02,2.157826283269324574e-01,2.618224355108472734e-02,3.427442813093605628e-02,-1.783268877696353796e-02,2.194930911064147949e-01
1.903130801904162617e-01,-6.452449642967650334e-03,2.322162530676823711e-01,-1.843725164302965902e-02,8.181957513545194335e-03,3.677059389424599221e-03,2.235594838857650757e-01
2.700000999580399741e-01,2.810857788401335822e-02,2.104716349788219865e-01,-4.505928683214358542e-03,-3.178127689539175533e-03,-1.549649520719862360e-02,2.201530188322067261e-01
2.728460487696598435e-01,1.513170723723328281e-02,2.100776973112948032e-01,-3.921284599849226421e-03,3.173070816598204478e-03,-1.044264523828779094e-02,2.336315959692001343e-01
2.389994681453800895e-01,1.047333911508946391e-02,2.078854873235347622e-01,-2.266482251964205144e-04,5.704712215606554766e-04,-1.173454969648752601e-02,2.156296372413635254e-01
2.274142202069974750e-01,-1.567033346250912285e-03,1.801614508489885746e-01,-1.238454806927147657e-03,1.409704665450981116e-03,-1.481410066822914061e-02,2.109838277101516724e-01
2.507076050401235712e-01,1.094921177039448468e-02,1.898598606675595546e-01,-4.098418463986359256e-03,4.549160821539499633e-03,-1.702269773000950406e-02,2.181274145841598511e-01
2.309920276184170562e-01,-1.179264435072074901e-03,1.911632784794005113e-01,-6.623943053793645511e-04,-2.563226184740799093e-03,-8.673661500975461680e-03,2.156141698360443115e-01
2.527977062012859433e-01,9.686186728466550377e-03,1.899632290693710479e-01,5.747791268229615960e-03,6.398163476780439896e-04,-1.748927026658409628e-02,2.208926379680633545e-01
2.490648465232513931e-01,1.727933919035862242e-03,1.909986833104611870e-01,3.973921195634637880e-03,2.916369954683011717e-03,-1.240550949126654687e-02,2.252108007669448853e-01
2.310334080752496910e-01,5.487362605380852187e-03,2.271842385386096952e-01,-5.063576592113141692e-03,2.030321387969873971e-03,5.922935761087309327e-03,2.240807861089706421e-01
2.293966155124007589e-01,6.054703966193009101e-03,2.317266209536995303e-01,-6.647005732709268359e-03,4.495533893951400226e-03,9.752137995766496301e-03,2.255790680646896362e-01
2.239628372060921135e-01,1.970019081370316671e-03,2.163453795717774075e-01,-6.344739763384610147e-03,1.709681357726224298e-03,5.995181285227991867e-03,2.188268303871154785e-01
2.275197675993294588e-01,2.982178093209136849e-03,2.270732199199393675e-01,2.796149191504225182e-03,2.681094262827476114e-03,3.247360531362482143e-03,2.244854569435119629e-01
2.232971069073256820e-01,-1.164905960896522874e-03,2.189804147096816034e-01,-6.397835674561730412e-03,1.488338729143588463e-03,5.120153488825928204e-03,2.228025645017623901e-01
2.179011136373842084e-01,2.136932934326346567e-03,2.245327082320352774e-01,-1.190206363478412722e-02,4.598223344106947170e-03,1.127525896512443331e-02,2.211307883262634277e-01
2.033146595419364488e-01,7.128738821444019491e-03,2.058718986408485940e-01,1.538133870980211470e-03,3.963786402274520511e-03,-1.756398185707621100e-03,1.976376324892044067e-01
2.087073139539106503e-01,6.628153559024990704e-03,2.095958654093988960e-01,1.190724320175055948e-03,-2.627323886974682055e-04,2.246160883748285139e-03,2.025732696056365967e-01
2.385084032735304560e-01,1.365897191515449971e-02,2.287438152880789943e-01,-1.102453559958374227e-02,8.036952457970080246e-03,7.244867945548441948e-03,2.217496633529663086e-01
2.340423492327174115e-01,2.448469515429949062e-02,2.376004527167980829e-01,1.323469492470441371e-02,-1.399704554347742588e-02,1.448782131573044495e-02,2.154428362846374512e-01
1.920292490208044545e-01,-1.002305683779439183e-02,1.836850172699740769e-01,9.316000962504886185e-03,-2.142614781931275608e-02,1.242853757901584907e-02,2.032481133937835693e-01
2.107915599443990207e-01,-3.440473307833591399e-05,1.940653539536330019e-01,1.336180459894879824e-02,-2.483283579759646559e-02,1.155505436416043481e-02,2.097312957048416138e-01
2.232003891418992692e-01,1.368043397224738555e-02,2.050996115035318978e-01,6.248892788041281350e-03,-1.243185353552912070e-02,9.692448183117907332e-03,2.032151669263839722e-01
2.205060913026874736e-01,4.237970350993991442e-03,2.100712871687253347e-01,8.070323691047567166e-03,-9.284862876380552826e-03,5.980289393048426883e-03,2.125685214996337891e-01
1.897324322069776081e-01,2.555933893034062487e-02,2.242759605724128913e-01,-8.599898508268895639e-03,-3.036316227776543475e-02,-7.195078708502704139e-03,1.922501623630523682e-01
1.847781292731767444e-01,2.477678504463842746e-02,2.283489733055154569e-01,-4.807833765971567495e-03,-2.100564501106922874e-02,-6.986395244811197634e-03,1.897622942924499512e-01
1.871668184666069878e-01,-5.334501432884733441e-03,1.684166778477320658e-01,-1.462066652401991691e-02,-4.080360647925692502e-02,-2.397313540211481672e-02,2.028771191835403442e-01
1.478081725607944819e-01,-7.820294695284113473e-03,1.839985912676794233e-01,-1.025944830980873683e-02,-5.209076054573592851e-02,-1.456645101350431204e-03,1.990595459938049316e-01
1.451423170056048706e-01,-3.755867509035296092e-03,1.976795559436608785e-01,-7.989127400994682285e-03,-3.884676847462675137e-02,-6.177759915069034116e-03,1.938729435205459595e-01
2.338400829996163388e-01,4.967053800179613288e-02,2.238371033213925887e-01,-6.452631744498896899e-03,-2.762220727224263053e-02,-3.495790058019458951e-03,1.860826909542083740e-01
1.875998810570722597e-01,-2.503401981061859072e-03,1.633851491116366794e-01,-9.897027537772532316e-03,-5.680582854964530415e-02,-5.844213189868767422e-03,2.054247707128524780e-01
2.251565342849248808e-01,3.793901247171484192e-02,2.133238530389310050e-01,-4.508365128524282651e-03,-2.564414866218257122e-02,-5.963620970391213770e-03,1.873917430639266968e-01
2.214314548207561850e-01,-1.507075845087788024e-02,1.163588051813109620e-01,5.397844054768096041e-03,1.404911884531091955e-02,-2.415678036921262498e-02,2.110777944326400757e-01
2.325732577883399266e-01,8.387712691337978477e-03,2.295089377714369938e-01,-1.062562648751687669e-02,-1.418607954790428801e-04,-1.148390761027101407e-02,2.243122458457946777e-01
2.268558740195549261e-01,-1.307553598727778654e-03,2.126030600622414446e-01,-6.727855780882866649e-03,-5.998188804845165992e-03,-8.812181346402974541e-03,2.224554121494293213e-01
2.222961241117504816e-01,6.302113051157048895e-03,2.069989754132230408e-01,-7.213910481618044518e-03,-6.591377915461348047e-03,-8.570270285321498691e-03,2.099765092134475708e-01
2.288515731810684128e-01,1.097374101561601756e-02,2.170060754651668700e-01,-1.245825375946376518e-02,-8.930406604592228820e-03,-1.388623883954998549e-02,2.152058482170104980e-01
2.150131515846450680e-01,-6.829890134100208288e-03,1.995624728350761934e-01,-7.492294899651604119e-03,-6.501730477681034320e-03,-7.922674486021713536e-03,2.156593650579452515e-01
2.630415506166897122e-01,3.908049810937205826e-02,2.588267495332688961e-01,6.966076818301071734e-03,5.390293286126638869e-03,-1.856090211367909804e-02,2.247190028429031372e-01
2.450103767215708606e-01,1.775178173285207883e-02,2.349174939600045253e-01,-2.162925052047875996e-03,-6.053835059418389078e-04,-5.586730532711875301e-03,2.226284146308898926e-01
2.381249826574693418e-01,2.290593602781298976e-02,2.323648278733148054e-01,-1.650712290596295000e-03,-3.041036083566189558e-03,-1.135693031630243249e-03,2.124911993741989136e-01
2.368386598521844966e-01,1.107161088057018183e-02,2.365109464775359827e-01,-4.618406938534354105e-04,5.195215690346083890e-04,-2.879362961997374449e-03,2.256616950035095215e-01
2.320990312951435042e-01,2.231025327006855297e-02,2.353769414647134406e-01,-1.561708455655049258e-03,5.409648343614051683e-04,-4.153528584339425886e-03,2.115885019302368164e-01
2.388802251344833982e-01,2.584794573576862375e-02,2.379513265673328104e-01,-4.777033758151141667e-03,1.602878328059074552e-03,-3.490646191842814230e-03,2.128343284130096436e-01
2.159973352804993030e-01,-1.130421376470544526e-02,2.076087287742692244e-01,-3.989630891412175064e-03,1.396102254545018070e-03,-8.666400269969716172e-03,2.238493710756301880e-01
2.314090965197220240e-01,-2.357299308652166525e-03,2.015333400686573628e-01,8.653552299599414407e-04,-2.514416964885198436e-03,-1.812886732520311781e-02,2.226264178752899170e-01
2.445040851478531563e-01,1.062939458521874880e-02,2.311877533211453284e-01,2.805110374754974430e-03,-8.102011818827593729e-04,-5.623347992551299725e-03,2.277735322713851929e-01
2.254289226727564377e-01,1.189001720670324058e-04,2.244783226948915134e-01,-4.065850884344751268e-03,-1.102383292922262149e-03,-8.374558371020737399e-03,2.254217565059661865e-01
2.442242440033700057e-01,2.260026124916852952e-02,2.402914073397176553e-01,-1.830346150820138336e-03,6.159703298071906447e-03,-7.686930023586444017e-04,2.199697643518447876e-01
2.441338959610896975e-01,2.643944635100659024e-02,2.396039459778797343e-01,4.499857002789251804e-03,-4.290919434573440411e-03,-3.202219161277062957e-03,2.158054560422897339e-01
2.449480267162009173e-01,9.051050978344271636e-03,2.312219086339190599e-01,-1.090028431879852674e-03,-1.854577713262515722e-03,-4.720619684463607003e-03,2.295181304216384888e-01
2.451661865806435414e-01,7.742256619674758866e-03,2.343747457746108709e-01,1.185907511053879921e-03,1.039321125495917429e-03,-7.735550079813018932e-03,2.326185852289199829e-01
2.394611201808695689e-01,1.336103523286710781e-02,2.388010349118464548e-01,5.033954385241551539e-03,-1.565581612688883486e-03,-1.320853055303746783e-02,2.271105647087097168e-01
2.197984954648795619e-01,-1.864429007100681934e-02,1.832393177696804709e-01,2.759475582117175158e-03,1.839865471789023637e-03,-1.829232888024374601e-02,2.247467190027236938e-01
2.876517847198550859e-01,5.380100881715732530e-02,2.695679904103379099e-01,4.189213253266723357e-03,-3.869350031075933626e-03,-1.445491213258237422e-02,2.269552797079086304e-01
2.630331594271668183e-01,2.841506645285635235e-02,2.404627633496494443e-01,1.953764368939583506e-03,-1.303086864301208729e-02,-1.927486598726484840e-02,2.278048992156982422e-01
2.142968926413740816e-01,-5.882617482751317795e-03,2.004893353756810326e-01,-1.196187236150914220e-02,1.453583730450699017e-02,1.078939319729344849e-02,2.168914228677749634e-01
2.098537206778628983e-01,7.484486573388404729e-03,2.083373545717257525e-01,-8.878791116580769804e-03,1.983276628981499312e-02,1.397249271273251318e-02,2.065210491418838501e-01
2.193838884964913749e-01,-3.591690769882638357e-03,2.204804295400032699e-01,-2.927210415955480965e-03,1.546793968125397857e-03,-5.611914562255882876e-04,2.236015200614929199e-01
2.359391254865380594e-01,1.215138754027753065e-02,2.334518523665307932e-01,-4.169970553645975693e-03,-2.173675345270261079e-03,2.746148770106957276e-03,2.227543145418167114e-01
2.232450100162610973e-01,3.759352868572540807e-03,2.227431329056420162e-01,-3.465068405710577948e-03,3.694119416555643326e-04,3.435704738215932755e-03,2.193989306688308716e-01
2.209618399017850843e-01,2.202115310139335369e-03,2.194602869020756408e-01,-3.908275190502996307e-03,-1.896930329396261583e-03,3.211346776371369876e-03,2.182135432958602905e-01
2.540323064839291600e-01,3.005040846911261054e-02,2.474992053669655689e-01,-1.114040938507266515e-02,2.116865949809662237e-03,-2.308495828069862064e-03,2.216958105564117432e-01
2.158257949664822983e-01,-2.249170408635176033e-03,2.073376075545678154e-01,-7.980832229085471283e-03,4.453741566119261489e-03,6.091919604023232800e-03,2.148013114929199219e-01
2.074192463731366343e-01,1.351766766517203955e-02,2.050422868824748890e-01,1.312161299216063224e-03,1.347500741028037716e-03,-5.256857807900735657e-04,1.927537769079208374e-01
2.250881074337724996e-01,1.271430966965383935e-02,2.057047713308435000e-01,-6.398412683818838383e-03,3.130585776107112916e-02,1.660982526199281800e-02,2.127262949943542480e-01
2.088635953292052316e-01,-1.999565764179336846e-02,1.906419918003248171e-01,-6.729975230511357417e-03,3.044567846247123351e-03,1.321786106728400564e-02,2.218698412179946899e-01
2.048412472011313379e-01,-1.183127393453858867e-02,1.719740328440517163e-01,-9.889935503229002611e-03,1.745811289331104105e-02,1.773958786394462875e-02,2.075034528970718384e-01
2.343394855781382735e-01,-3.046188537820820885e-03,2.044825019177145542e-01,-3.676404848466375153e-03,6.138563192971926074e-04,9.778698585399701534e-03,2.246871739625930786e-01
2.135396126985225629e-01,-1.243554141703101523e-02,1.613559111394528844e-01,-8.546530552426346086e-03,1.100072693932141292e-02,1.642225397315569269e-02,2.082953155040740967e-01
2.237122904393115397e-01,-5.182399821740873991e-03,1.759523980529404119e-01,-5.833389546044728119e-03,1.419484563779267738e-02,1.358892680892001027e-02,2.121375650167465210e-01
1.655011866192107606e-01,2.977847704923912431e-02,2.510406566473225576e-01,3.426718904358621448e-03,-3.048528889763368541e-02,-1.076426428862524388e-03,2.004346847534179688e-01
1.334022387387263087e-01,2.447035268969263710e-03,2.218671692107193616e-01,-6.557936931693573307e-03,-1.614595915740378237e-02,-1.982268814590112081e-03,1.936056166887283325e-01
1.226965720326922277e-01,5.247712052136560557e-03,2.403541231369893949e-01,3.608163830769408296e-03,-1.992676288813184995e-02,5.263459419581208165e-03,2.068082988262176514e-01
9.956217195007796561e-02,-1.500378608600881625e-02,2.108946510310499289e-01,6.737022969937384378e-03,-5.240662095340940796e-02,-1.071805359694874690e-03,2.159957438707351685e-01
5.834932086724752692e-02,-3.915084713199286359e-02,1.778518163679384811e-01,-9.301565208550828870e-03,-6.400408492569960306e-02,-6.723826827703555456e-03,2.193704545497894287e-01
1.200165356870032812e-01,3.843774941312744220e-03,2.419112252674930352e-01,-6.246847325003459725e-03,-2.008523834694498494e-02,-2.555862997164483688e-03,2.094330042600631714e-01
2.149260306317648528e-01,4.308129722877251933e-04,2.185002622872692646e-01,-5.663529770791009624e-03,3.178226410954593413e-03,6.367428569055311183e-03,2.168773710727691650e-01
2.213033755831853300e-01,2.068338204870262542e-03,2.301430045157719373e-01,-1.271979975476987546e-02,9.424853040714673350e-03,1.393656296533627055e-02,2.267479747533798218e-01
2.167534591147901313e-01,1.720545369470047325e-02,2.308361015868627408e-01,-1.019505853532218058e-02,1.774751782078994033e-02,9.815175287463557066e-03,2.106505334377288818e-01
2.681053733515724735e-01,2.107479101977718927e-02,2.186843225778149491e-01,3.170228529497071384e-03,1.834606037587061325e-02,-1.993850116027574837e-02,2.312802523374557495e-01
2.705165564075211471e-01,2.644941218424867735e-02,2.283690611319393327e-01,1.367845814489511598e-02,1.225849909839399517e-02,-1.841846769962552505e-02,2.304087579250335693e-01
2.601304432773253739e-01,2.199442208953295008e-02,1.920805770583229044e-01,5.076551424505276744e-03,1.719880532552405319e-02,-2.265984203193293495e-02,2.182648479938507080e-01
2.031651580424601033e-01,8.874136623727990614e-03,2.045589754964045603e-01,-1.811545092470327528e-03,1.224348734363381189e-03,7.723851578459861719e-04,1.950330287218093872e-01
2.502604280738175424e-01,-2.490643333725145459e-02,9.838606143569739171e-02,7.847595543228400375e-03,3.487816038242318867e-02,-4.454787099623178787e-02,2.584174573421478271e-01
2.440886079678667442e-01,5.050101500396123044e-02,2.431827947871584850e-01,-6.314039451074144205e-04,2.267893378126575941e-04,7.405755939302509448e-04,1.931440383195877075e-01
1.751073675609138569e-01,-1.919465342778120531e-03,1.897073488287144560e-01,1.264030283887980673e-02,2.516844316647320196e-02,-7.893577732616348375e-03,1.915798932313919067e-01
2.071075248040816219e-01,1.360029017696723352e-02,2.087188622804537763e-01,4.239309392783245298e-03,8.328570104677017472e-03,-3.848615628078795679e-03,1.951048374176025391e-01
1.941442324936894503e-01,4.165631433502708925e-03,2.044835828447032766e-01,1.427514091363012681e-02,1.523956463820299104e-02,-1.001290698232177624e-02,1.994288712739944458e-01
2.048454949722905150e-01,8.502355702632580225e-03,2.182194984264871629e-01,6.656288411841722839e-03,8.819306719286358620e-03,-5.296137665188145258e-03,2.044646441936492920e-01
2.077771728499757109e-01,8.963200423078854229e-04,1.957434520913755027e-01,9.240410314851364715e-03,1.880584510258989650e-02,-1.361996686633604701e-02,2.057391405105590820e-01
2.246659919096221369e-01,-1.017553201983489863e-03,2.258886693537171253e-01,-2.555783994253076844e-03,2.821858595847448210e-03,-1.778084548403849980e-03,2.264143675565719604e-01
2.087477606662579699e-01,8.090946918517000208e-03,2.143361310717502854e-01,8.829451400953505086e-03,7.755236887031466929e-03,-8.227449717813221583e-03,2.050197869539260864e-01
2.148337464997302215e-01,6.713106199614904401e-03,2.062878268208112043e-01,9.000279734392154646e-03,1.179989517428394266e-02,-6.394247488219751557e-03,2.058932632207870483e-01
2.265112018476297395e-01,3.299004957015322370e-03,2.288646155437718543e-01,-4.005944157482926003e-03,-2.511594201736711343e-03,4.949460921829259771e-03,2.247111350297927856e-01
2.273004119506256693e-01,-1.655135606410174098e-03,2.242570868753086255e-01,3.377341041489101609e-04,-3.986160682354872677e-04,-5.854684102290875830e-04,2.274532169103622437e-01
2.119993086672136151e-01,-9.370360012141920603e-03,1.995372851651320278e-01,-8.423143385230385041e-03,4.400109467198614135e-03,9.148522926528681112e-03,2.166174799203872681e-01
2.218395319139148669e-01,4.185889570267470328e-03,2.205419449461983039e-01,-8.269559280343306840e-03,4.351741504620910278e-03,1.026817409394093633e-02,2.183360755443572998e-01
2.165729967794001176e-01,-4.426481485316269282e-03,2.193246509430566427e-01,-3.076488833971870347e-03,9.351963841288158958e-04,3.543930734156522724e-03,2.225424647331237793e-01
2.288765776244748307e-01,-9.749492877050847106e-04,2.234682762912524323e-01,-2.534846462959415700e-04,-1.016788132024793899e-03,-3.297980404633951831e-04,2.272036224603652954e-01
2.332278380011199026e-01,7.176060754268520636e-03,2.323764196230304335e-01,1.829177867264258645e-03,-2.333545903478206115e-03,-1.232452143104586107e-04,2.256858050823211670e-01
2.351705758428191961e-01,1.186282729574328343e-02,2.311228210532904059e-01,3.967794918798375780e-04,-5.881544534233896756e-04,-1.069608733864853864e-04,2.213151305913925171e-01
2.338884914337149845e-01,1.109913363904063699e-02,2.311187790423619437e-01,-8.861104543403934986e-04,-1.662138775323141046e-03,-1.483894224962572638e-04,2.214416712522506714e-01
2.231319312935375054e-01,3.137019680223424034e-03,2.250447322371084136e-01,8.497850587869339514e-03,-4.935887999562208091e-03,4.507961686866197165e-03,2.217496782541275024e-01
2.274838765379809669e-01,1.893352228512243385e-02,2.482740637026505937e-01,1.936933434080860550e-02,1.119775826229991479e-03,1.190881544220919082e-02,2.231950163841247559e-01
2.155565089623401875e-01,-1.628773687637141698e-03,2.254777044488573690e-01,6.696709776360714773e-03,-2.346990989369581240e-03,5.906747067342971863e-03,2.228863984346389771e-01
2.156163021435765215e-01,1.363221160375016616e-03,2.172661484073142302e-01,7.231654256487245191e-03,-8.466511355879946521e-03,8.875657177021267774e-03,2.164921611547470093e-01
2.111688320816086373e-01,-1.203285735708950477e-02,1.959247286312397751e-01,1.217486298196458587e-02,-1.360347904244077477e-02,1.200664876418802707e-02,2.192742377519607544e-01
2.164530880600478713e-01,-7.243956800985773548e-03,2.148499616032330528e-01,7.428693580633962019e-03,-2.027072959639374464e-03,5.305612755140184239e-03,2.234874814748764038e-01
2.226292303422503782e-01,-2.083420735807611779e-03,2.184644057391971206e-01,5.027259508844359945e-03,-1.981788651582440299e-03,4.815486572746077894e-03,2.230121046304702759e-01
2.199079179589419619e-01,-2.558183375043043828e-03,2.243238294711645264e-01,-3.375356787195393869e-03,1.651495763924467524e-03,-2.895700484405423943e-03,2.248567789793014526e-01
2.229969790775854221e-01,5.836847772603070972e-03,2.222121510036502157e-01,-4.645371054702155701e-03,-8.920455165423629750e-04,-5.787649268219407367e-03,2.171550691127777100e-01
2.226691590318228275e-01,2.159938227341118289e-03,2.127212913274796613e-01,-7.325450987132333183e-03,-1.675599194477338585e-03,-5.627949279515319023e-03,2.163194715976715088e-01
2.233879774798751272e-01,7.045481434288514144e-04,2.280126711191125255e-01,-3.193714095624111335e-03,1.809913456037622449e-04,-6.330153959554344657e-04,2.251022905111312866e-01
2.184840897532944748e-01,-4.686328642739517880e-03,2.208302877689018451e-01,-2.369501946499231841e-03,6.516442377481315631e-04,-2.304522207736993660e-03,2.244285941123962402e-01
2.265654294540571101e-01,-2.574042239264218157e-04,2.253815757722666957e-01,-2.482829537630125948e-03,2.005590995695170214e-03,-2.451779690842819000e-03,2.263406068086624146e-01
2.235543536163505651e-01,6.678431708137616551e-03,2.218963137336425195e-01,-4.226333265786834034e-03,-3.625043890561786960e-04,-3.793930264082898390e-03,2.162764072418212891e-01
2.480228663642511655e-01,3.645975255995118069e-02,2.470545957596565201e-01,3.068284289543310017e-03,2.957994416421480879e-03,-9.204880299519725565e-04,2.112157046794891357e-01
2.486144026431527099e-01,3.732494773835867696e-02,2.506343996109175465e-01,1.461267049078426254e-03,9.506950496880011000e-04,-2.024720313454518670e-03,2.123570889234542847e-01
2.576778514598471181e-01,5.564935606133034063e-02,2.550019380553192327e-01,-2.458662992324599575e-03,2.619670810339739045e-03,2.426681099131252066e-04,2.008008062839508057e-01
2.607370173896706445e-01,5.504292759924395151e-02,2.561823695089671116e-01,2.853475737722846201e-03,2.607087022616466979e-03,-9.639624405001935700e-04,2.035719603300094604e-01
2.431058809838854695e-01,1.490668633614943006e-02,1.446678003057140227e-01,-5.497943661189737437e-03,4.043967347664725182e-02,2.630593605973053934e-03,2.105207443237304688e-01
2.066761610731371879e-01,6.238978375052189884e-03,1.621992845256674531e-01,-4.399249692180795361e-03,4.759482733924830233e-02,6.286340518761455304e-03,2.005264461040496826e-01
2.185279820181219024e-01,1.402001277550700420e-02,1.551318303944793919e-01,-1.679362341858540303e-02,4.768280594024585511e-02,-5.904993646355957346e-03,2.016164660453796387e-01
2.409169390414131473e-01,2.624621708111597729e-02,1.707962850469819660e-01,2.566226786989374720e-03,2.229020176114260288e-02,-4.384365636820360536e-04,1.935418993234634399e-01
2.136516257577019962e-01,7.858622164916326258e-03,1.635936377778045014e-01,-1.990951834989844547e-03,3.350197412626005483e-02,-1.532972685412214682e-03,1.947846710681915283e-01
1.715249290409483485e-01,-4.621800524426369905e-02,8.320183480654017028e-02,-8.099089253864141802e-03,4.002279295232265971e-02,1.932542370078570854e-02,2.051923424005508423e-01
2.174838160866913173e-01,1.979865579491832395e-02,2.288270987177914995e-01,1.425027053499291346e-02,-3.269790256270906775e-02,1.810444753876149643e-02,2.150592356920242310e-01
2.031294166507652266e-01,1.150318062386536389e-02,1.943391674884964726e-01,6.212710823357754999e-03,-1.523911184569153900e-02,4.375136849600700512e-03,1.896927803754806519e-01
1.970266752065318872e-01,2.870996819121687804e-03,1.834243651930766994e-01,8.621165041302752963e-03,-1.680460342757595857e-02,7.804476832978058352e-03,1.910323798656463623e-01
1.895289809359760325e-01,-8.833472726885616133e-03,1.774132514301303420e-01,1.055919291375860547e-02,-1.724451875468640746e-02,9.340594103599436995e-03,1.964166462421417236e-01
1.952953332375360063e-01,-1.804484550902971107e-02,1.621932479932910454e-01,1.395924013007218689e-02,-2.727198430164710918e-02,1.520136776164183502e-02,2.075015306472778320e-01
2.159172658684292978e-01,1.752591457547908460e-02,2.140597836655193098e-01,2.239542448311929428e-03,8.866407883211214428e-04,-1.554217340787424203e-03,1.975315660238265991e-01
2.005655631455894872e-01,-1.479978590104734371e-02,1.410865412961096466e-01,1.483778871882546202e-02,-3.925315748173584945e-02,1.869830125204945820e-02,2.084275782108306885e-01
1.941385071773654714e-01,1.373651880313246643e-02,1.923961180935525039e-01,-1.611766949141128259e-03,-1.175741687429531987e-02,-6.364088224000160167e-04,1.807133108377456665e-01
2.095170054482395905e-01,3.110700463405020877e-02,2.182417115624201154e-01,-1.367098267605261052e-03,-1.487105350273175072e-02,-1.356723995950633163e-03,1.847630888223648071e-01
1.912917532199125414e-01,-2.703884987700383435e-03,1.669947521642491384e-01,-2.253954419481196160e-03,-2.107854480978005665e-02,-2.262148567418693912e-03,1.867475509643554688e-01
4.411100332069468610e-01,1.570886232743432254e-01,3.593351398255816842e-01,-1.525132570686180133e-02,1.440976963921516800e-02,5.534243012284947166e-02,2.732006013393402100e-01
1.855432102233230407e-01,-1.714583391703208837e-02,1.562152940672287826e-01,-6.983611430893078842e-03,-2.067979670419593102e-02,-6.684232078940731576e-03,1.938087642192840576e-01
2.017977053839481449e-01,9.367573450882044073e-03,2.062435874869055497e-01,-7.373985301549423020e-03,-1.048554127559539126e-02,-7.728051958505571459e-03,1.964097172021865845e-01
1.932650742042631153e-01,8.696460859629079332e-03,2.063801316345439396e-01,-3.657700696293073386e-03,-8.189933996431851895e-03,-2.959481009452747096e-03,1.921609789133071899e-01
2.379213118193458931e-01,1.118995285764204373e-02,1.968102321990062298e-01,1.159539177169401601e-02,4.894147686764767184e-03,-1.447042502893956112e-02,2.118477225303649902e-01
2.368476894164694424e-01,5.178155226613939677e-03,1.722388083525809022e-01,5.734867098488838008e-03,7.926488211753986504e-03,-1.055711829418302418e-02,2.085633724927902222e-01
2.377705919963908066e-01,1.249219930890055341e-02,2.327337353049674373e-01,8.846879695200404389e-03,7.642746617257252864e-03,-9.779153020484879916e-03,2.243612259626388550e-01
2.293237902459003552e-01,1.667807357427392168e-02,2.150775990006917326e-01,6.680139228273130302e-03,7.424382148799583969e-03,-6.332901697062221467e-03,2.069089561700820923e-01
2.282960433311018444e-01,9.562226617776725668e-03,2.118405644564789192e-01,7.280649221685803543e-03,5.614511216700252341e-03,-8.976856014725257543e-03,2.121585309505462646e-01
2.443045635197501619e-01,2.907314592848991852e-02,2.445017606785070130e-01,-3.339557353675783481e-03,5.311472313044490528e-04,-3.309836289344943866e-03,2.154859900474548340e-01
2.386146087077647415e-01,2.185621536033119372e-02,2.198500998005131768e-01,1.130262202667704774e-02,1.674065038209357828e-02,-1.509692746259176481e-02,2.125480920076370239e-01
2.451227960089956692e-01,3.684273337480420407e-02,2.483600781221766141e-01,8.922021723763787215e-04,2.360191540791173217e-04,6.613603856962775931e-04,2.099266350269317627e-01
2.482612991418761128e-01,4.087710908548075617e-02,2.552428077848913901e-01,-3.750955667423192929e-04,-3.035133045851281958e-05,2.837868962087733275e-04,2.109631896018981934e-01
2.288449274013139023e-01,1.051750922185215598e-02,2.353489044810009312e-01,1.028186580094418625e-03,4.722709425851846039e-04,1.997847241732176021e-03,2.216866612434387207e-01
2.294385892567006313e-01,1.303877928078575610e-02,2.386919097777127075e-01,8.763228991354562319e-03,6.622647881662499037e-04,6.859489010021432008e-05,2.216949015855789185e-01
2.504945165964937992e-01,2.987267946512622840e-02,2.497523851564791841e-01,3.159004539121140070e-03,-2.180385303752072068e-03,2.787482648271986854e-03,2.204049080610275269e-01
2.263016626191203806e-01,-1.314986440054732864e-03,2.322810585760031188e-01,6.915483533496981014e-03,-6.068340186420525259e-04,4.884299710234923757e-03,2.311325371265411377e-01
2.341073897672142912e-01,1.781614935583059056e-02,2.413084901075481514e-01,6.449574094284889810e-04,-2.105013080965794595e-03,2.578914035322504329e-03,2.200585901737213135e-01
2.638533170034962905e-01,2.557292678333683567e-02,2.419455865229022673e-01,7.859648283903083663e-03,-1.243082095011072965e-03,1.121212068188328151e-02,2.293564975261688232e-01
2.297049951062739570e-01,-1.094229199127844110e-02,1.948767146447841214e-01,6.986787974803352133e-03,-1.363706380185433602e-02,4.997057098775335195e-03,2.269847095012664795e-01
2.050842102415030566e-01,-1.067218128070859806e-02,2.181999321074091502e-01,9.300881275199847711e-03,-1.737174437835992125e-02,9.518248715644866270e-03,2.258080691099166870e-01
2.433382504080044417e-01,8.328166598875558213e-03,2.212180482090230771e-01,6.960927423080159882e-03,-8.770211659891793965e-03,1.131187980706585550e-02,2.264521121978759766e-01
2.322340318731278552e-01,9.934764031679116369e-03,2.292809385959224122e-01,5.744017116633677242e-03,3.425124235598904412e-03,4.508924659935584570e-03,2.212789654731750488e-01
2.350295631039433508e-01,1.117578644518302244e-02,2.353985519769365153e-01,3.663039075871820423e-03,3.675467910945903695e-05,4.670931145904167782e-03,2.242742925882339478e-01
2.371097067213155385e-01,1.412700927440299625e-02,2.367399312235157205e-01,2.783083383926856450e-03,-2.696370860296013697e-03,9.004770229972808640e-03,2.234441190958023071e-01
2.284693492114456825e-01,4.071979610642290082e-03,2.254452526583949901e-01,8.998757846538823005e-04,7.406763222878240405e-04,9.559627514218845467e-04,2.229159921407699585e-01
2.352407541301359539e-01,1.087643234582197360e-02,2.334026735070996450e-01,1.674296197857612486e-03,-1.853236092208108412e-03,-8.568646064013209088e-04,2.234977483749389648e-01
2.274931845078076442e-01,2.842970752382628641e-03,2.301002766719070225e-01,3.249746057274042251e-03,-5.415261418207357839e-04,-9.948889805570799560e-04,2.260436415672302246e-01
2.375551229894749261e-01,2.402375409674914475e-02,2.376115179110396824e-01,1.777904548753727915e-04,-6.453878040550117866e-04,-4.761347006914811580e-03,2.137218862771987915e-01
2.304712371526909942e-01,4.904224166952519948e-03,2.323642149411100921e-01,3.988950339873507597e-03,1.397722235437420975e-03,-3.198088172657468156e-03,2.267053872346878052e-01
2.335274363702675715e-01,1.175556666427762798e-02,2.424869990414916798e-01,1.131780262611001807e-02,-2.100650263282166272e-04,-9.274192691528815877e-04,2.272377759218215942e-01
2.271522108203021806e-01,3.510310491064566607e-02,2.761508986158761614e-01,1.758124825867648025e-02,2.954969980210908273e-02,-7.828868096503686230e-03,2.289642244577407837e-01
1.857104663351073770e-01,1.513320595755843212e-02,2.563340357554311777e-01,1.763762104499867756e-02,1.041744011160992966e-02,-4.301844251123240238e-03,2.178196758031845093e-01
2.139456920227671699e-01,1.289446758078760524e-02,2.444410616643719891e-01,2.759669280419939363e-02,4.202171668517163707e-03,-5.346376034002368535e-03,2.233968526124954224e-01
2.097062790964712153e-01,1.689652306328921771e-02,1.876835524410522538e-01,-7.242696433297535511e-04,1.366345827920595855e-02,1.893186770324470488e-03,1.843550950288772583e-01
2.236462474346306017e-01,1.633245810782510410e-02,2.663009736434496233e-01,3.273605505156839540e-02,1.215129991355290602e-02,-3.228333224177540144e-03,2.394379228353500366e-01
1.953556859730803674e-01,-8.229937555273236782e-03,2.332080530260126072e-01,1.445269532541639326e-02,-4.208927387390376182e-03,-3.721738218271844218e-03,2.265114635229110718e-01
2.301440300984010090e-01,4.249061189562558516e-03,2.256070139128355245e-01,1.829722815732382239e-03,7.932564121490485011e-04,3.838314689794535516e-03,2.237864136695861816e-01
2.166615482058067699e-01,-2.267824753958966322e-02,1.770298425464856829e-01,1.019231409702435649e-02,-8.487330929452013145e-03,1.528233204566063416e-02,2.249381393194198608e-01
2.264467975636124120e-01,-1.403337137565824344e-02,1.604025244830493413e-01,6.019832454136844584e-03,-3.275144950850542719e-02,2.988290649394913928e-02,2.287266254425048828e-01
1.983941726595440658e-01,1.183355880693948148e-02,1.513511617926753816e-01,-4.820808132762616216e-03,4.500910845956437867e-02,1.249666238441375339e-03,1.854545772075653076e-01
2.320965195213355869e-01,-6.736687780140443449e-03,2.007806960110704031e-01,-4.453396694914275519e-03,-6.555938727986379382e-03,2.793559092662617829e-02,2.303743809461593628e-01
2.570422303888287852e-01,1.813839251991219981e-02,2.333274129923884610e-01,2.067500232754343904e-03,-4.888478145865898274e-03,5.598385043763524915e-03,2.283646613359451294e-01
2.253190792208453752e-01,5.043121875323852699e-04,2.270975747264745159e-01,5.335237374736137572e-03,3.678103299613797697e-04,3.101668252606765933e-04,2.258998900651931763e-01
2.313757024158447639e-01,8.635184960696096201e-04,2.264509129879872240e-01,-9.956536373725103912e-05,-9.851536980421827638e-04,4.157548624750093840e-04,2.280972450971603394e-01
2.239857443496034717e-01,9.351661368366154248e-03,2.280965427873080376e-01,4.163816132306740088e-03,-3.104991663070763965e-04,-1.982569203955410284e-03,2.168665528297424316e-01
2.363464711986162092e-01,7.835493314077068838e-03,2.329110793102978638e-01,3.512332780311228780e-03,2.490355756362174801e-03,5.909959395485274956e-04,2.269376665353775024e-01
2.119556611114756239e-01,2.227061024653265164e-02,1.989889800253190622e-01,3.373347109052962471e-03,2.945580362912808038e-03,-2.545661020875284852e-03,1.837622821331024170e-01
2.317475284555978732e-01,1.571976274738839940e-02,2.351719545260931299e-01,2.618042028688473584e-03,2.160357347894943224e-03,8.012131627679979200e-04,2.178439348936080933e-01
2.204091799488574477e-01,7.096395839456065557e-03,2.363884946450706126e-01,6.769896212225811651e-03,4.889417714645584966e-03,-6.348642105063557941e-04,2.222086787223815918e-01
2.232667508385732247e-01,2.713169691013539442e-03,1.945459280153815362e-01,-6.815961507503113907e-03,-1.620068735959556000e-02,-9.243803129343952305e-03,2.105169594287872314e-01
2.106044201195219900e-01,1.530722324497292564e-02,1.830530949506739558e-01,-6.760371555386049912e-04,7.328175130272375493e-03,7.730860034492994170e-04,1.835310459136962891e-01
2.068413988505241607e-01,-6.487080244094695081e-03,1.727629626408503927e-01,-1.255594194811309426e-02,-2.635346944935638980e-02,-1.399195363838416466e-02,2.062626332044601440e-01
2.357110461479550167e-01,7.526372302652739599e-03,2.042849120705766131e-01,-6.923564325282339366e-03,4.435424725519421870e-04,-1.368171747513127236e-02,2.158491462469100952e-01
2.295994161937380262e-01,6.543430734196400977e-03,1.577533165012343641e-01,-5.770114483732685651e-03,-1.938942201735424989e-02,-8.651071979760387165e-03,2.008541375398635864e-01
2.112022909081282263e-01,1.461246745259719981e-02,1.853346413974849560e-01,-1.681682504246133662e-03,8.617345769010752859e-03,5.978728001832793893e-04,1.856440454721450806e-01
2.257697188723118975e-01,1.231180877651907868e-02,2.334277241982335993e-01,-6.757850079623703822e-04,-2.511401095695480097e-03,1.489685614528168077e-03,2.174500823020935059e-01
2.546392538911507186e-01,1.206817816976513136e-03,1.472525562200116545e-01,-8.177750530894641739e-03,-2.436662965352345139e-02,-1.974268508641121786e-02,2.273670434951782227e-01
2.475465685152282158e-01,1.585412780502626351e-02,2.063252516550668769e-01,-3.785954709951835397e-03,7.408711346136353203e-03,-9.151178535510185938e-03,2.151483595371246338e-01
2.035284879086299570e-01,2.160651968797625000e-02,2.004608819165758227e-01,-2.926315765672025861e-03,-3.346973400598991788e-02,-4.535979771219696491e-03,1.897235661745071411e-01
2.157980411761397654e-01,-5.279957247592226288e-03,2.151270242151836765e-01,8.866418863108513956e-04,5.894393313243921628e-04,-6.463350741898104884e-04,2.207537889480590820e-01
1.791165236333964739e-01,1.152503076748598310e-02,2.126174337560134409e-01,1.167772236635363078e-03,-4.469274131149988082e-03,1.679530004380114152e-03,1.868051439523696899e-01
2.206012586786792740e-01,3.878885717724231408e-02,2.176067869679476630e-01,-6.151733663368607816e-03,-2.866489910615348594e-02,-8.640333705010746004e-03,1.879436373710632324e-01
1.366210751173571603e-01,-3.030683858919475115e-02,1.401316783866910221e-01,-3.627899840953084480e-03,-5.403045817198765671e-02,-6.484896380182328737e-03,1.933566331863403320e-01
2.213337481124744432e-01,4.532127029511656691e-02,2.611156570354950524e-01,-1.074331936172669665e-02,-9.401109270541156693e-03,-3.478836283231169328e-03,2.005313187837600708e-01
1.960892076481961788e-01,6.587879168112903416e-03,2.153677578604031861e-01,-1.193465301513426877e-02,-1.036769257492686780e-02,-1.255917052836003772e-02,2.028760761022567749e-01
3.475428414772504526e-01,5.585910709889099768e-02,1.727504048501787015e-01,-1.863711309715471035e-03,2.325402241297460509e-02,2.565792156820831393e-02,2.612572312355041504e-01
2.307515593487313721e-01,3.061090186947859615e-02,2.333118477141053193e-01,-1.142841443405100653e-02,-1.343704719696907357e-02,-1.290167597009732846e-02,2.049587815999984741e-01
1.905144050947243928e-01,4.668726364494113490e-03,2.121876974871592103e-01,-1.224236204245595684e-02,-1.193578559191345832e-02,-1.293560845729889268e-02,2.010354250669479370e-01
1.824947986825196378e-01,2.547235101382371025e-02,2.341819214818531836e-01,-5.346054279624929371e-03,-5.139402235009794123e-02,-8.109993387923930194e-03,2.089276015758514404e-01
1.715902576853238493e-01,-2.872306180061490188e-02,1.586564667943253792e-01,-1.298087369561568179e-02,-3.678478242855988400e-02,-1.592126218965689288e-02,2.074300497770309448e-01
2.237712942188498644e-01,4.110673679470766562e-04,2.277555869857542659e-01,-4.131269783173834725e-03,-4.597180167060558828e-04,3.784214465820672662e-04,2.254947125911712646e-01
2.223262462510376680e-01,-5.196856784606129764e-05,2.273057495465554412e-01,-3.134415629942066597e-03,-8.790112398502024609e-05,-5.672494897934184186e-04,2.249770164489746094e-01
2.226671519890862094e-01,4.658594560802670204e-03,2.298421319182128997e-01,-8.628868385269579735e-03,-9.032510345215707037e-04,-3.198401161638878953e-03,2.222609519958496094e-01
1.601480730327395352e-01,-8.793761431571303633e-03,1.702186248529489743e-01,8.525887684426127974e-03,-4.194132594723207208e-02,1.019222361918842475e-02,1.901342570781707764e-01
2.194958214566583021e-01,5.520801827812588103e-03,1.949118339510748366e-01,1.291295629405051631e-02,-1.739025130437933317e-02,1.552892191272492971e-02,2.079910039901733398e-01
2.116139166158488294e-01,7.464216957810410058e-04,1.914583733801566989e-01,1.385387045594895471e-02,-1.017709031449547628e-02,1.304995054782136926e-02,2.049844115972518921e-01
2.221401982798389962e-01,1.799911503608842001e-02,1.955971980599632842e-01,6.600318936281564415e-03,-2.624854433629348130e-02,1.096096201063823973e-02,1.987905353307723999e-01
1.750249671021537057e-01,-4.197103082743958158e-04,1.947394693505796193e-01,4.598354038558569341e-03,-1.939558845958593014e-02,5.267453960351374011e-03,1.894823014736175537e-01
2.004513603276213141e-01,9.210332213479263674e-03,1.923860272180352993e-01,5.413581553901040261e-03,-1.578844234952766004e-02,3.777597936172836894e-03,1.896689534187316895e-01
1.860272048233778952e-01,-1.438859161368419293e-03,1.819769672490534895e-01,4.179003384291052683e-03,-1.254298388458778384e-02,4.384260156436817560e-03,1.870365887880325317e-01
1.982491672173431474e-01,1.571884844062909625e-02,2.104877195752430374e-01,4.372466618140000323e-03,-1.172502210163696781e-02,3.948103664982906096e-03,1.903090924024581909e-01
2.502966809647926283e-01,1.995633323906095824e-02,2.226550239761445338e-01,2.648876777241478738e-03,-2.684812470012502405e-03,1.424051958259756924e-02,2.193280607461929321e-01
2.282701129817635011e-01,-4.969185516625590493e-03,2.060652045455423353e-01,1.469821034708180185e-03,-5.640779568376773009e-04,5.094594149116103178e-03,2.231588512659072876e-01
2.239284451525998809e-01,-5.910223087567889610e-03,1.822240947174713077e-01,2.736318772084210104e-03,-2.715077765576218074e-03,8.208225052740025438e-03,2.126652151346206665e-01
1.833176522347450266e-01,2.761004244140080610e-03,2.012626024281949089e-01,-1.952097059462714777e-03,6.516456847713590628e-03,4.942980932351846365e-03,1.907221227884292603e-01
2.238597308463699531e-01,-3.726612691435871039e-03,2.260235879893939259e-01,9.444042916766819725e-04,-5.814661617492508129e-04,-5.684048883392215203e-04,2.286861389875411987e-01
2.177584060142146172e-01,-1.267178739596322434e-02,1.756191483306056289e-01,4.555414600905168324e-03,-4.591311047612210879e-03,1.198122076819924456e-02,2.138218432664871216e-01
2.150147566366686913e-01,-1.424200140255768576e-02,1.745114612278027555e-01,4.564827605675913537e-03,-1.612991152102876986e-03,1.165370378071270939e-02,2.130522727966308594e-01
2.282126411042518510e-01,-4.613267369342199942e-03,1.798368626634538336e-01,-6.160022367532566254e-03,-9.085540338499084254e-03,-1.054888804485326799e-02,2.144301831722259521e-01
2.206357099110962672e-01,-8.513376867144206717e-03,1.795164940509172968e-01,-3.325181157237832100e-03,-2.487469958245550148e-03,-9.723134612056847509e-03,2.123982459306716919e-01
2.225553617674164431e-01,7.526498421667887628e-03,2.505149678163134941e-01,-2.343694372388011385e-02,-1.623542519910309637e-02,-2.111931432546759052e-02,2.383442670106887817e-01
2.340295686158238853e-01,-2.403203948506849041e-03,2.121355682861508773e-01,-2.948790106986158826e-03,-6.216001954538617064e-03,-9.637393691438676455e-03,2.272091209888458252e-01
2.223737281831246748e-01,-4.133899472332280833e-03,2.073090198581191701e-01,-3.092585688212454165e-03,2.001711282505340070e-03,-4.866841948557899117e-03,2.196181863546371460e-01
2.281589760795175725e-01,2.101151244032400944e-03,2.167772046411061693e-01,-3.257738203605936838e-03,2.985412628851582899e-04,-4.230839829699951232e-03,2.207816839218139648e-01
2.297959409991967294e-01,2.998459325623314964e-03,2.261872622482989925e-01,-1.949990636159246778e-03,-6.775317837030287848e-04,1.438396928305274436e-03,2.250570356845855713e-01
2.325727900876816412e-01,7.883757908073080189e-03,2.283786163128816993e-01,2.380302059029652199e-03,3.247573331489728588e-03,-1.339359408968691413e-02,2.239356338977813721e-01
2.346008248613818958e-01,7.786886775777351888e-03,2.303952565893503390e-01,-1.314592115177965533e-04,1.475974813058992434e-03,-8.689103111140329683e-03,2.252586483955383301e-01
2.344750437021323741e-01,8.947856173996682205e-03,2.284147561866521625e-01,-1.910767782801376952e-04,-1.299440095416506957e-03,-2.264302161827992568e-03,2.226051092147827148e-01
2.258904880160245154e-01,2.897922881847370125e-04,2.210141185195670654e-01,4.871717507725480817e-03,2.220860045647255355e-03,-5.234147497117271584e-03,2.235789000988006592e-01
2.241611061125035609e-01,2.224291981674203500e-03,2.146161300097755853e-01,3.707827864530285379e-03,3.798632588795567994e-03,-5.888194469281251252e-03,2.177549600601196289e-01
2.245748766279331010e-01,2.845050168070822894e-03,1.964331356896996117e-01,7.797266397648321135e-03,6.491650038723775773e-03,-1.082118168121471227e-02,2.106568813323974609e-01
2.322376522873569327e-01,1.220104238645849937e-02,2.356164385255722360e-01,-9.636935495848387642e-03,-1.688351864494334195e-05,2.907880502053789874e-03,2.224296778440475464e-01
1.691531625055691657e-01,-2.332346356895914630e-03,2.352861649024818869e-01,-1.656397420132103837e-02,-4.445664164619015681e-03,1.968176256723617058e-03,2.145127356052398682e-01
1.737154599264991994e-01,2.090661609291413758e-02,2.738069022909109251e-01,-4.027107104979005259e-02,-9.531559032431826317e-04,-2.035230523001615825e-03,2.313960343599319458e-01
1.981835723336424215e-01,1.147403821802261970e-02,2.056042151048984856e-01,-1.362322338557090578e-03,3.513343999105707390e-03,3.102837477087324724e-03,1.907157599925994873e-01
1.947086652448932753e-01,-9.700603376712746417e-03,2.234034690975078841e-01,-1.070443159969031686e-02,2.154740166317770361e-03,4.022481834810812118e-03,2.210842519998550415e-01
1.725725919133738739e-01,-6.445434208184303015e-03,2.294139177001249807e-01,-2.086582686348320906e-02,4.098598210201438025e-03,2.754009286289069679e-03,2.164100557565689087e-01
1.865327928325591911e-01,9.761641642844820499e-03,2.559773089561394044e-01,-2.083756636290625894e-02,8.283158169933064682e-03,5.398021506785009166e-03,2.234775722026824951e-01
2.268937752032862687e-01,3.195185841704251128e-03,2.304590074125898447e-01,-1.078302021617922679e-03,3.034112114967608617e-03,-2.515743620519116531e-03,2.256133854389190674e-01
3.694949376575212274e-01,1.600604035104889744e-01,4.298072127979363222e-01,-5.434933221778762841e-02,3.884809883769998334e-02,2.579077850721867363e-02,2.748025357723236084e-01
2.254042752294503904e-01,1.795499497383640231e-03,2.275908981791625041e-01,6.082896759024955562e-05,2.504576579864593519e-03,-1.230247447527229589e-04,2.247520685195922852e-01
2.377546199884257860e-01,1.377013148258113273e-02,2.352915473897440601e-01,-2.583301649514544232e-03,1.076839085867094259e-03,-6.740515780340961861e-03,2.231215536594390869e-01
2.211789946508768145e-01,-7.308912229479158640e-03,2.185483922995175576e-01,-2.885465151746834100e-03,9.181988658842790522e-04,-3.644291654401884267e-03,2.273322045803070068e-01
1.906547763569659271e-01,1.525981137897378104e-02,2.053362167368673330e-01,6.793885359107791405e-04,1.094165138522448745e-03,1.348736119480405723e-03,1.832059621810913086e-01
2.385801087991685221e-01,1.606446963344915213e-02,2.330325604370503956e-01,-2.514666584079336582e-03,-2.325521508975349379e-03,-2.551686700379285442e-03,2.199188470840454102e-01
2.273099541628724740e-01,8.003744122278638740e-03,2.239223791804934582e-01,-2.503076600623252868e-03,1.079946323563169344e-03,-2.223869637275254114e-03,2.177174836397171021e-01
2.283592380033580005e-01,8.553655399350212907e-03,2.235879641618328528e-01,-7.323841394420642185e-03,4.018585498227076648e-03,8.526611225392013993e-03,2.184398770332336426e-01
2.051927305458438877e-01,-9.703984891358374831e-03,2.052742124865438722e-01,-6.535150445129999687e-03,9.451897973465062802e-03,8.353547673627290462e-03,2.163413912057876587e-01
2.416439404013184800e-01,1.654882983401659291e-02,2.311520829125408016e-01,1.618814777786056151e-03,2.235677607510713327e-03,4.988361754255364947e-03,2.202583253383636475e-01
2.254723010417295781e-01,1.566456419995421179e-03,2.199315539257171714e-01,-5.182872982627311810e-03,1.531844619172782144e-03,3.779296915115892917e-03,2.214822769165039062e-01
2.342912110481473187e-01,4.594662926180104190e-03,2.266828720322384694e-01,3.891095465307879697e-04,4.163815259621289492e-04,-2.919145957077083110e-04,2.259911745786666870e-01
2.648797636070943096e-01,3.204418940261272164e-02,2.514587232668963335e-01,-3.952383794634601460e-03,9.661718519275356784e-03,1.596072574346827158e-02,2.288203984498977661e-01
2.503525962131947780e-01,1.298121414509692539e-02,2.206588893222495573e-01,-3.173930454953158634e-03,1.320675378438307922e-02,1.664624382603543604e-02,2.270753681659698486e-01
2.205192229078406785e-01,6.315089836893272857e-04,2.168539469847211576e-01,-7.735493358707444360e-03,6.241969307814100587e-03,7.029248150160471824e-03,2.190952301025390625e-01
2.140574384840698008e-01,-1.355326634942016772e-02,1.536125023814741419e-01,1.499876282097639506e-02,2.749062422294697855e-02,-2.262348472620698617e-02,2.148950099945068359e-01
2.355215756161248286e-01,-2.764913270825841707e-03,1.584009054766988278e-01,1.660224385861890084e-02,2.179735395695727926e-02,-2.167632700028396947e-02,2.191189229488372803e-01
2.103423408714285014e-01,-8.141494772009524872e-03,1.254904227604647926e-01,2.555162621936700202e-03,3.982970913772319876e-02,-9.665419521392536531e-03,2.036058157682418823e-01
2.261306297338467886e-01,2.324885026454970305e-02,2.123867533139358332e-01,-7.125992731984891367e-03,7.430622309592153571e-03,5.192713807926402705e-03,1.973838955163955688e-01
2.062381194855599231e-01,-2.330202823765128994e-03,1.597185219624158992e-01,6.382488045295659114e-03,1.244611450154550943e-02,-6.009648876835424827e-03,1.914616823196411133e-01
1.790407442171801644e-01,-2.698847527296210913e-02,1.180962941404876121e-01,9.709199099738835201e-03,4.098620219489697292e-02,-1.247214975268122299e-02,1.984817385673522949e-01
2.099304096683773380e-01,-5.067463260691545957e-03,1.793707225230287139e-01,8.449449345149255899e-03,1.141512380868203204e-02,-1.441514850661644413e-02,2.044900953769683838e-01
2.385566065464000129e-01,2.988927552396851428e-02,1.816792451350101034e-01,3.130490520381078168e-03,1.894158711956359445e-02,-7.901065701924718521e-03,1.902673691511154175e-01
2.456555882030867499e-01,2.447329043291548989e-02,1.764428962229935838e-01,3.298349804897545649e-03,1.101198979515340820e-02,-1.489489894322518042e-02,1.986589729785919189e-01
2.072316144676064897e-01,-1.310030840649206718e-02,1.739733184060005267e-01,8.439653560575154090e-03,1.277952245990669755e-02,-1.253536358779940886e-02,2.085652053356170654e-01
2.227259001502132629e-01,3.264045512892360668e-03,1.945744914118661684e-01,1.010949759227471566e-02,-3.169615303868324879e-02,1.908093731662413584e-02,2.172340601682662964e-01
2.320870367277723390e-01,2.156992341037480831e-02,2.310988900239512311e-01,-1.453805241956195385e-03,-5.044396645794025497e-03,1.086395095775428586e-03,2.102299481630325317e-01
2.320488479246990421e-01,2.347201232773007962e-02,2.322035580745720473e-01,1.265303846102739261e-03,3.930824917015073548e-03,1.233339556634162120e-03,2.087877094745635986e-01
2.185128537324874110e-01,6.348827626914466116e-03,2.102631656637245494e-01,1.330439661267993588e-02,-1.062645793481280243e-02,1.462624155695240943e-02,2.117614448070526123e-01
2.142650239678607349e-01,1.119666162651739016e-02,2.273973563524036567e-01,1.080993755618975087e-02,-1.280393230924833231e-02,1.458763839819824694e-02,2.134402990341186523e-01
2.393669778118840685e-01,1.395547573864472368e-02,2.148913263089936854e-01,1.282269045232790373e-02,-4.376754669331364006e-02,1.909093813028024320e-02,2.307070791721343994e-01
2.330762170930774091e-01,1.271426995623267664e-02,2.338679112863767395e-01,9.417330908643986240e-03,4.263604498904074568e-04,8.976692744673258478e-03,2.219072282314300537e-01
2.073104969382695006e-01,-1.041846635442050806e-02,2.038786374671500701e-01,8.647404146259408259e-03,-8.547015434187326538e-03,8.552389607182186992e-03,2.175623625516891479e-01
2.386457593085475060e-01,1.629223721244021927e-03,2.348116702978366721e-01,1.368465685386936921e-02,-1.714096392475442099e-02,2.439509986547454268e-02,2.418913096189498901e-01
2.260266800685978295e-01,-5.365409328897341457e-03,2.226993740127000965e-01,2.268403345231267965e-02,-1.074441667630912471e-02,2.069848699094049838e-02,2.365560531616210938e-01
2.188612367960462990e-01,-3.940395346159253354e-03,2.198428810424686852e-01,-3.263772526565257397e-03,-5.283372145762832081e-04,2.695594238198492231e-04,2.233679741621017456e-01
2.306218609998024194e-01,1.375850420863808377e-02,2.352997883491302900e-01,-2.383751847634323334e-03,-3.912732079876729075e-04,-8.882129291377347273e-04,2.192850708961486816e-01
2.292071604592333112e-01,1.065862350625584876e-02,2.351585010922248031e-01,-1.218455571788625881e-02,8.364586844772317229e-04,2.235645940264343896e-03,2.226253002882003784e-01
2.271791858362272043e-01,6.272072101466963367e-03,2.317750172458684366e-01,-4.450195392517967453e-03,-1.397861404976819899e-04,1.554656779992113829e-03,2.233899086713790894e-01
2.287646854313968581e-01,2.834647284136071477e-03,2.305095817234144862e-01,-2.113825080092499205e-03,2.796534787656919548e-03,-1.796353858304524992e-03,2.269101142883300781e-01
2.219107589441326189e-01,-1.222250561786819567e-03,2.140737369204698815e-01,-5.454148936569764260e-03,-3.273833131912163782e-03,-1.892825576882969886e-03,2.196206003427505493e-01
2.273599945135737488e-01,2.692011701500657272e-03,2.019202023346147734e-01,-3.334235707948370996e-03,-4.695435563570384344e-03,-2.600596841098268882e-03,2.133709490299224854e-01
2.293941336997272207e-01,3.077119607200140550e-03,2.166032541136339584e-01,-3.904725844686496479e-03,-9.858044820808859951e-03,-1.213593053608016947e-02,2.219624519348144531e-01
2.256701186877432541e-01,-6.146283402783392358e-04,1.842633008435541897e-01,-6.916885901934363354e-03,-2.126142312517581828e-03,-8.089584131443247270e-03,2.095304131507873535e-01
2.102691507956905570e-01,-8.411934736026555059e-03,1.813426923800835755e-01,-7.195872529237241563e-03,-5.203116346704210297e-03,-7.467515710169570810e-03,2.067276835441589355e-01
2.231208071819618666e-01,-2.242060224239866839e-03,2.280966605878295972e-01,8.654996692280832573e-04,3.396079186547008074e-03,1.305478931408508153e-03,2.279835790395736694e-01
2.131839946808800901e-01,2.622254839313035990e-02,2.031060220477694800e-01,-1.461536516561784274e-03,-1.361798534434442882e-02,-6.457068627982405279e-04,1.836735308170318604e-01
2.355717147779154141e-01,1.469635359604085090e-02,1.896282255797459293e-01,-6.848530662488646649e-03,-2.000322079275314649e-02,-1.610416969933860243e-02,2.070460617542266846e-01
2.119014168159069900e-01,-9.267979228148870430e-03,1.833567704342219384e-01,-1.206289359815715910e-02,-1.077443798372672637e-02,-1.474032948596670604e-02,2.117879390716552734e-01
2.051172586737824433e-01,1.438163056240948645e-02,1.858913334413546670e-01,-3.133611981265641564e-04,1.520236868127594274e-02,1.146745329366310713e-03,1.837939620018005371e-01
1.992178854960555134e-01,-9.988801984859130290e-03,1.879548342217834678e-01,-7.898496085507146144e-03,-1.509065054647439584e-02,-7.603077650620832136e-03,2.063534557819366455e-01
2.183207297393941482e-01,2.008432676567806219e-02,2.148184093899424274e-01,-8.199682369923208189e-03,-9.453932377561865413e-03,-7.597784898323834378e-03,1.981379985809326172e-01
2.119319813149100340e-01,-9.777637955243279055e-03,1.825624225931617162e-01,-1.210972719663563207e-02,-1.049817397562605517e-02,-1.449497425031828421e-02,2.119129449129104614e-01
2.139409031782356641e-01,8.355442417349562279e-03,2.140210713001221288e-01,-8.685983832678193309e-03,-1.206353123170397085e-02,-1.028134967093546209e-02,2.079949826002120972e-01
1.930430405126738747e-01,2.989404181830027096e-02,2.246415171775839048e-01,4.294845629435158768e-03,5.186839442637022207e-02,-1.672954514810345156e-02,2.042970359325408936e-01
1.716378544685764895e-01,-1.182005709660963189e-02,1.911377466647400936e-01,1.012903326555754727e-02,1.879731499394800970e-02,-9.443472954056604182e-03,1.981156468391418457e-01
1.904412622846453629e-01,1.499209400064221986e-02,2.237889992587317189e-01,1.086771526077166469e-02,1.673992758745816017e-02,-7.837459947034429789e-03,1.977993696928024292e-01
1.483561382522571859e-01,-1.512691519412703856e-02,2.063493227338387137e-01,1.478477480411425661e-02,2.189209669569331523e-02,-1.188640371169219327e-02,2.051541954278945923e-01
2.154904048846445486e-01,2.849563282600311998e-02,2.399937979472082095e-01,1.425655634373761312e-02,9.836021701418160013e-03,-1.103964001340787711e-02,2.035069465637207031e-01
2.042074158902173475e-01,4.359433315723337810e-02,2.479669577593071050e-01,1.656310768033544129e-02,3.512166047040513744e-02,-1.585306987761340297e-02,2.000434398651123047e-01
1.268743166509710973e-01,-2.610607913607652930e-02,1.703929289293313887e-01,1.188424512737284132e-02,3.920308911236509292e-02,-8.716595803488189770e-03,1.929161846637725830e-01
1.998144001019179217e-01,1.609608273810383960e-02,2.389986490545367714e-01,-2.319715415487172416e-02,-1.534236177589287653e-02,-8.795059430270835490e-03,2.122244983911514282e-01
2.315343052183599371e-01,1.671971403049427041e-02,2.477891230128225486e-01,-8.368191269259280321e-03,-1.893754158392897853e-03,-1.102049515270047894e-03,2.238878756761550903e-01
2.074917126230833297e-01,1.998591118631565244e-02,2.596164627466138186e-01,-2.936148630161982548e-02,-8.903943591148729894e-03,3.261698693961651973e-03,2.247335165739059448e-01
1.345981760483705991e-01,-2.663839012828547737e-02,2.056436423265123881e-01,-2.062613194588145196e-02,-1.949463985470468314e-02,-8.255260155396262206e-03,2.124163359403610229e-01
1.451450797378000535e-01,-6.103941689508023127e-02,6.133819285564247326e-02,1.471543010247815947e-02,-8.651221357912639021e-02,1.956643120052047047e-02,2.377124726772308350e-01
2.428824781922342968e-01,-2.089192012001846177e-02,4.014419772006611736e-02,4.999994396667554498e-03,-4.080515347440367285e-02,1.729300289104886102e-03,2.495630681514739990e-01
2.244577575448956641e-01,1.392277079562412312e-02,1.260835764363928413e-01,7.980167493857189768e-04,-2.245077530813309116e-02,-7.278370250459911643e-04,1.865659803152084351e-01
2.362665480269890983e-01,2.102524365450694765e-02,1.713213955307465730e-01,7.192117204203540837e-03,-1.678773738755960990e-02,1.019483305631862548e-02,1.946285665035247803e-01
2.314850622759626053e-01,1.368117762575703222e-02,1.503948406131964122e-01,8.205310574273412191e-03,-3.652361299478884549e-02,1.947182327910902677e-02,2.041904777288436890e-01
2.464506567420528815e-01,2.503625051641970856e-02,1.715327121042933001e-01,1.146074473328422341e-02,-4.955050711702283645e-02,1.297604867969328994e-02,2.152070254087448120e-01
2.342409142062215621e-01,2.542477512844640297e-02,2.416796290445766271e-01,-8.418380562033642546e-04,-2.944792060439958272e-04,-1.643300582559804749e-03,2.126577645540237427e-01
2.332113318519682399e-01,1.511413087580518178e-02,2.306929973085618535e-01,9.564120758862223667e-03,7.319435003012925850e-03,-1.962650699293261997e-02,2.204863429069519043e-01
2.310684865993702930e-01,1.875846638229405894e-02,2.346015751945311756e-01,-1.750576430564604585e-03,-1.258844578926272871e-03,-3.598210230567654936e-03,2.142216712236404419e-01
2.216375908659646565e-01,-3.013676429280576219e-03,2.238610558384422911e-01,-3.785334647920443867e-03,3.107780220312745352e-04,-2.997541744929194552e-03,2.259266972541809082e-01
2.346076349719844745e-01,9.182833809976448380e-03,2.244462031148692638e-01,3.778311141700185782e-03,1.496113879510904297e-03,-6.342903005109130563e-03,2.209054082632064819e-01
2.380553869562150870e-01,1.189998769376232612e-02,2.345284030680576670e-01,4.460948238412023800e-03,-2.110991630066847650e-03,-8.297557216662570373e-03,2.250348329544067383e-01
2.680640150614603257e-01,1.318217140904609508e-02,2.101027004835485379e-01,4.104760067754927369e-03,2.204637331053703117e-02,-1.497447177304879820e-02,2.360770255327224731e-01
1.407381354969141074e-01,3.359963057077612614e-02,2.807535709871299412e-01,-1.421691867328543808e-02,9.794003373123746220e-03,1.966642496136824549e-03,2.167712152004241943e-01
1.618511089774276879e-01,2.941997970465028145e-02,2.522654247441622477e-01,1.687925250398427312e-03,6.101413017192871234e-03,3.790600248770630487e-04,1.944404393434524536e-01
9.463327092933181139e-02,-1.568127672326632971e-02,2.199561559076233519e-01,-7.689336170680651644e-03,-3.458146709318698879e-03,-2.605992817140928824e-03,2.047771662473678589e-01
1.433301047301465680e-01,2.468550869395191860e-02,2.737181808496895741e-01,-8.452530431399114114e-03,1.229829207780328872e-02,-2.716752240404916256e-03,2.173422425985336304e-01
1.936779711832801176e-01,-3.027730213587381813e-02,1.563940899155850661e-01,1.358139451302906205e-02,3.282201841832870642e-02,-2.355851554431688533e-02,2.205591946840286255e-01
2.270107305520835950e-01,2.255485418438685219e-02,2.103522021401418307e-01,1.750496641080889412e-02,2.121369859299395214e-02,-1.193665018636618814e-02,2.033975571393966675e-01
2.186149274944116927e-01,-1.217248145135602089e-03,1.855313953064579580e-01,1.056257210243087899e-02,8.636703742598816555e-03,-1.789201367630193287e-02,2.089658677577972412e-01
2.206637014756345772e-01,-7.286689560612347183e-03,1.346251703852573423e-01,1.290335537319415443e-02,3.947929015036254902e-02,-1.311211675997699458e-02,2.131727188825607300e-01
2.002470370530441690e-01,-1.668956016844164170e-03,1.543892567449474673e-01,1.386061129749239888e-02,5.439317884105529521e-02,-3.809968850413134392e-03,2.076278775930404663e-01
1.970944115418816478e-01,1.877117504480317611e-02,2.087596679513765152e-01,1.394884686910699556e-02,3.175125487736316782e-02,-9.160966271627301802e-03,1.946159005165100098e-01
1.966864038184931163e-01,8.875223211416372049e-03,1.775111346364023901e-01,4.045825253880799485e-03,2.386991056879546325e-02,-4.363733670049130611e-03,1.839971542358398438e-01
2.778433408123990866e-01,4.919132205884507725e-02,2.612999892078310404e-01,-1.007012609347193548e-02,4.744670309898016414e-02,5.395330934469155792e-02,2.540933489799499512e-01
2.262794403263894694e-01,-3.105772938281467499e-02,1.311706897876392386e-01,-1.358391724419444856e-02,1.565169066594896199e-02,3.874498518746211789e-02,2.378762066364288330e-01
2.664210580211044399e-01,2.494215477149130944e-02,2.269146369599239210e-01,1.838083828028452479e-02,-1.502730607813341709e-02,2.041543992854575815e-02,2.308121472597122192e-01
2.409916827925315530e-01,-4.908342002696669537e-02,1.315507449630864967e-01,1.965058837105754935e-02,4.284756208617063536e-03,4.722029130851625178e-02,2.688449025154113770e-01
2.498409776689836936e-01,3.008125424964550043e-02,2.402973848680201308e-01,-5.127036931394744063e-03,-5.252283973183596161e-03,1.262095265706078377e-02,2.166277915239334106e-01
2.842829449168308154e-01,5.283424086512161777e-02,2.587718488225936864e-01,7.464229325199142097e-03,-4.562784365841341880e-03,1.272854268454077717e-02,2.214282155036926270e-01
2.946788425590847194e-01,5.150798473950771172e-02,2.608529432955679628e-01,-1.793991931463247884e-03,1.621112364485700593e-03,1.073839260415743874e-02,2.289416193962097168e-01
2.157471508906708690e-01,-4.251993409128379531e-03,2.199523202902229635e-01,-4.316651262690853787e-03,-2.533903372866784867e-03,-6.019463187403425314e-03,2.225450575351715088e-01
2.208736294436194347e-01,3.894140736148410387e-03,2.249288386397983452e-01,-5.978625618345705800e-03,-7.479639533766222577e-04,-7.521617298880182295e-03,2.196703851222991943e-01
2.312999361436244017e-01,2.038418272363229367e-03,2.281209720100220717e-01,-2.173983921586466420e-03,2.001394600625421016e-03,-3.160252160173555088e-03,2.278119623661041260e-01
2.324720690641984278e-01,1.371533148284262427e-02,2.324305858381082168e-01,-1.021014190848626435e-02,-6.613693984031708897e-04,-8.691440095709658878e-03,2.199684381484985352e-01
2.193134713697078020e-01,-4.465116752553455193e-03,2.216327937182202834e-01,-2.908074968733518392e-03,-1.643981546472337739e-04,-3.083567400006357630e-03,2.250671684741973877e-01
2.117623076291284823e-01,1.679798996574821679e-02,2.158095634746687863e-01,1.030227313096407533e-02,-2.206578663137517479e-02,9.230680332780672598e-03,2.021169513463973999e-01
2.245964772752763738e-01,3.500458764112007737e-03,2.251913960983610852e-01,5.579651169804709064e-03,-4.011322630628499399e-03,8.257017698192302760e-03,2.221745699644088745e-01
2.295021968481537056e-01,3.309815574202118471e-02,2.341172771281191112e-01,1.413202439291366859e-02,-1.530952356341171161e-02,1.143706341778833249e-02,2.029703706502914429e-01
2.270694847944249029e-01,4.495022509747537143e-03,2.234818921111186296e-01,6.961575675652886298e-03,-2.051094365604095443e-03,8.091376068220452675e-03,2.216036468744277954e-01
2.322121808074123772e-01,1.518265024647041939e-02,2.260766496028029926e-01,9.678116574789683360e-03,-1.344051833021791230e-02,6.556195890320929733e-03,2.162400633096694946e-01
2.184896985143651715e-01,-5.250380934543191769e-03,1.937492079643313159e-01,1.896775252578674492e-02,-1.348588501518754347e-02,1.544227906143852934e-02,2.178912609815597534e-01
2.431420529344978099e-01,8.016733510020135345e-03,2.107315490349729037e-01,8.761855516749796416e-03,-1.170684614983918612e-02,1.252380684208660028e-02,2.232169955968856812e-01
1.733007822153901645e-01,-9.078710559724395557e-03,2.211351799652729877e-01,-1.974157586010436005e-02,1.777855827340836872e-02,8.443267208994967993e-03,2.158835530281066895e-01
1.996384980601668413e-01,3.593021185968880982e-02,2.747932021274537284e-01,-1.399058669849106637e-02,-1.943297223797363533e-03,1.889487596599202790e-03,2.129819989204406738e-01
1.720272910867715888e-01,2.372484413139827608e-02,2.584830666679803768e-01,-1.180336617393374331e-02,8.460538326549256471e-03,1.912647476546686402e-03,2.072039991617202759e-01
1.858380633901187684e-01,1.598021482097874979e-02,2.654074859987253232e-01,-1.881076499940279034e-02,2.027928175413137163e-02,1.322084938137438673e-02,2.269760519266128540e-01
1.423844654650333885e-01,-2.353640259642184041e-02,2.176932401540052353e-01,-1.819633155831438392e-02,1.770068365675154295e-03,2.438299385724466365e-03,2.161411494016647339e-01
2.326290063387400076e-01,6.009797306442271614e-03,2.275010114676286888e-01,-2.656217024209659230e-03,1.693059404709607203e-03,-5.190312054818774831e-04,2.241674214601516724e-01
1.815407099481722575e-01,2.016445733534821816e-03,2.371241239748627383e-01,-1.656630626309021914e-02,7.919956925426595946e-04,2.543118678215278670e-03,2.148060947656631470e-01
1.872718655440931412e-01,-1.467440599042704741e-02,2.189331838382080342e-01,1.161239513683819807e-02,-2.882634533315246803e-03,2.239345042280153127e-03,2.205065488815307617e-01
1.630425042286854365e-01,6.786847507963766901e-03,2.614494645492218550e-01,-8.910071540116283606e-03,-1.001999816163655771e-01,-8.413696660134454067e-03,2.829258739948272705e-01
2.061702159493750131e-01,1.604333076699521188e-03,2.184010618363435574e-01,1.438794734425939952e-03,-1.471455735406476803e-03,6.122637946303142835e-03,2.112438678741455078e-01
2.262357376433687950e-01,1.172677008781608521e-02,2.396385667869248837e-01,4.807065173836508679e-03,-9.031493996980153628e-04,2.177425390848834828e-03,2.217087149620056152e-01
2.193540583049200521e-01,1.108936703490853715e-03,2.276518548579018475e-01,4.350519830381622578e-03,-2.437355471661952541e-03,-4.292822365948785988e-03,2.228017747402191162e-01
2.295675287541245613e-01,-7.663805845132820593e-04,2.240737557361545118e-01,8.157258770466479809e-04,-8.462458371676691987e-04,-1.197794225660025677e-03,2.276553064584732056e-01
2.252377070340293164e-01,1.104875760906204318e-03,2.236248303056294073e-01,1.552353713668806149e-03,7.070946174448276779e-05,-1.700452275890829796e-03,2.233663946390151978e-01
2.355677546889707319e-01,3.866226147379581146e-03,2.277357020842212254e-01,1.521484768483690559e-03,-6.560861897337338846e-04,-4.587695445498436242e-04,2.279059141874313354e-01
2.289385309145949288e-01,4.414321919359504021e-03,2.301366820552245285e-01,1.540511193904496676e-03,-1.983863469133506554e-03,-8.102796759752479028e-06,2.251677066087722778e-01
2.312689062574412868e-01,5.522089183475298313e-03,2.313744517262227851e-01,3.475595580605214674e-03,-2.439415053202677840e-03,-7.348232125640189122e-04,2.259229421615600586e-01
2.007016021615374013e-01,-1.774546689867900762e-03,2.034842229341630171e-01,3.656097641770195660e-03,2.442333722301121782e-03,-3.486511540389697697e-03,2.041132301092147827e-01
2.265997137111652182e-01,2.002638762731434596e-02,1.570090612858321411e-01,-2.408248542296181471e-03,-5.354537068690753271e-02,-3.575175796370770858e-03,2.044428735971450806e-01
2.311498698727575962e-01,-1.968076539310942286e-02,1.593281329173120708e-01,-4.576542929802672639e-04,1.469086410241558045e-03,1.872926587657497421e-02,2.260945290327072144e-01
2.418903842811871985e-01,2.079154198405708254e-03,1.872324378330148531e-01,9.269936468200054569e-03,-6.501452096273528658e-03,2.257822548898592505e-02,2.220433652400970459e-01
2.366924861543329706e-01,9.089059235156626837e-03,2.126094920463228177e-01,3.872291087415033473e-03,1.087944402315132141e-03,1.498786670253679336e-02,2.182301133871078491e-01
2.287898838723027017e-01,9.184477725845061058e-03,1.639380159065862708e-01,4.586687576063879640e-03,-1.101283047096597231e-02,1.379914528155671075e-02,1.979613304138183594e-01
2.441442773833366053e-01,9.008655775197105253e-03,1.506385789220471005e-01,-9.991013707174704623e-04,-1.933840961117712018e-02,2.226018884333546416e-02,2.113220840692520142e-01
1.414412986003610040e-01,2.685103714642886330e-02,2.616140537612348105e-01,3.883819003449411923e-03,4.083417543444099740e-02,-1.235963424111660713e-02,2.164459973573684692e-01
1.595174024122799628e-01,1.789147934077725544e-02,2.334311208853147579e-01,1.046877304214159296e-02,1.443524488945825343e-02,-8.914963078813262914e-03,1.928252577781677246e-01
1.659690478939930824e-01,2.842550932149698339e-02,2.456180369085291249e-01,-2.143835624635818515e-03,3.238247592311527950e-02,8.188040294292216192e-03,1.989426612854003906e-01
1.565421518898849618e-01,2.433829938788133196e-02,2.190061513329758514e-01,-8.125448639931413808e-03,1.987360817537182911e-02,-4.297236598133841244e-04,1.761280596256256104e-01
1.338410893842116867e-01,6.173364143106707669e-03,2.253999830346471445e-01,1.009656025774620771e-03,1.942217224816478183e-02,5.901865407842705850e-04,1.936671435832977295e-01
2.068026356146853151e-01,1.471153370269179250e-03,2.049319043858397471e-01,7.747079602580791285e-04,1.047173165372455731e-03,-1.310168448430545961e-03,2.044275850057601929e-01
1.777694550025453735e-01,4.495458571258308111e-02,2.641173242976791458e-01,1.156893252443302704e-02,2.926312066632865555e-02,-8.774029801951575488e-03,1.994128525257110596e-01
2.218482743219328812e-01,-2.294408455679991521e-03,2.215859476849238729e-01,-1.584551186616081273e-04,7.224814567139129689e-04,-7.632911838971400634e-04,2.240191996097564697e-01
2.733833692244855285e-01,5.153923365366278042e-02,2.895773127669803992e-01,9.465596546256642083e-03,-4.938865286210551535e-04,1.318350264885519260e-04,2.309527546167373657e-01
2.347740901865577878e-01,1.476685876978633960e-02,2.434206614203127395e-01,-1.084840992270832234e-03,1.378325828217302372e-03,8.900381506235171365e-04,2.244813144207000732e-01
2.524213887779145904e-01,4.583971410290910153e-02,2.473382157074316967e-01,-4.996587857487107178e-04,1.654268261864849220e-03,-2.033661787470573100e-03,2.041399031877517700e-01
2.393853345172767821e-01,2.190249140073624590e-02,2.403483314624011158e-01,3.558419489225571244e-03,-4.826520242039144528e-04,3.970805365631290863e-03,2.181631028652191162e-01
2.173995090175209199e-01,5.635779395680717840e-04,2.263493058026311289e-01,-3.788762857724406897e-03,2.449637536539666163e-03,4.048730007260500745e-03,2.216952890157699585e-01
2.097495664046197805e-01,-2.535834063334796440e-03,2.139227833773770793e-01,-1.079671993723849838e-02,6.934410872592665885e-03,8.566522124825689741e-03,2.160614281892776489e-01
2.125028214691338790e-01,-5.982830408114314658e-03,2.155723276268898814e-01,-3.064019892846869212e-03,2.752359117277667841e-03,3.332637553882359955e-03,2.202277332544326782e-01
2.060949803590061968e-01,-5.426570061552643542e-03,2.119242921521549694e-01,-8.531234659324307343e-03,8.088568045715345545e-03,8.592912499627933937e-03,2.159733921289443970e-01
2.057266066269487492e-01,-3.047044486594874257e-04,2.253725041959244724e-01,-8.760014178601215409e-03,3.928957204724267335e-03,8.397425623902393318e-03,2.176478952169418335e-01
1.971777176671269394e-01,-8.612090379971015786e-03,2.135832591065478236e-01,-8.922233853353755614e-03,6.799914501562652307e-03,8.724768675380923863e-03,2.158716768026351929e-01
2.108963042430271051e-01,6.684309521001019494e-03,1.993437372059086443e-01,-8.814847593421628463e-03,9.071250495205199216e-03,6.345655416267222473e-03,2.001938968896865845e-01
2.115823094268148297e-01,3.224822331162446876e-03,2.139254566944680525e-01,-5.297312704381524663e-03,3.216692418595563322e-03,7.821900152235983922e-03,2.102506011724472046e-01
2.243656492767952260e-01,4.706144200750800310e-03,2.147560535393340242e-01,-9.882997946179654727e-03,9.131452002976964133e-03,8.652445497460362761e-03,2.167938351631164551e-01
2.315321497860311495e-01,-6.482512559974507038e-03,8.365243355065007935e-02,3.020344266694001412e-03,-6.918242137795334312e-02,2.468531036702121748e-03,2.402626127004623413e-01
2.102211959120062201e-01,3.051757540173283267e-03,1.988248955585422695e-01,-7.143205382703313178e-03,8.241853204370510472e-03,5.546303392113293047e-03,2.028231471776962280e-01
2.065723700951607178e-01,1.295048098525811153e-02,1.983507547890028255e-01,-9.555968852405139283e-03,2.271043515072194985e-02,1.202294054045801967e-02,1.954994648694992065e-01
1.885207605469026992e-01,2.509180656484200078e-03,2.010897755699490030e-01,-1.625745984287564616e-02,2.875499141282784887e-02,1.085496458194295383e-02,2.017999589443206787e-01
2.364838321517113151e-01,1.526685149037365630e-02,2.265584190379378027e-01,4.437676639423888611e-03,-3.294869487585918547e-04,-2.621494465514637075e-04,2.165627032518386841e-01
2.506404934973507359e-01,2.512959110568893650e-02,1.552102117648796742e-01,3.364900096986807678e-04,-5.897436905466518428e-03,-1.470813028621445560e-03,1.963484287261962891e-01
2.077088213047071641e-01,6.955739294802060213e-03,2.500940835542734275e-01,1.323899210589681366e-02,-1.212929117468842383e-02,2.548722330678407193e-03,2.271430045366287231e-01
2.123359909410768298e-01,1.663894064623286373e-02,1.907853676022869815e-01,4.486873035258251777e-03,2.040482102134899556e-02,-1.056910844906081177e-02,1.902339458465576172e-01
2.316496601708188940e-01,1.359633886842238903e-02,1.545334315904521860e-01,2.794713643710205683e-03,2.248583032683164340e-02,-4.329309695025288993e-03,1.956405192613601685e-01
2.035603818943038934e-01,1.451543138841626668e-02,1.888023944298793388e-01,1.944525809111263348e-03,3.138088414219081940e-02,-5.268189783842375067e-03,1.903017461299896240e-01
2.115538907458447415e-01,2.959442250636235006e-02,2.006801971165826370e-01,5.574103419426388109e-03,3.420956608785815506e-02,-1.815171402328234502e-03,1.867160797119140625e-01
2.060086737237551424e-01,1.348948579776923506e-03,1.457238039398978946e-01,-1.440046513637917736e-03,3.217902643560013876e-02,3.991562019909100124e-03,1.906370222568511963e-01
2.366309771341015555e-01,8.582721584058608522e-03,1.316459391936420642e-01,-2.613004796126953359e-03,2.871573905483578923e-02,1.679922841365030090e-03,2.039336711168289185e-01
1.940345492888174150e-01,1.220668733667432115e-02,1.649914953312739685e-01,8.485800597751369176e-03,4.563006158157101311e-02,2.867551806336261517e-03,1.873793900012969971e-01
2.133047566141449414e-01,1.726022087613274247e-02,2.449943021689771627e-01,-1.080751867479355470e-02,-2.541779013816934663e-03,-1.807552200098269581e-03,2.145456671714782715e-01
2.297041172581933688e-01,1.236412918464840915e-02,2.390885849615446701e-01,-8.155689955786445469e-03,1.473302375259006062e-03,-4.883315762476640037e-03,2.228047549724578857e-01
2.296812247326569245e-01,1.372962886622350331e-02,2.402730329864266601e-01,-1.732829510129401882e-02,-1.266354872033890328e-03,-4.530669501131439486e-03,2.236108183860778809e-01
2.421861918097598099e-01,1.979081213262201544e-02,2.530902641074845860e-01,-6.697133542914989954e-03,-5.270805283128228262e-03,-3.567240231733488469e-03,2.286037951707839966e-01
2.177372110235654967e-01,9.205744288685535626e-03,2.304455212394569685e-01,-7.447085482429142630e-03,-9.802649060431331898e-03,-9.279592455865407624e-03,2.168177664279937744e-01
2.105237316105693368e-01,-5.876049334110344802e-03,2.197333467924296457e-01,-9.448919626108949477e-03,-5.903369907767555026e-03,-5.105104276809303843e-03,2.221648544073104858e-01
2.312973788144702114e-01,1.728844655897585070e-02,2.391159455410113988e-01,3.882760436644358548e-03,4.589150778841415796e-04,7.924054533084578687e-04,2.181328535079956055e-01
2.250318426187408738e-01,6.432265321120345103e-03,2.334250011592631791e-01,4.533702239564152067e-03,1.297741794197318737e-04,8.588740806955365466e-04,2.230580449104309082e-01
2.226799423115006504e-01,2.055813766049324753e-03,2.296521081082903981e-01,2.789881473977918244e-03,3.626786467390948759e-03,-7.939016592576031124e-04,2.243357896804809570e-01
2.214942206937269287e-01,-2.012327542374264810e-03,2.219610020173867770e-01,-2.998944328500614430e-04,-4.913783036108962951e-04,6.184924522982005205e-04,2.237450927495956421e-01
2.161502376424820349e-01,-6.601198156466175915e-03,2.188626926345436929e-01,3.817684589339185534e-03,1.018393511347378969e-03,9.470022119537050862e-04,2.242304384708404541e-01
2.261713861867229447e-01,5.606615709735168762e-03,2.075209234407157100e-01,-4.970564745179264013e-03,-6.524373115856748652e-04,-8.875133989725952346e-04,2.120395749807357788e-01
2.309710049493431117e-01,1.635986284819915260e-02,2.517317265006120408e-01,-1.103068365919358806e-02,-1.422344837143333339e-02,-1.066759643058604219e-02,2.285995930433273315e-01
2.036324753773283702e-01,1.813512381028561937e-02,2.394874979113609803e-01,-1.558935351684111181e-02,-2.028193258334503452e-02,-9.308982132655090405e-03,2.111136764287948608e-01
1.880572783151042981e-01,-1.899254741745654007e-02,2.120175397242631266e-01,-2.356208686430530039e-02,-1.306891823347555368e-02,-6.724876152520835662e-03,2.252071648836135864e-01
2.418224619858521385e-01,3.014582154043812801e-02,2.601605375377372131e-01,-1.360854766306990662e-02,-1.438673719837196482e-02,-2.407091242313539117e-03,2.240957915782928467e-01
2.132523929185122236e-01,2.419486242395349485e-02,1.950905570591392468e-01,-1.108804766114541507e-03,-1.609845941121624754e-02,2.315515991907183158e-04,1.828121989965438843e-01
2.095303266915459761e-01,4.039957409299133051e-03,2.280560157654336617e-01,-1.682794053226811110e-02,-1.036858606368984415e-02,-1.686552413854589677e-02,2.200039625167846680e-01
1.941934501840584248e-01,-1.719046403603460837e-02,2.144062214933299959e-01,-1.336570516202066801e-02,-5.134132083189666546e-03,-6.246154031157400734e-03,2.238222956657409668e-01
2.204916698771781647e-01,8.757391975188821842e-03,2.290882553803492983e-01,-1.982332236294999731e-02,-1.254599247575883050e-02,-1.335461811790692593e-02,2.211597412824630737e-01
2.095490285772752537e-01,7.267626466549964581e-03,2.157352402234087863e-01,2.414296361135583480e-03,2.833572249627643556e-03,4.700681573140447927e-04,2.055471390485763550e-01
2.296464963967970729e-01,1.096401216728759564e-02,2.261505543630313309e-01,-7.353683964801416457e-03,-3.318532828431517410e-04,-5.624904094788277069e-03,2.175482213497161865e-01
2.231823866364747722e-01,-4.155222519245327373e-03,2.189635995090676579e-01,-5.320603322207748467e-03,-2.231799395894856416e-03,-7.236419605370863692e-03,2.258275151252746582e-01
2.073056250888044016e-01,-5.464049250240160527e-03,2.099929626942445560e-01,-5.768328699144773843e-03,-6.498691095690434759e-03,-5.611906034648955419e-03,2.148742377758026123e-01
2.228439767382928149e-01,-8.887480404441427950e-04,2.203212111578108923e-01,-1.984530289497496696e-03,-2.027801585503994329e-03,-5.074916406842259163e-03,2.227098643779754639e-01
2.215604178758626974e-01,-2.171136149197755438e-03,2.171555648050826626e-01,-2.122624541221388925e-03,-2.155289669347207771e-03,-2.889298164274531257e-03,2.216804027557373047e-01
1.837168545846502299e-01,2.477456430919680597e-02,2.777804377335065800e-01,3.185566890639441456e-02,7.654736624505753539e-02,-1.931183413491301473e-02,2.660883069038391113e-01
2.114277351419447948e-01,1.060125882034107514e-02,2.155414730757532760e-01,-1.438178940786006416e-02,-2.185746061290764000e-02,-8.390632990501349642e-03,2.084209769964218140e-01
2.044332980047390835e-01,1.766831774940633148e-02,1.748024555190687279e-01,-6.516527768490049631e-03,-1.985485650858556661e-02,-6.038521238024467143e-03,1.778892129659652710e-01
2.205990983823352125e-01,1.261234063566797625e-02,1.752142207212247782e-01,-4.578186755387312311e-03,-1.604923862379721913e-02,-8.732665405137977552e-03,1.922061890363693237e-01
2.392436043921147282e-01,2.093746115813729936e-02,1.960703455287779173e-01,-7.308274170423381157e-03,-1.598433435576074313e-02,-1.972845335819732246e-02,2.054041922092437744e-01
2.411194572000204817e-01,1.208807071671771927e-02,2.349656389166742132e-01,-9.884813438734794261e-04,4.187219795727880993e-03,7.714513736886191055e-03,2.265345454216003418e-01
2.430962613123735516e-01,2.318625181793237955e-02,2.381897666208005471e-01,3.342268811135641854e-04,-1.439604578030079457e-03,7.603619435932414995e-04,2.175173163414001465e-01
2.093048356493122097e-01,-2.350984206349227001e-02,1.822548838558396556e-01,-1.565009426568999976e-03,1.461265760444499257e-03,1.319574544695844252e-02,2.217496037483215332e-01
2.531365087137250058e-01,3.047145984281970921e-02,1.670555128039160619e-01,-2.509487930075222917e-03,-7.475582252538898360e-03,-1.639910305994663918e-03,1.949796080589294434e-01
2.239099221176463206e-01,-1.483277953606615407e-03,2.236236023947683615e-01,-2.279313149197124966e-03,1.607392576749231946e-03,-2.683074249343823069e-03,2.253499031066894531e-01
2.354397490916027569e-01,9.143997904893341744e-03,2.293284147060100642e-01,-6.512665919075352229e-03,-4.045513824525619369e-03,-5.217467146072113544e-03,2.238797843456268311e-01
2.250069599497587225e-01,-3.485466751373289540e-03,2.093224659287413469e-01,-4.743321412210720414e-03,-6.196151139018782165e-03,-1.526553390593068417e-02,2.230533361434936523e-01
2.313123207985277319e-01,2.179904698180683276e-02,1.668172027656846246e-01,-2.225045060438307284e-03,-7.228047208087805264e-03,-1.766453782936209865e-03,1.863432228565216064e-01
2.251452043121502378e-01,-3.449536865180347078e-03,2.199989459466307196e-01,2.003171729846691968e-03,-1.007378167811455883e-03,7.042181156453733220e-04,2.261021882295608521e-01
2.625989132582025043e-01,5.755084954134162545e-02,2.558657191888945581e-01,-1.954478749787760469e-03,3.908992545693008164e-03,1.252091388805508503e-03,2.019193470478057861e-01
2.565049141029700497e-01,4.838908333974550890e-02,2.453553656910692771e-01,4.710159394317571004e-03,-1.377573732569997711e-03,2.928888328318307805e-04,2.029498070478439331e-01
2.378046448299695470e-01,2.472881696869791424e-02,2.432522690358722151e-01,-1.359527319455304181e-02,-1.348319895811784998e-04,6.754668250536621094e-03,2.174469232559204102e-01
2.527984053678773435e-01,3.892917567733392148e-02,2.767023656791258723e-01,-1.058329662189287819e-02,6.929365118960701363e-03,6.137825486116937901e-03,2.280720323324203491e-01
2.428400165934458954e-01,2.922998485532818380e-02,2.369529275087534637e-01,3.581203652112649287e-03,-2.239613068229384055e-03,1.032772264949795120e-03,2.108627110719680786e-01
2.034953901388933672e-01,3.029599964538141899e-02,2.185738816689946629e-01,3.007551606577492462e-04,1.365127895751715344e-02,-2.808986044437611004e-03,1.828113496303558350e-01
2.109519581141398314e-01,1.472100083323291120e-02,1.958365008474625968e-01,4.612493284742262382e-03,1.632068289416878371e-02,-3.315120604151691307e-03,1.914806365966796875e-01
2.167519577365633054e-01,3.546202112408906870e-02,2.136265128207679165e-01,3.462275139529522386e-03,2.925646432335878705e-02,-4.896660496072360869e-03,1.870425492525100708e-01
2.289578331928412425e-01,1.361449552661812834e-02,1.584104009405271907e-01,2.212915044554407667e-03,-8.828267897314966139e-03,3.162247429007347850e-03,1.908828914165496826e-01
2.506233639497409404e-01,1.902879805724749795e-02,1.647009777778159767e-01,4.160045816078391731e-03,9.016506077224569274e-03,-1.231339114891962828e-02,2.046221196651458740e-01
2.473588410806120130e-01,6.542815090766193609e-03,1.168639760827505647e-01,1.011070789905878925e-02,2.648613405178009209e-02,-1.524439040758960792e-02,2.161120325326919556e-01
2.463287484807040739e-01,1.536602905213908798e-02,1.540920977067455622e-01,3.113833321405216990e-03,1.408874108925062436e-02,-2.847389150780691922e-02,2.088181078433990479e-01
2.336011341102899874e-01,1.273158755473724479e-02,2.326546156719169200e-01,7.530739203756436906e-03,2.402693569124482800e-03,-2.354368074537890529e-03,2.208603173494338989e-01
2.269315120565630339e-01,6.122169618433176419e-03,2.253989736034971714e-01,2.326991375189481088e-03,2.729439649004428061e-03,-7.444037046267386326e-03,2.205120176076889038e-01
2.307769416239256466e-01,6.388402742527110600e-03,2.293986030705680856e-01,2.551235143486948239e-03,-3.383293088250737771e-03,-3.030268110629352925e-03,2.238844484090805054e-01
2.199239385302740046e-01,-4.761430054281284852e-03,2.209537055575557241e-01,3.729694057373846971e-03,-6.743871294880552942e-04,-3.377128433340716683e-03,2.253735959529876709e-01
2.230741059492897804e-01,-1.092246625453152653e-04,2.285153013272439582e-01,3.826742975505335095e-03,-2.428247864940205961e-03,-3.524630379232640467e-03,2.261717915534973145e-01
2.272628600271214827e-01,4.189843565670176018e-03,2.284386251900037967e-01,-9.049526658079098821e-04,2.236922021743877227e-03,-3.448105836386885668e-05,2.237022668123245239e-01
2.203810889522491157e-01,-3.249238503341744799e-03,2.203729171994995850e-01,1.216968931064013560e-03,-2.548975467189312717e-04,2.345889849397337495e-03,2.236735224723815918e-01
2.218369881794342580e-01,7.407552699133845842e-03,2.238355199594384004e-01,7.060753374886332388e-03,8.765042253011272322e-03,-7.570530641546511022e-03,2.167129516601562500e-01
2.275306090502784984e-01,7.428525007844744010e-03,2.326254324087935477e-01,4.064180831940256838e-03,9.429115269989518005e-04,-7.268888985367976709e-03,2.231658548116683960e-01
2.508811152584424220e-01,3.270514477095209926e-02,2.560866771407433462e-01,7.763643750760514280e-03,1.027722167245415270e-02,-2.038647305340824875e-02,2.247400581836700439e-01
2.374159572749001135e-01,1.533835044981379792e-02,2.352086502843571125e-01,6.478887270214564280e-03,5.770246994733183336e-04,-4.507852615559962070e-03,2.214069366455078125e-01
2.087383010302238384e-01,7.986703492268432125e-04,2.017152609083860404e-01,-6.550382806801621598e-03,-8.034335442191011326e-03,-6.083736454374645726e-03,2.055754214525222778e-01
2.241244722721607574e-01,1.116329408277777491e-02,2.036986238278306882e-01,-9.496196168392707915e-03,2.010155602016310689e-02,1.724968702465312989e-02,2.092729657888412476e-01
2.192937035976662008e-01,-1.485296701264432473e-03,2.005185507118781296e-01,-6.200159492704821612e-03,8.507789848820493037e-03,5.479560384537171709e-03,2.130100131034851074e-01
2.098538488110214817e-01,-3.727133685647601724e-03,1.510541401933377936e-01,-6.383681567497800913e-03,1.907523909902675979e-02,7.930665093454282444e-03,1.947261542081832886e-01
2.019442673070060423e-01,5.251249386322653923e-03,1.967802268681709266e-01,-9.634890488886186863e-03,1.280506545262735142e-02,7.446917471283329149e-03,1.965600401163101196e-01
2.184064414036155644e-01,2.427194302393242964e-02,1.930335976427475231e-01,-5.936509904640128836e-03,1.224830176190162996e-02,1.838574604338421258e-03,1.843154132366180420e-01
2.113457787967806256e-01,-5.140231881973822414e-03,1.822061760632381899e-01,-8.098021055035535543e-03,1.274098883307364823e-02,1.596084824474093555e-02,2.070144265890121460e-01
2.279131546557401911e-01,1.216766368196531278e-02,2.059290709978189304e-01,-9.828379311591922338e-03,2.005928855775305011e-02,1.418923424201080051e-02,2.106831073760986328e-01
1.931342664155751843e-01,-9.508524858033440275e-03,1.708871986396075238e-01,-1.041370716705571249e-02,1.896532020114914674e-02,1.252168411565274253e-02,1.972956955432891846e-01
2.275464703807544842e-01,8.435338893626576073e-03,1.624070467090484859e-01,-9.719103854590250766e-03,1.282301171827965151e-02,1.263555231856596829e-02,1.980800479650497437e-01
2.410221152217399965e-01,1.986672234351791189e-02,2.329886579130810986e-01,-2.719940832704697753e-05,1.740676033516745018e-04,1.265313776926329592e-03,2.172613590955734253e-01
2.231614599488802586e-01,-1.400622117193425775e-02,1.902951419002656686e-01,-2.260321535686642645e-03,-1.429256782565568125e-04,1.325765291840717668e-02,2.237779200077056885e-01
2.313762635007369228e-01,3.948996124770648430e-03,2.311639074213671097e-01,2.512995061127211872e-03,5.130752254246457363e-04,1.537315454716383072e-03,2.273801565170288086e-01
2.283396605760998066e-01,-5.050461633616859514e-03,2.077122700475099726e-01,9.237954417476451239e-04,9.263002407953277060e-04,5.657196415471669841e-03,2.240164130926132202e-01
2.183761824983030952e-01,-4.455704588421288692e-03,2.192978515808849116e-01,5.491770883891460361e-05,-2.420866223367879511e-04,-6.937136420185366316e-04,2.232977896928787231e-01
2.386558861640515894e-01,3.857786226042853039e-03,2.147854465892646558e-01,5.684097542402701680e-03,2.139624725239029548e-03,9.806585882771699098e-03,2.247095406055450439e-01
2.254470026627749535e-01,9.134211248154944229e-03,2.244059141777874355e-01,2.422585155273338561e-03,-6.783862862927261860e-04,1.477078773283202169e-03,2.158532887697219849e-01
2.269863792840416394e-01,4.752379236831277831e-03,2.327409755101340072e-01,7.676789307373040050e-04,-1.555026076661009126e-04,1.634148394025535054e-03,2.251883298158645630e-01
2.400460986890050330e-01,9.746782038611095933e-03,2.307528251819752352e-01,6.971841064269609922e-04,-1.190862740697734698e-03,4.564476177248024021e-03,2.259471714496612549e-01
2.265526281017026522e-01,-1.042074423334787836e-03,2.192904745768964325e-01,2.112909938122214080e-03,4.135209879597367640e-04,6.388007430428650421e-03,2.243559360504150391e-01
2.562965541100389322e-01,8.264772589783142553e-03,1.250007131716385778e-01,1.428022049571927871e-03,-4.170551993360876834e-03,1.210479288400156429e-02,2.160803079605102539e-01
2.281442614943630376e-01,-1.564678405026193042e-04,1.173414865700497939e-01,-9.831220896529542334e-04,-8.166638359434296932e-03,2.544920428956475369e-03,1.983041465282440186e-01
2.218512226892255801e-01,-1.084373698782281625e-03,1.076624534694843316e-01,3.057131903762441932e-05,1.727380225689732762e-02,1.107476257236907416e-02,1.963306367397308350e-01
2.480497176266004411e-01,2.812083192607234272e-02,1.670973493169492508e-01,2.389153010289863776e-04,1.426484737903192541e-03,9.083300105782043596e-03,1.933184713125228882e-01
2.217262702019771603e-01,4.422297193823615524e-03,2.187971693620151536e-01,6.422940684102826717e-03,-3.344798057797571805e-03,5.883108336887524561e-03,2.164584249258041382e-01
2.288359098754051413e-01,-1.528550081168561503e-03,2.259151783423266058e-01,-1.111059093875320022e-03,-2.895140421143549653e-04,5.968078561603739132e-04,2.289290428161621094e-01
2.164145609966874884e-01,-4.093380771889060243e-03,2.200204016231734339e-01,6.535741488043173009e-03,-1.732832251211497256e-03,7.108910944312029148e-03,2.229812443256378174e-01
2.246692157234975729e-01,-1.130803262285401400e-03,2.220142363974953459e-01,2.631673346077272914e-03,-6.327380833876905097e-04,5.553739656836015511e-03,2.247392088174819946e-01
2.254483472300394253e-01,-6.455113991701566523e-04,2.230984016765295563e-01,2.727369868137669278e-03,1.537370842867082912e-03,4.299402033345743612e-03,2.251166552305221558e-01
2.301262461755364530e-01,3.839070485174095326e-03,2.198511215627923510e-01,6.735857247573514249e-03,-8.024695320493185902e-03,1.012171796107882299e-02,2.227621674537658691e-01
2.187911023566720958e-01,-4.031513276214593322e-03,2.051225959789906572e-01,6.827472404336874974e-03,-3.338234525815887612e-03,9.165839947466943721e-03,2.172933667898178101e-01
2.177670186120123086e-01,-5.761597480965607865e-03,2.157829253475692932e-01,3.356480964327039455e-03,-8.473176010167479720e-04,3.097065071903076783e-03,2.226885855197906494e-01
2.200423032139129931e-01,4.655714124131848930e-04,2.190786143814069664e-01,4.565422912887390217e-03,-8.743872490333331419e-04,3.644125897688990645e-03,2.193351984024047852e-01
2.200437355773894599e-01,-5.565835968841387205e-03,2.007777830603493241e-01,-9.514320077042726087e-03,7.000590986719951517e-03,9.890144795788919155e-03,2.182574421167373657e-01
1.932133421976592880e-01,5.075484632092147619e-03,1.949571050010125151e-01,2.743942877232138575e-03,-8.611805990095016544e-03,2.811943999253214803e-03,1.897254884243011475e-01
2.478628009947198563e-01,2.783448849701791739e-02,2.426116559123160377e-01,7.095652946362914935e-04,-8.778930019611044886e-04,3.503179105227379690e-03,2.175437211990356445e-01
2.282095744398023873e-01,4.713176612873709592e-03,2.239322747483379339e-01,-3.487770320087324981e-03,-4.086302902851761550e-04,4.789320997649253696e-03,2.216275781393051147e-01
2.237847974617030999e-01,-2.772179298680371717e-03,2.196308156324210670e-01,-2.662948461340056486e-03,-4.143437855451488676e-05,4.237711004547955670e-03,2.246761173009872437e-01
2.293166868507918177e-01,3.048389569349968520e-03,2.295643213862634813e-01,-2.704520819705802989e-03,-2.183379319003995577e-03,2.941398750480214881e-03,2.265295535326004028e-01
2.265301407251066323e-01,2.356609131368231358e-03,2.332402316364865502e-01,-2.182003155131769477e-03,-2.651517968954189390e-03,1.289980808434078611e-03,2.276914417743682861e-01
2.250392576570598713e-01,-9.029602426611493815e-04,2.237767142350748917e-01,-4.369894640603349590e-04,-5.537293188258677083e-04,1.169047182547626419e-03,2.253260165452957153e-01
2.292704656931248974e-01,1.341888601962853977e-03,2.236611501995948159e-01,-7.711610729814947606e-05,3.305993043287563113e-04,4.146152364298640904e-03,2.252915799617767334e-01
2.210306520432671618e-01,-7.136409660632253571e-03,2.024178356388479649e-01,-7.458646686526460012e-03,7.811424184315007672e-03,1.437503272314767135e-02,2.216521799564361572e-01
2.195953708647556402e-01,-6.563800644771217163e-03,1.991494923621193180e-01,4.867629953640101266e-05,-1.154514746447386688e-03,9.641648909509208457e-03,2.173128426074981689e-01
2.360597211656348116e-01,2.791398000696920789e-02,2.654208836926467141e-01,9.128638163196329397e-03,-1.161010214953935721e-02,6.072170305005854772e-03,2.259715050458908081e-01
1.939655865453548955e-01,-3.784824687793453268e-03,2.345533174632678797e-01,1.529840354730211890e-02,-4.793623310365141034e-03,-3.304304139111524912e-03,2.226716130971908569e-01
1.857903995210180015e-01,2.105839803839168467e-02,2.826930836256427160e-01,1.985555054984150525e-02,-7.988109212868245781e-03,-1.599018464144812005e-03,2.321024835109710693e-01
1.847696417192211948e-01,6.220119179136951448e-04,2.372430326456104188e-01,1.063945844114415687e-02,1.856439756727181443e-03,-2.701773648178076945e-03,2.160983383655548096e-01
1.992599944022330205e-01,1.104224168068665413e-02,2.439256572526218858e-01,8.423785742136037993e-03,-6.830653333625033748e-03,-2.440121726000736590e-04,2.148972898721694946e-01
1.480630783665136951e-01,-2.302779453979569846e-02,2.125648240294872315e-01,2.081422249988856832e-02,-8.408045079342296030e-03,3.702115961049614636e-03,2.145253419876098633e-01
2.181435763970276942e-01,1.967040932127445130e-02,2.493753540980510330e-01,8.730010989620382023e-03,-3.618516010926620292e-03,2.806818924197024018e-03,2.164653539657592773e-01
2.199437405816064284e-01,2.180588992099802281e-03,2.284010831850034895e-01,6.553882011159650918e-03,8.885306895923971067e-05,2.408816993499750606e-03,2.224416881799697876e-01
2.343984547607926017e-01,7.290040612592807445e-03,2.372039531809758683e-01,4.488714984233077403e-03,1.722916770187211217e-03,3.891937110751371876e-03,2.287750989198684692e-01
1.978823888068377834e-01,-1.169315317502045426e-02,2.195165169740510014e-01,1.059379484218005672e-02,-1.616465199188643316e-03,4.707587982971821183e-03,2.221146970987319946e-01
1.931116382333773474e-01,-1.024027444068004167e-02,2.014025163021993525e-01,-2.052400776215273018e-02,2.392811443318640721e-02,1.531148353019359809e-02,2.163131982088088989e-01
2.303944110904417863e-01,2.379897776692885270e-02,2.322367993536134101e-01,-6.276098137859273179e-04,-1.547616671511613164e-03,1.029963474280740608e-03,2.075505852699279785e-01
1.856568100632810803e-01,1.135035556765090492e-02,2.306652841378749041e-01,-1.720779104813785487e-02,3.835709056078030060e-02,1.233460750540380305e-02,2.145048230886459351e-01
1.959042346835030146e-01,-8.294068319715158788e-03,2.024118293086197562e-01,-2.241469454184298951e-02,2.327427136309483113e-02,1.726514407095506784e-02,2.170131802558898926e-01
2.188498609123376015e-01,6.022405770765126842e-02,2.920041725461972604e-01,3.976715818604868724e-02,-4.566755458597675926e-02,3.184261524427031698e-02,2.369822263717651367e-01
2.193919919443555466e-01,-1.820432003875077642e-03,2.178262938112068003e-01,-3.234019399445445773e-03,1.160133544693155855e-03,-9.612566602677350856e-04,2.205203473567962646e-01
1.279529087703205059e-01,-9.640462126437002177e-03,2.125970260882136809e-01,1.581961722560278061e-02,-7.586834320817653632e-02,1.228775241507367756e-02,2.370965927839279175e-01
3.849304545208656614e-02,-5.298834872044916322e-02,1.895773698539295893e-01,1.508872871507776700e-02,-6.549445021863610494e-02,-1.790733484103687232e-04,2.420090883970260620e-01
2.220297245143001419e-01,-4.793598860634296077e-03,2.229132089192996657e-01,-3.360867373291169047e-04,2.695728406468974572e-04,5.563938462255826325e-05,2.272675931453704834e-01
1.230655158491405221e-01,-1.964437772670343807e-02,2.131290256052975063e-01,1.805255142146667408e-02,-7.940446334092550462e-02,1.441765524399555957e-02,2.486905753612518311e-01
1.969157488245962540e-01,3.674001921757474864e-02,2.792641377163802008e-01,2.468874682438356241e-02,-1.014175331287736903e-01,9.008246305679696100e-03,2.802790105342864990e-01
1.710038339319927547e-01,1.879202170053995147e-02,2.595951383650962896e-01,4.311560317035797313e-02,-4.419509477999671726e-02,1.400567904025370146e-02,2.377529442310333252e-01
2.265961045974268229e-01,3.266675411670721951e-03,2.158389068252321019e-01,-8.929776048574209271e-03,9.212247994167135565e-03,7.816493122412504491e-03,2.196962982416152954e-01
2.225347837933108197e-01,1.008965727792990319e-02,2.041452703493271681e-01,-9.059786833984832810e-03,1.523222600040093598e-02,1.375934835746355986e-02,2.075442224740982056e-01
2.173039472785853743e-01,1.330373674072646284e-02,1.889194288063848759e-01,-1.017915435961665171e-02,1.970322938680776209e-02,1.118597480684723616e-02,1.961687952280044556e-01
2.317591484712048788e-01,1.096181962278669486e-02,2.080079154893984261e-01,-5.673420556556499003e-03,6.949394631475655851e-03,8.325675443075586032e-03,2.109994590282440186e-01
1.939333853921190454e-01,-1.654012773743968046e-03,1.763295145974097256e-01,-9.821608033766478230e-03,1.909893618606542387e-02,1.133812318529406858e-02,1.920692324638366699e-01
2.194927074188117722e-01,2.530280837546525219e-02,2.183234712268142252e-01,-1.156614541305631821e-02,2.786887012233538533e-02,1.025541072747416897e-02,2.013228684663772583e-01
2.358138927819588004e-01,8.545144807193510994e-03,2.108865245968605806e-01,-1.854726071490396880e-02,2.025757092108028054e-02,2.100966740167069247e-02,2.240414619445800781e-01
2.474241898868325129e-01,3.686847621712027734e-02,2.423514984695083196e-01,4.884727657054011192e-03,-4.030596696229638183e-03,8.110716427463126113e-03,2.088277488946914673e-01
2.574669722417424200e-01,4.443052545360468009e-02,2.492290214703710982e-01,6.239750679220945617e-03,-2.101144694767422515e-03,8.632072259083625396e-03,2.098832875490188599e-01
2.279243416451413595e-01,1.234785676630006934e-02,2.288667665071488777e-01,1.321705900506822543e-04,5.324781307644273556e-04,6.297113236530991424e-04,2.160540819168090820e-01
2.652154049909891675e-01,3.997181611176753302e-02,2.512206837588921715e-01,2.639093815298330058e-03,-1.667505317515884143e-03,1.546866492461350211e-02,2.202847748994827271e-01
2.445494090574336088e-01,5.033897776380330535e-03,2.064078821967934574e-01,-9.061952218560464720e-03,1.310280396108505193e-03,1.573544908858647701e-02,2.251250594854354858e-01
2.388863413536446711e-01,1.488128569313235117e-02,2.400180517968153460e-01,3.357532690077767376e-03,2.929476705307777762e-03,8.226721575965692881e-03,2.251569628715515137e-01
2.275950106594897271e-01,3.425478669616677241e-03,1.900276724405447482e-01,1.875546225611457452e-02,3.503714897691442842e-02,-2.278541017100088259e-02,2.225701361894607544e-01
2.336971072396349380e-01,-5.453808974502039053e-03,2.003688193360151359e-01,5.407865314378828940e-03,6.326007320096685947e-03,-5.958849688713328124e-03,2.250505685806274414e-01
1.944355324837063748e-01,8.140061760559993975e-03,1.868838382803764131e-01,3.502845710676921916e-03,4.950515734002138013e-02,-1.641384762752353538e-02,2.038467973470687866e-01
1.842011640832375563e-01,-1.381474908209233410e-02,1.468839036695971934e-01,7.660295410405497038e-03,4.869141619292902123e-02,-9.803617243022878444e-03,2.019663453102111816e-01
2.277740049513654053e-01,5.835580917265631440e-03,1.927689432647408108e-01,1.236382094981517722e-02,1.800640236296584609e-02,-1.363981837063225552e-02,2.114295810461044312e-01
2.067943294123119058e-01,-1.386974976065050158e-02,1.734471658977116693e-01,7.423765315087875634e-03,1.225967972696873944e-02,-1.267687287282096356e-02,2.086731791496276855e-01
2.237570917608318610e-01,-2.847019665384670217e-03,2.241647912817235633e-01,-7.661545365417213272e-04,8.325565770013003929e-04,-3.989743568223335268e-04,2.268177568912506104e-01
2.481159471712941766e-01,5.924350498701574930e-02,2.486286528371831062e-01,-3.051089207034597250e-03,-2.150787734492806778e-03,3.279211947763797323e-03,1.893250197172164917e-01
2.358064462554903817e-01,3.019676455824940597e-02,2.390163439668412937e-01,-3.020043801742061228e-03,1.025656783695594917e-04,7.541254007460228672e-04,2.073034793138504028e-01
2.304828377556336072e-01,3.032348519167243905e-02,2.386637907414856929e-01,-1.976858962199334055e-04,1.269812446674200277e-04,3.751734965527763702e-03,2.044763565063476562e-01
2.230418695250697414e-01,-3.306102579402697694e-03,2.261553096159059084e-01,-8.560094454789272077e-04,9.991125404140370047e-04,-5.039949739274194110e-04,2.279337048530578613e-01
2.147897088710268299e-01,-6.576392079019027781e-03,2.162911619365762705e-01,-2.602757496916171653e-03,-1.675248706928759729e-03,-2.049037026004630387e-03,2.222136706113815308e-01
2.166739760176331075e-01,-8.545673348092364119e-03,2.134264340183050779e-01,-3.479459336506797971e-03,-1.211201019840687978e-03,-3.761731157834075166e-03,2.237994670867919922e-01
2.212293812475054078e-01,-2.816748685052800072e-03,2.214395188511880663e-01,-3.011881869760520223e-03,3.262271324177606815e-04,-2.380311456353252902e-03,2.242505848407745361e-01
2.238955749540265661e-01,4.323455806061943241e-03,2.225059699352096299e-01,-5.008980660003450880e-03,-8.148663911403179706e-04,-4.267697659481280333e-03,2.191817313432693481e-01
2.242167194648099771e-01,-1.954948068502815328e-02,1.621090541147552355e-01,-2.498703392740584100e-03,-5.509811241218601392e-03,-3.627829577656158794e-02,2.284682095050811768e-01
2.245061161421308960e-01,3.105184138406380523e-04,2.015884714195220473e-01,-3.635275729943774140e-03,-2.106486341861146024e-03,-5.703981130718278978e-04,2.137867659330368042e-01
2.296681790558104674e-01,4.472533779567633427e-03,2.224400379788891435e-01,2.482768966667543969e-03,-3.560889709699904013e-04,-5.027151621773008616e-03,2.218834608793258667e-01
2.243163219842687073e-01,-1.474598851817054967e-03,2.252809407837429723e-01,-8.950549237991076851e-04,2.668605246175703629e-03,-2.740251933514327443e-04,2.263277769088745117e-01
2.258066766815355342e-01,-7.708492587019472042e-03,1.972299125439076761e-01,6.630546365033984126e-03,1.171964915384582882e-02,-1.219064231870749769e-02,2.228511571884155273e-01
2.538826523987500750e-01,1.016601412533704729e-02,2.177886165694060683e-01,-1.091363417239357789e-03,5.263472830370491927e-03,-1.902005566211583537e-02,2.303819358348846436e-01
2.544707835589337663e-01,1.549302437047650471e-02,2.170199204607286270e-01,4.320421758606732623e-03,8.610127084342691223e-04,-1.847809762417679594e-02,2.250456809997558594e-01
2.560107315180295551e-01,1.381787558261005078e-02,2.186109530371355136e-01,-1.523563044994627729e-03,2.849212686400142292e-03,-9.903352307038541108e-03,2.265473753213882446e-01
2.119500684242909272e-01,5.826048726534971411e-03,1.785552365394827701e-01,5.336217464399693917e-03,4.351421851322465929e-03,-3.637715587629384521e-03,1.920957565307617188e-01
2.138932033624973139e-01,3.772738022858018736e-03,2.223762931169546708e-01,3.778680109453001323e-03,5.179098620316127492e-03,-5.670495628036766912e-03,2.149995565414428711e-01
2.070679890871208739e-01,6.002023077192053524e-03,2.102395818923748216e-01,1.139322785281432146e-02,2.513172288709867100e-02,-1.572569595105707818e-02,2.100033313035964966e-01
2.156071214097616262e-01,1.224048314285930417e-02,2.056064670375413184e-01,8.242530103733634178e-03,8.624034376724161455e-03,-6.243519644503855992e-03,1.999202072620391846e-01
1.712125725862384540e-01,-1.561599524590043253e-02,1.877968492991272664e-01,7.774090751356849127e-03,1.887285524425400332e-02,-8.731526493497752950e-03,1.993914544582366943e-01
2.019225220215792316e-01,6.307571076360402040e-03,2.080393085969263478e-01,8.491042684523249576e-03,1.191878557838165452e-02,-9.083350240901465894e-03,2.009705156087875366e-01
1.954891415037930957e-01,9.592013545773048211e-04,1.993845707247171029e-01,8.267875431439331360e-03,7.236616638578679921e-03,-7.383397235811414543e-03,1.978397667407989502e-01
2.260358894839919475e-01,4.347027965879567135e-02,2.323288899215484593e-01,1.240689430246413524e-02,4.631790849302533375e-02,-1.213570164577007851e-02,2.045931369066238403e-01
1.837586508903095439e-01,1.268830756638947288e-02,2.645161088650574421e-01,2.232420404621005688e-02,-1.339397303402273601e-02,5.370622695649964091e-03,2.274244278669357300e-01
1.539976743831481532e-01,-3.194642984206985670e-02,2.148582038198132427e-01,2.580167231582879139e-02,-1.017976522706648748e-02,3.656125089273870934e-03,2.279123365879058838e-01
1.766605503997281668e-01,-4.513763030477874194e-03,2.363997010803070564e-01,2.054520309860395286e-02,5.988118563489355610e-03,6.688218534825874674e-03,2.207355499267578125e-01
2.158253570151628109e-01,9.611194248576038213e-03,2.142803663110834922e-01,4.967833492374642418e-03,-5.278791700798915985e-03,4.648167888156909920e-03,2.059866935014724731e-01
2.156638969718042143e-01,-2.771777780779804967e-03,2.086415517802837072e-01,5.330536278377345782e-03,-3.125428702601587561e-03,4.304511622311222099e-03,2.154058068990707397e-01
2.136995610972798609e-01,8.451109637415493703e-03,1.585641580225125580e-01,2.578919705064454566e-03,7.886740505069664633e-03,-4.328413326487231920e-03,1.846974343061447144e-01
2.330529588514796968e-01,2.621025273546329082e-02,1.861841616751507000e-01,1.835366844240960077e-03,1.228067979966635838e-02,-1.721797526368411282e-05,1.890731900930404663e-01
2.493849642778912801e-01,2.371354810466978769e-02,1.560041877130997623e-01,4.357000347770748593e-03,1.348718235833447181e-02,-8.474460718555129309e-04,1.979368627071380615e-01
2.503524433832949869e-01,2.769671245891680567e-02,1.625435714807266507e-01,6.320647903873361992e-04,1.527217054733371639e-02,-3.565236475730217212e-03,1.961475759744644165e-01
2.159673612279028321e-01,-1.737687171983581802e-03,1.428548625394242266e-01,6.913501179452518665e-03,1.241575154198516773e-02,-3.875076665838132327e-03,1.935842335224151611e-01
2.147845630538187112e-01,-3.469942787365662418e-03,1.462808758131469433e-01,4.022337487829410509e-03,1.301708587332557274e-02,-6.924313694243972722e-03,1.951339393854141235e-01
2.227709131796554165e-01,1.005492176398589677e-02,1.643270815610545221e-01,4.904044068660502395e-03,3.512821307061423336e-03,-3.793471880933801683e-03,1.907463669776916504e-01
2.134490459790076566e-01,2.515699424400011375e-03,1.448937891858201321e-01,3.358824637570763383e-03,1.643777680257570151e-02,-3.242867442792456752e-03,1.887010931968688965e-01
2.481980755420832296e-01,4.398336148073000995e-02,2.542582951660012358e-01,2.025499925858414291e-03,1.282474540485334467e-03,2.654545049635759820e-03,2.074038237333297729e-01
1.874575004065228145e-01,-8.675621588058929357e-03,2.227001813846690992e-01,-1.223852760713770547e-02,-5.623354664877403247e-04,-2.384792808803488321e-03,2.170019745826721191e-01
2.306413899997354355e-01,3.456698351401712999e-02,2.912994908622231760e-01,-1.339337910829640002e-02,-6.700495520612465353e-03,-6.739971738218385709e-03,2.341520786285400391e-01
2.334912710754727116e-01,1.213228182875528138e-02,2.393759613098292438e-01,-1.407794301620714228e-02,6.979170569663255622e-03,1.439298563542655346e-03,2.260176241397857666e-01
2.672359933760704021e-01,4.546883500117163135e-02,3.013745301031743873e-01,-1.331163849809832017e-02,-4.025205505405908546e-03,-2.491025891011721879e-03,2.419002652168273926e-01
1.899678161415804256e-01,1.279896874662228567e-02,2.087168980098932924e-01,3.728493516858099981e-03,7.619090618419154665e-03,-3.383486838024075266e-03,1.879156231880187988e-01
1.770328573400816730e-01,1.018933382926356934e-04,1.863824025577777155e-01,1.909760219465893999e-02,5.347331357971662341e-02,-1.257505622813486629e-02,2.078291177749633789e-01
1.949006553708509948e-01,2.113174660450202469e-02,2.067304799025274642e-01,4.694902809798131259e-03,3.417198534878383015e-02,-9.557659504216720059e-03,1.903538256883621216e-01
1.710622848317657485e-01,6.117873644453930559e-04,2.178965091585974012e-01,6.691712362795135781e-03,1.539776970230334607e-02,-8.263280987166622335e-03,2.006992548704147339e-01
1.462849542832232452e-01,3.485772927825536716e-03,2.171113273322969883e-01,1.143866657181641378e-02,5.509728155561939567e-02,-5.986614220740433222e-03,2.124361246824264526e-01
1.427051702552358803e-01,-2.514796891899817588e-04,2.085441088938378151e-01,1.977383919405226870e-02,2.960846147727167615e-02,-6.056894311419636773e-03,1.951833516359329224e-01
1.479536255159276392e-01,7.167122287184829466e-03,2.603863631619486307e-01,2.885071856776053739e-02,5.785651182722825747e-03,8.351484711214825912e-03,2.260480672121047974e-01
1.553193678665402977e-01,-1.364827785021588413e-02,2.250057074886101516e-01,2.065526101659396346e-02,-8.455052037970341508e-03,5.704048761752673717e-03,2.162706106901168823e-01
2.187612782263072819e-01,-9.071517453021926691e-03,2.030951532752020283e-01,-6.341303688021456171e-03,-2.089417730469860911e-03,-9.833924407774594437e-03,2.213770598173141479e-01
2.108746658088050674e-01,-7.066588181284749748e-03,2.106414344339064271e-01,-9.000259005391281208e-03,-7.429686446543348755e-03,-9.799024765829571562e-03,2.194180786609649658e-01
2.182675784402595132e-01,5.248834170863608817e-03,2.196002950069593784e-01,-8.967476064469475164e-03,-7.434428003613253663e-03,-1.333144364578190202e-02,2.158770412206649780e-01
2.089806083229659717e-01,-2.371961870019317908e-02,1.635493392240401911e-01,-1.199033056092519908e-02,-1.863514854670362403e-02,-2.026989252140056971e-02,2.198800742626190186e-01
2.125802198894549133e-01,-9.380666723808023244e-03,1.794393317202827576e-01,-7.440966064750863772e-03,-1.587595423319878088e-02,-1.492618932785330470e-02,2.111861407756805420e-01
2.254898554452510473e-01,-3.238304326173196968e-03,1.831243980988283560e-01,-1.007135990703237650e-02,-1.590082025295274509e-02,-1.631788020052255678e-02,2.151345014572143555e-01
2.158761337164756267e-01,6.784934491689653679e-03,1.757080655472651187e-01,6.639809155907054616e-03,6.902915514250049581e-03,-3.406491207592158080e-03,1.929866224527359009e-01
2.064716496297917536e-01,3.524842143202061573e-03,2.089915746663235097e-01,-3.448477258529131836e-03,6.368184337978189530e-03,5.552046237961154838e-03,2.048291563987731934e-01
2.128730121044037360e-01,1.787615831056105220e-03,2.180471867792323493e-01,-2.702030455035825656e-03,1.160382688668469857e-03,4.761430120691654243e-03,2.139391601085662842e-01
1.966799735749455713e-01,3.476479481189204135e-03,2.193338646078188403e-01,-4.090916292615396320e-03,2.127446818780620412e-03,6.588406018512101350e-03,2.059407830238342285e-01
2.054912971599749671e-01,7.298573049450307604e-03,2.170089017572282009e-01,-2.870935942741309737e-03,9.232425500204482702e-03,6.395346580380472518e-03,2.051800638437271118e-01
2.076332784239166562e-01,-3.622388430588985297e-03,2.201363209443150115e-01,-3.018538966185460928e-03,1.317606179615814221e-03,5.423211397214300344e-03,2.180536538362503052e-01
1.859302112906209836e-01,-8.090794787030869406e-03,1.726519978813728096e-01,1.465421362635512155e-02,-5.285481051607553854e-02,1.477134144370019497e-02,2.119526267051696777e-01
2.181167069038869588e-01,8.504434997752940983e-03,1.729657291587636536e-01,4.978512605150693486e-03,1.289910725598505080e-02,-6.880874038175522137e-03,1.929437071084976196e-01
1.783214314612299456e-01,7.167946533695374045e-03,2.045537201715483255e-01,4.759036858551458568e-03,-3.238177698840635776e-02,5.063193310342775470e-03,1.943244338035583496e-01
2.172028255686721532e-01,3.040868828603379703e-02,2.297374077323585673e-01,1.148106692455347702e-02,-2.002519113094849285e-02,1.395260978649412106e-02,1.989297568798065186e-01
1.265433285687576903e-01,-1.469961021546725699e-02,1.697603377966418470e-01,8.566561238240460660e-03,-5.567671930303953742e-02,5.663465031295413649e-03,1.937458366155624390e-01
2.219952686139327058e-01,-3.495396241069675947e-03,2.218400643960954932e-01,4.299780847571768854e-04,3.701380032431648504e-04,3.439115329481254313e-04,2.254160344600677490e-01
1.892684093505991871e-01,2.858852981894541290e-02,2.075101371722891108e-01,7.612856463541617727e-03,-3.276750652244220241e-02,3.270624547084479035e-03,1.803023815155029297e-01
2.134754769061180668e-01,-3.882370811233076813e-03,1.853840090442604727e-01,6.657774846322807825e-03,5.375727045705434512e-03,-6.004054909122699853e-03,2.055613845586776733e-01
2.167942285522078683e-01,-7.205108502945672955e-03,2.149065552601014395e-01,4.032122643613968507e-03,-9.013987999593236957e-04,3.662522113917709987e-03,2.232663929462432861e-01
2.191527341756918656e-01,1.298742968027788436e-03,2.189905747908529876e-01,2.700048739925539707e-03,-3.544092240358422065e-04,2.902580353063792269e-03,2.178820371627807617e-01
2.167440327038029357e-01,-2.664708574667801200e-03,2.184309116992507183e-01,1.889254398332117224e-03,-7.615010467464278406e-04,1.206720194983760793e-03,2.202951908111572266e-01
2.156042281858834286e-01,-7.402383857779998300e-03,2.144830198977585867e-01,2.815547248001769136e-03,-6.581638192455109690e-04,2.602307981510710699e-03,2.225501388311386108e-01
2.234492781216133594e-01,3.360887673221596428e-03,2.216314896696888193e-01,5.790316258913076955e-03,-5.256659565382744805e-05,4.820798728754475439e-03,2.195733189582824707e-01
2.181201687188424887e-01,-4.658823936768252683e-03,2.184226212736688211e-01,1.689911672934229061e-03,9.274840740647816910e-05,1.065847643858851626e-03,2.229572832584381104e-01
2.179541923785068280e-01,-1.019247836628855985e-02,2.134620520330259286e-01,8.546765695184820738e-03,-1.590079376045683973e-02,1.291061094276890059e-02,2.291809618473052979e-01
2.288709909949967480e-01,6.096915206787678621e-03,2.152362264821230942e-01,8.196021925142368478e-03,-1.434284693003763482e-02,8.191909218382481192e-03,2.186246067285537720e-01
2.082367037944116428e-01,-8.496893703361624306e-03,2.319379051158829974e-01,4.908817099443175264e-03,-6.143297246019105949e-03,5.166318574445381492e-03,2.300817817449569702e-01
2.177960892756092559e-01,-5.999739303002737945e-03,2.171235694543760253e-01,2.249053796370114808e-03,-3.007524943758998169e-03,1.977198248676485543e-03,2.235812097787857056e-01
2.234081508994257836e-01,-2.463875420907479796e-03,2.250557246342725914e-01,9.397780000170160436e-03,-1.508910754912911451e-04,1.096520294516360565e-02,2.280762046575546265e-01
2.300352936135832693e-01,4.049815084488955774e-03,2.282768462439536405e-01,7.404892776638831095e-03,-4.704574879680843355e-03,4.398610117620814844e-03,2.257522642612457275e-01
2.172152504478794266e-01,1.061881934299505059e-02,2.392526427418216195e-01,7.526189126196222712e-03,-5.344309942396061356e-04,-1.840879714578340636e-03,2.188641875982284546e-01
2.078852498406116855e-01,2.845164256266213831e-03,2.129914929935945445e-01,1.325713194229385678e-03,-1.193256185740072372e-03,-2.011187413898578389e-03,2.076925039291381836e-01
2.247054059775794310e-01,7.760512470046693201e-03,2.236970927029965639e-01,1.288402337896409544e-03,1.270408927517963256e-03,1.177907622839735689e-03,2.164748013019561768e-01
2.293788098647984164e-01,1.092319798037932888e-02,2.229365991632977217e-01,1.587995424445605083e-02,3.324772200562833152e-02,-1.648019649040271747e-02,2.263726145029067993e-01
2.407307975830921265e-01,1.263351688797748062e-02,2.324388140238947964e-01,8.218986584600433340e-03,4.019324415917415426e-03,-1.029303018536528030e-02,2.253324389457702637e-01
2.233491238266406831e-01,-1.165769246019615624e-02,1.688283207118101148e-01,8.241793574105663045e-03,4.281169135831007500e-03,-1.865283232381633252e-02,2.160798758268356323e-01
2.246512782942023390e-01,5.866932261150425987e-05,2.112993648819081194e-01,1.516756825554925643e-02,1.196125164846027766e-02,-1.379862238655125278e-02,2.220629602670669556e-01
2.473316099512301025e-01,2.302235491047047167e-02,2.248546145709318100e-01,8.657923583540496834e-03,1.494139424906751161e-02,-1.464818701417794355e-02,2.175232917070388794e-01
2.288123754605637383e-01,6.177667747699233658e-03,2.252868783159078792e-01,4.534070950437091296e-03,-1.096273473140982704e-04,-6.067166634811386322e-03,2.212823629379272461e-01
2.368099068689206166e-01,7.656160461298883169e-03,2.160543361553942387e-01,1.879972846774463982e-02,1.054588251946435296e-02,-1.451193501932392625e-02,2.240797728300094604e-01
2.280571066607623432e-01,5.264854166649179934e-04,2.084542397213750009e-01,5.671663013335679314e-03,1.095427259084664172e-02,-1.719630266661277898e-02,2.214448750019073486e-01
2.226674053343860316e-01,-9.959990511072852604e-03,2.005396816349598599e-01,6.943620416628991029e-03,1.169931932600576027e-02,-1.265158695387569657e-02,2.247066497802734375e-01
1.968350859320740220e-01,-2.356658165301070418e-02,1.589679712745085405e-01,8.525525877397573810e-03,1.851772087142197765e-02,-1.345961470552023247e-02,2.084588557481765747e-01
1.653819645539447991e-01,2.132176501574389871e-02,2.141303298657998289e-01,1.696257471836569225e-03,1.262630453866365673e-02,-3.395395280820501238e-03,1.751397550106048584e-01
1.532564356675767958e-01,1.994380520908239918e-02,2.289631130319063068e-01,1.299192601365027622e-02,2.126475362084224996e-02,-6.165309346983688203e-03,1.886090934276580811e-01
1.659369763945553189e-01,1.155788553791506357e-02,2.323361239870030404e-01,8.900216157076428977e-03,9.936150959039959790e-03,-3.565336148884934008e-03,1.976470351219177246e-01
1.423000320168556765e-01,1.698198657019694968e-02,2.362137935672130318e-01,4.127805398930816348e-03,1.559816243577217057e-02,-1.952405498262050265e-03,1.925771385431289673e-01
1.627245302797959980e-01,3.060496913721050261e-02,2.561804667132974167e-01,-6.068174324527266785e-04,-5.115323742351861151e-03,1.566772758147885096e-03,1.965296864509582520e-01
1.780693526436947505e-01,3.479775315937207181e-02,2.435356001499690282e-01,-6.666557158377082754e-04,8.929847088831774707e-03,-2.144641215802281509e-03,1.855973899364471436e-01
2.411515259144855483e-01,3.043258937408700737e-02,1.721284277724655920e-01,-4.557784644170220258e-03,7.025709624536155551e-02,6.138337073985477253e-03,2.227234244346618652e-01
1.827774159136578147e-01,-3.377566443067120394e-02,8.543548741541796832e-02,-6.718633128941726984e-03,8.210006013996190566e-02,6.594718250890301003e-04,2.359003573656082153e-01
1.478147355689647391e-01,-2.670021162022058470e-02,1.320803976061937779e-01,6.191911645940862026e-03,5.274604508880938181e-02,-8.301803117298433080e-03,1.913775652647018433e-01
1.118227625999764635e-01,-4.360611881417120195e-03,2.722423796524338080e-01,9.447984597691055919e-03,-9.106514955224163932e-02,2.548051251100823256e-03,2.881613671779632568e-01
2.330015630397698767e-01,8.545877679692504003e-03,2.338766902950118465e-01,-8.665740359622423755e-03,2.103839130103029188e-03,7.387913197826866292e-03,2.257871925830841064e-01
2.491166913291614216e-01,1.897637367546944898e-02,2.430054674265566539e-01,-6.430492267126682211e-03,4.202303701427406724e-03,7.764811008686318961e-03,2.279328405857086182e-01
2.181846747697556710e-01,-1.055757189114245320e-02,2.010530265721527376e-01,-1.448542032493650364e-02,1.486851065578133173e-02,2.255538436868246080e-02,2.269729375839233398e-01
2.164240608911373598e-01,-1.233370997398636204e-02,1.890675718559398644e-01,-2.350928661285597854e-02,3.822660108640283522e-02,1.821162942774101276e-02,2.320718765258789062e-01
2.252881045703209739e-01,1.889374426114104333e-02,2.529229817630141985e-01,-1.579052404830989451e-02,2.273852880831335813e-02,1.935228597153260469e-02,2.291040718555450439e-01
2.362214436795126438e-01,1.282296896995530067e-02,2.391406771727095371e-01,-6.097709349992944117e-03,4.602007754722517961e-03,9.854153233638621515e-03,2.259069383144378662e-01
2.214089876478909091e-01,3.424806971059457528e-03,2.157834967082450650e-01,-1.197216437635428496e-02,1.584816317639687472e-02,1.099667261408837984e-02,2.187892943620681763e-01
1.514801814425162374e-01,5.915480519428112371e-03,2.445179246631210002e-01,-1.187623974903745730e-02,2.398226786754868983e-03,2.169809706833784185e-03,2.093863189220428467e-01
2.338651446549746826e-01,5.573915688602798513e-03,2.264800434878732338e-01,-6.788473706686681992e-03,9.722625082881511047e-03,8.806471587337950588e-03,2.261414825916290283e-01
2.181586965132121803e-01,8.625268470128233389e-04,2.115740741578207573e-01,-9.290293019773755365e-03,9.085440476317027669e-03,9.383025248971469875e-03,2.158723175525665283e-01
1.967985719509997011e-01,2.480820415360379672e-03,2.293228220783249116e-01,-8.091879653395781663e-03,3.682635112018748519e-03,4.683685648079119056e-04,2.130141556262969971e-01
2.331930911994422595e-01,8.664544634274518042e-03,2.290495269138291545e-01,-3.121961137182341361e-03,1.977794007484268580e-03,4.719564123845353121e-03,2.227278351783752441e-01
2.175540826550700080e-01,-6.208194913345899124e-03,2.167618547107874050e-01,-2.287074967226150352e-03,2.983185667385188523e-04,3.414767303056294445e-03,2.234812229871749878e-01
1.565341009044684539e-01,3.219438486309822434e-02,2.858985382007326326e-01,-2.290772930312841640e-02,-4.192384594250783518e-03,2.937978524439938902e-03,2.234582155942916870e-01
2.308322303489579452e-01,5.079021980525039170e-03,2.287599756451976496e-01,-3.883548782937971955e-03,-3.416322746587329567e-03,4.039530619488901526e-03,2.250115573406219482e-01
2.059252817571392835e-01,-4.354596535984522898e-04,2.409335038955125463e-01,1.787060143110848556e-02,-4.702782262049867885e-03,6.440243871384910093e-05,2.281646132469177246e-01
2.220047461444400738e-01,1.088044435711377211e-02,2.443385223417091356e-01,1.278589637405012913e-02,5.357840949073978259e-03,-1.646356613267114361e-04,2.244194895029067993e-01
2.229430291642846562e-01,-9.002528376214347094e-04,2.223421611111245366e-01,3.587753575333003627e-04,2.624266914866041529e-04,5.712726214692192411e-04,2.235469669103622437e-01
2.250546273142171594e-01,1.769170533894109942e-03,2.265297448570025018e-01,2.337893551892644174e-03,-8.590457861163534490e-04,-6.762838958382448020e-04,2.240712493658065796e-01
2.283774498550150134e-01,4.937514364614953299e-03,2.301580630766156266e-01,1.925749361991940800e-03,7.597370074808145997e-04,5.977230394763405818e-04,2.243665903806686401e-01
2.252381263159341507e-01,3.840379340483562887e-03,2.328938547717570029e-01,4.218743171272337084e-03,3.443552669510357859e-04,-1.600506086161504818e-03,2.254594564437866211e-01
2.269583446608438582e-01,9.726822358604558794e-03,2.250385927646434969e-01,2.943339347282697936e-03,-1.836208377716391511e-04,-3.154508302181238460e-04,2.163390368223190308e-01
2.260589031048565456e-01,1.221688445173257920e-03,2.280491340203959494e-01,5.142958691375735733e-03,6.990009314370663335e-04,-3.488437567603008480e-04,2.260185629129409790e-01
2.245570903934399898e-01,9.333639369932006380e-03,2.307873954065304822e-01,3.755243045124135020e-03,1.162014810345650666e-03,-4.630266457388337235e-04,2.185128331184387207e-01
2.205914402145136011e-01,1.499467678908988910e-03,1.952237381099607982e-01,7.463913132426562742e-03,-6.438217840911140619e-03,5.639758328262702534e-03,2.085038572549819946e-01
2.209558664627054303e-01,-5.813442152673653496e-03,2.157106272616720610e-01,3.283177461594941927e-03,1.190788404749506396e-03,4.810779467594217089e-03,2.244290411472320557e-01
1.640359931354619938e-01,2.478889002777596995e-02,2.425452164148184098e-01,1.392664495916537924e-03,3.381310727718233548e-03,5.845232551327525852e-04,1.911198049783706665e-01
1.860701007007774521e-01,2.399312281094168053e-02,2.310361112286212770e-01,9.419139401461034539e-03,1.627209614648400873e-02,-6.017485355130482681e-03,1.916976273059844971e-01
1.471318903681745338e-01,-5.179474116887197721e-03,2.035515648799170185e-01,3.590987101292614399e-03,2.167507256233544566e-02,-4.371835069596466741e-03,1.909993141889572144e-01
1.495881598146978908e-01,2.394209429706056769e-03,2.188069771765991378e-01,8.879535427489258434e-03,1.137311163496609184e-02,-5.744424413196809812e-03,1.933118551969528198e-01
2.274721962502236350e-01,3.287134080713682849e-03,2.245393144628898274e-01,3.797891119798447492e-03,4.445458953718374570e-04,4.270428192264840057e-03,2.229542732238769531e-01
2.274918107144989765e-01,1.347645401116592812e-04,2.248490309779081764e-01,1.050036607054938287e-03,2.618902323628868271e-03,2.415344919743338172e-03,2.261387705802917480e-01
2.255625562666685457e-01,8.378447861062121582e-04,2.282355166310041927e-01,3.527781860557873891e-03,1.620945282189070226e-03,3.457023503344529725e-03,2.262522727251052856e-01
2.185455632973097306e-01,6.440315664096862847e-05,2.216462280484226000e-01,3.474726532269328035e-03,-3.379234188021761087e-04,4.158638594262123109e-03,2.202487587928771973e-01
2.257250700493675100e-01,-4.878338751944377716e-04,2.278882424255539441e-01,2.753616061068850460e-03,2.631030748207980295e-03,3.789885578369324003e-03,2.274926304817199707e-01
1.940130385090154674e-01,-4.350627792562566931e-04,2.249271249965066888e-01,1.966956908821467301e-02,2.726260292347135530e-02,-7.005593942062834055e-03,2.198058068752288818e-01
1.977353024589864894e-01,-9.125928524260806807e-03,2.092813528938453627e-01,2.109610937270128828e-02,1.697965497289297132e-02,-1.603910256524151631e-02,2.197387814521789551e-01
1.767708555802940396e-01,-4.678538947564980788e-03,2.286644006472931534e-01,1.975448989958501073e-02,1.269082730899587404e-02,-1.067838330270606990e-02,2.168613672256469727e-01
1.751021144040887656e-01,2.526446594614206731e-03,2.343827840480196545e-01,1.770120221347540670e-02,-3.870503302369646213e-03,6.304868710991588234e-04,2.109812647104263306e-01
1.700857703289377354e-01,1.994209006031558151e-02,2.594537750038627966e-01,-1.325277877409268036e-02,-8.089585291817493395e-04,1.830825570790257407e-03,2.109187841415405273e-01
2.275843052874725325e-01,7.154353574335858834e-03,2.294940198796568409e-01,8.346907952220617224e-03,2.964586506087847368e-03,-5.497169669672487269e-03,2.221260964870452881e-01
2.364380752597400881e-01,2.219273108613814549e-02,2.383754416856110336e-01,2.706117513253773321e-03,-4.029220013787131183e-03,-1.572791086525294991e-03,2.154019176959991455e-01
2.004069829043622630e-01,-8.269001173007634042e-03,2.287303138811825898e-01,1.239543413742664156e-02,8.792576789259577696e-03,-2.557932757265555124e-03,2.257670760154724121e-01
2.211220347322099822e-01,1.016087204270821331e-03,2.212698197772829389e-01,-9.118412605288204542e-04,-5.859913308815137105e-04,1.803467431776544644e-03,2.202100306749343872e-01
2.037236984068837020e-01,-8.905612431949955221e-03,2.167642799834876843e-01,7.269907641592726795e-03,2.115673797869554486e-03,-5.670426344909813496e-03,2.200512140989303589e-01
2.284379076564471700e-01,3.757408949529222886e-03,2.238301125096366917e-01,7.119658108474099557e-03,1.225535895236096228e-03,-1.083223398765890098e-02,2.235528230667114258e-01
2.211813947580829054e-01,-6.607754429329787405e-03,2.049477234246571133e-01,4.344818233063115973e-03,8.809157117766507668e-04,-4.024394821643795250e-03,2.203658819198608398e-01
9.554477159294574862e-02,2.106479985933384924e-03,2.513769980271030047e-01,-2.851960565249551591e-02,3.954496453705270281e-02,1.630764090652048887e-02,2.355937808752059937e-01
2.244652732582551047e-01,1.858811306054269918e-02,2.228858487794919407e-01,9.795512472138064031e-03,8.791274519666101780e-03,-8.060326825915528279e-03,2.068268656730651855e-01
2.093057106623495978e-01,4.682042134226155339e-03,2.045998349621082069e-01,8.251993177061050719e-03,2.305854161378251624e-02,-1.283738633373108888e-02,2.079034149646759033e-01
2.560938073564970052e-01,3.748973556463530699e-02,2.126925784275975340e-01,1.942006512314594507e-02,5.070661164384900749e-02,-2.899700301884866951e-02,2.270486652851104736e-01
2.292628358884951367e-01,1.950721678923017510e-03,2.238332523731526580e-01,2.270469081752319977e-03,-4.177230709324167854e-04,-4.226489219312691212e-03,2.248013466596603394e-01
2.161662300470233722e-01,-2.533782234702575131e-03,2.143458332319290727e-01,9.002005691111734237e-03,6.767854605418541052e-03,-7.433532355486927728e-03,2.190460711717605591e-01
1.988403754844179083e-01,-9.900129102689336769e-03,1.641392452578465389e-01,1.594997310308414115e-02,-5.496539665181644080e-02,1.004196461153256115e-02,2.183175384998321533e-01
1.925872300771839796e-01,1.456919563641331794e-02,2.126395266879037016e-01,1.175258426933619219e-02,-4.295852294919749043e-02,2.403748337544189123e-02,2.081976532936096191e-01
1.904575053279375929e-01,-9.717326062305797763e-03,2.058319772050399565e-01,2.252428677789235223e-02,-2.922127796197876090e-02,1.682696951468028515e-02,2.198113799095153809e-01
1.466369351880958405e-01,2.098696513165154709e-02,2.646251877523806417e-01,-3.482555514624893506e-03,8.527643657088970763e-02,-6.267440273014949830e-04,2.576589584350585938e-01
1.616280607151523718e-01,1.121835833042605923e-02,2.531204712665077738e-01,2.588504082271384996e-02,3.762161390806314371e-02,-1.685166727089154604e-02,2.277355641126632690e-01
1.554681627473738781e-01,4.419411150423382950e-02,3.417234795557239080e-01,3.729125961691940466e-02,5.503233668881299390e-02,-6.343755565007417122e-03,2.849151790142059326e-01
1.056753076311971740e-01,-2.568920882653411009e-02,2.197569192550124506e-01,3.779339364159510495e-02,5.664021723952678000e-02,-1.540556485058785022e-02,2.447016239166259766e-01
9.957756155024941047e-02,-5.730342600112839357e-02,1.248462851053579459e-01,1.900140647467457242e-02,8.453309323355284732e-02,-2.085707600749010793e-02,2.303043156862258911e-01
1.245273375817087524e-01,-2.538906034139491730e-02,1.938844262396975937e-01,2.616601564443901337e-02,4.956382495082302386e-02,-1.363272963214027383e-02,2.183216661214828491e-01
1.085210970966159760e-01,-1.705158246612219208e-02,2.037473070432897493e-01,2.173736157193847246e-02,7.110851895769015885e-02,-8.423043613247336442e-03,2.315037548542022705e-01
1.513578562904985825e-01,-1.383142441474094486e-02,2.223908626038333392e-01,3.257815535127798340e-02,7.877010698296851854e-02,-3.344405177561197290e-02,2.630984485149383545e-01
2.164486668444780826e-01,-3.920242723189304446e-03,2.177349273663988227e-01,-7.784249529247670892e-03,6.783786377674954661e-03,8.319724169634577782e-03,2.222049981355667114e-01
2.222356761351397814e-01,-3.708632551764734497e-03,2.170094309561720891e-01,-3.546840408061805588e-03,-8.981421457512339386e-05,2.837201173702096676e-03,2.235155850648880005e-01
2.137834659957772443e-01,-1.366490493895128333e-02,1.973881571738430873e-01,-1.556894097962275604e-02,1.356200994081419378e-02,2.179186777703557773e-02,2.257788628339767456e-01
2.314619065288385791e-01,1.657308069542534623e-03,2.027566101960345812e-01,-8.441890045941669377e-03,4.676475888587980356e-03,9.313425780462127393e-03,2.181219011545181274e-01
2.256660955622628861e-01,-1.304903853090039201e-03,2.212361647129474918e-01,-8.865580635224532121e-04,6.791735041644360402e-05,2.993956412703526176e-03,2.248538583517074585e-01
2.287979867538863510e-01,3.367720516920719165e-03,2.259041666614543808e-01,-2.688048521231246706e-03,-5.699501123953652076e-04,5.333607468886071221e-03,2.242383062839508057e-01
2.174728333297372140e-01,-6.371077917673384494e-03,2.188735231497265787e-01,7.224762192132023857e-04,-3.157107174959923319e-04,-7.109552912851082153e-04,2.245550602674484253e-01
2.259599486674802593e-01,3.730586626886661650e-03,2.248349979637027096e-01,-3.494903386887141406e-03,7.472862960783485794e-04,4.500871015873508275e-03,2.218924313783645630e-01
2.298087206463428345e-01,9.482155302710432165e-03,2.341937035591349636e-01,-2.632932234668001765e-03,-2.321947991630451784e-03,-1.757869647564391227e-03,2.226553261280059814e-01
2.209914276814957945e-01,-2.431079566046184803e-03,2.224240983761756607e-01,2.810907749770224498e-04,-2.573990140920063771e-03,3.975059391042457500e-03,2.242928445339202881e-01
2.233495333452595877e-01,-3.674119597660591152e-03,2.253680451765819881e-01,-1.338308422986725366e-03,-1.197927393526883929e-03,4.482208718587925604e-04,2.280621528625488281e-01
2.125799349637609303e-01,6.442486348329100332e-02,2.606865876690619421e-01,-2.481398667934692909e-03,-5.964829006400872158e-02,1.912047626179838393e-05,2.051429897546768188e-01
2.046639199866677195e-01,-5.539073346115613861e-03,2.283157612868087494e-01,1.146382915771924395e-02,4.300940819701241404e-03,4.163151345178448676e-03,2.240940481424331665e-01
2.238380949290950661e-01,2.533464422626363621e-02,2.573261243350137839e-01,8.983110656732360214e-03,2.298429230810903104e-04,2.360116764195887337e-03,2.177877724170684814e-01
2.160552069915299134e-01,1.276739127575890476e-02,2.435271680869673938e-01,1.216579706526247327e-02,9.570485913816522555e-03,-5.930015910163506480e-03,2.202036678791046143e-01
2.161776532832588860e-01,8.402273908160090565e-03,2.189342320034004530e-01,2.439313178311526813e-03,9.675125894832767694e-04,-1.601540034951697607e-03,2.092350572347640991e-01
2.044942990800852345e-01,-1.601586978680402673e-03,2.249022344879703650e-01,1.319202789106756722e-02,-1.149734235092300834e-02,1.151922649986648374e-02,2.200334519147872925e-01
1.950295058206837351e-01,-8.713066661148238801e-03,2.253233076476528207e-01,1.143507554215692293e-02,1.248563299288575970e-03,1.379605485564244305e-03,2.213674634695053101e-01
2.378484771374316242e-01,8.002034199030089168e-03,2.366750465260265279e-01,4.900929744744232479e-03,-1.134356368299439984e-03,2.096570847978561358e-03,2.294562309980392456e-01
2.118889512101318484e-01,-1.086633015774071676e-02,2.010919592254726829e-01,8.039304504855231126e-03,-6.794882770325891969e-03,6.988095773613292941e-03,2.186556756496429443e-01
1.939870975299721745e-01,1.766883986196585155e-02,2.617858790617219045e-01,2.117423847061706763e-02,-2.010220785193940485e-02,4.456335921013646062e-03,2.241782397031784058e-01
2.211148964659999661e-01,2.659295068955735974e-03,2.217761898728612957e-01,4.225674268854519495e-04,4.405694078600011737e-04,1.763860449156103710e-03,2.188108861446380615e-01
2.308850258960587487e-01,2.379364024572216962e-02,2.199828561794873183e-01,9.829567912771954366e-03,1.583629651523229750e-02,-8.673294967789346721e-03,2.049777060747146606e-01
1.967345329901234730e-01,1.720138351204564264e-02,2.473150711145131742e-01,1.780918828835195353e-02,4.688569093233869306e-02,-2.444320331363802196e-02,2.306732386350631714e-01
1.836226197452813236e-01,1.540616830550214922e-02,2.038751465018084352e-01,5.963696168902771211e-03,1.923203393723617663e-02,-7.252794019751778246e-03,1.829968988895416260e-01
1.494237953493521565e-01,-3.855427767522562332e-02,1.581033285995412929e-01,1.931864656020398918e-02,4.428460729181710881e-02,-1.931220476059490251e-02,2.125195115804672241e-01
1.615307075314363350e-01,-1.260486920070411077e-02,1.698192371071003959e-01,1.035715693994147986e-02,4.637540612985506516e-02,-1.691796651694826154e-02,1.986648589372634888e-01
1.976775906671780492e-01,-2.744950839023055367e-03,1.653745452302948782e-01,3.939938711831595004e-03,2.323058554799148009e-02,-6.469711606390877133e-03,1.911270320415496826e-01
2.613498346301066366e-01,5.383207433717240864e-02,2.248675738639733246e-01,1.204568760902259734e-02,5.219134342189599846e-02,-1.439549232979425372e-02,2.145988196134567261e-01
1.542994484352930018e-01,-1.343884289461648451e-02,1.578106465763169097e-01,6.500477816348200141e-03,6.228251229499905117e-02,-7.338687924606763537e-03,2.016509324312210083e-01
1.943101910701187096e-01,-3.046155392163193976e-02,1.801772582212810836e-01,1.948705333777807705e-02,-3.166571082297586770e-02,2.026091470379654327e-02,2.300528138875961304e-01
2.616189912414351726e-01,7.637461386308017075e-02,2.830943946046818316e-01,2.203945775812397520e-03,3.729826347860680036e-04,-5.519616720965020082e-03,1.971325874328613281e-01
2.648754662975301155e-01,7.480177985335198509e-02,2.839679598423934248e-01,-2.995814460474721143e-03,-5.353205855487317040e-03,-6.278171413369375113e-03,2.008796930313110352e-01
2.465485850792330791e-01,2.941184813631983475e-02,2.420568719175696382e-01,2.347821289115796086e-05,3.878033904041800969e-03,-2.311022722468965545e-03,2.150682806968688965e-01
2.929182712052404991e-01,7.367730117573143001e-02,2.999567265529251570e-01,7.408690716626068276e-03,1.112288809660911398e-02,3.206070995397761712e-03,2.241113930940628052e-01
2.388304422764919444e-01,5.121823018414257966e-02,2.381594207912276773e-01,-7.083544217201518702e-03,4.296214322586659230e-03,-2.160378953882594131e-03,1.878637969493865967e-01
2.837470712817181107e-01,5.857943424737399596e-02,2.736779626054504644e-01,6.715608297282127381e-03,2.986480366532587825e-03,7.223945144558138742e-03,2.210276573896408081e-01
2.428152071427017167e-01,3.807600305198138857e-02,2.443080228556694100e-01,9.909599550949157228e-04,2.023868713155877082e-03,-1.232562558410128231e-03,2.055378258228302002e-01
2.373408985407254312e-01,8.227854170833825975e-03,2.071141714345931251e-01,9.959586218343903161e-03,-1.506717474331660837e-03,8.949718636723370813e-03,2.168543040752410889e-01
2.362692139203383668e-01,6.204661930276605952e-03,2.293399910626972849e-01,-4.915895600359493009e-03,3.275889614945672545e-04,-9.045417939783152381e-03,2.273803502321243286e-01
2.094133633563298735e-01,-2.479435480820163518e-03,2.269513536802395537e-01,4.140363481415350495e-03,7.353875390112378767e-04,3.516449652716669826e-03,2.213875800371170044e-01
2.216360755726021758e-01,5.578821160852232008e-03,2.333178215302588177e-01,4.384989544866339274e-03,2.856196330603434359e-04,3.428573363810370148e-03,2.223383039236068726e-01
2.104375672142686504e-01,1.470078088606757705e-02,2.387492810225675388e-01,6.217845113454250824e-03,-2.547446756593262952e-03,4.382653286194879670e-03,2.117762118577957153e-01
1.879131798473003823e-01,-1.995257623732732410e-03,2.220688083770216426e-01,5.677109439501075785e-03,-1.878783517212934779e-03,5.970028965477336587e-03,2.096007317304611206e-01
1.866408516177891497e-01,-4.955110156649761288e-03,2.168939349363976921e-01,6.390263746392900804e-03,-4.083271945738062812e-03,6.741149016355841260e-03,2.091159671545028687e-01
2.285949432037915618e-01,7.787709228938455297e-03,2.350005939577745062e-01,3.966840944221085123e-03,4.901929203867525691e-04,-7.871562392257726651e-03,2.245998531579971313e-01
2.332276166458085442e-01,1.209049886470939250e-02,2.389339927523845830e-01,-6.792267539380192690e-03,1.476079985406436286e-03,1.067034638732054959e-02,2.251279354095458984e-01
2.285940043860684723e-01,1.049767265072990008e-02,2.340071015241478036e-01,-3.160150100600126778e-03,3.088639068494469764e-04,1.807499679374747819e-03,2.209432870149612427e-01
2.296712914678631923e-01,2.589937996023944367e-03,2.297679628098667770e-01,-1.073251732650509424e-02,5.902846265333885943e-04,-5.243939674238409440e-03,2.280723750591278076e-01
2.218776156746886108e-01,-3.752796763699217664e-03,2.284612575936443568e-01,-9.823404989092031359e-03,-4.738869152263468806e-04,6.103111026978514514e-03,2.298691272735595703e-01
2.288541723781218340e-01,1.077692372245786512e-02,2.349578866888453188e-01,-3.743104101353756253e-03,5.630207022903868826e-04,1.083561462168299103e-03,2.212973833084106445e-01
2.311688610762341611e-01,1.997868317601692034e-02,2.513141583749067820e-01,-1.490516763737480613e-02,6.607751951649292604e-03,7.755721562890002981e-03,2.241418063640594482e-01
1.935238344984427095e-01,-1.474382327303627727e-02,1.432336392603353603e-01,-9.546385352766981539e-03,3.405418204692656908e-02,1.204072860622249115e-02,1.990429610013961792e-01
2.210802488370900154e-01,-5.018124081614366849e-03,1.402644114171358869e-01,-1.003075454599927814e-02,2.414457479638737469e-02,1.284047970292168973e-02,2.047552317380905151e-01
2.554133948817549626e-01,2.364337022528525956e-02,1.775332472521325144e-01,-8.736421594118873313e-03,3.806717408954119614e-02,1.150588854479962439e-02,2.161153405904769897e-01
2.352021094692421654e-01,2.725499639584710865e-02,1.985414195877234222e-01,-1.059009148918070922e-02,1.799271423198788716e-02,1.484737011876459400e-02,1.973107159137725830e-01
2.515609388546732328e-01,3.464037901228091132e-02,1.798753982006915386e-01,-4.296855034600579812e-03,1.684739971830614969e-02,4.779945099847011589e-03,1.939554512500762939e-01
2.248686718990526856e-01,6.587619227939267574e-03,2.260455346339863558e-01,7.792312122462007572e-03,6.488415779203290414e-04,-7.832200855142282606e-03,2.197096794843673706e-01
1.731344768836880210e-01,-4.998770829930859749e-03,2.011376076441798721e-01,-1.710803647627569604e-02,3.137900200201797912e-02,1.461836989063539441e-02,2.048828601837158203e-01
2.017508280855696556e-01,9.002835758438562652e-03,1.507618096955157527e-01,-4.089975741060402313e-03,3.038986880614569924e-02,2.059261360873931163e-03,1.809894293546676636e-01
1.966755342575847165e-01,7.464161106259484257e-03,1.523140655940632970e-01,-5.788327970459566235e-03,4.423908614768698455e-02,4.435929135264927103e-04,1.880095303058624268e-01
2.031983786957840821e-01,-3.521650300099976594e-02,1.016664998777384310e-01,-1.135711265866605479e-02,-2.601266356338958335e-02,-2.115700350665873294e-02,2.161098122596740723e-01
2.520407248830816016e-01,2.316593391939256175e-02,1.882661644876214013e-01,-9.876874807479514573e-03,-1.172818689810108637e-02,-1.979096548016320498e-02,2.091287374496459961e-01
1.800466429122657142e-01,-2.139136216849632510e-02,1.596753386339083147e-01,-1.224261565127695607e-02,-3.966286659957298649e-02,-1.506712854102896376e-02,2.067337334156036377e-01
1.575081016111213317e-01,-1.749948100443135535e-02,1.675727500516172863e-01,1.212742165416606788e-02,-4.366391308609520600e-02,8.407349762154563144e-03,1.971375793218612671e-01
2.111458665994475625e-01,-2.348095365605651352e-03,2.152564256636106121e-01,4.943372527892117736e-03,-3.570972391675576903e-03,6.141003079034859299e-03,2.160991728305816650e-01
2.096290350020567628e-01,-1.910144783593664686e-03,2.162348346235472563e-01,4.970684010779427217e-03,-1.828949029431591348e-03,5.050757810498991175e-03,2.152917385101318359e-01
2.082164356514207282e-01,-2.922899569419962207e-03,2.127896158207659982e-01,1.113115379942361191e-02,-7.729416574727834138e-03,6.862804824924868992e-03,2.150779962539672852e-01
1.806253827747448248e-01,-3.688117321730688403e-03,2.293997669895124769e-01,1.186846716108384651e-02,-1.152817444393907167e-02,6.418413621686099718e-03,2.151396125555038452e-01
1.982204902215441156e-01,2.257410128954609463e-02,2.719386071292125839e-01,2.287720510794413742e-02,-1.953421548933384488e-02,9.886743707035863804e-03,2.285660356283187866e-01
1.763732630946491520e-01,3.761499346483747341e-02,2.605117150897113265e-01,-1.831948265610444659e-02,-3.434904726889597554e-02,-8.265464822150927343e-03,2.067834138870239258e-01
1.706267905360489556e-01,4.406506354130171332e-02,2.687510007494119391e-01,4.311495680579899119e-03,-4.452354324553450121e-02,-2.470180443480214563e-03,2.099669277667999268e-01
2.271406519494939547e-01,4.465303350870342136e-02,2.188161984517613678e-01,-8.352584691730786937e-03,-2.624168548195461928e-02,-1.087086854865030455e-02,1.856922656297683716e-01
2.239131353671047764e-01,5.159218358878436828e-02,2.216712149789709929e-01,1.326416112178266426e-03,-3.087070109970540752e-02,8.713940135971786662e-04,1.793871819972991943e-01
1.787934268421435824e-01,2.537711371042196407e-02,2.154490861409916191e-01,2.919969114917982805e-03,-2.695877406361646758e-02,4.536890133947002815e-03,1.810288131237030029e-01
1.882363060049331571e-01,7.475645868348507195e-03,1.956110643304097563e-01,1.883081371691319381e-02,-4.881859443685499650e-02,3.910810782015389751e-03,2.057214528322219849e-01
1.533059612145387107e-01,3.535063975922708712e-03,2.346308626612184645e-01,-2.044051208767698816e-02,-3.869017684909196314e-02,-2.027354706068588627e-02,2.195505648851394653e-01
1.756877331609452142e-01,-9.210877823960905708e-03,1.855055185388481964e-01,-1.605081113107704321e-02,3.912941883090439998e-02,1.389423590492164066e-02,2.050476819276809692e-01
1.808680761748127086e-01,6.811802145500256422e-03,1.843358410924801905e-01,-1.238587693790362335e-02,3.671371401727422518e-02,2.884633483937372803e-02,1.947086304426193237e-01
2.422370233728139977e-01,3.720409756953219071e-02,2.068260196286681452e-01,-6.970462477639272937e-03,2.340880874744714901e-02,1.467053944805726817e-02,1.961310058832168579e-01
2.355854703818491269e-01,1.295264317900368667e-02,2.333033532129676901e-01,-9.707998005512212883e-03,5.086602710144081253e-05,1.146285213557373013e-02,2.230234146118164062e-01
1.436194788337853689e-01,-3.036122681932444667e-02,1.398817558477541967e-01,-6.605221166685738658e-03,5.507491355039897951e-02,7.649872963839707100e-03,1.975832730531692505e-01
2.334430098773818685e-01,2.876232356939160961e-02,1.757771046990992958e-01,2.111389201459162260e-03,4.758343245408631211e-02,6.861111597246985841e-03,2.009069174528121948e-01
2.237211662951890112e-01,5.292262378024686909e-03,2.256634422527356576e-01,3.949019151400962740e-03,2.545444007114970727e-04,4.692508053420858631e-03,2.196639329195022583e-01
2.184659035316536824e-01,-4.229955183263189866e-03,2.222640339109879792e-01,3.354627004909540005e-03,1.243306182671832317e-03,2.836896110155164713e-03,2.247581779956817627e-01
2.212887895763135937e-01,-5.308250806084491291e-04,2.230026597431682966e-01,5.229601339535254467e-03,-2.656934956594983683e-04,5.398868098181379936e-03,2.230622172355651855e-01
2.259001113019310225e-01,7.395328531352440837e-04,2.241711936783462589e-01,3.891626978986256237e-03,1.042432946736933895e-03,3.784367170450683802e-03,2.245053499937057495e-01
2.008919343690057369e-01,-6.392827865391165210e-03,2.196687437085958483e-01,9.561664769931555244e-03,-5.769985175207558575e-03,7.978681526343343530e-03,2.185790985822677612e-01
2.490978680496060416e-01,1.833120408311569860e-02,2.237779798054820857e-01,1.942079035920404005e-03,1.636512399080039320e-03,1.019245058716745922e-02,2.199599295854568481e-01
2.743058391672434926e-01,3.618153508694571530e-02,2.205309037386510573e-01,6.528584179248788158e-03,-1.971767248161224173e-02,1.464358938404910354e-02,2.207427024841308594e-01
2.139503921912073170e-01,-1.263154829139215285e-02,1.628249154454636527e-01,9.414857354412890095e-03,-2.257468236658297794e-02,1.921137706399677139e-02,2.127700150012969971e-01
2.099456022573667480e-01,-1.725030113227321582e-02,1.523599629014805168e-01,1.133817726947657957e-02,-1.674008177208099676e-02,2.001934642148013588e-02,2.104270458221435547e-01
2.395387800722628691e-01,1.622039589014810657e-02,1.504805247572425231e-01,-5.493863217887429325e-03,-5.774006097140835930e-02,3.873901318014301865e-03,2.192063927650451660e-01
2.237018120671372123e-01,2.618623596234313788e-02,1.928365590508461236e-01,9.452492615832398803e-03,-2.963957215011741100e-02,5.261023805840303429e-03,1.919773370027542114e-01
1.949687453982699159e-01,-8.951085576665906984e-03,1.839589828686440665e-01,9.546493171159900135e-03,-2.119842068040308364e-02,1.282636045544923060e-02,2.038982063531875610e-01
2.197873253804379923e-01,1.571700251089125366e-02,1.876855043518549371e-01,8.458850872768489820e-03,-3.574099125789981235e-02,8.658748698318551387e-03,2.009876370429992676e-01
2.122495767115995524e-01,-6.826172738394975514e-03,1.796365214995968018e-01,1.506343354045349726e-02,-2.863429280476401453e-02,2.012805955150648307e-02,2.151022404432296753e-01
2.384475364842852940e-01,6.957119194580446697e-03,1.909921848664800637e-01,1.153415488098767303e-02,-3.041117119956994116e-02,1.592780790165888860e-02,2.208825051784515381e-01
2.207406682154475774e-01,2.048585156483123670e-02,2.082599067531297476e-01,1.274578757245769384e-02,-3.812465787892480723e-02,1.568716443669819494e-02,2.081934809684753418e-01
2.259963726851624832e-01,-7.938570614195172848e-04,2.265491062798453137e-01,5.813886050698724179e-04,2.604301070887784196e-03,7.506642849960875555e-04,2.271178513765335083e-01
2.345911490614263628e-01,3.443541868919813842e-02,2.277283992333782314e-01,1.210159069822564978e-02,-4.374962973481184153e-02,2.037898489493491713e-02,2.148560881614685059e-01
2.179951613397569377e-01,-4.374019933433781482e-03,1.903557550270791321e-01,1.247234884939062843e-02,-3.198274726403251000e-02,2.362270087303947400e-02,2.219804078340530396e-01
2.174361673518474258e-01,1.203759227951067823e-02,2.239759137060174932e-01,7.038524174327934896e-03,4.115728123448477924e-03,-3.604053832688987498e-03,2.093155682086944580e-01
2.401782331306790141e-01,2.861783044414306643e-02,2.378972570103215778e-01,-2.942665501105445891e-03,-2.733924758384601202e-03,1.979524015197019454e-04,2.105444371700286865e-01
2.809620105088230235e-01,7.480231455974117871e-02,2.950317745538553194e-01,-2.465533659964698129e-03,3.121101248544374141e-03,-8.238905528025154343e-03,2.141296267509460449e-01
2.357242964821640585e-01,2.941947912828696277e-02,2.352627928902926158e-01,2.223213595287261250e-03,-5.272205241591293272e-03,1.936869062617043629e-03,2.063398957252502441e-01
2.410468670018695303e-01,4.545945385559838070e-02,2.434495258358275738e-01,-2.973097558645075578e-03,-5.292457743880473256e-03,1.540911549055068181e-03,1.970984786748886108e-01
2.398176414198236739e-01,5.420385340366506988e-02,2.447831851393838798e-01,2.761649981747573562e-03,-2.283668714898419525e-03,3.252934566345331142e-05,1.882480680942535400e-01
2.678276625545310541e-01,6.614125575012724800e-02,2.808704525088725479e-01,4.087567824944023640e-04,8.580293550350660131e-03,-1.012038922681310349e-02,2.097777575254440308e-01
2.271666573480752571e-01,-2.234101756891537782e-03,2.063843652307822407e-01,2.049725693871604776e-03,3.574978372810975157e-03,-6.069662424988534789e-03,2.201149910688400269e-01
2.200534730991955401e-01,-9.439676133203095398e-03,2.008792464892561747e-01,1.631714957086447730e-04,-6.149940108498796326e-03,-5.542688936500661349e-03,2.209979891777038574e-01
2.264325848303401501e-01,7.091424359330744664e-03,2.171661874234214196e-01,4.773438639878054696e-03,4.380458561988475989e-03,-5.546225603849718605e-03,2.153650671243667603e-01
2.219337929008287635e-01,3.305671090753109498e-03,2.293046226028152001e-01,5.531173093721685266e-03,4.830903240632739752e-04,-3.994594767475686051e-03,2.227204740047454834e-01
2.252211959951413434e-01,-2.880842440329545173e-04,2.115483984965520203e-01,-5.317057175127898327e-03,-8.229911861732301312e-03,-9.896047357687662305e-03,2.203175872564315796e-01
2.259014670967511018e-01,4.345926500910313184e-03,2.308059330185595615e-01,-1.434776321213359967e-03,1.261490829600170772e-03,-7.203180663403027011e-05,2.240725010633468628e-01
2.233829922566242243e-01,2.273799435996148866e-04,2.248115926514745455e-01,2.000643274038397309e-03,-2.133624730663831286e-03,-3.320289095633033316e-03,2.240044772624969482e-01
2.247562952725763452e-01,6.749262454092991304e-03,2.261404364617835006e-01,-7.551007008783242134e-04,-1.303958416762511898e-03,-3.249678575797862283e-03,2.187903672456741333e-01
2.183450516621280868e-01,-1.159674393397819303e-02,1.918132269484731922e-01,2.809903551559902340e-04,-7.945725585044020878e-03,-1.074226881524872543e-02,2.191169112920761108e-01
2.216419749570548159e-01,-3.051334590433413263e-03,2.182663143497113323e-01,2.441413301403075591e-03,-1.004902099940897364e-03,-3.553127886229016062e-03,2.231563925743103027e-01
2.196254800599191925e-01,-4.227710595886419176e-03,2.219714654644259766e-01,-2.919847654638478996e-03,-2.806848781877630808e-04,-3.074801032002218420e-03,2.251556962728500366e-01
2.008684638350287099e-01,1.773553357801327390e-03,2.132519645139670517e-01,2.356686367630927634e-03,1.304920123743035778e-03,-6.588156075398973049e-03,2.059359252452850342e-01
1.998966318517267082e-01,-7.345046822248263441e-03,2.139710691213919658e-01,-1.032114029370851706e-02,-5.119347078473687404e-03,-8.580754961820851595e-03,2.160627245903015137e-01
2.201581649034122234e-01,4.860590431365496844e-03,2.239933962167842130e-01,-3.739204897262867183e-03,8.154516131467806584e-05,-1.381049090093236769e-03,2.173503041267395020e-01
2.292091371814296841e-01,4.373668188605295271e-04,2.258126270861580409e-01,-2.340726460959142823e-03,2.857725041008042643e-03,-3.158574619290660784e-03,2.272485494613647461e-01
2.305882726919026848e-01,2.182554079552412318e-02,2.448713080298139944e-01,-8.883501820741549621e-03,3.538144984789349037e-03,-2.459546936623155291e-03,2.169333994388580322e-01
2.501842042931259336e-01,4.959739861838097230e-02,2.920089179255780376e-01,-3.799260358555105882e-02,8.291126240236389167e-03,-1.262652666823536234e-03,2.343398928642272949e-01
2.073311164771273474e-01,1.640349639506000212e-02,2.514745724429603424e-01,-7.826315058471552608e-03,1.482091945495540635e-03,1.574342067276333001e-04,2.168423980474472046e-01
2.208774463501420871e-01,-1.627636325576470311e-03,2.267608768681406151e-01,-1.881583168816671403e-03,6.214293003065951863e-04,-1.115737760604263492e-03,2.255387604236602783e-01
2.142794243816475430e-01,-9.394263188667484332e-03,2.149582441817228240e-01,5.173163482824200479e-03,1.771879628951900619e-03,-4.671198809450841094e-03,2.243599295616149902e-01
1.886808547493356580e-01,-1.631499915005316104e-02,2.130126023063179386e-01,-1.131676946940320637e-02,5.666409587058693397e-04,2.840153908680172548e-03,2.191178053617477417e-01
2.028692780935248963e-01,-1.450154687453833469e-02,2.379149464302924288e-01,-1.205271042481426136e-02,-4.250086023800402654e-04,4.938784702589422098e-05,2.377657145261764526e-01
2.113963543509834175e-01,1.320674978074962147e-02,2.130827229140834222e-01,1.732089628568916125e-03,7.457129890336141676e-04,-4.647304828110350255e-04,1.990665793418884277e-01
2.392752254238008636e-01,2.444049356529208461e-02,1.729546800072067070e-01,2.170124063314003617e-03,-1.455549865316300290e-02,3.839730506534963679e-03,1.923495978116989136e-01
2.022330723603366076e-01,2.185773325208917317e-03,2.091881531443918751e-01,7.762560491548649820e-03,9.456690370857017205e-03,-7.342636433051071172e-03,2.051083594560623169e-01
2.373508120743817451e-01,3.301866106818532320e-02,2.121981864885662816e-01,8.537505352349554835e-03,-1.155182675909762618e-02,1.423468965725865204e-02,1.961419731378555298e-01
2.125600721466520682e-01,2.023284058220090054e-02,1.882384035387106302e-01,3.030391821043023834e-03,-5.579975359473012680e-02,4.829816409662767047e-03,2.057716101408004761e-01
1.982332009650393245e-01,-2.153470731389793558e-02,1.152960208346859999e-01,1.075253962780194951e-02,-3.383529351446918493e-02,1.275181401326631533e-02,2.030239850282669067e-01
1.667546001282205481e-01,-1.938926912831331895e-03,1.867585945684586690e-01,7.417964840087503016e-03,-4.039578400614705911e-02,1.265384028647302886e-02,1.943530440330505371e-01
2.223577532954774116e-01,3.059602577826456282e-02,2.204201795298031397e-01,5.777041859123043660e-03,-2.124984600048859112e-02,4.971584113641397754e-03,1.947657614946365356e-01
2.082094715954338204e-01,9.515884382184702783e-03,1.877581879510668295e-01,4.394456328324406434e-03,-2.370924044557363303e-02,1.114442829103403677e-02,1.948095709085464478e-01
4.058212243174751377e-01,1.114225253335868748e-01,2.496308769411910711e-01,-2.279810823657815516e-04,-1.828928937931081911e-02,-5.008191661604566997e-02,2.713153660297393799e-01
2.638768263040867090e-01,3.133151934239683523e-02,1.896406823741806358e-01,-2.425795214980605054e-03,4.044119282651332387e-02,-2.582173214884232043e-02,2.219222038984298706e-01
2.588943989722215511e-01,1.697746677123401771e-02,2.144382133439009241e-01,4.473169616260835695e-03,1.150833539376940051e-02,-1.871068206410828744e-02,2.263914197683334351e-01
2.321441318633987727e-01,-1.883986094739692474e-03,1.904649413627875765e-01,1.360928825760068621e-02,1.782484235725903879e-02,-1.369463954063055225e-02,2.209607511758804321e-01
2.575201652795929830e-01,2.379819794211140982e-02,2.305256761913715702e-01,7.690490736163250497e-03,2.635773095793599377e-02,-2.702760473276318368e-02,2.312975376844406128e-01
2.296249481523229830e-01,-1.978094013472242452e-02,1.588803741100417999e-01,4.161418689504291397e-03,8.108364616363734206e-03,-2.146477681916271474e-02,2.262639552354812622e-01
1.720805091311607415e-01,-3.204485127157005731e-02,2.332752949331501346e-01,5.629499130425077297e-02,6.003229356755975139e-03,5.363536513363598504e-03,2.600099444389343262e-01
1.839890275048058910e-01,4.025820137228292017e-02,3.519910673903925979e-01,3.603922805058422385e-02,2.766220154221034344e-02,-1.160399341143967568e-02,2.821813821792602539e-01
2.647177985435600345e-01,4.051809214510687651e-02,2.788422451180493367e-01,1.095886313318943789e-02,-1.467239779860285767e-02,1.146770437904398934e-02,2.345897704362869263e-01
2.505620718367714272e-01,3.582486209785071263e-02,2.814903103393653905e-01,8.238584572797424260e-03,4.313771958576386768e-03,-1.016101404851547842e-03,2.323200702667236328e-01
2.027889912462268462e-01,7.065823012056715591e-03,2.364717847922361837e-01,1.322974502475715922e-02,9.557997921586770806e-03,-5.045726499173067842e-03,2.165874242782592773e-01
2.112455528436118779e-01,1.079278641383712989e-02,2.360440383123310615e-01,8.581679209386100515e-03,4.515147385228845088e-03,-5.423175897677636782e-03,2.147964835166931152e-01
2.030440581391442234e-01,8.827177549916576105e-03,2.607895188727521463e-01,1.422482754263373721e-02,3.055107272976193347e-03,-3.204946177857448137e-03,2.300776690244674683e-01
2.212790295724564316e-01,1.005390227300839712e-02,1.941135041422462626e-01,-9.980733305012822604e-03,-1.041671555158720300e-02,-1.574294254040306540e-02,2.024447321891784668e-01
2.288607471524858883e-01,4.540973867787095886e-03,1.425724618246336228e-01,-2.914061639054534025e-03,-1.952313620015013254e-02,-1.761339277842087492e-02,2.012672126293182373e-01
2.145314750039686857e-01,-1.024548948453808672e-02,1.143630261030607470e-01,-3.032937976860075775e-03,-1.320154634731889737e-02,-1.064065922061789397e-02,1.973143517971038818e-01
2.283502253271743054e-01,-2.603733843887040544e-03,2.078314995161021084e-01,-8.178191182834223041e-03,-2.916646918952191855e-03,-9.945012874140743767e-03,2.225864976644515991e-01
2.179481279203998312e-01,8.184698962674180622e-03,2.206689727556084835e-01,-1.601378479133836255e-02,-1.708033506338156246e-02,-1.206962777391072661e-02,2.160101830959320068e-01
2.181061342844432538e-01,-5.771595401484891363e-03,1.843469801127328445e-01,-1.662354464249443664e-02,-2.366889410710220493e-02,-2.094730812886195712e-02,2.180115580558776855e-01
2.411416778474959333e-01,1.769217558573175919e-02,1.536431167988995816e-01,-4.243943062604101611e-03,-4.490442245869715604e-02,-1.315931077064573344e-02,2.113218456506729126e-01
7.386029537878341378e-02,-3.897645881087838382e-02,2.421660652866652330e-01,-1.958690182454714615e-02,3.237632756141699958e-02,2.293813904524584849e-02,2.567569613456726074e-01
2.666404882596964954e-01,4.888066796448631290e-02,2.717507109242242036e-01,4.437894414955241562e-03,-1.312316238343942502e-02,8.585433759226240857e-03,2.221601307392120361e-01
1.040827250352981959e-01,-6.072312644346294919e-03,2.525556815267536726e-01,-5.574946750273271356e-02,-3.165404184872516735e-03,1.144081621149413246e-02,2.455201447010040283e-01
1.352422608418121230e-01,-7.359300118068234919e-03,2.498188505791152370e-01,-3.276073890669371769e-02,1.713297463179244001e-02,-3.834480175883776213e-03,2.322634756565093994e-01
9.709208147168905956e-02,-1.878784703597893846e-02,2.556443681170720295e-01,-4.067083437407795904e-02,-2.040705003928481795e-02,-7.849046110407311913e-03,2.516674995422363281e-01
1.680119510206789790e-01,1.169979019600592141e-02,2.810479823823546774e-01,-3.358687582975750791e-02,-1.165245800508521792e-02,8.068290499459285876e-04,2.422252446413040161e-01
1.516876307128582346e-01,-1.567443130282153430e-02,2.412429670851813368e-01,-3.157226982942866467e-02,-9.483180927659240131e-03,-7.603578661482882084e-03,2.333496212959289551e-01
2.442560097184385270e-01,5.320123595781481307e-02,2.474454598383470649e-01,-3.093758512211619745e-03,4.968743568888022918e-03,-9.423492049334314304e-04,1.929427385330200195e-01
2.277330158070937915e-01,-2.616581247059518445e-03,2.091349449858668774e-01,-6.103357778332902696e-03,-3.316802809282773379e-03,-1.487433653336395385e-02,2.234530448913574219e-01
2.417511623187012515e-01,-5.791404355984214325e-03,1.619084303219622822e-01,-5.436763547666511806e-03,-1.612521446928476959e-02,-3.994735160354039027e-02,2.313953936100006104e-01
2.320634598445433516e-01,6.822894493491743484e-03,2.113471061818426033e-01,-5.653950687419533223e-03,-6.539636506616553109e-03,-1.593675136810367154e-02,2.179047018289566040e-01
1.065265970438037252e-01,-7.033148270326902707e-03,2.177876136817443742e-01,6.271613044858103878e-03,2.434697338649238416e-02,-1.146522416021839453e-03,1.995241045951843262e-01
1.147902409307668403e-01,3.579030835532570620e-03,2.374686441181557695e-01,-7.617752902499187566e-03,3.092965656265676388e-03,-1.605494515123069641e-04,2.031354308128356934e-01
9.718392522707637593e-02,-1.563576506374481090e-03,2.314680117535112547e-01,1.287145499219552154e-03,4.130000740920509832e-03,1.639990777020907276e-03,2.027503699064254761e-01
1.127580426947064896e-01,2.414537633170216191e-02,2.837698820368906860e-01,-5.529004260141330042e-03,-2.029793511465319972e-03,2.806133128279357774e-03,2.288640737533569336e-01
8.063915390044422427e-02,-6.538024798361741219e-03,2.171557831487717638e-01,4.841552579727856701e-03,1.180383039816207749e-02,2.187572480359078510e-03,1.965717524290084839e-01
7.400070913967446429e-02,-1.364157951454732232e-02,2.232227479875101839e-01,-2.658486129691679106e-03,2.120446820064679147e-02,1.918602892061948987e-03,2.107312977313995361e-01
1.207364691412290691e-01,2.793624190595762891e-02,2.912867055631636615e-01,-1.328207066333027047e-03,5.538257971925542207e-03,2.452934425237800631e-03,2.316068410873413086e-01
2.147154516848688854e-01,4.683223297856906053e-02,2.628985864057326038e-01,1.998479549358584892e-02,4.745119440238592529e-02,-1.359880209383577607e-02,2.170330286026000977e-01
1.204958444465492051e-01,3.982555224284836659e-02,2.945919826128795549e-01,4.232486210466979495e-03,3.381859630014596996e-03,2.975472013105873864e-03,2.257790118455886841e-01
3.773232136487557065e-01,1.534753561178979486e-01,4.293321044745763149e-01,-1.263245465447821771e-02,1.948041345483561906e-02,-5.351346941334155036e-04,2.570465505123138428e-01
2.697596623111401248e-01,8.166780893873870628e-02,2.933825792419376688e-01,-3.572112000713679233e-03,7.401070799013824333e-04,-9.365758145954583558e-03,2.017001211643218994e-01
2.498250621285600936e-01,4.969206093079470143e-02,2.504846223389440296e-01,-2.077330040964341356e-03,5.056641265322368850e-03,1.716059567295079432e-03,2.007091045379638672e-01
2.514679991774121381e-01,2.996814625315732949e-02,2.595782328078832246e-01,-2.555361189761655525e-03,3.143277846807579663e-03,-3.285787061832602055e-03,2.258450686931610107e-01
2.357246232751493697e-01,1.870496921979528104e-02,2.932009231910436275e-01,-2.208087891839305428e-02,8.603974303516344346e-03,-2.067761998025989187e-02,2.565969824790954590e-01
2.986602983437057768e-01,7.244757530286183300e-02,2.698857122588871338e-01,-7.986373826316249536e-03,-7.229716099548251333e-03,-4.606619212212622640e-03,2.142494171857833862e-01
3.489692047877658299e-01,6.988854026629995331e-02,4.422704464591836193e-01,-1.494791867653392364e-02,7.223252437855640085e-03,-8.300016813501856494e-03,3.371397852897644043e-01
4.083980916003819295e-01,9.391334545833021630e-02,3.545533998295067324e-01,-2.524592111536296674e-02,-2.460781025958487869e-02,2.031019646502006670e-03,2.976703643798828125e-01
2.217330371367596253e-01,-2.510530546643968686e-02,1.564625107203089505e-01,2.698594107153672126e-03,-4.354085478135408596e-03,-2.566302334233627053e-02,2.261252552270889282e-01
2.515711631341396304e-01,1.576397567574008840e-02,1.853240665479941041e-01,-2.777383908622795081e-03,-8.008235883177517930e-03,-2.645364222740635360e-02,2.160719484090805054e-01
2.245159148325459042e-01,-1.899909728378079699e-02,1.599443583338526209e-01,1.878745937397189626e-03,-4.097632382369888714e-03,-2.595212017140331381e-02,2.232182770967483521e-01
2.464488977309785833e-01,1.997428127362746442e-02,1.761784001584768555e-01,4.469746493668734174e-04,9.151288350812256459e-03,-1.405668530715500561e-02,2.028763592243194580e-01
2.256528669514273888e-01,-1.616920372846364362e-02,1.315170163545686388e-01,-2.821235380830831776e-03,3.038430545155595963e-03,-2.386231278483497836e-02,2.152560055255889893e-01
2.232480046444136057e-01,-2.838628892406153126e-02,1.468260627145167307e-01,1.021146642147314869e-02,1.849078360742732741e-02,-3.189143938275808277e-02,2.330654263496398926e-01
2.215653988883702075e-01,-2.254584773257573005e-03,2.207012704459572205e-01,-3.730721305834179481e-04,5.507215161376330685e-04,-1.025531461250363523e-03,2.233992069959640503e-01
2.357215141832657845e-01,1.978919470770587608e-02,2.405325064781258237e-01,-3.827962040141357977e-03,1.221332944226952806e-03,6.628609039353168498e-05,2.184884697198867798e-01
2.221488733541264471e-01,-5.078685643587765863e-04,2.250538646044739632e-01,-1.202613481577329176e-03,9.755363052087267465e-05,8.439968058465223660e-05,2.241331487894058228e-01
2.220654091348595316e-01,5.025892871921566751e-04,2.261526150813432112e-01,-2.988911584877096753e-03,-6.852282893366856524e-04,-1.259778397881124775e-03,2.237081378698348999e-01
2.287799212803330595e-01,2.909140647284924608e-03,2.285937780103955430e-01,7.519801575226875683e-04,-4.249587977676713008e-03,-5.231652933860505032e-04,2.259032875299453735e-01
2.247577626038783360e-01,7.903080561498659895e-03,2.326091803427591531e-01,-4.346432622038909864e-03,-3.081093949531375645e-04,2.764607418565929835e-03,2.210658341646194458e-01
2.330036984805735623e-01,1.040755104305637890e-02,2.387359965686110530e-01,-7.823016892997967583e-03,-1.587020469664670187e-03,-4.862780910685094750e-03,2.260973006486892700e-01
2.211434869771219391e-01,2.015669422075677675e-03,2.241774747451118488e-01,-3.668995849051811912e-03,8.033834153954839226e-04,-1.084712484741985990e-04,2.207564115524291992e-01
2.236435420622785997e-01,7.014931985025979477e-03,2.312656763912740998e-01,-3.877514491088245464e-03,3.009020695716233375e-04,1.226108411348787123e-03,2.206515669822692871e-01
2.187628367337719482e-01,2.345058368433763918e-02,2.348789278958740567e-01,-1.952407666385573559e-02,-4.619789067513298264e-02,-1.651991273267625071e-02,2.234262824058532715e-01
1.996590761272722392e-01,-7.854654082327522380e-03,2.187293655790334412e-01,-1.154710534948489783e-02,-7.243121886104998339e-03,-7.967635451289180326e-03,2.193873673677444458e-01
2.052944201299439775e-01,-1.524973468774540319e-02,2.046002298267508013e-01,-1.123484011925672370e-02,-1.866523313445654642e-02,-1.040415404513911173e-02,2.241331785917282104e-01
1.486297320308478109e-01,-1.791906085041569674e-02,1.628771759501726479e-01,-2.176411466773941171e-03,-3.281844601749508289e-02,-1.930966827470906354e-03,1.832237243652343750e-01
2.365273336848622010e-01,1.190314899139444105e-02,2.410211985025781656e-01,-9.997001214103800812e-03,-5.777043083476824346e-03,-5.887588069994859757e-03,2.280122488737106323e-01
2.304425885424888354e-01,1.317932256317641548e-02,2.279957666808418715e-01,-5.438569454884507751e-04,-1.669326604252280863e-03,-2.687744609635868529e-04,2.160721421241760254e-01
2.576765922627420324e-01,3.345195193846942083e-02,2.526534641223937006e-01,-1.149924875098960741e-02,4.822970823925408143e-03,-5.458170766288737361e-03,2.230055332183837891e-01
2.326501950034704780e-01,2.277056878547917274e-02,2.413692381515811225e-01,-2.980703426735430758e-03,1.709945531688996257e-03,2.828144242766025048e-03,2.145107239484786987e-01
2.389714175140023600e-01,2.183257396493454294e-02,2.400833179489162417e-01,-3.007400717681868712e-03,4.599584822483256293e-03,2.727111261306040878e-04,2.179054319858551025e-01
2.218032108512406619e-01,6.554071005340555978e-03,2.257137269524157053e-01,-3.019766803496636096e-03,1.691538001414796258e-03,-1.115753848416378528e-03,2.173220962285995483e-01
2.541624825205401339e-01,4.325637994392833585e-02,2.535254478290587254e-01,2.418537585982925928e-03,3.389422038598189756e-03,-1.191792342820210482e-03,2.107218801975250244e-01
2.265389484204357595e-01,7.899646547245259276e-03,2.290847737612502211e-01,-9.699911321074542250e-03,4.034251400756872982e-03,9.109698841821008142e-03,2.212380915880203247e-01
2.633898688591008730e-01,4.416007914301986470e-02,2.546981975056318293e-01,-2.054187915086450045e-02,-2.793102084345309814e-03,-4.717939926203566954e-03,2.181464135646820068e-01
2.400877040959645548e-01,2.714343736115074068e-02,2.512130743443304337e-01,-2.692961744341743416e-03,-2.634893246737904111e-03,-1.967013195891247762e-03,2.188431173563003540e-01
2.928829317683567801e-01,6.689505438260281989e-02,2.893932678956954163e-01,-1.306292446200247627e-02,3.336019463793700999e-04,1.266440882156650780e-02,2.264674156904220581e-01
2.530294231104727176e-01,3.125299412934384735e-02,2.523042602553494662e-01,-1.392291644385768370e-02,-4.752640368639327213e-03,5.735330546602812780e-03,2.230974584817886353e-01
2.839632263515189381e-01,4.408074270658024485e-02,2.529329422725062892e-01,-9.610959875081528589e-03,1.515310943968475876e-02,9.845342055682352808e-03,2.287348210811614990e-01
2.580068651709616634e-01,2.534995238659112915e-02,2.343696099379599662e-01,-3.382059130749903286e-03,-5.572948444774146644e-03,1.020769468836626656e-02,2.227749228477478027e-01
2.110853991467887547e-01,-3.072042916878375829e-03,2.097242333905307010e-01,2.962534544543417043e-03,1.721005658050239360e-03,-1.270341310215061890e-03,2.135739177465438843e-01
2.730265483690715866e-01,4.569181342227862652e-02,2.623768474655691629e-01,-1.157507291152548926e-02,9.712050662141979984e-03,1.079511683734832132e-02,2.245171964168548584e-01
2.280422377076330998e-01,1.817491269238413754e-03,2.271976074755073793e-01,-2.238123749943468719e-03,3.311670186665764074e-03,-2.323457988471181335e-03,2.259455621242523193e-01
1.988019575158291863e-01,-2.789836481927598921e-03,2.329085478343665971e-01,-6.039995778917640716e-03,-1.141888971952219854e-02,-6.470776077306848555e-03,2.220458239316940308e-01
2.255739826544764792e-01,-2.143535794189327381e-03,2.178118942442328621e-01,-8.707952859337862728e-03,-1.100833485488198621e-02,-1.562570016454396110e-02,2.268732637166976929e-01
2.024505383572277051e-01,-9.417932130634326660e-03,2.043582250802254696e-01,-7.955584208237142727e-03,-9.625135293357988883e-03,-8.077426395292604602e-03,2.143819183111190796e-01
1.912839932142595400e-01,-1.891415753492026175e-03,2.132721192867153004e-01,4.803304269475885610e-03,1.869655718336027395e-03,-7.278611984108563672e-03,2.056366205215454102e-01
2.057466525965103987e-01,2.422212844765564421e-02,2.342020368588448309e-01,7.743837026918195914e-03,6.803709844696203407e-03,-8.985671809915123445e-03,1.987138986587524414e-01
1.970083981130172357e-01,1.327313448107900196e-02,2.218802401384477596e-01,6.872648706636803190e-03,9.238786258636501672e-03,-6.290135075651176813e-03,1.986543536186218262e-01
2.208809135329904416e-01,1.678722340164190419e-02,2.333230675070873117e-01,8.510628469257394343e-03,6.652599493189418484e-03,-5.685291341543829979e-03,2.116493284702301025e-01
1.856683834802400623e-01,8.496501491795760419e-03,2.211169006791242619e-01,9.028316554190951582e-03,1.754267793383242069e-02,-5.080860888381141631e-03,2.004299610853195190e-01
2.318042352149844998e-01,6.203578980476034954e-03,1.215082772430607638e-01,-1.500256632876242890e-03,-7.871567316110345686e-03,1.282068217926968061e-03,1.958968639373779297e-01
2.587248733165993242e-01,1.593243972682208132e-02,1.304774971460978261e-01,3.165239397048394735e-04,-3.703733219604763045e-03,1.434399108790678987e-02,2.119357585906982422e-01
2.564879315915553626e-01,3.154769527028294940e-02,1.728784624001346304e-01,2.232850532768460190e-03,-1.241838753914891553e-03,7.394319590603696049e-03,1.973958760499954224e-01
2.361966025506516409e-01,9.502615667039068792e-03,1.380913020562745397e-01,-2.517334527135949452e-03,-1.536554529217830020e-03,6.883679699176048841e-03,1.973402649164199829e-01
2.610970211660034179e-01,1.130641433612825097e-02,1.092422240178031190e-01,4.205626668890629152e-03,-7.912593419069227987e-03,3.267474913712492524e-04,2.185509949922561646e-01
2.740870612248575422e-01,3.298771348333699727e-02,1.270702883730235599e-01,2.115539633673459239e-03,1.658963718974609943e-03,-1.561190719815239505e-02,2.122499793767929077e-01
2.838342034416835302e-01,2.139805407458987563e-02,1.089057526950070742e-01,-2.042699202553446489e-03,-1.807270080615342236e-02,6.239334275437971502e-04,2.335780411958694458e-01
2.476882158305059867e-01,2.097106334688303431e-02,1.392961444122408632e-01,1.485734227235293355e-03,-1.363925728564471980e-02,-6.267761626559932792e-04,1.978409886360168457e-01
2.414595505123816599e-01,1.674565356614231282e-02,1.363798777312277277e-01,2.664457910962174901e-03,-9.544818073793726390e-03,-1.612855209012182189e-03,1.955188512802124023e-01
2.476439860497600676e-01,2.324196681145385135e-02,1.465915835215735596e-01,-1.721372701167655280e-03,-2.914846239418818121e-03,1.359949561614186416e-03,1.947599053382873535e-01
2.674439050450940769e-01,-1.978264092602124991e-02,5.605283074271162624e-02,-5.267092384953231746e-03,7.951717766662760867e-02,-2.680933611343783683e-03,2.924754321575164795e-01
2.172946318865852100e-01,2.482325103199040095e-03,1.396220705955338870e-01,-3.953454922726698290e-05,4.012183596412155495e-02,-6.496724806891106502e-05,2.008024752140045166e-01
2.235115042376080996e-01,1.256929308453011429e-02,1.545323175054908738e-01,5.624300072697282701e-03,1.396343630324983591e-02,-5.256282111548591686e-03,1.883264183998107910e-01
2.469372268883037735e-01,2.388183771483906592e-02,1.451284996494965340e-01,8.913614643254335473e-03,3.384557643889613693e-02,5.697856229526379948e-03,2.029336392879486084e-01
2.256527075591256981e-01,7.898206367356414015e-03,1.433021440821446724e-01,-2.251999809611087127e-03,1.240883618892390725e-02,1.229636899719388499e-03,1.916979998350143433e-01
2.181438836141129101e-01,2.991347262292207154e-03,1.382649996999167075e-01,9.243735230067009166e-04,1.406011489946759618e-02,-8.537931553676379607e-04,1.899550408124923706e-01
2.326445272123804364e-01,1.005954849472767698e-02,2.275567614967746455e-01,-5.471241444045793142e-03,1.695511763491306008e-04,4.728855090035868208e-03,2.204415500164031982e-01
2.188674637719665861e-01,-6.083003893942423579e-03,2.153243612434360132e-01,-3.236526616572329203e-03,-3.017289484593603890e-04,3.191315551579332679e-03,2.233394235372543335e-01
2.259952660942191049e-01,8.947296038468444124e-04,2.286860689359602461e-01,-3.399169664905577707e-03,-3.410371823277631980e-03,2.111318268075763893e-03,2.266409546136856079e-01
3.277949481425953548e-01,7.428717493073622169e-02,3.142413375887666560e-01,4.502044868020323859e-02,-2.498580039713038659e-02,-2.659507966329194631e-02,2.666256427764892578e-01
3.023160339626904669e-01,8.797782033378701017e-02,3.038527789116727273e-01,4.689009972606753007e-03,-2.062593634417943678e-03,9.535805883644514827e-03,2.159262150526046753e-01
2.311008027127482989e-01,7.143125454008802944e-03,2.106625662130158783e-01,5.851927500398488961e-03,3.490242757006574350e-03,-7.780179282949944910e-05,2.147946953773498535e-01
2.399797672821624150e-01,3.169199880255985091e-02,2.475078248205417886e-01,3.923085437670946994e-03,-2.510968831400004105e-03,2.930309021754983964e-03,2.123659998178482056e-01
2.215409536807196322e-01,1.655152548602351059e-03,2.284957731041766249e-01,1.304144050678367715e-02,3.053707192253831901e-03,-5.046870727448863475e-03,2.248155325651168823e-01
2.544024626606300465e-01,4.741975821319149853e-02,2.566773985901300015e-01,-1.902812462204639616e-03,1.867976821170042262e-03,-1.815641965457756926e-04,2.081809639930725098e-01
2.305538318192144331e-01,2.803879901277359088e-02,2.466754842479009224e-01,4.094499215338697970e-03,-6.657068087938914107e-04,4.125698412018530964e-03,2.112813591957092285e-01
1.895971572005799299e-01,-1.091605639920700810e-02,2.460878625262439834e-01,3.157549780751130880e-02,6.807711773199235684e-03,-1.087999598080270636e-02,2.412655651569366455e-01
2.706774785827893437e-01,5.391353329273310124e-02,2.942326610831921263e-01,1.002302263248730507e-02,4.410129226720278773e-04,1.936677337950244542e-03,2.301316708326339722e-01
2.107324233548411030e-01,1.057991127130286646e-03,2.020779773342017416e-01,4.227503359605028557e-03,1.368146016426363947e-03,-1.993692202550328106e-03,2.056570053100585938e-01
2.021827308083416763e-01,3.218655466235795237e-02,2.602048052626153574e-01,1.075672036621571487e-02,3.977829654329643853e-03,-1.402331773927847523e-03,2.062262892723083496e-01
1.874314032790609375e-01,5.344389453398379342e-03,2.451661756146168714e-01,2.048308989613824987e-02,1.256952995808698938e-02,-1.522028254402338875e-02,2.223271429538726807e-01
2.150142898150099180e-01,-9.295922401162115545e-04,2.096270137202580208e-01,5.205983031441282702e-03,1.915080022598238596e-03,-1.864603403001607613e-03,2.135419696569442749e-01
1.994102533510350994e-01,-5.083882617394563930e-03,2.213351460785738523e-01,-7.763323842274565123e-03,5.089653399104323780e-03,8.134147409664801640e-03,2.173455357551574707e-01
2.232200703670589315e-01,-2.654229905099669828e-04,2.152694840284808120e-01,-5.280339806469032393e-03,1.876736105441847687e-03,3.685964477105882053e-03,2.199252396821975708e-01
2.210400293303602104e-01,1.275877773198302867e-02,2.117856376361821613e-01,-5.044617114610275635e-03,4.752587661946331039e-03,3.891971386021369529e-03,2.042761743068695068e-01
2.172010475126015527e-01,-2.567068802690808393e-03,2.185949983965605470e-01,-3.366845150668850914e-03,2.367273291264060863e-04,3.825213761357534360e-03,2.206453830003738403e-01
2.225307047085187673e-01,1.015014084946380679e-02,2.213510334551529180e-01,-6.267728993356440695e-03,2.011928939073151339e-03,7.322864627928149690e-03,2.124787718057632446e-01
2.181317387354608506e-01,2.645470763390639357e-03,2.204720060652214375e-01,-2.821953175727667535e-03,-2.327978558736076636e-04,3.743356783996791299e-03,2.168183475732803345e-01
2.153349795384701393e-01,3.685369781505631881e-04,2.138944858134436411e-01,-2.817426871558674668e-03,5.574299236380808598e-04,3.476011090007932736e-03,2.143921256065368652e-01
1.843197848636531633e-01,-8.777576500235570456e-03,1.375652229138311644e-01,1.938624023052035444e-03,-4.282459508004073795e-02,-1.974049859138574266e-04,1.896249651908874512e-01
1.972535234957938088e-01,1.386191687288065855e-02,2.226572241230538873e-01,-1.602934540905429474e-03,-2.882940673461621608e-03,-4.858358583919822338e-03,1.975857019424438477e-01
2.371438324357938443e-01,3.588399747675292961e-02,1.939888229321433677e-01,-6.335522008008428671e-03,-2.516038727523869922e-02,-6.054220005688601414e-03,1.892406344413757324e-01
2.077755428361606205e-01,-2.592104403276285218e-03,1.373394306934047626e-01,-9.028155244264431112e-03,-4.121951581156096944e-02,-1.059361145799829311e-02,2.001915425062179565e-01
2.150544407349543885e-01,-1.698169234328972266e-03,2.121785195301038596e-01,4.586377496801428109e-03,-4.956329093093437750e-06,-2.437525203936028503e-03,2.155168950557708740e-01
1.937425588594932913e-01,7.662543427151474740e-03,1.472143322551043854e-01,2.289455455654402474e-04,-4.227301511856071392e-02,-1.849216042325382012e-03,1.830412894487380981e-01
2.403978000655190017e-01,2.753836170293018359e-02,1.800821124861608780e-01,1.317419020846609390e-03,-1.441234798917903279e-02,4.571429607406350161e-03,1.918317228555679321e-01
2.123395992591501913e-01,2.595707961181469015e-02,1.980595220892617803e-01,3.275405438015630173e-03,-3.070857227759055813e-02,-1.128274012655057631e-03,1.874722987413406372e-01
2.275190697657530348e-01,7.777415746071936198e-04,2.268521661135430856e-01,1.294024894859384031e-03,-2.979484549047489890e-03,-8.488859910578235501e-04,2.264832854270935059e-01
2.431775014622535036e-01,1.736438446782684331e-02,2.425473613181771126e-01,5.757924597163436957e-03,9.258838538990707672e-04,2.006719735861129967e-03,2.257515937089920044e-01
1.655783546786911975e-01,-1.096190636212457381e-02,2.132781895371304026e-01,2.307983194194401094e-02,-1.025417725878180475e-02,8.618186304424806446e-03,2.097593396902084351e-01
1.854769243521153799e-01,4.099858568487962929e-03,2.412028071738947510e-01,9.063198036335026742e-03,-2.467709584020302393e-03,7.879836248270409311e-04,2.153531163930892944e-01
2.473603642997757590e-01,4.270952901747868125e-02,3.033842678822987193e-01,1.977431002074419783e-02,-7.954759111343728123e-03,5.414822522054250215e-03,2.407007366418838501e-01
2.303619859520699420e-01,1.138536145426768953e-02,2.335390726414206253e-01,1.133122789490888542e-03,-3.232673761164168730e-03,-5.355012896475088531e-04,2.206640541553497314e-01
2.065734955193421207e-01,1.022319594784842911e-02,2.318276725228732293e-01,5.549657887182720024e-03,-1.658075333918039010e-03,5.889291596765845564e-03,2.106052488088607788e-01
1.879532032128659880e-01,5.905188826444113248e-03,2.306310856399187148e-01,2.251991373343279965e-02,-1.844706583841482922e-02,8.757553002304603942e-03,2.133183330297470093e-01
1.745004481803943963e-01,-1.804552267714001901e-02,2.109567756381151016e-01,1.971153673528019262e-02,-1.501790044212247474e-02,1.469359319584969889e-02,2.188892066478729248e-01
2.283042008072643236e-01,-1.229326981875333846e-03,2.248752986189017644e-01,1.063077756363466596e-03,-2.500138129284831486e-04,2.870808639411521210e-04,2.278468161821365356e-01
2.296717789214889338e-01,5.969419133188172411e-03,1.271060122752141475e-01,-3.249868070429958898e-04,3.104683140230233684e-03,-5.186327419563305664e-04,1.940317451953887939e-01
1.461265243155109583e-01,4.304798171318319211e-02,2.865841734352099213e-01,1.445346370776239052e-03,7.567313072347212413e-03,-4.069510877118200803e-04,2.121562212705612183e-01
8.090489404583418864e-02,-3.751484081527756143e-03,2.924308762881749901e-01,6.582032233863690379e-03,-3.670791403675898595e-02,1.809308779049239799e-02,2.738091051578521729e-01
1.181668037456969356e-01,3.586923773932035320e-02,3.350556100643566904e-01,1.575081582838963601e-02,-3.263787847025226979e-02,-4.057214073967249819e-03,2.750498354434967041e-01
6.256079524793525803e-03,-4.753718235341482246e-02,2.189420959789113996e-01,4.726183653492237874e-03,1.111902301825838657e-02,-2.520513732647296072e-04,2.449657768011093140e-01
2.957946183290677961e-02,-4.438118182063376105e-02,2.224828916929868505e-01,1.413379632361633394e-02,-3.762767590619858771e-03,5.650547297400645465e-03,2.401806116104125977e-01
2.271843222332950440e-01,3.657200804367516378e-03,2.287719839394675991e-01,-1.080000853018208166e-03,-2.865333033504370141e-03,-2.238172151614452353e-04,2.243881970643997192e-01
1.414290679317733446e-01,2.495185706428784678e-02,2.555863132705213925e-01,-1.873421501568208955e-02,2.455883632934897573e-02,5.412487207166348860e-03,2.069921344518661499e-01
5.048044855067469056e-02,-4.789942369661967514e-02,1.861781207541205463e-01,-8.452643547624335771e-03,6.066137083469634594e-02,-1.089980570710060451e-04,2.295564413070678711e-01
7.290964676997926941e-02,-3.804850882959485980e-02,2.059198845077936935e-01,-5.656232905604898983e-03,7.843676216923294031e-02,9.036862244817152334e-03,2.521109879016876221e-01
1.205361358363462865e-01,5.447920229386407631e-03,2.247335362278665705e-01,6.220098562419134128e-03,6.847802521533442877e-02,3.129791014628307069e-03,2.242932617664337158e-01
3.012593291697361619e-02,-4.463435230268147924e-02,2.136728613001764310e-01,3.268600455731668093e-03,3.924928774599198422e-02,-1.444712101133168586e-03,2.401258647441864014e-01
8.594540367664300906e-02,9.812514777443187564e-04,2.851132490027443733e-01,-9.873878673211934978e-03,3.672404069770357493e-02,-4.358117517332645366e-03,2.611595094203948975e-01
1.906761379415254920e-01,1.900994322299065509e-03,1.911843565248143029e-01,3.424697266315155676e-03,-1.055328783939906388e-02,3.506311487767505442e-03,1.901011168956756592e-01
1.637757148482878733e-01,1.371560886087599962e-03,1.873405180892253608e-01,4.155855648702177010e-03,-2.831816968078269131e-02,6.646236031865453663e-03,1.826130300760269165e-01
1.955981507715108259e-01,8.865016578172790762e-03,1.939567768109992929e-01,1.864532429050351145e-03,-9.298641832165912419e-03,2.227248064757298297e-03,1.866819858551025391e-01
2.052367080013879908e-01,-8.327593220681411834e-03,1.920023187447586765e-01,-1.481603689129456017e-02,-2.967089014260383337e-02,-1.914030233988889274e-02,2.176169753074645996e-01
2.196441250621054553e-01,-5.232299212947350009e-03,2.162664974485931091e-01,-5.791711258317551111e-03,-8.187695857046821358e-04,-4.293376739609478486e-03,2.235603034496307373e-01
2.036452412635887388e-01,-9.270938158447677990e-03,2.049221974722879036e-01,-5.964796486261391036e-03,-3.827307892094827541e-03,-4.776560478221393916e-03,2.140699476003646851e-01
2.270261675635667498e-01,9.274770892495537433e-03,2.362465096162968958e-01,-3.121981098066104084e-03,1.002879392291006894e-03,-3.137921161387028420e-03,2.226437181234359741e-01
2.263160283296336006e-01,4.980974057835596547e-03,2.260894773298466331e-01,-3.619056334512619263e-03,-1.932627304148511194e-03,-4.590634928481739097e-03,2.214787453413009644e-01
2.220527808538101944e-01,-2.959673728247735891e-03,2.236476379783886859e-01,-7.355287960447677402e-03,-1.412623392021774638e-03,-9.329445254774207386e-03,2.267629057168960571e-01
2.199943235417636811e-01,-7.346099723414822869e-04,2.191551790323512106e-01,-4.923645898846742627e-03,4.395109292613375278e-04,-3.782573588042354839e-03,2.205741852521896362e-01
2.091522754078370405e-01,-1.384185338727195180e-03,2.218531789070737892e-01,-8.152100218863216410e-03,-2.243444594744583982e-05,-7.120442707463558486e-03,2.179733663797378540e-01
2.023352608106653849e-01,1.648663088335136639e-02,2.062044031125363497e-01,2.439755966550333308e-03,4.256425955522505182e-03,-9.544701190408058731e-04,1.880124956369400024e-01
1.939182556844145644e-01,1.047641559771049502e-02,2.000990178669436181e-01,4.596214716748657329e-04,2.969035821949127327e-03,-6.846711048703588208e-05,1.866815835237503052e-01
2.073795120706779238e-01,2.370110735136644886e-02,2.076299548497461678e-01,-1.435246970721001459e-03,8.768399070575610965e-03,4.748365677900643332e-04,1.844487190246582031e-01
2.120020476670902432e-01,2.319671430210160090e-02,1.991378107690566779e-01,1.526439199680803020e-03,1.370814646029918683e-02,-2.368037651565847203e-03,1.843140274286270142e-01
1.774993826424823284e-01,6.357484835140675417e-03,1.974723330500325058e-01,6.972474999507497590e-04,7.117288171390425550e-03,1.634772017818490221e-03,1.823955029249191284e-01
1.772927305168865986e-01,-3.175859896888164058e-03,1.753424814038251345e-01,-1.575368280671750765e-03,1.879490924300354290e-02,9.171400013147843183e-04,1.824567615985870361e-01
2.349735029089344840e-01,2.009643613244360694e-02,1.428397004848264429e-01,6.596785187097062644e-03,3.973942907258664475e-02,-3.435546174946378173e-04,1.993286758661270142e-01
2.161343707205778397e-01,3.372208119694394823e-03,1.085858359421937730e-01,5.034402218287515121e-03,3.300360211882083505e-02,-9.358955362717384305e-03,1.938006281852722168e-01
2.158203775154541870e-01,2.120054093536882789e-03,2.096784994669664282e-01,5.294526604312674474e-03,-3.582148533467714290e-04,5.741614684147747488e-04,2.108992636203765869e-01
2.365282496168350512e-01,1.381457354751230993e-02,2.362423175758951721e-01,-8.375487224154454691e-05,4.932754752853023977e-03,-2.470040061397568297e-04,2.227352261543273926e-01
2.702982509055857352e-01,3.171280117573312129e-02,1.654364805666928562e-01,3.123172611568439568e-03,3.878716587642959401e-02,-1.327294575277978249e-02,2.190242558717727661e-01
2.101717184607266864e-01,-7.530965171431930338e-02,1.862635492705289053e-02,2.446811654834744280e-03,3.044587737835770941e-02,-1.849990153166321347e-03,2.575183212757110596e-01
2.055653596165266384e-01,-2.007828142961051721e-02,9.458143649503772399e-02,7.276237304275640777e-03,3.217073229195854811e-02,-1.495198781890159749e-02,2.052414417266845703e-01
2.465742450087143323e-01,1.945539283384488394e-02,1.574248491851698295e-01,1.851196768738998721e-03,2.607243044854942043e-02,-9.432643866875900160e-03,2.039597928524017334e-01
2.844996365227109858e-01,4.362272109537644604e-02,1.440428173304800774e-01,9.406889153846312572e-06,2.437589816899006848e-02,-1.320314657483790538e-02,2.149942368268966675e-01
2.254572157342527028e-01,-3.459757676077160338e-03,9.132927869780839425e-02,-1.680763393682224455e-03,9.188614840689052557e-03,7.240238859429675398e-03,2.002702057361602783e-01
2.310298362542937411e-01,4.631141802051222389e-03,1.017777486808343068e-01,-1.391893483609122099e-03,1.143300783998396110e-02,-1.445040893801314077e-02,1.993097215890884399e-01
1.528458621869897560e-01,-1.087150412132989463e-02,1.906847184155481822e-01,-1.060442590519868576e-02,3.075423488645702072e-02,8.195888527624829376e-03,1.944386363029479980e-01
2.181393413365186329e-01,2.892717732974249556e-02,2.093347457937112521e-01,-8.296719878764010486e-03,2.256190958544060723e-02,7.239961231351407268e-03,1.900097429752349854e-01
2.144415670125595086e-01,-3.410159755189517972e-03,1.777537557649596645e-01,-8.951972830793790414e-03,4.805523584974816242e-02,2.448543335307775109e-03,2.190871536731719971e-01
2.168271402063585429e-01,1.615223091612885686e-02,2.252611164083694328e-01,-5.912144515895564369e-03,7.024220649781596007e-03,5.419454716048468547e-03,2.058519572019577026e-01
2.415538975376240183e-01,1.018762306513848470e-02,2.312980875639768508e-01,-8.731560910340293788e-03,2.045210862394942347e-03,9.106652400331306102e-03,2.274923026561737061e-01
2.004826788309545804e-01,6.496687976518616958e-03,2.193535503554181199e-01,-8.895354934092750479e-03,1.046064757832057199e-02,9.662706279987406596e-03,2.061385959386825562e-01
2.347876698704530196e-01,6.833479262548541877e-03,2.286618114238307409e-01,2.208357766652605317e-03,1.989948763444193127e-04,1.017132649987744289e-02,2.256752997636795044e-01
2.198308010073248275e-01,9.028731934509426349e-03,2.062176258374726623e-01,1.558555963683397848e-02,-1.555388317254636187e-02,1.095351699877456127e-02,2.087284922599792480e-01
2.259645777274087441e-01,1.052922543647052955e-02,2.023506908529998927e-01,6.141003939323672577e-03,-9.583385228654995799e-03,8.635994750474258394e-03,2.061434984207153320e-01
2.475842888946269693e-01,-3.814281403760555467e-03,1.700764581655482832e-01,7.159401708946458963e-03,-3.497137536739391289e-02,3.028924164079337122e-02,2.372728884220123291e-01
2.406507270339260929e-01,2.677978834202687786e-02,1.740595697686141419e-01,3.020444116628803570e-03,-1.030262111704205626e-02,5.778918045013118308e-03,1.907334178686141968e-01
2.283285599226887452e-01,3.198530401720939276e-03,1.581252355766004369e-01,4.612869870323542745e-03,-9.768006880211637169e-03,1.134951659995864920e-02,2.013545930385589600e-01
2.229071621441743312e-01,9.366973318277432847e-03,1.848788374228478582e-01,1.439594835098545640e-02,-3.405647665626522491e-02,1.948930626913017092e-02,2.101564854383468628e-01
2.353911175985775595e-01,1.165589978253586678e-02,2.348761314059869820e-01,-2.525914719824330114e-03,2.407581363152761118e-03,2.712565769141791604e-03,2.236092537641525269e-01
1.883845092507350216e-01,2.988585163592001603e-02,2.171608953995612934e-01,-4.302952548774609059e-04,2.732952993014343621e-02,1.176976161889946911e-03,1.809871345758438110e-01
1.936653008075379101e-01,1.539878599922517299e-02,2.057833357686679743e-01,-4.752206870026684515e-03,1.474954635524341334e-02,8.677323663937050111e-03,1.871692389249801636e-01
1.983376663835311471e-01,2.364124253135559128e-02,2.151026742232731714e-01,-3.200729896577961860e-03,1.528614608436524615e-02,3.909079312115224490e-03,1.857586354017257690e-01
2.335079635036050039e-01,2.347746666107150548e-02,1.922539509770336275e-01,9.152656457882919414e-03,2.096492683952859773e-02,-2.747788591536000011e-03,1.968315243721008301e-01
2.134431717748861423e-01,6.418414049263770904e-03,2.060785570192941174e-01,5.118546106606360752e-03,5.343125792196680435e-03,-6.578012327237227168e-03,2.041638791561126709e-01
2.123576730406217528e-01,2.190809035151203288e-03,2.136118081485427478e-01,9.909585112412171853e-03,1.589995325827256098e-02,-7.296540794500084443e-03,2.136539369821548462e-01
2.217745038580644090e-01,6.197718361985432578e-03,2.251572655782831944e-01,3.355145492612918688e-03,4.417259408993343193e-04,-5.034609052249919454e-03,2.175417989492416382e-01
2.248965806718625227e-01,2.192844812596933535e-03,2.071924668308115502e-01,6.166680587969402237e-03,5.437420391534078697e-03,-7.065564302249556852e-03,2.152211964130401611e-01
1.424420704391031745e-01,3.668876644183438618e-02,3.646744714504668305e-01,3.679238298108197108e-02,-3.274641726436372524e-02,4.610201876968467866e-03,3.023484647274017334e-01
2.327405294207630371e-01,1.076395823775053162e-02,2.359472784925889521e-01,-2.718245414480948037e-03,-3.185965942380956494e-03,4.321416057516580707e-03,2.238399982452392578e-01
2.188784775396583615e-01,1.471271332332574344e-03,2.253542312673337544e-01,4.309314255958852057e-03,8.337924756630953668e-04,-4.059003546526299307e-03,2.209591120481491089e-01
2.195759990019345576e-01,-2.762016770001346488e-03,2.196856129573046823e-01,4.521200510993308823e-03,1.744279664881914120e-03,-5.626850902580951899e-03,2.227644771337509155e-01
2.203251890331887342e-01,5.146181453540787931e-03,2.273819295166372711e-01,4.340507857943179566e-03,4.507060410662044642e-04,-4.726292550043313841e-03,2.190762609243392944e-01
2.178106848230643711e-01,4.904455918579853080e-04,2.243658207815325267e-01,3.751621393871119002e-03,9.021544810651542469e-04,-4.017691801340359838e-03,2.208816707134246826e-01
2.055788092989516425e-01,1.690265597624834859e-03,2.010547718963514030e-01,1.421864606937309032e-02,2.801459696848135686e-02,-1.759999185109367356e-02,2.110896706581115723e-01
2.124937100110097232e-01,1.127230219988145654e-03,2.168952402068788921e-01,3.161986696075914233e-03,3.194864613017694716e-03,-5.713912598744061086e-03,2.139721065759658813e-01
2.157904368937915707e-01,-1.933459270890197645e-03,2.228234487363913441e-01,1.019376029133512405e-02,4.707165268436589063e-03,-5.598495751451802033e-03,2.223885208368301392e-01
2.081492838229496711e-01,-7.739210736688456604e-03,2.148539090133591012e-01,3.939512400628150494e-03,2.551418972722746710e-03,-5.131008930477626642e-03,2.196481674909591675e-01
2.258553028149944963e-01,1.084486728618752616e-02,2.436614364532941335e-01,1.128769706379783265e-02,3.636286825912382181e-03,-9.132867390623558915e-03,2.259362339973449707e-01
2.341570122342221949e-01,2.396309592545911582e-02,2.389258304999662130e-01,7.967982789427621552e-04,-2.471120507379856706e-03,-3.688129280284755535e-03,2.127619087696075439e-01
2.178613348405080419e-01,2.246718076623105409e-03,2.162956315926596873e-01,1.008610436159769821e-02,1.143670061360869787e-02,-4.729096043772272606e-03,2.166084051132202148e-01
2.017766883343312112e-01,-3.152936053395488658e-02,1.672569565240529799e-01,-5.988670521837317906e-03,-1.256739118236092044e-02,-2.003590985457687212e-02,2.221607267856597900e-01
2.172437886644077165e-01,-2.146702916217313462e-02,1.749139252690043445e-01,-7.877795724991136506e-03,-1.518925975897845657e-02,-1.847148473676290745e-02,2.248821556568145752e-01
2.300279121038599495e-01,7.548547820677042886e-03,2.279386434276057249e-01,-2.508944206220551417e-03,-2.685255851103616077e-03,1.837090812562673387e-03,2.215564399957656860e-01
2.372061612892308879e-01,1.341341767017026343e-02,2.320818253460551484e-01,-8.119730602132160455e-04,-8.199249832039072657e-04,-3.338524453047110076e-03,2.213596552610397339e-01
2.219217308558438240e-01,-1.359951000137193944e-02,1.909303633855676530e-01,-4.006049640504648693e-03,-1.330478656696543888e-03,-1.099300489274965785e-02,2.225928753614425659e-01
2.577650829865000826e-01,3.201492367660929705e-02,1.892472861279212160e-01,1.009700846979928561e-02,5.104456550696063327e-02,-1.613469627913949669e-02,2.215702980756759644e-01
2.078081518749345658e-01,1.001934096115905670e-02,1.999900902245443646e-01,-8.599303612291674809e-03,-2.655322119425830921e-02,-9.477413674242731595e-03,2.006034404039382935e-01
2.514280153721810684e-01,2.143690388547050962e-02,2.138200566466172403e-01,-1.544031651292973074e-02,-3.210011643788174274e-02,-1.267116432119782393e-02,2.234925329685211182e-01
2.414886436324016616e-01,4.426384456041283777e-02,2.040602676749744826e-01,-7.864389686463328297e-03,-1.985499883238017391e-02,-8.972096652198252587e-03,1.858128160238265991e-01
2.234684086579701023e-01,2.964595848035100900e-03,2.253613690376435885e-01,-1.220252949537966496e-03,1.029242517627880862e-04,-2.768714405816052014e-03,2.215184271335601807e-01
2.072194831725165109e-01,4.665193868831282731e-03,1.526708226014030223e-01,-1.927491623010033073e-02,-3.522502791278007972e-02,-1.535591873801869962e-02,1.962119191884994507e-01
2.156007591424809466e-01,3.814839642042405776e-03,1.643713678527898292e-01,-5.883547643298283822e-03,-2.702337548778224394e-02,-1.008373731596108429e-02,1.980599462985992432e-01
1.673689595533049967e-01,-1.527285440130310423e-02,2.169640646537440709e-01,-1.751274966544020747e-02,1.345016471031075175e-02,9.290295990443833349e-03,2.158647328615188599e-01
1.942082503250343317e-01,1.341869709840329272e-02,2.629321963337909462e-01,-2.036850133802422733e-02,2.686551626301014392e-02,7.699508640425184978e-03,2.311280071735382080e-01
2.238796631440978235e-01,1.722305976349899903e-02,2.384980418139641956e-01,-1.604874898255738425e-02,4.007119291453940108e-02,1.868689405260778175e-02,2.293011546134948730e-01
2.080671151873004221e-01,1.259118024455857521e-03,2.262855481729792451e-01,-1.392655301636267461e-02,5.841214871278920494e-03,9.859042450068265795e-03,2.187349647283554077e-01
2.288731927372743558e-01,1.757966391368326331e-02,2.483477079186426351e-01,-1.845675454186735884e-02,3.618894555210538932e-02,2.378509989021431598e-02,2.361929714679718018e-01
1.784342130731245146e-01,-7.336144379548714678e-03,2.112821387524212446e-01,-1.120362869273672408e-02,1.502520800285700280e-02,1.035619463159087594e-02,2.075267881155014038e-01
2.081336514906546031e-01,2.503252475276301903e-03,2.263716082921646555e-01,-1.404627916983969098e-02,4.878975776053057559e-03,8.405545324753538675e-03,2.173523157835006714e-01
2.208722206664942567e-01,1.683577366533156594e-03,2.208793600965059944e-01,-2.530622984333131664e-03,-4.008847246021112425e-05,3.364279096603013317e-03,2.193134725093841553e-01
2.113622418133778991e-01,3.316844394437273857e-03,2.193267804465293125e-01,-8.198872694074292459e-04,8.781284659758725178e-04,4.581197339350163815e-03,2.122983783483505249e-01
2.234136604555414518e-01,-2.993853379206601328e-03,2.243859412776787465e-01,-8.257331834226800836e-04,-8.607802116017378765e-04,-2.269225363613231686e-03,2.269386649131774902e-01
2.100615080398463286e-01,-2.192896700641128183e-03,2.116828015052993339e-01,-3.627196451706943617e-03,1.969324176280015919e-03,3.264250107310558667e-03,2.132645249366760254e-01
2.089805010577497346e-01,-6.200190311761055728e-03,2.147951018684449154e-01,-2.120292608004968170e-03,1.292349869740190820e-03,4.215185593916222391e-03,2.183106243610382080e-01
2.523981761581500782e-01,3.978737639626261924e-02,2.527353454515357534e-01,1.314771319950569246e-03,1.821724740467540625e-03,-1.942487089105839147e-03,2.128417640924453735e-01
2.753686581708242320e-01,5.579882723814105772e-02,2.957872546676009740e-01,-1.331163968368216481e-02,2.937318394466602246e-04,6.352985179582950302e-03,2.318708151578903198e-01
2.388293818944368374e-01,1.277741929158049405e-02,2.344115752312308509e-01,-1.280050556647543839e-03,1.935573566093661858e-04,3.174625389450784919e-03,2.239544987678527832e-01
2.262279500775249974e-01,1.422433375019552249e-02,2.403005486645226896e-01,-1.584003057645414630e-02,2.839422847737395556e-04,1.027377374852735982e-02,2.218031287193298340e-01
2.432968020063717707e-01,4.333650153454701726e-02,2.446925331382165392e-01,-8.809269200772838673e-04,-3.559394490807735395e-04,3.662738525101577255e-03,2.007688134908676147e-01
2.209813316331170618e-01,-1.663938939782699800e-03,2.234936101508607775e-01,2.089766231634781948e-03,1.316668093512535394e-03,3.036373756703349917e-03,2.240145951509475708e-01
2.402465832989249817e-01,9.666076243912441468e-03,1.334161998080276301e-01,3.291604027232262076e-03,5.080295561595148113e-02,-1.607083723171436052e-02,2.202208787202835083e-01
2.138669725512531428e-01,-2.096114437993484847e-03,2.203474817095684157e-01,5.987098303371898508e-03,-2.012982808052408371e-03,6.619671403273854997e-03,2.198471128940582275e-01
2.036037393927100925e-01,-1.413442436275724745e-03,2.102278952253782141e-01,9.421087855603594782e-03,-1.789028536054176888e-02,1.209788677612472912e-02,2.123664915561676025e-01
2.165343322526088188e-01,4.881148470210955326e-03,2.287937414817824422e-01,1.267902279942734016e-02,-1.010478968052285799e-02,1.407685406990022772e-02,2.211903482675552368e-01
2.197273005668786416e-01,2.856640890331829663e-03,2.220309624411932747e-01,2.134257606189908247e-03,-3.046505332862094141e-04,3.859313925020050207e-03,2.181660234928131104e-01
2.465144776476916044e-01,2.281307236184529352e-02,2.405964461897810991e-01,8.358125609651067362e-04,-1.200105929839000423e-03,5.503359480782767967e-03,2.210220545530319214e-01
2.503132986685899786e-01,-1.722352779826658020e-03,1.810287630596905672e-01,-2.235424480884488658e-03,-7.543443592951682049e-03,2.265660293063994496e-02,2.293159663677215576e-01
2.790308321319975304e-01,2.542466107543520093e-02,1.989262985677112128e-01,6.177497959343887859e-03,-4.407175101253736453e-03,2.626098222184928416e-02,2.294765710830688477e-01
2.300285691239303820e-01,-1.153268918412914124e-03,2.035171773622626579e-01,1.414211657955208941e-04,1.370730965123581168e-04,8.962928191271889167e-03,2.196817249059677124e-01
2.471501372534259944e-01,1.650664053028250144e-02,2.324360817708320259e-01,-1.001220666340915753e-03,-1.614390341933403953e-03,7.110289345927822517e-03,2.240127623081207275e-01
2.503609487480581430e-01,-5.523068405676873072e-03,2.055821784884917791e-01,5.716224835713044558e-03,5.784997950747731467e-03,2.504587952888542510e-02,2.410475313663482666e-01
2.381525150897761955e-01,3.392492813754005576e-03,2.003941349283966944e-01,-4.410644331736067458e-03,5.790530760635406553e-03,1.468964370912586963e-02,2.201820015907287598e-01
2.406996291553620271e-01,-2.762279669014683359e-03,1.936232997725270688e-01,-3.122440853057129907e-03,1.244356561095530736e-02,2.159406447614211147e-02,2.278624027967453003e-01
2.215873187543219158e-01,5.356594763002681114e-03,2.285603479583158126e-01,-9.987581432033499837e-03,7.933556432632278554e-03,1.006209638077506033e-02,2.215941101312637329e-01
2.409002610404936406e-01,1.281946457627053393e-02,2.408697091882750496e-01,-5.324989279477945585e-03,1.528921480024506008e-02,9.607146514083566083e-03,2.303847223520278931e-01
2.281342635470257618e-01,1.564927831595938623e-02,2.332474281110927805e-01,-1.996612942473156155e-02,3.359726046841711444e-02,1.846961843641766604e-02,2.277457565069198608e-01
2.008276538167944048e-01,8.531371226994849399e-03,2.024611002516715774e-01,-1.605176571675696884e-02,1.844415678134792361e-02,1.194297250966474058e-02,1.987865120172500610e-01
2.366389009226498863e-01,1.756558278671549456e-02,2.449323068485818045e-01,-7.611581272001259266e-03,1.473470359436570773e-02,1.269945517680631276e-02,2.262470722198486328e-01
2.186454369224228311e-01,2.142616650509604481e-03,2.202372338684180919e-01,-3.407370251796895243e-03,-6.642895386310481657e-04,4.741107284951977426e-03,2.175413072109222412e-01
2.457549026990603069e-01,1.943126098037251115e-02,2.224470694705118767e-01,1.050543192498553172e-02,1.656670763266838986e-02,-1.500841966823698165e-02,2.198198139667510986e-01
2.175502544197488453e-01,-6.456854968590608479e-03,1.837894583065963761e-01,1.190074890644407177e-02,-1.038174581009903945e-02,1.397203658679838784e-02,2.123445272445678711e-01
1.851529530024354497e-01,-5.086983764867852864e-03,2.246775426809143328e-01,-1.348531353617638852e-02,1.130165061244900807e-02,4.809906813541364561e-03,2.151063233613967896e-01
2.335299420591190889e-01,5.014232361535392313e-03,2.306872747744242724e-01,2.356038660786104622e-03,-4.253673754331692945e-03,-1.270842840775639974e-03,2.272744923830032349e-01
1.822885141603685366e-01,-6.753807826810648285e-03,2.215974991152591111e-01,-1.178153861009971146e-02,1.006836515338254030e-02,6.424976393580352982e-03,2.134423255920410156e-01
2.204785038826812538e-01,5.342904004771553694e-03,2.448421411335233722e-01,-1.334239408153744567e-02,3.185490041820463782e-03,4.858429641879807165e-03,2.296817600727081299e-01
1.885555915718696296e-01,-1.490071839695120137e-02,2.192564885270769648e-01,-1.102776535676144691e-02,2.453540857513299015e-04,1.068119599459454918e-03,2.212504148483276367e-01
2.394124779632637035e-01,1.076685511016581276e-02,2.348059081608340204e-01,-1.756125939708988665e-03,-2.219772788378775955e-03,-1.021703338747138087e-03,2.264374792575836182e-01
2.217027114744408722e-01,3.377306527795692626e-03,2.304775286970968673e-01,-1.020537746391224528e-02,2.048087561631810154e-03,2.431296284120509129e-03,2.236101776361465454e-01
2.104423803846189323e-01,-3.296051366034197239e-03,2.271557686082711636e-01,-7.018641738698371511e-03,2.090500136377211951e-03,2.089545919862017664e-03,2.229568213224411011e-01
2.092445236418751797e-01,-4.349465209561892420e-03,2.269628422804440548e-01,-5.952894612498547781e-03,3.655905159473270185e-03,2.022185409662151118e-03,2.233372628688812256e-01
1.722335078031796418e-01,-1.327487217506256867e-02,1.935925270427106271e-01,1.698560787893223581e-02,-3.696338675705609228e-02,1.163181946578742063e-02,2.102430760860443115e-01
1.939281601712532499e-01,2.517753154064970855e-02,2.148642543966938490e-01,2.164900835560664046e-03,-1.794584195732384230e-02,3.914740235047237636e-03,1.829597502946853638e-01
2.212986125849742136e-01,-3.789304592586743847e-02,4.257133020415388575e-02,5.116173695284706446e-03,4.700540570900739457e-02,-2.310643508552252118e-02,2.472001463174819946e-01
2.005625277167080167e-01,1.738979154333029908e-02,2.083905492115857017e-01,4.437237684498561256e-03,-2.077377594177829898e-02,8.290806282851403280e-03,1.913304477930068970e-01
1.754985460636624972e-01,2.496480475726120529e-03,2.476634266838474430e-01,-2.373357921037605456e-02,3.699339258998425844e-03,-3.381484802794385361e-03,2.222326844930648804e-01
2.059719613070202238e-01,1.645738238815852572e-02,2.481599711741208636e-01,-1.538653293305982349e-02,-6.969297169134977890e-03,3.908329256870367308e-03,2.158532440662384033e-01
2.260628860514662941e-01,1.100136752586244882e-03,2.301963472283768963e-01,-5.652164064930211701e-03,-1.187781987990580140e-03,2.602264690232014305e-03,2.273226529359817505e-01
1.987835786671055538e-01,-3.477415720871179783e-03,2.174929646104154513e-01,-1.265083363007916788e-02,9.394101935963870831e-03,1.075179803991516136e-02,2.147915512323379517e-01
2.418057319744121303e-01,2.610296262432462711e-02,2.601668171640750815e-01,-8.696247452664153388e-03,-3.437834203161683946e-03,-8.583018358528061390e-04,2.260307371616363525e-01
2.082474034757200720e-01,1.712464100423249924e-02,2.492083298518583401e-01,-9.354577403933110255e-03,-1.142681049845856384e-03,-7.987154028521850678e-04,2.151804566383361816e-01
1.816755125397431780e-01,3.785991115266507112e-03,2.041798575303367391e-01,3.340295894934688058e-04,-7.754560552930611639e-03,4.266767623064760678e-03,1.907610148191452026e-01
1.611780997590698816e-01,-1.133767152280014401e-02,1.862210911276943881e-01,1.054064061567638877e-02,-1.761831612811855935e-02,6.594367095167670903e-03,1.900108903646469116e-01
1.892258266600045924e-01,1.587294454506160690e-02,2.090010409307324069e-01,1.698563997276371666e-03,-1.807371046507658119e-02,2.487054663572955959e-03,1.867553442716598511e-01
2.010595794614330190e-01,2.002896200370754554e-02,2.060282650310851782e-01,3.079648351120085523e-04,-6.942100567559130429e-03,2.181813161704428307e-05,1.839595586061477661e-01
1.807753610218843510e-01,1.370024350383866607e-02,2.045516731975904334e-01,4.311031882045881537e-03,-1.463063105074088703e-02,2.280185588244863521e-03,1.821135878562927246e-01
2.035732656086275405e-01,1.738337186088181885e-02,2.054081734788590352e-01,6.321664991509376831e-04,-1.375769809106721286e-03,-3.063412502979615698e-04,1.871332228183746338e-01
2.227806878133634649e-01,1.928094681169861824e-02,2.225987134863507411e-01,4.416273836572450276e-03,6.459808127156815502e-03,-5.750079220165991295e-03,2.041029930114746094e-01
2.235197848968168421e-01,1.945311385587981945e-02,1.768148490943750595e-01,9.508950925598209578e-03,1.777126878781245742e-02,-1.185824514268800367e-02,1.895631998777389526e-01
2.062399111796394680e-01,1.211457086012575346e-02,1.890667164919332122e-01,3.981480598636395578e-03,5.681432606465594039e-03,-4.028076900046356247e-03,1.866517663002014160e-01
1.926156276032932047e-01,1.370996404876534402e-02,1.947623269348398023e-01,3.502486998494573883e-03,1.069017772273374994e-02,-3.252321287661800488e-03,1.811277866363525391e-01
1.918729877134936479e-01,1.656293498927374763e-03,1.894874441548676236e-01,4.280029815648350375e-03,1.099950920391149639e-02,-3.753593593307088735e-03,1.902485340833663940e-01
2.037891333040913744e-01,2.602099383695578860e-02,2.143691539378733690e-01,3.552455948062509077e-03,1.294750306840002085e-02,-3.161776407192469669e-03,1.848377734422683716e-01
1.588091301593549942e-01,-2.517785192245659831e-02,1.176116849285889498e-01,6.633455570159421319e-03,-6.146437357191198575e-02,1.063174193258442993e-02,1.994325965642929077e-01
1.787912336312793837e-01,-7.905121440100387753e-03,1.550458674312807650e-01,-2.582218978794108104e-03,-2.956735754082411016e-02,-1.544077830980865535e-03,1.834013015031814575e-01
2.212650068155055383e-01,1.229031655111396948e-02,1.486701827525898911e-01,2.888179353908984850e-03,-3.538123604287501250e-02,6.403939644759010057e-03,1.940966248512268066e-01
2.297969578188720219e-01,1.128474372391094493e-02,1.534071060479874626e-01,1.245106850682910736e-02,-4.828133256439846172e-02,-5.445028380565391894e-03,2.108036428689956665e-01
1.943766165081542985e-01,5.427731609158797932e-03,1.734836871468249386e-01,6.174092191277485119e-03,-2.375942971082272565e-02,6.378560318703855973e-03,1.847172081470489502e-01
2.345672241826963766e-01,1.989999032718295369e-02,2.299349672903079900e-01,-1.102453792743401072e-02,3.991197444095670108e-03,9.435469974018473663e-03,2.139826565980911255e-01
2.332082851503242682e-01,9.938742822260260290e-03,2.254353209960608673e-01,-9.975620187440805212e-03,4.564127217287844256e-03,7.714870429885895518e-03,2.207120954990386963e-01
2.539205076270908412e-01,5.682504417702893829e-02,2.851064291914554572e-01,-4.370297395040665528e-03,-2.072996637013798879e-04,-1.076040644945145362e-03,2.145383208990097046e-01
2.540396253873639099e-01,4.166731272042392686e-02,2.389368742793309131e-01,6.886124611860978961e-03,-6.998493351983716207e-03,1.381376381095924914e-03,2.059553414583206177e-01
2.776836251937412348e-01,4.806303306517259455e-02,2.845825233598916482e-01,-3.223572111641124366e-03,6.715329092828486134e-03,6.231743058921045651e-03,2.337526530027389526e-01
2.691587244530352363e-01,4.415742650873408226e-02,2.458136900321606366e-01,1.448321403590427164e-03,3.632230257072984175e-03,3.966245174649949204e-03,2.145016938447952271e-01
2.258166042175806520e-01,7.493658959454307933e-03,2.331907085969142646e-01,8.123530684877417699e-04,-2.447514369636272138e-03,-3.702290582115010716e-03,2.222392708063125610e-01
2.276761557015145043e-01,-1.323336726191115531e-03,1.984649161456046862e-01,6.725901363212846359e-03,2.308164155889886639e-03,-1.735106501885445851e-02,2.183107435703277588e-01
2.432351252220887328e-01,1.837172909289938594e-02,2.448627062042429969e-01,1.540026171030135262e-03,-3.768687974735366372e-03,-1.395776601832054813e-02,2.270822823047637939e-01
2.330659327879567033e-01,1.105674661385441793e-02,2.311990404280964140e-01,7.216811536574639814e-03,1.401057724445584074e-03,-1.171400956740385399e-02,2.223755568265914917e-01
2.506977368494549552e-01,1.959133245781299881e-02,2.366692731084049650e-01,6.218183608228102822e-03,5.616229260314012893e-03,-1.064019677063585828e-02,2.256438881158828735e-01
2.611721330322930301e-01,1.500417268448586694e-02,2.064641738764714796e-01,6.077119956519273260e-03,2.392217644487032099e-02,-2.548084996562728285e-02,2.321631014347076416e-01
2.282984193661239392e-01,5.241313952874415705e-03,2.227278916417378962e-01,3.173441672656258754e-03,-3.703289776584832590e-04,-3.689897270793475025e-03,2.204867899417877197e-01
2.077217296426669135e-01,1.913904864231871783e-02,2.042377578056265297e-01,2.068727835966882329e-03,1.161164127602278906e-03,-2.663771646310748192e-04,1.869107931852340698e-01
2.309941192364382001e-01,4.755607197289207777e-03,2.258654899273054295e-01,1.661472192949183966e-03,1.872518298990880114e-03,-3.096849512679385099e-03,2.238245904445648193e-01
2.720472828530732246e-01,5.038138618146806302e-02,2.840975636578302321e-01,4.065961405584618722e-03,8.369207640656420311e-03,-1.176249054657114296e-02,2.294055670499801636e-01
2.789485791609601639e-01,6.401363525692924106e-02,2.790457347015921075e-01,1.872115182383957133e-02,3.125467021239957972e-03,-3.667692709184211964e-03,2.175753414630889893e-01
2.302976435921035292e-01,9.357452294574186702e-03,2.290651802827741723e-01,8.759874094153905985e-03,1.826550890604038786e-03,-7.660425171818537049e-03,2.212691754102706909e-01
2.416922832937989929e-01,1.751855206909072593e-02,2.435901469690478494e-01,-8.925206092627320075e-04,7.737903090321665046e-04,-2.221908006836108371e-03,2.251708507537841797e-01
2.451259534477280844e-01,2.476312506917097145e-02,2.436002058966390549e-01,3.990997038188581563e-04,7.430233692751653414e-04,-5.326183489319252611e-03,2.198024690151214600e-01
2.307488324997130635e-01,8.389868253909915641e-03,2.284127637894220186e-01,3.130158217482634404e-03,-2.658418798233962935e-03,-1.952804184905434105e-03,2.213403582572937012e-01
2.584404373364651564e-01,4.963017735051336587e-02,2.587847076056514206e-01,-1.899638914990125918e-03,1.238156655756072729e-03,-3.292960891756500046e-05,2.090195119380950928e-01
2.433291349228488554e-01,4.008311241977380313e-02,2.454086594027268531e-01,6.540150790162002452e-04,-2.318959992432281965e-03,1.957790011845159019e-03,2.043644785881042480e-01
2.360844097169447764e-01,2.341222163541814560e-02,2.331964230238708635e-01,1.802774653269604687e-03,-2.821997077536827787e-03,-2.131562506312647230e-03,2.113548666238784790e-01
2.188943267914356117e-01,-2.741231677468869421e-04,2.120886169916438302e-01,3.479970561857045029e-03,5.258459755448460131e-04,-2.345958498072111750e-03,2.159703671932220459e-01
2.187311404094805511e-01,-5.247065070479450810e-03,2.146677400250796564e-01,2.105923718793746742e-03,-2.103670438237129016e-04,-2.361484507799508237e-03,2.220423370599746704e-01
2.231725433696756800e-01,3.357249275939278021e-03,2.190741572447480467e-01,5.239286295327725933e-03,-5.418356919715987870e-04,-4.276638649579904763e-03,2.181118279695510864e-01
2.255305569618641370e-01,2.116653143755253819e-04,2.265644067137113638e-01,8.857830851632529819e-04,-2.838788411951457397e-03,-1.176345159254104343e-03,2.259055078029632568e-01
2.253365203610222800e-01,7.169779101501128071e-03,2.210055491166280917e-01,5.863495307772518227e-03,-3.889530495327591210e-04,-3.096848644696437430e-03,2.163399606943130493e-01
2.263599462657071293e-01,-3.849810546222770524e-03,2.145679870893915653e-01,5.020105607437095815e-03,3.696815341896425664e-03,-5.392500098294620431e-03,2.249995470046997070e-01
2.138077482402355178e-01,3.543384556848189204e-03,2.182109297688221983e-01,3.121757357006478811e-03,-3.811195931187231784e-03,4.010325179058179222e-03,2.127848267555236816e-01
2.097377305635130806e-01,1.209600173550634539e-02,2.138252011980811551e-01,2.195718915369431878e-03,-1.750383527595393693e-03,4.830536690916031710e-03,1.999511718750000000e-01
1.932228646620722801e-01,-3.490298814483344669e-03,2.085567101676743251e-01,5.235064077226311494e-03,-3.342516114597464134e-03,6.099093613069245419e-03,2.053652703762054443e-01
2.129688201233151945e-01,-6.528516068614043100e-04,2.095459550412396010e-01,1.983986621334988751e-03,-6.268445959738679031e-04,4.406017311500631632e-03,2.120989412069320679e-01
2.088877459327801445e-01,6.021032497474654299e-05,2.151506888860650890e-01,2.847964780740514044e-03,-2.622821228967046284e-03,4.130913420963330113e-03,2.122550457715988159e-01
2.391480552594320019e-01,3.109994586679959427e-02,2.047487920949901397e-01,-6.161735985504960406e-03,2.341011377830119408e-02,1.290792054043344260e-02,1.989182382822036743e-01
2.236672743729767598e-01,8.117503233336972879e-03,1.512986196572656816e-01,-4.989128606052182190e-03,2.301443848719246163e-02,2.454341372630169851e-03,1.943749338388442993e-01
2.539135607111392967e-01,7.413601019545162929e-03,1.435287458831892016e-01,-1.579675342349661990e-02,2.055662874377362295e-02,2.328326081381434931e-02,2.222157865762710571e-01
2.761060938745506510e-01,2.832096869104139270e-02,1.585797858472898780e-01,-8.649791953971711078e-03,2.185342480265011975e-02,2.540869947131242645e-02,2.228959649801254272e-01
2.322487642929157436e-01,6.581172011358993323e-04,1.480299650366936892e-01,-5.416297566331245393e-03,1.389344576230084824e-02,1.915726855692992045e-02,2.073423266410827637e-01
2.219578898091520425e-01,1.762543351211240394e-02,2.377745665531716956e-01,9.534937841517805365e-03,4.016240211281249355e-03,-4.917767350767128856e-03,2.136058807373046875e-01
2.314963909475342974e-01,8.864311600544877434e-03,2.321789572793349632e-01,-6.425267607731001071e-03,-2.033577488485401822e-03,-2.603587165827747456e-03,2.233250141143798828e-01
1.731357771721110939e-01,-5.434736495040609627e-02,2.336908782069340162e-01,-3.726512477301220649e-02,1.229861295753249427e-03,-3.292661952570855640e-03,2.709130644798278809e-01
5.812886274194704189e-02,-9.151652322208786439e-02,1.994351850736303666e-01,-6.028654081154144473e-02,5.158863716236766588e-03,-9.392669974025718779e-03,2.734135389328002930e-01
1.357645840256521408e-01,5.066720650079153954e-03,2.734863911713746876e-01,-3.644154653689380546e-02,3.842903567017264682e-02,-1.901125123193976932e-02,2.520868778228759766e-01
2.599128669749940501e-01,2.697633050685740996e-02,2.880214187904661105e-01,-6.881213582849489419e-02,-1.663588837188380298e-02,3.133716174949303674e-03,2.768791913986206055e-01
2.403529447668104613e-01,1.528686056070069355e-02,2.436511801027194668e-01,-1.296360771507485375e-02,-2.145836209367807737e-03,3.578039781689957427e-03,2.279568612575531006e-01
2.669081899612197328e-01,4.033898589326193052e-02,2.782147259589862753e-01,-1.092195418885247987e-02,-5.402135913393880245e-03,-4.049994897673896382e-04,2.333860844373703003e-01
1.805053866557947695e-01,2.648928288057426916e-02,2.440923260033677766e-01,1.096729583845352553e-02,1.777103581806767710e-02,-7.832135630977092242e-03,1.976106613874435425e-01
1.984176900654783804e-01,2.045418234145786329e-02,2.107993624728350390e-01,1.911185786274930071e-03,1.165918388752252254e-02,-3.713097890591350505e-03,1.857092678546905518e-01
1.967737773325580475e-01,1.568775154023849261e-02,2.272522368521773528e-01,5.961410270157290955e-03,6.953343381574161007e-03,-6.528694225534966387e-03,1.990473419427871704e-01
1.834325409930805395e-01,1.666294908809502762e-02,2.183160590808743695e-01,2.847984206032488398e-03,2.318117667573358492e-02,-4.397239927172703899e-03,1.911567598581314087e-01
1.883431204663878200e-01,1.314026094470109596e-02,2.040569133090570642e-01,3.870869591409870601e-03,5.529924165595633857e-03,-3.333114861554526808e-03,1.840274035930633545e-01
2.189809550766048940e-01,-2.984849199280464882e-03,2.206770911227571019e-01,1.827239435725422356e-03,-2.659171633373216500e-04,-1.848252473719628293e-03,2.228646576404571533e-01
2.007383869577535895e-01,1.076005163696938660e-02,2.103695891400625961e-01,5.577063437174911882e-03,4.020515659064034797e-03,-5.751422420451203325e-03,1.955895870923995972e-01
2.036696498313459724e-01,1.867029815049300878e-02,2.266587653932039537e-01,4.736229253064026118e-03,3.098262950556645180e-03,-6.637412400578397362e-03,1.980769783258438110e-01
2.264629778819223505e-01,3.276014324304243885e-03,2.306309277124327650e-01,1.933060332450060653e-03,-2.569369935852423067e-03,-3.229697904413185525e-03,2.254380881786346436e-01
2.366999994651857731e-01,1.758070034219344491e-02,2.367701942489526812e-01,-1.019414571603629834e-04,-4.474573419096367771e-03,-4.187908788543692751e-03,2.194114029407501221e-01
2.250605833984306026e-01,-2.304849931519192818e-03,2.056027590392469628e-01,8.487549551677093379e-03,4.703236576308823975e-03,-8.300260202646696575e-03,2.194054871797561646e-01
2.283619686423642992e-01,2.033432060263323793e-03,2.263226740240076862e-01,1.791789440304731489e-03,4.682935001154028094e-04,-2.680949255138307362e-03,2.253864854574203491e-01
2.330122010951050926e-01,1.351009581898363066e-02,2.309601409421441764e-01,6.957749114652251503e-04,1.099100459368314211e-03,-4.315402335697157872e-03,2.186227291822433472e-01
2.349482797985213978e-01,1.029847961855340222e-02,2.276985246588922873e-01,6.098027051492586458e-04,1.059933602971886279e-03,-2.610723947977434522e-03,2.211704552173614502e-01
2.115711010889838317e-01,2.723280997463356501e-03,2.085232980718619844e-01,3.575686854217630887e-03,7.019825955641463685e-04,-8.411471576634499923e-04,2.074418812990188599e-01
2.391687200235041999e-01,7.063502964165663256e-03,2.197103173792581687e-01,-6.673608532794877805e-03,-4.521076966286900062e-03,-8.750042953877924107e-03,2.239635884761810303e-01
2.267036981522722039e-01,6.419425575539539075e-04,2.243699178565246588e-01,-1.401467973274663978e-03,1.072548303017969892e-04,-1.656230501154137141e-03,2.249354124069213867e-01
2.272152969762967212e-01,4.776998905231422121e-03,2.204845869364998878e-01,-4.116282008221061606e-03,-3.817208285905436690e-04,-3.676642820695064789e-03,2.193598747253417969e-01
2.065733192776032234e-01,-2.421977229191649150e-02,1.643831575652917598e-01,-7.289167162139930864e-03,-2.028577721340143677e-02,-2.187457360861783454e-02,2.194030284881591797e-01
2.420488202123187160e-01,1.021077286289323593e-02,2.341407902756030557e-01,-9.822723460559889055e-03,-6.427150894215587825e-04,-9.578392801968087233e-03,2.292247116565704346e-01
2.183683629942137494e-01,4.631016925096653747e-03,1.791434135411251738e-01,-8.582295725390015617e-03,-3.198412465721506281e-02,-1.922116830897638642e-02,2.079343497753143311e-01
2.329370383476888906e-01,2.893930315572809664e-02,2.285119757574686217e-01,-9.632076982750644584e-03,-1.682113485196431307e-02,-1.169002093711237443e-02,2.055945247411727905e-01
1.747811996860699768e-01,4.009913997573222311e-03,2.441659323948775218e-01,-1.750579228001769572e-02,-1.804567152961385895e-02,-9.559166191951235306e-03,2.190808653831481934e-01
2.032352335896863704e-01,2.487519830520143471e-02,2.305487285360338645e-01,-9.899779770420939762e-03,-3.338707481024642820e-02,-9.765864459316287230e-03,2.033572942018508911e-01
1.916500882939086159e-01,-2.371187958166870446e-02,1.946971348603612206e-01,-1.268977359835285652e-02,-1.960543740573068849e-02,-1.205944888750790089e-02,2.216275781393051147e-01
1.834768938364262081e-01,-9.553689064594889091e-03,1.990415843637518833e-01,-2.368860954854437682e-03,-1.390332725309661663e-02,-3.725770376796330025e-03,2.028445601463317871e-01
2.121205622360778364e-01,9.584903446626102941e-03,2.198027505160322637e-01,-1.580610566944060102e-02,-1.756854662116756269e-02,-1.917140894460564113e-02,2.131049335002899170e-01
1.679915235141973828e-01,-2.077986674436065051e-02,1.516411121683074736e-01,2.908588014867090690e-02,-8.307133840119017287e-02,2.250509452106073602e-02,2.399488091468811035e-01
1.976438191353817042e-01,1.438288609896427872e-02,1.875515100646395761e-01,1.186012528263720098e-02,-5.672941139609770367e-02,2.079063760010939690e-02,2.078709155321121216e-01
2.067844799571044168e-01,1.731922483504814980e-02,1.861738240006021727e-01,3.870181616088094485e-03,-3.472614081988587009e-02,1.064567838394319538e-02,1.908389925956726074e-01
2.067519250160378963e-01,1.232235984689314390e-02,2.175319080825853513e-01,1.211544481054051443e-02,-2.015680389276960569e-02,1.113090817421346496e-02,2.050510793924331665e-01
8.713332576892236780e-02,-7.131966962250591013e-02,1.206600844509379683e-01,1.726948283918297924e-02,1.121034913527757387e-01,-1.278477876661143764e-02,2.657638788223266602e-01
2.201641571614688098e-01,2.332356985280199801e-02,1.893649968191152277e-01,1.197067656383871137e-02,-5.843994537784830134e-02,1.849271690546351252e-02,2.129173427820205688e-01
2.301689411614114000e-01,1.969522764689118910e-03,2.237640955690748390e-01,2.611553139662506785e-03,6.361696079660078464e-04,3.220585264075751485e-03,2.251826077699661255e-01
2.260210781535930136e-01,9.265775100474660242e-03,2.306380128433372367e-01,9.710643949693748694e-03,-3.842931384748262281e-03,7.591256695740426427e-03,2.202385067939758301e-01
2.234490262203075728e-01,5.463152634425122445e-03,2.284067935016391160e-01,3.861386355656316535e-03,1.205002912381515547e-03,5.314953588394719097e-03,2.208098173141479492e-01
2.173707058213548704e-01,1.726437718682832800e-03,2.242863528878429047e-01,6.697187395274431521e-03,-1.771986667401021951e-03,5.558957941510160421e-03,2.197231799364089966e-01
2.079112532023366378e-01,-1.339908178951576545e-03,2.208059004924071145e-01,8.135630798369318170e-03,-9.498037932732099646e-04,7.694900828503005094e-03,2.168627381324768066e-01
2.221236223738002058e-01,-3.002354933617001898e-03,2.215363493223016511e-01,9.022544473060875809e-04,-4.587779426210275135e-04,-1.807961121440474341e-04,2.248399704694747925e-01
1.740940230605181049e-01,1.877580199959752449e-02,2.402640824230015681e-01,7.936753654138808609e-03,-9.080123663066498249e-03,2.877409041981418385e-03,1.980929076671600342e-01
2.107812151313581406e-01,7.804315604639511239e-03,2.330047454361413029e-01,1.241955975005959792e-02,-1.213806296776299108e-02,1.436544592614386745e-02,2.184678465127944946e-01
1.439929138145069620e-01,4.417487775911194126e-03,2.199019785013137662e-01,1.212079033312757174e-02,-3.371728608341052758e-02,1.266966111192605396e-02,2.004280239343643188e-01
1.589595149735292257e-01,-4.098374189252074196e-03,2.161763081268323894e-01,2.073240575257805085e-02,-2.819908729263593747e-02,6.929535818295400745e-03,2.073895037174224854e-01
2.145535566137707906e-01,-7.664694913753322680e-03,1.825009721275493435e-01,1.201056879254459170e-02,-1.065614517813311991e-02,1.413217044407267739e-02,2.113249301910400391e-01
2.214943794702845525e-01,2.407471708508163166e-03,2.228810038236447022e-01,1.086798490911675304e-02,-1.410721220080483201e-02,6.490482105650336245e-03,2.222218364477157593e-01
1.972556309712698019e-01,-2.247184039097792352e-02,1.278863844888385448e-01,2.588277355203180002e-02,-4.454105374094763370e-02,3.375187058698284753e-02,2.218760102987289429e-01
2.389733510211857759e-01,1.982832709271667437e-02,2.223634539967920265e-01,1.225404594618782414e-02,-1.371295675438445431e-02,1.121836063187769267e-02,2.145987600088119507e-01
1.890806598527952076e-01,2.197736801928000527e-02,2.281542251491505136e-01,7.116211397181808167e-03,-1.832912677286403433e-02,3.490462963268566206e-03,1.928105801343917847e-01
2.216175963905096524e-01,1.144958854645550250e-04,2.153099640901526834e-01,5.100529763150452901e-03,1.437176666492901258e-04,-3.814452982572831552e-03,2.186961472034454346e-01
2.162790833367024823e-01,-7.022555689557841152e-04,2.213376936419604868e-01,3.601728997433755602e-03,2.969408223780957835e-04,-4.362048537663150427e-03,2.197734713554382324e-01
2.265792595154587086e-01,8.279602301536348463e-04,2.269307612805348262e-01,3.557382458956281825e-03,-2.840310821766058383e-03,-3.364728094178845268e-03,2.261399030685424805e-01
2.211579122968546085e-01,-3.763573422072480357e-03,2.207489317400884443e-01,4.333640982030580700e-03,-3.640511482667308711e-04,-4.267397556474896575e-03,2.249649465084075928e-01
1.825630656886318426e-01,-3.125119211548621490e-03,2.200868579228741906e-01,8.109878432179975019e-03,-6.721532907295800670e-03,6.894130967674328737e-03,2.081617116928100586e-01
1.791958075106553916e-01,-6.289301551454462569e-03,2.242912774561903189e-01,9.631610165246573887e-03,-8.706478758499008527e-03,7.554358067624149936e-03,2.132598906755447388e-01
1.888453258619332553e-01,2.820003067439905142e-02,2.474874057569854402e-01,8.915137730524082260e-03,-9.908088976291491018e-03,2.994166914987810707e-03,1.980561167001724243e-01
1.545313612113670687e-01,4.536156028405874396e-03,2.323204876061519264e-01,3.532243012885882914e-03,-8.507769945913548973e-03,4.902743725520243914e-03,2.013563811779022217e-01
1.657756082956503563e-01,-3.249005278336269953e-04,2.137246639229418710e-01,6.249663743460524834e-03,-8.949757256909704473e-03,7.378200312791933536e-03,1.958919018507003784e-01
1.735854806894942537e-01,1.218123451424127368e-02,2.301649457015179367e-01,2.743679882147650236e-03,-4.447394711340895389e-03,3.631748444354317845e-03,1.962300240993499756e-01
1.573819329959118829e-01,8.066446628441914513e-03,2.338688002828908652e-01,-1.214079627778276438e-02,1.203040200277130482e-02,3.940988232168826134e-03,2.012188136577606201e-01
1.458733583538872891e-01,1.127407199474024513e-02,2.359173913562273017e-01,-9.195095619406613158e-03,1.209533596983792571e-02,3.605632157752196396e-03,1.976772695779800415e-01
1.548093941822908381e-01,-4.124678492882338787e-03,2.086175034882976065e-01,-8.343016032495412584e-03,1.768089814086399106e-02,3.951588103128364157e-03,1.946812719106674194e-01
1.762814633202027248e-01,1.158792000803257616e-02,2.216359014527403692e-01,-4.887409096687633271e-03,8.437258944375670977e-03,3.084607108582277345e-03,1.922611147165298462e-01
1.471734747922625319e-01,3.854740347478929907e-03,2.183391982078640159e-01,-5.699698504293846703e-03,2.133822940897450379e-02,2.495895553891966726e-03,1.930966377258300781e-01
1.621611243549306303e-01,2.033395327794684793e-02,2.269159006333635320e-01,9.964251676465322918e-04,4.387982153964238401e-03,3.767610771669161048e-06,1.831743866205215454e-01
1.502030951080049193e-01,1.955746098068091021e-02,2.348399545573614522e-01,-4.763049704559872569e-04,1.069669239666955207e-02,2.196165374735115257e-03,1.888055205345153809e-01
2.119865728644647340e-01,6.200071752406027814e-03,2.043327595250684081e-01,6.063503598849383745e-03,2.155942817136321816e-03,-3.709793221005682796e-03,2.024775147438049316e-01
2.068016885603322641e-01,2.898560408362227392e-03,2.073241926863298445e-01,3.987448407322066908e-03,3.803076498553632258e-03,-3.299655290180712221e-03,2.044677287340164185e-01
1.872778114322174448e-01,2.662917744771370332e-04,1.833397310238270017e-01,5.153013439443151697e-03,1.469433021194552734e-02,-3.575013086218566290e-03,1.871313005685806274e-01
2.138031332078881297e-01,2.060793898806098645e-02,2.084992353150603717e-01,2.795081125481418700e-03,5.899022692282187598e-03,-2.445808194060805889e-03,1.909806430339813232e-01
2.227026066168794893e-01,1.787697101176596859e-02,2.185581912792706194e-01,6.912010315992216450e-03,5.185539620159320025e-03,-3.567326694181277135e-03,2.034306079149246216e-01
2.124033508401600712e-01,4.944132093954722862e-03,1.977900832460858793e-01,7.425682511696299337e-03,5.417026425185954286e-03,-1.727166698137764210e-03,2.012054175138473511e-01
2.211060311266335177e-01,-4.405564679428181085e-03,2.237013862730721225e-01,2.170128237665302270e-03,-1.653357014548721758e-04,2.118793210641439079e-03,2.268814146518707275e-01
2.278786399281761410e-01,7.033778498390819145e-03,2.288407146625067723e-01,-3.894602776223508693e-03,-9.762030551592602206e-04,2.596121928815538216e-03,2.214823514223098755e-01
2.068976807994708234e-01,-3.331546453332251412e-03,1.952478021154570031e-01,-7.703838852149063297e-03,-5.992773896242056982e-03,-5.265528254960100130e-03,2.055525928735733032e-01
2.157466065393615351e-01,-1.484163271044430799e-02,1.754996219595930662e-01,-8.105833786086365927e-03,1.698029805278364335e-02,1.633123183958299154e-02,2.176522612571716309e-01
2.144575187249405934e-01,4.543355307838031765e-03,1.807328121847625868e-01,-8.978792194227834533e-03,1.470912193274123876e-02,1.412952988475443122e-02,1.990273296833038330e-01
2.280892722311536058e-01,7.660422277236594857e-03,2.312142502392502408e-01,-6.220912489595927485e-03,1.556690503244554432e-03,3.643364188076847129e-03,2.223750650882720947e-01
2.590475994039952434e-01,4.571331209380843918e-02,2.603072554613835576e-01,4.042524420881365814e-03,-1.936877709372758494e-03,-4.100119259249209065e-03,2.142254561185836792e-01
2.261079388986160232e-01,7.254856183023017380e-03,2.305254065180809553e-01,-1.701418506360082884e-03,-7.278948979130619177e-04,2.658463178351354317e-03,2.211660891771316528e-01
2.258181560673448440e-01,9.501721946381380679e-04,2.296456615975284443e-01,-1.810524224773576692e-03,-3.891788418114292512e-03,3.489605136663564370e-03,2.270082533359527588e-01
2.286818953011625077e-01,-6.651371587134163876e-03,1.978039163164531100e-01,-5.307093580023744019e-03,3.665053377860753251e-03,1.627536754343001518e-02,2.235800474882125854e-01
2.358549948423356857e-01,9.387117234612357697e-03,1.985866044375666772e-01,-7.402031812085743158e-03,6.740543733953946980e-03,1.165902209908204444e-02,2.120023816823959351e-01
2.307100069091769790e-01,5.209354825722989357e-03,2.220850014422436347e-01,-4.527315067324465085e-03,6.570719564842209936e-04,5.871495383541467696e-03,2.216894179582595825e-01
2.269348194862628176e-01,1.625302316377189027e-02,2.141441114580046046e-01,-1.035724402611483408e-02,1.647920547098967806e-02,1.593468622760172912e-02,2.091743350028991699e-01
2.567869190413571978e-01,4.249292772515184113e-02,2.616334892290484992e-01,-1.839129585719600363e-02,2.506107122295015213e-02,1.738887147349617475e-03,2.233650833368301392e-01
2.278389127792498914e-01,3.454265049591676018e-03,2.118275002579320110e-01,-4.337000882845353823e-03,5.134084461782570212e-03,1.295469488886619169e-02,2.182913124561309814e-01
2.533061877980911092e-01,1.990576733101537266e-02,2.313970392395131581e-01,-2.293960931998428876e-02,2.495781869372460174e-02,1.769802285112792931e-02,2.328715920448303223e-01
2.261413645674038020e-01,4.146629672618779017e-03,2.287570646537466501e-01,-4.953193081168354855e-03,1.807157497647770585e-04,2.333030672336262011e-03,2.235155552625656128e-01
2.044482653462386945e-01,1.452774223840241907e-02,2.112627045122312253e-01,-1.637216727358269521e-04,3.366964914076264401e-03,-3.976496334481362249e-03,1.936284303665161133e-01
2.507016765226628419e-01,3.837265559637695334e-02,2.505477891507502664e-01,1.828709016953114453e-03,1.056889569747930567e-03,-6.179734943892446720e-04,2.122863382101058960e-01
2.246687805578928276e-01,-1.999281483035075802e-03,2.256892137043457480e-01,-1.031207718228702988e-03,-9.883049756444584142e-04,7.435439576858552529e-04,2.271971106529235840e-01
2.328174652991408800e-01,4.631887485266161786e-03,2.279499645503337835e-01,-2.803202802214279678e-03,-2.078475071868850048e-03,2.269419090488519405e-03,2.259062677621841431e-01
2.312238789719665011e-01,6.031465813138986443e-03,2.311440449958852561e-01,3.700200379052501903e-03,-2.109522418579145697e-03,-2.748042214518373137e-03,2.253236174583435059e-01
2.282678288847638792e-01,5.346934582453971574e-03,2.327024783191871393e-01,3.068197310043190712e-03,5.969576024598139807e-04,-3.365845486862972802e-03,2.253114879131317139e-01
2.509327820679099208e-01,4.395054112861590534e-02,2.380345615231320711e-01,2.359406135827468026e-02,3.280134311891236970e-02,-2.435494232098302236e-02,2.168308645486831665e-01
2.216533812064656050e-01,5.433812059938369909e-03,2.215601688293665772e-01,4.086380753969139426e-03,2.026455589308787022e-03,-1.449802756056582176e-03,2.163318693637847900e-01
1.806294490222715154e-01,-1.721900718972177446e-02,2.175390030417633791e-01,1.225023604698340964e-02,2.342695871004352084e-03,-1.123612685809697838e-03,2.197254747152328491e-01
2.241721702769632341e-01,7.524791735097069445e-04,2.272227832678367920e-01,3.513485765343216539e-03,-5.862004946050755833e-04,-2.494002443346140987e-03,2.250865548849105835e-01
2.264431269996128315e-01,1.450821283464492906e-03,2.283519629316762556e-01,2.066238337752346246e-03,1.736256002875480276e-03,1.760234108565448359e-03,2.260216772556304932e-01
2.255943348111532631e-01,-1.179322831194318244e-04,2.260286748260762479e-01,1.827401143324173909e-03,2.109404251272792123e-03,2.167462820906856154e-03,2.260126322507858276e-01
2.252659952046530689e-01,-1.256697426543690321e-03,2.290312421376115570e-01,9.170802489441503636e-04,2.624704055226729713e-03,9.432800336496842842e-04,2.284851819276809692e-01
2.228740016429403004e-01,-1.919558374598839823e-03,2.125658723095396052e-01,4.781691886621614040e-03,1.186165289722068884e-04,2.228424458369006930e-03,2.200107574462890625e-01
2.288055884533403139e-01,1.980201968298955784e-03,2.234144058185470461e-01,5.663540344635293938e-04,1.153830817679772202e-03,4.526369194046484315e-03,2.243265062570571899e-01
2.702761529231331172e-01,2.169620379319103787e-02,2.120629593664181689e-01,1.005322475190925571e-03,-1.681271241486144907e-03,1.193227014886949142e-02,2.261609733104705811e-01
2.400252179533097774e-01,1.234547996035759154e-02,2.268979123623277583e-01,5.565581730720096411e-03,-9.961874332211182077e-04,5.290302118154538435e-03,2.218139618635177612e-01
2.252618871636634101e-01,9.768349926625452539e-05,2.272562473923612492e-01,2.317724296195664956e-03,9.309203587360819756e-04,2.737388443234174511e-03,2.262590378522872925e-01
2.243601972711341541e-01,-1.076866024368100527e-03,2.269173174977335838e-01,2.589661396902742815e-04,2.204304970387268182e-03,5.397448855846294878e-04,2.267609536647796631e-01
1.960201045182491386e-01,-1.824985137776061195e-02,1.862123957741114166e-01,1.859551996331616427e-02,2.209509842715012481e-02,-1.531413696355829468e-02,2.170526087284088135e-01
2.004512540591589231e-01,-3.964127439992637392e-05,2.095621622316823363e-01,2.076929265529765204e-03,1.532828318070396162e-03,-6.124755920331037898e-03,2.055207788944244385e-01
2.195092184086695486e-01,-5.556468503844197437e-03,2.205289619849886140e-01,5.796079616196050119e-04,8.006794897350666233e-04,4.094673297574237341e-04,2.255848944187164307e-01
2.449562462564999765e-01,1.129722990427031726e-02,2.205081608302459639e-01,1.898219961895055449e-04,-3.036963605368155072e-03,6.750261036679636346e-03,2.228142768144607544e-01
2.499158505055189272e-01,6.400164415284070873e-03,2.132804146621393449e-01,-1.054347320993396717e-02,-1.155989271652461611e-02,9.128534930226559624e-03,2.295759618282318115e-01
2.394855592643218845e-01,8.278410781273476404e-03,2.270945209640678752e-01,-1.754249329092418723e-03,1.318009152973778804e-03,3.255250321486865238e-03,2.253699600696563721e-01
2.308938602589361011e-01,4.321632352152576795e-03,2.185394958143496158e-01,5.313049063903376758e-03,1.205299296918691410e-04,6.648039450249519644e-03,2.211464792490005493e-01
2.404969697736475398e-01,1.401956569408574493e-02,2.156232329655840829e-01,2.586941050454887817e-03,9.337623748311591485e-04,1.544220916242252523e-02,2.168304771184921265e-01
2.281413575988350539e-01,3.234453921168167767e-03,2.269535105349640980e-01,7.001557194713728264e-04,-1.277582804664803139e-04,3.423421106072022969e-03,2.243970781564712524e-01
2.270346832615588728e-01,1.188037421453402853e-03,2.223022435564927790e-01,6.713533895542336729e-04,4.293207402965118795e-04,2.471813017303764546e-03,2.235632687807083130e-01
2.198296822802927042e-01,-4.257492841057086697e-03,2.189336475006274929e-01,-4.351754609150184425e-06,6.041284455766177033e-04,3.235493973457063532e-03,2.237131595611572266e-01
2.281005489703690770e-01,2.476327227187796742e-03,2.284233980914314732e-01,3.039674391276304347e-03,-1.663194733669965493e-03,-3.570220916961656596e-03,2.259501963853836060e-01
2.274178288824419691e-01,8.511455235297171740e-04,2.260955320080974829e-01,4.008361610274667822e-03,-2.148059980686824622e-03,-2.779819172459997018e-03,2.260969877243041992e-01
2.254855741440626171e-01,2.777528921417166119e-03,2.280762034479957845e-01,4.946696298667919815e-03,-6.004355483499934166e-04,-2.501577229598854740e-03,2.242226600646972656e-01
2.206672408930941132e-01,2.535890815135360965e-03,2.230967883830604070e-01,4.394041347171727570e-03,-1.507172827763917505e-03,-2.203376160983503383e-03,2.195369005203247070e-01
2.205514530879494894e-01,-1.681976492019454650e-03,2.246215006782219525e-01,3.755803585013847527e-03,-3.090844066148626542e-04,-4.130343981027643531e-03,2.245051115751266479e-01
2.290546672657785832e-01,3.786576161316057565e-03,2.308231074712603637e-01,3.154336753957186820e-03,-3.023045188174210834e-03,-2.750149751820419632e-03,2.263341993093490601e-01
2.231724574728400357e-01,6.159518111208961422e-04,2.207738375657298247e-01,5.547104423153111259e-03,-5.017098833843834692e-04,-4.176281928979111088e-03,2.216950953006744385e-01
2.205433267324065638e-01,-3.210589521083773157e-03,2.174502159493081899e-01,3.292453375139291032e-03,4.782969669375720874e-05,-2.062672231135833333e-03,2.223253846168518066e-01
2.127315919036199543e-01,-1.318552007966697359e-02,2.222640877038713214e-01,1.559113485973637366e-02,3.794276531178734750e-03,-1.127502464928736847e-02,2.333169132471084595e-01
2.207344470208563170e-01,1.574132574432818288e-02,2.244021783687374094e-01,4.680716224439622833e-03,3.539726571844586858e-03,-6.200923538897517434e-03,2.073792666196823120e-01
2.244272396330272978e-01,1.747528475397358561e-03,2.212474455529862549e-01,6.083314972724240821e-03,-8.000108455514750617e-04,-4.832230984471856325e-03,2.215203791856765747e-01
1.988925462272433664e-01,-1.401030242155187899e-02,2.051851807166240049e-01,8.436711576723949363e-03,6.085529798472371667e-03,-7.580965640096945339e-03,2.172647863626480103e-01
2.075906894412190840e-01,-2.000427237604657238e-03,1.974760601104302293e-01,8.442038441215181377e-03,8.729487890595381480e-03,-7.235732132206434096e-03,2.061802297830581665e-01
2.192594981046226132e-01,9.645748222050609666e-03,2.116901294215291496e-01,7.227191406632229621e-03,5.063440353774955292e-03,-5.769709386594359425e-03,2.067415267229080200e-01
2.098357825043088987e-01,8.272286354781638318e-03,1.922091681889992465e-01,1.144820418395920900e-02,-3.521685109940644182e-02,2.095694823323297762e-02,2.069229483604431152e-01
2.126434394966625896e-01,-3.149180543799673382e-03,1.861497074201378110e-01,1.367461015588935548e-02,-2.587203946443245028e-02,1.895145397879375790e-02,2.125976681709289551e-01
2.236580895594292850e-01,4.696448945680220532e-04,2.068327143898057163e-01,8.236253619175317592e-03,-2.530058663477161192e-03,7.995139905458548482e-03,2.162300199270248413e-01
1.954683962732731151e-01,-2.222704141590925442e-03,2.053004448717516139e-01,1.198728237910372425e-02,-1.675288208016783090e-02,1.049526751011647420e-02,2.067018747329711914e-01
2.369483780532545270e-01,3.489219579476121602e-03,1.821103990042238774e-01,1.266398753536026635e-02,-2.828248640598061622e-02,1.734615222525430489e-02,2.202077358961105347e-01
1.664194611590372186e-01,-2.346444762014161800e-02,1.282048980558403439e-01,1.240640318130709595e-02,-5.660150243584333857e-02,1.575806809722271953e-02,2.026766389608383179e-01
2.192552845538243977e-01,2.763233860169161948e-03,1.968223197470139463e-01,7.388503565430364246e-03,-8.689079451034526294e-03,8.959751331727808590e-03,2.077175676822662354e-01
2.016673614671843084e-01,-5.861584158523988619e-03,1.577246137310316931e-01,7.761087106169540888e-03,-2.405762423658622598e-02,1.459660905154139092e-02,1.960510909557342529e-01
2.254183627929748635e-01,1.883895620897407808e-02,1.922538392882833513e-01,5.728579247571944852e-03,-1.640007300368937632e-02,9.182425104404905863e-03,1.951463967561721802e-01
2.063169173595699735e-01,-7.238755883933828406e-03,2.195265505829205321e-01,-4.585679497299498947e-03,-1.127787672696415385e-03,-1.120810999944834045e-03,2.206177264451980591e-01
2.239226664234086617e-01,5.220671046606589760e-03,2.338405081983946365e-01,-4.548763582949251309e-03,-8.688206614213464778e-04,3.624434792717022937e-04,2.239703387022018433e-01
2.188878787641978796e-01,-2.566999693230515023e-03,2.239899762851314535e-01,-2.264931791032287391e-03,1.891450440359317186e-03,-8.883719340487692068e-04,2.241130769252777100e-01
2.271944760130018004e-01,1.078258612863158827e-02,2.392314831028908295e-01,-4.137661588959175643e-03,-5.068211802852743038e-04,-2.507684944353275307e-03,2.228338867425918579e-01
2.261289075699051132e-01,2.391257767463000894e-02,2.694887718378065622e-01,-1.192626256581835222e-02,2.431076002753554659e-03,1.401561683212212235e-04,2.280001938343048096e-01
2.237335550882215418e-01,7.844710861558412685e-03,2.250392371302972760e-01,-3.659882357464368588e-03,2.765841716344588901e-04,-2.059838395726449039e-03,2.166673094034194946e-01
2.610266622696291172e-01,6.757606747595601426e-02,2.666826949593324447e-01,1.716096275679065584e-03,-5.084449856761475567e-03,-2.444974700196167906e-03,1.966052204370498657e-01
3.251094625693766171e-01,1.034849014064092854e-01,3.145666056448719883e-01,-8.549409432350415020e-03,3.882083755697177617e-04,-5.394044505897922261e-03,2.172534465789794922e-01
2.267231249044114882e-01,-8.796590965997519440e-02,2.245404264757933366e-01,-1.457598214785449549e-02,-2.355299867214847090e-02,4.572046267510745509e-04,3.172527551651000977e-01
2.870572804150762214e-01,2.673237423582808248e-02,2.640870009366964033e-01,-1.738427406255236771e-02,2.110334798369898832e-02,-2.706069225003810211e-02,2.583727836608886719e-01
2.317433627281299258e-01,2.165845746021374807e-02,2.342662620657819383e-01,-2.017697661894307312e-03,3.864585405794499374e-03,3.285127251788530663e-03,2.115690261125564575e-01
2.532171112494758236e-01,4.534796740931920644e-02,2.460931856955107522e-01,2.124844591370924317e-03,-4.374614946415965322e-03,3.526014548712075834e-03,2.046649456024169922e-01
2.340914234785093639e-01,3.202992623036138298e-02,2.308283900073881678e-01,1.933269116920344546e-03,2.364873522441121156e-03,5.195113358349590787e-03,2.007215023040771484e-01
2.406185517219848746e-01,-4.525891327617576065e-03,2.381431798395721444e-01,1.105966134431263584e-02,-2.008767916662951552e-03,-4.171670354391312889e-03,2.447986155748367310e-01
2.431015093099768709e-01,2.798220728239958488e-02,2.368721861325031597e-01,7.702569147273054901e-04,-5.658384248761978708e-03,-3.933956036954821644e-04,2.123048901557922363e-01
2.499083271889089852e-01,3.463068937007787729e-02,2.454323231336318079e-01,3.492565075236205604e-04,-1.414611833098410217e-03,-5.000883498938367639e-04,2.130916118621826172e-01
2.435342872756862120e-01,1.065303529581310138e-02,2.008846769600614590e-01,1.652302498396280867e-03,-8.457032560192838042e-03,9.000366763044468851e-03,2.158382385969161987e-01
2.574206538701321323e-01,1.314928355674138682e-02,2.180559976381028220e-01,1.385139844637558538e-03,2.227788401774875599e-03,1.699482400229201592e-02,2.291059494018554688e-01
2.658920764228731026e-01,1.153033265432099053e-02,2.265732731254032351e-01,6.921098308071796899e-03,-3.588616173991723141e-03,1.745102460099849997e-02,2.394590079784393311e-01
2.659666313664332815e-01,-3.606090738246553462e-03,1.925940887215843722e-01,8.662994268919170168e-03,-2.219415034377072993e-02,2.555536197548359881e-02,2.488691657781600952e-01
1.794082386196286794e-01,1.298460307907384204e-02,2.022226717074826208e-01,-1.584313222177671831e-03,2.145282992610520259e-02,2.069684219019835708e-03,1.827983558177947998e-01
2.224710338219087480e-01,-8.062713780027097599e-04,2.243184090261062247e-01,2.517791982408619858e-03,4.778155913008250134e-04,3.284422622685078362e-03,2.243227809667587280e-01
1.653105100230375379e-01,-4.686108805635594288e-03,1.851870803543986810e-01,2.923675948400946030e-03,2.154303546663180122e-02,-4.525247848263745307e-03,1.848033070564270020e-01
1.943104105458923481e-01,1.399487752400463414e-02,1.920989101974980018e-01,-2.920597606158123732e-03,1.187705171713018121e-02,1.546457128609347561e-03,1.804875880479812622e-01
1.653985192486910893e-01,2.354555726481716293e-03,1.951496483514206237e-01,-3.548412590057383083e-03,3.369029223491184361e-02,1.750326479764928054e-03,1.891329586505889893e-01
1.892848418136090227e-01,2.221898539183533861e-02,2.041095830883276618e-01,6.650906791900918803e-03,3.308078766948681360e-02,-3.723382097994418910e-03,1.845664978027343750e-01
1.855827873322563326e-01,4.301213530835346077e-03,1.842763244505854769e-01,-3.450260216663780148e-04,1.326025138791673934e-02,8.013285284191908595e-05,1.820872277021408081e-01
2.393620026275838364e-01,2.605285471408325115e-02,2.376087670845982158e-01,-5.471102227063436669e-04,7.982079479055711330e-03,2.909623115008942219e-04,2.128900587558746338e-01
2.302094028104923473e-01,1.136360411089534783e-02,2.296387036571257978e-01,5.029277545615090834e-03,2.106795346587268716e-03,2.443657696041718740e-03,2.188059091567993164e-01
2.290907395040079342e-01,1.071061861816427485e-02,2.281354773383677537e-01,4.735673473723387046e-03,2.741919412435757201e-03,3.360572940053689877e-03,2.181877493858337402e-01
2.261415586781181097e-01,6.132079309578708504e-06,2.311010215914423571e-01,-1.319826989557036428e-03,-1.046509393601487928e-03,5.986970297302204869e-04,2.286764681339263916e-01
2.726558585328305306e-01,2.433853707197533578e-02,1.218563750556782010e-01,-5.580556236249638313e-03,7.258373861353658793e-04,-1.740334155852423653e-02,2.189965546131134033e-01
2.903992159940013140e-01,4.622474740393874015e-02,1.477301174230818692e-01,-3.353529564675445784e-03,1.400260165185504557e-02,-3.403521737622582544e-04,2.139200717210769653e-01
2.335983028490100366e-01,-3.238852784627851977e-02,3.744907123574112151e-02,-5.271548667436795968e-03,-9.981977123428588047e-03,-8.263299657444097418e-03,2.400781810283660889e-01
2.424257930974046127e-01,-3.760907898810959826e-02,4.785638856906489907e-02,-9.446858439578346631e-03,-3.385224163093043109e-02,-9.836517335014723779e-03,2.564887702465057373e-01
2.328682250058142778e-01,-3.147462930423057526e-02,4.521456613285782661e-02,4.887177936152998364e-04,-2.196686427934814445e-02,-7.861343081373659350e-03,2.389976680278778076e-01
2.322775990491219855e-01,-3.399281554006024220e-02,2.664107664616686966e-02,-2.415453000223248634e-03,1.855467603231769624e-02,-8.510124054189098508e-03,2.443337589502334595e-01
2.216175729595800670e-01,1.116205828118083110e-03,2.207026530913846207e-01,2.423793520488032489e-03,1.553914260657471942e-03,1.111453385782730291e-03,2.201102524995803833e-01
3.567948959456166969e-01,3.884707878670187742e-02,1.300119755389777532e-01,4.928345901700970826e-04,2.459748449816359997e-02,-2.760660583935171334e-03,2.868010997772216797e-01
2.357596245829985948e-01,8.467550478994501084e-03,2.436158392294297259e-01,9.780157194566966097e-03,-7.790321830391327973e-03,2.596638545256404768e-03,2.323753684759140015e-01
2.318314389537922127e-01,1.127814694475254287e-02,2.358791198473134121e-01,-8.218539960593214963e-04,1.558627923727745482e-03,2.469537324108403691e-03,2.226667404174804688e-01
2.177400792312669808e-01,-2.250588549947557526e-03,2.221511596424223800e-01,1.041650536384811088e-02,-1.967956866490596594e-03,4.596003899269969668e-03,2.231283187866210938e-01
2.384513520897241778e-01,2.148462467808956444e-02,2.531696078375589298e-01,7.196147607285068547e-03,-2.087359755450796973e-03,-1.088327794778690171e-03,2.250700742006301880e-01
2.237278521863403369e-01,-3.295481801746436012e-03,2.344807501935909366e-01,2.599656357387752220e-02,-9.696586023991720163e-03,1.013629393700207770e-02,2.381473183631896973e-01
2.088347960437598183e-01,-3.811750814902731266e-03,2.187380949840714017e-01,6.769740687558000770e-03,-4.897052186801648631e-03,4.870149559683806077e-03,2.184104323387145996e-01
2.016595954214766284e-01,-4.776689222150243275e-03,2.239908996571286504e-01,6.031271033188308379e-03,-3.611262289171605130e-03,4.546815688279652948e-03,2.189403772354125977e-01
2.328089366662023096e-01,1.718933765061692043e-02,2.418378930659556558e-01,-2.317115555631701039e-03,-1.646175787950494938e-03,-3.308414806246106309e-03,2.204024195671081543e-01
2.273997066367067776e-01,1.336914414863327183e-02,2.336112583479446614e-01,-3.205487970042950833e-03,-1.078863473934925810e-03,5.717382914710807985e-04,2.172842025756835938e-01
1.678126152383543068e-01,-4.788129991796341578e-03,2.285505653209440879e-01,-1.982735829934762287e-02,6.514995956108423324e-03,1.129841891991182658e-02,2.136660963296890259e-01
1.748094230179918773e-01,-2.762111210527046223e-02,2.155854285648148849e-01,-1.894219463346398166e-02,-1.168574647705372845e-02,-7.529786173132393089e-03,2.292407006025314331e-01
2.256804083399694405e-01,3.493908566120890180e-03,2.283866759503949406e-01,-4.584574137664818028e-03,-1.154935239424918775e-04,-2.365864363495506772e-03,2.237305194139480591e-01
1.793635104583425899e-01,4.714995574408681334e-02,3.068053965509579539e-01,2.434540765052897390e-02,9.327745838748553384e-03,-4.149085481325281988e-03,2.294823825359344482e-01
2.219692821009732475e-01,2.863118450556950689e-03,2.245167288478589207e-01,-1.317815817978542281e-03,6.965653314172751435e-04,-4.483274325298326236e-03,2.205428034067153931e-01
2.241707409522001870e-01,1.100581835800029662e-03,2.249923850058233588e-01,1.131147549665098909e-03,1.278491376422444736e-03,1.865476083220367906e-03,2.235250324010848999e-01
2.719774988095704712e-02,-5.163574512697961805e-02,1.981928885491903436e-01,1.501696239857792242e-02,-5.206898356938114564e-02,6.296149970459388213e-03,2.405476868152618408e-01
2.086961151517508772e-01,2.986930861844094842e-03,2.111905647534282615e-01,1.355105145248444026e-03,-7.000236498453594656e-05,3.487170493719127153e-03,2.070691287517547607e-01
1.786332335859647513e-01,1.359473079398340611e-02,2.264014532994975126e-01,1.586394870755726723e-03,3.328930565645998700e-03,-5.803466962200630984e-03,1.937651783227920532e-01
2.127022156327136870e-01,-2.004783549188232650e-03,2.093387759036722806e-01,4.847857315969252186e-03,4.286847835096668780e-03,-3.586478303517783971e-03,2.134302705526351929e-01
-1.201956294958089755e-03,-6.222889065079781346e-02,2.286432467822588632e-01,8.430702642552035872e-03,-1.729483887492757645e-03,4.990398474439336615e-04,2.660879492759704590e-01
4.066670825650864352e-01,1.556277045627263433e-01,3.683204895421037239e-01,-4.166491997592108865e-02,2.003530465460599472e-02,-2.262714162197299039e-02,2.506248652935028076e-01
2.084317411330669501e-01,2.704937267860640926e-03,2.097272015627886232e-01,9.053502328134268185e-04,-7.235227642356372195e-04,-4.382769833924365227e-04,2.063887417316436768e-01
2.032643977098612109e-01,-1.542548512012492656e-03,2.099962011603714318e-01,-1.398670682982586146e-03,1.271736686344513215e-03,4.959103658468222084e-03,2.084572464227676392e-01
-2.721615811550108510e-03,-6.826066919545817346e-02,2.119487022856970659e-01,2.960067025212721400e-02,3.002711081811716698e-02,-4.708288002968768170e-03,2.642877101898193359e-01
2.297304352573042441e-01,9.352720151114074509e-03,1.318478331262826209e-01,1.099885180075550056e-03,1.117214463366138699e-03,-4.662642716661566183e-04,1.912700235843658447e-01
2.174036710369826042e-01,4.541877066466942781e-03,2.195167709767845698e-01,3.416330284488525160e-03,-8.150552800144350010e-04,-3.380310099071998954e-03,2.140927165746688843e-01
1.101280809874687211e-01,-1.468079924412790671e-02,2.691732529389894157e-01,-7.100182191842680651e-03,8.030226729122143248e-02,2.240838111446330234e-03,2.832570075988769531e-01
2.293761209724831662e-01,4.852775315368429432e-03,2.345267366597465486e-01,-4.810533296188332624e-04,-1.475221793842736043e-04,3.006380692804916637e-03,2.272038012742996216e-01
2.349786215845710846e-01,7.987193496202055210e-03,2.274770463088195416e-01,1.000484571640704009e-03,-1.156250093266909817e-04,4.610312973846320515e-03,2.234846651554107666e-01
2.438570286196740655e-01,3.728807439463466267e-03,2.079319634302700670e-01,1.913225735284770305e-03,-4.797088387982071517e-03,1.611607474857222264e-02,2.262404710054397583e-01
2.331970464361028395e-01,3.042570092709168117e-03,2.142113927620901137e-01,1.447039256818590707e-03,-1.983430490373121018e-03,7.139170324268084844e-03,2.216594070196151733e-01
2.226033938124257761e-01,-3.499340161485092748e-03,2.082105072270324930e-01,1.547789843735207071e-03,-2.870013079781210861e-04,6.954100793252052971e-03,2.196083813905715942e-01
2.182740704665653564e-01,-6.873951785390297609e-03,2.147954161771085946e-01,3.486378781081001573e-03,-4.122489527180691910e-04,3.795699714058621294e-03,2.236084043979644775e-01
2.233988409866389802e-01,-3.118661837842123807e-03,2.197708606726119229e-01,2.763349297654524306e-03,1.627661413636888928e-03,3.584708783111224557e-03,2.248798459768295288e-01
2.765750254149840215e-01,1.404298385547791961e-02,2.216850536440481412e-01,-6.223479136677923396e-04,-1.275125841078009539e-02,2.417900070530575041e-02,2.444758117198944092e-01
2.161215073183217483e-01,-6.734872375952632995e-03,2.133599868188605642e-01,8.074170882291167731e-04,-1.155269392418952585e-03,2.061013857146764584e-03,2.215307503938674927e-01
2.112554907548694905e-01,-3.580494263529387933e-02,1.236162528633685392e-01,5.491280495211240363e-03,2.718026897954205472e-03,2.585749074979009493e-02,2.217786312103271484e-01
2.308776403221692586e-01,1.006664859481318230e-02,2.407913937950429961e-01,-4.101454554376366898e-03,-3.050824262217181069e-04,2.163847217434066838e-03,2.260743975639343262e-01
2.246484733266000955e-01,2.432871038064637892e-03,1.623684087693387790e-01,-4.152355023352424963e-03,-1.502060830511999390e-03,3.094097302397669051e-03,1.987616568803787231e-01
1.185004529159203179e-01,8.225953555235310244e-03,3.135626744445609293e-01,-6.183522046203040849e-03,5.185629580408719630e-02,7.975316609542908424e-04,2.826728820800781250e-01
2.282746185280536966e-01,1.172544608589798365e-02,2.363946652954834748e-01,-6.555463689994316979e-03,8.587741435747026433e-03,1.266407796763566185e-02,2.225964367389678955e-01
1.863053077697233162e-01,2.595651908983920286e-03,2.233140204638862647e-01,-8.797607032282097825e-03,6.779668605196880436e-03,5.992482742479290220e-03,2.059018164873123169e-01
2.310392306005897844e-01,4.098898465816597225e-03,2.304316820011085287e-01,-2.575966907515543462e-03,-1.833465260601049038e-03,2.055380136972258937e-03,2.267312705516815186e-01
2.310745009551357643e-01,2.028065630491177052e-02,1.633512944579162129e-01,-1.890225911430494163e-03,6.385300485930713206e-03,4.132323543080795424e-04,1.867575645446777344e-01
2.110442336047385070e-01,4.847377014316672783e-03,2.173778308093811118e-01,1.351612396858285466e-03,-7.096111801612511177e-05,4.393323188037884068e-03,2.095867991447448730e-01
2.115334065914092343e-01,6.024427698368278739e-03,2.071795879794547379e-01,3.682239506533677327e-03,-1.841672337712324395e-03,2.448077832420272795e-03,2.035361826419830322e-01
2.327803053015868318e-01,2.578117083007686050e-02,2.344942308687706922e-01,-9.298825728452557535e-04,-4.885452926664539570e-03,1.072221478683221254e-03,2.080480903387069702e-01
2.282416952656111664e-01,1.823201977499949722e-02,2.421029221767330430e-01,-1.248567728511611012e-02,1.072223596566408352e-02,9.710229986308065511e-03,2.197785973548889160e-01
2.337913246515802568e-01,1.053658385842592971e-02,2.274921464243328806e-01,1.091095330354525895e-03,-2.909128716457232058e-03,-7.320212797272759734e-04,2.202421575784683228e-01
1.825679409381971152e-01,-4.640341840611628133e-03,2.280258999641746331e-01,-1.292005476664004858e-02,1.043183183135725986e-02,5.383526627075212526e-03,2.157259285449981689e-01
1.723772018903363679e-01,3.527417126986145957e-02,2.787651045139372674e-01,-2.942130106913155158e-02,8.238137571024300998e-02,1.490819322889608278e-02,2.613912820816040039e-01
1.727110036642071911e-01,5.722956678927637597e-03,2.265641455390365322e-01,-1.526966719846529867e-03,-6.077238214760849726e-04,3.240999746682319323e-03,1.995435208082199097e-01
1.090109038482591775e-01,-3.089900553433282127e-02,1.733749506990344136e-01,-2.772754874708358366e-02,6.850158420492716282e-02,2.194983836985311271e-02,2.248375415802001953e-01
2.229671304268046050e-01,-1.857398253476971739e-03,2.281640713992587610e-01,2.374467674241568453e-04,9.595991451211789616e-04,2.144982578207028348e-04,2.274742722511291504e-01
1.824244666846452367e-01,-1.305502928428403653e-04,2.221314653056772337e-01,-2.220055191561571412e-02,4.504456075890404809e-02,1.646354786537704631e-02,2.247898280620574951e-01
2.116982250957525069e-01,4.543760921532996599e-03,2.050437904568119252e-01,4.654217691986190994e-03,-1.159254129971198921e-03,1.621204896718470966e-03,2.040971815586090088e-01
2.167404750705870520e-01,4.283270889385015767e-03,2.182534103517509982e-01,1.282808245538392651e-03,1.850732680330238712e-04,3.404456787573354772e-03,2.133110314607620239e-01
2.111586577607920123e-01,1.967246010034265358e-02,2.180861023700274293e-01,-5.558779754325003306e-03,-9.080027462501262178e-03,-7.467245592784968640e-03,1.963384449481964111e-01
2.098558819511300855e-01,1.272015830006117953e-02,2.019288922086512617e-01,-7.674584534753661411e-03,-1.066532997584307939e-02,-6.006296940683031847e-03,1.949071884155273438e-01
1.630769744390869191e-01,-2.319628183520618114e-02,1.238673864750810677e-01,-9.072543683166317541e-03,-4.510863709263884802e-02,-9.981269202354847367e-03,1.886308491230010986e-01
1.505392917868662028e-01,-2.097606744003169266e-02,1.416676421948591391e-01,-8.082771014707534549e-03,-5.036866001736692300e-02,-1.077496318100421707e-02,1.900786608457565308e-01
2.090614495447168930e-01,-6.891557698981476410e-03,2.053787266027516378e-01,3.655657527864931110e-03,-3.319132344300873214e-03,4.553429490778182313e-03,2.144511789083480835e-01
2.255206447773857037e-01,4.456177115746914885e-02,2.326057361855310979e-01,-1.713436406810090948e-02,-4.757450915531078600e-02,-1.770867762611749371e-02,2.066155225038528442e-01
1.913653827416531006e-01,9.813346489158270014e-03,1.784343168104722266e-01,-1.890481951435547120e-02,-3.712404899016175791e-02,-1.852620198356328893e-02,1.923983246088027954e-01
1.688139442524568823e-01,-1.596414882118524226e-02,1.775232507573711871e-01,-7.552834348595481931e-03,-2.251786574716587580e-02,-1.003942428121236408e-02,1.944807320833206177e-01
1.932575043107524204e-01,-3.525740625741874412e-03,1.806112282187916640e-01,-8.814658931589699001e-03,-1.739047632992315670e-02,-6.838080686114092477e-03,1.941021829843521118e-01
1.834084747339398414e-01,1.184252587824802250e-02,2.196088730612767992e-01,-1.228614664209687346e-02,-2.152992502003105157e-02,-5.086618127504632068e-03,1.971729695796966553e-01
2.194695865277041247e-01,5.796461981148276488e-03,2.118621929088133904e-01,4.049866661253064513e-03,2.750736042394901762e-04,-7.642040330125355121e-04,2.100946605205535889e-01
2.086625050589286934e-01,-2.887291905206756937e-03,2.080719473614410786e-01,2.930460341360097056e-03,-2.112976614475066232e-03,4.153431368630628590e-03,2.114701867103576660e-01
2.273114511737273080e-01,5.169150680460782299e-03,2.263049663461029481e-01,-6.532671741545910057e-03,2.990258217212436384e-03,-1.362262704194528687e-04,2.219899594783782959e-01
2.119350873857610007e-01,7.324837125102318103e-03,2.086749444830074407e-01,-3.320693984107862037e-03,-8.225298135002590298e-04,-1.637188386453235873e-03,2.031060755252838135e-01
2.347647117753692281e-01,1.322372852710376745e-02,2.342569357346669101e-01,-8.897518243848280203e-03,-5.201099369198976773e-03,-7.042242953082095656e-03,2.223411798477172852e-01
1.884201800916855685e-01,-7.157864123530449652e-03,1.925814534466823991e-01,6.107037122003257379e-03,-7.696071440305852183e-03,6.213108142641390191e-03,1.987141817808151245e-01
2.260067111345828994e-01,6.494152346629200601e-03,2.289978866328967189e-01,-3.671078272112310477e-03,6.333187346651722406e-04,-3.705455233883915567e-03,2.212106138467788696e-01
2.244482904545147262e-01,-2.211612979801325096e-03,2.241456076507873652e-01,8.201043935118372584e-04,-1.932174558669366021e-03,-9.547090488337991836e-04,2.265439182519912720e-01
2.075794091522563112e-01,-6.056092125885786936e-03,2.144079846220831032e-01,9.950094760329535049e-03,-9.474456086939251828e-03,6.459061136217932216e-03,2.187168300151824951e-01
2.368020405893169478e-01,2.442290546933406636e-02,2.579152081852180700e-01,-1.517252037222818241e-02,3.943791002366742529e-03,9.169972059271532319e-03,2.258853763341903687e-01
2.062905194662097152e-01,2.134248466142490974e-03,2.243203748924557095e-01,-5.753598776820881451e-03,-1.676094916001645075e-04,-4.989663078690160809e-04,2.139764279127120972e-01
2.296338604218809698e-01,5.804432689555966141e-03,2.270037597077509961e-01,1.110279098302289959e-03,-4.016573196184060161e-03,-8.252231745001710776e-04,2.226476520299911499e-01
2.320389445283144170e-01,5.597595473326805182e-03,2.323452360056839083e-01,-2.265506049610247364e-03,1.710230530112955352e-03,-1.347369456513302808e-03,2.266599982976913452e-01
2.255099346423245499e-01,2.812614049935935334e-03,2.299674910900641467e-01,-3.979347049384871458e-03,-1.705072871285997311e-05,2.154997917925111593e-04,2.250650972127914429e-01
2.371024244858757624e-01,1.068402489481465323e-02,2.359797354885203036e-01,-3.457382118221341300e-03,-4.915599992600725018e-04,1.042075527587013953e-03,2.259473353624343872e-01
2.149060182272947428e-01,2.739951365513657033e-02,2.116001230062090621e-01,7.155127857949104830e-03,-2.949136871539524349e-02,5.037187955887059004e-03,1.933615058660507202e-01
2.347834040735678751e-01,3.236937195316158533e-02,2.312769075535237584e-01,-1.136119415959852171e-03,2.704476329644872959e-03,-5.928214567451539543e-04,2.007506936788558960e-01
1.854017127564452083e-01,2.779026125188946428e-02,2.284853287374924991e-01,3.369217227873043657e-03,-2.457964966369844198e-02,4.475088757078181725e-03,1.881346553564071655e-01
1.467458709870602951e-01,-2.810393126665342023e-02,1.722712501385477712e-01,1.724088118941756106e-02,-3.704463870407792569e-02,1.232347962142777385e-02,2.028580009937286377e-01
1.810020553132096199e-01,-4.989824817081295327e-03,1.724292837332973560e-01,-1.292969641010796762e-02,3.944321251119259353e-02,1.088567504536225652e-02,1.964594870805740356e-01
2.197682126905537159e-01,-1.131278398776278116e-02,1.904750749727662229e-01,9.042943737760406053e-03,-6.446502699497189126e-03,1.136544121148729339e-02,2.196473181247711182e-01
2.048900595619722320e-01,8.248303377805521475e-03,2.033568800935284804e-01,2.393366134382136998e-03,5.014206329725700954e-03,-1.624920368160705881e-03,1.961361169815063477e-01
1.552893700598284021e-01,-1.195425841296079983e-02,2.058399696437995530e-01,1.761531981473081487e-02,-2.858884514146790498e-02,1.122461692744488627e-02,2.067387253046035767e-01
2.035447469487082772e-01,1.610419005565720540e-02,2.024860983963724936e-01,-1.640899703918949793e-04,-6.401610871452394691e-04,-1.389403692968403626e-04,1.869171410799026489e-01
1.755460405702481685e-01,1.783727495224175785e-02,2.255581645638194965e-01,1.574987974425615198e-03,-2.631766886887814891e-02,1.028579438368703702e-03,1.932591348886489868e-01
2.283404217302497652e-01,-4.698194705596847598e-04,2.266551238880730457e-01,-3.525180515840947314e-05,-1.962063385804707193e-03,-8.269028412643778404e-04,2.280021011829376221e-01
2.319120244236169415e-01,5.529476441589270541e-03,2.261324578081057024e-01,4.415041031632759537e-03,3.958543040750263429e-04,-3.549376327914687945e-04,2.236814498901367188e-01
1.861368240803147056e-01,4.480534022363477642e-02,2.610559056428620739e-01,3.453471911930585357e-03,1.520233330231531878e-02,-1.201699711910040550e-03,1.921180039644241333e-01
1.829395288470809233e-01,1.125940391326472889e-02,2.052450934587662923e-01,4.033791190073655712e-03,-1.871442804785314676e-02,2.356001378025976770e-03,1.868613958358764648e-01
2.254207719412242850e-01,-3.103852250610245056e-03,2.243501850222966998e-01,-5.355716192326977643e-04,-1.591153380756060460e-03,5.435979233143565506e-04,2.280116975307464600e-01
2.153376721624249424e-01,1.839343944273766351e-02,2.497506568374378011e-01,8.085545650339391252e-03,3.589984932852703561e-03,-3.806616934659065501e-03,2.168570607900619507e-01
2.120106301728018061e-01,1.278500219459929865e-02,2.418602515168067346e-01,9.459821796958517827e-04,1.128741206712665810e-03,-8.744395342353356243e-04,2.157254368066787720e-01
2.329104548472077374e-01,1.339652547347106037e-02,2.378158854240541298e-01,7.407801004512305776e-03,-1.760588703823632564e-04,-2.441967344101128416e-03,2.224181890487670898e-01
2.653437489461303866e-01,3.748288973134181190e-02,2.641999835650676309e-01,1.032352799856105577e-02,2.271007172311382064e-02,-7.760735592610443732e-03,2.317518442869186401e-01
1.745526779726700450e-01,1.070241951722161744e-02,2.106595497087038193e-01,-1.875532620268626079e-04,3.838837475239857341e-03,-3.232874505416091088e-03,1.847766339778900146e-01
2.290261731124762501e-01,1.153752795021362187e-03,2.240399241029646937e-01,1.233322038866666145e-04,-1.266450415129773133e-03,-1.054354710100475134e-03,2.254388332366943359e-01
2.249545506312037035e-01,5.550758708301739563e-04,2.282263522535855627e-01,1.999090011620491270e-03,2.200701917384048287e-03,2.456900324562370178e-03,2.261518239974975586e-01
2.016836331836109886e-01,1.409922146186440295e-02,2.050377830506639465e-01,2.372431896293733121e-04,1.408965243378659110e-03,4.747416245969046200e-05,1.892999708652496338e-01
2.226546976639893760e-01,-7.805933685855581672e-03,2.050526457107818556e-01,1.541977950349220474e-03,3.439142652163044447e-04,5.133288040779917377e-03,2.223778218030929565e-01
3.354084516601718025e-01,2.486635268734216364e-03,9.083825758063068800e-02,2.090826841361582457e-03,1.331763534444220173e-02,-3.275328366238309738e-03,2.996767163276672363e-01
2.243257112417216814e-01,-2.336112838842108186e-03,2.233634224091613496e-01,-3.490125463820201927e-04,-5.925212975838824907e-04,9.452100710883634248e-04,2.261912822723388672e-01
2.058642929198323812e-01,6.012326203473389308e-03,2.276084318395181216e-01,2.328559500895362178e-02,2.010165467465366979e-02,-1.322220581852681653e-02,2.193686217069625854e-01
1.546660821804853314e-01,-3.653241639598439616e-02,2.062786263922476993e-01,2.239440413594319043e-02,4.879357671004037021e-03,-5.711005128363225332e-03,2.253059297800064087e-01
2.152079889538079382e-01,1.708128732992819643e-02,2.446956343553814972e-01,1.147289431645940640e-02,1.240323089021062343e-02,-4.384931450755595941e-03,2.165181040763854980e-01
2.349506118927052745e-01,9.000132779368535951e-03,2.062071291245180238e-01,-3.389882491935967100e-03,-3.871985025800423635e-04,-9.912786499578499916e-03,2.138104736804962158e-01
2.226756493278678750e-01,-4.788843110336060693e-03,2.228240030204400313e-01,5.949157642073880231e-04,1.452855153904870694e-03,1.071119580011825395e-03,2.275625169277191162e-01
2.208132808089478538e-01,-1.988283357391093520e-02,1.080267860664447660e-01,-4.924526991673738169e-03,-2.625724015048690879e-02,-1.897889012836578848e-02,2.161708027124404907e-01
2.360839050381376147e-01,1.825044929636712721e-03,1.413115211700448071e-01,-4.831884765007813005e-03,-8.663841391462385327e-03,-2.002653278759451011e-02,2.077406048774719238e-01
2.750061921603069170e-01,3.830832801725603254e-02,2.587205751913451701e-01,-3.147597248486925722e-03,6.031618563168111846e-03,1.415354148599013567e-02,2.305995672941207886e-01
2.252593390597975032e-01,8.012059479936411988e-03,2.231278844331750222e-01,-7.620142546802685483e-03,6.276946166496951036e-03,5.377346392431146468e-03,2.170645445585250854e-01
2.793953781010983795e-01,5.020963829014674085e-02,2.732881986223416604e-01,-6.934189097094143814e-03,6.791291203806367263e-03,9.336939295479315323e-03,2.273936420679092407e-01
2.303833081495971213e-01,1.629517396525254069e-03,2.279663064921536031e-01,-4.106587771933284631e-04,-2.297026842707708004e-04,7.231079779130604934e-04,2.275598198175430298e-01
2.359900625281789455e-01,1.637836973557069142e-02,2.248687495181467266e-01,1.522722947100946939e-03,6.161582451984673296e-03,2.550289331971333090e-03,2.145949006080627441e-01
2.212790707300846815e-01,-1.678690868265497738e-03,2.216462365818869795e-01,-8.945206081317897111e-04,-7.608702339047198910e-04,1.126299907988712523e-03,2.231593728065490723e-01
3.187160157455897203e-01,3.746424211989235475e-02,2.403237065048699772e-01,-1.880154318203414512e-02,4.010117489234511085e-02,2.208703414344494534e-02,2.656092047691345215e-01
1.981316672732943984e-01,-5.648410404101303350e-02,1.480137339688728515e-01,-1.062380116711771072e-02,-1.072109896735317421e-03,3.484008583742911891e-02,2.419994175434112549e-01
2.130253889027220460e-01,6.275557064383319172e-03,2.425311610540386020e-01,-2.568726294151282841e-02,-1.810227541777462710e-03,1.630857975724587031e-02,2.291367352008819580e-01
2.444801667784882171e-01,5.395831784653515317e-02,2.455710897064269926e-01,-1.500700110524899285e-04,-3.060641977528894865e-03,-3.570628054748119402e-03,1.912433803081512451e-01
2.445116799641490757e-01,3.796696363824508813e-02,2.386657873261791296e-01,-1.058199938825596240e-04,7.732940661381058206e-03,2.215476294743930295e-03,2.041607499122619629e-01
2.486668312392993907e-01,5.658788953305157743e-02,2.502848843878545115e-01,-4.315084463390266543e-03,6.401348022125597642e-03,-4.175410624296922377e-03,1.934911459684371948e-01
2.203880252064313594e-01,3.866485389935059303e-04,2.198268284966370945e-01,2.083757737034762098e-03,-8.739056832309378790e-05,-8.711423700635768843e-04,2.197561860084533691e-01
2.211665951269117247e-01,-3.393874563873550132e-03,2.219142469915095783e-01,-3.368349284063272743e-05,-6.976478836274260277e-04,8.253189809788629349e-04,2.249430269002914429e-01
2.468546740077383339e-01,1.686348140409715812e-02,2.145424838642567833e-01,3.580039574185520015e-03,8.966865940950131258e-03,-1.603283834074519659e-02,2.180810123682022095e-01
2.372639748004948812e-01,1.450518997720376402e-02,2.378600709467406649e-01,9.455918685352209668e-03,3.647935147825359312e-03,-9.971547340952765029e-03,2.244127392768859863e-01
2.195892990642648590e-01,9.992751170056518584e-03,2.144806450526246522e-01,4.747421244195750359e-03,1.311912746553591446e-03,-3.541511534288940138e-03,2.073558717966079712e-01
2.219491907400027442e-01,-1.718958099183931498e-03,2.221834850966914465e-01,-3.365776746373762095e-05,-6.971195910535325649e-04,1.064167982285364788e-03,2.237962484359741211e-01
2.188504149385400721e-01,1.527198317431524566e-02,2.092016362215977088e-01,9.659953117984010351e-03,7.562408432059228303e-03,-7.545406673757568995e-03,2.004876732826232910e-01
2.023563163905849061e-01,1.579236618320473129e-02,2.168824557430514832e-01,-6.836177741242320538e-05,3.257110364490444464e-03,5.789617348741202957e-03,1.945753544569015503e-01
1.981011434121362491e-01,6.792779344990271251e-03,1.763748269843325445e-01,1.165804696738706328e-03,8.468451847459063098e-03,-3.396342887323139446e-04,1.820276528596878052e-01
2.249416032213195082e-01,-7.538993116874004308e-04,2.290821959736348834e-01,-1.254081326654236418e-03,-2.379281875490913290e-03,1.533499020027884532e-03,2.278571277856826782e-01
2.389859307073126660e-01,1.276884316251791773e-02,2.293782990879639216e-01,3.660562934457106329e-03,-3.408459245119589958e-03,-4.203410204437025774e-03,2.218583375215530396e-01
2.202729255911485273e-01,-1.335952979613141967e-03,2.178383130724214634e-01,3.426462144104737168e-03,4.459198444616986178e-04,-5.535070962803677504e-03,2.206912338733673096e-01
2.108536315320774235e-01,-9.640215424106729492e-03,1.825097042538451342e-01,6.613897792035365771e-03,7.862995857061891303e-04,-1.274309444986299403e-02,2.092641890048980713e-01
2.230158414897167318e-01,-3.362411997869296787e-03,2.172763107668853055e-01,2.147913408092015902e-03,1.674418102951030296e-03,-2.663074631208202977e-03,2.236610800027847290e-01
2.202174127908639867e-01,-7.327475840676611618e-05,2.196643549860812228e-01,-1.468091446719331213e-04,-5.967813280441479481e-04,2.846174112034454556e-03,2.200724780559539795e-01
2.145661993989524952e-01,6.730737035993139550e-03,2.171934369210313798e-01,-2.192869333610988187e-04,-2.781371857792492674e-04,2.442016613086642630e-03,2.092051208019256592e-01
2.393867041659491490e-01,-6.780553747218504013e-03,1.723272781538608134e-01,-1.875366359981179036e-03,-8.132392358001798785e-03,-2.403328071406934940e-02,2.247870266437530518e-01
2.220262830197692883e-01,2.511747098830119374e-03,2.210843802317353779e-01,-3.451163232839350161e-04,1.232190688165994599e-04,9.981719566235828199e-04,2.190528512001037598e-01
2.279335108076159799e-01,-1.917798695599695624e-02,1.446815099429145657e-01,-3.927331023353474587e-03,-1.534462271625980714e-02,-2.084972544041477707e-02,2.224392890930175781e-01
2.249208869301043967e-01,-2.025782178300544745e-03,1.904182108046873489e-01,-4.641838677430833345e-03,-1.375269416305636809e-02,-2.593255627026093760e-02,2.179782092571258545e-01
2.579295080016699715e-01,5.070333084230327358e-03,1.917636439784490832e-01,-8.897247328703465977e-03,-2.393051617637633605e-02,-2.409190748955919101e-02,2.351208031177520752e-01
2.634895845805839687e-01,3.012008309860894628e-02,2.526335760965652266e-01,-8.226975536273351333e-03,5.144330981424613362e-03,-1.087903038023245103e-02,2.295282483100891113e-01
2.657970402265187881e-01,6.985220323761531791e-03,1.949005730081547760e-01,-6.011381289758202344e-03,9.305855716017913393e-03,-1.719619456642874564e-02,2.343423962593078613e-01
2.407615673478552543e-01,1.788247022119865415e-02,2.452074416001246981e-01,-4.828640189797696151e-03,-3.007752588585279214e-05,-1.224554864311657582e-02,2.262864559888839722e-01
2.316616823597124619e-01,1.077378046772128894e-02,2.300499209234993236e-01,-6.237658895913428606e-03,1.290841363443429740e-04,-7.629332727671260875e-03,2.207474559545516968e-01
2.177683008165696432e-01,8.189290963853373961e-03,2.157763104343718985e-01,-5.015628646158393125e-04,1.209843762067351657e-03,5.142250403605103885e-04,2.086043804883956909e-01
3.981335497116569866e-02,-3.421361108041998111e-02,2.318991421765150551e-01,-1.479267389599978229e-02,1.016666506193646645e-02,6.215873131296014223e-03,2.401643842458724976e-01
2.537030339630707565e-01,3.028024985639624078e-02,1.746639202819726677e-01,7.704900814884460677e-04,1.014902717551082606e-02,2.859518643218966066e-03,1.970814615488052368e-01
1.790412729243934242e-01,1.631955477367952323e-02,2.183714503177796862e-01,-7.992249323722711496e-05,4.755175781735469266e-03,-1.612659099630154831e-03,1.857437789440155029e-01
2.299544513211914665e-01,4.922206301491094393e-03,2.303987746557317196e-01,-1.870144070766413145e-03,3.641718125927828880e-03,-2.423724995788305043e-03,2.254054099321365356e-01
2.311014633378414285e-01,5.930070231082662513e-03,2.240866376922223957e-01,4.343230183507595411e-03,-6.758194754881423783e-04,-1.375692705475213594e-03,2.218906581401824951e-01
2.046581469765356986e-01,-1.218214246771837095e-02,1.910684899667732806e-01,1.147916206485199292e-02,1.705310022260939432e-02,-1.574046042808681725e-02,2.151014357805252075e-01
2.238087184792272033e-01,3.446506961094858434e-03,2.256500809019242881e-01,3.945257482003925245e-03,-1.624195166500326049e-03,-5.818054227605369035e-03,2.216411978006362915e-01
2.725228773407103455e-01,5.664007420550193350e-02,2.715018312430410585e-01,7.279375278809929392e-03,7.714802670086120043e-04,7.268604317936133707e-03,2.161139845848083496e-01
2.007964472760435659e-01,1.412122697608364508e-02,2.022119245232308904e-01,3.621728196575174381e-04,9.364701229686123543e-05,5.875517158622202635e-04,1.873908489942550659e-01
2.312034085177316345e-01,1.455753646356636177e-02,1.592706436951015769e-01,-2.806904267086110429e-03,4.036609607476345299e-03,2.288995916586187424e-03,1.913480013608932495e-01
2.329328975531890222e-01,2.773725233093610187e-02,2.370563523751197943e-01,-7.001158622601148318e-04,-7.510194138222730121e-04,-2.548283574420393341e-03,2.073427438735961914e-01
2.365442391542753042e-01,1.758739174942236527e-02,2.345453390916429071e-01,2.467182293389382397e-04,-3.939434235104121405e-03,-8.042383808512445099e-04,2.180759161710739136e-01
2.128537159342037410e-01,1.095133539838288872e-02,1.601466264037085807e-01,3.967705640421720185e-03,1.148152308844880599e-02,-1.856730347719200667e-03,1.826306879520416260e-01
2.328892395601180332e-01,2.197387739171696719e-02,2.418491660356624773e-01,1.092023894960433492e-02,8.886329757792233580e-03,-1.544019309110681269e-02,2.185525298118591309e-01
2.365506889689657499e-01,1.420314511565556881e-02,2.302977552769764347e-01,-1.389684291412677164e-03,1.865994080517059108e-03,1.014413360564652821e-03,2.193320095539093018e-01
2.078119755395084201e-01,9.564046815130344825e-04,2.118390465236466569e-01,5.662095985402638195e-04,9.913096021306638025e-04,-5.544630858790905621e-03,2.091282010078430176e-01
2.236599344762167374e-01,-1.656397113156737877e-03,2.201882507313986659e-01,1.792362477002985323e-03,-4.274318441173072291e-04,-1.099678334557684925e-03,2.236315906047821045e-01
1.762931153189738476e-01,-9.848396214981361418e-03,1.538545425207027695e-01,-3.834950910924597636e-03,-2.865972949849202728e-02,-1.553133770277020714e-03,1.830051839351654053e-01
2.162070458008901741e-01,8.234644576003979921e-03,1.583657974389396927e-01,-6.787452116055308834e-03,1.296165263838934198e-02,2.895926520964257466e-03,1.877128928899765015e-01
1.965528508524845286e-01,3.469902847087688591e-03,1.799407057100033402e-01,4.100281621413563726e-03,-1.407860328453479012e-02,5.365848832818782138e-03,1.872989684343338013e-01
2.037144749006558064e-01,1.578739207528673250e-02,2.044323619670782854e-01,-3.532245050912964971e-04,5.303698188580055354e-04,-3.662359303042392084e-04,1.882913559675216675e-01
2.219230031795583202e-01,4.028892119083171686e-02,2.292763290650350338e-01,1.189126414972085412e-02,-6.197688981360192917e-02,1.755175474619136144e-02,2.173762321472167969e-01
2.186935403993668370e-01,1.714206981765677151e-02,1.840114422435465691e-01,-3.085804527197633356e-03,6.035813798547075802e-03,-3.762106993204618815e-05,1.870119720697402954e-01
2.320847872327166383e-01,3.194391430811287236e-02,1.827136573128699260e-01,4.251001770752308243e-03,-2.146348175008036541e-02,-3.496265434427244315e-04,1.845245808362960815e-01
1.642546841027845150e-01,-4.559263735357546588e-03,1.765916618858923148e-01,-4.195856067898826730e-03,-2.737303179233103317e-02,-4.453049313507990124e-03,1.819152534008026123e-01
2.048884372607379656e-01,-7.820153699124393620e-03,2.196928742413691849e-01,6.698348808754508478e-03,6.469212135770210947e-05,2.085805669504222932e-03,2.208185046911239624e-01
2.208411429161224460e-01,-3.125617476620434765e-03,2.251729698253811252e-01,3.251308521000983304e-03,2.106923842658041564e-03,3.164958265295727061e-03,2.263297140598297119e-01
2.157336010742938182e-01,-7.094922035160294849e-03,2.164715797242990347e-01,2.109943259977607993e-03,-1.584860346144451211e-03,2.643502143432139694e-03,2.232921719551086426e-01
2.328291388285444463e-01,4.359767338384223923e-03,2.311745432171355419e-01,2.484643984254805184e-03,3.263490515104788218e-03,3.300765259737177722e-03,2.278291583061218262e-01
2.212037966467516603e-01,1.318389634638400532e-03,2.234866464273077002e-01,3.043212618870308299e-03,-1.605446563433637593e-03,5.155311487499849611e-03,2.212962210178375244e-01
2.329565045351629227e-01,5.093429423964235259e-03,2.147262820671751449e-01,5.596355441255604878e-03,-3.040662603824053224e-03,9.700660026687707438e-03,2.202360779047012329e-01
5.047844617828084468e-02,-3.834748733163675927e-02,2.582300067019911438e-01,2.701006324875848165e-03,-4.610617092241262385e-03,-3.891378218589398776e-03,2.638855278491973877e-01
2.184287994184738180e-01,-4.962271319328803720e-03,2.180108411257960510e-01,7.311468039909130258e-04,4.386173729820821011e-05,-6.520309292617115825e-04,2.231888473033905029e-01
7.026727479400771137e-02,-1.765363943181363915e-02,2.706136798973474700e-01,-2.421989069473099235e-02,-3.726584179845768285e-02,-5.090632459455681283e-03,2.673708796501159668e-01
1.896779115251152337e-01,1.487952668083974972e-02,2.049338665036664620e-01,1.223755439147232883e-03,2.280499425594274300e-03,-1.120309016407314414e-03,1.829693913459777832e-01
2.127174644566722783e-01,8.627686838964948590e-03,2.248293503480287558e-01,1.497170832511439051e-03,1.004672882407931086e-03,-4.730157499278239870e-03,2.105899453163146973e-01
1.676858082361175062e-01,7.955339043109149744e-02,4.100585667992300287e-01,-1.069175129535687892e-02,-5.055617190581571802e-02,-1.081153726462651121e-02,3.102163076400756836e-01
6.553795923479649455e-02,-1.527449666466695888e-02,2.926072337853009575e-01,-8.701475089734737184e-03,-3.292744265336997045e-02,1.242340321622371511e-04,2.827029824256896973e-01
2.214232982399811644e-01,1.252136408322999939e-02,1.448086085102683329e-01,-1.368199197905138435e-02,2.926219587610269166e-02,2.189139580130887094e-02,1.951230168342590332e-01
1.872591001141642453e-01,-3.425422722152854371e-02,1.625465355405926182e-01,-2.528836978494230364e-02,-5.769313716115977153e-02,-2.683290194448405275e-02,2.413891404867172241e-01
2.323750995299788125e-01,3.113033059290307158e-02,2.574566691812274488e-01,-2.446518462335461538e-02,-2.292870464675698244e-02,-4.924859336520151509e-02,2.383802831172943115e-01
2.442678489843038703e-01,2.482293437859808827e-02,2.342209125536901526e-01,-7.912973372267841999e-04,-4.561191907345600594e-03,-1.508909506623457280e-03,2.147635519504547119e-01
2.224200034501805645e-01,-3.881680308047558148e-03,2.228017379349581661e-01,1.226053034183481735e-03,-6.045108098398422648e-04,-2.380625928091810689e-04,2.265055477619171143e-01
2.807538291701204836e-01,5.033221307247920384e-02,2.617260756676327293e-01,-1.101569739933571821e-03,-2.435561174503070997e-03,-1.571402300210717612e-02,2.232352942228317261e-01
1.778392664509030885e-01,1.950512428321724001e-02,2.347352754196154745e-01,-1.059864776586390625e-02,3.191379309688969351e-02,-4.225485529330393931e-03,2.018946856260299683e-01
2.994176868369685662e-01,-1.637888908054635495e-03,2.359526830506482320e-01,-1.738966860941289563e-02,2.842645454503306759e-02,-5.430603555888174894e-02,2.962002754211425781e-01
2.266961088561683102e-01,8.782981168770603864e-03,2.393952447720182897e-01,4.264199973485440463e-03,1.792278279829568602e-03,3.398076621233094897e-04,2.246758639812469482e-01
2.256685931266875222e-01,1.117064545095458605e-02,1.671065580376736581e-01,6.306523198827069035e-03,4.652786281916375562e-03,-7.073729407130285168e-03,1.929036527872085571e-01
1.460692479669973565e-01,2.118579607778285634e-02,2.595948803052219311e-01,-2.771409489485623587e-02,1.805470606997822483e-02,-4.298849169254776413e-03,2.144737541675567627e-01
2.218447311255958287e-01,-1.967773791328730759e-03,2.219115790375064401e-01,1.001754224958947620e-03,-4.486871569586491169e-04,-1.918137923865963755e-04,2.238542586565017700e-01
1.929796040655693545e-01,-5.828632944413325578e-03,2.353708347883773089e-01,-2.015052899811207304e-02,2.007228354504027052e-03,9.596822633954288015e-03,2.263978123664855957e-01
2.086785064287827451e-01,3.285845723124958262e-04,2.058268099724001321e-01,2.665239091873267477e-03,-2.987816957131516097e-04,-1.301067296103433808e-03,2.070032060146331787e-01
2.174594532206378938e-01,9.596547792304760405e-03,1.938101544215857786e-01,4.273861901352858997e-03,3.152458858758949711e-03,-1.699623454164393959e-03,1.973416954278945923e-01
1.392341967901260802e-01,2.117209019464855180e-03,2.465148716687860508e-01,-2.139652870655355324e-02,-1.079716521069136285e-02,-2.330888533340365505e-03,2.162398695945739746e-01
2.054761577626701141e-01,1.294577833000362665e-02,2.455348201193072455e-01,-8.291853523296621384e-03,3.158724218017305938e-03,3.877288600218100484e-03,2.160241901874542236e-01
2.267282980728482500e-01,6.315600869233606307e-04,2.300006107006459244e-01,1.325767587622164951e-03,-2.914880892500466662e-03,-1.129322532784736996e-03,2.278264462947845459e-01
2.347608949014214075e-01,4.402712643901157685e-02,2.998796744742631692e-01,-2.686026562049785224e-02,1.197364020835067072e-02,-6.143850254453957216e-03,2.361100167036056519e-01
2.088541211096605899e-01,2.545452019999697169e-02,2.696034392897102561e-01,-1.863039373096253559e-02,4.421254577176709534e-03,4.197442568895426440e-03,2.227556258440017700e-01
2.203585625336004217e-01,2.085222629710112296e-02,1.872962024085773336e-01,4.100125679447117095e-03,4.326721635663060769e-03,-1.374661294205434432e-03,1.855047494173049927e-01
2.524892613158226107e-01,3.103330605727883107e-02,2.486645940780957686e-01,-2.163072273384915659e-04,-1.414087281788233442e-03,-1.224971116783738975e-03,2.195928394794464111e-01
2.404900471057481171e-01,-3.278031039438392136e-02,9.590513019952924545e-02,8.441419110475785990e-04,-1.071821035749949066e-02,-3.356311216788324808e-02,2.445341348648071289e-01
2.333536404534969633e-01,-2.398867862385953287e-02,1.895560036041656349e-01,-4.190236226607928563e-03,-1.321605853853068460e-02,-3.379738272488246043e-02,2.467301636934280396e-01
2.927946581567681950e-01,1.898374180321557581e-02,1.571271774247977315e-01,1.065000350872994696e-02,-5.206234797351669968e-02,-4.801163340944287344e-02,2.676152586936950684e-01
2.232728170686477387e-01,-7.413086913684585610e-04,2.208721415139455746e-01,3.364059203842040009e-03,-5.226979501143444321e-04,-1.459124216347266068e-03,2.229158282279968262e-01
2.814606860062039972e-01,2.728614104861576406e-02,2.270673327508553885e-01,-2.773096438047176551e-02,-2.516067345067202980e-03,-5.479575325282994014e-02,2.550914883613586426e-01
2.518989007490619048e-01,5.194559452597891092e-04,1.783147537182744879e-01,7.239905571245679270e-04,-1.755998424017349161e-03,-2.958509653083309793e-02,2.296635955572128296e-01
2.177734444540729286e-01,-1.535810193448672312e-03,2.140600125013785993e-01,8.440389469130727719e-04,2.489726850954637315e-04,-1.260535280390739834e-03,2.174926251173019409e-01
2.160594669003118029e-01,-3.744462125736647273e-03,2.034207137212523664e-01,-9.065405401016650780e-03,-6.256749909092392328e-03,-7.464533440212449585e-03,2.150037288665771484e-01
2.411942995410993884e-01,1.149254324032161767e-02,2.300435724886419342e-01,-1.113796341733021018e-03,-2.658138423714714567e-04,-3.958794353583890320e-03,2.244478613138198853e-01
2.449215455235492778e-01,4.128890273988494730e-03,2.147021597212093180e-01,-7.099003795064108731e-03,-2.509875909828543708e-02,-1.931762686682381158e-02,2.340475469827651978e-01
2.160170932762542351e-01,-4.359151511076908569e-03,1.870589997039293906e-01,-1.060012461491259030e-02,-1.900995854442916883e-02,-2.178447912994684391e-02,2.141669839620590210e-01
2.936824096912491466e-01,3.908039517185149525e-02,2.302632872028750888e-01,-1.404750433739200555e-03,-5.038052789746999896e-03,-3.160349468832625297e-02,2.361693084239959717e-01
2.010000957235920094e-01,-1.346888369247639661e-02,1.965468200203303040e-01,-7.902575321675729680e-03,-8.452300466186160252e-03,-7.307928308020199618e-03,2.135967612266540527e-01
2.240471594658512977e-01,4.145828629203429649e-04,2.221710687007593388e-01,1.659623440342890451e-03,-4.470517356229477147e-04,-1.920285505899492961e-04,2.227206081151962280e-01
1.892770558030101580e-01,-7.122025214914839975e-03,2.188624077603340545e-01,1.439657776975257486e-02,1.529669316775190621e-02,-1.350833464008137190e-02,2.170935422182083130e-01
2.109909773862322646e-01,-3.505273629472782648e-03,2.114595623748028452e-01,1.152067222757231606e-02,8.412464250061731444e-03,-4.079485591347849910e-03,2.162632346153259277e-01
2.412308837996309796e-01,4.243346994491312141e-02,2.644755070483265635e-01,8.168719516330509231e-03,6.311371776611860406e-03,2.499701812060752849e-03,2.121794670820236206e-01
2.186203108465101796e-01,2.104967637790225443e-02,2.711797905574623302e-01,1.450609379611639445e-02,5.515464615810014397e-03,4.161374771311105933e-03,2.301203161478042603e-01
2.255032566624947665e-01,4.242729832016345348e-03,2.254758530124813531e-01,4.384204166026335961e-03,-4.291031140666763124e-04,-3.573882470979952534e-03,2.214648723602294922e-01
2.191855057468420909e-01,1.546983777289062667e-02,2.428939213025286814e-01,1.698121685731053543e-02,-2.402733012305108534e-04,-1.286674785458197072e-02,2.196675986051559448e-01
2.138027639557188997e-01,2.911204186423044238e-03,2.224783150430243162e-01,9.100492816522384384e-03,8.692419373971143823e-03,-7.703064587143110091e-03,2.168715298175811768e-01
2.031607764174808151e-01,-7.180652606249560144e-03,2.236129458248677371e-01,7.990718974182400500e-03,3.140187834509764690e-03,-4.389809564474214491e-03,2.219069451093673706e-01
2.286184212723578746e-01,1.395961275599968965e-02,2.371398983801777105e-01,4.873518802368568582e-03,1.035731618398830212e-03,-2.567035001556817889e-04,2.192142754793167114e-01
1.402453250073864011e-01,2.972597623973832759e-02,2.583723206922772242e-01,1.129267769007875812e-03,-1.777703441731381256e-02,6.838058492615015126e-04,2.004423290491104126e-01
1.825362544676374654e-01,4.278872086318380452e-02,2.676665905334757456e-01,7.866412675510142324e-03,-4.149469336448780021e-02,2.064700331891352117e-03,2.098503261804580688e-01
1.023489856852986685e-01,1.258571664414537272e-03,2.410414510623331841e-01,7.285439143282675979e-03,-3.712309731914965882e-02,6.687397229936611724e-03,2.188678085803985596e-01
9.978581366544331255e-02,-6.407442635562154987e-02,1.437151896771889925e-01,-8.034003852256813363e-03,-8.005115589753078464e-02,-6.597589900660729215e-03,2.356417328119277954e-01
2.215462963995804557e-01,-2.540397653067044681e-03,2.208885395601273560e-01,6.390582885442397908e-04,-5.205831595524568851e-04,-6.731132964933121384e-04,2.237661331892013550e-01
1.860455603060836294e-01,5.535044611445884277e-02,2.879827023512741557e-01,-9.422868822998762064e-03,-9.730690720610539468e-02,-1.350732591173121715e-02,2.646028995513916016e-01
1.154588742386095240e-01,-2.163436452404579602e-02,1.631103581412469139e-01,-1.098265982917045157e-02,-8.176517372930704186e-02,-3.373129383264968258e-03,2.192043215036392212e-01
1.046565381829016039e-01,-1.804795444823148465e-02,2.386349102843620673e-01,-1.761989534255380130e-02,1.721274555988147603e-02,-4.897972701115311210e-03,2.265800833702087402e-01
1.796585883627770386e-01,9.194475226175807814e-03,2.067353747051535184e-01,-8.177755592841692497e-03,-6.150089607213073822e-02,-4.718474410091530458e-03,2.145257294178009033e-01
1.757965074749677781e-01,2.251395743723302867e-02,2.497382191213669278e-01,-1.023009884704267382e-02,-7.181058883618721307e-03,-2.800685659146643323e-03,2.019630968570709229e-01
1.418249001384739583e-01,4.461911762408732329e-03,2.518179708608772605e-01,-1.827611579117042334e-02,-2.024979093994179816e-02,-2.068082186746873340e-03,2.198205739259719849e-01
1.293931791909499474e-01,-6.359147228425926501e-04,2.411675402456429640e-01,-2.387690407079683455e-02,-5.086276228740577512e-03,-3.877494907778271382e-03,2.139346301555633545e-01
2.136014471538976722e-01,3.111635254352262958e-03,2.104290046991071084e-01,-4.764017931816898546e-03,2.023602158154598572e-03,1.596875060783066068e-03,2.091322094202041626e-01
1.808904741140033856e-01,8.717045668235723355e-03,2.564971813640125053e-01,-1.723715199079955615e-02,1.466136359089262277e-03,-2.665401256277533885e-03,2.220284938812255859e-01
1.738261649605358783e-01,-1.678061100688188478e-03,2.219791825439755839e-01,-1.580312157071029136e-02,-1.574186410304643721e-02,-1.014899982892863463e-02,2.082622051239013672e-01
1.666626139693799802e-01,-1.181208297125407869e-02,2.087353281095680468e-01,-1.562465134913598730e-02,-1.501833688024977950e-02,-1.259187517795335234e-02,2.074052840471267700e-01
1.754790670786667284e-01,-4.861804498593108592e-03,2.167573271537946433e-01,-1.780829584268470850e-02,-9.667820802801178545e-03,-1.292416999077960170e-02,2.083357721567153931e-01
2.276396523303438890e-01,5.211386141603116529e-03,1.575113783910565002e-01,-1.112344459914896971e-02,2.204927237935763035e-02,1.426285339119782655e-02,2.030610442161560059e-01
1.725252921386568605e-01,3.978258661014089093e-03,2.281732086758814226e-01,-2.192583006121687217e-02,-3.554468761434262380e-02,-1.936463439524603244e-02,2.173512130975723267e-01
1.795826094976278875e-01,2.069637233048732261e-03,2.276715953897924249e-01,-1.806884814560779859e-02,-8.780666153553775069e-03,-7.201801947002334919e-03,2.091080397367477417e-01
2.109422777822892447e-01,3.003631968595849022e-03,2.190146512991239525e-01,-9.446762815268857673e-04,6.288804292724422011e-04,4.228780358321367928e-03,2.122256159782409668e-01
2.059961719539784297e-01,2.541173603572075002e-02,2.475285045947490103e-01,-1.633123384531078026e-02,-2.034987652228437138e-02,-6.610148941019697647e-03,2.097840011119842529e-01
2.208162436314332622e-01,-1.043413748783555972e-03,2.255293975089648906e-01,-3.637493645078900342e-03,9.385985270450006475e-05,1.706517119631011971e-03,2.243614047765731812e-01
2.102308513357143971e-01,3.351016372529075360e-03,2.136609515453788133e-01,-4.294736650983886758e-04,-9.533145453561368235e-05,4.134866997447153580e-03,2.087403237819671631e-01
1.669122437652316437e-01,2.135439798834094793e-02,2.258334817203792033e-01,-8.768915145047687792e-03,-4.902318921421518899e-02,-9.734488377003854692e-03,2.023858428001403809e-01
1.511357226285384436e-01,1.573505600147748207e-02,2.212714478989687428e-01,-2.330857549823584299e-02,4.180718746805044128e-02,1.029867852829959018e-02,1.998508572578430176e-01
2.272635156013689817e-01,3.404419768769872956e-03,1.856365852189611199e-01,-1.063035492660766371e-02,1.702091800826645990e-02,1.573703112414645555e-02,2.108986526727676392e-01
9.061267297772100660e-02,-2.681460212608430260e-02,1.918348822328913017e-01,-2.497099184324853144e-02,7.685363429069966279e-02,9.063714585386108136e-03,2.361311018466949463e-01
7.292009554224483658e-02,-3.565705045001241191e-02,2.259271381932722866e-01,1.444023111500027448e-02,4.674012133402422053e-02,-4.397203356730601358e-03,2.430035024881362915e-01
1.413694618357757837e-01,3.458063444883215098e-02,2.714913402403296150e-01,-3.687957267893446529e-03,3.994070478636892879e-02,1.210154729707161409e-03,2.169380038976669312e-01
1.340256432711868506e-01,8.630015239674507233e-03,2.325068643283432490e-01,-1.763620962703225589e-02,4.744199118359793133e-02,1.012088177184902044e-02,2.139260619878768921e-01
2.219630201872352937e-01,-4.641187549179220939e-03,2.202164702994734435e-01,-2.134350676774952622e-03,-1.541525824005725602e-03,1.604815828459880880e-03,2.257991731166839600e-01
2.606242180668317254e-01,4.477351558003112020e-02,2.846799935845927831e-01,-1.412116409365493132e-02,1.886689248110032247e-02,5.417606375266401444e-03,2.326302081346511841e-01
1.037122313144901997e-01,-1.695900870810360117e-02,1.894155428665533214e-01,5.455527915787882973e-03,5.265861268752409369e-02,-9.506984061913039644e-05,2.016348987817764282e-01
1.970849657188013526e-01,1.320994904940839265e-02,2.026669273939846194e-01,1.897355799258326281e-04,3.366743722248934870e-03,2.052124832857787299e-03,1.868537068367004395e-01
1.429535609021297948e-01,9.648746245153050349e-04,2.263783891015827554e-01,-1.608401090931052546e-02,1.549774120931080197e-02,7.812471020668769299e-03,2.016075402498245239e-01
2.660561893248423182e-01,3.343851340475340050e-02,2.342115930520128342e-01,2.066574992731237681e-02,-1.100602518683438912e-02,3.670281768640924064e-02,2.310916632413864136e-01
3.692397131412468725e-01,8.662413396165810631e-02,3.111816177024929186e-01,1.691146033608531205e-02,-3.751056007069488579e-02,4.153284464229434203e-02,2.776476740837097168e-01
3.644375032171093820e-01,1.104131228483844762e-01,2.819720035236572553e-01,2.798210726092758074e-02,-1.377488508692794461e-02,5.331875674545736438e-02,2.486515641212463379e-01
4.187689388490462572e-01,1.118865559188004788e-01,2.855735900550264716e-01,8.001754626203802165e-03,-1.922864611255724332e-02,4.007094862193094631e-02,2.777784168720245361e-01
2.710117708907474054e-01,3.271575609970137077e-02,2.311121858089044689e-01,2.187961771076448944e-02,-1.429152366203055059e-02,3.324695322990389029e-02,2.328820079565048218e-01
2.069145874035463184e-01,1.002115722727225933e-02,1.891263902796568031e-01,2.510065070608098053e-03,8.691327304443493412e-03,-4.059146336543023072e-03,1.894096434116363525e-01
2.044359813649793689e-01,1.182353606194216922e-02,1.852806665353005366e-01,-2.325677568993444761e-03,5.546921659852342701e-03,7.965308983771933211e-04,1.840852051973342896e-01
2.354363008090128440e-01,6.175327684196374456e-05,1.751382018323822953e-01,2.021140163009920929e-02,-2.820848093155330430e-02,3.174584952233957397e-02,2.268930524587631226e-01
2.197240010078020944e-01,1.567819879401524674e-02,1.695020862251083171e-01,2.252617014851093606e-03,8.477357633276444773e-03,-2.137220717147866270e-04,1.847709864377975464e-01
2.294971190206206990e-01,-1.980330874722935341e-03,2.144906405691947293e-01,-1.088686813046080282e-02,-1.438182159059142769e-02,-1.070879263441605091e-02,2.272739708423614502e-01
2.218787531835044180e-01,-1.035525541727935761e-02,2.023686596888047418e-01,-5.867051828002826756e-03,-2.716345913223477959e-03,-1.156223255737355050e-02,2.242963016033172607e-01
2.035145182152296450e-01,-9.395532304841802684e-03,2.024708888087492775e-01,-7.783092919853771413e-03,-8.226821552602804274e-03,-8.236758772174534657e-03,2.137706279754638672e-01
2.252485311246881228e-01,9.203139156589434933e-04,2.251149912175625656e-01,-1.987795842998507038e-03,1.556016404492895902e-03,-1.948691372713231163e-03,2.243294864892959595e-01
2.200243882290894015e-01,-2.065724543411445735e-03,2.220971491801684017e-01,9.637352221179884592e-04,-1.946343196608073256e-04,-4.031420494114488010e-03,2.232494354248046875e-01
2.221132375694170324e-01,-4.745668840082567508e-03,2.197126263793100776e-01,-2.574228076002023705e-03,1.348562657909806910e-03,-3.318039938059074920e-03,2.257974594831466675e-01
2.354944450890000818e-01,7.468448276973155275e-03,2.300582937025352770e-01,-1.374802916390660025e-03,-1.229852945129338319e-03,9.095474385106376569e-03,2.259296625852584839e-01
2.744203021996419189e-01,2.574310801107282387e-02,2.248805384540129293e-01,-1.057102941194009750e-03,-1.328186766841740578e-03,1.477080803834301785e-02,2.294303774833679199e-01
2.309358126345781304e-01,-6.414968103079787820e-04,2.172106498547061171e-01,-4.829716505383168865e-03,8.425412059023577004e-04,7.870336473750445469e-03,2.256012558937072754e-01
2.267664935606708010e-01,1.844902850477758705e-02,2.338673228990309216e-01,1.952126173283540937e-03,-1.158767687520194422e-03,3.059977009542124652e-03,2.120598107576370239e-01
1.368491433778945277e-01,-1.673067684480715467e-02,1.777756096910703132e-01,1.558820526681903643e-02,7.224900665476666206e-02,-9.851546634524067925e-03,2.196067124605178833e-01
2.264321954903465439e-01,-3.166536311609319254e-03,2.232548474123359772e-01,4.097994863433808486e-04,-1.220394105452479293e-03,-6.606310771013186676e-04,2.280404269695281982e-01
2.437514742932464507e-01,1.924653690670577455e-02,2.375812869600456012e-01,-2.708921510581107760e-03,-4.209264225670932024e-04,3.653619391410788207e-03,2.216255664825439453e-01
2.343690378876180092e-01,8.723869250693461197e-03,2.300790153799175952e-01,-1.867882671702206189e-03,-2.369678338924856992e-03,1.435957214406087361e-03,2.236059606075286865e-01
2.213141259668461591e-01,-2.071636753938260744e-03,2.214486123223471936e-01,1.443863553198312336e-03,-4.310993758352821129e-04,-2.509120978634950955e-03,2.235105335712432861e-01
1.878210467349734347e-01,3.679418502298792415e-02,3.035517701433645410e-01,2.102289782966783663e-02,7.437981121288599062e-02,-5.300571263051643417e-03,2.677468955516815186e-01
2.374157060974921851e-01,9.268240409305628091e-03,2.332825709085905030e-01,-4.707904990791354945e-03,-2.847493634428534975e-04,8.567486632859474052e-03,2.267428636550903320e-01
2.394728321970678309e-01,8.336896923241521318e-03,2.248829181953334033e-01,3.358329976476044729e-03,-8.055260155297894620e-04,1.000352237095487699e-02,2.249453812837600708e-01
2.948129189219149127e-01,5.244470587731359101e-02,2.687824270507516156e-01,-8.941006136348645522e-03,8.043304470076000079e-03,7.851280812420305052e-03,2.317969202995300293e-01
2.248973131066007713e-01,1.181644413312041286e-02,2.403198076334119304e-01,4.095949475433200392e-03,1.019390130748379581e-03,-5.017253912572504056e-04,2.213182151317596436e-01
2.286409132691270829e-01,3.498819192671320799e-02,2.649024489505839575e-01,7.248199013654542215e-03,1.997713531135781543e-04,-2.425168655472779468e-03,2.145082652568817139e-01
2.199737115196468140e-01,-5.067192642379758638e-03,2.259392651353070991e-01,2.863128465750901870e-04,-3.655228120175848822e-03,-1.099825814718985873e-03,2.281785458326339722e-01
2.088802215668176532e-01,-2.772457231128011568e-03,2.255655826846136858e-01,7.080985358454431645e-03,3.459994881101315697e-03,-6.361917195946639909e-03,2.211662679910659790e-01
2.237107817008997523e-01,2.919410682439263494e-02,2.738695143301289603e-01,2.805237267504107415e-02,1.819299517722073462e-03,-4.423402312320234668e-03,2.292134016752243042e-01
1.932329340803558559e-01,-7.448056875186681580e-04,2.556828759045392530e-01,3.351761976967111006e-02,7.148137069992210532e-03,-9.393945447879503349e-03,2.396446913480758667e-01
2.197343089726803145e-01,4.017522321909189342e-03,2.282151798069418092e-01,3.632579126785297902e-03,-1.203429367729508519e-03,-1.637277852203699235e-03,2.201978564262390137e-01
2.940286865465784327e-01,4.112990779834962973e-02,2.652447814819006711e-01,8.386500924585049005e-03,-1.165440654683593501e-02,2.269824724209198660e-02,2.442764788866043091e-01
2.263794148177852017e-01,4.662884167932757062e-03,2.333176803200167349e-01,-1.241754204841131115e-03,1.102987121004130478e-03,1.621369824438643331e-03,2.253016829490661621e-01
2.364335232544413634e-01,-5.256397523995370857e-03,1.765942141026100309e-01,9.221910144368268905e-03,-6.598110757818935988e-03,2.150744901166839335e-02,2.220487594604492188e-01
2.221067344546666100e-01,-3.626553963183037910e-03,1.949229790640942817e-01,-3.443506086528433548e-03,1.494687769468198328e-03,-5.310170699622787562e-04,2.135446518659591675e-01
2.142660985429298837e-01,6.386547264759706577e-03,2.086128910812205528e-01,7.830615521175076157e-03,-6.907995679653482039e-03,7.253931858968569804e-03,2.062902152538299561e-01
2.230025901896397489e-01,1.254504408356521550e-02,1.906114240482907340e-01,7.051947368146361736e-03,-1.262749592261314460e-02,5.803845567435884922e-03,1.981242150068283081e-01
2.027123683119058106e-01,1.997748547793537499e-02,2.128548092450507911e-01,5.300296161738242071e-03,1.325981089589396353e-02,-8.013905109249548631e-03,1.901386380195617676e-01
2.324222025336741271e-01,8.352934641723402942e-03,2.316758153718734281e-01,-1.301699902864289970e-03,-8.831016990473886195e-04,-8.543907245410464193e-04,2.237184941768646240e-01
2.835762455879043964e-01,4.388301144638859230e-02,2.621917351382563877e-01,1.534459980604427516e-02,4.022382540105607501e-03,1.498041416231483784e-02,2.328359335660934448e-01
1.119131008697563934e-01,-9.694611429005017822e-05,2.266544622369154605e-01,-4.737140276193565341e-03,-6.343876092218494371e-04,7.608286550560961316e-04,1.965560466051101685e-01
1.817280664263516976e-01,4.900615332053326334e-03,2.121993709977822717e-01,-3.715669008368437456e-04,4.898162638934214740e-03,5.010928381480922802e-03,1.942481100559234619e-01
2.222496233052948522e-01,-1.626069913402222733e-03,2.228038201348722658e-01,-8.877462801415199204e-04,-3.185139544191919851e-04,3.244308764848740766e-03,2.242296785116195679e-01
2.445270029039169901e-01,2.659918213592266101e-02,2.436541930458405170e-01,2.710791175320971004e-03,-1.583652539884869946e-03,1.859969983876941886e-03,2.175845503807067871e-01
2.324770198428537660e-01,4.771417449970893898e-03,2.010189222886512583e-01,4.931064159490406752e-03,-6.963596449040162541e-03,1.018439518002900272e-02,2.149554789066314697e-01
1.568983225326147923e-01,1.822391321067698411e-02,2.235820784202788569e-01,-7.067702530714710168e-04,5.285761352381772998e-03,2.616344594909364007e-03,1.817429512739181519e-01
2.422746947016584662e-01,2.195725106224924450e-02,2.531137223600213315e-01,1.499478003547280577e-03,-1.858525681701179641e-03,9.329983050605126019e-03,2.265469878911972046e-01
2.286316607866247241e-01,6.162899668299692824e-03,2.237412709044878101e-01,4.668026737406281469e-03,1.002502682409580617e-03,5.465709807230388455e-03,2.204230427742004395e-01
2.277656278394579736e-01,5.660838223200459485e-03,2.303474398350154606e-01,6.895969760482940566e-03,-1.467778006806287183e-03,6.146804088148585289e-03,2.239935547113418579e-01
2.248646052743553669e-01,5.660114696950102608e-04,2.253309049399440933e-01,-1.318157392824437614e-03,-3.683235976234556282e-03,1.610133974390170683e-03,2.246516346931457520e-01
2.128665833449386313e-01,5.574038409523307536e-03,2.223238782908772970e-01,-9.462173647000050695e-04,6.068360711799479241e-04,4.910637711027729564e-03,2.123586535453796387e-01
2.181172783254499703e-01,-5.376192053427070183e-03,2.110377264891996896e-01,-1.787339240322507973e-03,-4.367348028135378639e-03,-3.404698997677884156e-03,2.202698290348052979e-01
2.192968213786385678e-01,2.127857554068225687e-02,1.826478971898831960e-01,2.753310504635275106e-03,5.762104429562367111e-03,-6.671844621828844401e-04,1.828138381242752075e-01
2.271513020656646675e-01,2.344406547490018866e-03,2.277224600759019668e-01,-1.924872563703025662e-03,1.386071960608848330e-03,-2.940300885629904340e-03,2.251881062984466553e-01
2.245283034158972457e-01,-1.443960936366614489e-02,1.588964499084252191e-01,-6.124885175425079029e-03,-3.755808360859832270e-03,-1.960724484849369134e-02,2.168812751770019531e-01
1.997430293031374759e-01,-1.066223254734155468e-03,2.218002394198781979e-01,-1.319349298642876747e-03,1.150631533038594867e-03,3.153244322034899974e-03,2.127890735864639282e-01
1.797776066173015219e-01,1.428246841414015922e-03,2.104364506755388997e-01,1.071115082604669286e-04,4.864944048133338847e-03,4.366908756123810340e-03,1.958180069923400879e-01
2.234699520240088777e-01,-2.307549899770083845e-03,2.205853318125796103e-01,-1.790454914615094298e-03,1.593589250041517295e-03,-1.482000814727942744e-04,2.243876606225967407e-01
2.242035601795633604e-01,3.855682003728322371e-04,2.234381143433380734e-01,-1.534084111745546422e-03,8.343227329324940733e-04,-1.291820530546700704e-03,2.234679311513900757e-01
2.297961167403236304e-01,6.437361067294145034e-03,2.343445189949644458e-01,-2.728883507814300249e-03,2.656833082465611968e-03,-4.218875909294550648e-03,2.258819639682769775e-01
1.817663546638503824e-01,2.215774508604023696e-02,2.191940567384946248e-01,-2.116301682128112795e-03,5.487844539629905399e-03,2.995078823609303564e-03,1.816045790910720825e-01
2.418311494603331280e-01,1.268846524122005381e-02,2.351544936650375728e-01,-1.116729926686526458e-03,2.686723641476512878e-04,-2.401752438863584416e-03,2.259254455566406250e-01
2.209986712196446434e-01,-3.411931081562791235e-03,2.209351682503463699e-01,-1.424246243452880357e-03,-7.486178515846221874e-04,-2.033871727750792384e-03,2.244238108396530151e-01
2.155793804975895955e-01,-8.895149887681447209e-03,2.028226406320958186e-01,-9.109586166978153338e-04,-4.415943424088173731e-03,-5.511397942935713362e-03,2.187238037586212158e-01
2.209690406419414499e-01,-4.493840620782285633e-03,2.216652513251377021e-01,9.079240125055944906e-04,-1.067354481891936687e-03,-5.786125885166676320e-04,2.258270531892776489e-01
1.844975113462439809e-01,7.665100781709927036e-03,2.154753129524218935e-01,1.272097874822985348e-03,4.190643586483347970e-03,-6.284567425870114799e-03,1.946361511945724487e-01
2.333926617058805775e-01,8.911846436617409939e-03,2.376783704240177097e-01,-2.364205863009984955e-03,3.336972875153403854e-03,-3.693709814209455815e-03,2.268549501895904541e-01
2.314781552257289543e-01,1.115439296025685922e-02,2.389086485279281746e-01,6.097240399120519919e-03,1.734926570203687785e-03,-1.462165473068088905e-03,2.244144827127456665e-01
2.164807129831423094e-01,-6.803354711011705414e-03,2.183360791021048686e-01,3.356388502820805472e-03,-4.799987630313449030e-04,-4.426028534563967998e-03,2.244253754615783691e-01
1.163995057220985618e-01,1.091638759653942858e-02,2.367082592980418454e-01,1.464767190024127358e-03,-1.326054960781539518e-03,2.608480931836673188e-04,1.957124024629592896e-01
1.495831210731690397e-01,2.314633989148619231e-02,2.485825293826299243e-01,1.141806921460069690e-03,4.763744971467200073e-04,-1.779678289739391800e-03,1.957508623600006104e-01
1.286194707106799728e-01,1.730218844744750573e-02,2.514968183164554283e-01,6.742188490247585236e-03,9.206102166558618322e-03,-5.911296276542734804e-03,2.041181325912475586e-01
1.706218458916059222e-01,3.353962758708595171e-02,2.572796693146016112e-01,-5.173017222194205983e-03,9.503188342189259437e-04,-2.270999869237844571e-03,1.956497430801391602e-01
1.546316654079705477e-01,2.403453862148671738e-02,2.446365311041140411e-01,2.180623743062520391e-03,5.106350806092378562e-03,8.842833553766039347e-04,1.923686563968658447e-01
2.368022670217298509e-01,1.272030293914139243e-02,2.300204119547303305e-01,-3.280138210682246322e-04,-5.282940727604798319e-04,1.288737249354302591e-04,2.207719087600708008e-01
2.070379052274315401e-01,-4.764430358231985796e-04,2.178392251970170390e-01,2.121777897238577744e-03,1.329130470476100117e-03,-6.662660950397696243e-03,2.134766578674316406e-01
1.474951703661235569e-01,6.518491202132409290e-03,2.155010800769519563e-01,-8.678302387517140273e-04,2.654070729450398736e-02,5.081045784132131801e-03,1.904715597629547119e-01
1.550813733073559408e-01,2.176970542375668283e-02,2.368550821406203433e-01,2.086965220021264750e-03,7.381072441467881155e-03,-1.963586865202960295e-03,1.885428428649902344e-01
1.665887727083414094e-01,2.648087478483154844e-02,2.486774140367090935e-01,2.862563219181706465e-04,5.216941116742923601e-03,2.464106871213377135e-04,1.948130130767822266e-01
2.090039236005052925e-01,5.249704254338155573e-03,2.225658514253996967e-01,1.531156944659655501e-03,-8.368187404560007911e-04,4.879561142250772067e-03,2.110534757375717163e-01
1.494762505189634882e-01,1.323475313224888039e-02,2.350074311149031869e-01,-1.314393587651058312e-03,7.224910028154743263e-04,-1.367788955619794007e-03,1.937590986490249634e-01
1.396496320676547109e-01,3.017279092739097446e-02,2.866241393475846277e-01,-5.253157813691478398e-03,-6.898524470720368562e-03,2.490253267090613513e-03,2.234304100275039673e-01
1.883576862076923875e-01,3.879244841177131864e-03,1.865578260400728161e-01,-2.350601901648499692e-03,-1.201793619389199784e-02,-3.275091616130805169e-03,1.848933398723602295e-01
2.047962190807765259e-01,2.431772068548383736e-02,2.159686387597292145e-01,6.483223654032688014e-03,-1.244653950272467391e-02,1.645560546744986429e-03,1.879166364669799805e-01
1.918309936348390476e-01,2.550501987428201167e-02,2.294115385435117616e-01,4.644571532151655323e-03,-1.648327993025978933e-02,-6.898042921918901742e-04,1.902852803468704224e-01
1.990350958891253796e-01,-6.588058315928069231e-04,2.259921500065079081e-01,-1.118211594607817876e-02,-4.621080693819912613e-03,-7.102948000424214904e-03,2.158194482326507568e-01
2.249353014810479001e-01,-4.036950064484817746e-03,2.233625379781393749e-01,-8.221977550036088829e-04,-2.801749850650609927e-03,1.289534500896416308e-03,2.282568961381912231e-01
1.879974000706317872e-01,3.366280031647002347e-02,2.329080598065538243e-01,-1.762442195787340031e-03,-2.334606962042515971e-02,2.166377582245304200e-03,1.855422258377075195e-01
2.100658506273747617e-01,1.799117385366014177e-02,2.175816202278315903e-01,7.697263925612799276e-03,-8.011292944124500520e-03,9.196168035631542212e-03,1.975265890359878540e-01
1.810535553508105799e-01,1.932848220034784348e-02,1.678545977881637785e-01,5.776457094425667405e-03,-4.321475956706938293e-02,1.168111030581236998e-02,1.740879118442535400e-01
2.277805098017778862e-01,9.779220382685138713e-03,2.389079930706828336e-01,5.572631061639219535e-03,-1.218490847481768597e-03,-3.171786111751991131e-03,2.240580022335052490e-01
2.065469094963732766e-01,-7.813615739359430767e-03,2.024696529542724943e-01,6.019065557555459793e-03,7.633765704565383288e-03,-6.197698398143572547e-03,2.132880687713623047e-01
2.225108410859622521e-01,-1.913593531211454923e-04,2.244933559814659418e-01,4.043113581198192960e-03,2.917020921632362644e-03,-2.219222630404859252e-03,2.238996475934982300e-01
2.272946076565152962e-01,2.445809352383884749e-02,1.892605158087406758e-01,8.973336320819024284e-03,9.974175322977197125e-03,-1.161547514282619022e-02,1.892599165439605713e-01
2.270196111832852026e-01,-7.201444655488276059e-04,2.248819848989458969e-01,-4.121553625655734166e-04,6.505115355880441768e-04,-8.875975126838925788e-04,2.266876399517059326e-01
2.181074200010658104e-01,-8.301348384713358453e-03,2.029324358120151439e-01,1.071994862235688128e-02,1.375877855167832557e-02,-1.322209706760366608e-02,2.224693149328231812e-01
3.849740332193706260e-01,9.442874613354193536e-02,2.222474734771949789e-01,-1.784609498845091471e-02,-3.703049314182463303e-02,-5.628618791056780313e-02,2.796259820461273193e-01
2.405055829532901646e-01,2.356251531642697405e-02,2.419406900276493133e-01,1.617169044075512582e-02,2.883721851925463361e-02,-8.793402887138260932e-03,2.255858778953552246e-01
2.274614046391341404e-01,4.117561295206406680e-03,2.308172279367924074e-01,-9.265136791455099146e-04,5.348114657698171915e-04,3.154734016770561252e-03,2.251144796609878540e-01
2.370159094921517606e-01,2.203847889440513352e-02,1.521375745803298096e-01,-2.390836765346866528e-03,-3.647493186012804468e-03,2.692957664194852059e-03,1.877538710832595825e-01
1.837012012499208424e-01,1.095954231943244150e-02,2.161133902077615465e-01,-3.358627565147301233e-03,-4.516078554539277971e-03,-7.155791896298910847e-03,1.916710883378982544e-01
1.519980238564787034e-01,9.354617630249736915e-03,2.198970124792255509e-01,-1.458024759796446284e-03,5.478340480347584571e-03,9.999683564036047131e-04,1.863925158977508545e-01
2.404917917037615038e-01,6.621925929136351918e-03,1.307553150551154508e-01,-1.175958937689481623e-04,-6.270837762780008887e-03,-9.061114678225245384e-03,2.035619765520095825e-01
2.363964734219562713e-01,1.959403569762732666e-02,1.545815703774622851e-01,-1.507674562215707229e-03,-7.899036911507508266e-03,-7.373953059711825097e-05,1.901402771472930908e-01
2.355159123632829810e-01,1.685813196328614372e-02,2.289264019653524662e-01,-8.049368564582577408e-04,1.280826270252470242e-03,3.702151501165308243e-04,2.154555022716522217e-01
2.416296825866069975e-01,2.502098934469600133e-02,1.649246016402307058e-01,-1.191801646147030123e-03,-2.104925784426545966e-03,-8.051980928280947150e-03,1.907880157232284546e-01
2.492973016405606868e-01,2.518616462014398871e-02,1.613659508763620187e-01,-1.343700980673797674e-04,-7.081384921379933100e-04,-5.151625447263259369e-03,1.957868933677673340e-01
2.042504427567339853e-01,-9.420202605362887338e-03,1.959014637676484427e-01,-7.327893190706293892e-03,8.161144973341758271e-03,6.485664999165379266e-03,2.107795476913452148e-01
1.833397234272991783e-01,6.145872770672744512e-03,2.240501402265927533e-01,-5.925332296639477039e-04,3.567963813219341210e-03,3.482260072500152626e-03,2.008588016033172607e-01
4.497878540605467768e-01,1.487450261712111865e-01,4.161547042333972879e-01,-2.413410024767742926e-02,4.848029655825049876e-03,4.473805689297050137e-02,2.990908026695251465e-01
2.191758987150301541e-01,1.691968544210623038e-02,2.082906003951160157e-01,-1.769744571755489659e-02,4.245047334894524321e-02,1.246136038472601092e-02,2.136259078979492188e-01
2.127655767058527769e-01,3.282440149678825247e-02,2.372884130551993487e-01,-7.612163936407292768e-03,1.144979948836031408e-02,7.799434863057609808e-03,1.953010112047195435e-01
2.318747827377148907e-01,3.276333320019197970e-03,2.328944702545587275e-01,-1.188056459613814290e-03,-4.565172310300556887e-04,-3.610289385844719706e-04,2.291214466094970703e-01
2.098845693966940873e-01,2.243551078320416003e-03,2.280965696260330855e-01,7.038754072851929498e-04,6.300256972563137619e-04,-2.899847087943821598e-03,2.173842936754226685e-01
1.874563612065092144e-01,3.013525976211740842e-02,2.295578329712413823e-01,-3.592893519532112858e-03,2.003118243866846421e-02,3.662317398766721903e-03,1.855495125055313110e-01
1.724961122464953034e-01,2.419827476418059953e-02,2.581638252061020933e-01,-1.158664835842197413e-02,9.789746550916682277e-03,4.060830608691515242e-03,2.068218588829040527e-01
1.653831829847802748e-01,1.997614025271259031e-02,2.276778976668682453e-01,4.122015140636944505e-04,6.081513438820324892e-03,-1.692023762976489244e-03,1.849377751350402832e-01
2.241103256406284383e-01,4.037009951660432139e-02,2.265018865213043742e-01,-5.667591126359099001e-03,2.761929751482582185e-02,7.708475268679340284e-03,1.917517185211181641e-01
1.531819373399536111e-01,2.004939448838070903e-02,2.393900578264199219e-01,9.502000743972659116e-04,3.062607347267058168e-03,4.610077435436693290e-04,1.914802938699722290e-01
2.545277738824868186e-01,3.768906657238910163e-02,2.444582381185059772e-01,2.036739070221518441e-02,1.289567529983657972e-02,-5.875384279227317472e-03,2.162958681583404541e-01
1.657435961242543498e-01,-5.144846458203095052e-03,1.911265713177238423e-01,-5.643970507293721676e-03,2.262328897289268143e-02,4.625627667815970269e-03,1.894201785326004028e-01
1.728611290614806006e-01,1.698644053065952175e-02,2.253971388793309938e-01,-1.461179782301712249e-02,2.592144146167725885e-02,1.522108760956572722e-02,1.964619755744934082e-01
2.141420947948552700e-01,-4.146440638131548839e-03,2.006095192903380731e-01,-1.727617177772217474e-02,-2.310015044780804397e-02,-1.804955928269183496e-02,2.198922932147979736e-01
8.347502494153094532e-02,-1.419286419742324390e-02,2.298578707763493656e-01,-1.600625144166198388e-02,-1.803284392674688388e-02,-4.761865820752571483e-03,2.169701159000396729e-01
2.227040095822345467e-01,-4.559315808956160287e-03,2.225821911614395687e-01,8.181397245710219507e-04,-1.401216662084889784e-03,-5.620732441816804741e-04,2.272219061851501465e-01
2.285600072009633110e-01,5.513321752242950069e-04,2.258182059390007046e-01,1.304764793997252635e-03,-2.441590009391552199e-03,-1.316715769792516392e-03,2.267123907804489136e-01
2.226201021135639779e-01,4.061279205741508136e-06,2.250817590238295418e-01,9.172200388361037701e-04,-5.087316432237547550e-04,-1.859918701750236164e-03,2.238875627517700195e-01
2.129640744135011254e-01,1.635652019384989386e-02,2.085391025298336531e-01,-2.422465395233935892e-02,-5.281019742038495918e-02,-1.476909805046873470e-02,2.204217761754989624e-01
1.554866355916451892e-01,-2.509423106443819940e-02,1.719136490143799434e-01,-1.858570317735054600e-02,-4.469800726576698968e-02,-1.790989417781294751e-02,2.093752920627593994e-01
2.217093345304463892e-01,-1.230935070734018311e-04,2.248794757275262290e-01,9.309497415254498016e-04,-3.964767243488832187e-04,-2.567919748220348197e-03,2.234854996204376221e-01
1.925815040800127331e-01,-7.593447078527215677e-03,1.958888513625029471e-01,-4.853517856264489769e-03,-1.109203946406852465e-02,-5.586483541386923733e-03,2.031659334897994995e-01
1.958011516845058753e-01,-3.784948555332900977e-04,2.077938438790346565e-01,-4.869277594310481884e-03,-9.529156736560198682e-03,-7.404497557979208312e-03,2.036934494972229004e-01
2.231869574995084260e-01,-3.890471813336293661e-03,2.233950820760726985e-01,7.642661674023815523e-04,-1.543071305469830229e-03,-4.169131729460531875e-04,2.272022813558578491e-01
2.219072421286955032e-01,1.660167214370233957e-03,2.292900531045015122e-01,-9.740673962492176277e-03,-6.498426765682634122e-04,-7.144541223305512015e-03,2.250074744224548340e-01
2.211774535978019984e-01,1.753946575810405584e-04,2.228116137283293607e-01,4.307900517766943826e-03,-9.074657635994420185e-04,-5.407340976688788069e-03,2.221521884202957153e-01
2.073038317933774133e-01,-4.874630320309186748e-03,2.086955212300829199e-01,-4.209579437098539406e-03,-2.448846056320716068e-03,-2.292224786958778349e-03,2.130817621946334839e-01
2.030181752510719362e-01,5.227328937063319136e-03,1.911511330870701575e-01,-1.247284372007659813e-02,-2.381136244072929245e-02,-9.948464241421707890e-03,1.984425038099288940e-01
2.085810369323876090e-01,8.045280090512668680e-03,2.170716839275248500e-01,-4.457516756936777923e-03,-5.888975397192283689e-03,-6.977302226697822303e-03,2.056673467159271240e-01
2.196471040744222836e-01,2.478598682605945291e-02,2.229151235855748592e-01,-1.259973748744273696e-02,-2.187641645622344366e-02,-1.167273325162698251e-02,2.023341208696365356e-01
2.160466893524539689e-01,-7.216543521028434549e-03,2.156785268021311763e-01,-2.479795528412757043e-03,1.708109991552047798e-04,-2.676797010598593041e-03,2.231690883636474609e-01
2.061299414460516788e-01,-6.435185854657299309e-03,2.122915615081780172e-01,-2.908256035233641214e-03,-2.771708481229579954e-03,-5.396643394769595932e-03,2.160264700651168823e-01
2.115255429272270837e-01,4.193271364267558976e-03,2.060148853515337830e-01,-7.010776204517876406e-03,-8.098610359306134335e-03,-7.003952665328533507e-03,2.058297395706176758e-01
2.624321121106250043e-01,2.907538002311757519e-02,1.597429416278526304e-01,-6.553312431741053004e-03,-4.365231618397049512e-02,-1.223642084191718833e-02,2.175587862730026245e-01
2.442774524386718826e-01,9.654800052759524021e-03,1.355445660899431692e-01,-8.889237943787159021e-03,-4.200931753926292339e-02,-8.527252739175742238e-03,2.170460224151611328e-01
1.509306447234841086e-01,-4.109996193376048990e-02,7.588960872067006258e-02,-2.407889586503055186e-03,-8.332722823329082040e-02,-2.332014221982494978e-04,2.212342023849487305e-01
2.376978284883946024e-01,-4.429093431895148036e-02,1.346751741552061621e-02,2.746373541826301577e-03,-2.761831847878142357e-02,1.192254495073954458e-02,2.632562518119812012e-01
2.160003548525112338e-01,7.007035894026139577e-03,1.208279145196259757e-01,-1.776072791788943723e-03,-3.736246888646167774e-02,1.362744144902731588e-02,1.939073055982589722e-01
2.616346412410323063e-01,2.555350009322338023e-02,1.401863986760340797e-01,6.162592513880282667e-03,-2.419034953465295026e-02,9.252509077550834585e-03,2.096154093742370605e-01
2.345866306812649238e-01,1.458291332316907774e-02,2.375655112039712913e-01,-3.304252126461743131e-03,2.130874303841373118e-03,1.346248517515315950e-03,2.216251045465469360e-01
2.289314155694672226e-01,8.008585905878773392e-03,2.365164533418453452e-01,-1.064681733592622546e-02,1.005163513182862848e-03,6.268762906425772753e-03,2.258342802524566650e-01
2.156673227218953437e-01,4.741784636686424692e-03,2.255879856779790249e-01,-6.053725861981037147e-03,7.583375839323338967e-03,4.421433476055573221e-03,2.168447226285934448e-01
1.355534909368365515e-01,2.155220517109526779e-02,2.535185730362654599e-01,3.654378462559824872e-03,1.682063387718839981e-02,1.378730762327777179e-03,2.031127512454986572e-01
8.913937517406839151e-02,1.296247461026249492e-02,3.034134116603586229e-01,4.533906025547006550e-04,5.391803809955093146e-02,-1.775507842318575194e-04,2.770580947399139404e-01
1.992320721923144800e-01,1.177087516031377623e-03,2.267221223619567683e-01,-2.903751263065909322e-03,9.253520620686995178e-04,-2.930471829223519308e-03,2.132595777511596680e-01
4.644994250125876467e-02,-5.847882684161070932e-02,2.139683632556606263e-01,-3.912731363808441727e-03,6.465824094297356606e-02,-4.719071025913595409e-04,2.631323337554931641e-01
1.170162141601229638e-03,-8.051776332293153482e-02,1.611011248371498339e-01,-1.213507437241059111e-02,6.232774222869674058e-02,9.591744039239047045e-03,2.401817739009857178e-01
1.126518342077643953e-01,-1.337881180375551093e-02,1.954090707974293628e-01,-1.563798138611719249e-03,8.508211929203228496e-02,4.734363276685158405e-03,2.344225049018859863e-01
2.015661155546705219e-01,1.049439579869110295e-03,2.256829151654561882e-01,-1.529424036386847459e-03,1.370563555424114677e-03,9.213544445354427868e-05,2.136283069849014282e-01
2.233563999723131022e-01,1.214768162301788079e-03,2.260113765331058511e-01,-1.147959109808132467e-03,1.093457869407068707e-04,-1.958854105982055487e-03,2.235156297683715820e-01
1.707436067389085654e-01,2.694605661997503954e-02,2.279859060701666662e-01,2.289463829993536835e-03,6.399204683072295952e-02,-2.092646527745323660e-03,2.109491080045700073e-01
2.118937329194126029e-01,4.826956828380080111e-03,2.406518009640535305e-01,-7.411361036231926304e-03,2.885961181524996245e-03,-1.480813522547897408e-03,2.232820391654968262e-01
1.673558483697160093e-01,3.206024910852449394e-02,2.700556749013675040e-01,-9.074321213855046295e-03,9.178250726262926484e-02,9.479743550434601221e-03,2.617932260036468506e-01
1.250089386721275342e-01,-1.029211529683991821e-02,2.006310386822069969e-01,-1.427202475108091222e-02,7.650112976701327339e-02,6.019919121754138333e-03,2.292027175426483154e-01
2.214098527481832557e-01,3.670317530606315160e-04,2.260193665595624513e-01,-1.092695076739812719e-03,3.986253931748465749e-04,-2.842165745615115452e-03,2.234465628862380981e-01
1.799040099246288493e-01,7.904008375848092793e-03,2.312920615121412393e-01,-2.109045406241647890e-03,1.409895363376910361e-03,-1.250600233949074021e-04,2.026890069246292114e-01
3.502569994984026103e-01,9.221489428639378927e-02,2.558063430195778309e-01,-2.784003727018176735e-02,1.821246307481063503e-02,4.523063858423462258e-02,2.461546808481216431e-01
2.589319281522831084e-01,1.799851908456026606e-02,2.049300814594361975e-01,-8.854238415821060262e-03,3.306829481961144623e-02,4.473156015162838006e-02,2.397346943616867065e-01
2.285381646421543733e-01,3.618952087513754856e-03,2.286979333181765051e-01,-1.249303854360644733e-03,-4.766764126652910105e-03,1.556441479547513449e-03,2.251771092414855957e-01
3.782719523422758412e-01,1.228624045531754860e-01,4.359463490061522561e-01,-5.141275955863506414e-02,7.380481944213359777e-03,-6.300837092286223906e-03,3.024951219558715820e-01
2.424634858764856127e-01,2.960883594301985666e-02,2.365108853469236605e-01,2.850795206320324692e-03,-9.771328910687501670e-04,-5.597870783023766936e-04,2.100087702274322510e-01
2.047832067369526332e-01,1.181042598584544634e-02,2.275674961588092238e-01,-7.592448185972874158e-03,-8.774540181761918828e-03,-6.365395772839389094e-03,2.065909802913665771e-01
2.586805453753087680e-01,3.649103952525475925e-02,2.589533087986475302e-01,-1.129084114659797446e-02,-4.316790108495207647e-03,7.790908768269794171e-03,2.237170189619064331e-01
2.835869271483982823e-01,4.341474536320186206e-02,2.468958655401388980e-01,-1.217967073905118318e-02,1.745084052954927814e-02,1.094979875973411086e-02,2.278926521539688110e-01
2.562083594528571928e-01,4.333135161846932148e-02,2.478962949041472186e-01,2.003447665628369477e-03,1.287716217378230381e-03,-4.802982829600585838e-04,2.088874578475952148e-01
3.927434055824317038e-01,6.645860163907058027e-02,2.982069444394207514e-01,-2.532240557632841130e-02,2.184510403319512954e-03,4.010860389405092319e-02,3.021873533725738525e-01
1.248809011768659549e-01,-1.592831252981592727e-02,1.731308678291623160e-01,1.779600039725010930e-03,4.223133562470570562e-02,-8.501859882851370417e-04,1.852335333824157715e-01
1.954892049556674616e-01,7.759807164411797187e-03,1.726970923151423809e-01,4.184747015885225373e-03,2.569915052652821733e-02,-4.300700134115588717e-04,1.830778121948242188e-01
1.336060369229035705e-01,6.567290980885764906e-03,2.280170281587542702e-01,4.310622397131092941e-05,3.484517910422975633e-03,8.067182462878977334e-04,1.925733983516693115e-01
1.718213905468989333e-01,5.487780264324754187e-03,1.920373753932362315e-01,-1.065048469971848844e-03,2.664200559607575111e-02,-5.038361548452574036e-03,1.834314614534378052e-01
2.121495217935803757e-01,1.566740858648688062e-02,2.084434405669614854e-01,-6.213640974380963376e-03,7.153036014262004541e-03,5.812617926227699530e-03,1.956053674221038818e-01
9.630176152950861712e-02,5.928071431951842385e-03,3.160624422966450409e-01,5.743636022014789178e-02,-1.753273555424451555e-02,-2.105893005981961108e-02,2.974427342414855957e-01
2.133597438662010182e-01,2.887013373949157136e-03,1.671858318710498503e-01,6.641830692663502553e-03,-1.120630734374000910e-02,7.614598913083127536e-03,1.933791190385818481e-01
2.171971283017931353e-01,2.546661320029147690e-03,2.184155933455152743e-01,-8.875987262803374661e-03,6.456856634020747762e-03,8.457328882024016392e-03,2.165960669517517090e-01
1.584602033491470108e-01,2.203035594087489335e-02,2.469393171514149277e-01,2.428147491596983464e-03,-2.311214089039125702e-03,1.704267742954158242e-03,1.963549703359603882e-01
1.828039298216642405e-01,2.191115125924970874e-02,1.905305521826471116e-01,8.388590280932296112e-03,5.493980853599898101e-02,3.218815457796125098e-03,1.910148710012435913e-01
1.800815199105385012e-01,-2.371221444543394896e-03,1.848380711168117752e-01,2.121978199946314772e-03,1.444350448032032802e-02,-1.348858470468297654e-03,1.866126656532287598e-01
1.795517915633944861e-01,8.339718257068917673e-03,2.247461372953881154e-01,2.722446868268295697e-03,-4.048575682089616129e-03,2.881176039341135000e-03,1.979652345180511475e-01
1.744697491959729396e-01,-2.566631329055740762e-03,1.774104846782538214e-01,-3.075156079429832399e-03,1.905613943034929064e-02,2.744407953918845747e-03,1.816907227039337158e-01
1.872101920308371081e-01,3.734154271698236771e-03,2.110415861945894034e-01,-1.802143946794827756e-02,2.656009140538072646e-02,1.397934655326577014e-02,2.056229114532470703e-01
2.214765981676621864e-01,2.908264731625782862e-02,1.813978994605639772e-01,-3.699788752879759265e-03,2.341769656641800451e-02,3.114363698721842738e-03,1.806271374225616455e-01
1.954415260771970586e-01,-1.304021579002223596e-03,2.244256449171208867e-01,1.895180969896939236e-03,-2.583483212514995101e-04,2.239291441575561893e-04,2.127498835325241089e-01
2.307103206846984611e-01,6.494822945778688794e-04,2.261652039926805857e-01,7.465776754758998279e-04,-1.047217217054388378e-03,-9.901266790932905255e-04,2.278396338224411011e-01
2.895236936742389688e-01,7.637363798751348187e-02,2.951614135073150624e-01,2.886404595694772382e-02,7.955519944788601305e-02,-3.063425901160306969e-02,2.663986980915069580e-01
2.244475440759359230e-01,-3.366473352542892483e-03,2.231732082836637709e-01,8.349776397596906567e-05,2.831752869045303374e-04,5.919356664874956490e-04,2.271824181079864502e-01
2.051074828950749107e-01,-8.220309461504010651e-03,1.985881385437101576e-01,1.023109978179544306e-02,1.162236262461775402e-02,-1.292294707418537546e-02,2.130276113748550415e-01
2.457874800904615298e-01,1.498245533091752124e-02,2.149903984883261565e-01,3.089499800429134756e-03,-4.111048274649546012e-04,-1.288439079969654110e-03,2.171299606561660767e-01
2.081551886208379276e-01,2.139952872764173952e-02,1.934283073288580734e-01,-9.516006458404243631e-04,3.524291086070457241e-02,3.588548028465679465e-03,1.900309622287750244e-01
2.312249715058543320e-01,3.571313362782102541e-04,2.254844456409445252e-01,1.030626754375287913e-03,1.316133469862463320e-03,6.880212375708860640e-04,2.280732691287994385e-01
2.277318049618905216e-01,-2.246888050279505222e-03,2.231242874917828689e-01,-2.790163379498231144e-04,-3.418853017933795634e-04,-1.819186256340580849e-04,2.277113944292068481e-01
2.275424960840589650e-01,2.856127910778077927e-03,2.207844662859956286e-01,4.566274339851313264e-03,-1.411358490738937911e-03,-2.970809322558212381e-03,2.215991914272308350e-01
2.238070895865161281e-01,-3.418518297766126590e-03,2.243442957611701538e-01,6.825595745507768639e-04,-6.004786834621114429e-04,-1.948065386072725565e-03,2.275251597166061401e-01
1.900059926243186370e-01,1.197209047193779907e-02,1.983849325623909254e-01,4.538845792077426770e-03,3.409948627623458212e-02,-7.054322412898526157e-03,1.922431588172912598e-01
2.125482500441840394e-01,1.021087384980562396e-02,1.999974325654417517e-01,5.060333956455918131e-03,2.829244903237977758e-03,-9.878686559101157536e-04,1.966270506381988525e-01
1.738947572822202581e-01,-1.372898618758511269e-02,2.161388356391935051e-01,-8.559501358735066567e-03,-2.973732190264828396e-03,-3.616477776985722609e-03,2.126000523567199707e-01
2.124109312109187520e-01,-1.542953962549145630e-02,1.885278989678225714e-01,4.856270376719141330e-03,7.143264975459997362e-03,-8.559746803041008711e-03,2.179077714681625366e-01
2.027642220787049254e-01,1.106212651096541433e-02,2.152073339126555351e-01,1.415665209270657032e-02,9.535030198521733669e-03,-1.223949299612757738e-02,2.015274018049240112e-01
2.168364082007522564e-01,-4.013121497354138478e-03,2.228380566205667157e-01,7.654718701655803146e-04,-1.294165970667492680e-04,2.179803640577198613e-03,2.239465564489364624e-01
1.958392381645169267e-01,7.878653681047759205e-03,2.251476209550700158e-01,1.084695996148729927e-02,-1.337971505584697150e-02,1.174504955474774300e-02,2.073664367198944092e-01
2.261628508300988494e-01,-1.404315653804610875e-04,2.220480694088806106e-01,3.441736555502255667e-03,-1.643325260879609749e-03,-3.154734228732088575e-03,2.244379967451095581e-01
2.541149085196259261e-01,2.031739669817453353e-02,2.417143187257038139e-01,3.050441266693730124e-03,5.899852552297154759e-03,-7.886768468101259741e-03,2.285492718219757080e-01
2.148056516899577439e-01,-2.885419488717455572e-03,2.146832602041676141e-01,2.310746333315794911e-03,3.575436726069060323e-04,1.146842585600328125e-03,2.176766395568847656e-01
2.252442335770079851e-01,2.744152925568862922e-02,2.571953471241165134e-01,1.869853675225225526e-02,8.260609956920414790e-03,-8.194088630220992125e-03,2.189105898141860962e-01
2.160923457443597040e-01,6.052716076299341497e-03,2.181913181380537581e-01,6.479927059210764673e-03,5.678877892425548968e-03,-8.009900371163863886e-03,2.120780795812606812e-01
2.308697660957472197e-01,1.783108920613424297e-03,2.280665828016339436e-01,-1.232257445201973109e-04,2.964788720273550324e-04,2.332902024108221095e-04,2.276990413665771484e-01
2.258966141483153556e-01,-1.635916147136234899e-03,2.227325177419755553e-01,5.208248820049228567e-03,-3.871956969376381431e-03,-8.721041505277679412e-04,2.262515574693679810e-01
2.258811969775681994e-01,7.237827020943221612e-03,2.361379476784802034e-01,1.156557338036093112e-02,7.821471539589638575e-03,-9.665120735766799184e-03,2.258711010217666626e-01
1.912499831017662744e-01,-1.122267068980722926e-02,2.014000213298993147e-01,8.844036838278394180e-03,1.108027289077434009e-02,-8.962937051889923595e-03,2.097552716732025146e-01
2.913561342173763835e-01,5.356174794757218027e-02,2.946407802712301960e-01,-3.186205676418509426e-03,-8.633404011093574748e-03,-1.623001577926275196e-02,2.416243553161621094e-01
2.697066575566798297e-01,2.805387736855108338e-02,2.322260925547172117e-01,-8.676312016220658757e-03,-3.097372058380039317e-02,-2.508503894845522109e-02,2.360832542181015015e-01
2.205066097335792730e-01,-1.360979120283858923e-02,1.870069303795234561e-01,-1.352621147398738212e-02,-1.493512214080927082e-02,-2.216800309615751807e-02,2.253490686416625977e-01
2.212142823446532069e-01,-6.020631853742436368e-03,2.072395067612139430e-01,-3.342872863662109482e-03,-4.214322424216191960e-04,-2.683079422515746021e-03,2.207059115171432495e-01
2.249486572810411311e-01,8.427268214547811720e-04,2.155111208716267157e-01,-6.033951231975347856e-03,-1.138211169441397412e-03,-5.935793104072153645e-03,2.200371325016021729e-01
1.970319183886165004e-01,-7.944187617946657509e-03,2.148021627771345976e-01,-1.012553303706345380e-02,-4.819280694571759054e-03,-8.087600806321367658e-03,2.157474160194396973e-01
2.296901396394181449e-01,4.634188633152291903e-03,1.882645947945812692e-01,-1.453453684770756281e-02,-1.190319285268839206e-02,-2.325618040570987324e-02,2.138330191373825073e-01
2.226493729734081439e-01,-2.170750933466136789e-03,1.586540653113309718e-01,-7.429852759798771236e-04,4.869767807148592427e-03,-8.071051416358208204e-04,2.008153647184371948e-01
2.065614473191428879e-01,1.887665530869969688e-03,2.200462062213048575e-01,-2.156512219568559700e-03,-1.685127238958258585e-03,-5.249697531702533781e-03,2.119866013526916504e-01
2.235839804554137777e-01,-6.989950215440243753e-04,2.235237278663264049e-01,-4.522339250677822687e-04,1.625184295770812956e-04,-4.119252569455823755e-04,2.242555320262908936e-01
2.284946539860935877e-01,3.147609128047845761e-03,2.332078298027037699e-01,-4.780304924836733106e-04,-9.617225569875115926e-04,7.399647137423176002e-04,2.277514189481735229e-01
2.115394662354806998e-01,9.116674118334611165e-04,2.083965395770113194e-01,-1.033997251435824893e-03,-1.171439793422292307e-03,-2.557229749147575410e-03,2.091384828090667725e-01
1.839311516529426038e-01,-6.881334488803569904e-05,2.381442283525557202e-01,-9.748310244168211305e-03,1.958264000462927961e-04,-4.240634352965478963e-03,2.170470058917999268e-01
2.607546999134072729e-01,3.820366444555195473e-02,2.747193523331863396e-01,-3.884225887206714176e-03,2.561200142864490659e-05,-1.584942392797479560e-02,2.315830290317535400e-01
2.399246879309879232e-01,1.856219092137884052e-02,2.352352523364716064e-01,-3.557202878610549960e-03,-2.213667152589728505e-03,-2.953393687229852356e-03,2.192352861166000366e-01
1.909836943130523712e-01,-1.756908857646338751e-02,2.047533116397714514e-01,-2.241386879535875801e-02,2.132556083059257424e-02,1.696882237697855747e-02,2.242562472820281982e-01
2.504766663395833204e-01,6.947938237618417334e-02,2.483874450085032659e-01,4.748021999073341257e-03,9.804838786153201313e-04,-2.025216057280331342e-03,1.801917254924774170e-01
2.066349107703977783e-01,1.898918893264836538e-03,1.554757496066297151e-01,-1.858904313843711548e-02,5.512815570654909514e-02,1.972543902472107674e-02,2.130287289619445801e-01
2.333411124535094694e-01,6.542861540039635049e-03,1.849154226810473811e-01,-7.348968086304015143e-03,2.254598815592727748e-02,2.380355521208242509e-02,2.149103283882141113e-01
2.377242841411352503e-01,1.248154514379024027e-02,1.967696958148422715e-01,-1.001039726785581986e-02,1.103153342825026473e-02,1.604138353807470219e-02,2.112451940774917603e-01
1.615539838974500986e-01,-3.289462882643678920e-02,1.904771745607609090e-01,-2.144432477964252487e-02,2.818332400813267774e-02,1.435391985549068321e-02,2.205707877874374390e-01
2.379845773726667058e-01,1.150281577285661161e-02,2.375138122417405073e-01,2.303588226095740731e-03,2.777514196723116988e-03,3.775944325221615092e-03,2.264275252819061279e-01
2.350044501435488709e-01,2.597719198951112252e-02,2.378663984242194163e-01,-1.554895722024458166e-03,3.741329700370277667e-03,-2.337500859886997386e-04,2.105901688337326050e-01
2.329560112105094338e-01,2.471281122685073384e-02,2.378876606614940270e-01,-2.414872295216317303e-03,3.403558489681640827e-03,-1.081907889725662727e-03,2.108845561742782593e-01
2.359051915630011598e-01,3.504129176818535085e-02,2.400471955770432930e-01,5.447821215551203015e-04,6.151807044076560566e-03,1.355687565552774919e-03,2.032618522644042969e-01
2.403554628442681751e-01,2.501198833832665724e-02,2.335745692833994802e-01,-2.362166630818971890e-03,3.549718004351539412e-03,-2.663259052841147109e-03,2.122130841016769409e-01
2.409452965494252030e-01,2.192744846135002978e-02,2.368308838434826924e-01,2.204391800529161179e-03,6.078325396181846751e-03,5.292102038851813177e-04,2.172806262969970703e-01
2.270121079893211435e-01,2.796027848036924945e-03,2.046543266917606463e-01,6.456636476243718696e-04,-1.770038162345102242e-04,2.446667504086139609e-03,2.139603942632675171e-01
2.348663690977924046e-01,2.915112197214539402e-02,2.283805031574388800e-01,-1.611078756569138664e-03,1.323968340751631792e-03,-2.366126927240865387e-05,2.025824189186096191e-01
1.364088987301254330e-01,-1.083625753139547121e-02,2.222295838230247400e-01,8.685712295759288534e-03,6.430260143942193160e-04,-2.829973254898399213e-03,2.047793865203857422e-01
1.851491527773979628e-01,1.051598886135288180e-02,2.274287666803953278e-01,-2.356646835386489586e-03,2.352820859396880307e-03,5.366515448499872311e-03,1.994677931070327759e-01
2.351071754638935363e-01,7.563568620611998972e-03,2.088268103581830404e-01,3.995712169081737548e-03,-4.122263114314409318e-04,1.965444458399585870e-03,2.157471179962158203e-01
1.592316897383761753e-01,1.291799779139009285e-02,2.260583571730660490e-01,1.299389415595749841e-03,-5.595416981358422234e-03,1.345047349216067127e-03,1.890914440155029297e-01
2.261984586743756298e-01,-6.087355793008480953e-03,2.059454214854750109e-01,-1.113650845549092215e-03,5.347660391611048884e-03,1.331545546535319383e-02,2.242405116558074951e-01
2.231922813521500792e-01,-1.457140591384686878e-03,2.227939329995454187e-01,-2.577661161760112871e-04,1.037277630580418607e-04,3.745139657693014393e-03,2.245447486639022827e-01
1.992989620667862116e-01,1.362165607331000672e-02,2.211899000062184928e-01,-1.728007130873160119e-03,2.706712571996156176e-03,5.279667243157598264e-03,1.978243887424468994e-01
2.552172693994797514e-01,2.076474890032706244e-02,2.055740213977874375e-01,1.039990228734364620e-02,1.053000244831298476e-01,-2.219833312116931828e-02,2.843598127365112305e-01
2.241169901169573209e-01,2.829496792354863066e-03,2.308393558579671101e-01,1.063125826192787195e-03,5.226942300216697685e-04,1.388597745562582253e-03,2.247463315725326538e-01
2.421877799932269371e-01,9.105426413680284270e-04,2.023632259359193775e-01,2.969023477498921801e-03,-6.591388630375050010e-03,9.145159488115841076e-03,2.249436080455780029e-01
1.610927795703426535e-01,4.426787489752170845e-03,2.264934598317547843e-01,-1.678044023513652894e-03,-4.769199309332551769e-03,-2.906719039122998994e-03,1.979130506515502930e-01
2.357889605523333099e-01,8.976364940287889782e-03,2.326284408736600251e-01,-1.379586514685986025e-03,-2.020175945357357422e-03,8.501156973278576820e-03,2.257694751024246216e-01
2.326321354863140622e-01,9.505685696773902293e-03,2.106771567258740041e-01,4.972715601877249376e-03,-7.920545144683377448e-03,1.154521324025688592e-02,2.145482748746871948e-01
2.378848852053939145e-01,4.353538032745027375e-02,2.413685980917108231e-01,6.820013787650050421e-04,3.197297086690938268e-03,1.034526127861536485e-03,1.962044835090637207e-01
2.387958110203465267e-01,1.222522374397896905e-02,2.200547370921784873e-01,3.842552571988186796e-03,-1.629844333917750089e-03,1.000132721116298549e-02,2.186129689216613770e-01
2.311792617027514929e-01,1.208871427580970881e-03,2.262838787701551002e-01,9.845298188555721541e-04,-1.606325254601572708e-03,-5.192521991951245825e-04,2.275873720645904541e-01
1.458235526871267118e-01,7.145790825694955939e-03,2.247470840539992631e-01,-7.121121947079852264e-03,-1.573268869086238975e-02,-3.485521075803844210e-03,1.932265907526016235e-01
2.345894149802840445e-01,2.156835033702533821e-02,2.446271637058636816e-01,1.367423842326985842e-02,7.109659066573393443e-03,5.995348408168389882e-03,2.200850099325180054e-01
2.285054600892506005e-01,6.158267628564029206e-04,2.249433159502217672e-01,1.111830718742781287e-03,2.556470298248914204e-03,1.323324471436911716e-03,2.261927574872970581e-01
2.204704518234207877e-01,-1.471034788373959401e-04,2.221661050786710168e-01,7.482094422725366761e-03,-3.612270213421219824e-03,1.097375453355701851e-02,2.227497100830078125e-01
2.059558292409392477e-01,-9.864214892625539077e-03,2.011298506131078412e-01,7.587507498388659614e-03,-6.217338170431067033e-03,8.006669975893498936e-03,2.145717442035675049e-01
2.254954739837465860e-01,-1.604118007273863666e-03,2.128832243293976578e-01,6.987280529845346644e-03,-6.356596167397789154e-03,1.243467796321382109e-02,2.227119356393814087e-01
9.980796979560561943e-02,-6.525574943649564696e-02,1.281539405758022609e-01,2.016513258203937037e-02,-8.641463439555331638e-02,7.916200870811320595e-03,2.377788424491882324e-01
2.610316755161029567e-01,3.995484550209593699e-02,2.661856665336023164e-01,1.112634326998968547e-02,-9.748647211447697067e-03,3.026370262269058482e-03,2.252219468355178833e-01
2.204882025828235337e-01,-2.097353146823160985e-03,2.224529945486741767e-01,5.139210606445137122e-03,-2.406844150090845403e-04,4.985345158740557558e-03,2.239184975624084473e-01
2.346840550929842339e-01,2.012311837236874235e-02,2.417033644573187146e-01,1.682109345002360005e-04,3.886104117149942125e-03,4.113223231530807600e-03,2.183755487203598022e-01
2.323982623472611586e-01,7.618045806741496895e-03,2.351927069886583233e-01,1.854282563824679068e-03,3.962864713114131084e-03,3.216368152650263788e-03,2.263858467340469360e-01
2.271710056071924722e-01,-3.713001608873778281e-04,2.206984330994993804e-01,4.554303837582928251e-04,1.240675896748363828e-03,2.347917454605746856e-03,2.244245707988739014e-01
2.108255704733811853e-01,2.569171857015746518e-02,2.112355597278637309e-01,7.430098204568828454e-03,-2.681133488053997690e-02,3.565079784373680668e-03,1.916009038686752319e-01
1.343350484920370902e-01,2.542501848114422924e-02,3.363210813419414968e-01,2.959241478217821200e-02,4.297793261660252245e-02,-5.414923058328172459e-03,2.879487276077270508e-01
2.295066073051236777e-01,1.876355153292874611e-03,2.268447347224653854e-01,1.085650264396127674e-03,3.265812311495777404e-03,1.306061525821341834e-03,2.264008522033691406e-01
2.146165575245915225e-01,2.352710010265110507e-02,2.118554128983445306e-01,4.117636658909929262e-03,-9.109280779924849511e-03,5.499730065494990057e-03,1.907504200935363770e-01
1.681386726873449478e-01,-7.707263972707045774e-03,1.897108934861325424e-01,7.962606228751665724e-03,-1.973916989382346401e-02,6.462314823801654749e-03,1.914809197187423706e-01
1.963376841124664929e-01,3.064034352594544042e-03,1.782687898242417412e-01,3.658181531746222508e-03,-1.584303993391700249e-02,8.939293500805941053e-03,1.876748055219650269e-01
2.315346749873474219e-01,5.241632433466147933e-04,2.262172011522589621e-01,-1.488541933719199958e-03,1.201465827741216929e-05,3.712709340814997444e-04,2.284136563539505005e-01
1.587732881222206072e-01,-9.953372182432890236e-03,2.130409933263787137e-01,1.843385059606709314e-02,-2.775948015524770315e-02,8.458064294913015396e-03,2.100378125905990601e-01
2.058658194954357534e-01,3.533190564080995744e-03,1.962474651664217751e-01,6.830592485762470960e-03,-1.327300776775643294e-02,9.983946860603599288e-03,2.001310139894485474e-01
2.101611603889604885e-01,1.884233246237848602e-03,2.024902587199594040e-01,7.372557129648928814e-03,-8.458118908965105154e-03,6.718546637646372922e-03,2.057997733354568481e-01
3.695276133868695134e-01,1.189045983667375572e-01,4.431499204750017351e-01,-5.411626000694014227e-02,2.379947581774896972e-02,1.296561444490660535e-03,3.117267787456512451e-01
2.102573540378240291e-01,8.789142156902129965e-03,2.195000715196182561e-01,5.988915935548241344e-03,-6.216479473323116393e-03,6.813817499941190667e-03,2.071226686239242554e-01
2.090793705720577766e-01,2.802378600300886591e-03,2.103753105512213284e-01,1.332945071443854398e-03,-2.568708437916737111e-04,3.521016094208457084e-03,2.070312052965164185e-01
2.133896659956850683e-01,2.219318706483064396e-03,2.235430502183978763e-01,7.866049472303656212e-03,-3.576778377204855534e-03,7.690521961244298210e-03,2.173511832952499390e-01
2.207648030119009619e-01,-1.768742381178550760e-03,2.241979874542206763e-01,7.342579837260168650e-04,2.262187289240857587e-04,1.444627701269432475e-03,2.242877483367919922e-01
2.148254818921854770e-01,-3.430647411674231373e-03,2.053315982398848938e-01,7.443502289313576846e-03,-4.133409630670686029e-03,8.806201787848603676e-03,2.147181779146194458e-01
2.297368760488826267e-01,-1.236747982371527721e-03,2.197076394937818311e-01,-3.110427092731558678e-04,2.024555254335078103e-03,5.290086438714066861e-04,2.261555641889572144e-01
2.249703758355505179e-01,-5.061771266746117881e-04,2.273233922325036405e-01,3.125522380653477424e-03,3.536460413619043480e-03,3.337589381663850011e-03,2.268832474946975708e-01
2.199436282724543945e-01,2.767976549770623240e-03,2.250843419687390545e-01,4.607635155897469095e-03,9.466554299121520159e-04,5.227840967610528251e-03,2.201283723115921021e-01
2.006696488526219513e-01,1.955384861039241584e-02,2.372353721039153762e-01,-9.058238802697380059e-04,-2.643420955251690307e-03,-3.721085228467041570e-03,2.020583599805831909e-01
2.336002241158277593e-01,3.344938772037231445e-03,2.263502379274010545e-01,-2.605506601881473318e-04,3.941341605670041688e-04,-7.764108140235315798e-05,2.267187684774398804e-01
2.209808774925728914e-01,3.090837188206019270e-03,2.238063591139101971e-01,5.123968090230776422e-03,1.876913620147612968e-04,5.021672149403648769e-03,2.196684330701828003e-01
2.211313941657777060e-01,7.702893267377025621e-03,2.305049675651220653e-01,1.107876398119674206e-03,-1.452972586402016429e-03,-6.371961017533588068e-04,2.182920277118682861e-01
2.229465931261719325e-01,-1.343107243210074631e-02,1.167930211951611896e-01,-2.114767645200720143e-03,-6.130217502442083036e-03,-9.463497359720915783e-03,2.060230076313018799e-01
2.139408915438907322e-01,-2.958884551885948566e-03,2.200300300618110994e-01,-4.029682725438864070e-03,-1.178811223301985938e-03,-5.148920756322197118e-03,2.203082889318466187e-01
1.971812629307502507e-01,1.586052232374798865e-02,2.300131405006116403e-01,-6.984995573475005033e-04,-3.956233361355207014e-03,-5.021587813987732352e-03,2.000807672739028931e-01
2.280064335808328346e-01,5.124249542476921881e-04,2.250742208416593448e-01,4.368290519325248970e-03,3.236783462261919302e-03,3.219083008768488727e-03,2.263069301843643188e-01
2.045199570122394062e-01,-9.186445275791182974e-03,2.166579985273905662e-01,-3.791406859144323162e-03,2.713100592258644228e-04,4.268171191833159892e-03,2.202492505311965942e-01
2.220945571238752136e-01,2.871051693682263872e-03,2.234768748484921574e-01,-5.268550479305503806e-04,1.754548130609183063e-04,-1.986608959819148590e-03,2.199469357728958130e-01
2.490359495357994946e-01,2.248050441715135350e-02,2.460545429913649218e-01,-8.704258947071713895e-03,1.244420968554602915e-02,1.025160706667072909e-02,2.273058742284774780e-01
2.202930331527836183e-01,-3.593385171486995766e-04,2.270774306427678080e-01,-3.503739166722292294e-03,7.136008198221499435e-04,5.329568270492752134e-03,2.243971079587936401e-01
2.366704890660082938e-01,1.209257136556518564e-02,2.350995989649120599e-01,-2.864087385443658297e-03,-1.230471598945718451e-03,3.955565149584272348e-03,2.239665389060974121e-01
2.247047910301753770e-01,-5.754062424923045427e-05,2.210740257999670166e-01,-4.867142972095788063e-03,1.410427059047623195e-04,2.759246959035809021e-03,2.231797426939010620e-01
2.382998634762956425e-01,1.498888677066573250e-03,2.122704854920301754e-01,-1.587003337240524376e-03,1.671408016167619422e-03,1.794919583739018956e-02,2.270922809839248657e-01
2.178512555616195501e-01,7.263579061537794868e-03,2.178279583961057198e-01,1.593373781627005882e-03,-5.887747713354794301e-06,-1.071642615636727181e-03,2.106022983789443970e-01
2.272595118048913454e-01,1.606049264351872008e-04,2.253947011803846823e-01,3.960545271520215377e-03,2.027272510466928378e-03,3.116945078857935678e-03,2.263679057359695435e-01
2.015483420111847113e-01,-1.143062740086220330e-02,2.091387220044349238e-01,5.821393503934653782e-03,-5.178014920651972074e-03,5.141997308404513446e-03,2.174756675958633423e-01
2.019004329343948023e-01,5.573595977192008499e-03,2.020720331925429658e-01,-5.075440636677045359e-04,-8.797211624588111359e-04,-2.491695335543919840e-03,1.964679807424545288e-01
2.234432366110550294e-01,-1.330853301960199797e-03,1.961930139650112648e-01,-7.660345276854320980e-04,3.965185272317033049e-03,-8.743814462792828725e-04,2.125842124223709106e-01
2.294285537291442245e-01,9.287061421069914280e-03,2.297735696137804262e-01,3.501780959955656976e-04,3.309789442520003760e-03,2.721266363018784050e-04,2.203901112079620361e-01
2.258764338164310770e-01,-1.286242913355079009e-03,2.302707968740844158e-01,8.915798556359834891e-04,-1.057731339720143632e-03,-8.795664866599154112e-04,2.294089943170547485e-01
2.262899724087512610e-01,2.283309022177409942e-03,2.279696699101595447e-01,-3.696317081960699691e-04,2.108182364011206705e-03,-3.104910206860963151e-04,2.248824238777160645e-01
2.021202530014853394e-01,6.146395702951140683e-03,2.128070821017692127e-01,1.037238956974726248e-02,-1.930179151879999472e-02,1.233910639159998407e-02,2.061831653118133545e-01
2.057236862378710451e-01,1.959350902073359046e-03,2.313622814370829839e-01,-1.246440958504286222e-04,6.389822124354579665e-04,-2.839227282265087762e-03,2.177772521972656250e-01
1.916404959124445306e-01,1.082089140334287214e-02,1.994517822778473226e-01,1.031490022426271051e-03,-5.019365022154685663e-03,1.248329263540485937e-03,1.850746572017669678e-01
2.191900889150094622e-01,-8.193576670705665643e-03,2.145786803355375916e-01,2.521386263478114353e-03,1.363260340952007765e-03,4.458980204176399287e-03,2.253005355596542358e-01
1.996694983621420394e-01,-9.531454508032749517e-03,2.116232066710992954e-01,9.398487113554038208e-03,-1.122805369918222600e-02,6.573838098889830603e-03,2.172130346298217773e-01
2.211644738634185314e-01,3.869096157776891198e-03,2.156077338237637753e-01,7.129692406782913751e-03,-7.844715573072792714e-03,1.048410532429353871e-02,2.161193490028381348e-01
2.211118317940887201e-01,-4.514875281662833473e-03,2.200744930148054723e-01,-3.936671777722064577e-04,2.270844965205915246e-04,-1.264047760860070391e-03,2.251218557357788086e-01
1.847956397077749058e-01,1.897285069114837408e-02,2.196408291855307393e-01,-1.419800427267053856e-04,-5.952516538582603572e-03,-2.886129888706207881e-03,1.860668063163757324e-01
2.218030109570855724e-01,-2.600174418441514312e-03,2.223067827849052325e-01,-2.491050568077038396e-03,-4.939421394927423133e-06,1.858813375859485204e-03,2.247199863195419312e-01
2.095593211216765506e-01,-4.283577822594808460e-03,2.330093288751856062e-01,-1.111549747067552309e-02,-1.544113296935755884e-03,6.095437253749386511e-03,2.275578677654266357e-01
2.166746111721652435e-01,-3.013428937831963417e-04,2.132024250171580815e-01,4.257455267226454773e-03,-7.035828152638563295e-04,8.062947470805315953e-04,2.153951078653335571e-01
2.206330041372362993e-01,-2.873808548352979608e-03,1.948141129544212480e-01,3.888912301059904448e-03,1.081173154663772834e-03,-1.035423269574008457e-03,2.119040042161941528e-01
2.317562270542837810e-01,2.841322828916387211e-03,2.274769591932989110e-01,-3.027329884314931656e-03,-9.504369417865235828e-04,-8.532920620210101420e-04,2.268769443035125732e-01
2.293837483090152007e-01,7.111312522878193709e-03,2.349213154539914750e-01,-1.527542216789439487e-03,-2.250708459241264510e-03,2.476106162309718237e-03,2.251824587583541870e-01
2.249114358319303508e-01,-4.261448402084477838e-04,2.281641102548552513e-01,-5.708058651896301926e-03,3.258896881609732433e-04,3.506237827802111302e-03,2.272784709930419922e-01
2.096507736071412942e-01,1.521613623952972061e-02,2.133255710244977288e-01,1.110768533132990487e-03,-4.458493474760929901e-04,2.665897017256205117e-03,1.963630765676498413e-01
1.948955868868070818e-01,5.757270349719623148e-03,2.050928437063841425e-01,2.101772714875142604e-03,2.493378825055007474e-03,-3.163583523841171589e-03,1.945967823266983032e-01
2.226411345934001806e-01,1.542238244768615041e-02,2.489043679629427130e-01,-2.044439536683179473e-02,1.323820604553154964e-02,2.696222620056751458e-03,2.255506217479705811e-01
2.280629177671695540e-01,7.591166981289559912e-03,2.283254008007293834e-01,-1.008930564373947862e-03,-1.694191583882343572e-03,2.639923703668936670e-03,2.206769287586212158e-01
2.302819308943400145e-01,2.976415196697762555e-02,2.343196967592887647e-01,6.744953618397982490e-04,-1.908711370683939708e-03,5.668411509705935380e-03,2.028349488973617554e-01
2.034344404611826140e-01,2.169214031790128727e-03,2.210343616008983436e-01,1.691720288618694338e-03,-2.433596047858918761e-03,5.103871630716673609e-03,2.108653634786605835e-01
2.542603138077018099e-01,8.021927595054728632e-02,2.597596712928087470e-01,-2.023238377883732238e-03,1.489425563611723215e-03,3.726028502026252319e-03,1.770260632038116455e-01
2.214396965794737104e-01,-5.138757923699027730e-03,2.210822418460371419e-01,1.254039148261589182e-03,2.119542137665743310e-04,-1.719981525588840012e-03,2.264302521944046021e-01
2.526910791412326218e-01,7.892347934033856760e-02,2.595756225367567560e-01,-8.770253316042546073e-04,-4.523845241043448410e-04,3.876297916742993052e-03,1.774454414844512939e-01
2.455682315692473416e-01,6.032894507706533516e-02,2.483354341472512605e-01,-3.430790654720241532e-03,-5.333507297290076155e-04,1.505490648139085541e-03,1.867533326148986816e-01
2.534977783924922679e-01,6.481696726436977918e-02,2.518989643677717605e-01,-2.212160401892485345e-03,-2.103794782877037046e-03,4.345878127870813831e-03,1.881115585565567017e-01
2.226974186528034583e-01,9.780553637236955034e-05,2.236015339572087479e-01,1.507530448172140873e-03,-2.821266506549189429e-04,-2.974031842172751051e-03,2.231283336877822876e-01
2.367546615037517399e-01,5.356330035311965276e-02,2.376565944510994899e-01,-2.111207954285402254e-04,2.761168298842178043e-03,-2.203511328916715056e-03,1.837462633848190308e-01
2.423115995256541755e-01,2.588529207076754879e-02,1.671739333411325079e-01,-1.116633454817962060e-03,-7.784458675510775964e-03,2.165334850680728646e-03,1.908503323793411255e-01
2.323561782320590630e-01,2.421152729969808237e-02,1.773065840811401950e-01,2.259966643126056721e-03,-4.118490761017305421e-03,5.815244006916354437e-03,1.872539371252059937e-01
2.283620063117514365e-01,2.931438000439107183e-02,2.320563962869405250e-01,1.281462542558640602e-02,1.485637655052380116e-02,-1.270897827365923861e-02,2.049592584371566772e-01
1.910274099815908455e-01,4.262613197993952996e-03,1.725250866100777047e-01,-1.530147054224518903e-03,2.307802749557352415e-02,2.670809817021540383e-03,1.827403903007507324e-01
2.103318009909555253e-01,3.581976159195637832e-02,2.023905381709319440e-01,2.991646263461632325e-04,6.700540048681642713e-02,-3.022230245490682785e-03,2.064667344093322754e-01
2.090173063809387388e-01,5.829354469470388045e-03,2.230511550939803245e-01,-1.981584709777597150e-03,-1.595601968050275885e-03,-4.415542378497511709e-03,2.107408642768859863e-01
1.997468238190361345e-01,1.151789654441280619e-02,1.754313287248308317e-01,1.403300956240235552e-03,2.198477034993373200e-02,3.166113835083101541e-03,1.814675331115722656e-01
2.252703742813175758e-01,-8.168756743411054178e-04,2.244272434009277339e-01,-4.709687015188163931e-04,5.397278894938097081e-04,-8.057813362235010692e-04,2.256745994091033936e-01
1.956526292228848996e-01,-1.527780065025897971e-02,1.251015758897572328e-01,1.481976720381810581e-02,3.279808131843995472e-02,-1.272987141896640521e-02,1.973826289176940918e-01
2.204812885701011582e-01,-3.824520072705811513e-03,2.213724429636999835e-01,1.390728333595871342e-03,1.107989278875228174e-04,-1.033808755359734172e-03,2.247728258371353149e-01
1.736781677761425891e-01,2.808352362736132868e-03,1.904439574374438005e-01,4.789606537905295031e-03,2.184400915900056375e-02,-4.312526993127596339e-03,1.841153204441070557e-01
2.080351678777623836e-01,2.387035861495365174e-02,2.402247608145027247e-01,1.341769018775524833e-02,8.363728841537732689e-03,-1.134005277688156232e-02,2.049799710512161255e-01
2.269029790279659398e-01,2.350142122742260309e-03,2.211002956899026650e-01,-4.860404729657394861e-03,1.843094647008770490e-04,-3.872720565869242591e-03,2.219698280096054077e-01
2.133704526521223721e-01,2.679388167932589271e-03,2.223959146468014181e-01,-4.511185759295196183e-03,-1.484699526142855544e-03,-6.185313919854184585e-03,2.157688736915588379e-01
2.375716750022752177e-01,1.029984888689554345e-02,1.351670043963798806e-01,-1.514315549685789526e-04,7.741924347468256062e-04,3.466395261702856587e-03,1.972394883632659912e-01
2.076170532866778440e-01,-7.825678029967975124e-03,2.168663338873024760e-01,-6.374528050526609771e-03,-2.178260767588358765e-03,-6.370470664824705309e-03,2.207978665828704834e-01
1.797002874792014704e-01,3.282500475305372145e-04,2.384611362447773830e-01,-2.126164744351203770e-02,1.465682283121223133e-03,3.182325996580964624e-03,2.180830538272857666e-01
2.141243528164271381e-01,-1.543245950201727057e-02,1.618599506144738909e-01,-6.773978085367067525e-03,-5.954106257984461727e-03,-7.272775959925430363e-03,2.093631774187088013e-01
2.258368347841507862e-01,-1.023380337612983526e-03,2.244135845002802609e-01,-1.328495891243218615e-03,2.013601003547984235e-03,-2.082999886933027765e-03,2.262193113565444946e-01
2.247702511631050060e-01,1.122808337525182942e-02,2.108970430672071350e-01,-7.109220921512583551e-03,-9.959641901695435312e-03,-5.885069407999884462e-03,2.082866281270980835e-01
2.204314681014170607e-01,1.499644448701820121e-02,1.992491521192261139e-01,5.541186305130244884e-03,3.054251585621865685e-03,-1.513978670958254042e-03,1.960296481847763062e-01
2.214072012388906552e-01,-5.101667525545222626e-03,2.214228849028673229e-01,-2.855713035759713074e-03,1.776947162462548752e-04,-2.771379200724159979e-03,2.266217619180679321e-01
2.091378771564957051e-01,5.055186359247787475e-03,1.939388107946585227e-01,-9.504018114999049707e-03,-8.832132385318569937e-03,-1.144212021652198791e-02,1.991899907588958740e-01
2.127321936497993393e-01,1.220039906883307879e-02,2.218470992468059566e-01,-4.791507421124526281e-03,-6.214904580162813018e-03,-5.530897428263611970e-03,2.059136629104614258e-01
2.194766908525339622e-01,-4.209426969215807057e-03,2.193013551946194906e-01,-1.907621777948671164e-03,4.647822844209951579e-06,-1.146926221066340732e-03,2.236317396163940430e-01
2.422927102429116020e-01,3.483099675696149644e-02,2.618291262533528618e-01,-3.455276043286911129e-03,-1.127489466205962689e-03,-1.264528257143807989e-03,2.179897278547286987e-01
1.956923430259037977e-01,1.063324820962693873e-02,2.202805963521680399e-01,1.554348550687801450e-03,-2.849530366370236958e-03,4.903325915232342215e-03,1.987598240375518799e-01
2.211062410203710471e-01,-8.723812240085115910e-04,2.264388555007957327e-01,-3.504400155973783765e-03,-4.561693593205314208e-04,2.355971574287162365e-04,2.247761189937591553e-01
2.701619114742240257e-01,4.083075088735163560e-02,2.720864743253129658e-01,-1.384368142259780401e-02,9.485185004579116744e-03,1.488981148128132054e-03,2.321407943964004517e-01
2.257899790497752135e-01,5.201708418327233296e-03,2.221660548051256068e-01,-1.291665963955524778e-03,-5.263617688881844963e-04,6.869220034836528944e-04,2.188153862953186035e-01
2.041843074916455392e-01,7.750954592319114766e-03,2.322789530279934511e-01,-1.200001632921036260e-02,-5.696721112640255706e-03,-3.076514830680126492e-03,2.131944000720977783e-01
2.320736082765340047e-01,8.223946653117431005e-03,2.309981492974402806e-01,-3.381695117066894473e-03,-4.034547395313352672e-03,2.384958278531904962e-03,2.235381156206130981e-01
1.953132524386430036e-01,-1.886062052437137426e-02,2.120761237229327745e-01,-1.559639607139779068e-02,5.036430964177010527e-03,8.328132817252678968e-03,2.252898663282394409e-01
2.378664784805900045e-01,1.874107694750631881e-02,2.401401484270524467e-01,-1.835765233042112657e-02,1.780534453467848277e-02,1.958599933071884097e-02,2.272273451089859009e-01
2.181157842702309280e-01,-2.427778350071796432e-03,2.217880726894042864e-01,2.227070929465355641e-03,8.866648908784004624e-04,-4.128698126958819416e-03,2.225561141967773438e-01
1.651334963210607798e-01,2.182560481798008489e-02,2.311422189770536706e-01,-1.615912858481533530e-04,-6.343609312243281631e-03,-1.821694583705634396e-03,1.857003867626190186e-01
2.271702734491085895e-01,-3.525368511543003347e-04,2.233213698893543875e-01,3.225255375852802663e-03,8.939913869314596506e-04,3.818798212092640743e-03,2.257943451404571533e-01
2.056890349233726767e-01,-4.785569032443148796e-03,2.088117099589064107e-01,4.283375547510592275e-03,2.757193164297783508e-03,-4.335325504497792616e-03,2.123694568872451782e-01
2.230953706245684676e-01,9.594858072548562156e-04,2.251910578583620759e-01,1.505905009167848429e-03,-3.238560048824502629e-04,-2.972634426955458441e-03,2.232664227485656738e-01
1.963944329085704765e-01,1.650374750325478423e-05,2.226147374734947504e-01,8.301516232022231392e-03,1.061044486982482861e-02,-5.664633131645416438e-03,2.122301608324050903e-01
2.057332283359618041e-01,-7.583153132043829459e-03,2.188090821705033218e-01,4.710186785367167887e-03,8.536286873622780371e-04,-3.615163217531134829e-03,2.203907966613769531e-01
1.477470479694812933e-01,-1.686139997008731517e-02,1.692616919585438473e-01,1.336116771728522619e-02,5.956514847894792825e-02,-1.149449240940821591e-02,2.065823525190353394e-01
2.376774903025558605e-01,1.213632089634253397e-02,1.524326298447823691e-01,-2.275928049052357641e-03,-3.929513678767022553e-03,-5.443956655365067565e-03,1.976361572742462158e-01
2.248868321586459385e-01,3.533309865938916161e-03,2.265534646238597793e-01,1.236450060924276090e-03,-5.185423009802874020e-05,-3.720386960910934595e-03,2.222952842712402344e-01
2.124370086654064349e-01,-1.868772556258474493e-03,2.058726735309462930e-01,-2.476269299437747554e-02,1.123358044114088905e-01,1.432832055967003804e-02,2.913361489772796631e-01
1.498481156933064995e-01,1.520841091918338772e-02,2.484024127941603655e-01,-1.765430195293207771e-02,1.307573252401781358e-03,-2.708626427720422451e-03,2.051152884960174561e-01
2.423713591779925736e-01,1.552258992943643390e-02,1.634277492595796466e-01,-6.624401939385106842e-04,4.355474579722229660e-04,-7.790441756617472180e-03,1.999203711748123169e-01
2.411735469714572921e-01,2.169147551177247335e-02,1.643647956377188579e-01,-1.251401002297000123e-03,-6.856893803805871011e-03,-1.281872071787216018e-03,1.932989805936813354e-01
2.322350260051155857e-01,1.602734190905992506e-02,1.469277807419313020e-01,8.920451635883852983e-04,-1.474081186936876051e-03,-1.282384384976404399e-03,1.886606663465499878e-01
2.440160026313405450e-01,1.818848870147396490e-02,1.468744998537404589e-01,1.472307840892488626e-03,-2.051994257484580659e-03,-6.695527859607120456e-03,1.965984255075454712e-01
2.387964533966108194e-01,1.357876035425362171e-02,1.362016323931109218e-01,1.051367983617029940e-03,-2.460574393621283232e-03,-8.302386267837434664e-04,1.953614205121994019e-01
2.203607628287268527e-01,-2.974550763956168575e-03,2.203234392418250420e-01,2.855326271984030828e-03,6.055997269784298880e-04,2.757601030031556384e-03,2.234249264001846313e-01
2.215366545626962225e-01,1.309064302497203736e-02,1.983941043180664499e-01,4.927702022701891532e-03,-2.746015742203974149e-03,9.548504642977166277e-04,1.981402188539505005e-01
2.286958290365757041e-01,-1.536413844238637694e-05,2.250130209677072002e-01,-9.055850541732005229e-04,2.703258065344740953e-03,-6.373153209560092260e-04,2.269486188888549805e-01
1.713625511714306215e-02,-5.869161722344104493e-02,2.468169620056426816e-01,-1.454473696100519985e-02,9.953977315618732242e-04,1.414713920915573568e-02,2.777720987796783447e-01
2.425656625245724007e-01,1.976157712551354639e-02,1.742374194543122867e-01,-1.303223872051151614e-03,4.704936514605038110e-03,1.160189526964161902e-02,1.989017724990844727e-01
2.993929236914965042e-01,1.025279550914652005e-01,3.082929137381522633e-01,2.601600398586699590e-03,-6.493799148907707097e-03,-2.089415749799128884e-03,2.018589377403259277e-01
2.284666875303832667e-01,1.320103901307903560e-02,2.274396252335431634e-01,1.078054313108317433e-03,-4.326108078375399436e-03,8.859797992645857315e-05,2.148928046226501465e-01
2.226928966056294645e-01,6.036815866937939035e-03,2.053257974052325741e-01,-5.640060067319537657e-03,6.982776855890402389e-03,8.123724304203935181e-03,2.095673680305480957e-01
2.365288564668031057e-01,1.464151193885260271e-02,2.086653122994220344e-01,-3.854174566464634456e-03,5.429207050931268014e-03,8.358715828556030278e-03,2.101675570011138916e-01
2.228108340926472919e-01,-1.553580178900909603e-02,1.706748867056597785e-01,2.555374330038647467e-03,-1.767646068269175790e-03,1.802230786425634834e-02,2.193267494440078735e-01
2.463993810002056972e-01,3.256235605831644953e-02,2.425592895456366582e-01,2.892192316954982686e-03,-6.050591342584483480e-04,3.532424588682480954e-03,2.120931148529052734e-01
2.261519498729898658e-01,-2.923319052503009496e-03,2.004473795470940733e-01,2.917145896640905081e-03,3.427639235375797830e-05,9.034395621601543427e-03,2.179869562387466431e-01
2.140736565606670139e-01,-3.951799670184302782e-03,2.162995084220076802e-01,-1.931096928248018799e-03,-7.418604967434929125e-04,-1.119914219948982487e-03,2.191847264766693115e-01
2.349598837943226437e-01,4.576600534852509616e-03,2.269996042388016111e-01,-7.541400266982445670e-04,1.274269982322803578e-03,-1.740058957012577531e-03,2.265426367521286011e-01
2.255428114865582201e-01,-5.098843388656737474e-04,2.263737749413944067e-01,-1.689877986182109285e-03,2.416020173266540064e-03,-2.053894118047369741e-03,2.265548259019851685e-01
2.079287253936075164e-01,-1.776187872758647202e-02,1.906001765575706108e-01,-8.176408401838912432e-03,1.825829539007112201e-02,1.362070496649141725e-02,2.215465307235717773e-01
2.069367727922704070e-01,-7.726390292097928825e-04,1.545203466465935871e-01,5.863836850445718930e-03,2.231599545363527684e-02,-6.994341509422390829e-03,1.916956603527069092e-01
2.529081782638784581e-01,3.008889450642729391e-02,1.863205020760400343e-01,-5.070579869436628133e-03,1.238852285293182663e-02,1.284349667215089162e-02,2.006931900978088379e-01
2.254118770723563814e-01,-2.298032507773439814e-04,2.307419525365849988e-01,-5.248126928477823364e-04,3.301830422190631044e-04,-4.099223686941822907e-04,2.283570021390914917e-01
1.693101940572542263e-01,-1.612144952660067576e-02,1.342522453859870124e-01,-8.387749703624243838e-03,-4.978979377903065134e-02,-8.417581852903845141e-03,1.922857314348220825e-01
2.176056724979910095e-01,6.150613617785072318e-03,2.036370891654313842e-01,-5.921791145807586525e-03,-1.454333548038898262e-03,-2.584383820978293587e-03,2.051492631435394287e-01
2.095312334577188462e-01,8.805127838134280127e-03,2.025146787595049902e-01,-1.246495308085773628e-02,-2.897103796509618162e-02,-1.413942364755175519e-02,2.061932384967803955e-01
1.733885997175558247e-01,7.333579925148991929e-03,2.454393283757323740e-01,-1.864776967966490923e-02,-3.746288249302569262e-02,-1.801314675538262175e-02,2.257365733385086060e-01
2.203555232800926689e-01,1.384711829003959505e-03,1.735948069156107720e-01,-9.616872111884663260e-03,-3.511693039854508341e-02,-1.571470533137269907e-02,2.112189680337905884e-01
2.252278084050013951e-01,-1.774177686632988360e-03,2.224078216360376170e-01,2.199613497588705485e-03,-1.298516297252441404e-03,-8.356544382118137517e-04,2.256532311439514160e-01
2.065763431734799760e-01,4.882694596794939779e-03,2.106223004781859198e-01,-4.049112107588473397e-03,-5.598463579820020693e-03,-4.015479705005355927e-03,2.042163759469985962e-01
2.211413205126840642e-01,2.333636332322974738e-03,2.221138461076692661e-01,-1.038394102726365384e-03,-6.510441762577938787e-04,-4.234515900933480273e-04,2.193070650100708008e-01
2.148432288933851964e-01,1.191731904571613487e-02,2.166150820824555567e-01,-5.329228950587505502e-03,-4.009005675625262714e-03,-4.690590656737959711e-03,2.043062448501586914e-01
2.174023753931304814e-01,-5.351181923867770474e-03,2.191991902954882054e-01,-3.660029508997296541e-03,6.070967177108167788e-04,-9.253574267021989893e-05,2.237497270107269287e-01
1.955188512497977316e-01,1.534085417149459729e-02,2.087428445672551980e-01,-1.348752565715147787e-04,-4.136504474366808903e-03,-1.106083798056027188e-03,1.872877776622772217e-01
2.097772911513926253e-01,7.777886744939038755e-03,2.577377084124296003e-01,-2.637686360082634740e-02,-9.585368607590937992e-03,-9.361017873745736909e-04,2.348561733961105347e-01
2.011965803457931024e-01,1.214882944792436414e-02,2.131241684604638920e-01,1.067449053776188842e-03,-2.231685197329605960e-03,4.378425449267055874e-03,1.954790949821472168e-01
2.252716198280320381e-01,3.407989870556710210e-03,2.318170348315230778e-01,-5.578159542596416651e-03,3.236491859771025510e-04,-4.998415218271296846e-03,2.255817353725433350e-01
2.250692031585654063e-01,1.557051114545909831e-02,2.491157312536779744e-01,-8.274487037044505125e-03,4.336464117949485192e-03,-4.153871908716496100e-03,2.232022285461425781e-01
2.027233003721288784e-01,1.885318547520496713e-02,2.073203688531023992e-01,1.093702856924149694e-03,-2.158465700997785463e-03,1.304516874256965572e-03,1.862720698118209839e-01
2.276073693718740909e-01,-1.891038160919233935e-03,2.244078208531911089e-01,-6.694719006854222285e-04,1.989717634558769467e-03,-6.694156875946450942e-04,2.279474288225173950e-01
2.407933200305418242e-01,2.186212951734739507e-02,2.473950934263757506e-01,-6.401649100229818076e-03,2.940755461855110772e-03,-3.884345837715178461e-03,2.227418571710586548e-01
2.355715815008490310e-01,3.049529951063564837e-02,2.651286979218000495e-01,-8.101137584009576384e-03,4.556739674428306359e-03,3.090319001505251878e-03,2.219891846179962158e-01
2.261247073744298564e-01,-1.515423356187844961e-03,2.283545635747347702e-01,4.793542670128855755e-04,3.276470022806931334e-03,-1.135924954193214177e-04,2.288351804018020630e-01
2.429648572216540070e-01,4.037359171813809100e-02,2.398002978743234981e-01,2.001787906921455133e-03,1.311797513494308669e-03,-2.808150255756235777e-03,2.011292278766632080e-01
2.500590731049493476e-01,2.994460236906720807e-02,2.634319123187764400e-01,-5.549425005236374026e-03,-1.135268902355009331e-02,-1.743495170754673362e-02,2.301385253667831421e-01
2.509450297428668097e-01,2.234342373563169559e-02,2.403636959512791549e-01,-4.177808282341534570e-03,4.589931627181752932e-03,-1.018456555508744435e-02,2.244515269994735718e-01
2.486395592160774437e-01,3.391713115116296029e-02,2.326029647352674257e-01,3.713371975228316538e-03,-2.235989450803088294e-03,-2.545854212395403087e-03,2.073530554771423340e-01
2.131895559026109610e-01,-7.891226074024093595e-04,2.155514519119761663e-01,-8.714064873619737847e-03,-7.366834898908034869e-03,-8.183435680501751491e-03,2.165395319461822510e-01
2.442159918483514658e-01,2.072717726727005272e-02,2.368184443556762830e-01,-3.271902988891754651e-03,8.076241119979263999e-04,-5.601262310666353834e-03,2.201747000217437744e-01
2.315950895637327034e-01,5.025384001874882989e-03,2.090995313851676807e-01,-7.662855284329043483e-03,-8.516475446282796222e-03,-1.288745677907200161e-02,2.182546108961105347e-01
2.546619270113196776e-01,1.458156759128467761e-02,2.272924257129722569e-01,-1.538405379111355657e-02,-1.969096343085605452e-02,-1.142676265063348115e-02,2.325547486543655396e-01
2.224071673468728805e-01,-3.672456376043270465e-03,2.217257300219180882e-01,2.849289766261802294e-05,6.483234666136907399e-04,1.019350391856681465e-03,2.257493734359741211e-01
1.921453031096193864e-01,3.254637670089488566e-03,2.191648066181902388e-01,-6.950183416556429510e-03,-5.680725985952394565e-03,-5.781448356322754084e-03,2.045861035585403442e-01
2.285211803404208486e-01,1.514438711129911797e-03,2.223189573292602417e-01,-3.952803500708968604e-03,1.664969160922413500e-03,-3.861683109108482101e-03,2.241930216550827026e-01
2.169696615526330863e-01,-5.485676587658472325e-04,2.206000661476136548e-01,-1.335781517379629538e-02,-1.299108668024363464e-02,-2.375646404832824216e-02,2.255033254623413086e-01
2.036695968153017233e-01,8.539686364730042500e-03,2.034671951329936057e-01,1.246083928528394840e-03,2.514570886784806437e-04,6.673185098362383006e-04,1.950446367263793945e-01
2.073991205728400455e-01,1.789311304812329917e-03,2.169325906014222261e-01,-2.399252227561477629e-02,-4.496155343621432987e-02,-1.298461764326760796e-02,2.293987870216369629e-01
2.152943710923380105e-01,-2.689194799575717054e-03,2.152203828895635773e-01,1.462906770840406408e-03,-1.212609819203548412e-04,2.317837354399615232e-03,2.179983854293823242e-01
2.391160670466361549e-01,1.816661074459852143e-02,1.886041883003620745e-01,-9.435419770770319542e-03,-9.795253650798512596e-03,-1.955051435954723374e-02,2.047220766544342041e-01
1.152065036840035361e-01,-6.730620521206653883e-03,2.394120841450197434e-01,-2.337619111412612277e-02,-1.672888475707405564e-02,-1.585679497039325274e-03,2.189233005046844482e-01
2.926665505706483872e-01,5.507453366650510995e-02,2.862355073079673184e-01,1.302759833466644000e-02,-4.735295781647034380e-02,6.586266809992481763e-02,2.742500603199005127e-01
2.493917687752741918e-01,1.367177982282902216e-02,2.020649536877015540e-01,-5.747189513124829723e-03,-6.035471548584693232e-04,-1.100152552380681895e-02,2.170510292053222656e-01
1.868012482773918626e-01,-7.619957644210806347e-03,1.794460211708168718e-01,-1.397043636056492441e-02,-3.888535900603568712e-02,-1.989626652440711074e-02,2.067196369171142578e-01
2.263302057814398083e-01,2.053756269636275444e-03,2.324347541729187561e-01,3.820252957123746471e-04,2.230842452231629556e-03,1.133148854152297991e-03,2.274324446916580200e-01
2.409361958963461836e-01,6.097853744006728749e-02,2.398703237933766941e-01,-4.005754730283334064e-03,3.421990136896870330e-03,-3.340356199786339870e-03,1.797521263360977173e-01
2.198950488060181230e-01,2.278075438691315457e-02,2.268945431191189410e-01,-9.548673457735063971e-03,-2.504330478868231277e-02,-1.234487259071351088e-02,2.071109861135482788e-01
1.375824265115098421e-01,3.185122186447524040e-02,2.758080424648163831e-01,5.995338137240486566e-03,-8.059925535349267423e-03,3.564701590885347576e-03,2.126993387937545776e-01
2.359512737714640762e-01,2.878702054696519186e-02,2.407992029208460560e-01,1.966883944777226504e-03,6.481986075589698040e-03,-1.055455649139543832e-03,2.099662870168685913e-01
1.472476498307329906e-01,-7.865511808327979582e-03,2.400080192481895969e-01,1.582086347586311378e-02,1.274127553975546757e-02,-2.718907542610652598e-03,2.198022454977035522e-01
1.492486220685816656e-01,1.491621781095051058e-02,2.512716654746957046e-01,2.273459554344621839e-02,1.503549998979708188e-02,1.871404419223949081e-03,2.107087671756744385e-01
1.899689270634885019e-01,-2.069684842091218391e-03,2.147584366649840093e-01,-7.459973552873360760e-03,-7.247258317548120957e-03,-6.215546721679483279e-03,2.066260129213333130e-01
1.028972826143447761e-01,-1.158152524646074988e-02,2.244949756829208165e-01,1.861649757268418748e-02,5.053971934805904544e-03,-3.624501470539993712e-03,2.072860747575759888e-01
1.470611040129762015e-01,1.202385349024504002e-03,2.283550549412758091e-01,1.112742926270407669e-02,1.468551313356094776e-03,-4.705761467429971610e-03,2.004626244306564331e-01
2.895257082419738781e-01,6.844542564576253096e-02,2.664240376850203207e-01,-4.357374807816821044e-03,-1.543564615411874546e-03,2.040454469197716409e-03,2.106643170118331909e-01
2.084573123366137704e-01,1.320831141405467979e-02,2.269877468830656109e-01,-7.330372097987538152e-03,-8.040304493776979228e-03,-6.135989699314716925e-03,2.062806189060211182e-01
2.332425644027800171e-01,6.398980163168255242e-03,2.312980187603300430e-01,1.144875219644823396e-02,5.329057330818783716e-04,1.134547729470224663e-02,2.275981456041336060e-01
2.327459673048681843e-01,1.916495179093752332e-02,2.386682218870368188e-01,1.283441131912362206e-02,-2.188276785096449507e-04,4.556208378715431370e-03,2.178838998079299927e-01
2.318992997525982092e-01,2.136412671411352937e-02,2.370860202797444860e-01,9.194797407674594816e-03,-1.773288825178671521e-03,3.680857824052493395e-03,2.138870358467102051e-01
2.135627364685695473e-01,3.989590471420861872e-03,2.292040762794347319e-01,8.954687580810796396e-03,-2.852940242442759868e-03,4.074962683687451820e-03,2.185368388891220093e-01
2.038549800547234114e-01,-1.297541433103205355e-03,2.179605536152197931e-01,1.334454617877957848e-02,-1.109929125443176456e-02,1.296004471614442023e-02,2.158425748348236084e-01
2.239773056203382962e-01,-1.628746054844920632e-03,2.277889759041291651e-01,6.602968086637966191e-04,2.491588030641109751e-03,8.378796658044314772e-04,2.275842577219009399e-01
2.210313671482865838e-01,-9.130191710407797867e-04,2.237483086115430453e-01,4.753781070558319604e-04,-5.699952719736579030e-04,-3.484044051321757551e-03,2.234004735946655273e-01
2.343465264296827333e-01,1.036560977070041800e-02,1.921143379022515196e-01,-2.892268033678283175e-03,2.747538058421801575e-03,5.289432957231199849e-03,2.064545452594757080e-01
2.111788512318947264e-01,-1.312189964221782690e-02,1.879840752089478317e-01,8.429103210796269618e-03,-8.453799005136571412e-03,8.652220878729058665e-03,2.151705175638198853e-01
1.935257447581587020e-01,2.319276113092583191e-02,2.435280935073859121e-01,1.169982381729083032e-02,-1.168370712906444120e-02,5.902384021572175572e-03,2.023741751909255981e-01
2.146830795333350417e-01,1.467964840291113848e-02,2.158109623080446404e-01,4.107236325400068222e-03,-4.965197303950268570e-04,4.528351130347393373e-03,2.008509188890457153e-01
2.326883525274822395e-01,3.241114353182195096e-03,2.281839275213469187e-01,2.588818084539912939e-03,2.820478211961686445e-03,1.510968473311146256e-03,2.273403108119964600e-01
2.271437453360378167e-01,8.709795724044233634e-04,2.252411604794517519e-01,2.390952297413323577e-03,1.450239598827217933e-03,1.048883339497571785e-03,2.253868728876113892e-01
2.235427445684466663e-01,6.958225329143002957e-03,2.112810873452431182e-01,-3.895756003657450429e-03,-9.322890080253502321e-04,-1.623590330460495616e-03,2.108543664216995239e-01
1.972339205869361178e-01,3.838254856784517610e-03,2.311485686823089303e-01,2.362185500527304305e-02,-2.871590001838516745e-02,1.416914883662762602e-02,2.232960164546966553e-01
1.807479512375261277e-01,-2.039984705944991594e-03,2.204100105171187818e-01,2.499623433813328785e-02,-2.318419293566941972e-02,1.261528131400869654e-02,2.149387001991271973e-01
2.058845575358501101e-01,2.014131659677148578e-03,2.294434528853123156e-01,1.070422955524629599e-02,-2.552448532550827352e-03,7.756611436494855946e-03,2.178644388914108276e-01
2.026509766590225692e-01,1.474728860849819356e-02,2.061107949370167836e-01,6.610726849728735220e-04,-1.401560430658244354e-03,-5.595657146120054616e-04,1.896787285804748535e-01
2.422020268568248202e-01,5.201880043860629410e-03,2.530226155554483047e-01,2.572526683119312485e-02,-2.133271408882575840e-02,1.548808198307498850e-02,2.508403956890106201e-01
2.219104807420395065e-01,2.304884302440607380e-02,2.137617571890522428e-01,6.863552362855559162e-03,-8.107428981441662172e-03,5.906787929945040393e-03,1.960486471652984619e-01
2.253548876878889162e-01,8.084880140821287808e-03,2.294776208106903970e-01,-3.107752254816105366e-03,1.827820081628623965e-03,5.339687310733505846e-03,2.196440994739532471e-01
1.912508230415687072e-01,4.441652806290316557e-03,1.786984490220462352e-01,8.267876027839163658e-03,-1.923412018521033356e-02,4.098724261176899322e-03,1.845959275960922241e-01
1.610565855138921809e-01,1.609240669611478047e-02,2.254476824129856560e-01,-3.964607784212540050e-04,-6.727735726399119986e-03,-3.245325942900443347e-03,1.861802488565444946e-01
1.846664720929581116e-01,-8.442799269081008307e-03,1.976785322804111011e-01,1.158458132310536716e-02,-1.304284418394728931e-02,1.065808565540437951e-02,2.030443102121353149e-01
2.330181540417080865e-01,7.010738470613731010e-03,2.422948016283905381e-01,1.156345836114741794e-02,-2.657144808652008375e-03,9.904132653375754061e-03,2.323329448699951172e-01
2.384380058397703728e-01,8.328954779625002969e-03,2.401322108008608625e-01,1.252120402621017398e-02,-5.645445445292970703e-03,7.986249515797592957e-03,2.325944751501083374e-01
1.931889202328154198e-01,1.720575190838516400e-02,2.323900445323908992e-01,1.157176924067409261e-02,-1.353470039680415571e-02,7.835076413358560768e-03,2.013479322195053101e-01
2.787760422706364594e-01,7.027929867744400760e-02,2.906192534600070543e-01,1.411740348266181215e-02,6.000631393357113352e-04,-3.288727071476384243e-03,2.161292582750320435e-01
2.133799636501109154e-01,7.607630750922106389e-03,2.172806774635626104e-01,8.261739616115317550e-04,8.997452371599397704e-04,2.502260413358334615e-03,2.078061252832412720e-01
2.211680091897545997e-01,1.249108034935378364e-02,2.356512872388849544e-01,5.912484825676827226e-03,6.115022901949308115e-03,-4.005328580403437824e-03,2.168947458267211914e-01
2.434468918040584573e-01,3.558435532767548204e-02,2.797427635437589322e-01,1.059852979948688184e-02,1.698762571333353602e-03,1.909564468889168908e-03,2.289658486843109131e-01
1.974315964516203947e-01,-4.467257534720270318e-03,2.207029917191348778e-01,2.189382820867009569e-02,1.867125390575826577e-02,-1.787844650332212626e-02,2.223644703626632690e-01
2.297244755191936716e-01,-7.007620693990801453e-03,1.978765737424306170e-01,-7.749089313929104304e-04,5.574803978001874528e-05,-8.527786464016482229e-03,2.230177819728851318e-01
2.219590906261283969e-01,3.644863459377367665e-03,2.169896346594183956e-01,1.452324497911742195e-02,3.247479466524960667e-02,-2.336927569882340378e-02,2.281137257814407349e-01
2.337762771875206980e-01,1.100268430515410900e-02,2.330272436817091841e-01,2.700670174488136897e-04,-2.331418199225588749e-03,-5.015647000491219943e-04,2.224388718605041504e-01
2.182279960541160246e-01,-5.267120541336517414e-03,2.212603359815441539e-01,6.247108354211723452e-04,-2.400966804972241083e-04,-2.715078666796853519e-03,2.250787317752838135e-01
3.044391755611519090e-01,6.100465476984681668e-02,3.136559647159017361e-01,3.246752129773827072e-02,5.807703157955944329e-02,-1.613719545280592124e-02,2.750481367111206055e-01
2.024621069125037698e-01,-1.190747052970048125e-02,1.953368785413923947e-01,2.624681530454687703e-02,4.693382102821763019e-02,-4.305008449619043831e-02,2.423068732023239136e-01
2.396339762509268057e-01,1.146544760506518212e-02,2.172312969687851258e-01,2.276451401013623518e-02,3.422188313712858782e-02,-2.431935087551087907e-02,2.330097556114196777e-01
2.942815161475253460e-01,6.391499455139512675e-02,2.894422839828728611e-01,4.027053584616568926e-02,1.023433964687700884e-02,-2.292412549305806665e-02,2.423494905233383179e-01
2.771435457258226709e-01,4.239497687838869600e-02,2.850611670116713348e-01,2.863461088570156896e-02,7.519145081565438427e-02,-3.598214675139296131e-02,2.834315896034240723e-01
2.079781350190747780e-01,-1.616073462077598222e-02,1.092128071299242192e-01,1.158974915194816227e-02,4.543061600582025406e-02,-1.267733197316023817e-02,2.119731307029724121e-01
2.150046561484360574e-01,3.279423144766424603e-03,2.176919618770316034e-01,2.793936956818430812e-03,-8.001983756400897919e-04,3.453935569635327180e-03,2.132249921560287476e-01
2.213051761226650094e-01,-3.649801544140574006e-03,2.212095634174054970e-01,1.016106718968227095e-04,4.078864952782157286e-04,6.797574067789718521e-04,2.249114513397216797e-01
2.320805650182220792e-01,4.270663660291995622e-03,1.773505731625534265e-01,7.139552535956050772e-03,1.106583915538757006e-02,-2.118079480978887416e-02,2.104538977146148682e-01
1.916879564412952708e-01,1.704254045583389332e-02,2.258836122589436002e-01,-1.236296097556797285e-02,1.553156520774590620e-02,7.411663670733347961e-03,1.974575817584991455e-01
2.511573255181795972e-01,2.837145305768981607e-02,1.734263139129685050e-01,4.661819206797992131e-03,1.877297374308604244e-02,-8.248219147405288706e-03,1.992105841636657715e-01
2.200838624354681528e-01,-3.883671502416030652e-03,2.203691031655155841e-01,-3.247033498492222082e-04,4.432848168003674207e-04,7.047026520025309344e-04,2.241156399250030518e-01
2.206523659280840988e-01,-2.290659727231636467e-03,2.221347274443566944e-01,1.886731549032380538e-03,8.728560880475263887e-05,2.799405301415959935e-03,2.237643450498580933e-01
2.355536826665286521e-01,1.589069873742797456e-02,1.583496085589880531e-01,3.689848276710381517e-03,1.397077982325148002e-02,-9.667406135956208013e-03,1.953463256359100342e-01
2.234167321477264490e-01,2.009662046922179590e-02,1.661762201860509380e-01,6.286354839326720395e-04,2.130477086145861690e-02,-4.746481454832495762e-03,1.854935288429260254e-01
2.227202221788687209e-01,2.267911197700860082e-02,1.890026617347165261e-01,-8.659018342269214586e-04,1.944795696456200554e-02,1.869718991576058273e-03,1.885625272989273071e-01
2.584595255855373641e-01,3.941788103952853506e-02,1.739919732355420523e-01,3.861470130828821502e-04,5.372764195044207880e-02,-1.667432971954113273e-03,2.127930074930191040e-01
2.259659888575477615e-01,-2.594824457691408126e-03,2.228998983076010687e-01,9.086162404858155088e-05,3.542631097919973857e-04,-6.254288787439971943e-04,2.270467579364776611e-01
2.051035868421781649e-01,-3.777382822087671510e-03,2.237291417116438197e-01,-7.840190041090067466e-03,3.912446877885672990e-03,7.023349572317233447e-03,2.196520119905471802e-01
2.332776345318248457e-01,1.438411084724716682e-02,2.355241285082129710e-01,-4.812176485713494205e-03,3.571447808340781193e-03,7.460067227017272082e-03,2.206487208604812622e-01
2.464512910670158541e-01,2.854686829642844037e-02,2.663595436053883825e-01,-1.604282738018614901e-02,2.881241315668685299e-02,1.945593454579140624e-02,2.379389703273773193e-01
2.273413695423461278e-01,-1.690101674065747073e-03,2.245427821039314153e-01,1.731441142158457328e-04,-7.962703617191735665e-04,-9.157650748040763698e-04,2.276549786329269409e-01
2.383170760764996565e-01,6.095670489149440652e-03,2.187295134183860068e-01,-8.545133077766406057e-03,3.050816334569801148e-03,6.305718625960477115e-03,2.238929867744445801e-01
2.284485374882729847e-01,-1.916206449556756564e-04,2.264700528261464341e-01,1.800886599231641435e-04,-7.498242907703881908e-04,-5.202264918285511280e-04,2.276630699634552002e-01
3.389702901845940142e-01,1.019729754553380385e-01,3.462682413476603216e-01,4.244213412161556426e-02,-5.931139215233041662e-02,4.871326113324445095e-02,2.846525311470031738e-01
2.273289770374750385e-01,-3.670881001656911558e-03,2.219322798706712119e-01,6.981065789540259834e-04,-8.812891441609665283e-04,-3.886453932648966845e-04,2.283586412668228149e-01
2.177720203930934018e-01,-4.035916262416505695e-04,2.187052788269467640e-01,2.999118092218285795e-03,-7.992416060669498955e-04,-8.151072851372978068e-04,2.187143713235855103e-01
2.006174350244165072e-01,1.592465773175802402e-02,2.227080085164486745e-01,-4.797178420926191504e-03,1.182001365613230548e-02,8.081850367873044325e-03,1.984023898839950562e-01
2.295776015612986110e-01,-2.213870830667374889e-04,2.247511932072242535e-01,-8.668067232113971247e-08,1.066395332915831551e-03,-7.008123219857627980e-04,2.274349331855773926e-01
1.485375190755111041e-01,-7.839399599369245575e-03,2.123225502849209745e-01,-1.812421062663501642e-02,2.182712140567262191e-02,8.850263615924889790e-03,2.028459757566452026e-01
2.219072347785056576e-01,-3.888896212532994001e-03,2.208857663596666132e-01,3.816618137059453876e-04,-4.834643036669237647e-04,-5.201099818967599075e-04,2.252914607524871826e-01
1.733643867129992799e-01,-2.368585033203793322e-03,1.857044397042372230e-01,-9.680469180143246380e-03,3.804913910480928196e-02,7.790574970375728318e-03,1.949598193168640137e-01
2.234717202171610517e-01,-1.790420018820959580e-03,2.218928217201397990e-01,1.833423301111481709e-03,-8.151415103638693510e-04,-1.153377355064543006e-03,2.245126366615295410e-01
2.033268534630837954e-01,4.025218531350543971e-03,1.949902194813119272e-01,3.252707394328074614e-03,2.405762700832326292e-03,-1.006149862841841181e-03,1.954002976417541504e-01
2.186625292049516889e-01,-4.106550463570696197e-03,2.218012061746191810e-01,-2.476045025768453846e-03,-1.301523085551666188e-03,2.532553373282034077e-03,2.244500666856765747e-01
2.185471516794558755e-01,-4.868985820973198431e-03,2.179777744887471114e-01,-3.588343709617800199e-03,2.499085230922432608e-04,3.151312116458619521e-03,2.232856750488281250e-01
2.303653354299253220e-01,-8.664654665279936108e-04,2.253336076222086648e-01,8.783318569135434772e-04,1.196143867254166203e-04,-1.265833111304895267e-04,2.287627011537551880e-01
2.268397835270199725e-01,-1.659256416202015139e-03,2.235133769598924847e-01,-1.233258150086012726e-04,3.511398028234823760e-04,-6.222343309979142369e-04,2.268576025962829590e-01
2.227628181558823361e-01,2.877867666488731491e-03,2.216366946978439167e-01,-2.939381856004434461e-03,2.991606110240054559e-04,4.231422870507842333e-03,2.195061445236206055e-01
2.273428907975762470e-01,-1.171045829272160388e-03,2.247223729988186980e-01,-7.337508055020639484e-04,1.456116448674960821e-03,-6.809044390261146957e-04,2.272356301546096802e-01
2.211208168145473441e-01,-4.977545784411008256e-03,2.213999798677801778e-01,7.732829270528264595e-04,-7.936281986691661860e-04,-7.753811420914071169e-04,2.262502014636993408e-01
2.220459891760054594e-01,3.241240455658878084e-03,2.247233345823955453e-01,-3.740572916958642431e-03,-4.044332070220549302e-04,4.345760799885651365e-03,2.203806340694427490e-01
1.759858334503634492e-01,-2.638943195451243229e-02,1.713367789025335708e-01,-2.008558466059601547e-02,3.463958002050213786e-02,1.979486084926903797e-02,2.145274132490158081e-01
2.293765962390950097e-01,1.091796117995924575e-02,2.285676721531589850e-01,-2.924272301014558227e-03,-1.317054135352440205e-03,3.519466361111106903e-03,2.182112038135528564e-01
2.251941852116997322e-01,8.695121117950344036e-04,2.273508287404835404e-01,-2.156676547858915572e-04,-2.968983731753790500e-03,-5.310306358113719115e-05,2.254697084426879883e-01
2.155224273173557692e-01,3.536505084781121910e-03,2.009255169566133148e-01,-6.397847078303461714e-03,7.678168909747137838e-03,7.017059114895297239e-03,2.061653137207031250e-01
2.241113324022825093e-01,-1.097717628929822942e-03,2.277421188640623706e-01,-9.378215952132421158e-04,2.485650845322122469e-03,-7.647205719276334909e-04,2.270967066287994385e-01
2.269850775038175228e-01,8.999509506392999736e-03,2.352017449132911275e-01,-3.840767089657150333e-03,-1.178254084535421955e-03,2.525758450766319579e-03,2.223598361015319824e-01
2.149372482115667060e-01,-2.353095153364931358e-03,2.150129576784324814e-01,-7.994315732265508748e-03,7.065586610888757550e-03,7.518478075154478441e-03,2.185008674860000610e-01
2.267781133581474040e-01,5.949294881199912455e-03,2.313517092547369425e-01,-2.352401261366498760e-04,-2.390569905377171178e-03,-1.219106822937956244e-03,2.231995463371276855e-01
2.229489631960456242e-01,-2.925412913494823686e-03,2.259987518408863860e-01,5.797577831158633611e-04,-1.312130824652289708e-03,-6.361982092271118014e-04,2.274308502674102783e-01
2.337810990783342202e-01,1.973439139928620523e-02,2.357475379840312246e-01,-1.012146138949680330e-03,-1.943022599165493023e-03,2.478579210198398469e-03,2.151129841804504395e-01
2.540456666636041194e-01,2.574865065473269654e-02,2.445420411208141243e-01,-3.080499212633255619e-03,1.469409921619972345e-02,1.397172906284584355e-02,2.264995425939559937e-01
2.240251782447731932e-01,-4.068526840420055857e-03,2.223907824596225713e-01,3.964742876995426416e-04,-5.526039435643091864e-04,-1.547395652547738521e-03,2.272997647523880005e-01
2.225265908632295120e-01,2.251533246647480224e-03,2.247433246932164785e-01,6.658043269532960178e-04,-2.231979139667048743e-04,-3.201162167437364339e-03,2.214644998311996460e-01
2.668205465804481813e-01,1.887778883400462182e-02,2.082332097977803442e-01,-4.007795737540627290e-03,7.054830788274304987e-03,1.455869687659857963e-02,2.263076454401016235e-01
2.590851009934538318e-01,3.094395451696493882e-02,2.042137029318462915e-01,-4.302262755024049631e-03,4.627546056997207044e-03,1.239604994323553755e-02,2.076573818922042847e-01
2.281720071572864716e-01,1.736051796062901276e-02,1.655975601318520618e-01,1.830083998229660534e-03,5.472696927750680083e-03,-4.412290764257946344e-04,1.877927482128143311e-01
2.477663275550674171e-01,7.906033594102163109e-03,1.908287315390639061e-01,-2.486944700231033360e-03,5.866462730156524891e-03,1.057005575102020270e-02,2.181163877248764038e-01
1.871573471643915854e-01,1.311933122616257275e-02,2.024616821537782996e-01,1.011049303947425537e-02,2.037851555064939396e-02,-8.888737810286638855e-03,1.870201528072357178e-01
2.303383105053686819e-01,7.941140417069281199e-04,2.235281780505367077e-01,9.270508313843542738e-04,-2.609168425781170555e-03,-4.298670962716006727e-04,2.262680828571319580e-01
2.326240739611568631e-01,1.433584700392984135e-02,2.350469825653470901e-01,-1.207031332692850819e-03,-5.468710795746693255e-03,1.044586090001304061e-03,2.197313755750656128e-01
2.790009846154080098e-01,3.474897330984513810e-02,2.499151421952222063e-01,-1.112224159552030467e-02,1.728271865007798350e-02,1.740380930664016043e-02,2.357469499111175537e-01
3.039207487187016721e-01,7.069999460471584896e-02,3.002957655336782050e-01,-1.340860197004311791e-02,1.036299274668558978e-02,3.956647597916041967e-03,2.333841323852539062e-01
2.222247528030668884e-01,-3.814114380635114099e-03,2.275242487375716549e-01,1.905576453646877142e-04,-1.043607679170565706e-03,-4.964566602415256685e-04,2.287436574697494507e-01
2.376951276375507405e-01,3.129212205140891045e-02,2.289326503165877436e-01,7.122108016546341812e-04,1.994740119528445356e-03,1.438799582994279526e-03,2.022128850221633911e-01
2.249170451930557757e-01,-5.093814839259303007e-04,2.295864280175415051e-01,5.683839913729258047e-04,-4.496764801813580908e-04,-9.722697297049737435e-04,2.278067022562026978e-01
9.146196100427882170e-02,-2.525277505564371694e-02,2.386817198103983184e-01,3.399404527101758389e-02,-3.015783338168145922e-02,1.211579047456646380e-02,2.431344240903854370e-01
2.331074708908702497e-01,8.979946427957907762e-03,1.995513156504779007e-01,-1.044491723361565564e-03,1.877460087044700507e-03,1.079825030759352586e-02,2.102426141500473022e-01
2.296343447143763261e-01,5.246382535238264255e-03,2.085897637643486235e-01,-5.755746951723809957e-03,1.034657179285763430e-02,1.413976087504070431e-02,2.170046567916870117e-01
2.290047528877288130e-01,6.966582090273204519e-03,2.131566472146113611e-01,-6.782651428808177119e-03,1.984443518246021849e-03,6.592033762998293633e-03,2.152055203914642334e-01
2.440598188033598626e-01,1.888157490242819980e-02,1.906439433431964536e-01,-5.057520548982662525e-03,1.162918956914307626e-02,1.269908967439941153e-02,2.061471641063690186e-01
2.269559374529633577e-01,-8.559792823249479099e-04,2.263525412275491366e-01,9.947193624990759240e-04,-3.445359310120400548e-03,-5.480528829962054947e-04,2.275975644588470459e-01
2.738258291692313717e-01,3.627307114861336168e-02,2.071510430487130683e-01,-1.722105518778135544e-02,2.875859934248558430e-02,2.273290736127696332e-02,2.235157340764999390e-01
2.227759049897031773e-01,-4.194329961468767909e-02,1.317217796012807585e-01,2.019046707719823752e-03,1.624799037587880413e-02,-4.871046729529689839e-02,2.493705749511718750e-01
2.133867162637579917e-01,-2.922599518362967164e-02,1.289909395797765590e-01,1.179602615506057878e-03,5.464270800084905684e-03,2.663990118010821015e-02,2.184740006923675537e-01
2.693982938788581083e-01,-5.631853852917700909e-03,9.014171779986432376e-02,-2.398172864311452768e-03,-1.835386718041116111e-02,-3.998463269221903295e-03,2.440273612737655640e-01
2.218920072885853523e-01,-4.099887797754440955e-02,1.979000203208319819e-02,-1.671483292987842187e-03,3.304593189522481156e-02,-6.563623922826959797e-04,2.451771497726440430e-01
2.239556501327171212e-01,-3.457387691029656374e-03,2.235608717769272946e-01,1.708997306552486977e-04,-2.042490226189043728e-03,-8.279862027560755573e-04,2.272481620311737061e-01
2.288693868610516269e-01,7.378381242332254786e-04,2.267707636738598154e-01,1.049858717122269204e-03,-2.775224846102268290e-03,-1.213419856519614001e-03,2.271573841571807861e-01
2.258712664065399278e-01,-1.203871788710841884e-04,2.259234201349794025e-01,-8.612912934476335200e-04,3.716755268179007185e-03,-1.097270100293643198e-03,2.261223047971725464e-01
2.071998796677408106e-01,-5.671776582562904068e-03,2.058327791252263506e-01,4.066557113288345009e-03,3.072070822503344609e-03,-3.762364552143928481e-03,2.124748975038528442e-01
2.265944819077471140e-01,9.549827521302373112e-03,2.328767839725880417e-01,1.652600402281657896e-05,-1.459601172652988735e-03,1.405978254516601590e-03,2.202809900045394897e-01
2.237202240929746511e-01,2.195252661536584160e-03,2.290375492277150205e-01,9.944805237624317062e-04,-9.344163821481145642e-04,-1.820292889877961513e-03,2.242655456066131592e-01
3.347928728464112935e-01,3.494885900358728203e-02,1.030947489919595700e-01,-3.684722396553499323e-03,7.389426397843190837e-03,1.313075925032039818e-03,2.726295590400695801e-01
2.358212303251674413e-01,1.315254381674488271e-02,2.241835914230372317e-01,6.099686692074268550e-03,3.701952972567292433e-03,-6.378079129065241173e-03,2.177159041166305542e-01
2.257592326599359711e-01,-6.815971536113796247e-04,2.251942725876890095e-01,-1.825456104965912088e-03,3.677051765423783899e-04,-2.648927682475165930e-03,2.262284010648727417e-01
2.239084253343385233e-01,-1.220190287301858856e-03,2.305121620008669658e-01,-3.907092431063602812e-04,2.375145102696416747e-04,-1.514062921072818682e-05,2.285034358501434326e-01
2.312226504683210782e-01,4.314764479888710813e-03,2.245922862922355434e-01,3.351016960734828996e-03,3.620067892722828961e-04,-9.499148594836038075e-04,2.237486392259597778e-01
2.249567169028262315e-01,-1.211511598504660947e-03,2.307680514277193062e-01,2.303957513343506841e-04,-1.145114058593103406e-04,-4.235307429911808197e-04,2.291307747364044189e-01
2.275690464804454860e-01,1.848859441825445593e-03,2.272494268584484833e-01,1.214832095439544613e-03,-3.754760637291982856e-03,-1.498866301924996897e-03,2.256790250539779663e-01
2.350741427692302210e-01,7.977915019100695337e-03,2.056409265233351824e-01,-1.626537941199066766e-04,1.401821099492246182e-03,-1.193784148074681327e-02,2.149147540330886841e-01
2.112962922300372082e-01,-6.896394821174878231e-03,2.085313397259467294e-01,8.388436723001985520e-03,5.070101976439367331e-03,-8.590153967473418764e-03,2.179953902959823608e-01
2.660606565268598955e-01,1.971073031163178557e-02,1.949827121314969269e-01,1.789569534377520241e-02,2.418564402825331208e-02,-3.297130876693110668e-02,2.328244894742965698e-01
2.244657835670944013e-01,-1.370000242597285700e-03,2.297081866595764299e-01,-7.771471192659640259e-04,1.158944555847076343e-03,-4.617519643975294364e-04,2.285162806510925293e-01
2.097325846627932644e-01,-2.515064397058172641e-02,1.161063335422630460e-01,1.417464170524913511e-02,3.587757721146129369e-02,-2.798633875962680886e-02,2.208140343427658081e-01
2.530993770939552467e-01,2.108282457114440955e-02,2.172054214257469473e-01,4.332367457683341909e-03,4.227924697128156509e-03,-1.000986255601485353e-02,2.172615677118301392e-01
2.304814531496721663e-01,-2.118712975311964897e-04,1.770462066632246811e-01,9.968322507634930565e-03,1.140165716524316891e-02,-1.220617982644437056e-02,2.118552476167678833e-01
2.248888074683925709e-01,-1.636562739271374411e-03,2.273158793460036131e-01,-3.477578621997579034e-04,1.396092886775224251e-03,-1.206590207369098509e-05,2.277622371912002563e-01
2.155172989598679312e-01,7.085348918624972958e-03,2.339436497152834749e-01,1.809267501239370662e-02,-3.400524894873302451e-02,1.078303937785364021e-02,2.289628237485885620e-01
2.217808069536110760e-01,4.703083647071754081e-03,2.297225903423134041e-01,5.816028763757498214e-03,-1.597404566804597366e-03,4.507081046061704385e-03,2.215397655963897705e-01
2.261300841916500937e-01,1.590389824350652015e-02,2.339676373138790400e-01,-7.101465805224311655e-04,1.777104093494819145e-03,-2.350638529861083341e-03,2.143168151378631592e-01
2.343195049220842541e-01,1.094727012545193556e-02,2.301026022642523317e-01,9.567864806500674330e-04,-3.356642733797824546e-03,-7.136584514144882988e-04,2.213799357414245605e-01
2.209381051717280720e-01,3.130772493875638718e-03,2.274353902882056688e-01,3.673354885144313083e-03,4.978669773623300857e-04,2.597943635044563070e-03,2.212665230035781860e-01
2.270240845664872054e-01,5.292665842115934494e-03,2.255669498735528022e-01,3.694129745199049158e-03,5.003222195192355646e-04,1.698953087071913273e-03,2.211203426122665405e-01
2.323773856685459882e-01,6.690290074896604322e-03,2.332938680334659676e-01,3.750073788750008050e-03,2.140086085353795024e-03,2.182860358377262770e-03,2.263019382953643799e-01
1.541646132893743359e-01,-1.123805736226105023e-02,2.289766965008331323e-01,2.569111553552650209e-02,-1.258750950518799580e-02,1.076847973424321057e-02,2.193908095359802246e-01
2.259675307318803061e-01,1.060527872778579961e-02,2.433913648758850579e-01,1.289272965706860646e-02,6.117162073554718730e-04,-3.111953399740788849e-03,2.257559895515441895e-01
1.988275507242228124e-01,1.244052697023378951e-04,2.223898070487598522e-01,3.592577035071638746e-03,-1.187214384730541500e-03,-6.543037041948098452e-03,2.118759006261825562e-01
2.035413535533416307e-01,-1.631637250384071480e-02,2.051457249641489289e-01,6.334593018916259526e-03,8.384983306128909047e-03,-1.042662391310391137e-02,2.221489995718002319e-01
2.288377590582778009e-01,1.425058115863020447e-03,2.319085103160269112e-01,-6.988007808196259609e-05,7.051758372865382218e-04,-9.763409807949670728e-05,2.289668768644332886e-01
1.902520955391295843e-01,-1.089806606156193403e-02,2.045854172851674369e-01,9.684458796139936917e-03,1.025980438081081081e-02,-9.096885031964577553e-03,2.107021510601043701e-01
1.835119052555732599e-01,-7.562585049864928299e-03,2.173534811802428912e-01,9.310027428052702891e-03,3.056336700666365848e-03,-6.220523070622808320e-03,2.110097408294677734e-01
2.199376710174407723e-01,9.006036540573886251e-03,2.240697931561696499e-01,1.387883660679741730e-03,6.899183527280936716e-04,-4.739033486624041544e-03,2.132027298212051392e-01
2.209955892067673178e-01,-1.899753900603984302e-03,2.213564596759376446e-01,1.454003075209813790e-03,1.124837092336024844e-05,-1.019143487192711002e-03,2.230971902608871460e-01
2.268581832964469691e-01,-2.459967074705998735e-03,2.237680550991287820e-01,5.877682040437868724e-04,-6.452661784328836197e-04,-9.894995779886016623e-04,2.278002649545669556e-01
2.248420352630734476e-01,-2.130766652088195157e-03,2.268598721095163584e-01,-1.174568239376751026e-03,5.076169588107570406e-04,-3.023889486552484374e-04,2.279997915029525757e-01
2.443941210646602413e-01,1.967460204865173479e-02,2.423979362900788859e-01,5.044406936028393226e-03,1.805039330172737364e-02,-1.352365202407240785e-02,2.272811532020568848e-01
2.230074672952718773e-01,-3.167487142580499571e-03,2.239497849304272759e-01,-1.467436984350750130e-03,8.308402091770291124e-04,-5.612478646063004699e-04,2.266684919595718384e-01
1.996316689724484950e-01,3.120692944010627912e-03,2.006910239263050566e-01,1.353852496638621034e-02,1.796893608458025732e-02,-1.360868297694174320e-02,2.022374123334884644e-01
1.685211794616128522e-01,-1.730713288705071351e-02,1.846220057605691689e-01,1.815109767031874988e-02,3.707957604746411895e-02,-1.522498944289494942e-02,2.087866365909576416e-01
2.227687209131060941e-01,2.241279447699806582e-03,2.110124021926568227e-01,-6.599115050853173250e-03,-4.248639066100016320e-03,-6.404867863550738581e-03,2.156057506799697876e-01
2.253218490359198689e-01,-7.798300045118083945e-03,2.049113434353528329e-01,3.855277353277375071e-03,4.070582055631605765e-03,-1.036174411397146507e-02,2.245437353849411011e-01
2.465155572074234080e-01,2.825081716888704075e-02,1.806879710135772255e-01,-2.085248788331059769e-03,-2.745200567034758107e-02,-8.848260537496700079e-03,2.002840042114257812e-01
2.196679815917642054e-01,-1.917366181692933824e-02,1.615935264745946010e-01,1.668724715501890624e-02,3.167541107595373689e-02,-2.044428503152507723e-02,2.272590398788452148e-01
1.982169644637484796e-01,-7.180813648327732945e-03,1.846787839060297365e-01,9.295875528210914562e-03,1.542406284438079152e-02,-1.338096393009877150e-02,2.027336061000823975e-01
1.988084716475949087e-01,-4.053088544583610675e-03,1.975919410631771234e-01,7.283674317903558043e-03,9.234895191502131770e-03,-6.621371369542604010e-03,2.036026418209075928e-01
2.460602200379433113e-01,1.938548352296037836e-02,1.999499694472962052e-01,4.501204703730801900e-03,1.857179453870307778e-02,-2.225341207490259474e-02,2.136275321245193481e-01
2.212532773066073488e-01,-5.078160734513503805e-03,2.207004708555699579e-01,-6.102290271290032554e-04,2.116273676594490128e-04,-2.772448097455170482e-05,2.260583192110061646e-01
2.231975246423647807e-01,-2.773412046554013521e-03,2.240614722119118607e-01,-6.301532002464468613e-04,1.034840030040531239e-03,-3.080905031117969197e-04,2.264145016670227051e-01
2.230199188847515057e-01,2.148705810076839695e-03,2.244914158817750971e-01,4.971447919034401031e-03,-1.298429745992136152e-03,-5.984065034436742737e-03,2.220313102006912231e-01
2.003093851199080344e-01,9.527539718213184905e-04,1.724019016314398689e-01,5.491012280718117131e-03,1.502356765507328884e-02,-6.606449592005461495e-03,1.893590837717056274e-01
2.339048825849046609e-01,9.193730856970255827e-03,2.278416168041898504e-01,-7.697701199014554338e-04,4.869279680593930834e-03,-1.466232718508815418e-03,2.219205647706985474e-01
2.206338957221574693e-01,-4.800872576269488157e-03,2.213390795360219432e-01,-9.919645052572772381e-07,1.884280595697889946e-04,-5.658460509928573464e-04,2.257905453443527222e-01
2.225504734586912781e-01,2.016211607346884982e-02,2.144936537639187679e-01,1.442364306280059967e-02,2.655809049496703905e-02,-1.147586000328854224e-02,2.062293887138366699e-01
2.193861116343757967e-01,-3.251574627830100539e-03,2.239737395041257462e-01,3.333944052126307320e-03,-1.289732448194587323e-04,-3.587228025864618638e-03,2.251265496015548706e-01
2.258219415049050327e-01,-1.165604432147332448e-03,2.265529971410567556e-01,-4.409748540857900035e-04,2.766688132510550929e-03,-3.768771616258408748e-04,2.274066656827926636e-01
1.986084547008831747e-01,3.165861432248534557e-02,2.348377704037370450e-01,9.336343423459653179e-03,1.691886225942591457e-02,-7.477256090662199803e-03,1.911053806543350220e-01
2.207706790535715058e-01,-3.956943931732515018e-03,2.204129219547553975e-01,-1.687520345792017928e-04,4.555412683713276644e-04,-7.935948730856115171e-04,2.245547473430633545e-01
2.284446567902992387e-01,1.745518479498991971e-02,2.293639122095673943e-01,-3.173706873926185855e-03,4.958863569088861958e-03,-5.791638669811211698e-03,2.119338810443878174e-01
2.338435213034511517e-01,7.887752923131596816e-03,2.321371173578115066e-01,-5.033923117667825180e-03,5.646539120047672222e-03,-4.309315187705597787e-03,2.256119102239608765e-01
2.273493412216290865e-01,1.441374194879385673e-03,2.280433302022441544e-01,-8.168515876421869213e-04,4.271389962268440713e-03,-9.362853834239931016e-04,2.263869196176528931e-01
2.231637936381692944e-01,-4.730218826323795422e-03,2.222436024974101809e-01,5.889868290043751313e-04,-1.456641985516228142e-03,-9.915529719475256465e-04,2.274580746889114380e-01
2.231600177978497745e-01,-2.541675407002397247e-03,2.216821489682750113e-01,-2.177277643630311406e-03,2.023454181284763728e-03,-2.196663964558029109e-03,2.250574678182601929e-01
2.302387623028079866e-01,4.982964857791871705e-03,2.257040228460082676e-01,-7.409062377957556316e-05,3.039306050129441696e-03,-1.118301294933574455e-03,2.230935692787170410e-01
2.241168575754987069e-01,-1.564728085087535581e-03,2.250610237534007019e-01,-2.080959682254503607e-03,1.796749461718441521e-03,-2.261480035701993619e-03,2.262391895055770874e-01
2.269371333737475183e-01,-2.206843176620620905e-04,2.256689670519746449e-01,-4.356003561988687847e-05,6.578396409829468565e-04,-1.100470089486271785e-03,2.265372872352600098e-01
2.270592476467189202e-01,-8.306519980925963775e-04,2.250962695398362468e-01,-5.713772260943285634e-04,1.510124085474082514e-03,-4.592620401335885589e-04,2.269334048032760620e-01
2.199830544191263837e-01,-3.300640325469950120e-03,2.195489054537964613e-01,-1.987759295316500767e-04,3.948752523361102212e-04,-5.137330102650670445e-05,2.230682671070098877e-01
2.198065911078228296e-01,2.834513521149356619e-03,2.293085479721224673e-01,-5.041126989652008721e-03,1.888737180447640912e-03,-4.339996786048113363e-03,2.221987247467041016e-01
2.242746983112587078e-01,-2.313977334285455267e-03,2.225595451785150614e-01,6.071785508353868448e-04,-5.065021969575692149e-04,-7.934711118043564831e-04,2.257443219423294067e-01
2.276478239926191249e-01,-3.030907865580190208e-04,2.258055206364987244e-01,6.140355723607482320e-05,5.179805536906412124e-04,-1.223668251352619512e-03,2.270470559597015381e-01
1.972544278109525928e-01,9.296771722614685651e-03,1.904526195936425137e-01,2.134851088763540031e-03,-4.387706448596267669e-03,5.337395216193522923e-04,1.848463565111160278e-01
2.077505583769740927e-01,-6.374646870387412623e-03,2.167515514449686875e-01,3.521038637128125204e-03,-2.533667919110286007e-04,-4.391087168034399010e-03,2.189821749925613403e-01
2.107582232174574355e-01,2.381950651431034849e-02,2.073616479366383603e-01,-1.277739037350855656e-03,-5.956387617973649302e-03,-1.275378904898742281e-03,1.855771541595458984e-01
2.404797824082383073e-01,-2.170883392975228587e-02,2.428438345639969964e-01,-7.621664147625863139e-03,1.357861561508677583e-03,-1.834565085472086160e-02,2.656271457672119141e-01
1.951972513882841431e-01,8.214867396562103297e-03,1.908644777939480508e-01,7.133768710033333094e-04,-3.855973762387390150e-03,-1.843556615120999322e-04,1.849790960550308228e-01
2.262639819195749469e-01,-2.415492973991129055e-04,2.248661099174675548e-01,4.073046725802199273e-05,-6.391213909283677838e-04,-2.285207209786760049e-03,2.258472442626953125e-01
2.062291467750836937e-01,1.636869444029986909e-02,2.070767018570430773e-01,-2.528753121066627330e-04,4.793133479511215794e-05,-1.381207313306402704e-03,1.903012096881866455e-01
2.255898028928083887e-01,-5.291600460308187870e-05,2.318244310276838804e-01,2.850076376191620496e-04,-1.862794481048402799e-03,-1.094808141147163467e-03,2.288548797369003296e-01
1.920099096265246719e-01,8.492437620923720676e-03,1.959848481734092485e-01,-1.363714546591987032e-04,-4.580756270273947384e-03,-1.107512687601841950e-03,1.857164949178695679e-01
2.257191507763748051e-01,1.612879561413177454e-03,2.323067234252672586e-01,-2.486326447151901098e-05,-5.333508712479394969e-04,-5.711959589888914801e-04,2.274756431579589844e-01
1.733533616804625865e-01,7.152493990193548035e-03,2.303997466631188540e-01,3.499045931063371039e-03,-2.145850166885793307e-03,2.980672596350346132e-04,2.010198682546615601e-01
1.972994270057268074e-01,9.726156270371044688e-03,2.018138883806450123e-01,1.573649284670684042e-03,-3.234531367596116432e-03,2.680565838593276622e-03,1.900296658277511597e-01
1.979780715580563566e-01,4.777609349454953191e-03,2.004961436158679278e-01,1.139400241974386106e-03,-4.311314286339347317e-03,2.725180359156570160e-03,1.946822702884674072e-01
2.136395524705610449e-01,2.073545558080652773e-02,2.112240731233595570e-01,3.246058306722419615e-03,-2.982255677427163906e-03,3.220729374701680140e-03,1.919408291578292847e-01
2.011528142465153768e-01,1.323455456269495567e-03,2.001006635088551366e-01,1.418255408533567645e-03,-3.463334580111402262e-03,2.627702824120287193e-03,1.994626820087432861e-01
2.042784605129559228e-01,3.112713805233424669e-03,2.016370760210003943e-01,3.119775455646354393e-03,-3.400240165761779856e-03,2.508546249116633525e-03,2.000650912523269653e-01
2.228450157262775178e-01,3.446120368762961572e-03,2.230681832431708200e-01,-2.477340320978389018e-03,6.006836613493665587e-06,-3.432188071134234866e-03,2.196329683065414429e-01
2.238863513680683648e-01,-3.697525734520978880e-03,2.230329598850589734e-01,-7.672709458734673508e-04,2.539227238654819668e-03,-7.890017954826040536e-04,2.272089570760726929e-01
2.231043744760731473e-01,-3.457739192384956528e-03,2.230939193284248445e-01,-1.318030280037850801e-04,6.699004987348029880e-04,-1.118735580503203708e-03,2.265682518482208252e-01
2.252920937275192659e-01,5.552238353378008417e-03,2.275333654654570492e-01,-3.679828209693996547e-03,-7.506651473994722901e-05,-3.507854679440582709e-03,2.210445255041122437e-01
2.090297392879512106e-01,-5.287959516526274939e-03,2.189379238028396624e-01,-3.112264514886002326e-03,-8.927734153472065238e-04,-3.504112241220587107e-03,2.195951640605926514e-01
2.210211231045046409e-01,-5.553031113376127870e-04,2.302486613414828076e-01,-9.727785718759430740e-04,6.546493135370490659e-04,-1.103463378511753247e-03,2.263485044240951538e-01
2.216169883389544626e-01,7.935745285101436508e-04,2.246034736895359263e-01,-9.744599332401897730e-04,4.711326979512191329e-05,-2.699460714821885592e-03,2.223872840404510498e-01
2.213597122985082044e-01,-1.150650858743385019e-03,2.303351856707132328e-01,-1.386158566998039318e-05,-1.516867295191334569e-03,-5.737072497039126182e-04,2.271485179662704468e-01
2.145591586941646978e-01,-1.930466531942731656e-03,2.190145250380200470e-01,-1.858000977778910198e-03,5.394286409729915884e-04,-3.690097736104049064e-03,2.188703417778015137e-01
2.214795785066018263e-01,2.670197443366356671e-03,2.226753126250593517e-01,-2.241582702128706514e-03,2.858279772431210060e-04,-3.670251257915071921e-03,2.195366621017456055e-01
2.208928307768492638e-01,-4.280036859897723422e-03,2.222534580992635567e-01,-1.606520576805281660e-03,-2.010580484505136462e-04,-2.286421618446169129e-03,2.259083837270736694e-01
2.279313385062139430e-01,7.333167733897943963e-03,2.307110081655284750e-01,-1.640854654213647632e-03,4.170816687451659767e-03,-1.773354012010809003e-03,2.221579849720001221e-01
2.318144260771804466e-01,3.857504662094685122e-02,2.390616671149937700e-01,2.842730371341429629e-04,-2.978139395638358753e-03,-1.277006327354757685e-03,1.970435827970504761e-01
2.251488993631896030e-01,-2.598151555920469313e-03,2.273498672506235052e-01,-7.038755472513494532e-04,3.110997353486280072e-03,-3.963426007317355634e-04,2.289231717586517334e-01
2.203005742337465211e-01,-2.637013540057353556e-03,2.206821090943303920e-01,-6.942500826008806596e-04,-6.253503839724370108e-05,-1.597991244942324664e-03,2.231490314006805420e-01
2.232287257445953466e-01,-3.250810723104236022e-03,2.224354592601127112e-01,-6.409515613425255593e-05,8.075207731530307945e-04,-8.989070560354642508e-04,2.260936647653579712e-01
2.253669436220284428e-01,1.018129997910538487e-03,2.313648949408850242e-01,-1.021695916154026539e-03,3.238356555109074119e-03,-3.715110842813950558e-04,2.274840772151947021e-01
2.266169925616755010e-01,4.692972064977124491e-03,2.332206750060579759e-01,1.018634365440940128e-03,-1.542088673522647429e-03,-3.873450173550443618e-04,2.253222018480300903e-01
2.214987426435665596e-01,-2.405066822713630703e-03,2.212479569020420755e-01,6.145416796860729645e-04,-5.811178390955783115e-04,-6.502146039137331277e-04,2.237861454486846924e-01
2.245082833428906632e-01,-4.698281795721959142e-04,2.243186593741872958e-01,1.932263898142332244e-03,-8.669158786805226599e-04,-1.093773726166287832e-03,2.249212563037872314e-01
2.233128621480342246e-01,-1.793686944708300368e-03,2.231313096869913526e-01,1.329409327742321493e-03,-8.910571507651196847e-04,-6.085784596669038512e-04,2.250353693962097168e-01
2.256952613860273571e-01,-1.561702002164100378e-03,2.200462153818381061e-01,1.992229472655363074e-03,-2.491213085706497064e-04,-4.063429301271299920e-03,2.246229797601699829e-01
2.232034812998473505e-01,-3.694939579306499855e-03,2.226002956749309480e-01,-3.585434844305810027e-04,7.498035710666990867e-04,-9.423841775483009263e-04,2.266078740358352661e-01
2.058572137922524414e-01,1.898798696300915689e-02,2.092096732973499906e-01,-2.204060884199460647e-04,-5.340524475501572284e-04,-1.524992736243171434e-03,1.885889619588851929e-01
2.149931056044157573e-01,-5.243859130986933126e-03,2.143086779553868837e-01,-3.483840328166489843e-03,-3.667364261331426548e-04,-1.334317613214151561e-03,2.199913859367370605e-01
2.195699722845629309e-01,-5.136799629264998668e-03,2.181256436343180227e-01,1.686428904220429450e-03,3.656105248686468000e-04,-1.012876161832363276e-03,2.240149080753326416e-01
2.366132093722061458e-01,3.440082565621385702e-02,2.361970264233581585e-01,1.592146459253560107e-03,-3.225736962911138726e-03,1.632123383170664983e-03,2.021204531192779541e-01
2.476531705623534196e-01,5.184810934163899820e-02,2.444849840843281996e-01,3.986914695067825601e-03,-1.531746139900260276e-03,-2.570173531946747750e-03,1.944321393966674805e-01
2.353703624875069789e-01,1.866926185575681907e-02,2.360750548348100053e-01,1.834516490199544271e-04,-4.168231603675082685e-03,-1.589155945374785698e-03,2.171920090913772583e-01
2.322614147724708089e-01,1.934682635941928353e-02,2.356145731252219933e-01,-1.159562812222202088e-03,-4.323979840788362040e-03,-1.434174495639812912e-03,2.147652059793472290e-01
2.307243195030242167e-01,1.102922162266706252e-02,2.261047907793429235e-01,-1.443645553162971069e-03,-2.943292009662817118e-03,6.342258027067852440e-04,2.174990475177764893e-01
2.365978793653301937e-01,2.157998554092985244e-02,2.353252935067329243e-01,-1.049164893459164318e-04,-3.411529611188314753e-03,2.919136104784729848e-04,2.144665271043777466e-01
2.324585758471444663e-01,2.694414098095537780e-03,2.296745856553442655e-01,-1.775108415823237890e-03,-4.127376613309782501e-04,9.303336300687330661e-04,2.284123897552490234e-01
2.299168050781621453e-01,-5.363870224929789821e-04,2.254952041005076069e-01,-4.746078157559148491e-04,-5.141737163541849941e-04,5.889390547997051589e-04,2.282800078392028809e-01
2.231624042019554055e-01,-2.759250773482491148e-03,2.223112529126824444e-01,3.360090483573941670e-04,-1.292023469465530035e-03,-1.293598760566256863e-03,2.255202680826187134e-01
2.104477061538600480e-01,-4.332965301242275302e-03,2.103300145376390262e-01,-3.168727593340835754e-03,-1.400975869592944578e-03,-2.268407242465719006e-03,2.148416191339492798e-01
2.307683085992620897e-01,-1.366182125421000482e-04,2.257485757635098733e-01,-4.831561580780696164e-04,-1.430028727121416317e-04,-1.008331870891024856e-04,2.284381687641143799e-01
2.300919655465045732e-01,-9.330462825394847393e-04,2.242650014006821180e-01,-7.617745733688495522e-05,-9.216403581969674673e-04,2.866810740116478525e-05,2.281729727983474731e-01
2.224730834640953336e-01,-5.417543995290763359e-03,2.208889962666524820e-01,-9.030905388313795277e-04,-1.170600837192617904e-03,6.956309656122251946e-04,2.271203547716140747e-01
2.316560339278082581e-01,7.710470954321951842e-03,2.300129377758642069e-01,6.422648833410279576e-04,-2.940616735501474892e-03,8.658483190268068249e-04,2.231944799423217773e-01
2.330976178215043437e-01,2.164268500252494731e-02,2.381320889065440261e-01,-9.929004008620301042e-04,-2.706787348908448257e-05,-1.112571231796961532e-03,2.140321731567382812e-01
2.252139982582271327e-01,-8.981966310798478181e-03,1.920465503002514174e-01,8.459751420750904116e-04,1.993136843148379193e-03,-5.198062392919824970e-03,2.197163403034210205e-01
2.253229791537343374e-01,-2.199985097588980087e-03,2.242159564907980629e-01,-5.610453574894256820e-04,-2.268337757092105632e-03,2.080761184453324179e-04,2.270078510046005249e-01
2.272319036241780554e-01,1.268301591137166451e-03,2.289721784247585323e-01,-6.141148114704047829e-04,-3.439951765152963678e-03,1.297500098154326723e-03,2.269306033849716187e-01
2.278136060938753538e-01,-1.203769364606366299e-04,2.257370798521280142e-01,-1.462332629450480452e-03,-3.187883366982273425e-03,3.054619032300606805e-03,2.270458042621612549e-01
2.294202868458675160e-01,1.711713775889095457e-02,2.334683128836511357e-01,-9.422792532281217080e-04,2.204290428761504841e-03,-2.200459911356020259e-03,2.144299149513244629e-01
2.308274140842386801e-01,8.737807515111245538e-03,2.285065211181336042e-01,9.310291731761352087e-04,-4.142901415945217554e-03,-7.123743023865833227e-04,2.210641205310821533e-01
2.213733193652887565e-01,-4.763641086134196012e-03,2.205928707924469934e-01,1.739027868302196181e-03,-7.187622254135741596e-04,-2.056460892897044035e-03,2.257993668317794800e-01
2.297821994472130647e-01,1.534473808633352032e-02,2.310748191749510683e-01,1.029413430643598545e-03,-3.565243480452477774e-03,3.074317682646227545e-04,2.151833623647689819e-01
1.775774778877408089e-01,-1.781443862298767722e-02,2.148089192495416522e-01,-3.252656961034604277e-02,-3.289347481022083380e-02,-2.233895156329256809e-02,2.339997142553329468e-01
1.958167342484851414e-01,8.650261853561103109e-04,2.258603224696349443e-01,1.821184718805850125e-03,-1.097263197866427033e-03,4.998647353208486056e-03,2.117884755134582520e-01
2.276360655524405363e-01,5.583060466933603694e-03,2.296945395273373158e-01,-2.660000163342709730e-04,3.330765259830502888e-03,1.511652771879815321e-03,2.231797873973846436e-01
1.811881569700684869e-01,8.556209487329657915e-03,2.306945891014528793e-01,2.927926778410804964e-03,-4.463545417998942069e-03,3.567701967278436980e-03,2.022936940193176270e-01
1.709994820943791516e-01,-8.780764566881538169e-03,2.295336715599350375e-01,2.064062874456122285e-02,-2.374830046636080931e-03,3.307515858561323619e-03,2.181704044342041016e-01
2.224255350294411793e-01,-3.119278502755756799e-03,2.254752229890911452e-01,1.009426574887966558e-03,-1.409475117032935520e-03,-7.321106057989264400e-04,2.271084040403366089e-01
1.801604177973727128e-01,1.565737070012782062e-02,2.420942543983106710e-01,3.487007349300813835e-03,-1.997623871404416961e-03,2.743208280755190815e-03,2.028703540563583374e-01
2.239662712941876688e-01,-2.848837013381594341e-03,2.225142204713477234e-01,1.873098926179787935e-03,-6.169698449559697022e-05,-2.003470925226211868e-03,2.261425107717514038e-01
2.234980252849064764e-01,-3.049551090468949344e-03,2.262262771683866136e-01,1.316378333307944388e-03,-9.030294963501377115e-04,-7.116992378939462861e-04,2.279440462589263916e-01
3.451321478937018350e-01,1.213376402494701356e-01,3.552122109227606184e-01,-3.114548500876850035e-02,4.554887765546686285e-02,3.131815409249922438e-02,2.540042400360107422e-01
2.336668380299150583e-01,-9.034507799001584294e-03,1.269620512095852027e-01,4.668634371834011997e-03,-1.670090087895110403e-02,1.139445704454522187e-02,2.137384116649627686e-01
1.645140740016939884e-01,1.881289749549126811e-02,2.332140161709067017e-01,-4.485949306179467556e-03,-4.199854969408028937e-03,-3.862374835996388884e-03,1.900426745414733887e-01
2.089992775845483375e-01,5.778022849063702004e-03,2.216442154101512796e-01,1.541140398158397182e-03,-8.501161730442559437e-04,4.848185847651402709e-03,2.100197672843933105e-01
2.293441633906941335e-01,3.881579438125559722e-04,2.269800696269847762e-01,-1.062271899465846634e-04,3.992153158976112677e-03,-5.763346543698335623e-04,2.278903424739837646e-01
2.215239672510596614e-01,-1.950289889972714463e-03,1.457517458613666606e-01,7.182472095470326598e-03,7.715669657579402041e-03,-9.985528149163865747e-03,1.984477788209915161e-01
2.003086107908379487e-01,-7.363368466111616661e-03,1.235234845268771420e-01,7.173650459370669273e-03,-3.578865560880512692e-02,6.747336830204267791e-03,1.929013580083847046e-01
2.652944491702790564e-01,2.974758600062066272e-02,2.453149483117471608e-01,-1.757648271915803785e-03,-4.273110695978291594e-03,-1.624197860640734861e-02,2.281027138233184814e-01
2.050811675576103554e-01,-7.114850926706328682e-03,1.569785076762970077e-01,7.311012751060612554e-03,-1.839111238642269358e-02,5.779540183786784080e-03,1.959823518991470337e-01
2.050209103852574655e-01,-1.823092914104845752e-03,2.283420098924544561e-01,1.482989220868807627e-02,4.158728296606579999e-03,-2.610422526802783083e-03,2.210978269577026367e-01
2.095841045873132469e-01,1.746924809938821266e-03,2.220750585204459282e-01,7.359185172562314990e-03,2.207784799657571458e-03,-6.875865878604130524e-03,2.150984257459640503e-01
2.047091834991104919e-01,-1.557538786723894342e-02,1.950337110823589237e-01,8.466839283223871748e-03,5.694846794187808335e-03,-8.439660858861348230e-03,2.168261706829071045e-01
2.247910939463865776e-01,-6.747640148243583269e-04,2.235274273782180132e-01,1.227474424067778822e-03,-1.373946750950815008e-03,-2.552493292996468096e-03,2.249027937650680542e-01
2.233474705027261309e-01,-3.970210219860076384e-03,2.226141043634163319e-01,2.466631817137280962e-04,-1.770515394599089581e-03,-8.641513629101719258e-04,2.269779443740844727e-01
2.251508149611405885e-01,-1.020563874953195338e-03,2.249549610450370662e-01,1.257582752825928693e-03,-2.252094878814198120e-03,-1.319184730920883218e-03,2.261292040348052979e-01
2.314254205758146665e-01,1.765750284234424150e-02,2.467877251927266535e-01,-6.912611906357175005e-03,-1.360433750173613201e-04,-1.124913144133013639e-03,2.221798747777938843e-01
2.442959363418487906e-01,3.818888475797438398e-02,2.448770920482661873e-01,1.134758067651853310e-04,2.645886713501304985e-03,5.139839318566534476e-03,2.066410630941390991e-01
2.287973806401756849e-01,6.918573295777080689e-03,2.341107959549309225e-01,-1.064548553893136101e-02,-2.076234228301924393e-03,-6.611284833899206022e-03,2.256577312946319580e-01
1.838177992370767233e-01,2.137854704075055345e-02,2.176738082343345759e-01,3.325557749827772689e-05,-2.735803839869416394e-03,-3.306882047648270449e-03,1.818998306989669800e-01
2.272294043672622998e-01,-1.475183920714606689e-03,2.247925925048889773e-01,-7.842719617673422124e-04,1.374951389317232656e-03,-7.601806392542023640e-04,2.275162935256958008e-01
2.140301325378419495e-01,-5.933726534588512624e-04,2.237344786627458726e-01,-1.099124388170856677e-02,-6.894375101485037717e-03,-7.672883191816592258e-03,2.211828231811523438e-01
2.061258116621791647e-01,5.663396779772067458e-03,2.468605387314934951e-01,-2.210268141746742077e-02,-2.042280373563087892e-02,-1.729070766614026339e-02,2.315686643123626709e-01
2.382279884685461757e-01,2.762057157884476033e-02,2.357524523647132608e-01,-1.461509276489990567e-03,2.910536826556569309e-03,-7.815382652560083718e-04,2.094609737396240234e-01
2.249095945281689990e-01,-2.371032960344993112e-03,2.237911967146715142e-01,-7.192201613986531656e-05,1.565614411529005212e-03,-9.988797739719844186e-04,2.267463505268096924e-01
2.310195770758861067e-01,8.784855383233286519e-03,2.214121862504174476e-01,-5.107346925172272581e-03,-1.078461617751630235e-02,-5.191303703883143154e-03,2.187544405460357666e-01
2.134890341067697539e-01,5.424375786187041193e-03,1.813988575308148332e-01,-5.015365452384387690e-03,-3.334498045263505593e-03,-7.967819313418743766e-04,1.943053603172302246e-01
2.183669037037614946e-01,-3.279557578985126121e-03,2.216760299910934817e-01,-1.074415417480749656e-04,8.092692065838218195e-04,-3.473063286676622737e-03,2.234048992395401001e-01
2.269778326170382443e-01,-2.575812655226356052e-03,2.249551112893845850e-01,8.410353510930593159e-04,-9.949921037679511446e-04,-1.250469751613557563e-03,2.285704016685485840e-01
2.616852590232853215e-01,3.286103534881787414e-02,2.497973880646163769e-01,-4.178456738179143343e-03,-8.534226121907077973e-04,-3.520918719237229287e-03,2.233234643936157227e-01
2.284728721523780481e-01,2.149460456772306349e-02,2.362823369060135237e-01,1.704243633358549668e-03,2.906098174011473821e-03,-2.619956430096120285e-03,2.111208736896514893e-01
2.397040355185058869e-01,1.084048133231271804e-02,2.288730722554981334e-01,-2.040426862757828853e-03,3.063990508732648832e-03,-3.470826117727355197e-04,2.237365394830703735e-01
2.330818798157777982e-01,3.750275814675546604e-03,2.257956710528457867e-01,-4.240921819711130822e-04,1.547733908066629190e-03,-8.383536807922573270e-04,2.257984727621078491e-01
2.262464681592779026e-01,-2.644870955685135749e-03,2.234347869035483991e-01,2.016385851055082568e-04,-1.548158966517912145e-03,-4.921147650656979532e-04,2.275162041187286377e-01
1.737876284305040486e-01,-3.099132854396413617e-02,2.089016611024695491e-01,1.973014655495939143e-02,7.677189220826882883e-03,-8.467427661172534717e-03,2.278547286987304688e-01
2.413646426384385424e-01,4.491011874681069549e-02,2.408373120423310254e-01,-2.605678845356061788e-03,5.519208916292624514e-03,-2.015504567358665251e-03,1.965070068836212158e-01
2.196847199836847175e-01,1.347528300607581109e-05,2.236557863834701676e-01,7.544481097854247942e-04,-1.653088421866126057e-03,-4.368460783857754104e-03,2.218348681926727295e-01
2.208966175341441351e-01,2.673401576874095964e-03,2.157703902860877432e-01,5.169333103925889510e-03,-2.045400597719352915e-03,-3.735595752993321750e-03,2.160175144672393799e-01
2.362127205560013432e-01,5.267854763332441292e-03,2.279358737637232901e-01,1.195059965974575771e-03,-1.014262428858865453e-03,-3.295668731765080900e-04,2.269366383552551270e-01
2.296854703002860765e-01,5.432618421271351306e-04,2.258337140763097550e-01,-2.929639827362811124e-04,-8.798876680774466493e-04,-6.403647069670609935e-04,2.272492051124572754e-01
2.285874266635820606e-01,2.594240824451615746e-02,2.287726666808929110e-01,2.699356751257420833e-03,-2.381568739106208667e-03,2.255637272437895167e-03,2.028711736202239990e-01
2.111307984802376914e-01,4.995476769228374136e-03,1.950692642602657456e-01,-9.544606672799143404e-03,9.577243741741342867e-03,7.018729598424123216e-03,2.003375887870788574e-01
2.396635597366736370e-01,3.559358387617148067e-02,2.461524622896797410e-01,-1.453008072321269190e-03,1.323347122292052678e-03,-3.246856519354385240e-03,2.074947357177734375e-01
2.427628854126410995e-01,3.833679866952624526e-02,2.370656974581545340e-01,2.093120399749513402e-03,-5.184566537110125517e-04,-3.312036544899183907e-04,2.016732692718505859e-01
2.478088027140581406e-01,3.395572954619818784e-02,2.355636283624533145e-01,2.601238246879710326e-03,-2.050706689594545325e-03,7.106269126065674737e-04,2.080837488174438477e-01
2.301222565764415307e-01,-4.929166991869404768e-04,2.242143700663380701e-01,1.110601898017220821e-03,9.856192792963883956e-04,6.176215758523507767e-04,2.277357578277587891e-01
2.524078718759225071e-01,2.261928997031723010e-02,2.317798397246776942e-01,7.817999372944958291e-04,4.878948335647043501e-04,5.794916983859444218e-03,2.204348295927047729e-01
3.877269785732830876e-01,1.270305777476725684e-01,3.609163108636856965e-01,-2.016374207551287212e-02,2.075946646086266126e-02,3.813973160226911963e-02,2.618558704853057861e-01
2.222752193566015499e-01,-3.428844778747608402e-03,2.207502871193606220e-01,9.627380298203526594e-05,5.409437950622134408e-04,9.448192473813649128e-04,2.249534428119659424e-01
2.087303152823776209e-01,2.374744800820283164e-03,2.076688308840290154e-01,8.306435761392468205e-04,9.046173368565478936e-04,7.877305670376945172e-04,2.058423906564712524e-01
2.217193418941701133e-01,-4.535807174165046307e-03,2.215216002945952500e-01,5.881374946660276187e-04,-1.102087351658260312e-03,-7.508694928375014236e-04,2.261704355478286743e-01
2.281465255263085135e-01,2.057651266752238972e-02,2.289847051562938773e-01,5.772966912534026676e-03,-4.999141255826717797e-03,-1.853025241926219407e-03,2.084352374076843262e-01
2.308072867427903851e-01,1.766450277989481399e-02,2.307058358853001367e-01,-1.917617086353893370e-04,4.267072592965377546e-03,-6.085181562157119736e-04,2.132230699062347412e-01
2.203392815452489550e-01,3.435020998170390527e-03,2.194350170849990456e-01,-2.829802959791180312e-03,4.577896072059712580e-05,2.716623564562509197e-03,2.165601700544357300e-01
2.253691595577390072e-01,3.093656610555006736e-02,2.339783126283503101e-01,-1.183292312466943880e-03,-1.241389787222832138e-03,-2.725371842216532930e-03,1.989551633596420288e-01
2.154737975725565802e-01,-1.988241660301592884e-03,2.159456987956890894e-01,-1.038279460624121769e-03,4.852836145290454167e-04,2.589563630470983601e-03,2.177536189556121826e-01
2.071479695841172142e-01,3.902424843503532470e-03,2.227633228617407757e-01,-1.756583464354988201e-03,2.322833450374925672e-04,5.792037460450768539e-03,2.117460817098617554e-01
2.243522745010956276e-01,-2.333165489470712117e-03,2.239630632792224685e-01,8.135226563189786649e-04,-2.077645321802042838e-03,-9.567907397477119855e-04,2.265301197767257690e-01
2.199868544791619418e-01,-9.772996417602153318e-04,2.202940421642159696e-01,-1.041442017284976681e-03,-2.105716172304486641e-05,3.165322068199610708e-04,2.211259454488754272e-01
2.258746771178316015e-01,1.846229163340762369e-03,2.319139304730572504e-01,6.634513175943288887e-04,-4.335424364871626017e-03,2.167346767379752577e-04,2.272356301546096802e-01
2.280589503748389757e-01,9.900320253219241362e-03,2.272872918984542578e-01,1.480714190574323411e-03,-2.023227495489520725e-04,-4.034379992648607673e-03,2.179012745618820190e-01
2.319288130365258493e-01,1.216451887460809345e-02,2.288097316390872438e-01,1.541708096861958265e-03,-1.171754317795490122e-03,-1.231257575648470601e-04,2.182473540306091309e-01
2.751801412662381319e-01,1.747162068895061204e-02,2.144664133284900631e-01,-2.224938559745216413e-03,8.053991877935188018e-03,-1.832442602367786652e-02,2.359453290700912476e-01
2.298540821039488646e-01,1.888626294344009082e-02,2.345041314215726147e-01,-5.432666844331772741e-04,4.701014845819952159e-03,-9.638670218878762018e-05,2.134883254766464233e-01
2.301484600674877923e-01,1.867614960383071065e-02,2.361455711598450802e-01,-3.125257256449790215e-04,1.590679933627302213e-03,-2.359577053225990310e-03,2.145910412073135376e-01
2.383290565388951343e-01,6.562168484840336102e-02,2.375562522731630155e-01,1.079885357494335017e-04,4.582854690104589497e-04,8.254128948454480435e-04,1.723301261663436890e-01
2.344847394032750776e-01,1.344555933380506274e-02,2.247017570075557358e-01,7.226722036973045162e-04,2.818368276237332402e-03,-2.771626603227882090e-05,2.163723707199096680e-01
2.956954639183779210e-01,5.015699674762585936e-02,2.694640516597032742e-01,1.562420438415522981e-03,8.495362114526667022e-03,-1.570403004266657937e-02,2.355845719575881958e-01
2.261308518706229564e-01,2.914451968635126122e-02,2.592073382275054128e-01,-4.777102937299543273e-02,-4.556027250289548802e-02,-1.324425150305419234e-02,2.449753880500793457e-01
2.309964540777486586e-01,1.611415534024923657e-02,2.367255863105376945e-01,-1.343033727669979815e-03,-1.322388978024031578e-04,4.078892413404058143e-04,2.178170680999755859e-01
2.288333920133659993e-01,6.146564815251165381e-03,2.258627992339231061e-01,-1.240655857632875104e-03,3.791810662829817134e-03,-1.389309075482598500e-03,2.213374674320220947e-01
2.209687445385058457e-01,-3.699140705859194078e-03,2.207385989059398312e-01,-2.325176921855321658e-03,-1.934218283528372139e-04,6.581791038030490029e-04,2.245921492576599121e-01
2.198548411140929248e-01,-4.110976258601406474e-03,2.189225561631324424e-01,-1.945450930677193125e-03,3.415784009547753644e-05,1.083882480034373133e-03,2.235344201326370239e-01
2.224445255405490540e-01,-2.472328567950793365e-03,2.226081089749194220e-01,-1.150653459856298185e-03,-1.117344884230232586e-03,1.415703069362661320e-04,2.250159680843353271e-01
1.662887443789582420e-01,3.646667640625397833e-02,2.653564187662089124e-01,2.030151752818465730e-02,-4.330379427263265912e-02,1.908407884802925791e-03,2.154121249914169312e-01
1.506737716244593295e-01,-3.728321659716002379e-02,1.333270365468238183e-01,1.389406105013880031e-02,-4.178342791854459948e-02,1.652607125922786815e-02,1.974951475858688354e-01
1.540667761398418767e-01,9.034132644086020902e-03,2.310928208593511779e-01,5.775919403235337500e-03,-1.907964507681181657e-02,6.239708112478591605e-03,1.986145824193954468e-01
1.245293819267211111e-01,1.306931787600609796e-02,2.416651769330941946e-01,6.017608002405101970e-03,-9.886273209970477746e-03,2.701148927774317445e-03,1.990573853254318237e-01
1.373165681335178634e-01,3.360774910594174769e-02,2.854015744915161523e-01,-2.987741526095398937e-03,-2.566508251243859381e-02,1.086192466285354659e-03,2.237159311771392822e-01
2.298993153577098547e-01,3.481705932958378824e-04,2.250747659378855015e-01,8.256194670465976940e-07,1.066777649017007111e-03,-6.239077939718604138e-04,2.271873801946640015e-01
1.083069271794662447e-01,-3.618664656330251861e-02,1.590997950259790961e-01,-1.115891430091685115e-02,-9.001151779154600852e-02,-6.410722816176020640e-03,2.357978522777557373e-01
1.999926373273517022e-01,2.909918530040661588e-03,2.138814885954229417e-01,-3.852356434452837344e-03,-5.187359951886282364e-03,-6.915556616613780655e-03,2.050377428531646729e-01
2.084178726740428811e-01,1.349520504275997235e-02,2.127855628473301897e-01,-1.264629522228839353e-03,-3.032454405785558441e-04,-2.392573621979315543e-03,1.971992254257202148e-01
1.492304781530177926e-01,2.556640936503462580e-02,2.548207857037914081e-01,2.579390630876203581e-04,-3.527886255912721786e-02,-5.389890822938626577e-03,2.081369459629058838e-01
3.085495156828362354e-02,-6.129201234712855495e-02,1.814609934830414550e-01,5.209041524201553884e-03,-5.678130732907767791e-02,4.273731513779508752e-03,2.342214286327362061e-01
5.796910842938632347e-02,-2.402902529945247223e-02,2.480600483841739201e-01,1.034260952606067333e-02,-4.135993220103541951e-02,1.836245193291237949e-05,2.527809441089630127e-01
2.324536512932420251e-01,3.248550647054260221e-03,2.256939130872362143e-01,8.095809953744018909e-04,2.468522991524805307e-03,1.770040216337709750e-03,2.259667068719863892e-01
2.136857166994640400e-01,5.897308748239016296e-03,2.141948968794645247e-01,1.898862397433778715e-02,-3.402586559772689118e-02,2.885821592720803908e-02,2.243556380271911621e-01
3.112089548686833296e-01,8.788184436482457396e-02,3.364502785935042373e-01,2.516107582349609573e-02,-1.997344929346866679e-03,4.087204772086180243e-02,2.511413395404815674e-01
2.104677820453138282e-01,1.923155566628657887e-02,1.958936561592147241e-01,5.497963035861311613e-05,-2.387190348218876015e-03,-3.584747973606046910e-04,1.844290941953659058e-01
2.292067289719006973e-01,-6.821803910527224346e-04,2.240308610427518277e-01,-4.701538175501694455e-05,3.342980755518109724e-04,-2.925812445468948153e-04,2.273464798927307129e-01
1.940124973366501582e-01,6.971696447775899141e-04,1.842448256930871997e-01,-3.709446072189338307e-05,-1.221834093149306438e-02,-6.421632734556404669e-04,1.898080259561538696e-01
2.041841934104220713e-01,-9.134464152253718439e-03,2.160951728102449843e-01,4.277423890124428842e-03,7.062101192039126670e-04,-4.294238900426106641e-03,2.197709232568740845e-01
2.491685753211719256e-01,2.874668226652396519e-02,2.505978564948694309e-01,4.814315279625061388e-03,2.006988849524356158e-03,-1.717154768733845059e-03,2.213444411754608154e-01
2.329884172549810950e-01,1.858431664566603803e-02,2.303480891084762061e-01,-1.959409327884477445e-03,3.540198823669872367e-03,1.075513977136965471e-03,2.132195532321929932e-01
2.749508445004990587e-01,4.925416570890231438e-02,2.708614392413707939e-01,1.051165530970202440e-03,-5.705241669375030016e-03,5.905799577743013791e-03,2.241391241550445557e-01
2.261591325367420802e-01,3.889256923043760139e-03,2.316512979345458634e-01,2.844732546257272912e-03,3.638210517286645605e-03,3.537209846109256803e-03,2.252916544675827026e-01
2.459596532926887624e-01,4.327756400964288819e-02,2.754840377902634807e-01,7.957584598637686482e-03,-1.855304745989942022e-03,1.480434768496536680e-03,2.194143384695053101e-01
2.273381136417380044e-01,-1.656693837310346806e-03,2.243747689607123730e-01,-3.992279171179980183e-04,-1.151360258960179182e-03,8.972269507337420503e-04,2.275426983833312988e-01
2.164447807352462561e-01,-4.718577788964256614e-03,2.217197339762523312e-01,-1.465523099021759043e-04,-1.575561939766553484e-03,3.603253663251470727e-05,2.238642424345016479e-01
2.238388968126880374e-01,-3.146571060716779611e-03,2.223985721741021937e-01,-3.576592461259328658e-04,-8.963778193981897756e-04,1.009656355768872747e-03,2.262816727161407471e-01
2.255850873859934769e-01,-1.608132092381225897e-03,2.245420139101612089e-01,-1.400566654893312547e-03,-2.220789639713491304e-03,1.764216343050449467e-03,2.267396897077560425e-01
1.975872420359039705e-01,7.374978932380815699e-03,2.070180229427396323e-01,9.514657634447647346e-04,-2.869985485736531970e-03,3.095404277816792525e-03,1.952425837516784668e-01
2.234484403536882713e-01,-1.340250099921513893e-02,1.552739505588339175e-01,-1.132582372051362841e-02,1.583634041414858432e-02,1.916780386008530568e-02,2.164216786623001099e-01
2.175965543099144250e-01,-1.391270899295221630e-03,2.145030100846448406e-01,3.388669699464977986e-04,1.154747009262811243e-03,4.665358204480935965e-04,2.174690514802932739e-01
2.223122275784289170e-01,-3.700142445047377437e-03,2.219216861337192370e-01,-1.328891025027546238e-03,1.723847586313564733e-04,2.442771109706416092e-03,2.258689105510711670e-01
2.327640875198768999e-01,-3.893259037207608131e-02,6.839723498449160055e-02,-2.159851843248218259e-02,-5.014872692732132153e-02,-3.014189383296870389e-02,2.604753077030181885e-01
1.755911238875157987e-01,-5.881029616018881856e-02,8.471278605496550262e-02,-1.416671041100642930e-02,-7.426135463296179573e-02,-2.666541995426569001e-02,2.473466247320175171e-01
2.500872253774526488e-01,1.481814450795043703e-02,1.372409005466237453e-01,-1.156607088596350169e-02,-3.415697910472625942e-02,-1.008748853970856986e-02,2.138767689466476440e-01
2.457192265818939070e-01,3.629931727100524363e-02,2.428716352046803029e-01,1.568496614019803705e-03,5.654956847507834790e-04,-4.016183022608375668e-03,2.081470489501953125e-01
2.883613541238887468e-01,2.021304981990837413e-02,1.395308192291798421e-01,-6.304975001621187548e-03,-2.477330061140185086e-02,-1.844660507909260880e-02,2.390117645263671875e-01
2.474112890847797730e-01,2.869280702573542841e-02,2.400132724858036748e-01,1.913489619601723649e-03,-8.101596287090387025e-03,-1.218566772441280564e-03,2.156079113483428955e-01
2.245711463020717835e-01,-4.600876814248311408e-04,2.291943787268084787e-01,-2.309323164629006344e-04,-6.421424980567661098e-05,-5.052280964924588070e-04,2.273801714181900024e-01
2.250057687510619853e-01,-2.557288156391557266e-03,2.235525671444334450e-01,3.556889907842655037e-04,1.005514201964769665e-03,1.046906817205987784e-03,2.268547117710113525e-01
2.218545379866401768e-01,-1.619287370587224606e-03,2.222669511655294694e-01,-8.011518533547166976e-04,8.787910739101981346e-04,-3.650020337825019825e-04,2.236906886100769043e-01
2.191088510883951457e-01,-3.621861218569250029e-03,2.189992170245746439e-01,-8.625707887941384084e-04,2.479012655076991568e-05,-8.370107603303584718e-04,2.226856499910354614e-01
2.228169775959479293e-01,-3.316095371216631893e-03,2.225733338866482391e-01,-1.718093155439644627e-03,1.476687192504522921e-03,-2.286523197967061521e-03,2.260801047086715698e-01
2.204807053389151450e-01,-4.537890086369095188e-03,2.210541278693348155e-01,-4.697417828249332138e-04,1.118466408496143196e-03,-4.601420452418788468e-04,2.253170609474182129e-01
2.224488034269509473e-01,-4.756795736367280814e-04,2.224995538045677623e-01,-4.676986271202110195e-04,-1.728482584240732334e-04,1.245222309497292819e-07,2.229515314102172852e-01
1.960632177287047473e-01,1.234208077745105325e-02,2.188795831890213983e-01,1.440785097564203010e-03,-2.722715681083689998e-03,4.969052783667271544e-03,1.963884681463241577e-01
2.245581371264393777e-01,-2.057450592729381800e-03,2.286903307258336682e-01,2.349952718555987647e-04,4.494518569984596684e-05,-1.130134934396845791e-03,2.287184298038482666e-01
2.177998533357811406e-01,7.458124046790803874e-04,1.286210274938485720e-01,6.255620203149817211e-03,2.016569209783537070e-02,-1.604680436999635085e-03,1.924935877323150635e-01
2.200220498393803403e-01,-4.185485008156797360e-03,2.190531944025865818e-01,-2.017769656252154764e-04,1.466326948066890186e-04,-8.389331345504696556e-04,2.237298190593719482e-01
2.387067869538924136e-01,6.261005052134523130e-02,2.419696345167438589e-01,-4.127419590471290904e-04,1.243577282944236017e-03,-2.645723988104335439e-04,1.777656972408294678e-01
1.744323138534592532e-01,9.031377956252556460e-03,2.300906897851197619e-01,2.934657289130656720e-03,1.716749604960843571e-04,-1.975383966341010510e-03,1.992458403110504150e-01
2.273262094528645805e-01,-2.113082853401837546e-03,2.233773297620015585e-01,8.988422049569488306e-04,-2.123917172210119334e-03,-1.555009375122983449e-03,2.275415658950805664e-01
2.299265503718813108e-01,-9.640656234469746622e-04,2.254864902180749309e-01,7.806189537564089866e-04,-7.888406945731002776e-04,-4.366083503908816245e-04,2.287122458219528198e-01
2.204206822356336026e-01,-6.269370360327458647e-03,2.208727995953586598e-01,2.698917507939574412e-03,-4.346571786456794356e-04,-1.772304203892906618e-03,2.269866019487380981e-01
2.921058970291312007e-01,4.888028736736724222e-02,2.647584942576561295e-01,-7.169957539627825303e-03,2.175014804670913522e-03,1.333139944244418444e-02,2.322855740785598755e-01
2.272725437839099860e-01,-1.561262435613247623e-03,2.246690844468197112e-01,7.344027423839584456e-04,-1.459865345094530720e-03,-1.658615018973153997e-03,2.275789827108383179e-01
2.217008214217500162e-01,-5.038665712060130808e-03,2.223643879072640384e-01,2.624912865162768762e-03,-2.426545827840055137e-05,-1.864612372844511425e-03,2.271404713392257690e-01
2.277366507407197482e-01,1.809768082281976165e-03,2.240938318227443382e-01,-2.105897796944227428e-03,-1.004552379821323617e-03,5.872397896305096669e-03,2.243947535753250122e-01
2.352457866322553159e-01,2.952079646776312183e-02,2.242101944368435906e-01,-5.821284212066666665e-04,1.713613613170361823e-03,-1.548319186846189169e-03,2.004776149988174438e-01
2.229533044728077840e-01,5.565417255377902439e-04,2.270211114674403063e-01,-2.647371736192350496e-03,-4.365433748145779321e-04,2.808431144694926301e-03,2.245591133832931519e-01
2.326596299011577940e-01,2.370851882214836115e-03,2.265347312107841571e-01,-6.091356346866082976e-04,-1.704253653412127765e-04,-1.340910360124553070e-04,2.272909879684448242e-01
2.237831003214255654e-01,7.263480029454122411e-03,2.354951305249521898e-01,-1.063641716898209612e-02,1.889094880897161655e-02,6.113690333283357259e-03,2.259998619556427002e-01
2.366190206684259945e-01,2.887017544218703491e-02,2.319042746439584635e-01,1.193824450392383884e-04,-2.021220665143762772e-03,-6.739056335832220807e-05,2.054620236158370972e-01
2.354497236876787469e-01,1.856881245626129662e-02,2.360023619224012326e-01,1.196404231353578743e-03,-4.145168411593565944e-03,-7.368079873715865317e-04,2.172900438308715820e-01
2.288663365044478759e-01,6.830861796286197274e-03,2.301556384233675590e-01,2.092995548305026166e-04,-4.500720426353316088e-03,1.660790627813042535e-03,2.228381931781768799e-01
2.399225155854703417e-01,3.041885455498299917e-02,2.420146465526634150e-01,-6.121173969780465936e-04,-1.918616137563443217e-03,-2.390151333031592402e-03,2.106271088123321533e-01
1.590757667888645088e-01,1.671520217735586455e-02,2.262300118216343803e-01,-1.051062694120461372e-03,-3.883743459363495423e-03,-2.117276671357370271e-03,1.854679286479949951e-01
2.212848877845667306e-01,-1.606979298703931081e-03,2.182673510975962627e-01,2.767502065799927382e-03,-5.378518249857426408e-05,-2.153402814840390915e-03,2.214818298816680908e-01
2.383870993411618122e-01,1.802047684883753553e-02,2.307909124012304525e-01,-1.456800888507866522e-03,2.042649005455641695e-03,-6.623015738370121013e-04,2.167150229215621948e-01
2.203718515152406632e-01,-2.351494522162600465e-03,2.207919489520934198e-01,1.566411319789917612e-03,-1.486168268094791326e-03,-1.915932434967939236e-03,2.229897528886795044e-01
2.236259218000423155e-01,-3.559682350500442682e-03,2.220864529924180264e-01,2.762789364927657407e-04,-1.067075283110405356e-03,-1.120811886561200958e-03,2.264361679553985596e-01
2.213345773631757718e-01,-2.275013788409913085e-03,2.213023521219348588e-01,7.157063279339228364e-04,-9.064743429767312122e-04,-6.361308881764784866e-04,2.236051410436630249e-01
2.194076871251246785e-01,-3.482031877944352649e-03,2.200841841360697271e-01,1.530575395354673860e-03,1.213428863340754610e-04,-2.525588618029294026e-03,2.232874333858489990e-01
2.232456319851438553e-01,7.246093197410541364e-07,2.227975762758842571e-01,2.347417154220486288e-03,2.761508834807497302e-04,-1.166858043643498755e-03,2.230679392814636230e-01
2.149214066793186106e-01,2.022479465234566787e-03,2.076325472050461474e-01,4.779394420221062117e-03,1.607306131499042093e-03,-1.424494331205411512e-03,2.095463126897811890e-01
2.101767620354728361e-01,-4.054522698664436708e-03,2.086724419546640841e-01,2.822838440512499131e-03,1.150335925255365323e-03,-1.910685610979283734e-03,2.135740220546722412e-01
2.249313178834671523e-01,-1.929141913025234079e-03,2.235495410558482887e-01,3.701385533009429307e-04,2.183404022886027609e-03,9.837842822417201469e-04,2.262116819620132446e-01
2.113565449328002055e-01,-2.708223760028743987e-03,2.096304670079573995e-01,1.128148476715519315e-03,1.362127066562087742e-03,-2.238125035268323949e-03,2.132642120122909546e-01
2.106116543701178068e-01,-2.002988100547609118e-03,2.278674657821407878e-01,5.532370123087915724e-03,3.124857147048933450e-04,8.167216776999866937e-04,2.219587862491607666e-01
2.167783582112214058e-01,9.662572612316538967e-03,2.162465927571982083e-01,3.742014072713022339e-03,5.745878993782040653e-04,-2.858872508448124898e-03,2.070135623216629028e-01
2.222057042751292566e-01,-4.307767398338213649e-03,2.251314760514882274e-01,-1.234277059452711404e-03,-2.589015623633234963e-03,6.923561685303588134e-04,2.280477136373519897e-01
2.274572332700441901e-01,5.526565894191093342e-04,2.269159064250721447e-01,-2.276539644968155873e-03,-2.027691806207056711e-03,1.201110028435999674e-03,2.267054468393325806e-01
4.322044511919343468e-01,1.487369517035721789e-01,3.709721343154023243e-01,-4.992114681826771445e-04,-3.817364547829275498e-04,-4.566143241937978964e-02,2.701886892318725586e-01
2.243730971246982175e-01,1.816327572037720883e-02,1.583759626969054035e-01,1.596374343005142749e-03,5.690597914429407558e-03,-1.317394446629337461e-04,1.826847046613693237e-01
2.238729926229210965e-01,-2.722437712319891734e-03,2.248261275127239611e-01,-1.350237089803571489e-03,-1.245431882703653195e-03,4.249452313745197274e-04,2.270969748497009277e-01
2.241929976532823221e-01,-3.542981925396121445e-03,2.229846078113628116e-01,-1.444350717086795603e-03,-7.435974470438467845e-06,1.536125208182562065e-03,2.271635532379150391e-01
2.192084724725770761e-01,2.132704478222552380e-02,1.764283230130677116e-01,-1.754245199827646976e-04,4.617636179747900207e-03,-8.274676645494398344e-05,1.805156022310256958e-01
2.230912074342835116e-01,8.328762746917739435e-03,2.224769448991517629e-01,3.276211453290291380e-03,8.340428268626712228e-04,-1.867563393009027918e-03,2.145602852106094360e-01
3.740418322463449075e-01,8.218838646729950681e-02,2.124828128351736733e-01,8.157991836346313239e-03,-1.449623210614929547e-02,4.074221671784139520e-02,2.644580602645874023e-01
2.214796233777524270e-01,3.041170332855808178e-03,2.294593299645040219e-01,1.058349320338843437e-03,2.426198098939010646e-04,3.780198889440518437e-03,2.226398736238479614e-01
2.194138353480968862e-01,-2.145133702779522533e-03,2.194553508061935498e-01,6.885184689044539447e-04,-1.470010670581506286e-04,-3.809214513381255045e-04,2.215840667486190796e-01
2.136525417792926040e-01,1.352251453083652688e-03,2.171193209762901921e-01,1.998916825951737447e-03,2.119934660366819300e-04,-2.129358805284860528e-03,2.141148149967193604e-01
2.342029144051420153e-01,5.572650079797893119e-02,2.360391017650291523e-01,3.471752163040930407e-04,-4.125538314123947873e-04,9.749579777707116559e-04,1.794119328260421753e-01
2.314310602807813644e-01,5.999718188327507473e-03,1.540363305050834186e-01,-1.593149706745176572e-03,2.388299159225018998e-03,9.944862571349006794e-03,1.992070823907852173e-01
2.193693001334016679e-01,1.044824483876022336e-03,2.184348553070015742e-01,1.326725847384895929e-03,-1.053480973184287961e-04,-2.031123949196207007e-03,2.178993523120880127e-01
2.169853195069957330e-01,-1.483289227219491968e-03,2.163250173905031104e-01,1.115033956757994311e-03,-8.829473635597479822e-04,3.005836539028129001e-03,2.182152271270751953e-01
2.252067882055496517e-01,-1.216850603137337172e-03,2.273745042309101017e-01,8.257963789091121547e-04,-9.481934126881799143e-04,-6.044580315978404384e-04,2.275280803442001343e-01
2.056875726182590403e-01,2.615076823902412473e-03,2.071777446557546698e-01,1.013029596059456276e-03,8.818899118191963864e-04,-2.159905657108643698e-03,2.038692682981491089e-01
2.162058282392081698e-01,2.252030778326596927e-02,2.141499171758235454e-01,4.753883414317036822e-03,3.526624318859032832e-03,-4.237385794312264163e-03,1.930779218673706055e-01
2.250208837996152123e-01,9.063655011609300649e-03,1.545369308339858416e-01,4.423771726350347227e-04,6.624966606943912158e-03,-1.381668046726935647e-03,1.911072432994842529e-01
2.026423473694302924e-01,1.204535919397772825e-02,2.041485448656765733e-01,1.073399242107180278e-03,8.296932087790069403e-04,-2.307555644503465116e-03,1.914106905460357666e-01
2.243365297050863294e-01,1.684255478262317030e-02,1.682646090831557695e-01,2.770605806344076782e-03,1.369123941189970620e-02,-3.475721291510444882e-03,1.875762343406677246e-01
2.221994749301013372e-01,-3.357099041395472661e-03,2.218370750383125145e-01,-4.632320867128682761e-04,-1.182380413154316768e-03,7.760974156064184273e-04,2.253903299570083618e-01
2.085423538769933249e-01,9.915363926159631580e-03,2.046283100500276841e-01,3.893808631765723408e-03,2.418603299598219136e-03,-1.378673058238346835e-03,1.968738287687301636e-01
2.235348325986080686e-01,4.611982567526234922e-03,2.296748544360605604e-01,5.955324863296905004e-03,1.083440425712388919e-03,1.967365382621583288e-03,2.223300188779830933e-01
1.851442675187235376e-01,8.785323869807709629e-03,2.083065845389283910e-01,4.199563365589801395e-03,-5.271680628719633589e-03,5.339152297883321095e-03,1.895933896303176880e-01
2.209921270091225742e-01,1.800778370157901653e-02,2.282125206577332865e-01,-9.301770911004121753e-04,-3.597764552085050676e-03,1.076863813651723640e-03,2.067977488040924072e-01
1.945393157444963439e-01,2.762857266183554872e-03,2.101249288227067524e-01,5.667846636077191608e-03,-9.384757559546021144e-03,6.218548514931404765e-03,2.012130171060562134e-01
1.917861050461480421e-01,1.159013169449724101e-02,2.267254981411096493e-01,1.519796059284984164e-03,-4.709085466951520860e-03,4.876604707337146849e-03,2.003299444913864136e-01
1.970151465217070963e-01,7.228145181536416164e-03,2.267207007489416837e-01,4.577683372287462936e-03,-2.591330634368449893e-03,4.448759294362218675e-03,2.065953463315963745e-01
2.042023714020499980e-01,6.020516882145748871e-03,2.224447916293300631e-01,9.379446552404812482e-03,-9.567725333134958002e-03,7.001264368540287795e-03,2.095465362071990967e-01
2.389854865141367024e-01,5.691425808525325813e-02,2.340709580584735550e-01,3.467911826266235073e-04,1.640445191490660697e-06,9.738795116821256839e-04,1.796732991933822632e-01
2.079389423113803259e-01,1.909562506912548807e-02,1.972085348703180308e-01,4.529601648327862278e-04,1.557449756141401735e-02,2.640407694472966219e-04,1.856854707002639771e-01
2.317320336674882908e-01,2.537734967398169728e-02,2.225270779206037219e-01,-2.135695692321697321e-03,-2.911433119139772430e-03,1.223171885323196375e-03,2.020175755023956299e-01
2.372676226741524674e-01,2.919709590866606530e-02,2.379208316374996635e-01,-1.643541728987069376e-03,-3.680160934963546283e-03,7.913567463306596036e-04,2.085192948579788208e-01
1.740899455120270556e-01,1.506639595841971491e-02,2.294781532426196369e-01,5.099089061010219671e-03,-2.552997511946696052e-02,2.760821681508853799e-03,1.980418562889099121e-01
2.112456066874846550e-01,1.867469516479233760e-02,1.968505986319382117e-01,-2.615979317667088862e-03,-1.486022864968178717e-02,-2.318391217120757946e-03,1.876641809940338135e-01
1.802364317855465192e-01,2.668192019678282401e-02,2.334477988901426104e-01,3.346119377886138660e-04,1.479901484880753737e-02,3.117728052965454237e-03,1.877972632646560669e-01
2.165943103028681316e-01,6.109576088316859277e-03,2.139818560369907141e-01,-5.752885390607206202e-04,7.476742653341036850e-04,2.406972238233743341e-04,2.091975361108779907e-01
1.910409785729566545e-01,-2.547461617712609705e-02,1.304462927031156960e-01,2.785184473590280110e-02,-4.687521347170400116e-02,3.482465226178850515e-02,2.235806882381439209e-01
2.052264788881704716e-01,6.999833082263914874e-03,1.570450873814999704e-01,-1.849136746941192630e-03,-1.354743087780323901e-02,-1.671685569222726257e-03,1.806478798389434814e-01
2.100090630460211272e-01,3.268086748256653074e-02,2.199568531628690593e-01,-3.857300946878795996e-03,-1.331761367777909051e-02,-3.717073020945459768e-03,1.841913014650344849e-01
2.084525964434923995e-01,1.852754426534122811e-02,1.956753970523878450e-01,1.221152458510216948e-02,-1.376081925501550403e-02,7.689715746995416656e-03,1.870853006839752197e-01
1.336452679461714033e-01,-3.380488659815597541e-02,1.730550370052490183e-01,-2.131202264006892833e-02,6.767723707055708915e-02,2.536296432849455967e-02,2.307052910327911377e-01
2.054752043400723815e-01,1.242725804150410229e-02,1.902384670565828995e-01,3.230353268333127029e-03,-8.434401406685037433e-03,3.086679658956370531e-03,1.866321265697479248e-01
2.309144795580319598e-01,1.813190134327680170e-03,2.253999287362245252e-01,-3.277282552786433666e-03,2.171849831399541228e-03,1.317711297753906927e-04,2.264969050884246826e-01
2.332717200910292554e-01,1.536772056891405613e-02,2.397881000598685586e-01,-4.417721199437468597e-03,1.130086446536738990e-03,-3.328505118372142649e-03,2.214501649141311646e-01
2.014935896611217414e-01,1.341639726796640952e-02,2.001903224196958098e-01,6.483134827335436477e-04,6.190247883181699932e-04,-5.208464727801522063e-04,1.874375641345977783e-01
2.304171099594984062e-01,-1.616816248955210700e-04,2.253538507839779603e-01,-3.664569455699733165e-04,-1.052290386138485603e-04,1.885098385505853133e-04,2.280905097723007202e-01
2.338180989337106386e-01,3.695745196521965648e-03,2.309111486596412965e-01,1.650426865052837498e-03,7.050629110331159237e-04,8.364817444110327375e-04,2.287084460258483887e-01
2.315648635000587263e-01,2.171652308496224704e-03,2.254758017861995256e-01,6.484117673879955922e-04,3.108825404529834066e-03,1.500141305970991139e-03,2.264918088912963867e-01
2.261945109323318381e-01,-1.615191202177929108e-03,2.254247039258565066e-01,1.843263233254622798e-03,8.883611943796534873e-04,2.230789789931772286e-03,2.274862080812454224e-01
2.289957496740430143e-01,-2.481164837492000341e-04,2.247265223129294442e-01,3.090163180792146707e-04,-3.097884574205802773e-04,-8.697201411417058677e-05,2.271406650543212891e-01
2.283073780162293009e-01,-8.731418321002992755e-04,2.252970869097876971e-01,1.157824325030520496e-05,7.828813086645249573e-04,5.831970531245659782e-04,2.276965826749801636e-01
2.194362221425655568e-01,1.216077413736194046e-03,2.234362668085172476e-01,3.999502522277751152e-04,1.781842324982735770e-04,3.775534411265811432e-03,2.203457802534103394e-01
2.311937467993214756e-01,1.006125815574743232e-03,2.243829314855997903e-01,-6.756577654466738988e-04,1.203721974775849276e-03,2.833729704276020424e-05,2.268715053796768188e-01
2.307993034941365762e-01,-4.172252445671681409e-03,1.658590187237304336e-01,-2.338201388397687531e-03,4.743947087313279964e-03,1.110925720199768159e-02,2.112437337636947632e-01
2.222810369924939633e-01,-1.028306808945056439e-04,2.223552129636858776e-01,1.069377788965638091e-03,-6.385808605304963900e-05,-7.509503054143131006e-04,2.224325090646743774e-01
2.203151587030042213e-01,-1.424999147654010256e-03,2.212899304556906199e-01,9.676183343930124707e-04,-3.341535153528990380e-04,-7.613707004389915671e-04,2.222401350736618042e-01
2.190311733915279169e-01,-2.825080380939842817e-03,2.193890523383424940e-01,8.833954800071280476e-04,4.355276060690892355e-05,-5.964445633486950690e-04,2.220430970191955566e-01
2.211873107545900274e-01,-5.375087583904258892e-04,2.306860261664902545e-01,3.715902741996079364e-04,-2.141744639156801817e-03,4.472545542686471036e-04,2.266561239957809448e-01
2.195654006829732829e-01,-2.530547512351599693e-03,2.195342991147922751e-01,7.133802188749678499e-04,1.486426416015414447e-04,-7.660567221763341268e-04,2.220879495143890381e-01
1.340211152226398195e-01,1.998563890080155836e-02,2.794868541662461903e-01,4.547842658972343910e-02,-1.672009170183319385e-03,2.185795500027062216e-02,2.416592389345169067e-01
2.212178658118265084e-01,-1.435475887521020510e-03,2.203058474252596044e-01,1.062043615363829699e-03,1.480659610391391275e-05,-9.369488879721405350e-04,2.222122848033905029e-01
2.044853326809252247e-01,1.493281221251729907e-02,2.061444842978011893e-01,7.982824889108771542e-04,-1.227063278569233027e-03,2.092193615753135984e-03,1.904388815164566040e-01
2.022608289237625701e-01,1.651318806351682877e-02,2.036213468149490891e-01,-7.098793270963641489e-06,5.203491815735922362e-04,-4.612802363824930084e-04,1.864355206489562988e-01
2.015245349322335455e-01,1.200739801970096554e-02,1.992760468717694466e-01,-2.065775574217242928e-03,2.336586204552486799e-03,1.129089835358208175e-03,1.884905248880386353e-01
2.045076295700007096e-01,8.970261264283713176e-03,2.036420555733605697e-01,1.112323473355512687e-03,8.594725874234293572e-05,8.053032348617218108e-04,1.951205730438232422e-01
2.054536617771370588e-01,1.510913161532884130e-02,2.064515480837663119e-01,-3.690872188699608229e-04,2.645431682694911733e-04,1.044291693486830820e-03,1.908556222915649414e-01
2.230717706291752145e-01,-2.781611486796481403e-03,2.224068205744206272e-01,3.468396630817793618e-04,5.299839079248836425e-04,2.916400665130840144e-04,2.255248725414276123e-01
2.290521389853149015e-01,1.511571984291762427e-02,2.345374715235032381e-01,8.401260982301046731e-04,3.201142808665279841e-03,1.217682672006789504e-03,2.168172001838684082e-01
2.002629612403707404e-01,1.091388197399850712e-02,1.966710249506381791e-01,-1.091177465483199544e-03,3.517749576492310189e-03,7.129626346507048551e-04,1.876914203166961670e-01
2.378836505864138640e-01,-1.704275159124939154e-02,7.124793327121939357e-02,-4.145251509650960293e-03,-6.209351892359245978e-02,-1.952938178705540193e-02,2.510729730129241943e-01
2.744199120934666114e-01,3.142829917293869790e-02,1.380774443452517097e-01,-4.488208428752241651e-03,-2.209255699250264188e-02,-1.669980498554605747e-03,2.145627140998840332e-01
2.053289272098688389e-01,-2.771335216009973568e-04,1.547534589213160339e-01,7.776038589590855178e-03,-1.576995752106190654e-02,3.976520673636982015e-03,1.881701946258544922e-01
2.424224075896629360e-01,2.445157726996491365e-02,1.702274027585437000e-01,1.185699673374245380e-03,-1.234397780529027273e-02,-3.528697796624459884e-03,1.936122179031372070e-01
2.145170841497342495e-01,6.683425934027903415e-03,1.766954869692964059e-01,7.274693463516948393e-03,-1.347094396183714897e-02,2.419176938577315573e-03,1.936115175485610962e-01
2.229240412525402004e-01,-3.652417284190107027e-03,2.285484265514843294e-01,2.137014369644354799e-04,-3.667435012811857725e-04,-2.292443732427788903e-04,2.294418811798095703e-01
2.938386137998033609e-01,8.073290269372765393e-02,2.903077267632800940e-01,-7.620026181807247438e-03,6.518748605465001476e-03,-3.300022430775319607e-03,2.121518403291702271e-01
2.219710751161591000e-01,-2.173586081530870517e-03,2.198903155960720834e-01,3.551205207758078089e-03,3.243313485586565696e-04,6.750623700410421152e-04,2.232000976800918579e-01
2.273523870692769899e-01,1.807528959573799499e-02,1.775731847513369877e-01,2.990096101945628401e-03,-6.292490412489727680e-03,2.202368030501761394e-03,1.897824704647064209e-01
8.729622761555555499e-02,3.434313012450465608e-03,2.435159962517150500e-01,2.762446824398620548e-03,-2.119068981421012594e-03,-4.699592266121225582e-03,2.112840414047241211e-01
2.269916555660802526e-01,9.134328244139316988e-03,1.374951836186035226e-01,-6.619700995666543254e-05,-1.742910887178121537e-02,-1.615307247354163265e-03,1.920758485794067383e-01
2.453672374414667678e-01,4.944319315546008564e-03,1.003232280980919655e-01,1.979401586531498274e-03,2.766652510473654753e-03,8.576107638789975257e-03,2.102959901094436646e-01
2.319730857636020938e-01,2.557112417307522145e-03,2.283636381588534658e-01,-1.867414833589873960e-03,-1.943334150364884293e-03,7.883838740172327509e-04,2.276846617460250854e-01
2.381712705669886132e-01,1.067674172364295460e-02,1.307466530365010704e-01,-1.068008003179433344e-03,-4.239056497854274894e-03,-4.851120667236009010e-05,1.972628533840179443e-01
1.671252313307549642e-01,5.876287124695289688e-03,2.229924866398798888e-01,-8.627056046191142191e-03,-5.207880104228132002e-03,-6.627411987059977742e-03,1.963856369256973267e-01
2.406078437144916204e-01,1.398751855508298392e-02,1.370366974819215433e-01,-3.537339936878462093e-04,-4.357831307744176874e-03,4.079512539059914310e-03,1.967732310295104980e-01
2.407140913654213232e-01,1.706893271033409210e-02,1.419351730874092166e-01,-1.253738046898631581e-04,-2.943676254796025529e-03,1.344492477766155063e-03,1.942021399736404419e-01
2.375479167353928278e-01,5.298885375347715809e-02,2.376132132360776195e-01,-1.780193846995319323e-04,-2.640140126223621637e-04,1.729305261632359324e-04,1.845927834510803223e-01
2.019579114101051065e-01,1.475338728103664510e-02,2.025515406622570569e-01,3.095269545898159027e-04,3.121248807359736218e-04,5.282954090603242652e-04,1.875058263540267944e-01
2.088149501150782239e-01,2.034421018200233133e-02,2.103295203206282660e-01,2.411008319136713225e-03,5.799325458963767305e-03,-1.221621445942254035e-03,1.895567923784255981e-01
2.035316154968079272e-01,1.217359016814867356e-02,2.054492667393588712e-01,4.308896504451547693e-04,7.868297828043221889e-04,-1.498996468704103142e-03,1.923478245735168457e-01
1.988286691731135369e-01,7.606925906629508072e-03,1.928079249459019595e-01,2.566358527228051068e-03,4.513635508097375154e-03,-6.604513085412111852e-04,1.885017007589340210e-01
2.101073748599527891e-01,4.449143947035966162e-03,2.110243791681230552e-01,4.521570803070166719e-03,2.390087186700280177e-03,-3.641101967020584588e-03,2.064048945903778076e-01
2.250489734396690922e-01,-8.733269064818138805e-04,2.248661497672376774e-01,4.230032367282861999e-04,-2.660662642112061708e-03,-5.674408660455246842e-04,2.258812934160232544e-01
2.147850066946356551e-01,1.652357432678192017e-03,2.156912595785090980e-01,7.380871479268167473e-04,4.198352431534006475e-04,-1.474740429048406170e-03,2.136075496673583984e-01
2.097530376036531030e-01,1.645712642557112249e-03,2.112477653084628426e-01,1.287256882322401633e-03,1.001337944112026986e-03,-2.905953217367269765e-03,2.089384347200393677e-01
2.251956548491714227e-01,-1.512584411689776864e-04,2.309570137320050565e-01,-2.055119889108684137e-04,-1.474951714306173517e-04,4.550065915505475196e-04,2.282839119434356689e-01
2.095654790541859325e-01,7.033450369680727121e-03,2.127484208889598438e-01,1.431686860329757678e-03,-1.557271151547243062e-04,-2.952287216728204881e-03,2.042213827371597290e-01
2.166545110130856377e-01,-1.169273377366131239e-02,2.021938589577099432e-01,6.551581966166800542e-04,-9.389591982161801028e-05,4.765689964598173074e-03,2.216280102729797363e-01
2.224236765777484748e-01,-4.501136199164174068e-03,1.775594823550771806e-01,1.563750517992525211e-03,-7.375896897598271376e-04,8.337316072014008470e-03,2.086728811264038086e-01
2.258906863135108634e-01,-1.037850498907005869e-03,2.244690933941784206e-01,-4.382867394687944905e-04,-3.148742485058800256e-04,7.908957388935080202e-04,2.262271642684936523e-01
2.090082645127622207e-01,1.487771250943625834e-02,1.973323735615548913e-01,-1.357924832364149764e-03,2.246826230057888917e-03,5.759651045216745242e-04,1.886213719844818115e-01
2.245711838712964870e-01,-1.728788352034327236e-03,2.275534826710831071e-01,-6.626078277929001517e-04,-2.629821709391842646e-03,9.147495994293802302e-04,2.278596907854080200e-01
2.249102520665164362e-01,-1.051526627616039544e-03,2.281708767159300044e-01,-7.604464021193275448e-04,-9.076549833564718063e-04,2.138426516470216048e-05,2.276188582181930542e-01
2.243207568058768753e-01,-1.323112562781170176e-03,2.258858351934930897e-01,-1.150350169253421895e-03,-1.251114819754552002e-03,1.041828320917022218e-04,2.264496684074401855e-01
2.241065598644007562e-01,-1.943964783573448596e-03,2.276503900059833885e-01,-5.267431025755505737e-04,-2.202346004063966169e-03,5.918132947988352524e-04,2.278791666030883789e-01
2.262865576438509718e-01,5.969356420105209615e-04,2.299037937446928304e-01,6.765751801662109495e-04,2.878043494989899611e-05,-5.068084454482004646e-05,2.275228500366210938e-01
2.245051772434569215e-01,-4.869558474751012334e-04,2.300021492983106430e-01,-7.313046768421968763e-04,-1.513041724183370948e-03,1.725176565017015303e-03,2.278285622596740723e-01
2.215511437671832118e-01,-5.575939128744572537e-03,2.222454997964546097e-01,-1.379140099250290765e-03,-5.888567231282882753e-04,2.355943261575641455e-03,2.275264859199523926e-01
2.230847992356814469e-01,-2.571439481649284708e-03,2.240351847943143071e-01,9.975853723600744665e-04,6.921910909207044374e-04,2.797490724163835801e-04,2.261432260274887085e-01
2.290164027822432780e-01,2.217080354483591531e-03,2.285850421015658274e-01,8.193093312792451913e-04,4.668017910848679466e-03,7.519934849006716529e-04,2.267363369464874268e-01
2.253919166980383748e-01,-1.099566711328964219e-03,2.245696039396105625e-01,9.910978789131144086e-04,3.490585512532460525e-03,9.898849078608825108e-04,2.261752933263778687e-01
2.249062693412126335e-01,-9.927547079688070486e-04,2.286136336878197284e-01,-6.150504005394392775e-05,2.884104603873773216e-04,2.401303164991048307e-04,2.277762889862060547e-01
2.243705929118529063e-01,1.353276510601686411e-04,2.307985214700987719e-01,-2.660565667772733095e-04,-1.178828268266419099e-03,-4.634194482316389961e-04,2.275283783674240112e-01
2.177648482446169487e-01,-4.539894609613043253e-03,2.203570200998982986e-01,-2.827391612779541364e-03,-1.151724771864913368e-03,2.077765433950998913e-03,2.237035632133483887e-01
2.282104079742182101e-01,-1.456559885728181403e-03,2.242087690763758245e-01,-1.295324150876272129e-04,-1.734877478178323664e-03,3.712857569807772218e-04,2.277133613824844360e-01
2.281423695671984386e-01,1.451684011536361063e-02,2.340526595394950837e-01,7.811425892449234401e-04,2.015859519709748814e-03,8.894880288899534911e-04,2.166789919137954712e-01
2.240321562050952842e-01,-3.495784371642413069e-03,1.823749438330677097e-01,9.552515064572685011e-03,-1.937913369793167404e-02,2.081906799862303856e-02,2.161638587713241577e-01
2.247996228732492274e-01,5.029809305679505682e-03,2.277151741157337206e-01,-4.098925848968962629e-03,-1.321847707283147757e-03,4.039065705034382107e-03,2.214782387018203735e-01
2.009135228646098392e-01,-8.516707624093095008e-03,2.174921702825749203e-01,-8.741624789806940257e-03,2.708394128311924273e-03,5.669505597093791975e-03,2.189877331256866455e-01
2.293635326456061607e-01,4.886167761671000864e-04,2.268676722920036637e-01,-1.184888344443845234e-03,-1.329948778793755030e-03,1.972849934361237730e-03,2.276837974786758423e-01
2.176446774044381860e-01,-3.131254948495282298e-02,1.277215316888532515e-01,2.085291915611970151e-02,5.009881266485890355e-02,-4.058827950505997095e-02,2.479017674922943115e-01
1.975416403941656074e-01,-4.551070008965579783e-02,1.158873845579429240e-01,2.794339492489473012e-02,4.965962778650513665e-02,-4.083157348343540577e-02,2.462478131055831909e-01
2.514818586638065678e-01,3.669691500989036292e-02,2.365252133785342992e-01,-1.345355880197343570e-04,-3.348533843073181904e-03,-3.322714652933321175e-03,2.078716605901718140e-01
2.683067154226695950e-01,3.708245919122168943e-02,2.514890879390669909e-01,1.193225626913582520e-02,2.032162055856591432e-02,-2.203143877446797974e-02,2.301761060953140259e-01
1.988359813616806526e-01,3.632230410045039770e-03,2.315082953325550696e-01,1.999477036892938295e-03,-1.162897226726460282e-03,1.770065538392417591e-03,2.134834676980972290e-01
2.214328448617850498e-01,2.927374808287058761e-03,2.282568603895740456e-01,-1.203383709886982024e-03,-5.280246931205642702e-03,1.729696139350019339e-03,2.222144305706024170e-01
2.234589941420651038e-01,-4.365824780384497394e-03,2.241488389933968817e-01,-9.172106354217926657e-04,-3.269743251023046835e-03,1.329982241325912331e-03,2.282579541206359863e-01
2.317695560819257317e-01,4.489045683404552234e-03,2.291972663367610186e-01,-1.757497882130161894e-03,-4.632349517911250360e-03,1.961368434145928635e-03,2.261937260627746582e-01
1.415079168935814702e-01,1.151335887245778788e-02,2.544553912650229233e-01,-2.204059492497253622e-02,-1.950637140753696055e-02,-2.843918903837151357e-03,2.167057842016220093e-01
2.220094156609020430e-01,-5.359610816461746197e-03,2.236278015599880153e-01,6.968144299042122996e-04,1.906984344811093112e-03,2.258148784707952829e-04,2.282099574804306030e-01
2.228798394861377652e-01,-3.854381018053021357e-03,2.251267453497790283e-01,5.201055980223618096e-05,-2.759422184524532788e-04,-1.710167050981421842e-03,2.278857529163360596e-01
2.187302654174973215e-01,-4.549862074556321190e-03,2.189092354454527101e-01,-2.802777816228986529e-03,-8.102429591069143034e-04,-2.363137052702718888e-03,2.234643101692199707e-01
2.233395655272779612e-01,-2.153197205748413889e-03,2.233586079786087641e-01,-1.159739684020812773e-03,1.528986394322542040e-03,-3.668584050686481829e-04,2.255276739597320557e-01
2.281954392275712118e-01,3.309235393746390308e-03,2.300649364316509904e-01,-1.766496823635212978e-03,-5.053442841232902785e-03,1.968343660787796878e-03,2.260427474975585938e-01
2.294196023321990463e-01,1.156010619798308880e-04,2.253092635312270164e-01,-1.412519283038927466e-03,-1.996809808382904450e-03,1.233381245797975046e-03,2.273262292146682739e-01
2.259940315991581239e-01,1.912617440241617950e-02,2.326625461977626652e-01,-1.083126335322148097e-03,-3.164280397620142325e-03,-1.887470854671258495e-03,2.103866040706634521e-01
2.117841083502659538e-01,3.401962907659428215e-03,2.104397372989573189e-01,2.730586952887048037e-03,-5.918371200215907617e-04,8.523262575731847162e-04,2.077748328447341919e-01
2.388694143089090116e-01,1.897285553425079319e-02,2.324931721401069518e-01,-1.249524362824039380e-03,-1.064990953274304797e-03,8.441802085924059466e-05,2.167974859476089478e-01
2.207680540842668071e-01,-3.655207928334125445e-03,2.211922370173839136e-01,-7.958550822234689622e-04,3.689257831236888714e-04,-1.471160350052316292e-04,2.246409356594085693e-01
2.215105136205374470e-01,-5.070124266913361710e-03,2.211591424558264629e-01,-5.559312605578271187e-04,1.230306641982862508e-03,-7.746213165064707402e-04,2.264212071895599365e-01
2.219003850250931276e-01,-5.001659337290326190e-03,2.212661417479147019e-01,-6.941861706391311455e-04,-1.268810835328242331e-03,1.260267817415574709e-03,2.266099452972412109e-01
2.235966523297730491e-01,-2.076157879464968214e-03,2.231507072937483627e-01,-1.208954590291844849e-03,-1.494422899504576100e-03,3.744801562944664159e-04,2.254756838083267212e-01
2.266032011683812297e-01,3.377100447762182434e-03,2.342457818008223391e-01,-9.396308580671567713e-05,-7.484070237370044195e-04,3.512999277662740287e-04,2.271484136581420898e-01
2.276053421095347307e-01,5.808429212880078518e-03,2.260687605131866396e-01,-3.302945028837993898e-03,-3.085816783669205390e-03,3.720266905524967360e-03,2.212650924921035767e-01
2.289782516339830820e-01,8.012708780584076873e-03,2.323873126692275748e-01,-9.803322645528967250e-04,-3.467825073746891307e-03,1.727182291302848663e-03,2.227971851825714111e-01
2.346526242283769326e-01,8.301030959546845667e-03,2.363407904772628076e-01,6.957734725321377753e-04,2.201559440672751396e-03,1.418628840890664945e-03,2.272488623857498169e-01
2.275871347772076558e-01,1.857975162580016715e-03,2.255985664565381688e-01,-3.686744946820481872e-03,2.076781881820611089e-03,4.603509713492467785e-03,2.250022739171981812e-01
1.394151994376141290e-01,3.053892925965165372e-02,3.215641809365033521e-01,-1.701149494263338655e-02,-4.214820624923171916e-02,2.827993786421033329e-03,2.666187882423400879e-01
2.280770030298695794e-01,-1.223253010973462951e-02,2.648095790434972230e-01,-3.118686841594054196e-02,7.521186140322553074e-03,6.959833320455134989e-03,2.667546272277832031e-01
2.447271959219278759e-01,-2.541839228042830356e-02,2.310533620187963377e-01,-1.934865594890788562e-02,1.805769690945576182e-03,2.509514497641134739e-02,2.692468762397766113e-01
1.600776416823660453e-01,2.686938177482040002e-02,2.842163113985907152e-01,-2.049437756204440519e-02,-4.966025534644009400e-03,5.952603309197591680e-04,2.258899062871932983e-01
2.132653276709939316e-01,-4.050705160805664895e-02,1.914104666612415628e-01,-3.525435942975788106e-02,2.107317302309173745e-02,4.428015634291461444e-02,2.650941908359527588e-01
2.203332370214572677e-01,-3.110811431715071462e-03,2.216082391411926533e-01,-1.580268586121878586e-03,1.092249880005489483e-03,-2.384608539843266310e-03,2.241470217704772949e-01
1.900892403547166098e-01,-1.521765538173217025e-02,2.161635153376668672e-01,-1.224604841528272384e-02,2.259416561166410417e-03,1.434143188564096982e-03,2.205796837806701660e-01
2.108868822010021571e-01,-2.323239492411477425e-03,2.256906587837469447e-01,-5.939436332128611266e-03,-9.474343296885696670e-04,-5.067272704348242326e-03,2.214036583900451660e-01
2.217794349235508999e-01,-4.662882266376344731e-04,2.261457424998202514e-01,-1.910371540916443590e-04,3.780815354426700749e-04,-1.428714412583637810e-03,2.244755625724792480e-01
2.303774952444306023e-01,-6.498957738557131769e-05,2.250177157303480668e-01,-3.459235477574242588e-04,-1.451526983325560701e-04,1.163801220557678708e-04,2.278109043836593628e-01
2.241706255993215213e-01,-2.453949031663016367e-03,2.229324384693233962e-01,-3.772674023277963274e-04,-8.201679010011868635e-04,8.345047116935397314e-04,2.260180562734603882e-01
2.396663087092832656e-01,3.597413875183616550e-02,2.433617214668487572e-01,-1.685465671142689524e-03,1.172618080393153560e-03,2.611880863926504572e-03,2.056453227996826172e-01
2.418020456798352091e-01,4.229066322828059499e-02,2.430214805741540696e-01,4.531758252918728701e-04,5.886872570275196665e-04,-2.514780742104759034e-03,2.001754194498062134e-01
2.474712801442829901e-01,4.817513668131900850e-02,2.621919529457799047e-01,-2.530128606611777389e-04,1.424658946317395626e-03,-8.044100538624544480e-03,2.075327187776565552e-01
2.246144972006765550e-01,1.241419556025635806e-04,2.311962920673297228e-01,8.067407403059244364e-04,3.116128526841497205e-03,4.425119785961817691e-04,2.279220521450042725e-01
2.290546772951782828e-01,5.722158772692942375e-03,2.216891516195969580e-01,4.580066318267947412e-03,1.945749014370307117e-03,4.229200226021459161e-03,2.200332880020141602e-01
2.185208455066139366e-01,6.863895764241401132e-04,2.134967564472589618e-01,3.342849042463424871e-03,-8.198767922667017692e-04,1.498509884093744476e-03,2.154645025730133057e-01
2.838630766207708156e-01,5.485620339092517339e-02,2.799139977152765857e-01,2.471136684668225839e-03,-1.140073567159028637e-03,-1.514379954706879900e-03,2.271221578121185303e-01
2.657680553681966429e-01,5.171340189775414098e-02,2.597441021390604066e-01,-1.827429791607450586e-03,1.167959818836052273e-02,-3.405121146695354751e-03,2.121798098087310791e-01
2.214354690289283001e-01,-4.524044515408554012e-03,2.216996525337684432e-01,6.874717184968075602e-04,1.116458776155938859e-03,5.780090699358691499e-04,2.261053472757339478e-01
2.532137440440519471e-01,6.430279726942150775e-02,2.546525813273247119e-01,-5.203408697670165424e-04,2.151151110847404190e-03,4.271601420074336297e-03,1.898174434900283813e-01
2.352005811494269905e-01,2.630660005577062366e-02,2.309315140291867685e-01,2.348277658651563501e-02,-4.011601789850697403e-02,2.019076628935810580e-02,2.246516048908233643e-01
2.209658053380654241e-01,-5.176767340481780444e-04,2.312255321819124410e-01,1.056067399618080323e-03,6.965606435613671057e-04,7.367344438571516189e-04,2.268016487360000610e-01
1.949124945958796706e-01,1.042979597033028005e-02,2.157711551993804489e-01,1.145438446460069447e-02,-1.119191179199769196e-02,1.176988592323219632e-02,1.987510770559310913e-01
2.121884593734615909e-01,8.430546967372415379e-03,2.070757545985288939e-01,2.463630901462834921e-02,-2.683208684077040274e-02,1.557493840393292354e-02,2.126267552375793457e-01
2.183762040963383444e-01,1.929298132394448306e-02,1.801547143621378133e-01,1.909215101731259398e-03,-6.651531941078338110e-03,1.591560271536795329e-03,1.834039688110351562e-01
2.258000215061821414e-01,2.068975489990937389e-03,2.323118614225992973e-01,5.482972011992332710e-04,1.613846726782740488e-03,9.081983510162237178e-04,2.270816564559936523e-01
2.078138344455510711e-01,5.745234307647145711e-03,2.080386647812545453e-01,4.430707250870672201e-03,-2.638758427763942486e-03,5.099303007153130861e-03,2.025709599256515503e-01
2.167964184255743998e-01,1.361411508251703095e-02,1.849588548779252384e-01,5.357546929344426424e-03,-3.830224708086445509e-03,3.609756764506341035e-03,1.897289156913757324e-01
2.058246553250132616e-01,6.693068268810720145e-03,1.822954817518879500e-01,7.496479323595334025e-03,-5.652325356527591015e-03,4.433723883746894766e-03,1.893278062343597412e-01
2.228668917544029404e-01,-3.339041208008763917e-03,2.273346703898958265e-01,-5.328955440630661101e-04,-3.707079392551753966e-03,9.995706866113879437e-04,2.285712212324142456e-01
1.616821782862499224e-01,2.748640798337567692e-02,2.492938980888191602e-01,-6.237895817208740810e-04,1.812855547602177297e-03,1.387749513241123833e-03,1.935413181781768799e-01
2.422576088937870020e-01,9.642652441454707679e-03,1.690323060318960069e-01,3.065245997481424144e-03,2.835302447150608255e-03,-6.964712988475016972e-04,2.061361670494079590e-01
2.103707096801420151e-01,2.426047562785804690e-03,1.977770679795778641e-01,5.416724990632205104e-03,-3.703976846144824663e-03,2.393092715438296155e-03,2.023046314716339111e-01
2.249528056220470584e-01,-1.827277693978723860e-03,2.284793254213789426e-01,-8.105218384207278377e-04,-2.360674188914924608e-03,8.583316626808857978e-04,2.286094576120376587e-01
2.245364226123550688e-01,-1.215293669783124031e-03,2.293772527783249360e-01,6.545526811668530426e-04,1.220573182499933755e-03,4.665236447466197464e-04,2.282246798276901245e-01
1.932633099316060921e-01,4.055475045090212172e-03,1.920006299488485613e-01,-3.194194819442006030e-03,5.452557287968099256e-03,1.223356176302067442e-03,1.889089196920394897e-01
2.049673236146613009e-01,1.576806080586282133e-02,2.101421784203273413e-01,-3.186801375528523599e-03,7.304184870989757772e-03,3.152122990728396714e-03,1.924124360084533691e-01
2.107291245436804794e-01,4.698712444941244293e-03,1.849969391749899383e-01,-7.561233340329621792e-03,4.962157236844544003e-03,3.806343517910443924e-03,1.951868683099746704e-01
2.012575422636252997e-01,1.269953419476624323e-02,2.044611334330080354e-01,-2.989533137410753296e-03,8.804200955833842504e-03,2.317812113876646218e-03,1.909029036760330200e-01
2.240608591195767385e-01,-3.663133992346218060e-03,2.229609297025991477e-01,1.580370646241350359e-03,3.233677512031025259e-05,-5.494120447884257800e-04,2.271945178508758545e-01
2.280574551722185928e-01,-2.607173671848039831e-03,2.231307210342919345e-01,3.425677514755433068e-05,-7.296201359168874969e-04,-5.024555663351964714e-04,2.282463163137435913e-01
2.232309228248898214e-01,-2.012250347258798255e-03,2.224987980208032179e-01,-2.574617365569483070e-03,2.004860111606243905e-04,8.210870287074104393e-04,2.249269783496856689e-01
2.233074740665344782e-01,-3.717600394305659028e-03,2.236471033168103140e-01,2.003613605080776724e-03,3.933456155293553323e-05,-9.647877847959641538e-04,2.272277325391769409e-01
2.261228611632905006e-01,1.966806877604920789e-04,2.321888934358568302e-01,-6.217773160990286863e-04,-2.442506629470438985e-03,5.808617892714715378e-04,2.290632724761962891e-01
2.242783240368154407e-01,-2.103664098202839838e-03,2.227565855856079580e-01,-4.201598015606797286e-04,-5.215846314075199769e-04,7.113413207585134916e-04,2.256313115358352661e-01
2.315770109823149236e-01,1.191603730663876037e-03,2.267119211729006489e-01,6.261579668418557239e-04,-1.703312135601288836e-04,2.584882424048530491e-04,2.279950082302093506e-01
2.222519342532205400e-01,6.407772904098311961e-02,2.590769308542954508e-01,1.869697477733690740e-03,-4.747631912092886708e-02,2.918001859126583605e-03,1.974790096282958984e-01
2.254975809724922009e-01,2.316996850761365856e-04,2.297456928960832645e-01,-7.492090394368910652e-04,-5.155445828790990951e-04,5.972420051502771218e-04,2.274274975061416626e-01
2.184628287544342351e-01,-2.525611373989322672e-03,2.186302837436658597e-01,-1.475486415699093883e-03,4.437814422923961472e-04,6.775270719850539107e-04,2.210914343595504761e-01
1.326662040675712917e-01,-9.041928848243646621e-03,2.437875819255933552e-01,-2.616646549477145978e-02,-6.500026584184295797e-02,-5.800965927395131984e-03,2.510100901126861572e-01
1.614172943471695321e-01,2.372925199686740094e-02,2.420783136125095325e-01,-5.382898220631154515e-03,2.427105112786425312e-03,1.740307004309806600e-03,1.915305256843566895e-01
1.273047752049419334e-01,-3.988900311936069421e-02,1.578005852390274022e-01,-2.620224291804134492e-02,-7.637923108355096358e-02,-2.500177400888599702e-02,2.354118973016738892e-01
1.887208320534985440e-01,-5.842598957513600588e-03,2.030156288451470115e-01,-1.309378377577755451e-02,-1.808180760863685108e-02,-9.250725848427688788e-03,2.063793540000915527e-01
2.169914190098853057e-01,2.979739598412123325e-02,2.208562716586862373e-01,-9.146306297701937635e-03,-5.965203073750141582e-02,-6.427520126070754465e-03,2.164024412631988525e-01
1.663165530402521686e-01,1.244737077786477186e-02,2.169838945147261888e-01,-5.646496194636268021e-03,-3.288860069262329600e-02,-7.369952382367350383e-03,1.937591880559921265e-01
2.853187314003373110e-01,3.680730278802030186e-02,2.423237523271711824e-01,1.603170679523210169e-03,5.894242249472723787e-03,3.051695346416562898e-02,2.362785339355468750e-01
2.520414486997219483e-01,2.134403313619029352e-02,2.099033964342970349e-01,-1.361613735939462598e-03,7.291840913387101584e-04,1.076424782650672353e-02,2.136130481958389282e-01
2.306588065274218780e-01,-3.424195310044342300e-03,2.074303287562172526e-01,-8.602076648326973437e-04,1.714747211673327710e-03,5.713051597849786410e-03,2.236201763153076172e-01
2.381461108662373261e-01,1.074862111227317674e-02,2.098034221614533401e-01,-3.023453673840617150e-03,2.943668945897612819e-03,1.499519281324197817e-03,2.147743850946426392e-01
2.162397596255937748e-01,-1.256151899417318196e-02,2.009543802286657410e-01,-5.104667374148952070e-04,-6.838482095689880609e-04,5.324921553947872636e-03,2.217512130737304688e-01
2.162142329503920490e-01,-1.295832619607181768e-02,1.716674509822448957e-01,3.925909826765974255e-03,-2.883116936907909565e-03,1.085262830867581713e-02,2.114712595939636230e-01
2.225123238336854103e-01,-5.628800677548201348e-03,1.759695040245679021e-01,-1.491380093052327611e-03,7.468494978651672288e-04,1.070708638588885667e-02,2.096390873193740845e-01
2.343177117891547812e-01,4.820109210810497036e-03,1.868974450005227161e-01,2.826170483124409972e-04,-2.121166543912260134e-03,1.001296092627162668e-02,2.105932384729385376e-01
2.172815159916675065e-01,5.783776553679870203e-03,2.068046488273186934e-01,6.153980899547881363e-03,-6.109169563058313747e-03,5.934253718814421624e-03,2.072593867778778076e-01
2.692107983597178955e-01,1.252628477095696358e-02,1.895760933296498640e-01,1.101568589571484159e-02,-1.758747192480941690e-02,2.271676627268783000e-02,2.337258607149124146e-01
2.192772201499693652e-01,1.478312306083132133e-02,2.242866211786335162e-01,8.466608902315203924e-03,-9.972746527635530100e-03,8.629017291557633182e-03,2.088159918785095215e-01
2.262575548371850709e-01,7.274164556711870677e-03,1.614219057665710055e-01,5.013894856891851388e-03,-1.334881375400170066e-02,1.354037741193841148e-02,1.977864354848861694e-01
2.176692409367713965e-01,-2.574310445679878212e-03,1.473969691882267563e-01,5.540461068375777259e-03,-6.135068922627096716e-03,9.589630275367728648e-03,1.960849016904830933e-01
2.286324611716704647e-01,-3.897932634727985235e-04,1.808209104145503954e-01,2.131421745942713511e-03,-3.373847816965080677e-04,8.456302075173689065e-03,2.097992449998855591e-01
2.337239356165191906e-01,-5.508710649575282448e-03,1.730313554818400101e-01,9.940989797014463877e-03,-1.976185223024187320e-03,1.759900250805693928e-02,2.182511389255523682e-01
2.216952154474360615e-01,6.120101912585634851e-03,2.104385828181294382e-01,4.947580348670358244e-03,-6.527413348958636214e-04,9.929616049586178095e-04,2.103576958179473877e-01
2.251947787046620353e-01,1.191140659369011034e-03,1.506937384656024947e-01,4.427353504442657108e-03,-4.853549885099217413e-03,9.915452802251846498e-03,1.986553668975830078e-01
2.206238618947408414e-01,-4.751547304128495020e-03,2.212522594542606913e-01,8.081764117127454615e-04,2.062258478855062834e-04,3.870953194943853272e-04,2.256958782672882080e-01
2.205431183234283776e-01,-5.959947131726123226e-03,2.209960526558609195e-01,-1.282621115639320667e-03,-2.748185665329883520e-04,-2.014719555326129584e-03,2.267681062221527100e-01
2.233113471202277933e-01,-2.194044780064213773e-03,2.296310718458761668e-01,2.437250200326061096e-04,2.418173090603682729e-04,5.360464184208091603e-04,2.287334054708480835e-01
2.292953128036382404e-01,8.322550254868110731e-03,2.154151263820729967e-01,-4.901956038131333009e-03,-1.963604234876527657e-04,-2.968136676537893974e-03,2.145998924970626831e-01
2.252156950963754567e-01,-1.160141764928096508e-03,2.296004638007895227e-01,-4.928571024801503705e-05,-2.147718051410724594e-04,-7.727714232028390698e-05,2.286001145839691162e-01
2.244819476003154235e-01,-1.930511306038718011e-03,2.290575580723946403e-01,3.634962247687460323e-04,3.351233749888900336e-04,4.388440404033222639e-04,2.287374585866928101e-01
2.245557018034737840e-01,-1.863036003360324377e-03,2.277645125971975715e-01,-7.880896374831511831e-04,1.069368220344035997e-03,-1.081120456218058641e-04,2.280517667531967163e-01
2.230891022669291845e-01,-1.430716478415555715e-03,2.274927154660827122e-01,-9.668364533084729501e-05,6.038535119730966284e-04,-3.708563356878125366e-04,2.267570793628692627e-01
2.241382627295409047e-01,-1.860909983064484852e-03,2.269925990409305261e-01,-1.159682415247052225e-03,1.453942314923877509e-03,-1.500268486326326346e-03,2.274774312973022461e-01
2.223447307640434301e-01,-2.818319111554057343e-03,2.276815478663474224e-01,-2.975895448934892293e-04,-1.099170163815863877e-03,3.104342354666123570e-04,2.278874963521957397e-01
2.273901633272171208e-01,8.327301294389077846e-05,2.279430221680248669e-01,-1.948634026324731544e-03,1.351216482708343051e-03,-1.845829835828507320e-03,2.276433259248733521e-01
2.229459394468909506e-01,-4.148806185669817737e-03,2.225988499990700920e-01,-1.767959967889196462e-03,1.731754101135333243e-04,-2.242149114360645658e-03,2.269754856824874878e-01
2.234551333947781826e-01,-2.334629316683545230e-03,2.254196153600210029e-01,-1.219697033991743286e-03,1.157099062372584936e-03,-3.281693148749410707e-04,2.267977893352508545e-01
2.192540142795421365e-01,3.020551227219669954e-04,2.167576370241734995e-01,-3.147215629823041025e-03,-8.153998017919687194e-04,2.773490733780839459e-03,2.178402841091156006e-01
2.230926438768885967e-01,-2.850782475348395684e-03,2.250631704973243830e-01,-7.469349718674420883e-04,-1.615960923242500732e-03,3.676791726111913326e-04,2.269569486379623413e-01
2.092098798772842883e-01,-3.252353430375942711e-03,2.100585024091616015e-01,-3.637843577547169790e-03,1.492162034831498799e-03,1.286828291301218017e-03,2.130083739757537842e-01
2.232068546677865584e-01,-2.853416473687780952e-03,2.230762167176723043e-01,-8.439122353525446837e-04,-1.181846260980951979e-03,3.102512532444492771e-04,2.260096222162246704e-01
2.204205013605870511e-01,9.787375914531715182e-04,2.201574955319874904e-01,-1.800591738555011243e-03,-9.286467274785631604e-04,7.703001040183091782e-04,2.193425148725509644e-01
2.142065709296721576e-01,6.511507338886890484e-04,2.143287617589623162e-01,-2.118281187656579582e-03,-7.116539549913585602e-05,5.676549788058072492e-04,2.136503458023071289e-01
2.735427136120837655e-01,2.595694830197248226e-02,3.532455565185292912e-01,6.347709162853526661e-03,1.860627667849926864e-02,3.505664640126032738e-02,3.036954104900360107e-01
2.127897569538457212e-01,1.069014066685616826e-02,1.992979151508036395e-01,-3.624070468504571579e-03,2.269305136251039204e-03,1.008975475480680282e-03,1.958506852388381958e-01
2.241105179675976777e-01,-3.323375530289329749e-03,2.230135296454174576e-01,1.445929094534128883e-04,8.378431157577984284e-04,1.089679049166067133e-03,2.269000113010406494e-01
2.243737240688907786e-01,2.875471350100855528e-04,2.242846323540991782e-01,2.067613690857995640e-03,9.279576146659293534e-04,2.861753046109266445e-03,2.241308391094207764e-01
2.215263223725288388e-01,-8.689800974037154013e-04,2.220055759373916193e-01,-6.250983993668323942e-04,2.294943539120931084e-04,-2.210342231565544601e-07,2.226383090019226074e-01
2.207651806914245896e-01,-5.228123056649297551e-03,2.200730819912021796e-01,6.172172901237737291e-04,1.330637461953728274e-03,3.179234895441810835e-04,2.256630212068557739e-01
2.245647815954388005e-01,-3.907741421701749207e-04,2.228677501454556509e-01,1.469231213215441059e-03,4.958506639776189169e-04,2.373164201001972968e-03,2.241656482219696045e-01
2.234758205390556252e-01,-4.361652425748929751e-04,2.237576273280449390e-01,1.365374185853570959e-03,1.307341760933522631e-03,2.221544822732409320e-03,2.241099774837493896e-01
2.184407711011520370e-01,1.288302019137957388e-02,2.201188466902780083e-01,-3.503145874281379541e-03,2.031990369623683235e-03,3.234940807257171216e-03,2.065970599651336670e-01
2.054513837328492687e-01,8.961908703224996664e-04,2.054065076255647826e-01,-2.478084519281313885e-03,4.449059985998248977e-04,1.288673610823586968e-03,2.045914232730865479e-01
2.115297602081412376e-01,4.344160189597101596e-03,2.071417423612168518e-01,-3.540562656757022600e-03,8.781580998334158165e-04,1.684337626734073437e-03,2.051448822021484375e-01
2.164197444064386300e-01,-3.252423572232182591e-03,2.113672068903335033e-01,-3.156858017102853221e-03,7.276368436071717870e-04,2.266570124692231670e-03,2.172979116439819336e-01
2.120160039692369491e-01,-1.159824602896764034e-03,2.124251130199957815e-01,-1.455360013208560708e-03,1.116076696400968276e-03,3.466179363887887926e-03,2.134887576103210449e-01
2.048908636734337041e-01,1.188440382562799824e-03,2.069066396125018303e-01,-1.318610963844987554e-03,5.615482801086490961e-04,2.492765187296937159e-03,2.047783285379409790e-01
1.659291597389664918e-01,-1.897036467416479688e-02,2.090930671357887349e-01,1.979512941391448066e-02,1.251483660107976896e-02,-7.326021589971459975e-03,2.140989452600479126e-01
2.756534649154104288e-01,6.350203058009609713e-02,2.755188322030853731e-01,1.789003807271317623e-02,1.826245227325462919e-02,-1.070678216515829305e-02,2.174495458602905273e-01
2.129927873679507144e-01,1.004162584133391767e-02,2.264660593413106715e-01,5.660632306007495895e-03,2.200260419868404690e-03,-6.488977356395131228e-03,2.105756253004074097e-01
2.267335492909673955e-01,4.103233498413960678e-04,2.258406483170352641e-01,3.928107637295889798e-03,-2.359818080158392149e-03,-2.829598338777414117e-03,2.260706275701522827e-01
1.747570969994818313e-01,-1.313788012370517566e-02,2.140162043186450425e-01,8.827646184467411589e-03,1.696340869974809163e-03,-5.229995511033939427e-03,2.110612690448760986e-01
2.100835125085842581e-01,2.434100898190655338e-03,2.283315688141635269e-01,8.292315416394578295e-04,7.406740803724373061e-04,-2.327160909514079494e-03,2.173946201801300049e-01
2.077541663653937887e-01,-5.377109363356891159e-03,2.239238988315286616e-01,3.494351667142108191e-03,1.211447717454113959e-03,-3.599027279039190494e-03,2.218390703201293945e-01
2.246057995384160844e-01,-2.726976162541500104e-03,2.251502772567739452e-01,5.552062868525492381e-04,-1.114165595354458003e-04,-1.793554236170299184e-03,2.276288121938705444e-01
2.041435144155638315e-01,-9.917133584861098639e-03,2.174798339944916947e-01,4.402857582251927700e-03,1.025957498140533383e-04,-2.311554775206792808e-03,2.211985886096954346e-01
2.068614258954825369e-01,-8.973138138086395044e-03,2.165336063611759676e-01,3.194918479681600580e-03,8.485428890271527660e-04,-4.269100153874926321e-03,2.210275083780288696e-01
2.950512795832030410e-01,2.744259494367676244e-02,2.418699247172091393e-01,8.846324000437019372e-03,-7.813967783808620227e-03,1.718338345751035598e-02,2.480214238166809082e-01
2.362619691982777437e-01,2.954839771547076999e-02,2.332970687694929102e-01,3.652255724792942762e-03,-2.632273854754338459e-04,9.367299345158740503e-04,2.053515613079071045e-01
1.896648180433969655e-01,1.751072479795059977e-02,2.442047729460662397e-01,-2.352075875844017016e-03,2.575752945062462045e-03,2.600063950329695693e-04,2.050307691097259521e-01
2.334603045044369440e-01,1.935857746857208572e-02,2.363334675087998826e-01,2.272271645193594050e-03,1.551062177130975873e-03,2.048360045506627918e-03,2.156345248222351074e-01
2.825840200687070869e-01,4.540330050695498554e-02,2.559271381770865661e-01,2.792029082819832281e-03,-1.814630925007114370e-02,8.562070133440206551e-03,2.277585715055465698e-01
2.394350951753433376e-01,1.060502236327565129e-02,2.343260324281100371e-01,4.391948878392931861e-03,-4.673788488489437955e-05,1.028851398419383667e-02,2.271467149257659912e-01
2.216131969183489647e-01,4.832857407589874477e-03,1.613664966576735527e-01,-6.116969510747643710e-03,7.624652385636550463e-03,1.107983500974622261e-02,1.954943090677261353e-01
2.432536398988494608e-01,-4.901027030436155840e-04,1.842637357674054566e-01,-6.571686334987603606e-04,2.321414698991085615e-02,1.950824268788877228e-02,2.264334410429000854e-01
2.128125560082481937e-01,9.436224696282469182e-03,1.860004696340066266e-01,-1.247392060745826196e-02,2.928714103730808982e-02,1.359568706547656727e-02,2.005552500486373901e-01
2.213942652357938634e-01,-7.190213327373795593e-06,1.843787895187843917e-01,-5.286196304665390956e-03,2.975503688008474847e-03,5.344014774596127053e-03,2.058871984481811523e-01
2.214487622519826782e-01,3.676590672572616070e-03,2.227627032606315782e-01,8.382060275430804237e-04,-4.875977517437937747e-04,-1.463305054938698153e-03,2.184532731771469116e-01
2.268096184788724046e-01,1.682311414435727626e-03,2.308085919044013390e-01,7.375075961057848354e-04,1.218747842062154222e-03,5.840477623667966181e-05,2.271666228771209717e-01
2.289609918547928502e-01,-2.421347934477596775e-03,2.240653954308702844e-01,6.057783646414616240e-04,-1.079706583276001004e-03,-7.763418898329995472e-04,2.289877831935882568e-01
2.248045746231125963e-01,-1.249553322718865989e-03,2.280586633647532779e-01,7.222439091683924978e-04,8.835038886485838648e-04,-2.283564879759124517e-04,2.277075350284576416e-01
2.262333828600417984e-01,8.802360175730605807e-04,2.301223281779969099e-01,8.417513794551220122e-04,1.036420930159224303e-03,2.573540524007602204e-04,2.273347675800323486e-01
2.212727004650469342e-01,-3.721354864796605488e-03,2.201888412686821561e-01,8.066165907903858137e-04,-5.490106697895903850e-04,-2.163661372786566310e-04,2.244607657194137573e-01
2.232093488690299332e-01,-1.232945183415545820e-03,2.233241804945421682e-01,2.838786590369865451e-04,-6.814013553382048142e-04,-3.017690594589883145e-04,2.245039790868759155e-01
2.260393702576543040e-01,6.966336324614186282e-04,2.313636209767940266e-01,5.910688242544724012e-05,5.088861089031707622e-05,4.334689745667236042e-04,2.280527502298355103e-01
2.113484804583696253e-01,2.326513285686554466e-02,2.087373733398379949e-01,-1.369460681468748480e-03,-4.895755839042477756e-03,-2.286189619236844630e-03,1.870408207178115845e-01
2.067673171534831211e-01,1.340685570486493949e-02,2.036143146617428179e-01,-2.531643414699280645e-03,-5.288581410824971796e-03,-1.668417321686435899e-03,1.920938044786453247e-01
1.949826137797272818e-01,9.867985875473730961e-03,1.985696936620107433e-01,-5.345093204109942469e-04,-4.068608380575006872e-03,-2.001239283667097333e-03,1.871011704206466675e-01
2.044396089555631790e-01,1.343939063749641227e-02,2.051530639052061566e-01,-7.387389563655306739e-04,-1.521011576967673193e-04,-9.848568737977564727e-04,1.913700103759765625e-01
2.245702374391811140e-01,-6.943133927196643018e-04,2.239047893291774005e-01,-1.562395686276988639e-03,-1.601815226581663294e-03,2.024729999415463434e-03,2.249932885169982910e-01
2.223084115776123304e-01,-2.652141345057812405e-03,2.220181762225411914e-01,-1.853963094727719080e-03,-1.023777803908035647e-03,2.266800845494050011e-03,2.248797714710235596e-01
2.235914978798315134e-01,-1.508796405289392073e-03,2.250396054440156335e-01,2.051758946078236032e-03,-1.912382302561358360e-03,-1.773154430951527161e-03,2.259009629487991333e-01
2.242798324294745238e-01,-2.472236439403668884e-03,2.242945196645333428e-01,-1.245282769527739715e-04,-8.798695016399377339e-04,1.386741656642938303e-03,2.267773598432540894e-01
2.244057054596700629e-01,-7.010199194421029567e-04,2.274938817589005624e-01,-3.370519671418857784e-04,8.717063807532488950e-04,1.920647940402415272e-04,2.266726195812225342e-01
2.198561005854366979e-01,-4.200444342192466429e-03,2.208123711679738921e-01,-1.211462381386368622e-03,-6.343264543918736536e-05,2.300071741442287661e-03,2.245813757181167603e-01
2.209569902732048674e-01,-3.318298602856734059e-03,2.220663403124752966e-01,-1.139348393362704919e-03,3.589213206314959643e-04,2.448568208432606603e-03,2.248815298080444336e-01
2.196697090813153896e-01,-1.854428187031992303e-03,2.200374892630921897e-01,3.812802267974395613e-04,-4.975460259625078120e-06,-7.026528991988660903e-04,2.217125743627548218e-01
2.222977234759857812e-01,-3.063901121583278986e-03,2.230333596648653716e-01,9.063318609295552058e-04,-5.137550071766491030e-04,-1.842509755895288461e-04,2.257377803325653076e-01
2.209474792576867630e-01,-3.878766671620764717e-03,2.215317362005472801e-01,6.112372438962946969e-04,-4.857918505153214312e-04,-2.606225632420822191e-04,2.251234501600265503e-01
2.212905224016755157e-01,-3.614011423820367996e-03,2.217284292205509710e-01,5.545729252905033180e-04,-3.784767607969841542e-04,-3.195677053827663964e-04,2.251274883747100830e-01
2.202158925417785906e-01,-2.732875181469668346e-03,2.214305606572193608e-01,7.254313765181903380e-04,3.690425481451037239e-04,4.122494134372145221e-07,2.235630154609680176e-01
2.176284069671006183e-01,-2.926960538584100213e-03,2.185206302836658621e-01,8.425135391812008014e-04,6.606961867677497080e-04,-1.077280528036754633e-03,2.210184931755065918e-01
2.193669910366554399e-01,-5.119010579347521572e-03,2.189488507764608405e-01,1.259008492407794272e-03,6.657393670972872914e-04,-4.484724539234723217e-04,2.242921292781829834e-01
2.024198406420185392e-01,4.416824911500083495e-04,2.364404918672286526e-01,1.145590564401460093e-02,-4.759895913752387221e-03,-6.766467248566874083e-04,2.220069020986557007e-01
2.203875593100713126e-01,-7.778236164631413541e-04,2.186607928409804447e-01,3.523011150786956643e-03,-3.255583153434618896e-04,-6.497470486770535970e-04,2.203951627016067505e-01
2.405555119387678131e-01,3.080606050118009365e-02,2.368680259798612853e-01,5.376874596082630324e-04,-3.259322100260617344e-03,1.879497938161572238e-03,2.080344110727310181e-01
2.165811450180075148e-01,-4.756056422586640853e-03,2.155548963084921721e-01,9.176872763945506228e-04,9.033153011482349505e-04,-5.932190659233700343e-04,2.208395153284072876e-01
2.270283524746893877e-01,6.621243874592452894e-04,2.263359181996155156e-01,-7.672515732789048602e-04,-5.519922682122486990e-04,3.046561410743356575e-03,2.260883301496505737e-01
2.240143505204530983e-01,4.606336863279200666e-03,1.411991836904616382e-01,-1.851050464302730512e-03,-1.218803135961003380e-03,-6.519164970951073701e-04,1.919477283954620361e-01
2.266751667342963850e-01,-2.412216298566249861e-04,2.274630912222468937e-01,-1.133244645612372205e-03,-1.109780887500568577e-03,1.740726068278006028e-03,2.273479700088500977e-01
2.212090243592398087e-01,-4.429135960556052076e-03,2.236311018919402427e-01,-2.251136101055793877e-03,2.752530539817651728e-04,1.924733085227757663e-03,2.269173860549926758e-01
2.262357593012852552e-01,-1.647779682650840627e-03,2.247980534067600400e-01,-4.315288498233104428e-04,-9.892050517476601388e-04,4.462527317874701483e-04,2.271770983934402466e-01
2.334105380853764011e-01,2.876681829581104188e-02,2.338413977471796301e-01,5.638083624334688229e-04,-2.604160571765589630e-03,-2.439775328999012859e-03,2.049550414085388184e-01
2.169454074419094325e-01,7.588928210545686781e-03,2.186055462692002016e-01,-1.026376064175659429e-03,-1.364086566646682732e-03,-5.896287603741726157e-04,2.102147489786148071e-01
2.199451413345075990e-01,-3.312244838846734041e-03,2.207605438239541029e-01,-2.055676575310317819e-03,-4.016695670624566218e-04,9.865660017317927962e-04,2.237021476030349731e-01
2.253565480521426689e-01,7.176347134820459939e-04,2.264296799394203141e-01,-2.684264076133932933e-03,-1.032219974913809856e-03,1.222805778874664403e-03,2.252424359321594238e-01
2.247199263441098105e-01,-1.557782028647758388e-04,2.297453074267716555e-01,3.295640295360216770e-05,-1.334376694162812266e-04,-8.303582031745881638e-04,2.274347096681594849e-01
2.063861361282420259e-01,1.269381061821892032e-02,2.104942725983086627e-01,-1.222291642684328631e-03,-2.122200090104397335e-03,-4.005247387427642025e-03,1.959475129842758179e-01
2.234238066568153269e-01,-2.707005049483124370e-03,2.240308067290149863e-01,-2.281894465512515711e-03,-1.806032707938694378e-03,2.116145832968878600e-03,2.265206724405288696e-01
1.982001271089694761e-01,2.082378348022773107e-02,2.101062548505467364e-01,5.522534481363324584e-04,-4.444801667183391827e-03,-2.636343530058102421e-04,1.837835162878036499e-01
2.240819875927764215e-01,-2.801479059981404340e-03,2.230328134953222241e-01,-3.739910255441051927e-04,5.721766368470092420e-04,-1.204588827238232485e-03,2.263734191656112671e-01
1.868766247703774197e-01,1.923937405349995799e-02,2.645583498994407146e-01,-1.180090031627757316e-02,-8.754666087454919532e-03,-5.687085269879435349e-03,2.188693583011627197e-01
2.071645499368652277e-01,1.197676593153834679e-02,2.119527794543250576e-01,-4.958100637244408290e-04,-2.027730237280826221e-03,-5.748710728095721926e-04,1.976609826087951660e-01
2.224924773164727865e-01,-2.446415166853399548e-03,2.222357845049232616e-01,-2.401865564035245149e-03,3.568367784345863455e-04,6.478574900218934517e-04,2.248528003692626953e-01
2.117758463546666747e-01,6.869004655392557668e-03,2.264149917847428362e-01,-1.387550686913380975e-03,-5.162678906843839359e-04,-4.667761391370419885e-03,2.127738744020462036e-01
1.857378353645145475e-01,2.222400371636396033e-02,2.202029790005303189e-01,7.140361867155179711e-04,-4.589731646549926984e-03,3.924821145208684699e-03,1.834968328475952148e-01
1.999201652851715916e-01,1.352845093176568980e-02,2.038574614503167182e-01,1.684832864427376073e-03,3.402995975680076900e-03,-2.926988207141423964e-03,1.885741502046585083e-01
2.029510140129196505e-01,1.276255072413740033e-02,2.055886456430114362e-01,3.013245991347582482e-03,5.650087288452797056e-03,-3.555594571908936904e-03,1.919405907392501831e-01
2.091627927234611939e-01,1.511418379986775862e-02,2.172230212378574443e-01,-1.447338960548478484e-03,-1.354044738168779785e-03,-2.937039424523418818e-03,1.982966661453247070e-01
2.074200641375084642e-01,2.289217037534421739e-02,2.062853460947079165e-01,1.393663725780662195e-03,6.593460540134246997e-03,-1.654663026581238957e-03,1.843553781509399414e-01
1.942015549460999746e-01,1.069497886924827834e-02,1.994823710102810455e-01,5.699882201733711849e-04,5.297492037953036546e-03,-2.127257573486271078e-03,1.864681094884872437e-01
2.240593578627773086e-01,-3.917208542029315677e-03,2.238499774901213102e-01,6.444761047886983897e-04,-1.903764323518127933e-03,-3.170749283438690429e-04,2.278991937637329102e-01
2.250959483327951149e-01,-1.688280682814763400e-03,2.276204892910384803e-01,5.198113126796514993e-04,-1.729583235825581967e-03,-7.534632244851860883e-04,2.280821651220321655e-01
2.250872817399786341e-01,-7.042313902488328559e-04,2.258280274286142419e-01,9.887250322677587546e-04,-1.330335737552524461e-03,-5.019701413780049181e-04,2.261826843023300171e-01
2.173287303777408919e-01,9.333428894175960222e-03,2.222009401471085055e-01,-1.584998107722489571e-03,-9.741708374891545289e-04,-2.897913186554878541e-03,2.105582058429718018e-01
2.121966439221269485e-01,2.838588560642590908e-03,2.128419527834042868e-01,-1.641596752580697571e-03,-2.081063124629837884e-03,-4.756719001422800644e-03,2.098934650421142578e-01
2.229443453944042752e-01,-3.790807660944778279e-03,2.272213874978777914e-01,-2.290574595729197175e-04,1.836314542776962613e-04,2.567977098679641215e-04,2.289046347141265869e-01
1.944125746431153434e-01,9.837839302614725945e-03,2.184236733922833296e-01,-1.777928351868327895e-03,-3.227159090127597069e-03,-5.855857079959243122e-03,1.980399191379547119e-01
2.212866771170844959e-01,-4.994938407538035419e-03,2.202291055552335064e-01,2.399861400993261694e-03,1.130829254485731747e-04,-1.847355689514283087e-03,2.258157134056091309e-01
2.315630816371158085e-01,1.721806823641036654e-03,2.255867957729284501e-01,-1.230613350187668336e-03,-1.762878358284789536e-04,-8.657219669013700193e-04,2.269273400306701660e-01
2.296570761535929595e-01,4.583888214747255940e-04,2.253167573010123048e-01,-2.465407206691953889e-04,1.178606113450034697e-04,-2.636091829721104885e-04,2.270606011152267456e-01
2.332370782935326292e-01,2.632655695531255224e-03,2.265025987503849203e-01,-1.177175995279512158e-03,1.061989838638570643e-03,-3.210070114124978437e-04,2.273292839527130127e-01
2.248958922376227965e-01,-1.958132630179604261e-03,2.242115615503403603e-01,-1.786005112639982859e-03,9.994958394589920493e-05,-4.393969354498650226e-04,2.265350967645645142e-01
1.999828912642512280e-01,1.840995549707334644e-02,2.038684644446437377e-01,-6.553397476614491448e-04,-3.901433909422062987e-03,1.662136281930437964e-04,1.836746484041213989e-01
1.945320689137442216e-01,6.413727464134960643e-03,1.964433338664571815e-01,1.052973396889907674e-03,-4.414839471089176612e-03,2.230724898450503566e-03,1.892840117216110229e-01
1.786275629572254275e-01,-4.347837426778300429e-04,1.977282371942544192e-01,1.497734931216023911e-03,-6.403033985739805568e-03,3.867543395647800742e-03,1.897971779108047485e-01
1.812690652912500866e-01,3.219845701152986017e-02,2.133059946292611420e-01,-8.088010516510785175e-03,6.530350790573785646e-02,5.694363799733121768e-03,2.027593255043029785e-01
1.848246273269134599e-01,3.274659478789590517e-03,1.842620187720244440e-01,-7.132551049550178626e-04,1.326057155205146408e-02,2.771949870549083781e-04,1.827234327793121338e-01
2.185693133896121076e-01,4.542170090792801984e-03,2.145683742348438727e-01,-6.915562888582770830e-03,3.136222917774096446e-03,6.314416741412006220e-03,2.127437740564346313e-01
1.881832239311329313e-01,2.144191078493730418e-02,2.230522198509972132e-01,-7.115765949543991636e-03,5.754589255496300737e-02,4.259087220944848297e-03,2.120696306228637695e-01
3.359829506345961558e-01,4.104744990566500107e-02,1.386215038826541790e-01,-2.053676848624843947e-03,-6.365055627616008314e-03,-1.473631866750535827e-02,2.617542147636413574e-01
1.614330483431086205e-01,9.162957624250511746e-03,2.153137989819257359e-01,5.017561439916485861e-04,1.005150952807942408e-02,-2.954783988947257307e-03,1.860746890306472778e-01
1.776414448175266392e-01,6.164915875731161177e-03,1.982549117630507396e-01,7.124342830406379815e-04,6.145393878558704816e-03,4.864179770153785414e-04,1.829736828804016113e-01
1.883654014774695518e-01,2.634116167069022740e-02,2.211321004681984226e-01,7.579366696855626079e-04,-6.390369717609145628e-03,-1.777037092258631264e-03,1.810199320316314697e-01
2.218520197793006354e-01,-1.907539287706011555e-03,2.222391159948798323e-01,-1.715518168614917354e-04,1.814827879034039057e-04,-2.817743546505093615e-04,2.239543050527572632e-01
1.629082275487592490e-01,9.421814275779843983e-03,2.167562970109039311e-01,9.170240778971765368e-05,8.029855926096025193e-03,2.222272594241921149e-04,1.868589073419570923e-01
2.268631718315383683e-01,4.933016191291994534e-03,2.240988812237270644e-01,6.055633509431193780e-03,1.076996425861558027e-03,6.251820498482362973e-03,2.210834771394729614e-01
2.214686803591452702e-01,-2.815679912256396911e-03,2.201901849878673822e-01,2.555080899847818159e-03,7.942506221151723455e-04,2.357770357175237221e-03,2.237331420183181763e-01
2.164508383333167418e-01,-1.671134294909837337e-03,2.104547595170461749e-01,5.452473090110264084e-03,-1.824618790159982873e-03,1.558461201838486380e-03,2.154338210821151733e-01
2.236774272442108025e-01,-3.606659358957292616e-03,2.247828346176984071e-01,1.186640803319574796e-03,2.811790395036310296e-03,5.921364933467232255e-04,2.279024273157119751e-01
2.225215804811697673e-01,2.017516646912492773e-03,2.216286572888896689e-01,3.785765175853317982e-03,-7.276862655701466691e-04,3.923515743423533486e-03,2.202650904655456543e-01
2.224262200210374019e-01,-4.384992186011904547e-03,2.225248939246226021e-01,1.183814382453697014e-03,2.186429337732076830e-03,5.667727003905795183e-04,2.269035577774047852e-01
2.191013457640240691e-01,-5.803242780183126559e-03,2.205660754122608647e-01,-1.688361244998244116e-03,1.825298357917663490e-04,-6.373491036146815584e-04,2.256623953580856323e-01
2.157193980659871113e-01,-3.373814632007282599e-03,2.177106251072190024e-01,-3.695064285558702193e-03,1.234593403627806012e-04,-6.280171234123414640e-04,2.201914042234420776e-01
2.234805010126134639e-01,-2.770818144704090269e-03,2.300205920561033124e-01,2.262200326157420155e-04,-6.818195819597985602e-04,-1.602161500836818636e-04,2.295947819948196411e-01
2.337752247357408608e-01,9.615511849719732274e-03,2.275583087793036641e-01,-1.575817877163962965e-03,-2.263594535947180148e-03,2.933209085529533207e-04,2.211689949035644531e-01
2.329755939302234624e-01,3.579778765493035753e-03,2.312316511065559410e-01,-1.927366316230376322e-03,-6.901439101324891717e-04,1.448292642025851486e-04,2.285564839839935303e-01
2.296802197450087957e-01,9.995078960245429300e-05,2.248495399100977621e-01,-2.090470606102715957e-04,-4.374354348943620746e-04,8.498872522257221160e-06,2.272049933671951294e-01
2.231031016627764152e-01,-2.571511062603198949e-03,2.257239710862014026e-01,-2.054233904802439930e-03,-2.941957431567836408e-04,1.696527608646982831e-03,2.270438671112060547e-01
2.301476789012223412e-01,-5.815661245392456102e-05,2.264394200111133071e-01,-1.758974455652226191e-03,-1.239176184418954970e-03,7.656872883420752897e-04,2.284085452556610107e-01
2.256615440669498263e-01,8.742971491096374059e-05,2.309377236769512010e-01,-4.256600495552129203e-04,4.028127449081562138e-04,-3.799587205422026281e-04,2.282611429691314697e-01
2.250421347674911865e-01,-1.193953866869934544e-03,2.252302600843577030e-01,-8.607705875931739468e-04,7.429869788822697886e-04,-7.235418385554413020e-04,2.263422459363937378e-01
2.292869430979491696e-01,-3.871491780051139475e-04,2.245308987804748579e-01,-2.340233975699552139e-05,-8.216884858404480563e-04,1.272285533862782439e-04,2.273379564285278320e-01
2.066904890210652657e-01,2.268264846841398785e-02,2.073133834794402830e-01,2.941364001154410683e-04,-6.506075126153875593e-03,1.808396299298242261e-04,1.846652030944824219e-01
2.051145132986238462e-01,1.248932240034256180e-02,2.003814856031129465e-01,2.810633598191127156e-03,-3.160870358729167984e-03,1.596019758767873789e-03,1.904638558626174927e-01
2.269630100204720891e-01,2.087512681606396026e-04,2.245073323094433082e-01,-1.476803909510470900e-03,3.800536621774837972e-03,-1.315314315521362229e-03,2.256584912538528442e-01
2.031424966964316681e-01,1.654347308974774000e-02,2.031424187800389691e-01,1.380466520874772899e-04,-6.344548847264709114e-03,-1.413212611173991903e-03,1.869384646415710449e-01
2.037868470434299195e-01,1.411887237979708720e-02,2.053485162903805061e-01,9.416153086269602812e-04,-6.335174340917784728e-04,1.951605840410264520e-03,1.904937475919723511e-01
2.242276097226211795e-01,1.141673842293744467e-03,2.196351103076374378e-01,-3.218191533547194293e-03,3.889445828783245131e-05,-8.705490686257736591e-04,2.209009975194931030e-01
2.213683527585648680e-01,1.242309285874537705e-02,2.329526931001165146e-01,1.116576361676100511e-03,2.204475569811605896e-03,-5.668568143184686894e-04,2.150164991617202759e-01
1.988704380031731667e-01,1.027571570140929647e-02,1.935813553525702890e-01,9.247743902976825799e-04,-5.253610424678999136e-03,2.995449650931826741e-04,1.862366348505020142e-01
2.208464745911237759e-01,-3.604084557601638927e-03,2.212683069153983662e-01,-6.376009185676657183e-04,6.354583553756468651e-04,-3.507167620303053740e-05,2.246671915054321289e-01
2.247664130280574990e-01,-7.483231246128152492e-04,2.268780169079597786e-01,-1.683111076478055815e-03,2.200302822336026864e-03,-1.889581266358631752e-03,2.266523540019989014e-01
2.266775403905616493e-01,1.328218367990297022e-03,2.291450816540261670e-01,-2.378508504207786298e-03,1.667838340955473753e-03,-9.753119360799560348e-04,2.266553193330764771e-01
2.214408014480097053e-01,-5.861073377781828020e-03,2.211755800299189945e-01,-8.520787504647704420e-04,1.611016673877279553e-03,-7.319607952541169315e-04,2.271948456764221191e-01
2.233942643296376596e-01,-3.147093346237167522e-03,2.260724404821650713e-01,7.044031067670877225e-04,5.307558460620171543e-04,2.460320555914984508e-04,2.278977632522583008e-01
2.230927487058878556e-01,6.970550632626748566e-04,2.233061189689386494e-01,-1.801658208177450574e-03,3.444096927007594391e-04,-1.469689430875092484e-03,2.225396931171417236e-01
2.210758663089823495e-01,-5.126578740239279286e-03,2.194202810774031343e-01,-2.468052045172076676e-03,-3.288743278594053105e-04,-1.375437416360750752e-03,2.254330515861511230e-01
1.419915967008898716e-01,9.475602751618419917e-03,2.461677155566111830e-01,-4.069037930473293208e-02,-3.883005422083514457e-02,-1.674355706054408977e-02,2.292370647192001343e-01
2.308304641164979909e-01,4.237654884970382119e-03,2.000457113317393731e-01,5.055263670695963989e-03,-6.826842085753288651e-03,1.150465366393140475e-02,2.143127471208572388e-01
2.159146578576138786e-01,-1.266516281939564226e-02,1.738890045962175335e-01,6.201344979173139399e-03,-2.442292432537298934e-03,1.038902878755596469e-02,2.118153274059295654e-01
2.193248154687718887e-01,-3.694585005957845558e-03,2.200119180441499345e-01,-6.853069868191501591e-04,1.311425637256693067e-04,-2.882460292696791058e-04,2.233675718307495117e-01
2.234151718864973157e-01,-1.316761034283242537e-03,2.191156458729059398e-01,3.326410754461283942e-03,-7.969278695137612940e-05,4.468035644638756630e-04,2.226892411708831787e-01
2.272795679306806593e-01,-6.486262988055768730e-04,2.219959956502222664e-01,2.495194807351815668e-03,1.655886972520790104e-03,7.103714110739577840e-05,2.253925949335098267e-01
9.091914173546945810e-02,-1.790538027476509808e-02,2.603464287385391929e-01,-2.768138767191585456e-02,-3.013310665316361672e-02,-1.652318045799293367e-02,2.546135485172271729e-01
2.230944610413403417e-01,-8.100792409377333136e-04,2.229172740354269378e-01,6.964599212925066604e-04,-3.350632967477000079e-04,-6.605110605208642724e-04,2.238229215145111084e-01
2.163912183626088281e-01,-3.875806943848203456e-03,2.135861148406032195e-01,-1.050672133601271863e-03,-7.290704178896128445e-04,-2.135106870784053267e-03,2.189203947782516479e-01
2.222711053827127747e-01,-7.793579166913977563e-04,2.219773796906051033e-01,1.515494378070960979e-08,-2.592489884056102019e-05,-3.794795805643283860e-04,2.229047119617462158e-01
2.199392092046786318e-01,4.379638430590943043e-03,2.165049079780245189e-01,3.374030651305610223e-03,7.257760134721855235e-04,-1.101528544917254604e-03,2.139551341533660889e-01
2.227771492999171543e-01,-3.784450223739077579e-03,2.217923382103003382e-01,1.770576898399024821e-04,-1.235343403247544589e-03,-1.050224088752675991e-03,2.260884493589401245e-01
2.209283760122468521e-01,-3.108914371360682605e-03,2.215346473050935350e-01,1.466620963198390481e-03,-5.575651179250536117e-04,-2.481365638891266413e-03,2.243986576795578003e-01
2.204743437387378935e-01,-5.078117871652770843e-03,2.196574576284485714e-01,5.253594490264234477e-04,-4.241575064208528826e-04,-1.548862041164039000e-03,2.251641452312469482e-01
2.214396965790926264e-01,-2.064453361758367134e-03,2.210872969989229331e-01,4.223238291376716627e-04,-3.408511208928572821e-04,-3.574026270854867727e-04,2.233309894800186157e-01
1.338260753786161550e-01,8.404344368350594174e-03,2.274405858442452577e-01,-1.467273715834435189e-03,-3.844213218613518317e-03,-2.645607218113163396e-04,1.904903799295425415e-01
1.472256035567401367e-01,3.001961947124773267e-02,3.176437059263722551e-01,-4.458582702795156616e-02,-5.009929367394921201e-02,3.605518679569137339e-03,2.761993706226348877e-01
2.207187701987533002e-01,4.548768629810961972e-04,2.224055581905823031e-01,6.601753002499358494e-04,-8.553652483699371051e-04,-3.222518751485635609e-03,2.211904674768447876e-01
2.139401136634717648e-01,4.361144955516038646e-03,2.105982823892885158e-01,2.946255539283623454e-03,7.121301332970489091e-04,-8.634526542294666211e-04,2.079998403787612915e-01
2.984440916154333934e-01,3.794173308288598112e-02,1.804238569922729796e-01,9.703729591817748801e-03,9.271620863571007620e-02,-1.436219934158427386e-02,2.788115739822387695e-01
2.206101254951780277e-01,-4.579129747651539128e-03,2.211013996098932788e-01,-2.623931025996943233e-03,-1.620550579968517391e-04,-2.237421486635128749e-03,2.255145758390426636e-01
2.210374652015670294e-01,-2.344657700266011835e-03,2.210869837586385833e-01,3.916868701409885359e-04,-4.628401914126321166e-04,-5.979766272863263525e-04,2.234117537736892700e-01
2.231330569287401366e-01,-3.392213511407837778e-05,2.225598092893288082e-01,2.189937884296062030e-03,-1.491599854478514774e-03,-1.824949140909250603e-03,2.229505628347396851e-01
2.210515439578940033e-01,-1.474818705268249319e-03,2.201717664261794993e-01,2.164993648602478189e-03,4.907524355762625653e-04,-8.233640427516959953e-04,2.221256345510482788e-01
2.346371494876619002e-01,5.582588340502653290e-03,2.299097214598322669e-01,1.641521093801030264e-03,1.316843642503868735e-03,-1.369734871587149514e-03,2.267695218324661255e-01
2.194101672734760089e-01,-5.228499556155619121e-03,2.194564140504697280e-01,8.683064962794617573e-04,-7.280550145687631283e-05,-8.464050496592043183e-04,2.246716469526290894e-01
2.138390855224215625e-01,3.905726369208134541e-03,2.096415184808725907e-01,3.200462230992841880e-03,1.885138515228842028e-04,-7.386879083197991740e-04,2.079444527626037598e-01
2.229248079716318887e-01,-1.681495214712336317e-03,2.228185491150855846e-01,1.712294287556375468e-03,6.060463943902164800e-05,-2.437029635805759882e-03,2.246124744415283203e-01
2.188996579493106553e-01,-2.965345357697629636e-03,2.205969277212795066e-01,1.412846192414328331e-03,7.887130812258959320e-04,-2.591593171038062294e-03,2.227813452482223511e-01
2.171084562432977205e-01,-9.482318025277880480e-04,2.164068313979606306e-01,1.146776632659509158e-03,8.152090809293345303e-04,-2.080302285141361063e-03,2.177501767873764038e-01
2.307679850497780238e-01,1.118310774981065570e-02,1.796311946001591386e-01,-4.084171747353285316e-03,-5.605186014344703226e-03,-2.604359235663811917e-03,1.994198262691497803e-01
2.150693184343362430e-01,1.239132752634486412e-03,2.145390310381305454e-01,1.839920626860613645e-03,2.905834002545721272e-04,-3.809718206501123950e-04,2.135909199714660645e-01
2.008011970003981683e-01,1.259106552991011430e-02,1.971764212016942630e-01,8.526953784700020767e-04,-1.337886164715103039e-03,6.230676269988451397e-04,1.864475458860397339e-01
2.617572911073171582e-01,-1.927940227400426476e-02,6.463332518624395617e-02,1.295151181931740317e-03,2.159765133024135666e-03,-5.736223022540754349e-03,2.501162886619567871e-01
2.173545316935292793e-01,-1.440023238916093851e-03,2.150086807525297961e-01,8.412740137288615087e-04,-1.406130930449017973e-03,1.894808433084938391e-05,2.176496237516403198e-01
2.228824099189308239e-01,-5.197526872512930884e-03,2.224072949705669933e-01,-8.650936847373435871e-04,1.956835725853220929e-03,-8.584879735989967876e-04,2.278777360916137695e-01
2.016033401194101127e-01,2.231464936894872464e-02,2.119849231805676359e-01,5.342418838653323473e-04,-1.653104549858655167e-02,4.938883152904859379e-04,1.869088709354400635e-01
2.318614310059906036e-01,1.075123866728416866e-02,2.289628802652334816e-01,3.067179225479691081e-03,1.082772089532332144e-03,-5.849094609500320001e-03,2.199808955192565918e-01
1.373501281782077699e-01,1.989278125106971884e-02,2.516077055777988791e-01,-5.634566409209845403e-03,-3.501996846035786842e-02,-1.662144069494443568e-03,2.098907828330993652e-01
2.223455753304778848e-01,9.686912518809265293e-04,2.242770841586417541e-01,-1.411794876833338645e-03,1.121576899451054730e-04,-3.136239035906034089e-03,2.224287986755371094e-01
1.735082518070203417e-01,2.549796047283059419e-02,2.312323024506333091e-01,9.931517116309851022e-04,-1.122191865447124369e-02,-1.191311839047491010e-03,1.848455518484115601e-01
1.679120610815493797e-01,-1.225421424142167370e-02,1.834230192089912614e-01,-9.366076272453517301e-03,-2.243073443976987755e-02,-7.981465687681800480e-03,1.935425549745559692e-01
2.294124904669343490e-01,1.522696162870770809e-02,2.365078370933642593e-01,-6.408687693077040788e-04,-1.478013938843299787e-03,1.504864907440481986e-03,2.178533524274826050e-01
1.683277331887507999e-01,6.304194368134813375e-04,1.958839856904268928e-01,3.449001068366168779e-03,-8.579598795515602089e-03,3.045317393655389612e-03,1.838129013776779175e-01
1.596479826595405549e-01,8.445540813869861774e-03,2.142163853871196233e-01,-1.660212136947332483e-03,-1.404296895925592238e-02,-6.100121846151085846e-03,1.865537017583847046e-01
2.327265485090036778e-01,1.137764135540356158e-02,1.782319420590190717e-01,-2.684973529000665975e-03,-1.854202967907703529e-03,-2.887283544665063088e-03,1.998990476131439209e-01
2.258358886976977731e-01,-8.822699833035407835e-04,2.244850998183560153e-01,-2.573297969405819938e-03,2.505757329546202342e-03,-3.340238874470676141e-03,2.262053787708282471e-01
2.092756554654309209e-01,2.612197500915022785e-02,2.123521189378873575e-01,-1.912484935121371715e-03,8.564674512763771966e-03,1.380405981323910283e-03,1.853508800268173218e-01
2.129239234980392359e-01,1.674146782252650123e-02,2.118292451720032443e-01,-4.901630717358479612e-03,5.998381570938844491e-03,5.027035000278979107e-03,1.962901651859283447e-01
2.046581923294293337e-01,1.545241387139145717e-02,2.064554902387924495e-01,-3.257556823316009437e-04,1.753647958485908152e-04,1.592643161714253673e-03,1.901318877935409546e-01
2.007321696180918158e-01,1.345969349990999708e-02,2.019183320681093852e-01,2.716658136725164986e-04,-2.975837630649625894e-04,2.586525449531587193e-04,1.878701895475387573e-01
2.336002987324571900e-01,1.767375839096757550e-02,1.496298357772291310e-01,1.035199169271845991e-03,-1.293133020586206914e-03,-8.372552403778651476e-04,1.885581910610198975e-01
1.984690228725921879e-01,1.857645938702211230e-02,2.052704400447305511e-01,1.014268360980908170e-03,2.875626451835532147e-03,1.636700759261859161e-03,1.834858208894729614e-01
2.045633680915046049e-01,1.883158060001889622e-02,2.059314429488924847e-01,1.249742535504292957e-04,5.295766119187359780e-04,-3.656885731488395590e-04,1.864230483770370483e-01
1.817805319645765805e-01,8.712638788723442440e-03,2.319999935720293283e-01,-1.649523456736124794e-03,2.540122298755977549e-03,4.572499217802066147e-03,2.031159996986389160e-01
2.121462701554141239e-01,-3.826265695629077479e-03,2.169905480819892818e-01,-2.136202280189144261e-03,-4.790123017759836651e-04,-2.804748357495133026e-03,2.185218781232833862e-01
2.214360529299739810e-01,-2.508677129029107666e-03,2.233776415566943729e-01,1.277849832842066751e-03,-1.404231749482575536e-03,-1.175433465920213902e-03,2.249550670385360718e-01
2.218388919455463182e-01,-3.087923177071433267e-03,2.209527880809082356e-01,3.619379218674676716e-04,-4.943233956023128069e-04,-6.740687871362487571e-04,2.244906127452850342e-01
2.235668461195901013e-01,2.010138207660966403e-03,2.198456107652036196e-01,-3.184709446367910059e-03,6.255565290305048541e-05,-8.915303797790905243e-04,2.197944074869155884e-01
2.160722487328890495e-01,-1.514947144543921098e-03,2.122476717655313316e-01,-4.149921563199795820e-03,-7.834241269064200642e-04,-2.897265454713187673e-03,2.158826589584350586e-01
2.211239610546629764e-01,-1.765769440684739067e-04,2.203111845247525125e-01,-2.202764380449146863e-03,1.482323157841972799e-04,-1.527597290801907190e-03,2.209442108869552612e-01
2.070928647077643903e-01,1.103488589390633212e-03,2.109623749484135780e-01,-2.734276107030707975e-03,-1.485721025367488235e-03,-8.443435123455226730e-04,2.080261111259460449e-01
2.215596252055542781e-01,-4.933354260430733440e-03,2.193431319308397631e-01,-2.954156606896605770e-03,-1.152533774731750207e-04,-1.887407361773206244e-03,2.254747599363327026e-01
2.225581967640358205e-01,-5.060327408134307481e-03,2.236787774568625708e-01,-1.034164861130235655e-03,2.066111605931793705e-03,-5.409676789399846903e-04,2.282178848981857300e-01
2.146078962843830928e-01,1.015920278209106464e-02,2.320330884586710163e-01,-1.440725266561867970e-03,1.314821039678196906e-04,-3.622302175297364719e-03,2.138015627861022949e-01
2.215706909662852886e-01,2.145766331017179285e-03,2.198649215615240959e-01,-4.549624143891917855e-03,-5.692747352993029293e-04,-3.659475007392175121e-03,2.188130766153335571e-01
2.124873233056319699e-01,3.628458423927949372e-04,2.114253249766268328e-01,-2.042266735811204981e-03,-2.127391628503365849e-03,-2.919205475390441226e-03,2.117175012826919556e-01
2.150432521957794663e-01,-2.564470942807373088e-03,2.132327258991645047e-01,-8.615929013575232337e-04,6.464288169581788391e-04,-6.544781896475547174e-04,2.167191207408905029e-01
2.243720606585802302e-01,3.099544979337592876e-03,2.291064599554469838e-01,2.574678796679795868e-03,-1.094809903095579412e-03,-3.362935382105883015e-03,2.238055914640426636e-01
2.266420926615356490e-01,1.904354456459672607e-03,2.284075292353905939e-01,8.872923674886929336e-04,-2.915449113440016140e-03,-8.005329684403139027e-04,2.256916314363479614e-01
2.181677985072423831e-01,5.889133270268714915e-03,2.176131764649509859e-01,-1.439673259438975332e-03,-3.447231894366677678e-05,-2.095512514198084181e-03,2.120476365089416504e-01
1.711486757631251743e-01,3.396979039757400121e-03,1.937619334784408398e-01,-4.381718436363592878e-04,2.033733337173190131e-02,3.807815113341226796e-04,1.835408359766006470e-01
2.350666163981233736e-01,2.740565629960026173e-02,2.557334493756769911e-01,2.156633953705840503e-02,3.714045113131608788e-02,-1.786713850934638914e-02,2.330947220325469971e-01
2.159128736754774014e-01,-7.325297987750528650e-03,2.135903866607587465e-01,1.462056181221976217e-03,2.633220206710190658e-04,-2.344738194829350860e-03,2.221380621194839478e-01
2.028767215329763118e-01,7.748282498015901520e-03,2.355568283852189082e-01,-9.198877825373603934e-03,-2.262826584453344995e-03,-1.061455523260527133e-03,2.139918506145477295e-01
2.127069550687549215e-01,1.022674770730339078e-02,2.114543801493920516e-01,5.120845664854995448e-03,1.874723826244066235e-03,-3.872715204734410513e-03,2.021889984607696533e-01
2.260505282059797338e-01,-5.039737422734003047e-04,2.250096455494948189e-01,1.364749129820081450e-04,1.643447071262105512e-03,-7.477157401365626399e-04,2.260576188564300537e-01
1.868434878989251036e-01,8.433569004133251168e-03,2.180948662814914119e-01,1.772928296682860574e-03,3.367020423450993970e-03,-6.518996924372491737e-03,1.963497847318649292e-01
1.549314539203775209e-01,1.086197658190100890e-02,2.267277194359709758e-01,4.793009687720415322e-04,5.183655898850018408e-03,-3.004584137392723314e-03,1.906901895999908447e-01
2.169690474932885471e-01,-7.578365444929097139e-03,2.466010318618501174e-01,2.686312614132213561e-02,1.831743933788643891e-02,-1.114222694580846267e-02,2.479864805936813354e-01
1.922469586717344414e-01,1.938103998817408691e-02,2.386161003112203804e-01,1.193297343590551951e-02,6.435349092732676503e-03,-2.555646417643299678e-03,2.015425264835357666e-01
2.072625886924232552e-01,2.571540416498346859e-03,2.053462133419751701e-01,2.212349511317359720e-03,8.114827958217899579e-04,-9.963518549939564140e-04,2.037878036499023438e-01
2.230142973791465200e-01,-2.441564023092729352e-03,2.230324025026289014e-01,2.875483673984183751e-04,9.381958823649594846e-04,1.202868346602464777e-03,2.254809439182281494e-01
2.213708012280184434e-01,-3.860853452822665677e-03,2.204739732310358191e-01,2.512451344112147269e-04,4.983253468016959594e-04,5.441583077507450164e-04,2.247886359691619873e-01
2.528530371826330780e-01,1.949759194197631107e-02,2.156663032825975046e-01,8.610082370611013471e-04,-1.144077454247208062e-03,-1.033586470255081630e-02,2.179140448570251465e-01
2.260016463313260782e-01,3.249237135665439258e-04,1.978096307189076419e-01,-3.818378291993981821e-03,7.817778793875142978e-04,-2.513110473927585801e-03,2.131361365318298340e-01
2.206315517524264358e-01,-4.854416306082826038e-03,2.209242170263902016e-01,7.177621509296123851e-04,7.687600494468362251e-04,6.807557326088156365e-04,2.256428748369216919e-01
1.950860968477363677e-01,-1.288538146541257090e-02,2.191997990951781439e-01,9.512760571703242352e-03,-1.446391356548957889e-03,5.067488965176569944e-03,2.218183130025863647e-01
1.745163009749977900e-01,-9.458566761685494040e-03,2.206188075219973621e-01,1.103352808803961284e-02,-3.591302910294631116e-03,3.587712691552096683e-03,2.118877470493316650e-01
1.571344045496714248e-01,-1.519818415289753144e-02,2.246677587841348633e-01,2.315365716037418725e-02,-6.023664591972851569e-03,4.785663784784978218e-03,2.183650881052017212e-01
2.245836916167848196e-01,-1.918248130646671434e-03,2.253538917076463866e-01,-1.613527902497630844e-04,2.297190218055503944e-03,-4.394654791986209912e-04,2.269243597984313965e-01
2.423227854800230896e-01,2.938461077744952687e-02,2.326724342696721015e-01,2.451089398138902101e-03,-1.898583578010801026e-03,3.224401062299274250e-03,2.084247916936874390e-01
3.755651419250891632e-01,9.401850696730290613e-02,2.453026392386862542e-01,6.796616585273486041e-03,3.654718300354281579e-02,-4.649149164293511771e-02,2.649375498294830322e-01
3.057732703090499937e-01,5.755120996493806595e-02,2.617791249891445737e-01,1.184419721660731790e-02,5.859102874941923833e-02,-3.484945126813068783e-02,2.588288784027099609e-01
2.267197723672618459e-01,9.287374057313807496e-03,1.863467658233632640e-01,4.251983483431416404e-03,-3.182808872554376920e-03,1.844630001469250600e-03,2.005573809146881104e-01
1.830022487014844601e-01,1.499046249605405501e-02,2.149185954953624356e-01,6.388127446711730278e-04,4.476836313212897121e-03,2.917111344029807690e-03,1.862681210041046143e-01
2.680825317453764400e-01,1.079561913607399171e-02,1.200834385363234030e-01,1.018373584538508937e-02,-1.086160225106163335e-01,1.884342371341041905e-02,2.946026623249053955e-01
2.354904011282838439e-01,3.554746856381121867e-02,2.833432150425764795e-01,2.252161845161546397e-02,-1.463815485129895538e-02,1.222506156876239196e-02,2.333404272794723511e-01
2.252177334048268142e-01,-9.092561992460335141e-04,2.273664779743572728e-01,-3.362396115367166476e-03,2.928296826534945892e-03,-3.116365206482215287e-03,2.274042665958404541e-01
2.398984145868389151e-01,6.194570190265663578e-02,2.392028736334148586e-01,-6.055789377823948784e-04,1.009685033003260247e-03,-2.054845049544932510e-05,1.776176691055297852e-01
1.946552536601657835e-01,-1.728639483989122261e-02,1.035001258376764960e-01,-6.979963112455886236e-03,3.852920403711436459e-02,1.337150726201025847e-02,1.975980848073959351e-01
9.522347660805047243e-02,-2.339137262548365848e-02,2.398634873840947423e-01,-4.328264434054614196e-02,-2.530766405255612320e-02,-3.195299475710192995e-03,2.443744987249374390e-01
2.446875339912106817e-01,1.093338126671189459e-02,1.519610605511020895e-01,2.848808682201502303e-03,2.335822516229676613e-02,2.216039717579411372e-02,2.114200145006179810e-01
2.317879316035305337e-01,-2.058377525904570016e-03,1.344773757662558467e-01,-2.258918373263787884e-03,-5.369420330540822760e-03,-9.820294661850645715e-03,2.044231891632080078e-01
2.310547039159958072e-01,5.776306934131170134e-03,2.251786003529303304e-01,-3.155357159625433007e-04,1.376205709316139598e-03,-4.819483541325623489e-03,2.225686162710189819e-01
2.067996341898656332e-01,6.908971992147683316e-03,2.095810351891496670e-01,-3.400278773226008029e-03,-3.498802663671967718e-03,-5.001393501130341895e-03,2.016592174768447876e-01
2.310963209317685729e-01,7.138181181210220827e-03,1.280240730149024009e-01,5.113804354777526671e-06,3.094424849032691507e-03,-5.200607890750487145e-04,1.942338943481445312e-01
2.473420470420103490e-01,2.263278820001547731e-02,1.652927723994883080e-01,-3.901660202204078071e-03,5.971887610702299653e-04,9.359666220449248258e-03,1.977337896823883057e-01
2.182940353126713307e-01,-7.251232133434482030e-05,2.069359969997210946e-01,-5.368865077614363296e-03,-1.012982099926453342e-03,-1.799897650628036428e-03,2.131478637456893921e-01
1.331874230028219919e-01,-5.254274521156096500e-02,1.340930127778928171e-01,-3.004342977106014625e-02,-7.728387922207857752e-02,-2.047786533403134213e-02,2.378002405166625977e-01
2.065191779288666485e-01,-2.462038222633486373e-02,1.279886980824112286e-01,-7.880009669190484595e-03,2.096892484714659236e-02,1.894238676467126584e-02,2.098162174224853516e-01
2.231440360973745707e-01,1.612467506869277867e-02,1.983909062717841287e-01,-4.401079547359271205e-03,-3.133980422461359050e-03,-1.436879850858140302e-03,1.960589736700057983e-01
2.281197500949642409e-01,1.397540261708832277e-02,1.887737478309542971e-01,-3.747702492059955606e-03,-3.512816454929337459e-03,-1.159244805885946980e-03,1.976445615291595459e-01
2.381723755366336737e-01,1.400990627865530969e-02,1.808183922460650239e-01,-1.720356616748364761e-03,-8.812852306630381384e-04,-3.054065329981355947e-03,2.017941325902938843e-01
2.281969057165310066e-01,-3.582576760282313311e-03,1.459311225551097879e-01,-4.581709740538683108e-03,-5.950916099022054984e-03,2.775556410137949848e-03,2.039955705404281616e-01
2.314797825438138779e-01,1.223068103654592620e-02,1.891600772737705438e-01,-1.680524929155192970e-03,6.999689991804252352e-03,1.241050900562622530e-02,2.029780596494674683e-01
1.894446273005255255e-01,6.197703398510029382e-03,2.148828623880649769e-01,-7.468077980809401410e-04,-4.594296635637313067e-03,-4.735906230758978562e-03,1.975355595350265503e-01
2.129092657650726583e-01,2.652070899805844539e-02,2.217530340753715579e-01,-5.908747530983001275e-03,-9.948910373567499896e-03,-6.168289835159769877e-03,1.923099309206008911e-01
2.264203359537113047e-01,2.028412508992608054e-02,1.753640022523930975e-01,-3.050916622843262080e-03,-2.324633096597539597e-02,-8.845142670243389283e-04,1.903306990861892700e-01
2.329259610551679127e-01,2.707523317378635053e-02,1.997399200056552415e-01,3.615889082680802044e-03,-1.500230251212270743e-02,5.282037363725374315e-03,1.935008913278579712e-01
2.098299118563617949e-01,-1.716040781001404447e-03,2.047806557154306373e-01,-5.271427484045822925e-03,-1.621857503617618081e-03,-6.466151975079137935e-04,2.092881798744201660e-01
1.876228939080021030e-01,-3.222192683830588100e-03,2.099504816670987595e-01,-5.019007805337457988e-03,-5.788647216609652153e-03,-6.089522458273904058e-03,2.036389559507369995e-01
2.118046728146765756e-01,8.973384278249452173e-03,1.950603571845619666e-01,-3.663080322291927069e-03,-3.318218296809588574e-03,-1.286529983135706323e-03,1.951995939016342163e-01
2.110197138462347743e-01,1.510017112764069913e-02,1.974757960984072080e-01,-1.796366394060736277e-03,-1.215362586878534915e-03,-7.024621928043481680e-04,1.895520538091659546e-01
2.366663985062245623e-01,4.306484227708384793e-02,2.414859250552426340e-01,-1.470966366772082307e-04,2.639205722687229630e-05,-7.847044076934527827e-04,1.960606276988983154e-01
1.899771093531280319e-01,-6.959455574655132315e-03,2.013651863715950341e-01,-2.124969760332601123e-03,-5.276618306147306571e-03,-4.001969278365873073e-03,2.032278329133987427e-01
2.196494168297173089e-01,1.628112183923183243e-02,2.250701797880133581e-01,-4.854526409407143236e-03,-4.261290398571403355e-03,-6.030635145886430008e-03,2.066996395587921143e-01
1.811416233059906233e-01,4.964235971728597763e-03,2.039041409873328936e-01,-3.900447091437013805e-03,-6.776166604452353755e-03,-6.841762635305509953e-03,1.894483119249343872e-01
2.166055893293749035e-01,-5.859991739583209069e-03,2.166907842286881491e-01,-1.081093282686248309e-03,5.645484858146075126e-04,-2.226062074984528141e-03,2.225516140460968018e-01
2.259383623627553017e-01,1.452779675291643313e-03,2.243692992422473553e-01,2.846839134576152619e-03,-5.773918928190693422e-04,-1.832672093531798876e-03,2.237842679023742676e-01
2.220461405297536883e-01,-3.081050115304989623e-03,2.222503175277271981e-01,6.445663774074810890e-04,-3.509742173207293825e-04,-5.199343270857527963e-04,2.252347320318222046e-01
2.275115809205164874e-01,2.710802743829161809e-02,1.979691853261735246e-01,7.623380999372800573e-03,2.847996791551234488e-02,-9.174158641941281347e-03,1.948694586753845215e-01
2.212724254109146305e-01,2.825676140770921885e-03,2.159654909563106795e-01,5.188155804934166046e-03,8.223182457478183044e-04,-2.242963973757666242e-03,2.160688191652297974e-01
2.245974207975401926e-01,-8.750278462980320970e-04,2.268744109190171665e-01,1.689757969307227863e-03,-1.110199085365181368e-03,-6.647037876310294031e-04,2.266495078802108765e-01
2.033819560240525681e-01,8.477356370425431775e-03,2.047460940928189088e-01,1.158424394835430105e-03,-8.714975381813868738e-04,-8.239999507479811667e-04,1.956115514039993286e-01
2.236750815485410160e-01,-1.765746751135971460e-03,2.246445522194839561e-01,1.421143108388327756e-03,-9.810072206533231899e-04,-6.878197808488737287e-04,2.259500622749328613e-01
2.007839842954779186e-01,5.167407143978036688e-03,2.180578944026392851e-01,-4.990826737402247193e-03,2.064960571867622500e-03,6.453029223052445321e-03,2.053186297416687012e-01
2.224069590155201004e-01,-3.220725846692890082e-03,2.237624454476867530e-01,9.283847666593713840e-04,-5.416287097007016884e-04,-2.591188949801359219e-04,2.263165712356567383e-01
2.224557288426057544e-01,-2.902597865472061889e-03,2.240041978844506121e-01,8.641712766299707244e-04,-1.725075588096163740e-03,-5.196393627458089932e-04,2.261630147695541382e-01
2.206571746578278037e-01,-5.896400938053297791e-03,2.214893530900185481e-01,-2.213910404380809143e-03,-4.819420354437194262e-04,8.246498263614726295e-04,2.270092219114303589e-01
2.273425820884298898e-01,-1.909026367875599206e-03,2.248009366324847935e-01,3.753152272644686175e-04,-1.170136848935708846e-03,-9.586725985337745575e-04,2.280073910951614380e-01
2.263528634397427020e-01,8.296863922328534535e-03,1.803730534625744009e-01,4.400954424190453920e-03,3.444968695743824173e-03,-1.269149715640273401e-03,1.993362158536911011e-01
2.258095728666333346e-01,-2.523335454136521605e-03,2.241595911807136576e-01,1.172105923011659292e-04,-1.246761881710542995e-03,-9.881001997101358011e-04,2.275291830301284790e-01
2.202999921946672823e-01,-6.486332800433064483e-03,2.207800176630142497e-01,1.862096095468435825e-03,-3.667497490729739861e-04,-1.863337327451714031e-03,2.270734459161758423e-01
2.070057115233372991e-01,7.762408993520986122e-03,2.011055338306581286e-01,3.386447724834816628e-03,7.145173543912871662e-04,-1.640931109545820102e-03,1.964717507362365723e-01
2.237796022751755709e-01,-3.002829145005880829e-03,2.251975688305565548e-01,2.050508170100026444e-03,-4.383302467513441967e-04,-1.668962585890681203e-03,2.275420874357223511e-01
2.539798473991771166e-01,-1.010411034391954510e-02,7.151973560196879520e-02,-8.485537052644348543e-03,-3.813355050123417439e-02,-3.703594510776660187e-02,2.520729005336761475e-01
2.653936905008453806e-01,1.823859226269913814e-02,2.189264474892841650e-01,-8.968208482724830677e-03,9.055342571413094871e-04,-1.765519935718869171e-02,2.300849705934524536e-01
2.602971272166098027e-01,7.554079056635382150e-03,1.970920352402973363e-01,7.162091048304862484e-03,6.985319859448178240e-04,-1.273565358833468435e-02,2.292187213897705078e-01
2.209095344470919930e-01,-2.456843495839244884e-03,2.207126014617950271e-01,7.047540724982311955e-04,-2.246231458094914007e-04,-5.122446148740437402e-04,2.232734113931655884e-01
2.214397424150824634e-01,1.229533532932369777e-02,1.983535123628010766e-01,5.305755059156372182e-03,2.979703853077825173e-03,-1.432463100325314601e-03,1.989051252603530884e-01
2.220234460736705273e-01,1.142889632476881689e-02,2.330670380159949318e-01,1.512282167552402067e-03,9.236578528473845476e-04,5.972498260671964179e-04,2.163521051406860352e-01
2.284635141129435221e-01,1.791647160619137813e-02,1.683131410656549254e-01,-1.751935605948554174e-03,-6.652750663856939715e-03,-5.100763497239454818e-04,1.882190406322479248e-01
3.038991926871257299e-01,3.765413103446077492e-02,2.191127560532797058e-01,-4.346847104955092397e-03,1.335723144765774834e-02,-2.831774136301216938e-02,2.418652921915054321e-01
2.597824535359970488e-01,2.605665180821781224e-03,1.722878463264704008e-01,-5.733175125547142204e-04,-9.236131684991133114e-03,-3.182918667860240580e-02,2.336446493864059448e-01
2.199640565416157711e-01,1.694039806096481193e-02,1.904922628772839355e-01,-4.582301355546248255e-03,2.481511271645153033e-03,8.631535464809475923e-04,1.902299225330352783e-01
2.216995712719237732e-01,-4.694499846085609107e-03,2.219428209820163145e-01,-7.463795335731493452e-04,1.303679305979999446e-03,-3.059803695151605703e-04,2.265313565731048584e-01
2.352319542428574217e-01,1.882775308726564178e-02,1.927558408507355492e-01,-2.307607684141510084e-03,-2.393824412299401343e-03,-1.113565431680211062e-03,1.986954361200332642e-01
2.531754154175715477e-01,6.824579296627358849e-03,1.299820447369688381e-01,1.834889219368438483e-03,-1.285474274194532349e-02,-2.728697482163327734e-02,2.196727544069290161e-01
2.387176406579242238e-01,-2.740964296545199408e-02,4.424727418205286894e-02,-1.098440822899941077e-02,-1.616745126906008606e-02,-3.778797336710845722e-02,2.496367543935775757e-01
2.632730557535313265e-01,-7.751601996746043666e-03,9.171940909265360875e-02,-6.295688672376583035e-03,-4.894336656729626062e-02,-2.841354819039138002e-02,2.571322619915008545e-01
2.235765668739703727e-01,-3.489299381798205424e-03,2.253592009852782851e-01,-9.225006994185163019e-04,1.787820734637893347e-03,5.067092663584301443e-06,2.279890477657318115e-01
2.961806202854261327e-01,3.273163918410090800e-02,1.859858140079961031e-01,-1.625838000162989003e-02,-2.371048630647699593e-02,-3.274207126878871804e-02,2.412742227315902710e-01
2.026368674988675012e-01,9.130824046790830817e-03,1.790313738095661578e-01,-1.582804030777370825e-03,-7.632564265092715676e-03,-4.835596439335391366e-04,1.833493560552597046e-01
2.293032417937995726e-01,7.187824665748063224e-03,1.415186528958351508e-01,1.419731079976531017e-04,-1.200493150861476916e-03,-1.268768183639741847e-03,1.937841475009918213e-01
2.349888098059660924e-01,-1.872367101797872690e-02,1.182960560063305300e-01,-8.541108028999865390e-03,-1.693618988367863931e-03,-4.114354486192483423e-02,2.317037880420684814e-01
2.313868202171379118e-01,-2.378550497853713919e-02,5.473623014176429852e-02,2.839918026001135576e-03,6.016951563411054860e-02,-8.829986737361517068e-03,2.497222870588302612e-01
2.187488262629927460e-01,4.300956406733391635e-04,1.932221205565529121e-01,7.634910584147633870e-03,-2.498047259343224181e-03,5.140671627994664386e-03,2.073996067047119141e-01
2.387526169407067078e-01,3.272157833716757280e-02,2.325901092896834887e-01,-2.128381606362497909e-03,-3.259843017511866747e-04,1.187928095273993977e-03,2.030646204948425293e-01
1.611916451100538772e-01,1.595952716473271471e-02,2.283576503506550837e-01,1.467389897844755290e-03,-5.498998033838237501e-03,2.013925254497677449e-03,1.883285641670227051e-01
2.486537780231150019e-01,3.304966797583863691e-02,1.919786961473887443e-01,-8.880224156954559522e-03,1.507373681929140459e-02,1.282397936322873799e-02,1.972039788961410522e-01
1.733775422868737703e-01,-3.246972950974841288e-03,1.789922800425792770e-01,1.835533276744590004e-03,-1.686865080688841265e-02,2.708916864646411776e-03,1.819484084844589233e-01
2.556888179367646785e-01,6.968417461149206682e-03,1.004382481974551156e-01,7.941120637983779601e-04,-5.029339459316140536e-03,1.269308312441138654e-02,2.188874334096908569e-01
2.195579364644714704e-01,-7.261666044945574994e-03,1.923636188153126647e-01,9.551437971071221125e-03,-5.690355520929701524e-03,9.837113134356752914e-03,2.160546183586120605e-01
2.469505181967443508e-01,2.582396521380303511e-02,1.632390493344244575e-01,-9.990691534678289385e-04,3.730637375866293140e-03,-8.737491532587213922e-03,1.940812021493911743e-01
2.245640820941011695e-01,-1.371539438980440284e-03,2.271152192786887736e-01,8.075834676794227049e-04,1.363343181485650009e-03,2.303897803701761456e-04,2.272388637065887451e-01
2.261058952421802770e-01,1.344820023036714940e-02,1.598012084868640492e-01,6.329758460768617053e-04,-5.015797014506158218e-03,1.386007603264201261e-03,1.886845082044601440e-01
2.279807552812800897e-01,-2.826258225917234468e-02,5.724585133892253624e-02,-7.011814463490180158e-03,9.302054435828568252e-03,3.022552257008576104e-02,2.328286916017532349e-01
2.024444897081660311e-01,9.024151977080896447e-03,2.043837826420967785e-01,-1.417099004922309094e-03,-6.573530176037598732e-04,-1.321432785494298283e-03,1.944295465946197510e-01
1.517704675343426735e-01,2.882899168211160157e-02,2.605672234863550818e-01,7.965170512389159463e-03,-2.574802042843286551e-02,2.824298514622519771e-03,2.062283158302307129e-01
2.303020055472267125e-01,1.814488122525023672e-02,2.372069750561399959e-01,4.960364544285585906e-05,1.806534706792134253e-04,-6.412980540777119248e-04,2.156956195831298828e-01
1.682664157088061552e-01,2.722261296602815350e-02,2.452108398670622968e-01,3.179102764444768827e-03,-2.733353746723087008e-03,1.123535103796983320e-03,1.916320770978927612e-01
1.521776303802216956e-01,1.774693067899082988e-02,2.372512877009405607e-01,-4.781933115523716500e-04,-8.344328590561462394e-03,1.557296794155249705e-03,1.922563314437866211e-01
2.170507207519144777e-01,4.665996085272239302e-03,2.093333258447896417e-01,-3.654565139017392460e-03,-1.613720396685749047e-03,-6.433709747417793584e-04,2.087507992982864380e-01
2.056623537387864409e-01,5.579601796605077046e-03,1.920081572201017828e-01,-4.798968703485624598e-03,-2.563179226198945924e-03,-1.381293887422718443e-03,1.938610374927520752e-01
1.706322475673963390e-01,3.093360383235879696e-02,2.549591562697126612e-01,-4.768694310415888711e-03,7.551863620807400083e-03,-1.040725853626043489e-03,1.965951621532440186e-01
1.244338964798465397e-01,2.495363563247338101e-03,2.274933902472531799e-01,5.987505575822513540e-03,8.829960947850363714e-03,2.128485134001643876e-04,1.959560662508010864e-01
8.050631658670837076e-02,-2.364953522393824226e-02,2.417215465424026877e-01,1.429345348548848385e-02,-3.101093282999523026e-02,7.216996064375520367e-03,2.393418103456497192e-01
1.478131185377237755e-01,1.772507915710339055e-02,2.429255082829637202e-01,-1.051292632419717184e-03,1.495205729339599667e-03,6.356281626832370598e-04,1.958404481410980225e-01
1.503007304545979084e-01,2.324888725331894501e-02,2.485732094182494523e-01,1.110309012250787269e-03,4.836462591908763896e-03,1.663814740487303966e-04,1.958553194999694824e-01
2.243174187182407908e-01,-2.753372839639445235e-03,2.242726591303164374e-01,-4.790044143973297072e-04,-2.877657606308862970e-03,7.287150061114482666e-04,2.271081358194351196e-01
2.253026139450408638e-01,-1.494889605765381546e-04,2.242668248238505746e-01,1.864094362771024976e-03,-1.035903154929681625e-03,-1.012697194631436521e-03,2.249731570482254028e-01
2.048800737760900770e-01,1.433287394259821768e-02,2.023907756006269321e-01,2.938877416565053614e-04,1.506505348657447094e-03,1.029035562895741794e-04,1.893335729837417603e-01
2.273341517351561980e-01,8.705504196565266861e-03,2.384650046572556470e-01,-4.583807731901664781e-03,2.541062262924591460e-04,2.428474949966793345e-04,2.245424389839172363e-01
2.131554745864681633e-01,1.856642676185460417e-03,2.169897954259899509e-01,3.911518965951457823e-03,3.357324416680346982e-03,-4.795944490144891589e-03,2.135902643203735352e-01
2.091979484579525317e-01,2.132062434948012175e-04,2.283205139288646823e-01,8.959082891082296649e-03,4.179459031023298465e-03,-8.440588324885091656e-03,2.203260064125061035e-01
2.129003633766288761e-01,-1.469388486793926640e-03,2.128771905043969070e-01,1.542181713556771503e-03,-5.637279557239093333e-06,-1.048643446864867520e-03,2.143824994564056396e-01
2.129733022332086778e-01,-3.621820450371265876e-03,2.168780612718322343e-01,-7.193484964465166520e-05,-2.111667198533557881e-03,-1.067398552392211835e-03,2.186121195554733276e-01
2.144750510998494342e-01,2.544574677826202946e-02,2.015032356081381537e-01,3.234752316071802872e-03,2.401227477167185240e-03,-1.338273639332964457e-03,1.830364763736724854e-01
2.658406466856219064e-01,1.907362224392296357e-02,1.326139493372629485e-01,4.031719827319938374e-04,-5.144231614384466023e-03,-1.015764426643436108e-02,2.148412764072418213e-01
2.199038108833722416e-01,-5.544741237392680766e-03,2.192626749993483171e-01,2.729710950016782031e-03,-3.706068764740020412e-04,-1.619645156513831478e-03,2.251967042684555054e-01
2.188945378343995496e-01,5.357740875698846494e-04,2.197490360589565428e-01,2.218397500445898687e-03,-4.421286638894736886e-04,-1.273954712663169682e-03,2.188334614038467407e-01
2.221619121917781103e-01,2.885039184877730145e-03,2.219121955101132360e-01,1.738347322931719672e-03,-1.086823426749219078e-03,-9.978091794051306175e-04,2.191877067089080811e-01
2.391042067500370738e-01,1.395699621164622761e-02,1.481147715071813309e-01,3.821785797942976954e-04,1.527921065305203529e-03,1.640863225753133852e-04,1.961933970451354980e-01
2.378535393701439182e-01,7.994881362425904081e-03,2.345864164160893495e-01,-1.676786377642174464e-03,-8.698820914673332638e-04,-5.340019355665574785e-04,2.282679527997970581e-01
2.307854094876101991e-01,9.428766353478640339e-03,2.399533292593881983e-01,-3.965533770069936889e-03,-1.072430785157819189e-04,-1.505785523013273902e-03,2.261994928121566772e-01
2.140766674174914286e-01,1.210051582543848758e-02,1.710409659471862076e-01,3.191967666336426989e-03,5.643708762412813322e-03,-5.263283630938701352e-04,1.846109479665756226e-01
2.155294638885962288e-01,2.465610260871900494e-02,2.168362739552595064e-01,-3.087150481407868741e-03,5.036442036045147251e-03,3.620013526582562761e-03,1.919056624174118042e-01
2.052089147956863147e-01,1.681457437906272445e-02,2.442894626661306079e-01,-7.970634501017651724e-03,-1.034180253020556238e-02,-5.009737571017653518e-03,2.120589911937713623e-01
1.961214089728410548e-01,6.949754258286228170e-03,2.351575700956720083e-01,-6.062254047861243174e-03,-8.207846067176937169e-03,-6.888012668874131210e-03,2.124828547239303589e-01
2.320708314106075254e-01,1.798853961086910314e-02,2.116279439478077895e-01,-8.469978599631782998e-03,1.069691863113400761e-02,5.091099581364097459e-03,2.061769366264343262e-01
2.351492178863653359e-01,3.186036799479044501e-02,2.327722794281316121e-01,1.237137607343920948e-03,2.192850073529470801e-03,8.459085716865694278e-04,2.021632194519042969e-01
2.300959063182555497e-01,8.047905980660546854e-03,1.430276442992427788e-01,-1.476394408173477670e-03,1.410027354860102352e-03,1.623282343606812742e-04,1.938180774450302124e-01
2.005179840207498843e-01,-1.320030365274171835e-03,2.418697397174551511e-01,-1.526457997418811767e-02,-3.360637893522460101e-03,-5.391318898396276621e-03,2.271893769502639771e-01
2.076670203233903222e-01,4.998330783231919039e-03,2.091416897478843850e-01,2.006746880395878657e-04,-3.217305769545162242e-04,-2.047633738804866769e-03,2.034420073032379150e-01
2.056285321985135139e-01,-6.717654054006927389e-03,2.268444240589865823e-01,-6.264308645011183035e-03,1.622668207379141707e-03,-8.954265036632138393e-04,2.239958941936492920e-01
2.026847230023614832e-01,-4.357498175226376391e-03,2.299278759505204439e-01,-1.092564047884053875e-02,-1.414276003839120939e-05,-4.772919309327163309e-03,2.228802442550659180e-01
2.804439383412837827e-01,7.209263677733065978e-02,2.849754373599994173e-01,7.236701747649838638e-03,4.709445742674248959e-03,4.533818168563299826e-03,2.113297283649444580e-01
2.056499384393778995e-01,1.359428830309328262e-02,1.992252577161174598e-01,-7.043331375678571916e-04,-1.173286329355201912e-03,-1.647258425765234452e-03,1.889616698026657104e-01
2.223522035694115440e-01,-5.085887028236840690e-03,2.229105354238392622e-01,-1.638337599655380165e-03,8.319577879422766688e-04,-4.303327807502316769e-04,2.277412265539169312e-01
2.476280950730949115e-01,5.746023796228560965e-02,2.501583339582630905e-01,1.271588687707879287e-03,4.310947564361106653e-04,-3.765781074506049713e-04,1.914607584476470947e-01
2.302428932928370087e-01,9.475772891685635413e-03,1.764497844822628114e-01,-3.255698780211270169e-03,2.892649009153391761e-03,9.884436914394569961e-04,1.995392292737960815e-01
2.988966804700275981e-01,4.958703020833052366e-02,3.867209993617862218e-01,-3.405706978673269519e-02,1.620803506984504552e-02,-1.189894729869556481e-02,3.105742633342742920e-01
2.369344112230866162e-01,4.029377856053403817e-02,2.359576176211910792e-01,2.508435886058603924e-03,3.220173102176925343e-04,4.757048863500895619e-03,1.963758915662765503e-01
2.310364270844228185e-01,-2.333544066452891697e-03,2.097989910840481753e-01,-2.070040442832407016e-03,-9.286742779034228143e-04,5.330141528567413842e-03,2.237343639135360718e-01
2.308868014833452831e-01,4.925864101981543286e-02,2.355031843687686033e-01,4.777647339803715323e-04,-1.562774173541681957e-03,-6.533100675320032959e-06,1.840015649795532227e-01
2.202302474124315790e-01,2.094655910674139698e-02,1.827332070816946041e-01,-1.370613138209162774e-03,-5.559536673585361438e-03,2.962345964318301769e-04,1.837010979652404785e-01
2.221181927503893538e-01,-3.449050598489850072e-03,2.229693377273196664e-01,-9.015846722131459117e-04,9.756960293894055862e-04,-2.016207559010328666e-08,2.260057330131530762e-01
2.332101352291753305e-01,1.320209973730979147e-02,2.293812276847095877e-01,-3.851784892021275879e-03,2.890755566022312414e-03,-4.204630682860953546e-03,2.183996737003326416e-01
2.463450134731133279e-01,5.029024174046053952e-02,2.458513451411478146e-01,-3.272842428580646865e-03,2.602007368146782521e-03,-1.049998668094174288e-03,1.959507167339324951e-01
2.387748208223442470e-01,3.184474863798683608e-02,2.408886827154195220e-01,2.230781241103126002e-03,2.658161165496450776e-03,1.234133521365197430e-03,2.080928683280944824e-01
2.477882055154553287e-01,5.650087028049535776e-02,2.461896880399295495e-01,1.480439454380149669e-03,8.476086213169244706e-04,2.226065796109010907e-03,1.905550360679626465e-01
1.914349558545654917e-01,-5.340191712400133017e-03,2.088009963519288914e-01,-2.602762422359117603e-02,4.170259243689044409e-02,1.519989683644905158e-02,2.244593203067779541e-01
2.029289295900631451e-01,1.402751172353311482e-02,2.029537131134404870e-01,4.431354664970554402e-04,-9.359701766816373638e-04,-5.362782214128912267e-04,1.889246106147766113e-01
1.943039318300446572e-01,1.707603334273810614e-02,2.101834496597286550e-01,8.962554558566522209e-04,-3.791798676992903447e-03,2.590918079627203482e-03,1.858544051647186279e-01
2.069272040949454716e-01,1.786055377399209387e-02,2.010125316874024626e-01,2.207932711982084090e-03,-1.332250294343228928e-03,6.204441214762697419e-04,1.862364560365676880e-01
2.443194272867194317e-01,5.253608822375763210e-02,2.439581622701031960e-01,4.517031638813826834e-03,-6.667479085909188427e-05,1.938640313421377114e-03,1.917920559644699097e-01
2.561831251800831821e-01,2.003000085775132055e-02,1.552255903066651899e-01,1.204583141985997655e-02,-5.833512285574649070e-02,4.178513883922393979e-02,2.408351004123687744e-01
2.252205546336933373e-01,-4.409709136565276300e-02,1.730450857760574279e-01,2.002357327120218161e-02,-3.777831056286647116e-02,2.857114232186935832e-02,2.629369795322418213e-01
2.365915074210991620e-01,3.368680516944158598e-02,2.413981753076332171e-01,-3.339281752179938602e-04,2.772563532766292478e-03,3.807382726832725947e-04,2.054082453250885010e-01
2.105389816719738239e-01,1.974441621793600332e-02,1.960567635629802408e-01,-4.659697721550235656e-04,-3.315524203488747369e-03,4.885969481500809048e-04,1.840747594833374023e-01
2.272127358862602031e-01,5.346383263948234488e-03,2.301562755517475578e-01,6.184448619024013414e-04,1.993461018523982452e-03,7.432851337421644746e-04,2.233856320381164551e-01
2.362492930854814821e-01,2.022100412413768700e-02,2.362327384781562067e-01,8.828668818527214343e-05,-1.312416861231410249e-03,1.014550494131042854e-03,2.160391658544540405e-01
2.300600709017939227e-01,3.898252761823928214e-04,2.256692259959721947e-01,-4.002677200097578684e-10,2.787164182529954762e-04,-6.190788044782765407e-04,2.275096476078033447e-01
2.091271755179112124e-01,-5.879778695171622438e-02,7.194771584985390489e-02,-1.007129210818854224e-02,6.137508958334862708e-03,3.752882814303155901e-02,2.418485581874847412e-01
2.752929581423929628e-01,2.008107726685187666e-02,2.178414075486836410e-01,-5.049741718348061542e-03,3.616751796975269714e-03,2.135705314067017427e-02,2.350650578737258911e-01
2.163046703492362000e-01,7.653825588319257411e-03,2.178645783489386867e-01,-2.997521920754971352e-04,1.349179479453548091e-03,5.079614653678483395e-04,2.094506770372390747e-01
2.227882854140290636e-01,-1.740236994967891970e-03,2.234516010047823131e-01,-6.983805975918623522e-04,-3.712701531868863947e-04,4.444854699187306612e-04,2.248664051294326782e-01
2.442055905616666855e-01,1.603049794240724024e-03,1.330486724079041061e-01,9.655169357155463095e-03,-3.756969599316217073e-02,5.315710638031549695e-02,2.392405718564987183e-01
2.019323627805169052e-01,1.403324818286726117e-02,1.981092768749528887e-01,-3.307556334412571435e-04,3.054604298671698311e-03,5.886885362604903039e-04,1.860959380865097046e-01
2.492389711533074537e-01,1.337222472145693786e-02,2.197112273447572595e-01,5.505169748305244887e-04,-5.666160046771828544e-03,1.272643708739486582e-02,2.238827943801879883e-01
2.043983446488786271e-01,-6.363964356700835268e-03,2.236453360796481771e-01,-9.083679174999441039e-03,5.071843271597225970e-03,6.636101798126771423e-03,2.220463007688522339e-01
2.237613311837179930e-01,-1.881330862625707478e-03,2.294163834678210889e-01,7.966613597839673430e-05,-1.546184457061966977e-03,6.966188592730286839e-06,2.285384088754653931e-01
2.031695566298440392e-01,-5.681734143188899022e-04,1.991117421399872245e-01,-6.183360304423615381e-03,7.228297215674888386e-03,6.637054941811389164e-03,2.027372568845748901e-01
2.281709314436118075e-01,5.515085767942740080e-03,2.305371820167028685e-01,5.054371572486758514e-04,-1.455586307584802929e-03,3.201403511997262638e-04,2.238649427890777588e-01
2.216142697892171387e-01,-1.344603308742198244e-03,2.258034783258222045e-01,-2.645934618511404813e-03,-8.237113308059467376e-04,2.901407243394562695e-03,2.251899689435958862e-01
2.210703217593140701e-01,9.064222917171044225e-03,2.163340179873133040e-01,-3.133989094329506665e-03,8.167159990140572187e-04,7.691815305731726027e-04,2.097573280334472656e-01
2.682638998846469391e-01,1.961497364291794887e-02,1.399590873832454729e-01,4.980746799597085897e-03,3.327705446335256501e-02,9.131135089340351382e-03,2.236787974834442139e-01
2.150865447744774728e-01,-2.402012120145097240e-03,1.876941706529949849e-01,-8.464113333949439821e-03,6.298288583484415275e-03,6.343217362078198973e-03,2.062734216451644897e-01
2.211659058853173154e-01,5.855259493971476381e-04,1.701652745375429876e-01,-5.473949278914754663e-03,2.104868511299760967e-03,5.339356990689181261e-04,2.002774775028228760e-01
2.108399466059417138e-01,-8.448444122918341570e-03,2.059488256276461593e-01,-5.370230864493753635e-03,2.027076427069195164e-03,3.544906836865208653e-03,2.171987593173980713e-01
2.052682026453127306e-01,3.092822825555008315e-03,2.049156172330326986e-01,-2.986234548063142549e-03,5.102933407751295003e-03,4.594297471562485032e-03,2.024152129888534546e-01
2.404263352249734476e-01,-2.293224219591682989e-02,4.991371396203849592e-02,9.153398638986993616e-04,-3.242396186130507008e-02,1.194668000517858097e-02,2.430314570665359497e-01
2.308674130080776155e-01,-4.787336910147849123e-03,1.359293841449000506e-01,-4.434866725334145159e-03,7.649162296076240063e-03,1.821565184226162440e-02,2.083356827497482300e-01
2.303075622231108566e-01,3.915480120805156505e-02,2.387152614670042805e-01,8.474009022206376615e-05,1.664084810582355280e-03,1.177221212635704180e-03,1.955241858959197998e-01
6.845440099528311839e-02,-1.638710958590171296e-02,2.366476206792212378e-01,-8.975361681725531338e-03,-1.331054810170338547e-02,4.183776574858202868e-04,2.247899323701858521e-01
8.114950616032680364e-02,-3.238870693176701399e-02,1.900967834723831795e-01,-1.959848010455889425e-02,-6.411792477703980031e-02,-5.500032908860174805e-03,2.251810133457183838e-01
2.160878606989975748e-01,1.420604288915232327e-02,1.773505216475527169e-01,9.936854042904127906e-04,-6.578383594365661870e-03,1.103633249890830816e-03,1.859379708766937256e-01
1.806972518678399142e-01,4.864048197489284631e-02,2.847450598815506884e-01,-8.423969340335488859e-03,-9.212404876279929600e-02,-1.868092991995031274e-02,2.621554732322692871e-01
1.028926816158842600e-01,-1.046315558719927707e-02,2.165076997421407357e-01,-3.182090011581876782e-03,-2.370777064136147735e-02,-2.811265448005827606e-03,2.009405493736267090e-01
6.664846523566984871e-02,-3.597760195680130280e-03,2.821039263378839479e-01,-1.738228358154749950e-02,-3.711889492063089740e-02,-1.388924765357561417e-02,2.685314118862152100e-01
1.592507702447854834e-01,6.381223540589731069e-03,2.334667630531796489e-01,-1.534909811288393336e-03,-1.672114195280662236e-03,-3.230318259672715873e-03,2.006719708442687988e-01
9.914012851401052262e-02,-1.234398898849771442e-02,2.085758115905388399e-01,-3.683505865105111358e-03,-2.186664008409787072e-02,5.535107334489110936e-04,1.951442807912826538e-01
2.302249505387427564e-01,2.182097817659955918e-02,2.301872907750008301e-01,1.357475743086536662e-03,3.350507010473144451e-03,1.360909102535229646e-03,2.084925174713134766e-01
2.282153022402426956e-01,5.666058187587680317e-02,2.694548404022920618e-01,1.623207159067014890e-02,-4.956817887122802468e-02,1.283870688976891487e-02,2.164774984121322632e-01
1.427744418412937588e-01,3.217875892348533162e-02,2.754819164781043828e-01,-4.510938091696165345e-03,-7.526913970231209269e-03,7.627140256478527136e-04,2.115474045276641846e-01
1.290778926928519976e-01,1.857119187972558483e-02,2.644838791876249484e-01,-7.517115389831323900e-03,-1.056217239448997008e-02,-1.135118343805668461e-03,2.145177125930786133e-01
2.524801233697890335e-01,2.778456184103163251e-02,1.629007544172112742e-01,-2.082092646938638579e-04,-2.063086533857484261e-03,4.649673449381308207e-03,1.961178928613662720e-01
1.200285269736618282e-01,3.028163805282665932e-02,2.626305387405069025e-01,-1.820985746372982134e-02,-4.762087377172237804e-03,1.717683915247194019e-03,2.055714130401611328e-01
1.645362646113381899e-01,3.942316095791280339e-02,2.879764174139899935e-01,2.195589113238519824e-02,-3.106346277752791100e-03,4.419974725941472858e-03,2.187886685132980347e-01
2.058769044074106325e-01,1.409752797688609838e-02,2.029850250500601083e-01,2.461166088559249218e-03,-1.033119591191028735e-03,3.653583873879531307e-04,1.904070973396301270e-01
1.216744665976619011e-01,1.000058960353455983e-02,3.045623364085437990e-01,4.551458286343841413e-03,-6.932061905696666748e-02,2.893894383515057973e-03,2.843345701694488525e-01
1.587174457212812140e-01,2.572725155693429688e-02,2.482607112115972070e-01,8.257280380264657308e-04,3.279957597809522816e-03,1.863179873282516360e-03,1.940553933382034302e-01
1.281484736615350339e-01,1.097893146902256811e-03,2.173792667603008377e-01,2.104150349621040396e-03,-1.931210171799406863e-02,1.234217454114167403e-03,1.912525296211242676e-01
2.418543336365993612e-01,1.622032754171448543e-02,1.450059425236080446e-01,-9.614224006336464547e-04,7.185995730036748644e-03,3.987187087461532484e-03,1.965792626142501831e-01
2.270458287742099235e-01,2.329944215912538308e-03,1.528794008172955632e-01,-7.569394828137347014e-03,-9.764556111225517268e-03,-6.430552885040971035e-03,1.997836232185363770e-01
2.581726979742622330e-01,2.016333890018980057e-02,1.434438505920589135e-01,-6.945978223782870928e-03,-1.313254539647617895e-02,-8.947165814710830029e-03,2.083432525396347046e-01
2.726861403610836287e-01,3.385062480988007549e-02,1.687005230496469166e-01,-7.102686902603170573e-03,-2.368298305197550496e-02,-1.587134489198232731e-02,2.135641574859619141e-01
2.110921682747247674e-01,2.043303173761888691e-02,1.964854512357257221e-01,2.658602380474615282e-03,-4.147030559364783993e-03,1.351368577955443630e-03,1.840044409036636353e-01
1.248727741016089354e-01,-1.214090348222708615e-02,1.984873038131777512e-01,1.203534719433712111e-02,-5.441729647547816767e-02,9.659141982189129935e-03,2.094665020704269409e-01
1.944438356985269678e-01,3.344084939257696565e-03,1.819985387709730507e-01,-4.310930360498802828e-03,-1.180190398628447462e-01,7.486356868030749276e-03,2.762337327003479004e-01
4.252362256839176125e-01,1.665404400685492337e-01,4.204564886501474530e-01,3.858211037847376901e-02,-2.458200359659924034e-02,2.496854152835971397e-02,2.717695832252502441e-01
2.179343130508413773e-01,-4.863959696036784797e-03,2.186980286448516886e-01,-9.599491786944147143e-04,-8.523704622459668447e-05,5.606395294686697915e-04,2.231894582509994507e-01
2.316295661857307175e-01,1.258127768795219703e-03,2.255759148492259558e-01,5.750994296428122441e-04,2.184864747770025924e-04,2.594829671962283878e-04,2.274079918861389160e-01
2.510773594088291927e-01,1.110485886268422484e-02,1.697719909603696564e-01,-6.242026463260065203e-03,-4.341073682839900923e-03,-1.777650781471035168e-02,2.140274494886398315e-01
2.110972107836786571e-01,1.462527464846069547e-03,2.076363938937340059e-01,-3.309871907869052976e-04,9.044403175181211238e-04,2.418321136495403274e-03,2.079747468233108521e-01
2.408214555556515701e-01,2.321422057013367013e-02,1.592252444634929265e-01,-1.409559191861568103e-05,-6.155535863968609502e-03,-2.052582759658095821e-03,1.907386630773544312e-01
2.437933502438352773e-01,2.644025305125409508e-02,1.626952759098695411e-01,-6.932755429065403947e-04,-7.872096509472849626e-03,-1.426181464131883857e-03,1.907506287097930908e-01
2.380416894991201071e-01,2.437499933418629805e-03,1.218910063703265018e-01,-2.737378511015013238e-03,-2.006952840511287001e-02,-6.327849122608529206e-03,2.073299139738082886e-01
2.206903067565817167e-01,-1.937519126007342107e-03,2.194389450239428441e-01,4.135048470583130623e-04,-2.164807814251135413e-04,1.007657979436222141e-03,2.220131158828735352e-01
2.201113776155562696e-01,-2.124998192185312273e-03,2.194824099299118036e-01,3.578204281885534205e-04,-9.846141088296415900e-05,1.115699113961277425e-03,2.219319045543670654e-01
2.114230933441536842e-01,1.142236412249642008e-02,2.077748331669073689e-01,-5.623938995325239963e-04,2.174600484076728846e-03,4.449888788454372905e-04,1.982414573431015015e-01
2.102229995267161367e-01,-1.618450661084458453e-03,2.109496452246678588e-01,2.521744889527506583e-03,-1.573514127319891208e-03,5.051911589824222741e-04,2.122699469327926636e-01
2.151484835407174723e-01,2.239416699759244622e-03,2.154429393576401119e-01,3.421330307593052037e-04,-1.667437958643923867e-04,1.618057783405016858e-03,2.130759060382843018e-01
2.305580677568462855e-01,1.562264980754346499e-03,2.242113959063733453e-01,-1.210632864865558191e-03,-7.361180760147511496e-04,-3.742351186677890258e-03,2.259956449270248413e-01
2.296566880470955474e-01,1.130448028490971257e-02,2.338820055435182343e-01,-1.049321046106513333e-03,1.137151349644696316e-03,4.649008096455377586e-04,2.205129861831665039e-01
2.038278988890196985e-01,5.302389414242353327e-03,2.343035725232478494e-01,-2.786691535985148186e-03,-1.300115165315370242e-03,1.185652225265982880e-03,2.154621332883834839e-01
2.167355508553390764e-01,9.332267672508970380e-03,1.863513695704013262e-01,-5.277219211839369491e-03,3.832579589823746288e-03,2.682466887120116619e-03,1.943881213665008545e-01
2.234737847293341295e-01,-1.015340303565398505e-03,2.273470867840102216e-01,-3.685364412335965720e-04,1.849304678826865778e-03,6.489085855703787681e-04,2.264769673347473145e-01
2.184856787812966550e-01,8.835140798030161058e-03,2.259439484101483930e-01,-8.351806778032563536e-03,4.841356184167891659e-03,7.493768260485561550e-03,2.145242393016815186e-01
2.265509207009212267e-01,1.075330293189763475e-03,2.291417748908352592e-01,-2.399271089405688711e-03,2.056297054544457825e-03,-1.097275155937790661e-03,2.268561124801635742e-01
2.299383357969372876e-01,1.520523643571417005e-02,2.323547365544180177e-01,-1.693301627962976678e-03,3.406287655636302657e-03,-1.215173417529758762e-03,2.160621732473373413e-01
2.398880669326027837e-01,1.423663478711036101e-02,1.365131700899896161e-01,6.574003402058286108e-04,-2.413035862773438636e-03,-1.058182619710726054e-03,1.957048028707504272e-01
2.150109466714039685e-01,-6.334193288612954831e-04,2.206191950458398221e-01,-9.972238756585372066e-03,4.608929346305128995e-03,1.107037500891496634e-02,2.201659679412841797e-01
2.264736092670286971e-01,1.441207649689663084e-03,2.268767160343516665e-01,-9.658943996716524549e-04,2.749158088531086785e-03,-1.285455102842818480e-03,2.253017723560333252e-01
2.256857158623261084e-01,-1.041231657898156193e-03,2.274152441278068648e-01,-9.143572720634969217e-04,-6.499737812114848032e-04,1.313187181461270166e-04,2.276050448417663574e-01
2.000589611877799379e-01,-1.116816307815565734e-02,2.163233949683650847e-01,5.695872500918640162e-03,-3.274479548531424337e-04,4.170175508072084328e-04,2.200343012809753418e-01
2.297874357978458293e-01,9.184856627865306544e-03,1.762052866143705432e-01,-2.759786586532215775e-03,2.914146542553650281e-03,8.975887243652065422e-04,1.994164735078811646e-01
2.236693846165066779e-01,1.618829582833242187e-03,2.274736477929684419e-01,1.541421580347688376e-03,-8.510941748678957103e-04,-1.939839534349785399e-03,2.240228801965713501e-01
2.248722042518921937e-01,-2.173126195115920867e-03,2.261275623364507048e-01,2.909200378573039043e-03,3.584946913772089422e-05,-4.946182350189472828e-04,2.277329713106155396e-01
2.264568319211546776e-01,-1.162453903658794419e-03,2.270344707111705274e-01,2.942081368805981884e-03,5.397815903295188032e-04,8.927404809595835145e-04,2.279727756977081299e-01
2.671397441876018353e-01,3.744875600519476100e-03,1.635627424308019606e-01,-1.022914256884825332e-02,-1.420637578275489978e-03,-1.926234517087732634e-02,2.329301983118057251e-01
2.301866399279881292e-01,7.636892633681002795e-03,1.741014176301869387e-01,7.900864798577922387e-04,-1.021861685646370402e-03,1.657788391754860206e-03,2.005129456520080566e-01
2.283884849463667099e-01,-2.351768526295733297e-03,2.220531623131619392e-01,1.342391955383900101e-03,-7.131159230930708996e-04,-1.196361528653295029e-04,2.276540398597717285e-01
2.318714174806512651e-01,5.876975981051441034e-03,2.292578729513246039e-01,-3.750281794451758560e-05,4.148309850339934948e-03,-4.027851838031441052e-04,2.248150110244750977e-01
2.307666285904735881e-01,6.768748012016545523e-04,2.263963987436992675e-01,9.924850617471661185e-05,-1.073756149932859026e-03,-3.297424558751142439e-04,2.279444336891174316e-01
2.295310067432953516e-01,-3.279829964990543800e-04,2.232091994037175842e-01,-1.726545061514443561e-04,-7.699584222955838672e-04,-4.948521530577987601e-05,2.267683148384094238e-01
2.325298643660579645e-01,3.034509231126275575e-03,2.302162021185850116e-01,1.313437842745625436e-03,-1.006607197154885808e-03,-4.747650789018473890e-04,2.283667773008346558e-01
2.292635295875766199e-01,-8.570974179496204659e-04,2.235500037858943745e-01,2.018459128005770705e-05,-6.339224761681215136e-04,-1.466422473156311326e-04,2.273205220699310303e-01
1.904752125348257441e-01,2.056810925152927072e-02,2.279439681489806580e-01,-6.380508763808389813e-03,-1.245839832165860327e-02,-3.487178954233253678e-03,1.930357217788696289e-01
1.655634875178416399e-01,-1.048012272937745570e-02,2.254186547230986326e-01,-1.969318313186438699e-02,-6.297298173359409945e-03,-4.274756727408019451e-03,2.155188322067260742e-01
1.648153132346166783e-01,8.580183112170292059e-03,2.275005660600074031e-01,-1.006968646001091608e-02,-8.737447859722887247e-03,-4.923430857109637078e-03,1.968208402395248413e-01
2.122581346585038498e-01,-6.867828456850216812e-03,2.148698268529983246e-01,-3.984975122942638684e-03,-2.762827966902269439e-03,-3.554179334621908933e-03,2.206892222166061401e-01
2.098484186311480315e-01,8.676157840445231084e-03,2.416089700222074643e-01,-1.058515560176303931e-02,-8.656362338813373969e-03,-7.844337329607398504e-03,2.204855680465698242e-01
2.194479573341600875e-01,-4.039200844416612757e-03,2.198177233058720148e-01,2.241452400603911269e-03,-1.969179089494168579e-04,2.680043533865639638e-03,2.237543761730194092e-01
2.295959368027254421e-01,5.800104974388820001e-03,2.032573485716598904e-01,5.218232796561977568e-03,-1.388469451568134262e-03,1.811709653459174030e-03,2.120876014232635498e-01
2.244171936012985535e-01,2.590988528403770363e-02,2.377645051478839977e-01,-2.557300818468430381e-02,-3.849717461806313745e-02,-1.434907412378506712e-02,2.219427078962326050e-01
2.044789266689089335e-01,-4.318496707099439558e-03,1.928205172272279555e-01,5.330203235662222747e-03,-4.430540034855460704e-03,2.943166835876272376e-03,2.036372870206832886e-01
2.220956450207212940e-01,5.483581778140900198e-03,2.209624732375369272e-01,3.180148048187529750e-03,9.087547748710486260e-04,3.870583874918998284e-03,2.162275910377502441e-01
2.631430894775942941e-01,3.506475744514139792e-02,2.699030808730483177e-01,-1.219206932149891932e-02,-1.660972264774475404e-02,-1.640133369490008597e-02,2.359826862812042236e-01
2.114787103969600901e-01,1.250957790517165380e-02,2.071646327070932880e-01,2.614977717539117633e-03,-3.224890271911633514e-04,7.583398570600709352e-04,1.969048231840133667e-01
2.241502087825001377e-01,2.165428448436645947e-03,2.316541986164913913e-01,5.908792832746326653e-05,1.891478963444023981e-04,2.864324009947660007e-03,2.258850485086441040e-01
2.299629754492009126e-01,3.213481476777635404e-03,2.244248529147986060e-01,-1.004139554264173433e-03,-1.527097214153551113e-04,4.139315930497618375e-03,2.241533696651458740e-01
2.159232618070430487e-01,1.369937384600461439e-02,2.065331271225291088e-01,4.851430836161777296e-03,-1.046035920083586640e-03,5.610083916818568630e-04,1.978853195905685425e-01
1.765106019874657928e-01,-6.613323875324733647e-03,2.308418878090879311e-01,2.010436961773527653e-02,-7.392841585680660042e-03,3.173780776000367874e-03,2.187289595603942871e-01
2.183752007599641942e-01,-6.055856113969054766e-03,2.136866132180191280e-01,1.530462331341009546e-03,2.095095179960655858e-04,1.714147202791757411e-03,2.221598327159881592e-01
2.189549255438614228e-01,5.693936936880444888e-03,2.121523513424543872e-01,4.630027341171225053e-03,-4.015311116367956210e-04,2.530123305634454818e-04,2.100970894098281860e-01
2.314592638875559438e-01,1.336135290837481282e-02,2.356258519444470734e-01,-3.336570152932953376e-04,5.097453298179549898e-04,-5.992349451517486707e-04,2.202157378196716309e-01
2.309046573017426440e-01,6.454092039943626347e-04,2.248927266213467391e-01,5.410615191076374253e-04,1.814433231589405173e-07,2.315714467933128193e-04,2.273152023553848267e-01
2.229396265251235576e-01,-2.485234049867973694e-03,2.285919970115078970e-01,5.448995643121155928e-05,8.493933652070801170e-04,1.659865929367273195e-03,2.283263951539993286e-01
2.158090315410540194e-01,-1.337323602244339105e-03,2.129116333572359521e-01,-3.797616219602979650e-03,4.129108754015466641e-04,1.077560839908041530e-03,2.158217728137969971e-01
2.243148595793036104e-01,-3.475547104412557431e-03,2.237958238378207065e-01,-1.341380423288609982e-03,-7.684203329457998553e-04,2.476522133072903489e-03,2.275875061750411987e-01
2.213958479319264872e-01,-2.038827621765909592e-03,2.215961018902591895e-01,-1.551178223436595676e-03,-6.279680367532678711e-04,1.180159046087512998e-03,2.235630005598068237e-01
2.236479020309506127e-01,-3.594915465957554401e-03,2.230007177853048916e-01,-7.699620993987029306e-04,-1.898609429650386119e-03,8.189534339179051648e-04,2.269520908594131470e-01
2.267727710137426578e-01,3.926048160782319441e-03,2.331350048353070248e-01,-1.051646613425280481e-04,5.197682901748446440e-04,2.838142057090416691e-03,2.261502891778945923e-01
2.554280505438797921e-01,3.342258610136142338e-02,2.488037392295689432e-01,-1.937230685945011757e-02,2.792528407390075865e-02,1.895212377838369211e-02,2.289160192012786865e-01
2.281693471459914080e-01,-1.307720866821404648e-03,2.248397726301729072e-01,-7.300827730532887623e-05,-2.693088018100865916e-04,1.396594180689023990e-04,2.278311699628829956e-01
2.430995196473570152e-01,2.418996289190203375e-02,2.348731349051807471e-01,-4.304094995224260270e-03,-2.205101965915410266e-03,-2.124050472129822807e-03,2.151091098785400391e-01
2.409296837190161855e-01,-5.783482694327546358e-03,2.671176279990563618e-01,-3.110883150866778496e-02,-3.823391625775550071e-03,4.739904820208650643e-03,2.665119767189025879e-01
2.219174873509446311e-01,-3.116514188359176263e-03,2.227864194000078180e-01,-4.205492984062744505e-04,-8.835152594187898082e-04,7.120003170865038230e-04,2.254794687032699585e-01
2.212888631071257550e-01,-4.328984434953958571e-02,2.215463694101354741e-01,1.960856430821245056e-02,-2.987997802973260848e-03,1.235093015854310528e-02,2.677834928035736084e-01
2.738221077838920436e-01,5.219858780033592716e-02,2.722852153041427359e-01,-7.153593300530549856e-03,-2.910276694148201428e-03,-4.419862477821584994e-05,2.212638109922409058e-01
2.222084353980937621e-01,4.680435388579790024e-03,2.069675795469226032e-01,-4.550269844962723069e-03,1.756238501035106876e-03,1.325624102857589056e-03,2.105042487382888794e-01
2.199242891071873651e-01,-4.637156800623848385e-03,2.201405832552597586e-01,-1.320087333455262487e-03,-3.201374786941828319e-04,2.670436305419824079e-04,2.246824651956558228e-01
2.890940461425562380e-01,2.505320594310270210e-02,2.989192026435470440e-01,1.189788457296434357e-02,-2.412289315818615110e-02,-4.616367205093348941e-02,2.845558226108551025e-01
2.796410478009773160e-01,6.211034169392004589e-02,2.768763245364728176e-01,1.050495377695196200e-02,-1.331776461217964221e-03,-4.605210899212347150e-03,2.170848846435546875e-01
2.552061876573671340e-01,2.904999836241856093e-02,2.555420955057989274e-01,2.061313233810535897e-02,1.187664416461390454e-02,-2.662633738485234783e-02,2.346219420433044434e-01
2.259445993732362434e-01,4.890939133948113415e-03,2.062058107762163583e-01,-4.758318607416813124e-03,6.638820074754081752e-04,1.092015457308568183e-03,2.120467722415924072e-01
2.222300179381032637e-01,-3.482335881187903492e-03,2.230070068079123002e-01,-1.381062957552926882e-03,-4.812817854267714885e-04,3.326301189587811853e-04,2.261167764663696289e-01
2.884466076795424994e-01,8.141483725859469112e-02,2.828265622515923616e-01,1.376874919720517433e-02,3.233764603927665338e-03,2.643551694538658851e-03,2.057942748069763184e-01
2.265886538601222799e-01,-2.442641479283746975e-03,2.246627762759865754e-01,7.888841370468289678e-04,-1.917444359276318684e-04,2.857800913789720291e-03,2.281325012445449829e-01
2.283066311817383565e-01,2.220742757621907426e-03,2.234745202608833803e-01,2.113033310216229713e-03,6.221701621575929236e-04,1.328178163706261608e-03,2.237533330917358398e-01
2.245283734529597841e-01,-1.907552913633869807e-03,2.280957948153246873e-01,-6.708106219685515143e-04,-1.593104039609497024e-03,8.336926693719647844e-04,2.282647490501403809e-01
2.270861209448853668e-01,8.906472333554960041e-04,2.230577134246530813e-01,-9.551244612712202339e-04,-1.730143524749757277e-04,3.349329768738780379e-03,2.242897599935531616e-01
2.261160298468880558e-01,1.422724564834609851e-04,2.316136050342144648e-01,4.059673359986920832e-05,-1.754825021328167698e-04,1.725911663597591269e-03,2.287918329238891602e-01
2.245684725576322649e-01,-5.819467508736131389e-04,2.273421245418715819e-01,-9.791538651491721052e-04,-7.963900211491767127e-04,2.315351830526221849e-04,2.265608757734298706e-01
2.267635959953020752e-01,1.070545027669606020e-02,2.336617884657483935e-01,-5.311906952837579373e-04,-1.014363054537351528e-03,-1.264635771999369660e-03,2.196083962917327881e-01
2.255435777617525173e-01,6.623945616160697991e-04,2.322489513673261508e-01,-2.458480733150755900e-04,-2.352858538252350883e-03,6.164398422836814793e-04,2.283469885587692261e-01
2.267297749745654789e-01,1.602421435016931905e-03,2.022753829876679232e-01,-2.073689540578610609e-03,8.922941583741310486e-04,1.902354620781777526e-03,2.140119969844818115e-01
2.371467252056405350e-01,1.104384610264011468e-02,2.298644322964004949e-01,-4.508681840895904618e-03,1.371424524036097495e-03,4.250181769918520876e-03,2.228223830461502075e-01
2.227229494423584866e-01,-2.388960401138451317e-03,2.230061431238544167e-01,1.833607089756743823e-03,8.073258402172060451e-04,9.213200647531306952e-04,2.252860218286514282e-01
2.238059764765318871e-01,-9.898498596860316745e-04,2.295006700580863590e-01,4.816166284244193321e-05,8.957170190305999884e-04,-2.475269237944079147e-04,2.277022898197174072e-01
2.024933003711021362e-01,1.614352030724630627e-03,2.037025269906164171e-01,3.820620158907367132e-03,-4.125599091833858853e-03,4.494324418345281222e-03,2.018716782331466675e-01
2.120776006796791235e-01,8.323635709465759813e-03,2.101534275766653859e-01,2.650723774088175298e-03,-1.827710370964263399e-03,3.420503169191710640e-03,2.029618769884109497e-01
2.280610293796069554e-01,1.751755695949402947e-03,2.301228942919806009e-01,9.249143949004173674e-04,1.645756558951721885e-04,4.115688979291037526e-04,2.273541539907455444e-01
2.244994637580755570e-01,-3.177648153595280522e-04,2.214260144785368811e-01,1.926206860977395250e-03,1.509888465603714575e-04,1.236306567753994810e-03,2.233317047357559204e-01
2.143044994983827056e-01,2.221532460588981905e-05,2.175815390294543183e-01,5.102814522869684837e-03,-2.748385911489265466e-03,6.283849591644401211e-03,2.164464890956878662e-01
2.225354853768450325e-01,1.052243638181626917e-03,2.228837119566315916e-01,3.326338342608581126e-03,5.718036275225528691e-04,1.084395838066717519e-03,2.217425853013992310e-01
2.043202920229182928e-01,-5.565108218286707320e-03,2.025956375752896443e-01,4.042609917202402529e-03,-3.772961754840674798e-03,3.731667274223428397e-03,2.093475311994552612e-01
2.243403436501699710e-01,-2.011745497009137518e-03,2.267867054140075556e-01,9.716452212849210901e-04,9.282308145498506871e-04,4.937994683424156914e-04,2.275986373424530029e-01
2.301767260783682822e-01,1.005800041273874346e-03,2.274929157636242927e-01,-2.606829523824043672e-04,-1.794851231951781598e-04,6.935563730109541676e-04,2.278447002172470093e-01
2.225598193625784038e-01,6.041859560952517194e-03,2.106216194548018450e-01,5.030261576285052945e-03,-6.727609566479186539e-04,1.004157490641404337e-03,2.109929025173187256e-01
2.194730144185616239e-01,4.459312505440432561e-03,2.159869192194857623e-01,2.636848109806070282e-03,-1.616179693491031776e-04,2.753896753558174228e-03,2.133944183588027954e-01
2.155161540576037704e-01,2.405353989319264363e-03,2.151903418791965006e-01,1.853556218816938220e-03,-1.361984830848898527e-04,1.573095687833824614e-04,2.129725813865661621e-01
6.298807678372447816e-02,-4.230342428433374324e-02,2.218468208640774209e-01,-3.735893321946966161e-02,-2.546151894201945532e-03,-6.355329590851949671e-03,2.395340651273727417e-01
1.950308530549293429e-01,-1.277910188507414002e-02,2.139624611097257767e-01,-1.079066121680646341e-02,-1.237409620701194026e-04,-2.832698101760580678e-03,2.187487035989761353e-01
1.818191420917538992e-01,7.147799502524754267e-03,2.501301760731777790e-01,-2.383266225650941192e-02,-1.367170681361322415e-02,1.455381351109464151e-03,2.222150862216949463e-01
2.251565342216739485e-01,1.130678637281418153e-03,2.238856611452623713e-01,-2.219871352899179060e-03,8.702019700565183195e-04,-3.471740933730068160e-04,2.234321087598800659e-01
2.121681928807172546e-01,3.091839425267584041e-03,2.093399142860338236e-01,3.565658624546292482e-03,-2.773150305637971905e-04,2.189901002944050939e-04,2.077693641185760498e-01
2.013624348306970735e-01,-1.461073924017369796e-03,2.411663980486976888e-01,-2.399205435050647331e-02,4.207288733835774265e-03,2.791204441404865171e-03,2.293430715799331665e-01
2.259344204798588440e-01,6.406487517926495734e-04,2.200898658436473698e-01,3.696859449099624498e-03,2.350977042828538647e-03,4.535769229893487318e-03,2.226971089839935303e-01
2.260736240597984725e-01,-2.385265629731653236e-03,2.238053812286917021e-01,-1.231043479587417784e-05,1.079850968195207421e-03,4.035307866095469019e-04,2.273420244455337524e-01
2.365487120709346414e-01,3.189431292345212832e-02,2.559166611779328804e-01,-1.697495766557042748e-02,3.357024358534682531e-03,6.235699258980504506e-03,2.173411697149276733e-01
2.573669183577432795e-01,2.850224965655731579e-02,1.853337815775938091e-01,-4.228198767138895879e-04,5.977333403704486979e-03,-1.300138915862366663e-02,2.041979432106018066e-01
2.219413757940199017e-01,-1.496679319235832972e-03,2.206466866176230723e-01,1.545913608277187188e-03,5.518006445159376588e-04,1.452201640367222759e-03,2.228258699178695679e-01
2.205769058616598999e-01,-2.467858373554399076e-03,2.210944425779519384e-01,7.988545793368686176e-04,8.405502453388916930e-05,7.126074477519910586e-04,2.233117222785949707e-01
2.131748858774462352e-01,-3.493160078525570089e-03,2.166490722519703593e-01,-2.161178723850682229e-03,6.822417923053070718e-04,9.607762911238623129e-04,2.184674739837646484e-01
2.198868514229318227e-01,1.831043147945568550e-02,2.403857550411650501e-01,-6.284944826311074026e-03,4.298385773617245838e-03,6.492607655340783442e-03,2.132738679647445679e-01
2.198667074154365131e-01,8.142143803875012686e-03,2.003630375972774713e-01,-6.545907745969998560e-03,2.338964522642152013e-03,4.572483870273237605e-03,2.031894624233245850e-01
2.219369954811469814e-01,2.507621697888012813e-03,2.247984479798169621e-01,-4.923606347691205764e-04,1.553403256304653683e-04,2.788126178047973212e-03,2.209285944700241089e-01
2.291695612794999726e-01,-2.710867777764580655e-04,2.259766773516678484e-01,-6.121492879406845167e-04,-3.271520138357910182e-03,6.117524284807598998e-04,2.279363572597503662e-01
2.237185272858250862e-01,4.066390288072957437e-03,2.230184315508879633e-01,-3.521847329652526021e-03,-6.489777601805512284e-04,4.015078284203159320e-03,2.195008248090744019e-01
2.183216028705044498e-01,-5.824577236530598112e-03,2.175553057712277805e-01,-4.532285620445720888e-04,4.931328545185297826e-05,1.104973064867584374e-03,2.237735986709594727e-01
2.196594005711968722e-01,-1.508160123626950400e-03,2.197275027995340968e-01,-6.164174319603221838e-04,-7.809219073203149761e-05,8.979022223821133851e-04,2.212097048759460449e-01
2.178758984451605596e-01,-5.118465275380790214e-03,2.172825154415518878e-01,-1.981289327915908630e-03,-2.753511272021503023e-04,2.421834334898788701e-03,2.227647155523300171e-01
2.211956147640410375e-01,-2.960266669321170996e-03,2.212876727105067554e-01,-3.351634258192946227e-04,-1.710608007983722804e-04,2.415893333849156556e-04,2.242032587528228760e-01
2.166297533406071341e-01,-5.489364238340233015e-03,2.196724489272520453e-01,-2.808767886900532824e-03,-1.497433353554653002e-04,3.677897550208245568e-03,2.237997204065322876e-01
2.551750746963481475e-01,3.584812357721531284e-02,2.681988275271819377e-01,-1.958717603211011446e-02,2.457645718503728011e-02,1.961044345103106837e-02,2.350469678640365601e-01
-3.427090172851948724e-03,-8.394283378881173263e-02,2.298044932167195020e-01,3.754180564779037096e-03,5.704812008789284482e-03,-1.132399606691173420e-02,2.831663489341735840e-01
2.267151847649354346e-01,-4.094495863976588268e-04,2.237460529191941105e-01,-2.500736922920952267e-03,-2.286680655261048682e-03,2.871753794419076421e-03,2.257858365774154663e-01
2.193468098742665240e-01,-1.816011334868861127e-03,2.218069210977786088e-01,-8.421712117940910111e-04,2.583758762865332229e-04,3.656995447033333218e-03,2.224984914064407349e-01
2.234568383988821405e-01,2.964082940244083808e-03,2.212936980424993205e-01,-2.035953630713473270e-03,-1.960460552305624734e-05,9.008420259395370907e-04,2.194530665874481201e-01
1.936120674521683571e-01,3.970755130048359005e-02,2.961993898949515924e-01,2.912626411042022398e-02,-6.887525507898104027e-03,7.746619044050905879e-03,2.299277633428573608e-01
2.228542067016029971e-01,-3.310249189567099348e-03,2.244510275886921757e-01,-9.412824686463944690e-04,-1.797729910618902196e-03,1.024413584868342619e-03,2.270012199878692627e-01
2.281269882541319127e-01,1.206071595477609115e-02,2.297400631829746853e-01,-6.266738952110396596e-03,9.127816586738210123e-05,-5.964849647974825204e-03,2.173944562673568726e-01
2.253050424417367137e-01,2.949782355589403160e-03,2.242713023213697976e-01,-3.187212208032465417e-03,-1.267628781132038853e-04,6.269079326057486017e-04,2.219116389751434326e-01
2.218074313607724113e-01,-4.105816268601708563e-03,2.209172329900914722e-01,-4.641119714226827069e-04,1.070731213703222983e-03,-2.984973244272419056e-04,2.254791259765625000e-01
2.115286477593242009e-01,-5.140882393923379423e-03,2.146215216079543908e-01,-1.765661177581102567e-03,-5.936922948086306804e-04,-3.589024482767654966e-03,2.183447629213333130e-01
1.682125179863608322e-01,-4.079399709498299220e-02,1.255444884436194841e-01,-1.818844112386280507e-02,9.966416408739485477e-02,3.167344461632094765e-02,2.653060555458068848e-01
2.293755135305692305e-01,2.647242795548856997e-03,1.483833113346210986e-01,-1.475454087503284524e-03,1.390103150565684875e-03,9.391736393134645852e-03,1.996976882219314575e-01
2.407652860599463207e-01,1.634249148284547259e-02,1.892890666207716899e-01,2.385524035296828806e-03,-4.761581771863013582e-03,2.141496870214367691e-03,2.038671225309371948e-01
2.245711605600660965e-01,-4.789485345873006894e-03,2.059349063187551343e-01,-4.578874236179510115e-03,9.605936438741869690e-04,4.243795030487661733e-03,2.209047079086303711e-01
2.189488263888341724e-01,-3.863088885428411778e-03,2.186348136704499012e-01,-5.422230616309268048e-04,-1.382820642658294085e-04,-1.058163869805969857e-03,2.226647287607192993e-01
2.235123526725334153e-01,1.565006659482975904e-03,2.249300480388544132e-01,-1.627969151838319639e-03,1.024659442243777653e-03,-2.212758318390458528e-03,2.227174788713455200e-01
2.248126213241789517e-01,-8.753815017412958088e-04,2.222682257997633526e-01,-1.736742020560903127e-03,-9.180697482124386291e-05,7.760767911070152927e-04,2.244508564472198486e-01
2.202913811476825690e-01,7.646302938679461203e-04,2.204114393877018574e-01,-6.841457638783425685e-04,6.424938367686849981e-04,-1.677752740589328164e-03,2.196120470762252808e-01
2.348221590443788642e-01,5.999721090830467674e-03,2.276607527054159141e-01,2.118965213847612847e-04,-1.246122639148934848e-03,7.370747544956612581e-04,2.253413498401641846e-01
1.475966722706389400e-01,-2.689443811940740725e-02,1.403393065280726937e-01,-7.517655160507061458e-03,-4.907229544434343893e-02,-8.777159668071760762e-03,1.919854283332824707e-01
2.332775830867853117e-01,1.084501834410780963e-02,2.253997997005619536e-01,-2.327975006383023807e-03,2.744136468767611851e-04,2.361471400576992986e-03,2.186761200428009033e-01
2.245744570460544987e-01,-2.122113005156189836e-03,2.282623386085169126e-01,-8.665596879115296421e-04,-3.140637354533364414e-03,5.439323599216713606e-04,2.286344170570373535e-01
2.270471618020480919e-01,4.224854451297915814e-03,2.318482713865505362e-01,1.745903526006234701e-03,2.284538994167500080e-03,3.248120724235018918e-03,2.253865152597427368e-01
2.245844282296859395e-01,-1.275476801787883696e-03,2.211324744225009187e-01,4.567412749953325322e-04,3.067161383576436019e-04,1.280511798998228059e-03,2.241668552160263062e-01
1.707010098657380515e-01,-1.929529338265396909e-02,1.250862742790318782e-01,-7.721212248082406915e-03,-4.716607646248437147e-02,-6.891430782440205113e-03,1.910704374313354492e-01
2.173426519786098021e-01,9.900088093751355234e-03,1.720887255185010456e-01,-3.898482577748745102e-03,-1.029459996583008755e-02,-2.461292322110863063e-03,1.899327486753463745e-01
2.313721232018850771e-01,4.123450456822275179e-03,2.250038968059255851e-01,3.216634622382307050e-03,-6.695748724862394348e-04,1.246263003512316147e-03,2.242150455713272095e-01
2.154959130024500236e-01,1.813318584776824061e-02,1.927501618157609342e-01,-4.548549907965132588e-03,-4.812037349815792564e-03,-2.923689611108108710e-03,1.874498128890991211e-01
2.203455607536706773e-01,1.249023655129799515e-02,1.743822034387335906e-01,-4.516651713745228718e-03,-7.747912900741597657e-03,-4.798723999876604654e-03,1.899292320013046265e-01
2.140470180957094737e-01,1.742160847165473425e-02,1.754255830880069589e-01,-3.742303043031309628e-03,-1.446610557388527604e-02,-1.006113121962284862e-02,1.831193864345550537e-01
2.355874859661507004e-01,-7.417013250654885814e-03,2.091614244496459718e-01,3.459849363455300229e-03,1.277033057626132066e-03,2.844832038442576469e-02,2.362130284309387207e-01
9.452292740688635064e-02,-2.360769724751028698e-02,2.113803394652800927e-01,-6.119482053505284277e-03,-7.764336269145012681e-02,2.321143537692644740e-02,2.474450916051864624e-01
2.053020367486240172e-01,2.146642978341453678e-02,2.203506620251887427e-01,6.426910878621802138e-03,-9.500446433638874005e-03,5.150905827707938540e-03,1.930356174707412720e-01
2.201683792965973274e-01,-4.707127175360370508e-03,2.183900245354998271e-01,6.034889393352404563e-05,5.524376642663420423e-04,2.416852947868235060e-04,2.239940762519836426e-01
2.249472012397848442e-01,-1.775319587440371549e-03,2.237284643881781721e-01,1.398584819473140629e-04,8.446817096256272611e-04,6.781359421895188531e-04,2.261235266923904419e-01
2.239949144835096106e-01,-4.130561175219038539e-04,2.251793882211900744e-01,1.365641857558326120e-03,6.606759317607032063e-04,4.006182575361618217e-04,2.250189632177352905e-01
2.225202431557649074e-01,-3.692350836896729493e-03,2.217426812063192643e-01,3.778366987425858244e-05,1.603470469602276459e-04,6.269646121944416617e-04,2.258276045322418213e-01
2.213761120106496616e-01,-3.559633401934630959e-03,2.205493858552015074e-01,1.288912407422637858e-03,5.695090169492137864e-04,9.273983854551310973e-04,2.245425283908843994e-01
2.193574951519356442e-01,-4.549014106851406725e-03,2.197465450081763083e-01,6.615834301503906601e-04,2.081760460069723140e-04,1.043161616251284509e-03,2.241117954254150391e-01
2.220954279141180709e-01,-2.938967164366534934e-03,2.212618635038108295e-01,9.044550785375680231e-04,8.348758814412416155e-04,2.225315856694888323e-04,2.246292233467102051e-01
2.261658291493401363e-01,2.737420788767874757e-04,2.262083463877632428e-01,1.822796902549546176e-03,-4.035170133506782485e-04,1.090273870504320647e-03,2.259443849325180054e-01
2.211541739045114752e-01,-4.265025114353809821e-03,2.209082767018487603e-01,9.103724672722597350e-05,3.871931384451623503e-08,1.810000958377878824e-04,2.252966314554214478e-01
2.230729277546074640e-01,-1.769118917491735443e-03,2.221336899042768431e-01,1.691637533145271596e-03,1.932146972269674313e-03,1.767904882292684705e-03,2.244388759136199951e-01
2.503347955293045990e-01,1.422157575571314503e-02,1.847988686780474565e-01,-1.366627595160238226e-02,-9.665719191281450448e-03,-3.335547815294006430e-02,2.207914292812347412e-01
2.202566745165372986e-01,6.640997204844428792e-03,1.452412626974591836e-01,7.564300803142324711e-04,-4.430417497356853480e-03,-4.079372737850992491e-03,1.880027353763580322e-01
2.354589609340139444e-01,2.426724530253285272e-02,1.733217203564063336e-01,-2.144474341110503722e-04,-2.223971252940296767e-02,-7.927109223879463470e-03,1.923865228891372681e-01
2.296588281584373559e-01,7.208381427562304822e-03,1.547806192347118692e-01,-6.691435597200142554e-03,-1.545523957610933294e-02,-6.893554659584858607e-03,1.985641866922378540e-01
2.431068365149456068e-01,2.741313136560838415e-02,1.686480760488918151e-01,-1.149278372159929498e-03,-7.315210155083613427e-03,-4.943260087162104459e-03,1.903822571039199829e-01
2.230462479734239001e-01,1.530677298526400554e-02,1.694930305556153760e-01,-4.075923794910012014e-04,-1.050456986350593001e-02,-5.312830626624093482e-04,1.876989603042602539e-01
2.279934636123232550e-01,1.380830019650586271e-03,2.288483191222428492e-01,1.786707971139543790e-03,4.367230308097530718e-03,1.842082889783856715e-03,2.272107154130935669e-01
2.146311056902536762e-01,-2.234039521488317970e-03,2.163605598838281296e-01,4.057633196501211079e-04,1.093811640474343788e-03,5.361285251401706883e-04,2.177463769912719727e-01
2.249962915515587580e-01,-2.334572536942858267e-03,2.226819451166273112e-01,-7.629334699999605358e-04,-1.482541497473625750e-04,-1.573162170327288860e-03,2.262029945850372314e-01
2.233672608171957119e-01,-2.405525348631670779e-03,2.270015731331429809e-01,-5.977421637112379903e-04,1.642933899342326155e-03,-2.755183507063161340e-04,2.276323437690734863e-01
2.207378044689156660e-01,-2.401463710285128839e-03,2.192473886894112933e-01,-1.182920374901295620e-03,1.103361449224451009e-03,2.556972102214943345e-04,2.224158942699432373e-01
2.264337634657602183e-01,1.661805501109864247e-03,2.220186171095191452e-01,-3.091746516663981814e-03,8.319762021640113390e-04,-9.888109580131157917e-04,2.226728796958923340e-01
2.166377159351251802e-01,1.538183178062091372e-03,2.068611353359360028e-01,4.562215518762661841e-03,-3.183453829833138987e-03,3.492839761680536538e-03,2.106890976428985596e-01
2.205954868974732697e-01,-3.523748512006263933e-03,2.078617609722169524e-01,-4.137607420477482437e-03,-5.212975292267546436e-04,-3.896135978270831319e-03,2.182554006576538086e-01
2.258563759304565988e-01,-5.778015347346343589e-05,2.288168003039649789e-01,-2.634924052726267548e-04,9.417366076901250924e-04,-3.338342820973848693e-04,2.274158596992492676e-01
2.218283634481959532e-01,-2.672877915768950841e-03,2.220990385076183904e-01,3.866228491415551788e-04,1.797270926997917673e-04,3.799603476287858250e-04,2.246388792991638184e-01
2.051697985319861639e-01,3.005246122537580389e-03,2.062613020736511205e-01,-4.519195121984941402e-03,-5.440186143823952380e-03,-3.535563858375161995e-03,2.031746059656143188e-01
2.280076537622465760e-01,-1.880931143337150058e-03,2.254209095385693307e-01,7.283764244484691903e-04,2.544938565992584025e-03,1.103184558269885941e-03,2.286601513624191284e-01
1.089294825360927477e-01,-5.641473398562857344e-03,2.134141004589353852e-01,2.895480033935356450e-03,-8.055752119589595917e-02,4.174816863749493401e-03,2.357125878334045410e-01
2.025363419501478024e-01,3.147929580619007739e-02,2.207224370213535236e-01,-1.371547084721400122e-03,-1.596097092925754038e-02,3.213525821530688158e-04,1.829544156789779663e-01
2.190873245998136432e-01,-3.385297508869067329e-03,2.199588906068992988e-01,4.046601034892203857e-04,4.718934862877882251e-04,1.101547307991625614e-04,2.229123711585998535e-01
9.698283172350176395e-02,-1.066992406058037135e-02,2.160729571049282427e-01,3.773591122595057988e-03,-2.133063249112326920e-02,-1.375097114074927277e-03,2.000133395195007324e-01
2.288834157998397845e-01,2.531099539404797760e-02,1.779089072828489160e-01,-1.834256145677308795e-03,-2.436356073042725279e-02,-1.619871723498505405e-03,1.883131414651870728e-01
1.976629631577773716e-01,1.293911021681887208e-03,1.815469590227694052e-01,4.889118917203840245e-03,-6.639739527274654031e-03,7.957921441174855507e-04,1.893718987703323364e-01
2.027255039698772909e-01,1.316994889967490479e-02,2.048865096919012529e-01,1.931463952506988014e-03,-4.303160917256957339e-03,2.724465884706175640e-03,1.908785551786422729e-01
2.234919332577558759e-01,-2.308542820924602834e-03,2.259303465518650023e-01,5.363799622002786774e-04,1.720378074471830667e-03,8.279745574919460376e-04,2.270554900169372559e-01
2.043609023225630983e-01,1.663776898203303545e-02,1.968405199717525589e-01,-1.482163447622832997e-03,-4.047998838980114249e-03,-9.036024363189635027e-05,1.842296272516250610e-01
2.248466427024090608e-01,-1.059367624261592367e-03,2.264283352571776209e-01,7.918273118952514266e-04,3.956008612592753983e-04,7.809985314925898267e-04,2.267102152109146118e-01
2.234276542144635336e-01,-3.153937215455787646e-03,2.230303581295046134e-01,7.605879045197953955e-04,1.143216747412913094e-03,5.483039336561704820e-04,2.263976931571960449e-01
1.998547244446045035e-01,6.997890459987790579e-03,1.761356909729714648e-01,1.929730213339241615e-03,-9.482088409861842010e-03,6.810343030714366115e-04,1.829324066638946533e-01
1.938651257973409980e-01,5.499124076493694391e-03,1.954483722496264120e-01,2.978074536769727450e-03,-4.902285258212196566e-03,3.935578376327096561e-03,1.895459294319152832e-01
2.075248782013662807e-01,1.317259246060076272e-02,1.998676665690670984e-01,3.481460457770566702e-03,-2.865134494981271332e-03,8.069407411416779996e-04,1.908040642738342285e-01
2.306477857038609081e-01,4.542722360169448859e-03,2.336264700897894286e-01,1.461245107612876197e-03,-6.139526268276868353e-04,8.142464391155135057e-04,2.276299446821212769e-01
2.187621224107576534e-01,-9.324421131611387858e-03,2.010881630464891601e-01,-1.825261647095832327e-04,4.629762650710246260e-04,-5.454327360618114497e-03,2.199878245592117310e-01
2.215640942884097020e-01,-3.237754391880010019e-03,2.216378748626251505e-01,8.797300145123714563e-04,5.442127688050847796e-04,-1.643781555125349418e-04,2.248460650444030762e-01
2.076910350052249832e-01,9.529140253799750493e-04,2.099252165804061931e-01,6.157284551411966065e-04,1.086794506144069233e-03,7.092892972982768086e-04,2.078791111707687378e-01
2.232531478518813839e-01,-4.431205004527177804e-03,2.189708353788231698e-01,2.415336328322720272e-03,9.445820274831277698e-05,-3.696471190565882303e-03,2.257033586502075195e-01
2.157114904060515037e-01,-6.801584090990464571e-04,2.094357615905908243e-01,4.916587558051793184e-03,3.429122145338531734e-03,-3.496899512112233190e-03,2.136614024639129639e-01
2.096512662084218381e-01,-7.178779867831330819e-04,2.148460398563296070e-01,2.158083354624663278e-03,1.480097884047513459e-03,-4.929658473161602737e-03,2.132332772016525269e-01
1.791027388268970066e-01,-7.946935400964666441e-03,2.127716121921931214e-01,7.779993044161199675e-03,-7.451722774626265942e-03,5.997124125042666704e-03,2.070627659559249878e-01
2.100077025242818030e-01,-4.586752947203565078e-03,2.185768067398279613e-01,3.203705570918627312e-03,7.983858182495438393e-04,-5.078161966473388605e-03,2.192559242248535156e-01
2.115551351920773870e-01,-1.811928387785155525e-02,1.843118122583165541e-01,7.198422386770807549e-03,-3.107105274382610579e-03,1.206610222639555030e-02,2.187615782022476196e-01
2.232679471706521812e-01,1.827605692942352311e-03,2.253536676549602047e-01,2.716845389214321213e-03,-5.024807651017715706e-04,-4.232962626625477905e-03,2.226627320051193237e-01
2.225369855252112283e-01,-2.265229109869842938e-03,2.228077111212861672e-01,1.517503075473169505e-03,1.189084703197123823e-04,-2.644776571762540683e-03,2.249997854232788086e-01
2.214232573438081331e-01,-3.857875904232643816e-03,2.218347419346981542e-01,4.765817860466401682e-04,-1.727611019573010520e-03,-4.581390334515711427e-04,2.255099117755889893e-01
2.229770807719144987e-01,3.106528114406870156e-04,2.236433793885083399e-01,3.969709700369132566e-03,-9.821907967496896347e-04,-3.310895789544061538e-03,2.231864631175994873e-01
2.204405593782814421e-01,-3.005769758981924333e-03,2.193788700675440295e-01,-2.674044474964283168e-04,-6.094946424153417641e-04,2.139526163797138714e-04,2.229206711053848267e-01
2.194335952615339980e-01,2.721405565742555932e-02,2.093379833661058731e-01,1.395029456634877540e-02,5.965833254601955044e-02,-1.240009788498026323e-02,2.164074182510375977e-01
1.742368813251425619e-01,8.796135052667991561e-03,2.160939373587430212e-01,-4.901380481611287629e-03,2.081949651975901344e-02,6.291781396407107423e-03,1.937490701675415039e-01
1.516830709639583330e-01,-2.055483664514135000e-02,1.886737419823767414e-01,1.886520523237050773e-02,3.121109875520290330e-02,-1.192187676816670698e-02,2.045039832592010498e-01
1.868843899744496162e-01,-1.755041190024689279e-02,1.768754744621827413e-01,1.311244707515036093e-02,2.032526285937900565e-02,-1.271157959352399967e-02,2.051523923873901367e-01
2.268562647683309841e-01,1.648134369331469284e-02,1.723017113449320237e-01,6.832579739275909669e-03,2.275964825472449882e-02,-1.069716234403106196e-02,1.944074183702468872e-01
2.521570215795878589e-01,3.470147096840509038e-02,2.537748738599382992e-01,2.315428213501992405e-02,2.445109919997416614e-02,-2.107423451929998914e-02,2.288572639226913452e-01
2.305661240725281613e-01,2.615629517230710910e-03,2.321394655250194061e-01,7.677849049161597798e-04,8.378063195133216923e-04,1.689654122783606051e-03,2.287684082984924316e-01
2.289518534847581333e-01,1.850452784914552451e-03,2.265577236160845609e-01,2.550895354338054630e-03,2.532093497653145381e-04,4.633733098941615440e-03,2.260999679565429688e-01
2.234763947507254489e-01,-2.539355776569496292e-03,2.264202981820423732e-01,4.834040971307283687e-04,1.911656691567491663e-04,-3.488297593526654269e-04,2.275045663118362427e-01
2.652888999036788209e-01,3.298210632904813311e-02,2.416728387334406147e-01,-5.562793221307474854e-03,4.104198696472273066e-04,6.571827714967106056e-03,2.219479680061340332e-01
2.232961485299132520e-01,-1.107976118555897838e-04,2.238452098150746916e-01,1.436972351480534900e-03,1.997106694753208751e-03,1.973898485951080996e-03,2.237486988306045532e-01
2.311443276900184696e-01,3.921109414915691094e-03,2.344340925105444784e-01,-1.251169012510102438e-03,2.038467165609785079e-04,1.694050490057331200e-03,2.289151698350906372e-01
1.984526002639829534e-01,1.031127780894884605e-02,1.951181265937193543e-01,9.699966686195370027e-04,3.261088664941884634e-03,4.203395647321768631e-04,1.865909397602081299e-01
2.285887994162598413e-01,1.250764800878328975e-02,2.361131431576953543e-01,-1.314466087799779953e-04,2.093109360123878641e-04,-1.596047704892712736e-04,2.199404686689376831e-01
2.268424981015996766e-01,1.354227240020655643e-03,2.310296981506143044e-01,1.827435740869571938e-03,8.694545440018952619e-04,1.168932946503556218e-03,2.276467531919479370e-01
2.230948409939555455e-01,-2.304374869757763733e-03,2.269074395095168617e-01,1.377437097025722978e-03,1.998721466268911680e-03,1.693914591666721616e-03,2.273872941732406616e-01
2.243258220116921275e-01,-6.581329258910639801e-04,2.292898217899147217e-01,-1.163627924049821609e-04,-2.156724232730818449e-04,4.492638641312263979e-05,2.275069802999496460e-01
2.271848181305020642e-01,-1.579992579707562017e-03,2.237932486554958800e-01,-1.842971283031358438e-04,-4.329590291424882404e-04,6.878346033177528676e-04,2.270926088094711304e-01
2.249460861979976078e-01,2.873760381974871381e-03,2.316229829890938396e-01,7.053945471017959712e-04,1.981436192711908111e-03,2.241103776315319686e-03,2.255477607250213623e-01
2.190779407216388863e-01,-3.926355822650551275e-03,2.193389299509493628e-01,-2.379822897058052160e-03,-8.546927614938191684e-05,1.285094750219936818e-03,2.231841236352920532e-01
2.303847230839951576e-01,1.314331834924800657e-02,2.313329103089568073e-01,1.037508112904761415e-03,4.937859154095361643e-03,-9.372838724949246339e-04,2.178984284400939941e-01
2.087241360249617039e-01,-8.001690904156311124e-03,1.815107847121709139e-01,-7.008519202679078762e-03,-6.889666946827500971e-03,-6.057087432565178182e-03,2.054571509361267090e-01
2.466783547849635827e-01,5.035091271833935789e-03,2.112953615407527352e-01,-1.557825351999587342e-03,1.276110341970244878e-03,-1.403742551500598151e-02,2.273690253496170044e-01
2.232130724785852394e-01,-1.674404021386494135e-03,2.105536964546686485e-01,-6.362863297239124659e-03,-1.759414156869394750e-04,-4.258528593475883160e-03,2.192342579364776611e-01
2.244146080610129323e-01,1.254159359832993093e-02,1.618692968844082092e-01,-2.767104913845762348e-03,-5.438580560781602728e-03,5.075126433992295126e-04,1.888462454080581665e-01
2.192125201422030767e-01,1.614860844888518776e-02,1.848376615806557044e-01,-4.720831083862814248e-03,-3.287230923313194057e-03,-2.313161403292343307e-03,1.885513663291931152e-01
2.242907053962412967e-01,-4.489940330951180947e-04,2.289620667785425279e-01,-7.570768274364136300e-04,-5.971278795956363756e-04,2.754545978313476949e-04,2.271180599927902222e-01
2.062171636961094845e-01,5.745311828438182111e-03,2.057006968956572313e-01,3.066447060730016858e-03,-2.261754182126177789e-03,2.115474544195407921e-03,2.003563642501831055e-01
2.388469661899258745e-01,1.980810860070150725e-02,2.537624347789433354e-01,-7.998311572791424670e-03,1.040871706415774905e-03,4.229831212592469539e-03,2.274124026298522949e-01
1.965359486548111101e-01,-3.209185901367345162e-03,1.777156144571353791e-01,6.798219405933574391e-03,-1.783689663078406526e-02,6.139362095815306848e-03,1.941629201173782349e-01
2.220325191839126189e-01,3.116400645217232146e-05,2.314855494611677000e-01,-8.642660924107524803e-04,-4.800959643120750599e-04,5.514609800824778847e-04,2.268840968608856201e-01
1.863724931180653355e-01,-3.488921601996194943e-03,1.690570749419019470e-01,8.504909425414071758e-03,-3.124596836948876147e-02,8.009484447328168305e-03,1.907826960086822510e-01
1.997283033867126023e-01,-4.853783280314336035e-02,1.238725378198129445e-01,-2.731345417640537038e-02,-4.919359630281187196e-02,-4.866745750998853481e-02,2.552673518657684326e-01
1.372109403806038297e-01,-5.875202784980049220e-03,2.242376549175542633e-01,1.474758166671009084e-02,-1.836573094869408188e-02,1.053754662200908493e-02,2.061482518911361694e-01
1.950223407198514169e-01,1.126896203439053945e-02,2.079665029606797000e-01,3.074606933160219796e-03,-3.221782976656692877e-03,3.740554310215814075e-03,1.908215433359146118e-01
2.162538119520427404e-01,1.168509453977487067e-02,2.161279241753861768e-01,3.607179137064779953e-03,-2.357825974500475999e-03,3.705896047874000093e-03,2.047426104545593262e-01
2.137932322218232262e-01,7.162540945791967539e-03,2.107683001801691214e-01,4.977595634148186676e-03,3.546761083869372656e-03,-4.608325586118496540e-03,2.055629491806030273e-01
1.874228500216881810e-01,1.416974965772607731e-02,2.104092851800515307e-01,7.778560591209637137e-04,-8.450278982478626535e-03,2.345215254569126950e-03,1.864403933286666870e-01
2.545637393357336742e-01,1.676740672637733187e-02,2.105624704073162656e-01,-2.468570935532756090e-03,2.291349458147990542e-02,2.875233130436527854e-02,2.282396107912063599e-01
2.134985140958777228e-01,8.749087603531185975e-03,2.211506534509266042e-01,4.354219791629772795e-04,5.107219897318056312e-04,-3.520883311266579611e-03,2.087730765342712402e-01
2.332606582474860968e-01,2.649279169798818279e-03,2.261742975963602353e-01,-5.859218429826454832e-04,-4.106916710121020315e-04,-3.884369411082197075e-04,2.271554917097091675e-01
2.291825254525118039e-01,4.867357632773627873e-03,2.248276366556885564e-01,6.015702570329529205e-04,-2.966642842889810269e-03,7.462907079002031223e-04,2.222353518009185791e-01
2.197067869529164275e-01,1.069282266523582936e-02,1.940510754086196554e-01,-4.454221819387013497e-03,3.422829361921322401e-03,1.979104739484367163e-03,1.977095603942871094e-01
2.247345628461999700e-01,-3.377400520496398606e-03,2.230256186763762694e-01,-1.743319672398734900e-03,-3.406460366817297067e-04,1.752250344433826847e-03,2.273034006357192993e-01
2.351931663207947887e-01,1.472108435534064119e-02,2.318472039117369377e-01,1.101945844460298354e-03,-1.447587817919220108e-04,-1.717636907220489899e-04,2.188269644975662231e-01
2.230655119243705742e-01,1.727162706018775529e-03,2.288360037368522004e-01,-2.942176810567445535e-03,1.871418111745110416e-04,8.271577652078167297e-04,2.243419736623764038e-01
1.978146946562633901e-01,-1.152194731828393159e-02,2.104257546932664091e-01,-8.912885446066217549e-03,3.423859133172097932e-03,8.198213790934473499e-03,2.170159965753555298e-01
1.940823130250828032e-01,1.389323061951391880e-02,2.768821741340633524e-01,-2.145810346767030100e-02,6.609466310421646326e-03,-5.092673989245035532e-03,2.362916916608810425e-01
2.216447863241697847e-01,-4.315232794424417317e-03,2.213889875705221943e-01,-6.629054855355194335e-04,-2.021662548093560580e-04,2.091462129605776456e-04,2.258357107639312744e-01
2.244119083296075012e-01,-7.137132384324174073e-04,2.254669454201304879e-01,-9.763819519028535399e-04,-8.549383301436586872e-04,5.650851667053486370e-04,2.256683111190795898e-01
2.157011166898126220e-01,1.072344313616674372e-02,2.123709108890121655e-01,-2.185539347272320073e-03,2.305937028565159010e-03,3.728416370665680896e-03,2.035099565982818604e-01
2.226897042114064085e-01,-3.214776848130651565e-03,2.232970952872625758e-01,-1.417206919355788394e-03,1.522461013609115480e-03,-3.062979953166234705e-04,2.262381017208099365e-01
2.132709369405688671e-01,8.436546790217408498e-03,2.104093770160567756e-01,-2.812408563437615323e-03,-2.564330096757236311e-04,2.839163953157459552e-04,2.034780979156494141e-01
2.292705975043199396e-01,-2.006076185501109999e-03,2.231998194912295785e-01,-1.846007527254409173e-03,-8.789406720438668833e-04,-1.999282660213814512e-05,2.283293008804321289e-01
2.267537372764500403e-01,-1.184561522287186364e-03,2.266279959210721895e-01,-2.464581888021925501e-03,5.041080500911553639e-04,9.616219262137354427e-04,2.279231995344161987e-01
2.244560020378733867e-01,-2.835809215128437533e-03,2.242528002927752784e-01,-1.728934905042577670e-03,-8.621703993209034044e-05,2.016543755765973656e-03,2.272369116544723511e-01
2.133708904448348154e-01,2.067817753219236554e-03,2.182945458936876859e-01,1.239193138063472742e-03,2.599910046911500816e-04,-3.869086931925956423e-03,2.139236629009246826e-01
2.145604015171844181e-01,8.801428443522829603e-04,2.147055458935016037e-01,-7.311900145400289548e-04,6.999638790416736324e-05,1.980572912496516170e-03,2.137841731309890747e-01
2.242656130287213057e-01,-2.430427259397210937e-03,2.233036856723220054e-01,-1.278650923045143674e-03,-6.212241737350463963e-04,2.176500689494378742e-03,2.262614220380783081e-01
2.217427331808123625e-01,6.856045333566929134e-03,2.082342377896079233e-01,-5.229537616443099939e-03,1.902428438371974850e-03,1.151728664103126090e-03,2.086932063102722168e-01
2.232875170970490819e-01,-4.112109550576642514e-03,2.248834386042588007e-01,-1.071117288465995351e-03,-2.615624216240819509e-03,8.420918309568239642e-04,2.282589375972747803e-01
2.265243118211793527e-01,1.365916761207952579e-03,2.255362240109162197e-01,-1.291497428273624855e-03,-1.286143030702386388e-03,2.255811515304234540e-03,2.247221320867538452e-01
2.282089113483887766e-01,-1.331236122298351532e-03,2.242654147085696437e-01,-1.262626077701104648e-03,-1.708418060479077218e-03,1.601904979103472041e-03,2.276406735181808472e-01
2.243497278308079212e-01,-3.461814751020558800e-03,2.230882514813599671e-01,-1.737574935865789138e-03,-1.621815921913635035e-04,1.842142620946191122e-03,2.272259443998336792e-01
2.200109152317595851e-01,-4.504044651510136221e-03,2.188983622428516129e-01,-1.111428750996832021e-03,3.718927088882195242e-04,1.558575067633154046e-03,2.239862233400344849e-01
2.146778801678259352e-01,-4.356318801493036519e-03,2.105546184446245306e-01,-4.045263023147121703e-03,5.897415831408437357e-04,1.827912670531483532e-03,2.171405255794525146e-01
2.221000669555274198e-01,-2.555556194646008139e-03,2.222535896675681966e-01,-1.262390656575171789e-04,-3.541644598825500838e-04,1.854514898361534880e-04,2.247335910797119141e-01
2.196098642703515069e-01,-6.481654506057532572e-03,2.197834511487949394e-01,-8.716423396197856910e-04,-5.967429560043907631e-05,4.524031493918890894e-04,2.261847853660583496e-01
1.933891396555652009e-01,1.259573246258777202e-03,2.175787469714324796e-01,-5.368557778424616796e-03,6.617439676889510722e-03,6.599609854390455291e-03,2.061430215835571289e-01
2.342123897758569551e-01,7.832372783762753254e-03,2.345759481826310555e-01,-3.277270329676507544e-03,-1.502539896313909379e-03,4.619240157160769901e-04,2.266494631767272949e-01
2.434134984800482571e-01,3.502575242906308395e-02,2.176663553593124467e-01,-1.736994558713405093e-02,5.797642339393548061e-02,1.908425758969485228e-02,2.253986448049545288e-01
2.242729402446387854e-01,-2.275132538337720778e-04,2.309734607396970729e-01,-1.222732226191900525e-03,-2.567553470982602074e-03,1.574362494812681220e-03,2.279941141605377197e-01
2.458064074212475414e-01,1.757764986065857293e-02,1.971823436064653323e-01,-2.043939301189369104e-02,5.990502875837523666e-02,2.407978503161598352e-02,2.389851659536361694e-01
2.256711706659022543e-01,-2.548526866517353273e-04,2.248470712234527102e-01,-1.593752934589406716e-04,-1.138821313420643319e-03,3.830552172421749168e-04,2.255248725414276123e-01
2.114642029535803713e-01,3.173909161472143747e-03,2.188894201519871463e-01,-8.661394373176500112e-04,7.136284989015879076e-04,4.681090121305972809e-03,2.122642099857330322e-01
2.214704856119512622e-01,-3.482823175525229242e-03,2.191212191584508695e-01,-4.323858234055902999e-03,-3.089534644889739166e-04,1.836180590751951020e-03,2.239364236593246460e-01
2.166195791532993242e-01,-5.893962785895962009e-03,2.030615505132145615e-01,-8.349331423554613024e-03,5.584084021563582093e-03,9.178587050585081467e-03,2.173353880643844604e-01
2.350320016211470964e-01,3.033530891268787499e-04,1.768511935789605083e-01,-1.915329886632510456e-02,6.105532661222189128e-02,1.853738303398302228e-02,2.411235123872756958e-01
2.242160935265611332e-01,-1.664181527215952139e-03,2.249205913027233217e-01,-7.404523761108048859e-04,-1.148731738013014691e-03,4.503975596216418372e-04,2.262470722198486328e-01
2.330320104911285661e-01,7.446521825719615295e-03,2.291515496074857938e-01,1.946530787158358812e-03,3.914778093948917057e-03,1.144286191339002152e-03,2.238074392080307007e-01
1.328334746716089976e-01,-3.836191878114798837e-02,1.640447348989382825e-01,-2.114352046188027259e-02,7.161323652986688326e-02,2.665962082187692955e-02,2.334179729223251343e-01
2.244383546761025694e-01,-3.647292997133677606e-03,2.249401247265955806e-01,1.168493519665962004e-03,3.177800985514233744e-03,1.290420078742261431e-03,2.284231781959533691e-01
2.070938094113752570e-01,1.325706883458292740e-02,1.924619027827475515e-01,1.334861768048043254e-03,-3.008142975196472727e-03,9.778907021052182607e-05,1.870376765727996826e-01
2.233035842457875009e-01,-4.056459322170469228e-03,2.242501926593446493e-01,1.360902651816413983e-03,2.291958607536209030e-03,6.782396645039321000e-04,2.278846204280853271e-01
2.036655274599469267e-01,1.645655600305226396e-02,2.018951569592600803e-01,4.773560695181238030e-04,-8.911331877845371681e-04,-3.930461516605486798e-04,1.863395720720291138e-01
2.115730869134174741e-01,1.040502231240578168e-02,2.109754008094795741e-01,2.511230750597310581e-03,-4.058594677106767794e-04,1.745339161108579867e-03,2.009409517049789429e-01
2.091805071043587039e-01,1.492370906966816735e-02,2.018731376701956570e-01,4.452942075903298068e-03,-8.705021691433176625e-03,3.296005486901996007e-03,1.915437430143356323e-01
2.104768900313115920e-01,1.001141313935985377e-02,2.113470128951342453e-01,1.446772210066833752e-03,-3.140883667865278727e-04,2.808592879909416109e-03,2.009771913290023804e-01
1.997039833699592037e-01,-9.126341079339128637e-03,1.994357340819197522e-01,2.183788450660077013e-02,-4.210099516857063878e-02,1.645861048397744344e-02,2.260862141847610474e-01
2.046242443670713840e-01,2.219430562400565021e-03,1.818600336913220594e-01,7.510051851094407850e-03,-6.189097767083691880e-03,2.997246878734806993e-03,1.928455382585525513e-01
1.799281976603066546e-01,9.629410678530292422e-03,2.024311590147772066e-01,1.113642277143369426e-03,7.524750733927943781e-03,-8.719859358201154445e-04,1.830741763114929199e-01
2.068317965060466057e-01,1.251201944981458758e-02,2.116046227940933111e-01,1.410984337023948876e-02,1.907879946562287751e-02,-9.923111550189732399e-03,2.017302215099334717e-01
2.042727078002358754e-01,1.157757648179844057e-02,2.153935918749096956e-01,5.393803737459288480e-04,2.472709621228750317e-03,-3.875473110397937258e-03,1.986512094736099243e-01
2.151686389138834921e-01,2.699045846513699332e-02,2.031481007126616500e-01,5.023933352894649658e-03,1.532457974505444485e-02,-8.540680876728028647e-04,1.845967322587966919e-01
2.288467292434878120e-01,3.187392366447411307e-03,2.255122252510419756e-01,-6.228488633088653239e-04,-1.487024365951112063e-03,4.117526504431891915e-03,2.241415977478027344e-01
2.261259461184640940e-01,2.470251827949104806e-03,2.335143372680304474e-01,5.384739096094358442e-06,5.383030263737930820e-04,5.932172219130500516e-04,2.274441421031951904e-01
2.146759311470523568e-01,1.946016000244504829e-02,2.154860451584983128e-01,4.226528367289031883e-03,4.592228163426747244e-03,-3.072760949790739448e-03,1.959928125143051147e-01
2.248402815727955362e-01,7.618621979553430457e-03,2.228518825487617872e-01,5.746859531286870396e-03,3.888199794996540122e-04,5.430233308303011180e-03,2.166685760021209717e-01
2.375672510107928181e-01,8.550347757035836604e-03,2.064946656265576330e-01,2.468850045670331530e-03,-5.247522475772293946e-05,2.230447518794986990e-03,2.152471095323562622e-01
1.974872279386064855e-01,7.169158059442154451e-03,2.058582887084194346e-01,2.225407263125366974e-03,4.262351287061110286e-03,-3.218405180792078494e-03,1.948964893817901611e-01
2.201270970867308108e-01,-1.941606123542605200e-03,2.293944882407044639e-01,5.405231400872340510e-06,2.110057217881247584e-03,5.956083335549808028e-04,2.268761992454528809e-01
2.234657620490435870e-01,2.031465343834976123e-02,1.896495831701960899e-01,1.338619723934552155e-02,2.127061984417944959e-02,-4.316798925452887230e-03,1.936360150575637817e-01
2.087158224608240409e-01,1.254297248565933165e-02,2.038558410347483529e-01,3.898170033464121512e-03,5.210842255268347510e-03,-1.374028288200765998e-03,1.941306740045547485e-01
2.328325156886394132e-01,2.683351068493405878e-03,2.269362459401914611e-01,-3.486310854977723445e-04,4.022562306770028143e-04,-1.624044306273888627e-04,2.272604554891586304e-01
2.248631200750704218e-01,1.411370472435086176e-03,2.318100920763602191e-01,-5.133449414201466960e-04,-9.689635344443558356e-04,7.046703756225366697e-04,2.270161956548690796e-01
2.145518756050545373e-01,5.671980388833064435e-02,3.540276315010405517e-01,-5.155230643358508363e-02,3.443084621461652700e-02,9.325484965911349372e-03,2.795862257480621338e-01
2.303835694573753701e-01,1.655916832682124973e-02,2.386797978826181166e-01,1.001044756353506931e-03,1.655091791512412714e-03,2.060617190928153326e-03,2.181458175182342529e-01
1.830212212742254041e-01,-2.431986641303340857e-04,2.009753207134141739e-01,2.364989181467311730e-03,7.592509405636506913e-03,-5.072790192575474429e-03,1.935599744319915771e-01
2.249348717886148208e-01,5.292613990826033898e-05,2.265289537704504030e-01,-1.168411539870897612e-03,-3.221752112731666486e-03,7.865428007672199944e-04,2.257653623819351196e-01
1.952892060116426520e-01,9.117907966135979647e-02,4.207773325528583186e-01,-4.547587007457755404e-02,-2.786166141860982673e-02,3.461512770625155082e-04,3.060927093029022217e-01
2.239167864144733233e-01,-2.693918567948067055e-03,2.246278435910541438e-01,-1.019467397920512976e-03,-1.216279560665446376e-03,6.265451935072754693e-04,2.269863039255142212e-01
2.219351086402601703e-01,-5.516974333297952615e-03,2.204944361471976866e-01,5.691215828131128895e-04,-6.098012721624837236e-04,-1.624136957120315278e-03,2.267572283744812012e-01
2.047395551177151884e-01,-8.029261718659003177e-03,2.172498371430739705e-01,-4.043100185146272438e-03,-3.366366674404858893e-05,3.937706647071129336e-03,2.195095270872116089e-01
2.283503539649380798e-01,9.194906468459912441e-03,2.310373038377645516e-01,-1.219023517655246211e-03,-4.053456293241767226e-03,1.497130662983291042e-03,2.206482738256454468e-01
2.285698342125464522e-01,-7.203881246184706821e-04,2.246181595850179624e-01,-3.999492115714345548e-04,6.645995809996255507e-06,7.012291144982502815e-05,2.273412346839904785e-01
2.305751151216802464e-01,3.451099421086789576e-03,2.330914582921000122e-01,2.446262070258593517e-05,-1.041240394516555409e-03,1.084212586589464915e-03,2.284074276685714722e-01
2.158367584145071405e-01,-1.222021417829868839e-02,1.999165220450445368e-01,-2.512422378014233463e-03,4.430453482354356431e-04,5.859758109997536754e-03,2.208059132099151611e-01
2.180629372745938044e-01,-1.030273455189895104e-02,2.012666919915095942e-01,-2.991456349581741569e-03,5.183656601377725857e-04,5.839610042519805672e-03,2.207425236701965332e-01
2.244936379470354182e-01,-2.155261174007411240e-03,2.260348011485295849e-01,-1.845966196697622591e-04,-2.040914781526982896e-03,5.466528988365913213e-04,2.274530678987503052e-01
1.349658303435816165e-01,1.539488809240187328e-02,2.443480449843765112e-01,-5.765679311463374306e-03,-1.094486450206249867e-03,3.442462994351572084e-04,1.986058652400970459e-01
2.228896782285925138e-01,7.428386201269177036e-05,2.224457249401784464e-01,-5.983025088995533487e-04,-5.666021672219532243e-04,3.420827877548178637e-03,2.226771712303161621e-01
2.193520393236341459e-01,1.159770942531772320e-02,1.747642605980104236e-01,-4.399896562105516142e-03,6.244895016327320011e-03,5.856947286831240551e-03,1.901699602603912354e-01
2.226408667213842230e-01,-4.971165437498259454e-03,2.242180536640563104e-01,-9.367070091270560464e-04,-7.868199440038308509e-04,1.189069676715129526e-03,2.284238189458847046e-01
2.270954619473549707e-01,9.208296260347498263e-03,2.323316943447383542e-01,-1.335862624519323786e-03,-4.059273719475848217e-03,1.378826850375079911e-03,2.206889986991882324e-01
1.761892118257017137e-01,-5.503057192596043368e-02,8.031082041526801940e-02,-1.759820051199995419e-02,-8.042280396138787313e-02,-2.396658432321971746e-02,2.500840723514556885e-01
2.198871398341003536e-01,-4.364688743051930997e-03,2.084678465195018982e-01,-4.897992465875771438e-03,6.535576712549606097e-04,2.737126326278732213e-03,2.189844995737075806e-01
2.193132552669062596e-01,-4.102419271734547568e-03,2.205260204241554223e-01,-6.171720953923416284e-04,5.173415093439388173e-04,2.051335101781282672e-03,2.240570336580276489e-01
2.237437230968676027e-01,-2.042155659609218299e-03,2.282420043984205449e-01,-8.839450482050353625e-04,-2.001376518612145439e-03,1.383979830855664676e-03,2.281123697757720947e-01
2.252273981992113372e-01,-9.202785213566211375e-04,2.247796342183163432e-01,-5.488439556826753881e-04,-3.080399089738294644e-03,1.345082666962940437e-03,2.260011285543441772e-01
2.082673228041489188e-01,1.365387670489470739e-02,1.985428028766078601e-01,3.681929869880945071e-03,2.610077469562848383e-03,-1.426805268899823372e-03,1.901148408651351929e-01
2.279821530749923386e-01,4.967570139275873098e-03,2.293831315946215366e-01,5.332495504480468064e-04,-3.419641072621205230e-03,6.690060178276500394e-04,2.238016575574874878e-01
2.371613236025346128e-01,1.836835904020417409e-02,2.407497739445434992e-01,-2.431184321117997940e-03,1.517428231225172175e-03,3.800714969178125083e-03,2.207630872726440430e-01
2.329528352717363249e-01,2.365759005775208701e-03,2.267778298976798612e-01,7.122243763056088691e-04,2.470701083423928416e-03,1.652703533926498007e-04,2.276061773300170898e-01
1.731397250262720899e-01,-1.324764146572915413e-02,2.168663591806760937e-01,-1.209730124913695713e-02,-4.945784602004579892e-06,4.697069600020859826e-04,2.127017974853515625e-01
1.903473655976228862e-01,1.804701759298427133e-02,2.447673144051523697e-01,-2.353312942654193617e-03,-1.939807015012237320e-03,2.221996768345767389e-04,2.050696611404418945e-01
1.773463249638133066e-01,-8.658749640023610805e-03,2.225456235131713090e-01,-2.333417587157515793e-02,1.637896501641297048e-02,8.661758747092728264e-03,2.184296250343322754e-01
2.229453512206838461e-01,-3.870589121775208641e-03,2.228192847802014653e-01,3.960535193258189453e-04,4.714640875324595769e-04,1.397328323403169894e-03,2.267683595418930054e-01
2.188064420936615961e-01,-1.225182041344141659e-03,2.250588765704548133e-01,3.646510696995675961e-03,4.675014679918980507e-04,2.517013080454369098e-03,2.233568727970123291e-01
1.741436822762182091e-01,1.512912787314282803e-02,2.333752269699743143e-01,-9.527950848138063561e-03,1.176924526570926298e-02,6.108174468005413138e-03,1.975158303976058960e-01
2.370349769433625908e-01,3.292635796729972975e-02,2.301985205912196741e-01,1.959770319893793748e-03,-2.417906558907564375e-03,-5.975585125672833089e-04,2.008527219295501709e-01
1.423074825869125037e-01,-2.143451020418588038e-03,2.233757370818139354e-01,-1.627602311678020761e-02,1.814693241630956771e-02,4.777981630582846945e-03,2.024837434291839600e-01
1.613380890156414227e-01,8.539172445218345953e-03,2.260304309312941018e-01,-5.539120648137657067e-03,5.075959503343896624e-03,5.714474340060105712e-03,1.941258162260055542e-01
1.924129161971301905e-01,6.759316593554387520e-03,2.258009393866229897e-01,-5.920971987975646306e-03,2.752373365824942620e-03,6.034587374864275149e-03,2.049823701381683350e-01
2.100838219573764043e-01,3.289731203840623452e-02,2.348153448000002697e-01,6.582344218064637917e-03,-9.253264802211079443e-03,9.056723723088024383e-03,1.924103051424026489e-01
2.307424097025339571e-01,5.655918988902441935e-04,2.263844658229337836e-01,9.633152228595918531e-04,-1.102839605251206348e-03,-1.512696807604949718e-03,2.280582338571548462e-01
2.288165159115426728e-01,7.601980575377503824e-03,2.340842566946965131e-01,1.030453801295121152e-03,3.958373843430168862e-03,1.597981379298047669e-03,2.240240424871444702e-01
2.257303161551884041e-01,-1.728251710713030187e-03,2.237401031326767820e-01,8.146669093270363267e-04,-2.850206961392334217e-04,-7.927417552476661829e-04,2.264791131019592285e-01
2.375064463859858921e-01,2.794633985719108260e-02,2.408052676947104731e-01,-6.590027270980949523e-04,2.782935129113996674e-03,-1.103755049234816195e-03,2.112955600023269653e-01
2.215349488330567718e-01,-7.409262468491550901e-04,2.241695301553790487e-01,1.687232034252151127e-03,-2.413456084122087301e-04,-2.229440803043189305e-03,2.236576378345489502e-01
2.242429338991999421e-01,-2.819771342135291015e-03,2.226731487320101344e-01,8.791818058906339948e-04,1.555490770828221216e-03,9.964391772212201261e-04,2.263096421957015991e-01
3.759330834705467694e-01,7.399246962486430435e-02,2.015997578224641706e-01,-1.913734182269844885e-03,-4.355017018611302801e-04,3.397472779456910119e-02,2.690656781196594238e-01
2.081820450680779422e-01,-4.618778880118828978e-03,2.267624559551239538e-01,5.308167266268928701e-03,5.139243007063410340e-04,-1.246168092244184919e-03,2.228751480579376221e-01
2.060980763698063989e-01,-6.088358920620567938e-03,2.224385893413870774e-01,5.047781553682196762e-03,4.167842879012600282e-04,-3.499432745661264308e-03,2.210679352283477783e-01
2.269511048210021698e-01,-2.395496712060907196e-03,2.232794330028735064e-01,-1.476257410050360282e-04,-2.075118925129935694e-03,-5.116907820000287255e-04,2.275632470846176147e-01
2.039581508867129855e-01,-9.681922219598432244e-03,2.163796672333710980e-01,4.468383970949224918e-03,3.589024296073941743e-04,-4.025350591480993979e-03,2.203610837459564209e-01
2.268766717369061769e-01,-1.615053064984162123e-04,2.257084862204311593e-01,8.353604844076931548e-04,-3.990094112616213032e-04,-1.200127579107834437e-03,2.264715582132339478e-01
2.639243471841511979e-01,9.001098780408001154e-03,1.836909907476720338e-01,-8.568526574195371726e-03,-3.340425787681022569e-03,3.972219236841707801e-02,2.365527451038360596e-01
2.294065076101333978e-01,1.493906051719576245e-02,2.353446837633560718e-01,-3.409348111311614636e-04,-2.203891723956387383e-03,1.969286041070854396e-03,2.175583839416503906e-01
2.237515068345521108e-01,-4.378861136053763259e-03,2.232029562623227548e-01,5.608680316391032950e-04,3.740678766471445334e-04,2.954238765580848372e-03,2.279170304536819458e-01
2.424954239903582276e-01,2.256956592359782299e-02,2.374122594141938603e-01,2.238368111777786374e-03,3.758817314029161416e-03,1.776655426644917560e-03,2.175825983285903931e-01
2.211464875598991298e-01,-2.608220027954771814e-03,1.968747396208654077e-01,4.068396693415586400e-03,-1.601260893098358472e-03,1.104700340938650485e-03,2.128036171197891235e-01
2.265856505906548857e-01,9.014769407329203954e-04,2.307913434978968725e-01,5.809385876091713091e-04,8.728569584136291462e-04,2.489501613759981968e-05,2.278233766555786133e-01
2.207803138833993040e-01,1.048919253384933414e-02,2.337391126794868823e-01,2.318075013066713029e-04,-6.295368278922369547e-04,2.196652545554249672e-03,2.170972824096679688e-01
2.307380217359547847e-01,4.663491054571319849e-02,2.361236949797910212e-01,2.899320029719611798e-04,4.970644291590559181e-04,-2.108339718460703130e-03,1.868925094604492188e-01
2.301643647417298266e-01,1.054758160185767513e-02,2.360797219674411196e-01,-6.075440873824597843e-04,3.027979639026484593e-03,-8.621013195621020321e-04,2.227026671171188354e-01
2.192553313893165212e-01,-5.404923541826700539e-03,2.068317897096096925e-01,4.490962708838655559e-03,-7.028236008194562422e-04,3.588954961932368497e-03,2.189432084560394287e-01
2.065230256288714539e-01,9.684374768714032466e-03,2.410065092293060540e-01,-2.991883063687643569e-03,2.454592333753359817e-03,-2.539642656538450283e-04,2.162576466798782349e-01
2.286877139436927775e-01,-1.228253559663772254e-03,2.243645419989187817e-01,-7.279015452052010361e-05,5.318725545126124421e-04,-5.409172414369934701e-04,2.277889698743820190e-01
2.230359734629991930e-01,-4.183599071658050672e-03,2.222247462935104112e-01,1.928352888480131628e-03,1.615657007329245553e-04,2.410888757110275001e-03,2.268782407045364380e-01
2.438551295244513750e-01,3.271246044467499003e-02,2.385361348273289384e-01,-4.359544634817942056e-03,-1.349825941479011098e-03,-6.954186049397258641e-04,2.086872905492782593e-01
2.356212425965774071e-01,5.051782634157815643e-02,2.353544761534914487e-01,-1.742035221125174012e-03,-1.028580715071209569e-03,5.554090706449905978e-04,1.850058585405349731e-01
2.334352366863512440e-01,8.912915712380869993e-03,2.299402671394640274e-01,4.075986055919093658e-04,-1.688209735362821177e-03,4.173342506548427468e-04,2.228168696165084839e-01
2.255901376975438799e-01,2.397986661519524443e-04,2.218406145776795624e-01,3.730938759925836717e-03,7.098831207026646802e-04,7.510131985253485319e-04,2.235997319221496582e-01
1.638956144514073787e-01,1.318129010315351179e-02,2.143329192745410117e-01,-4.265881418056238729e-04,7.388599485071295665e-03,5.180315597396384971e-04,1.817291378974914551e-01
2.134642417464096831e-01,-1.439167725644566187e-02,1.994021956549107966e-01,-1.308091085336224660e-02,1.712353070801583138e-02,2.039083963139647071e-02,2.270512580871582031e-01
1.664421958275804636e-01,2.463896729872482039e-02,2.428926549359400333e-01,-7.887423665521905991e-03,1.888434804745457371e-02,9.297730162091111944e-03,1.957283467054367065e-01
2.243710896288744205e-01,-2.038991133417850099e-03,2.230250601907006469e-01,-1.527993512572129332e-03,-1.115016538292666441e-03,2.869061393967694412e-03,2.258185297250747681e-01
1.539394170412020368e-01,6.390078686537722930e-02,4.019696587323052239e-01,-2.839019624798539559e-02,1.224335137071152525e-02,9.790250989746415375e-03,3.084048032760620117e-01
2.280254199621521982e-01,-2.311547232238836402e-03,2.248558598202260450e-01,-4.126853665084618010e-04,-3.523781205993922142e-03,9.854542310292445373e-04,2.288575321435928345e-01
1.560526076590459388e-01,1.178240917423777068e-02,2.388936982770779593e-01,-1.141263264718844414e-02,1.441701383922308274e-02,3.283140694966738601e-03,2.016796171665191650e-01
2.201648005088272519e-01,1.427400305619409837e-02,1.622087120672297267e-01,-3.967257422113861301e-03,1.864108967816101997e-02,4.829147069949200725e-03,1.870212703943252563e-01
2.290210297201176193e-01,-2.509496448182851891e-03,2.232804300593272950e-01,8.022558521678911658e-05,1.263665120857193147e-03,2.553843403085928761e-04,2.287252098321914673e-01
2.284577251185197222e-01,-4.159836445975229058e-04,2.251964214173355905e-01,-3.189553118154929662e-04,-8.452166993986354486e-04,8.612903848875860108e-04,2.272708863019943237e-01
1.466456218336626149e-01,8.061880606071297750e-04,2.199834968504452704e-01,-1.110408396188349196e-02,1.499845209029683317e-02,4.299021436723221047e-03,1.960697472095489502e-01
1.582246732043801063e-01,7.788802201373845602e-03,2.292071423273013275e-01,-6.456816590260418438e-03,5.476339713967873744e-03,4.096911777999950009e-03,1.965023428201675415e-01
1.684171537319741896e-01,1.152703312550579229e-02,2.285341539716694015e-01,-6.028531335826271473e-03,3.550365661574068302e-03,5.249145546021197206e-03,1.946531087160110474e-01
1.997258211695316366e-01,5.825072689859073227e-03,2.029690810075211460e-01,1.367318234350320795e-03,4.839004075354902054e-03,-3.427957205297219034e-03,1.958264559507369995e-01
2.168420701134182726e-01,-7.857495710384410081e-04,2.125114146167472740e-01,4.121672568131537311e-03,2.114441087473335973e-04,-2.830374263202081742e-03,2.156693786382675171e-01
2.108315602587042537e-01,1.512924223139144875e-03,2.030389492072308955e-01,3.971280758188258479e-03,1.894437713204507072e-03,-2.117528753349893350e-03,2.057070881128311157e-01
2.253835731116771712e-01,-2.894216363831747518e-03,2.235270799451578305e-01,3.352490955657632852e-04,1.549201130950165909e-03,7.578985135986001861e-04,2.273755967617034912e-01
2.073323750471207372e-01,1.130820814774805005e-02,1.966492437248489322e-01,4.308348358202994215e-03,1.782089106574752868e-03,-1.692954266970753434e-03,1.911001354455947876e-01
2.078881592537719092e-01,6.276621893724160239e-03,2.070116814017544660e-01,3.147651790019657773e-03,1.914251334066883591e-03,-3.622986419310672470e-03,2.013736963272094727e-01
2.076812335179284985e-01,9.033268942231276188e-03,1.910164191284980106e-01,4.586065957880650079e-03,2.582054907252841723e-03,-1.956483175914713966e-03,1.911095976829528809e-01
2.275777775777156897e-01,-9.237914100881927659e-04,2.259074887105615437e-01,1.102406034736669272e-04,6.003740127282133215e-04,7.088349940180095968e-04,2.276767790317535400e-01
2.073251339082657629e-01,1.039910285930839562e-03,1.998205121249672367e-01,6.546238958686640720e-03,3.987593560693508329e-03,-6.371570382421447819e-03,2.033712714910507202e-01
2.139420462321218186e-01,-3.008642868330219100e-03,2.115568088811998759e-01,3.307490009366738024e-03,2.108258126274803988e-03,-4.711964713141161484e-03,2.160291075706481934e-01
1.936352797446565521e-01,1.965930686042449693e-03,1.689513572913677875e-01,3.061450072954020277e-03,2.304097752955424835e-02,-3.964801450333881733e-03,1.851572841405868530e-01
2.071365884063211815e-01,5.707399611829533370e-03,2.064617093791956404e-01,4.919122740111288826e-03,3.491012742432314346e-03,-3.667179556060985897e-03,2.014639675617218018e-01
1.721942000712821663e-01,1.276649386594129465e-02,2.196640124502808322e-01,2.308241620074104414e-03,9.166121740428367221e-03,-3.628904175559687518e-03,1.885367929935455322e-01
2.092429669016065696e-01,1.005669334804179527e-02,2.145111928475569030e-01,2.833709316672084616e-03,1.294496703188086767e-03,-4.223154446479089608e-03,2.020764797925949097e-01
1.956828278921615982e-01,1.329023127467493515e-03,2.077413232204198268e-01,4.433902239866704606e-03,4.385701657979826536e-03,-5.859233072487824920e-03,2.012016326189041138e-01
2.232163949857128848e-01,-1.174592843041416534e-03,2.245152849140031326e-01,2.328100529523230433e-03,7.670117082361671470e-04,1.928739938326792195e-03,2.251080721616744995e-01
1.856634801731777695e-01,7.592990078557501632e-03,2.042571983678598824e-01,2.813638680503801563e-03,4.976604912768176937e-03,-3.483069017900046124e-03,1.884151399135589600e-01
2.257482105405880235e-01,-1.610255852508624130e-03,2.242144909008929599e-01,-2.349298330485895692e-03,1.489320376549615847e-03,-2.025820696494286081e-03,2.266738712787628174e-01
2.273893171188319795e-01,-2.306226100789565692e-03,2.235850742410485092e-01,1.159898605513250353e-03,3.905606690423420093e-03,5.451754816653136019e-04,2.279284745454788208e-01
2.274468946957464432e-01,7.029721839489272428e-03,2.288625314228828200e-01,-5.040304839669469163e-03,5.154166910025403297e-04,-4.646942482608050137e-03,2.214487642049789429e-01
2.371522262954100513e-01,4.456943188040426995e-02,2.406467486029263969e-01,-8.404985876787075252e-04,-3.367603374600078216e-03,8.993576603336794891e-04,1.944528222084045410e-01
2.205460875152083777e-01,-2.979884613951294670e-03,2.200256289752320349e-01,-1.223937746184317055e-03,-4.364266564024418398e-05,-2.195748156132004431e-03,2.233086675405502319e-01
2.359710870775802716e-01,3.078122571368990812e-02,2.307654283899808478e-01,1.165098268719050312e-03,1.819697296183744959e-03,7.129456192546659767e-04,2.026755064725875854e-01
2.245343456639647961e-01,-3.410317004659685347e-03,2.230667585465650193e-01,-6.447532028165111695e-04,2.051916862692978669e-03,-5.153053077038523885e-04,2.272467166185379028e-01
1.656071415913938083e-01,-8.100673696235238808e-03,2.327519679180584666e-01,2.358743706347560601e-02,-5.921379332556939287e-04,4.939539671463861678e-03,2.192937880754470825e-01
3.158276050826413495e-01,1.224200770949193939e-01,4.313758093357785706e-01,6.216663173542277820e-02,-4.240569331462557684e-02,1.475062333163096318e-02,3.012429177761077881e-01
2.466810735530396703e-01,5.790603654042250636e-02,2.466442262220907011e-01,-1.862160407122511992e-03,1.020561274100617491e-04,-1.898806953216279625e-03,1.888128966093063354e-01
2.324373797477249370e-01,4.469828510119011611e-02,2.360282138371792571e-01,-1.078379676181229685e-03,3.779843776271445523e-04,-3.217276235483740397e-03,1.896522343158721924e-01
2.366276626986460463e-01,3.216997983362712699e-02,2.362319652034232664e-01,-1.619399810356317087e-03,4.733700511014961657e-03,2.085382248217850561e-03,2.044757604598999023e-01
2.343737424660548019e-01,2.451188565898582139e-02,2.349421151809202302e-01,1.188864159469950462e-03,3.705280871271899278e-03,7.091707887588427064e-04,2.102582603693008423e-01
2.327097472876245021e-01,1.971380173943024228e-02,2.378063615137113174e-01,2.096302436083388558e-03,3.101455407432130709e-04,2.226612749896594683e-03,2.156551629304885864e-01
2.348957378361954951e-01,5.078068492945267409e-02,2.417267650139964252e-01,6.338112368226555280e-04,2.569410926030194203e-03,-1.502826366069205622e-03,1.876978874206542969e-01
2.461782652009258665e-01,3.032801778920063418e-02,2.309560029546109117e-01,-1.548821822943463242e-04,-8.432336096484349067e-04,4.803271485607155632e-03,2.088270485401153564e-01
2.789100185344523530e-01,7.286256241465946526e-02,2.984766603836055410e-01,-1.663030598134442820e-03,-5.009224793524957170e-03,-8.123924181363713359e-04,2.166924476623535156e-01
2.352285591432691225e-01,5.050015522746426067e-02,2.385450789186341347e-01,7.968402094380728086e-05,7.629381581629111593e-04,-4.286476393060081880e-03,1.865613162517547607e-01
2.094102727716337931e-01,1.085870174869071891e-02,2.400009020234085966e-01,-1.541154232899361997e-03,6.713439789894359855e-04,2.915913748761299936e-03,2.155604660511016846e-01
2.481826682182725619e-01,5.237433611315972515e-02,2.476620651445120003e-01,-4.175374711890466532e-04,4.653220312685588805e-03,-3.383582850485246027e-03,1.958036273717880249e-01
2.382785589542138482e-01,8.568709209308134067e-03,2.044910573750938487e-01,-1.392015559335570835e-03,2.041778374024490368e-03,-2.472493677964131536e-03,2.149035781621932983e-01
2.274754500694194936e-01,-6.623509582014130981e-04,2.298667942155424582e-01,-5.340120571206935333e-04,6.527848343332529881e-04,2.420213142839657743e-04,2.293478548526763916e-01
2.353165199873460955e-01,3.209943102695342332e-02,2.274592720268369395e-01,-8.081566759949777466e-04,-4.552907567135638391e-04,8.176265951633232554e-04,1.994161009788513184e-01
2.330648265643356365e-01,1.322333610719286789e-02,2.276991066381983675e-01,-8.236549403791577751e-08,-8.474169109123995793e-04,-1.513025923704421202e-03,2.172291129827499390e-01
2.260254375101624080e-01,-6.895242571977322488e-04,2.277149304366263283e-01,-2.044320785190175977e-03,-5.449150005429761285e-04,1.470602256580482554e-04,2.275940626859664917e-01
2.311433626673909392e-01,2.613194398534079976e-03,2.287754743965768889e-01,-2.977329051998036649e-04,-3.725076063367370070e-04,-1.925196108707736609e-04,2.273572236299514771e-01
2.288655654287357621e-01,-4.876055438635118477e-04,2.248408194091233714e-01,-2.391877491393780799e-04,-7.132646965456629655e-04,6.182370711885901756e-04,2.273737639188766479e-01
2.303142397596272262e-01,-6.732876165247980715e-04,2.227152557941928235e-01,4.043949896765463263e-05,-2.616060572122901051e-03,1.036188284020993959e-03,2.273355871438980103e-01
2.230838644389045999e-01,8.043395592329527499e-04,2.282522742192775733e-01,-3.390660780093918483e-03,2.040052378438677520e-04,3.574787075039655105e-04,2.249860614538192749e-01
2.299177196419686930e-01,8.145841805483611253e-03,2.264204921499863299e-01,-1.112962306862129783e-03,-3.958677390925923432e-03,1.113294348182440044e-03,2.201678007841110229e-01
2.473090357814765605e-01,7.599570989136976429e-02,2.482633910665012766e-01,9.426263268542121434e-06,-1.820189445969890626e-03,-3.843500471973015486e-03,1.719503402709960938e-01
1.942963350534925582e-01,6.360230948413897467e-03,2.077984759676476945e-01,-1.749871228731103134e-03,-4.513267410725082911e-03,-4.585360051372716107e-03,1.953796297311782837e-01
2.374111321183759449e-01,1.479169117606324302e-02,2.326694043702353665e-01,1.274793113958877901e-03,5.213979456788484745e-06,-4.349817286811593861e-04,2.202992141246795654e-01
2.246695482457278514e-01,2.562020983185420153e-02,2.310274394176285717e-01,5.921520390933756499e-04,-3.662015270424507783e-04,-1.803957166995820297e-03,2.023309469223022461e-01
2.334884938036134727e-01,9.646112188525152176e-03,2.263346882120750581e-01,-6.802232855391864615e-04,-4.490396532507209999e-03,1.346040210493563939e-03,2.205052822828292847e-01
2.433030016926016614e-01,4.610164454560208847e-02,2.406533990961418068e-01,-3.196944611578949984e-03,1.102087846059189363e-03,1.557765080233581298e-03,1.959961056709289551e-01
2.343134471221071102e-01,1.122956596499680160e-02,2.280343727388899899e-01,1.510893389659810409e-03,-9.789489833612143900e-04,4.623889002631294438e-05,2.200336605310440063e-01
2.283580911952677317e-01,-9.976496318974126254e-04,2.239076836783510660e-01,-3.013009482045063457e-04,-2.498797340532250052e-03,7.438743652722878399e-04,2.272087186574935913e-01
2.325392428151411006e-01,1.692846597115993390e-02,2.250440532693069595e-01,8.068409324730370651e-05,1.072915708136472308e-04,5.124438832611073876e-04,2.119645774364471436e-01
2.244924021878333953e-01,-3.103626351287608331e-03,2.238834311957739742e-01,2.562564566510763028e-03,-3.363515219415199307e-04,-7.101985638719939030e-04,2.273395657539367676e-01
2.325435227904732449e-01,2.122447610146765973e-03,2.271513905151739121e-01,2.921857810498929833e-04,3.827501337904069043e-06,-4.695609473159973715e-05,2.277734577655792236e-01
2.288230322028184105e-01,-1.360422336564443002e-03,2.255641500968330049e-01,-7.337013569463581193e-04,-1.164398933826508173e-03,4.463994023262775920e-04,2.285851687192916870e-01
1.861782433696524408e-01,5.573860554624485153e-03,1.874630363936278798e-01,5.528528117239021227e-04,-1.272393825132682628e-02,4.724708289367617964e-04,1.825894713401794434e-01
2.156195038957098853e-01,1.514648800462967126e-02,1.790233872893390865e-01,1.544162095011162314e-03,5.825926255538483971e-03,-1.608346380154457853e-04,1.852059066295623779e-01
1.989528691584165898e-01,2.052999811016278930e-02,2.099463293746932635e-01,-3.540245714385537945e-04,-2.174235089440272085e-03,-4.351826980293536061e-04,1.842069178819656372e-01
1.575325302406619388e-01,-6.336374250104526151e-03,1.978090074972672363e-01,2.885571876052978393e-03,-1.173245625360015351e-02,6.188740328878637731e-03,1.887540966272354126e-01
2.229031064483233959e-01,-1.407136220446192354e-03,2.238890763557085106e-01,1.179041802948622986e-03,-4.549381981331713826e-04,-3.584558335973763300e-04,2.248163670301437378e-01
1.818781880580978838e-01,1.105812041957975056e-02,2.035440781958630374e-01,4.686223763914856605e-04,-7.294540610181303453e-03,1.794392558372588523e-03,1.830842047929763794e-01
2.556586358386371272e-01,4.271384092552292511e-02,1.880788158100460683e-01,-3.696770087257815821e-03,5.714660317967228120e-02,-3.827013566003186797e-03,2.130818814039230347e-01
2.301050942525887655e-01,-1.299341995477543144e-03,2.235618556876917129e-01,5.070272355572811012e-04,-2.918601200917806098e-04,-2.743302536378242149e-04,2.282059341669082642e-01
2.312047553234797825e-01,2.973452962573286396e-04,2.252957160956477189e-01,5.135919249115883812e-04,2.441141312979629001e-05,-1.139958693710940747e-05,2.280120700597763062e-01
1.998316555146025797e-01,1.293271078425961562e-02,2.096163286010264137e-01,-2.446945019478075902e-04,-1.761578424605468162e-03,-3.653636693417024791e-03,1.921073645353317261e-01
1.852205649840328594e-01,1.262052627185228371e-02,2.086898982497192301e-01,-2.379393265177043673e-04,-5.210933475438261735e-03,-2.173559696293476690e-03,1.857099831104278564e-01
2.023164505376559286e-01,1.433005637759693363e-02,2.096149008386029022e-01,-8.870805542541853510e-04,-2.548221930033399071e-03,-2.993286080807045901e-03,1.918668299913406372e-01
2.430364986989326792e-01,3.349077102995229316e-02,2.325426083431914592e-01,-3.461193891145085237e-03,-1.674838430489079550e-04,6.412348522053352377e-04,2.045918852090835571e-01
3.171583305346410975e-01,9.919607526447890566e-02,4.061341363370251090e-01,7.193866584284491772e-02,-2.697358615787676800e-02,4.753773557734886253e-03,3.042920231819152832e-01
2.103682789644472084e-01,3.086804084496326539e-02,2.114435703874681660e-01,4.976084946027622968e-03,-2.784643993998155848e-02,6.774486332488009049e-03,1.869565248489379883e-01
2.042796146207054853e-01,1.500103911966919890e-02,1.965852564373117839e-01,-1.655902514174923019e-03,-3.459002504057340655e-03,-6.132865187651115931e-04,1.856729686260223389e-01
2.072861511278911995e-01,1.014705466867626971e-02,2.079717279668152063e-01,-1.048924646098087742e-02,-1.881732398035699735e-02,-1.453350173939352806e-02,2.025474309921264648e-01
2.368410994837277239e-01,4.447228278906503740e-02,2.423894901161944282e-01,1.028669403034208939e-03,2.080936985178040519e-03,1.299981835251369988e-03,1.952565461397171021e-01
2.368131733742668277e-01,3.225812956191584369e-02,2.333542703783461070e-01,1.167513968400204442e-03,1.301501784432380860e-03,7.275310571553044803e-04,2.028742283582687378e-01
1.547908414089916862e-01,-5.423061798600201100e-02,1.475142061390467552e-01,-3.244331526850570413e-02,-7.799162943075145515e-02,-3.481164379291824817e-02,2.593516707420349121e-01
2.535538246891781422e-01,5.676170580152556377e-02,2.706115694424701679e-01,-3.647195850455716912e-03,4.105343367981364685e-04,5.690088364510684053e-03,2.061855345964431763e-01
1.313568943222946928e-01,-3.397328738544214133e-02,2.131456083929336720e-01,3.310221230272845233e-02,-4.722675385765262579e-02,2.884800361535530891e-02,2.449910044670104980e-01
1.835489061386456899e-01,4.014929937884992306e-03,2.127315904359703413e-01,1.618610486413693973e-03,3.988300630939636653e-03,-5.351972697284418552e-03,1.961246281862258911e-01
1.833995199912338003e-01,-1.537803796328041095e-02,2.313736432663993647e-01,2.485782271895124046e-02,-1.753570840682875873e-02,1.766970197900316272e-02,2.346552908420562744e-01
2.795575556039237020e-01,7.880193111176361787e-02,2.738558160774514638e-01,2.346033974433055051e-03,-9.752931749768213934e-03,-3.626607460988893333e-03,1.988265663385391235e-01
2.705504040869686211e-01,6.393382121246668492e-02,3.400051230770066990e-01,1.543463764045666271e-02,-3.988256594014471385e-02,2.632885383803685447e-02,2.634976804256439209e-01
2.293492117161201049e-01,2.224359240576184726e-02,2.312275006200252558e-01,-3.225331509140412674e-03,-8.652496171351657878e-04,-4.896314483301377786e-03,2.083042114973068237e-01
2.849737972323663771e-01,6.540885053434561391e-02,2.902773953788790329e-01,-2.204175299216479776e-03,3.633886686112582781e-03,3.360364337970566696e-03,2.224622368812561035e-01
2.172143003598893674e-01,-1.725349137604498262e-03,2.157981664935894606e-01,-5.091730513976751825e-03,-1.839495939886686077e-03,-4.253394598506707487e-03,2.185605913400650024e-01
2.322050195846032672e-01,1.271619539224147499e-02,2.226730263339172233e-01,-9.890392380127214448e-04,7.551231543050624479e-04,-1.260208162229370745e-04,2.148923724889755249e-01
2.231291781997346568e-01,5.213033846751036204e-03,2.222329779037848230e-01,-4.034863064601459243e-03,-5.158798855948189526e-04,-2.986062332573527576e-03,2.176449894905090332e-01
2.217737410498221151e-01,-5.445254467379367913e-03,2.154038876606972908e-01,-3.395694206514292095e-03,-8.297283405065392602e-04,-3.428385136941089050e-03,2.242623716592788696e-01
2.476332937677045432e-01,5.733415943550124183e-02,2.467761772095607153e-01,-3.611681437489698381e-03,4.237719711174383307e-03,-3.312733216716903534e-03,1.902033537626266479e-01
2.249609058304650744e-01,-3.001335446743691460e-03,2.232189259687268335e-01,-1.906407192463718944e-03,-2.078172219607066836e-04,-2.108010356425666764e-03,2.271499037742614746e-01
2.223074455031728014e-01,-4.765234466224510523e-03,2.218869200479282600e-01,-7.570667849884850538e-04,-1.648003011278433580e-03,1.095842269561771859e-03,2.268923968076705933e-01
2.189427204416624084e-01,-3.307056348582165795e-03,2.106464958025308087e-01,-4.634601270556706724e-03,-1.040804113019984422e-03,-3.038478231535288177e-03,2.184384167194366455e-01
4.590965694764951310e-01,1.698703015340740641e-01,4.097555977730604759e-01,-1.596022690860098014e-02,-1.587552383279595015e-03,-4.887638993629997430e-02,2.824077010154724121e-01
2.306617680554575722e-01,2.632427944019299915e-04,2.245172311652170183e-01,-1.056194810673299675e-06,-8.807916989771962359e-04,-2.007466136686327201e-04,2.273939102888107300e-01
2.207955566425286176e-01,-4.832271723922365592e-03,2.176814489997829782e-01,-2.688783596450140725e-03,7.646211882208166959e-04,-2.970608330625202145e-03,2.241983562707901001e-01
2.232593351102757917e-01,-2.877556978319512071e-03,2.244602085464755259e-01,-1.602263893240802651e-04,1.459818687260832108e-03,-8.775359635101436656e-04,2.267590761184692383e-01
2.236070665635093158e-01,-1.582575002907898876e-03,2.256896948560752625e-01,-2.292408577063091441e-03,-1.578703805864061773e-03,1.366063276186695302e-03,2.263018786907196045e-01
2.569419019613649047e-01,6.123425732993736936e-03,1.733899642982756617e-01,1.306349151328797635e-03,-8.840643172657668136e-03,2.712854004563083551e-02,2.266758233308792114e-01
2.065128394722414717e-01,-3.879912056783396679e-03,2.289559403808160698e-01,-5.870694583157981192e-03,-2.035362714489276912e-04,2.152382478743619827e-03,2.227287292480468750e-01
2.009453049101740385e-01,2.390466171021540798e-02,2.350491418733843263e-01,-9.160570351328113994e-03,4.562872100912841039e-02,1.005688244521170394e-02,2.129444479942321777e-01
2.306410657534779807e-01,-1.201706460864371273e-03,2.221265067829647777e-01,-3.586299539436030499e-04,-6.948805237532939237e-04,5.252504725855774428e-04,2.277107685804367065e-01
2.298189199136245753e-01,1.288115056630401156e-03,2.262167747054140143e-01,-6.538463489366090186e-04,-1.697613444992909001e-03,2.154086569847531076e-03,2.268037796020507812e-01
1.948359342719407361e-01,-1.664621929629667152e-02,1.918259412131669561e-01,-1.002788497202191861e-02,1.512963297613522003e-02,1.169189769546667354e-02,2.132972031831741333e-01
2.284538299168514808e-01,7.164489398981815915e-03,2.364295757716360358e-01,-1.284207178702370927e-03,1.439188456847760892e-03,-8.033809798371806536e-05,2.254078835248947144e-01
2.241761434777786444e-01,-3.959479529986070778e-03,2.239827809940785341e-01,-2.587974152374310916e-03,-4.394705250852479791e-04,-1.058857936609910793e-03,2.280917018651962280e-01
2.100085126566133553e-01,-5.303233980816640658e-03,2.152405017850355096e-01,-2.875961826174404726e-03,1.111998628898770844e-03,3.286073640922935416e-03,2.181145250797271729e-01
2.461271905437455165e-01,4.612077141160360327e-02,2.135002539832460411e-01,-1.640358669269860806e-02,-4.686625060154617911e-02,-1.945242270622009328e-02,2.075409591197967529e-01
2.370604078720732477e-01,5.476464901669154950e-02,2.424830043542577362e-01,-5.998402658570048439e-04,9.900352944830254250e-04,3.294394500323597191e-03,1.851654499769210815e-01
2.265522363350805646e-01,-8.680139123239116739e-04,2.241542431071090191e-01,6.760659809467646801e-04,-2.135493006154066866e-03,-6.262064448115514442e-04,2.262666523456573486e-01
2.212527383535241865e-01,-1.646018616745598129e-03,2.234964746435134098e-01,-2.145453301208756144e-03,-1.505603443910765891e-03,2.140579260331079269e-03,2.241057157516479492e-01
2.267613529968424690e-01,-2.751165742527483804e-03,2.243650432633183534e-01,7.198728026882088510e-04,-1.373559248706053473e-03,-1.148139529850443746e-03,2.283482551574707031e-01
2.251677015073985377e-01,-3.316865758432041567e-05,2.235862450595263451e-01,-2.231806949162991067e-03,1.478796519282723045e-03,-1.437320485989999723e-03,2.244760245084762573e-01
2.231953072089002954e-01,-4.230592486111905970e-03,2.226907783808035612e-01,-1.252701532812229611e-03,1.066449469177235820e-03,-4.794682234452190715e-04,2.271934449672698975e-01
2.714495016451206610e-01,3.260341139907912966e-02,2.136833858512452999e-01,-9.530320003996988615e-03,-3.010196178295779929e-02,-3.010325054959361521e-02,2.286846041679382324e-01
1.995647564156939890e-01,1.649371762319198909e-02,2.112506235672023114e-01,1.881728194365537600e-03,1.815105710393693323e-03,-2.524137189978223339e-03,1.892895400524139404e-01
2.265666424747581620e-01,9.554444299736508661e-03,2.090106483184508979e-01,-6.146102122524773823e-03,-5.865959236361705832e-03,-7.748278530970972855e-03,2.097362726926803589e-01
2.181727414062415993e-01,9.406198043062030667e-03,2.350919668139925256e-01,7.951313831443184918e-03,3.212299573615916108e-04,-1.729764332015566253e-03,2.181762009859085083e-01
2.271505659244045794e-01,-9.290755345353618466e-05,2.258177560575010956e-01,-1.313773010098528852e-03,3.317168152574997454e-03,-6.429830439006007856e-04,2.266670018434524536e-01
2.262090816792767245e-01,8.069676150679605531e-04,2.287895603384306753e-01,-8.420215335426446158e-04,1.933397140893781995e-03,6.423974978919649165e-04,2.267355173826217651e-01
2.068981428051276383e-01,1.537942553785695554e-02,2.158760927989337997e-01,-2.752216072153339937e-02,-4.840170396097317335e-02,-1.196502605467537547e-02,2.195667028427124023e-01
2.397707913818323544e-01,2.917605066250791856e-02,2.327852401881483346e-01,-2.472846442491099216e-03,1.609971454705386379e-03,8.139669369381975512e-04,2.072581201791763306e-01
2.206507711662610838e-01,-6.725292698049445406e-03,2.201939011317691763e-01,-9.317939281278511459e-04,1.330502337299217970e-03,-4.131113192200110704e-04,2.271665185689926147e-01
2.382032221031003538e-01,3.851309686611825711e-02,2.285114661998965957e-01,7.664414978514729132e-04,-1.319904974453745992e-03,-3.201447152537808074e-04,1.950436532497406006e-01
2.235270239009215509e-01,-2.559087306031992970e-03,2.239672546202179926e-01,-8.899019133224865584e-04,1.715233484978430497e-03,3.983615642480494915e-05,2.263313084840774536e-01
2.244413149241963334e-01,-2.237542912996132172e-03,2.288941282792900378e-01,3.283061703344872890e-04,4.435980071518986654e-04,-1.037466633885519938e-03,2.289467900991439819e-01
2.292950750017553607e-01,4.696267419769792340e-02,2.301489958779925071e-01,2.220790218452141189e-03,-2.858811202412319926e-04,-4.595638455948505060e-04,1.828037351369857788e-01
2.347067723078034573e-01,1.248092921417806589e-02,2.324507843622995451e-01,-1.041953190059331964e-03,3.711265124681497815e-03,-9.080406509579022059e-04,2.212128490209579468e-01
2.334018755288674862e-01,1.685435644500943297e-02,2.368738378199630179e-01,-7.022959180818272740e-04,1.653667063148022071e-04,1.082769957439095373e-03,2.183158397674560547e-01
2.215901660607203505e-01,-5.880246458033755452e-03,2.229329298618426825e-01,-2.984661656731660479e-04,-4.973463043037961015e-04,-1.412384310734531457e-03,2.281600832939147949e-01
2.225759590077610039e-01,-3.263422731930754050e-03,2.266589822382040209e-01,-4.301943037509094701e-04,3.019049916228424410e-05,-7.780105949968346658e-04,2.279135286808013916e-01
2.332333880584024632e-01,8.281114397217181899e-03,2.291244893092594936e-01,8.011963544354273013e-04,-4.892572093346942569e-03,-7.959394817885020621e-04,2.230958044528961182e-01
2.328330584247636503e-01,1.037586357861872144e-02,2.360846879782114438e-01,1.638984321379393164e-03,3.204424483508519343e-04,-3.072215305671196790e-03,2.241825312376022339e-01
2.263678217039160889e-01,1.548818840778176664e-03,2.293254527238157148e-01,-3.140181241535628005e-03,3.180223861816631331e-03,-1.903126422626555056e-03,2.264686524868011475e-01
2.280520857738331242e-01,1.362740471740458981e-02,2.339944348517010164e-01,-6.170776393389657217e-04,1.069724889534543009e-03,8.701131852111425877e-04,2.174724936485290527e-01
2.244508135724126441e-01,5.197926558168836086e-03,2.296717951073894148e-01,-1.318187712106791030e-03,1.564134972004927742e-05,-2.588258135091284912e-03,2.219664752483367920e-01
2.280269243931322687e-01,1.744418598960795208e-03,2.313554013043838120e-01,6.246209916292133060e-04,1.491063056228076995e-05,-8.443726520031135264e-04,2.279722243547439575e-01
2.360724916740833124e-01,2.982494188156126214e-02,2.359828103915158071e-01,2.267341186588972112e-03,-3.265871239754433372e-03,9.077863244472911351e-04,2.063236683607101440e-01
1.991268710400569131e-01,5.028791297601309385e-03,2.299527863929689553e-01,-9.943926276605759632e-03,5.759047215588698580e-04,1.495960107004500159e-04,2.119086086750030518e-01
2.191526837098948244e-01,2.267402842368201887e-02,2.056138858188603646e-01,-4.317731031657627908e-03,-1.115897820907802568e-02,-5.300651312694899461e-03,1.914180368185043335e-01
2.011830509879713180e-01,2.739749754097209333e-02,2.835725066325555654e-01,-2.249459522204798334e-02,-2.593166760638702245e-03,-3.332190573555407660e-03,2.299544364213943481e-01
2.498652061345572051e-01,5.324617952806956489e-02,2.496887693334904901e-01,-1.670314298015812006e-04,-2.482121539471125217e-03,3.692939886039188751e-03,1.966821402311325073e-01
2.263396735755302258e-01,3.724320425673305346e-03,2.245363786851009846e-01,-1.802330963998862281e-03,-2.644330587052203256e-04,-1.021413466807665101e-03,2.217487096786499023e-01
2.361357623520270732e-01,5.122562394417805309e-02,2.333627020618942449e-01,1.583021898448526942e-03,-1.771095449430500936e-03,-5.197697354660746555e-04,1.835876405239105225e-01
4.270528066041612281e-01,1.345803694661426020e-01,4.445989297043448918e-01,2.036409402771956895e-02,-1.319415506706262363e-02,1.397543985334457999e-02,3.055029213428497314e-01
2.314232668942599047e-01,1.581328694343003827e-02,2.322962173972221156e-01,-1.706564081631572636e-03,4.801143030740083126e-03,-1.633775774147132971e-03,2.162464857101440430e-01
2.251977318054417809e-01,-2.550542304058961429e-03,2.237473682367418226e-01,-2.843846936411903881e-03,-7.120178952144361195e-04,-2.652459192018025852e-03,2.271298170089721680e-01
2.310398296505400961e-01,1.702789754827715996e-02,2.191440457973519162e-01,-6.033379280315970261e-03,-4.339075794015073706e-03,-6.450963512671155191e-03,2.090151011943817139e-01
1.808745637480596302e-01,9.986748434377967776e-04,2.583666109738970151e-01,-2.552281161205903828e-02,2.188398143043736657e-02,7.063102041855904949e-03,2.363047450780868530e-01
1.896422115860604274e-01,-4.705383692421016839e-03,1.819236385737018347e-01,-2.001414403903721551e-02,6.244469426667689782e-02,4.198153051665749758e-02,2.334899157285690308e-01
3.004782747893443018e-01,8.833908707885185230e-02,3.985399364749656059e-01,2.161231960723737980e-02,-9.193227703449069824e-03,1.122481674258987878e-02,2.783067822456359863e-01
1.132588902384969176e-01,-2.064067161103966264e-02,2.320740953960434283e-01,-1.952221667618890197e-02,1.634733204729940312e-02,1.478131879198776649e-03,2.233988791704177856e-01
2.294241633088105470e-01,4.461862248983011758e-03,2.286147186804334819e-01,-1.440247073815231456e-03,3.367752005334668803e-03,-4.819784812513533152e-04,2.246498167514801025e-01
2.203497265690993467e-01,-4.254768020925669969e-03,2.216425409758701615e-01,-3.677554234222094390e-03,9.648045302491108826e-04,-2.859991520439879656e-03,2.254043668508529663e-01
2.232081155274005246e-01,-2.902629423677499654e-03,2.229649230169967467e-01,-3.516436916627939955e-04,1.853303878204883102e-03,-8.390303823575022630e-04,2.260175347328186035e-01
2.349923779412261271e-01,6.372876059444504415e-03,2.026487925005665824e-01,-5.494595149518310398e-04,1.437333592650379675e-04,-1.150324573034265749e-03,2.142978012561798096e-01
2.268505086203518872e-01,-1.501081262489878387e-03,2.255679890888289130e-01,-2.981554356284596093e-04,5.179735443635874329e-04,-9.097411891332016567e-04,2.277208417654037476e-01
2.335325762627907531e-01,1.390095575542554807e-02,2.240956957019433204e-01,-7.498472046644323119e-04,2.327338149989345139e-03,7.410284552705118490e-04,2.151140421628952026e-01
2.225813609334931220e-01,-3.330656086955569029e-03,2.237533129327123338e-01,-2.302138338486068182e-03,-1.867815992125066663e-04,-2.156700264341861444e-03,2.265663892030715942e-01
2.213175963237573318e-01,-4.394824872729158338e-03,2.216854516824544596e-01,-1.573053356144018611e-03,-1.124182908124143313e-04,-2.411626588188446347e-03,2.259517014026641846e-01
2.216058159396867844e-01,1.150198414117148404e-03,2.254410108725511952e-01,-9.190515312003845081e-04,2.049639294155147741e-04,-2.808755092606831077e-03,2.224572002887725830e-01
2.094989475441696170e-01,3.779946264471339967e-03,2.228705647957367475e-01,1.351694862618150377e-03,6.053261769180839132e-04,-4.839351972798327552e-03,2.129007726907730103e-01
1.978950732344817720e-01,1.558594046093292329e-03,2.077337733564917910e-01,-3.617783695158271941e-03,-5.315085862113922560e-03,-6.400898945388624507e-03,2.020481079816818237e-01
2.225257843321614692e-01,7.030523052861392674e-04,2.256729625793113536e-01,-8.372057046437363093e-04,5.165892500550830005e-04,-2.583614528477758653e-03,2.234642505645751953e-01
2.271600076897642428e-01,-3.476297012600021441e-03,2.233294047609738486e-01,-1.117317692312759471e-03,3.353746345620740258e-03,-6.057007998234938172e-04,2.288293987512588501e-01
2.176578965411692379e-01,-4.017290175730992008e-03,2.211933458583338341e-01,-2.804399068060204128e-04,9.341106171683563912e-04,-3.394940926414019653e-03,2.235476225614547729e-01
2.225212632565312654e-01,2.079733111954334968e-03,2.303940411568542457e-01,-3.436263326468584969e-04,2.329285665183101787e-05,-3.220966505031779004e-03,2.245515882968902588e-01
2.061197101819206567e-01,-7.317841991369977706e-03,2.167868882162165001e-01,-4.226594972522171485e-03,-1.525715283320261536e-03,-4.531447654336331725e-03,2.192449122667312622e-01
2.241557109989402718e-01,-2.281609044910842821e-03,2.247847640247738199e-01,-2.260153599489363521e-03,3.046889473366480995e-04,-2.223600350099573086e-03,2.268196046352386475e-01
2.205899321565365501e-01,-2.706297551314129635e-03,2.204573530578555762e-01,8.597981927758067619e-04,-3.116095706995976235e-04,-4.349103810078019635e-04,2.232368588447570801e-01
2.207573417065418486e-01,-3.402191874721766096e-03,2.217999771101984985e-01,7.935617738220217873e-04,-2.514359732987807576e-04,-4.800775446052069919e-04,2.246888279914855957e-01
2.327440086028751409e-01,1.737614636777723431e-02,2.329097178307009131e-01,1.714523635524939880e-03,-4.970431393807098024e-03,-1.773310121635098425e-03,2.156650125980377197e-01
2.220037644403120847e-01,-3.325729976928509801e-03,2.221081874200862005e-01,9.295390926455162099e-04,-9.456422988499816641e-04,-6.618621086175795979e-04,2.253963351249694824e-01
2.214082224150841771e-01,-9.822883906548951494e-05,2.192053072905656985e-01,2.879342865679744914e-03,-2.856428828647601540e-04,-7.561470145905301553e-04,2.204741090536117554e-01
2.254811053925980247e-01,-4.647297193024924056e-03,2.224250882480947877e-01,4.300905601987858482e-04,-2.846894407163846896e-04,-7.907438073881767164e-04,2.286215573549270630e-01
2.183654480847837531e-01,-4.459241374458772222e-03,2.182671821815505286e-01,-2.688747512557906720e-03,4.620325378189645585e-05,-2.649946965609147140e-03,2.228715270757675171e-01
2.108715703025183519e-01,-3.685153717393585548e-03,2.209657742371372025e-01,-2.661410016301609272e-03,-7.715972900173005992e-04,-3.674044590287159871e-03,2.199222445487976074e-01
2.316950455000468811e-01,7.867675460796669240e-03,2.283002078049751193e-01,1.307048458841008427e-04,2.813591964311921816e-03,5.839973818366313773e-04,2.222052663564682007e-01
2.264038136533658707e-01,1.314759925473835134e-03,2.261583642112729997e-01,-5.733779268334368443e-04,2.560239977017792802e-03,-1.033236262572459176e-04,2.250123918056488037e-01
2.169219592893472659e-01,-8.948805344280441609e-05,2.303237795593484072e-01,-7.283893341234729327e-03,-9.038558448947333441e-04,-2.950181405393702185e-03,2.244318425655364990e-01
2.525620439013563923e-01,2.724176361746966091e-02,2.578142452457280465e-01,-9.897826322660365633e-03,-2.102041539117054797e-02,-1.289340511875478393e-02,2.325907051563262939e-01
2.141055419108062186e-01,3.705625786453892179e-03,2.384733345806070437e-01,-1.172874365834337615e-02,-2.145968782445082171e-02,-1.334427416371426235e-02,2.287298589944839478e-01
1.628300780711063045e-01,1.627549096297790931e-02,2.390177373143835271e-01,5.883496210272294580e-03,-7.708005296376401264e-03,5.448026892345581018e-03,1.970268636941909790e-01
1.848147157292107101e-01,7.854781241629110733e-03,2.317079075429405721e-01,1.729520664560245738e-02,-3.691735596698394323e-02,1.071765702381304204e-02,2.171235978603363037e-01
1.967862213111185865e-01,3.365737392593749766e-02,2.451843466373024860e-01,1.712322315100495845e-02,-3.755471416119875172e-02,1.309216183932242379e-02,2.060908228158950806e-01
2.262059987890260304e-01,1.341979618693089904e-04,2.264818390629069200e-01,1.381211457767384139e-03,-3.985938192747697536e-04,-7.073996211237533905e-04,2.262268662452697754e-01
1.733118292908046587e-01,1.231178641462749024e-02,2.170954620857094008e-01,3.610300851772273688e-03,-9.865536508524995821e-03,3.191886076082548363e-03,1.877467483282089233e-01
2.042611487200942655e-01,-1.046809656852581982e-03,2.037151814215848455e-01,2.127572760969890023e-02,4.291889420237720437e-02,-1.494074366934170471e-02,2.226955443620681763e-01
2.387985591946071851e-01,2.826524090549475954e-02,2.482527489697305412e-01,-1.082459728292020987e-02,9.620395986424234297e-04,9.088685226481646798e-03,2.168091088533401489e-01
4.225132380016881628e-01,1.062294001008326216e-01,4.220405189776272326e-01,5.358952455783135352e-03,-4.116235204310783775e-03,1.936945072030671691e-02,3.180388212203979492e-01
2.403105419405226484e-01,2.222146432944507866e-02,2.441867374407826197e-01,-9.870812801246072604e-03,3.082934292638344828e-03,3.380667888245636238e-05,2.207805365324020386e-01
2.744098536333527405e-01,5.968217054294225332e-02,2.758286458448636624e-01,-4.548327057979219636e-04,8.339847842411533818e-03,-4.810945878518846711e-03,2.160864621400833130e-01
2.267583440334343670e-01,5.193778010923744137e-03,2.298312739062324805e-01,1.729115119826899524e-03,-3.924649658014692753e-03,-1.807355308351227437e-03,2.232624739408493042e-01
2.254274264674249739e-01,3.725854462034994263e-04,2.261020231110795753e-01,1.029850286928143260e-03,-3.349511679588597964e-03,-6.231059467021481980e-04,2.254771888256072998e-01
1.982485474884583820e-01,-1.374882310366321025e-02,2.006170106831431932e-01,2.022891730991141154e-02,2.316753940681191837e-02,-1.393871196997067442e-02,2.210685312747955322e-01
2.309778909661264756e-01,1.128136053031747466e-02,2.303256328394205077e-01,-4.017836128022303152e-03,-3.838918127330906861e-03,3.451554984127984740e-03,2.196635454893112183e-01
2.269314098987694206e-01,1.020891313212210494e-02,2.238321202854401115e-01,-1.751162391459355283e-03,5.183457785279946793e-03,-1.446407833326753337e-03,2.154127210378646851e-01
2.277155487584691662e-01,9.419155522520039625e-03,2.321303544213852432e-01,5.628485770243307849e-04,-3.275193095052378323e-03,1.362149623019456553e-03,2.206246554851531982e-01
2.311383038431435444e-01,5.836401179925371219e-03,2.283016183638847119e-01,-1.627718482278023944e-03,3.710715379567021324e-03,-1.075185918488020219e-03,2.240147441625595093e-01
2.346397801229173075e-01,1.013006236234315072e-02,2.246610685939586793e-01,7.621137084062764612e-03,8.485335731520191743e-03,-6.419951381782933522e-03,2.208568900823593140e-01
2.369007084102381921e-01,2.697846587427757403e-02,2.333548664841300357e-01,-8.929434324349694438e-04,-3.357622083127260494e-03,2.755062798337762180e-03,2.083135992288589478e-01
2.352576318370240005e-01,2.069051722603765242e-02,2.313441244947415654e-01,3.832369757365756014e-03,-4.417022753285706864e-03,-1.535620840096917289e-03,2.128950804471969604e-01
2.305513186305628848e-01,8.534485667322150304e-03,2.491331181119560423e-01,1.346823390531174530e-02,-2.485081708388029429e-04,-6.563297095207141704e-03,2.333148568868637085e-01
2.228847912747622673e-01,2.279110798097477852e-03,2.218902773372839476e-01,-2.198552228458076126e-03,1.228787622575540448e-04,-6.250675967375444531e-04,2.201458066701889038e-01
2.210634115434966240e-01,-3.247436710931972392e-05,2.095211643283185210e-01,7.762985271134253094e-03,1.097896573390455544e-02,-1.668346988885944029e-02,2.187283486127853394e-01
2.252661555882331801e-01,-3.320753042411028755e-03,2.232901940555870046e-01,-4.641668690694150798e-04,1.327729241515223767e-03,-7.191465962703318723e-04,2.276218086481094360e-01
2.316927076322273515e-01,1.084747319289797174e-02,2.309167633646875273e-01,-2.757663745599090756e-03,-5.839506404197610662e-03,-8.357016486725359333e-04,2.207466065883636475e-01
2.314755447492016782e-01,3.692005655053565150e-03,2.273873481499846250e-01,3.202911287278618121e-03,3.981329158615158799e-03,1.997697205174716727e-03,2.259671092033386230e-01
1.736497843113322670e-01,-2.041965963197459044e-02,2.193423131449750985e-01,-1.930303906536990147e-02,9.567430381482432480e-03,1.004600112119349332e-02,2.243066579103469849e-01
2.341999102674448552e-01,1.184691453365102620e-02,2.303108658252829288e-01,-1.690342858951738138e-03,3.579180071705861249e-03,5.920490871872834170e-04,2.205431759357452393e-01
2.251893915564635584e-01,-3.352051302642322650e-03,2.240328132935907601e-01,-8.609498179751322484e-04,2.846754912795567381e-03,-7.771235208092680058e-04,2.280275225639343262e-01
2.236448742763014197e-01,-2.143041745554685740e-03,2.230037094448785728e-01,-2.479519579500452414e-04,1.054451958489417696e-03,-1.095893730996674777e-03,2.254838198423385620e-01
2.336031446569647729e-01,4.412956738605477991e-03,2.300693542305972117e-01,2.087604799105974816e-03,-3.038937273933994322e-04,-5.666589628210281409e-04,2.274753451347351074e-01
2.395413115445697294e-01,1.247967157248455750e-02,2.328241079446188300e-01,-1.632528846239125492e-03,2.579107350674969285e-03,-7.334631472049240935e-04,2.238447070121765137e-01
2.287802054705364574e-01,-4.790360948726812840e-04,2.245343699653843950e-01,8.522623562631969013e-04,1.476889898087755748e-03,6.259359541252035308e-04,2.271878719329833984e-01
2.225203977530985922e-01,-5.351996800076391780e-03,2.226242472989827248e-01,5.020021395200141220e-04,-4.448083695570187088e-04,-1.183021114445096441e-03,2.279365062713623047e-01
2.219620869235100769e-01,3.084370111554629590e-03,2.199263436875752986e-01,2.647912386147978272e-03,-7.648852200134754076e-04,-3.818139513228984826e-03,2.180195897817611694e-01
2.410756870167196086e-01,6.073993623229606564e-03,2.470319056671716473e-01,-1.628645461909485753e-02,2.725268567150143997e-03,4.576917088889380890e-03,2.398788630962371826e-01
2.695147084677538829e-01,6.760485077279498878e-02,3.055816655990044040e-01,-1.208379551063741390e-02,4.268022292660655047e-03,2.655495006382475182e-03,2.233037054538726807e-01
2.148733982431085821e-01,-1.226444193577674868e-03,2.179868346358994902e-01,5.131894483459129627e-04,-1.329295389340755685e-03,-3.068009331293747441e-04,2.176879048347473145e-01
2.206329174436372498e-01,-4.199994611860158322e-03,2.226608136471842636e-01,1.105957011596948522e-03,-3.302516453702210157e-04,-1.126530408795197715e-03,2.258709669113159180e-01
2.505183045833059841e-01,3.315871053669597335e-02,2.516798312450465036e-01,3.243279632168302468e-03,-1.217578552892151222e-02,3.509147957804301804e-03,2.191170006990432739e-01
2.532988052963290881e-01,4.674585930575572701e-02,2.669550064676952661e-01,-5.896241226119901865e-04,7.972912413963013575e-03,5.726832358467541517e-03,2.143862694501876831e-01
2.243302784815977280e-01,2.405611862758366692e-03,2.280530301729681297e-01,1.149792122836718836e-03,1.950081378331717835e-04,3.433589028994288761e-04,2.238191664218902588e-01
2.367337496577662792e-01,3.219583415997098741e-02,2.430644913513655969e-01,-1.709014026147147314e-02,-4.161273050854794389e-03,-5.273729231569186139e-03,2.101958990097045898e-01
2.250940522954434364e-01,3.176619676357184119e-04,2.311826392253818474e-01,3.805804940425596208e-04,-9.885188376939665726e-04,7.911613217298464010e-04,2.278932034969329834e-01
2.125380246999689915e-01,-4.809000527957046911e-03,2.073227392916843770e-01,4.576636366758892599e-03,5.483216424455724866e-04,-3.142423243696614629e-03,2.150041013956069946e-01
2.208474893105389636e-01,-2.837547803264950375e-03,2.178926304723612928e-01,3.311631365918896522e-03,-7.652276425765026924e-04,-1.419561707309733255e-04,2.223004400730133057e-01
2.252134364451902349e-01,-4.993581137491265309e-05,2.258429753178143318e-01,9.301713838589891186e-04,-2.964821982515010619e-03,-5.166278466860342979e-04,2.256447672843933105e-01
2.287334125116348149e-01,6.091503128065473005e-03,2.323519278475041916e-01,2.507708461900519555e-03,-2.894866526207757335e-03,-3.179922616671546683e-03,2.246385812759399414e-01
2.332646142748604212e-01,1.077429575098515224e-03,2.088509500657980411e-01,1.629556673340513224e-03,5.869307496933089986e-04,-5.385969856673515112e-03,2.212112098932266235e-01
3.341882845884055486e-01,1.945503758034985986e-02,1.463887472990668404e-01,-9.581324987301386917e-03,3.341585319667710052e-02,-4.290439107218366188e-02,2.904592156410217285e-01
2.252064480973724747e-01,-2.352951892324595118e-04,2.285821166868978183e-01,6.202055635511398652e-04,-2.316754552633497419e-03,-2.977765985797648863e-04,2.271869629621505737e-01
2.463727538786297244e-01,2.032184807491499434e-02,2.445452412883326043e-01,-1.612774070428588504e-03,-1.039050608778312830e-03,-1.433892274213381581e-03,2.251809239387512207e-01
2.252535562825499493e-01,-5.906251654327343559e-04,2.285734693907356951e-01,1.067712205091987188e-03,-2.264247848107465001e-04,-7.929671063140423127e-04,2.275343090295791626e-01
2.238060580894925544e-01,-2.560820715764022815e-03,2.259288260808658688e-01,7.814717287984216222e-04,-1.824355484687749948e-03,-3.685458196853859348e-04,2.274625599384307861e-01
2.276778091925377723e-01,1.151760480231939221e-02,2.327505501598341187e-01,4.473896257795077162e-04,-2.801478267126535342e-03,-7.839531794362627169e-04,2.188000977039337158e-01
2.240597437335273834e-01,3.776934882877142075e-03,2.316040726261919258e-01,2.682625874460521035e-04,-1.111803724523744352e-03,-7.263165402207409334e-04,2.241625040769577026e-01
2.281898113138037532e-01,5.746771778729703462e-03,2.296724496530579973e-01,1.549550844608523327e-03,-4.119677542778577700e-03,-1.914263350602718114e-03,2.233428210020065308e-01
2.237712284105111415e-01,-3.084413119359585842e-03,2.245146687210990422e-01,7.167664378467012527e-04,-2.938816932149818507e-04,-4.923631885545232340e-04,2.272338420152664185e-01
2.229139239353512547e-01,-1.514982870472220133e-03,2.166691521605106086e-01,-8.386240946492411891e-03,5.828374235218102689e-03,8.070141746755096421e-03,2.225176393985748291e-01
2.288045616848616015e-01,1.413635112937072780e-03,2.315794795469174328e-01,1.258135776873615854e-03,-1.630608759219750624e-03,-1.289711134323081546e-03,2.288297116756439209e-01
2.068144291959398418e-01,1.155816881754569148e-02,1.854158515975046773e-01,-9.404108355634897831e-03,3.979346835074678429e-02,1.019861877344810895e-02,1.993304044008255005e-01
2.316712413958728622e-01,2.338710863672655016e-03,2.264576059940523467e-01,1.072396370800308626e-03,-2.126593871066307598e-03,-5.776157151102922355e-04,2.268103957176208496e-01
2.218317583380152724e-01,-3.762809082269807925e-03,2.227950910976661536e-01,9.540247624805778476e-04,1.929061790531836750e-03,1.656747299323531103e-03,2.261267155408859253e-01
2.279490457786123581e-01,3.073068233784143066e-03,2.276850722054942766e-01,1.618791587355871133e-05,2.884111059587852847e-03,1.083998217074120043e-03,2.248074561357498169e-01
2.217068842571811582e-01,-1.746998159412038731e-03,2.217953474508539968e-01,2.107712737774173272e-04,-2.102229321968629222e-04,-9.590429263786681225e-04,2.235049009323120117e-01
2.271091799352652207e-01,-1.589194468079868638e-04,2.255259878579512212e-01,-1.590782254199814196e-03,7.120212031177232349e-04,-2.250707813391625550e-03,2.265343219041824341e-01
3.710910347653478825e-01,6.296768893557536106e-02,1.774040491899335215e-01,-3.372738013573447179e-03,-1.773382508410916575e-02,-3.696999176285702821e-02,2.790216803550720215e-01
2.309318761987332325e-01,2.859966207122061066e-03,2.337102770671108387e-01,8.298942383518324861e-04,-1.556983142274915872e-03,-1.434734309198251213e-03,2.295075207948684692e-01
2.221075709514641339e-01,-3.532392235915782219e-03,2.261759451062390625e-01,-4.321783489388851323e-04,1.695130771235280704e-03,-3.669622946471807600e-04,2.277224510908126831e-01
2.087251652432315363e-01,2.999388519563106481e-03,1.955704257248259137e-01,-6.184228348960318054e-03,-4.621237170120152601e-03,-2.524247348994210563e-03,1.999694705009460449e-01
2.252117045908784421e-01,3.733233889083031887e-04,2.283405244654360955e-01,8.126652078243653144e-04,-9.965770045821155127e-04,-7.633380569225302901e-04,2.264338135719299316e-01
2.239245640399689652e-01,-9.948612760979358427e-04,2.295322596215974009e-01,1.835350191765485026e-04,-1.050083258161701484e-03,8.189131592511574519e-05,2.277825772762298584e-01
2.225804280065430962e-01,-2.153636434070321792e-03,2.227207500696487541e-01,-4.031915639483394796e-04,-6.110049049340208994e-04,-5.213302637226526273e-03,2.249891012907028198e-01
2.154731320652871207e-01,3.057782176396822704e-03,2.159136306660227045e-01,-2.095247407009225103e-03,-1.512407036581585101e-04,-2.921951107173152186e-03,2.127272784709930420e-01
2.255251490217762833e-01,-3.465478030464569370e-03,2.250832359147908468e-01,-1.128521917323231432e-03,3.553021397895788757e-03,-1.138618983205397835e-03,2.288695871829986572e-01
2.283234802984517864e-01,-1.618651016571437395e-03,2.248782252281317229e-01,-5.040027044186049660e-04,2.226445531642181307e-03,-6.691223116661666921e-04,2.282761931419372559e-01
2.254941382124721061e-01,-8.284140058970046461e-05,2.211339229533605399e-01,-1.115868645168956999e-03,2.934806195757743954e-05,-3.833859886038235628e-04,2.234381288290023804e-01
2.287676839529804163e-01,3.351225764559873088e-04,2.256488701869173163e-01,-2.174675443855808056e-03,1.960348186203825574e-03,-2.027464113252112204e-03,2.269730567932128906e-01
2.111978597280221859e-01,1.228618609762058278e-02,2.222806554421120906e-01,-3.051798303742727508e-02,3.288163553023946278e-02,1.716465948429317379e-02,2.209405004978179932e-01
2.001929658225527209e-01,2.017137926629861133e-02,2.524331296843297379e-01,-3.319654603111665131e-02,9.873028482018257612e-03,1.689730713304697998e-02,2.213508188724517822e-01
2.217100743405913954e-01,-2.817370820880904514e-03,2.214040065206126229e-01,-3.766964894223974930e-05,4.724823912337144049e-04,-6.076884138248926474e-04,2.243785411119461060e-01
2.180621598745741407e-01,-2.928436480046842094e-03,2.171707901585777645e-01,-7.710874236118792427e-04,-3.958430558948605694e-04,-3.405539792131857466e-03,2.206302285194396973e-01
2.442544834130507825e-01,2.791232789601685860e-02,2.401870637838444955e-01,-2.450281084073169593e-02,2.204664442985841341e-02,1.663571724580724387e-02,2.236740589141845703e-01
2.444736629853513366e-01,3.145001023960428133e-02,3.695876036824291000e-01,-4.182596800660205727e-02,-2.020933751378493903e-02,4.230035513003134809e-03,3.069396913051605225e-01
2.234407903248938065e-01,1.981986403843782885e-03,2.272039849789968258e-01,1.576907280322464681e-03,4.077029933230688391e-05,-2.895758564439892841e-03,2.234371900558471680e-01
2.247975691995772185e-01,-7.541459965677010935e-04,2.238886016253796574e-01,2.956210180314098419e-04,-9.440939253553648318e-04,-6.604116874405859721e-04,2.251080423593521118e-01
2.483185083271568228e-01,3.868011069882704156e-02,2.631799327183339532e-01,-5.037104981446765585e-03,-4.664348315571938824e-03,-9.751109176673799714e-04,2.177817374467849731e-01
2.329841421525380152e-01,6.112958355642877928e-03,2.265246144048025934e-01,-2.700627915093613447e-03,2.011295482623319097e-03,1.074004338896122467e-03,2.237951159477233887e-01
2.241793082237805157e-01,-8.750289129625665741e-04,2.251970748768695185e-01,6.432675043155346379e-04,-1.137930416045207938e-03,-5.188863326200779435e-04,2.255780994892120361e-01
2.262601361577919745e-01,1.216626661369427098e-02,2.405523225731483750e-01,-7.411873694156213659e-03,7.139110524678995073e-04,2.281891547530002162e-04,2.219612896442413330e-01
2.176659098816130788e-01,-1.767065806580120357e-03,2.175751245972628589e-01,2.267533587333470883e-03,-1.070250292948565817e-03,-5.797898921798239850e-04,2.194328755140304565e-01
2.224314354848088982e-01,-2.469651645230691583e-03,2.223035049614433545e-01,2.960854844520197007e-04,-3.321495631324570142e-04,-6.614485794529172081e-04,2.248413860797882080e-01
1.994062559732401319e-01,-1.343297005544905054e-02,2.161634739582138920e-01,-5.827054067646741421e-03,-9.067668283345928779e-05,2.932236731582655740e-04,2.219235897064208984e-01
2.257624170759066629e-01,-1.913000414580090514e-03,2.274692064675982173e-01,-2.744601271296409108e-03,2.417877021672594571e-04,-9.866734095976428896e-04,2.285898029804229736e-01
2.242094548033520818e-01,1.999078209168253517e-03,2.287715031376547914e-01,-1.176210697290485134e-03,-3.970453070626432743e-04,3.746402776546684535e-05,2.245364636182785034e-01
2.240285391701489770e-01,1.552594043947017055e-02,2.368516558146066542e-01,-8.236133209036444053e-03,-6.080366674338813466e-05,5.669449717011574696e-04,2.156754434108734131e-01
2.302094934197726761e-01,1.733149039297277039e-03,2.279711474142612493e-01,-2.248496591208533520e-03,1.282156438920540762e-03,-2.186305737861199590e-03,2.274411618709564209e-01
2.408752046975824457e-01,3.005459058553536233e-02,2.400190726169249000e-01,-2.485472581193705864e-03,-2.225363454831484275e-03,-1.552234781813074341e-03,2.104903608560562134e-01
2.237596600918911882e-01,-8.179701616746748449e-04,2.217357034654103554e-01,-1.384329737670306464e-03,1.307310998652174306e-03,-2.314457107846563944e-03,2.236327826976776123e-01
2.234671968432106193e-01,-3.126488689533801768e-03,2.066611076880275899e-01,4.509276021452342936e-03,4.156123335007668156e-04,-3.576152397183041207e-03,2.189038097858428955e-01
1.857848414789093905e-01,-5.429103762035580871e-02,1.765337368888707514e-01,-3.328941953874035853e-02,4.486077631161924234e-02,3.087883533180793907e-02,2.602375447750091553e-01
2.244719347690712352e-01,-7.176735823396507286e-04,2.274599675450280356e-01,9.270316587593721742e-04,-1.434620855207496132e-03,-2.754764667135771038e-04,2.267182022333145142e-01
2.098782088683762981e-01,-3.900648877287499205e-03,2.213930222863396413e-01,-2.885352898496660202e-03,-9.080496019107228353e-04,-3.946754057499997186e-03,2.199313342571258545e-01
2.239755825927761124e-01,-4.494188057130699132e-03,2.220651278484354618e-01,1.023390884583185887e-03,-5.733891610284038223e-04,-1.196079095710561504e-03,2.275390625000000000e-01
1.848924844317946792e-01,8.809647419499411214e-03,2.210804626834136088e-01,1.801122640014042684e-03,3.709230340578544959e-03,-6.571604961973100990e-03,1.971481293439865112e-01
1.953826139998621203e-01,3.019295234112111259e-02,2.287868767488592248e-01,5.335577302098848743e-03,2.094936624263746619e-02,-6.300062118708345607e-03,1.882620900869369507e-01
2.265768108310425577e-01,1.819773849215194916e-03,2.299992710916619609e-01,1.074348207892317003e-03,-2.985986401932361461e-03,-1.011568405380364492e-03,2.265611141920089722e-01
2.253828029409282729e-01,-1.265940323323194727e-03,2.301607359587433121e-01,9.452089845457345516e-04,-1.459386426418316255e-03,-5.521371536445850809e-04,2.290968745946884155e-01
2.378317872597136562e-01,2.945808288617268733e-02,2.314140661997643733e-01,3.004420369391943516e-03,7.363447865618147001e-04,-2.069951352115558928e-04,2.053103446960449219e-01
2.182568184570618519e-01,-5.876729930678281644e-03,2.191161939560354599e-01,8.029351313728817123e-04,1.591593257243998434e-04,-7.812618987713741648e-04,2.245730161666870117e-01
2.148883923223088299e-01,-7.039315856649769332e-03,2.148980500630793822e-01,2.631295147503204604e-03,1.049732130422424432e-03,-2.262348774931488733e-03,2.220213562250137329e-01
1.955110373437063676e-01,1.136656829759512266e-02,2.001648690982895662e-01,-4.546465980339249092e-04,4.002629783899322793e-03,9.154423578262863232e-04,1.866521388292312622e-01
1.979236501491257183e-01,1.693634954805413317e-02,2.033173572215902780e-01,7.451493777068487524e-05,4.089718572361067395e-03,1.817392771050269833e-04,1.838803440332412720e-01
2.089632340099396024e-01,1.643286276164426796e-02,2.056292542774419418e-01,-1.936362588121571257e-03,6.646707716969406550e-03,1.483021231170783853e-03,1.912787258625030518e-01
2.268031683094086093e-01,-2.971236762669970943e-04,2.102685525748770323e-01,4.179383790723470264e-03,1.538917736120276386e-03,-3.934239161449849982e-03,2.195423841476440430e-01
2.036646112271055520e-01,-1.083843616518961883e-02,1.965631778732868096e-01,6.366209202336954760e-03,5.309236462475747098e-03,-7.442577683539746206e-03,2.119222432374954224e-01
2.233485957831033986e-01,-4.788079579264303831e-03,2.236148117204989627e-01,-7.675632938045221301e-04,2.149836285845310117e-03,-8.605683487236640179e-04,2.283090054988861084e-01
2.222814634287229030e-01,1.452354218473284053e-04,2.283455184685533879e-01,-1.291657258397479937e-04,3.231339536307197609e-03,-8.934237131664187837e-04,2.253044396638870239e-01
2.154980968656266538e-01,2.835034643285676281e-02,2.046312886046873225e-01,-1.270284860785689468e-03,1.420584895906810627e-02,1.946900406588608808e-03,1.836581081151962280e-01
2.235892436911187109e-01,-4.335665628262541649e-03,2.229202623890480517e-01,2.654357032607348120e-04,-2.148915249663183730e-03,-9.952862791030398990e-04,2.276285737752914429e-01
2.203536482137963270e-01,-4.690948326079330544e-03,2.076001076735408124e-01,-3.275073111910361927e-03,-3.627667108295323502e-05,-3.038848882790979884e-03,2.190833091735839844e-01
2.200394251027384396e-01,-2.571390269403089901e-03,2.208711644619974213e-01,-7.273883251560614004e-04,9.023876569438414401e-05,-1.451225769555361924e-03,2.230456322431564331e-01
1.731800575692375999e-01,-1.139710662680998299e-02,2.223911560379250862e-01,-2.014002502346289025e-02,1.660776817860198928e-02,1.086304085111213999e-02,2.190252095460891724e-01
1.952794697819218162e-01,1.805290064143678930e-02,2.089357202793443169e-01,-6.594357213119196896e-04,1.271798045410887749e-02,3.860164964727817618e-04,1.857498139142990112e-01
2.260791265303446207e-01,1.087840170111237237e-03,2.187433028023184067e-01,-1.423940126077228143e-03,3.001609207148267424e-03,-1.204439131711847015e-03,2.214991152286529541e-01
2.267955829532093681e-01,3.867399084035910706e-03,2.323788750506085576e-01,-3.902985368874107457e-04,1.904494256451846586e-03,-7.074366317193914048e-04,2.258000522851943970e-01
2.256327193155406863e-01,-2.054065327968090937e-03,2.282133601098468578e-01,-1.127070790371082583e-03,3.047279160591758601e-03,-1.137155161657589161e-03,2.290656119585037231e-01
2.235751804621835814e-01,-3.644358362545702112e-03,2.245317130823579199e-01,-7.476646760922932506e-04,1.769697380461321716e-03,-7.783960688175899654e-04,2.277276217937469482e-01
2.155025121721202419e-01,1.771967136587251912e-02,1.991074314106141274e-01,-3.712500984467164561e-03,1.128089354929906300e-02,2.118424013185346740e-03,1.912610083818435669e-01
1.901155048738890074e-01,-7.608502945106870863e-04,1.677313576261231232e-01,3.544503833709988696e-04,8.784776271508240586e-03,-6.634360467741790349e-04,1.813710033893585205e-01
3.008713081262367472e-01,1.009546685835656099e-01,3.348125038041060986e-01,3.381547135144556682e-02,6.386302216044525970e-02,-1.736532248742749668e-02,2.539185881614685059e-01
2.219761234408395567e-01,-2.961362546082701996e-03,2.227528530440713306e-01,-2.486824301428146116e-04,7.861025123589782723e-04,-6.018283101359673615e-04,2.253337949514389038e-01
2.240397189208747086e-01,2.348978718056948800e-04,2.243511980770595549e-01,-3.964767144648293027e-04,1.831929830010450280e-04,-6.327314390973424541e-04,2.239646762609481812e-01
3.451186914027661867e-01,3.559045745555267093e-02,1.544708311314874349e-01,-2.540003043180081785e-02,-1.048340414078052438e-02,-3.419749238874767588e-02,2.809217572212219238e-01
4.636537331038752541e-01,1.711045606018112564e-01,4.693804718282620358e-01,-1.705833620893901573e-02,1.649252941439224851e-02,2.349713092633006276e-02,3.010622560977935791e-01
2.046474908395741199e-01,1.747389134233444385e-02,2.035669895292351594e-01,-2.988127066595608079e-04,6.258660322074544209e-03,-1.238474215344671390e-03,1.869632750749588013e-01
2.088517805424514595e-01,2.396413375379936872e-02,2.090379117437722312e-01,-6.257270373893517815e-04,5.839824964631309262e-03,1.978244460227355996e-04,1.852606087923049927e-01
2.216491667910824859e-01,-1.023696847962746181e-03,2.193901710712159170e-01,3.336841993108779787e-03,-6.801627833844342509e-04,-8.847475661388513662e-04,2.216358035802841187e-01
2.233177042714668548e-01,-2.626556955277442595e-03,2.231727699399154718e-01,1.000976897749577795e-03,-6.256456556528860189e-04,-5.125842479488669067e-04,2.258828282356262207e-01
2.127861943574267667e-01,1.188900222196678791e-02,1.918765131072184826e-01,4.995962496669852440e-03,1.000434693754444042e-02,-3.790264319510313826e-03,1.923913657665252686e-01
2.185183884779713925e-01,5.561554270049090531e-03,2.114783694531184866e-01,4.691864222837896156e-03,-2.926785576988751372e-04,-5.840423306721067784e-04,2.096861302852630615e-01
1.957152013404976354e-01,1.834697289414985444e-02,2.089082188692117370e-01,3.866996335605698437e-04,1.798827554082834757e-03,8.086515859682645449e-04,1.843520700931549072e-01
2.791736822400559537e-01,3.535901108518621494e-02,2.295897110196905566e-01,9.445811222215174134e-04,1.161181274483284905e-02,-3.000369705506568743e-02,2.300493568181991577e-01
2.161732703561112245e-01,-4.131900835650320625e-03,2.163533268068749682e-01,1.703278029951694897e-03,7.770528431397097152e-04,-4.273777626540929686e-03,2.205433696508407593e-01
2.211361760242387398e-01,1.971410624537484058e-03,2.216358597291713250e-01,8.662677683878803334e-04,1.278665762564566136e-04,1.071692822587264727e-05,2.194202840328216553e-01
1.671682036319465936e-01,1.117957800264952894e-02,2.212032829901646735e-01,7.466194585053756959e-03,1.547470944184027586e-02,-6.562670185232513838e-03,1.915618330240249634e-01
2.011943637699326881e-01,1.536778562568545670e-02,2.028459103527258944e-01,1.600696578282108102e-04,1.800489951700431305e-03,-8.479400677490119562e-04,1.866898685693740845e-01
2.011747489012897239e-01,1.525153264458095625e-02,2.090290737893245043e-01,-1.666516581396743513e-03,2.855305158955657053e-03,3.683478617522379164e-03,1.901655346155166626e-01
2.003234435996146257e-01,1.235370561713525217e-02,2.001698326296987851e-01,4.009267973890418024e-04,4.164149034878380259e-04,-4.494899209495111696e-05,1.878956705331802368e-01
2.100028755052806562e-01,1.214470561333261256e-02,1.912705740981944791e-01,-3.741311865755978829e-03,2.400952295054380702e-03,2.354193274611860679e-03,1.893893629312515259e-01
1.880995134614963926e-01,1.085651362253614582e-02,2.054107687448646358e-01,6.351803781836782214e-04,2.742824260152285608e-03,-1.575838488377407287e-03,1.865858733654022217e-01
1.807949356749717351e-01,1.123369559189631162e-02,2.020439432824667758e-01,5.269188942734768025e-04,5.898128523441154014e-03,1.565339840947848043e-03,1.814334243535995483e-01
2.085894884820766737e-01,2.984734250284504231e-03,2.157972095171479809e-01,9.508165845558010608e-04,5.327302299216848036e-04,-6.004830173779229785e-03,2.095684707164764404e-01
2.273081006887774369e-01,5.200829083489760807e-03,2.316194919151032261e-01,7.720655485692100783e-04,-1.616284838265551974e-03,-4.606575814847457752e-04,2.243169248104095459e-01
2.605706441547576135e-01,1.934680054153878337e-02,1.522648036000090466e-01,4.830672890956927423e-03,3.080128790962659985e-02,-2.157234132318670491e-02,2.193294465541839600e-01
2.042658066040669851e-01,1.833033883624568539e-02,2.075560267902615830e-01,4.518213359986966216e-04,2.293897981851074819e-04,1.505770971112378905e-03,1.876223981380462646e-01
1.798397510419383338e-01,1.348193946260289877e-03,1.976556646742807510e-01,-9.949384041716012508e-04,5.812334651567531429e-03,3.385812092208535275e-03,1.884020864963531494e-01
1.358003890282837300e-01,-3.677193492972730127e-02,1.482915333876358432e-01,2.127064310558662158e-02,9.943381818308545672e-02,-1.344902740559775385e-02,2.522975802421569824e-01
2.463200798653936707e-01,5.002901190700409506e-02,2.538743848721509710e-01,1.549103887221289257e-02,-5.317471831543071209e-02,1.767172250865226696e-02,2.240748405456542969e-01
1.970423272259008152e-01,5.396179595915595595e-03,1.977638192458866517e-01,3.558930521037716524e-03,3.344485005745621766e-03,-1.901528735651015350e-03,1.922223716974258423e-01
1.796085483514347492e-01,8.679725109082381262e-03,2.057628344586735492e-01,-8.047576498696914354e-03,2.669475204582638997e-02,8.394424003839922460e-03,1.921321153640747070e-01
3.343937657290264598e-01,4.543376124296480412e-02,1.845742037582309703e-01,-1.743383570910904401e-02,1.341792807684621730e-03,4.336851027137137576e-02,2.630810141563415527e-01
2.030839488041895069e-01,1.395443776084134835e-02,2.049511336064082645e-01,-1.616373323230304009e-03,-2.262662033106228453e-04,2.687060747166445046e-04,1.900915801525115967e-01
2.152764511463659824e-01,-2.256879672108025314e-03,1.890384309060197388e-01,8.128979534764112919e-03,-5.469173016723934654e-03,8.677109019620505431e-03,2.069188058376312256e-01
2.405476845045030065e-01,9.488205577414338121e-03,2.279474790878776580e-01,2.736122026172817397e-04,2.403258657554373928e-03,2.514101585162015987e-03,2.251052260398864746e-01
1.972181482483817139e-01,1.007917707269623264e-02,2.013647574424847486e-01,-7.100459999754948470e-04,3.491077012455576917e-03,2.254448617392671751e-03,1.893871873617172241e-01
2.252052629530892358e-01,-1.249137999892346862e-03,2.277470892963958660e-01,-5.679589056522584001e-04,-1.596369362792844637e-03,-1.287306684091893718e-05,2.277548611164093018e-01
2.192754335194384563e-01,-7.887832556189494637e-03,1.722244774102775489e-01,1.115395309450163165e-02,-1.404809811285571454e-02,2.213447076448379555e-02,2.134567350149154663e-01
2.332377641522066503e-01,2.173880541215442164e-02,1.855918982256539174e-01,2.663705331899531015e-03,9.903311798831436474e-03,-3.847892222223351592e-03,1.930927783250808716e-01
2.254144445033804955e-01,3.337568054123468686e-03,1.908124411228236950e-01,6.684234330241126815e-03,-2.123272226350872774e-03,8.027443503521893009e-03,2.077787667512893677e-01
2.285258431985480732e-01,2.483320838164077005e-03,2.239578271271577825e-01,1.355710025544661643e-03,1.921228455779601103e-04,3.033054073036788728e-03,2.238676995038986206e-01
2.226747582001295522e-01,-4.730089422405936439e-03,2.234568191140986759e-01,-6.314552786331051456e-04,-1.521899678304830441e-03,8.717482767360748000e-04,2.278197705745697021e-01
2.195304908892354578e-01,-6.455125322023386181e-03,2.183869385464072277e-01,-2.212616507796973022e-03,-3.145948763727930914e-04,1.428194245741152722e-03,2.254628241062164307e-01
2.256916910709749202e-01,5.537274860655111430e-03,2.296954684799117907e-01,-5.008936918516207829e-03,-5.768740615659731378e-04,3.330631275733539863e-03,2.224297523498535156e-01
2.263916673106269317e-01,-2.499319794485033164e-04,1.815417035431237669e-01,7.956696739592256443e-03,-4.070207982681772925e-03,8.909989519534755598e-03,2.090235799551010132e-01
2.064764749931947696e-01,-1.789380235890924986e-04,2.291668858803320163e-01,9.339494369659641707e-03,-4.339924916065569967e-03,7.608945219137232437e-03,2.200051844120025635e-01
2.243508126522190116e-01,-1.723140948489493285e-03,2.262106837355623845e-01,1.912817870086568582e-03,2.916443119844495881e-05,2.237690538164151775e-03,2.270668596029281616e-01
2.063106389656706452e-01,4.148980408388847074e-04,2.095831003686045579e-01,-2.748820706434481568e-03,7.410911818765826250e-04,5.052957961115451830e-04,2.076117396354675293e-01
2.185601620517031995e-01,-4.467741126231355997e-03,2.182944968486486004e-01,-6.540379261626384430e-04,7.167079649500745098e-05,7.641461426443985159e-04,2.229020297527313232e-01
2.223179966850982459e-01,-2.976336684120728382e-03,2.232656531010629442e-01,1.539535206155652307e-03,3.839574788325516089e-04,2.437566946696637701e-03,2.258258461952209473e-01
2.216234280983733484e-01,9.366828458289122583e-03,2.151299622227878516e-01,-3.081690276744228005e-03,1.176148434293002292e-03,1.446118630309327661e-03,2.091785371303558350e-01
2.355624949395729306e-01,9.898747237939514720e-03,1.846886515065671308e-01,3.038542960053726427e-02,-5.424173505711268189e-02,2.644457493272030571e-02,2.360638827085494995e-01
2.203800168111543778e-01,-4.452944060873681442e-03,2.210237447424024670e-01,-5.502106826432377057e-04,-2.662691438707771841e-04,2.575840851138298760e-04,2.251584529876708984e-01
2.298741912227652007e-01,1.679621974511649740e-02,1.811289646853234958e-01,5.966418831361649036e-03,-2.225724630075990793e-02,1.389638653886846043e-02,1.989071667194366455e-01
2.181173703081480397e-01,-3.267549900279942410e-03,2.181141237048579984e-01,-1.384158299044375550e-03,-5.965213147235039209e-05,1.921366233961539684e-03,2.214213162660598755e-01
2.272737983417008611e-01,-7.834622185482753576e-04,2.272723101612488250e-01,-4.422941812078347930e-04,-3.262823868486433576e-03,4.586579345260885770e-04,2.281291931867599487e-01
2.124245405630945660e-01,-4.372971657520569044e-03,2.157813677421683840e-01,-2.260206549783326784e-03,1.090808083155619647e-04,1.003114938149036800e-03,2.185373157262802124e-01
2.121455212073215801e-01,-7.333169487674096043e-04,2.043683710598292458e-01,-5.153001776851872696e-03,2.832738172725170981e-03,1.093046121969793501e-03,2.093552201986312866e-01
2.218540981068438944e-01,2.348494590113908709e-03,2.305316887691509220e-01,8.591529472523716645e-04,1.262027416115886957e-03,-8.899935623340772539e-04,2.239914238452911377e-01
2.240149357709700084e-01,1.055562323762582189e-03,2.218222605891632115e-01,3.670295092343921206e-03,-5.584706094310352975e-04,-1.319301009834777027e-03,2.219760864973068237e-01
2.117015620728954772e-01,6.174803438691062185e-03,2.048145077582681495e-01,-6.529437661546556165e-03,7.138713256516179481e-03,5.054703314967081730e-03,2.030532956123352051e-01
2.027205438087757994e-01,1.912955663814414065e-03,2.046482074095707926e-01,-3.658957444061142466e-03,2.651162776609869171e-03,1.540012073072219824e-03,2.019476592540740967e-01
2.260855796358851588e-01,6.158208571424905742e-03,2.250125151651173327e-01,-5.404389348587855524e-03,-1.457054227881217476e-04,4.879615493995673701e-03,2.197551429271697998e-01
1.981757529249672245e-01,-9.011022119614908732e-04,1.937584610243524019e-01,-6.618021662673488105e-03,9.368483925058108605e-03,7.111364521511018624e-03,1.982880234718322754e-01
1.783479452366392159e-01,-4.410930019649733635e-02,2.293994672925166456e-01,3.705801332542017074e-02,-1.423576818445113079e-02,1.150674383537204915e-02,2.618689239025115967e-01
2.147564328519766530e-01,-9.100584150958934693e-05,2.139440450505989688e-01,-4.809065683953814112e-03,2.647667733226202660e-03,5.305458597479963817e-03,2.148497104644775391e-01
2.230763077372794334e-01,-2.032571958683587754e-03,2.237538250262451900e-01,8.140393848677503165e-04,-3.292856343627989599e-04,-4.212023380016788072e-04,2.254547178745269775e-01
1.481994373026400968e-01,-4.067613071635547972e-02,1.376827073456714512e-01,-7.352313900332580268e-03,-1.048704849082993107e-01,2.621566398241513898e-02,2.627082765102386475e-01
2.244566353255279256e-01,-1.320952963284910409e-03,2.297258372650640423e-01,-3.907460789824597079e-04,2.010046582592249216e-04,-1.514182145913453640e-05,2.284590303897857666e-01
2.229121948904503048e-01,-3.777698770017351437e-03,2.222637197745196969e-01,2.156647552570617118e-03,-6.650559618158249095e-04,-1.799906366341872841e-03,2.264215648174285889e-01
3.085741392989082010e-01,1.225244915366224818e-02,1.100061365154371140e-01,8.956247160985388728e-03,7.186808787752088645e-02,-1.732377875653562382e-02,2.916021943092346191e-01
2.257875973891574906e-01,2.292232720540826607e-03,2.320115814503125318e-01,-4.437425934793803937e-04,1.664177198264683291e-03,-1.202768743634857794e-03,2.267006486654281616e-01
2.372482332617960044e-01,9.058520094405358991e-03,2.312765978724720395e-01,2.778506507052083078e-03,9.036383529890776485e-04,-1.055854226249594964e-03,2.253275215625762939e-01
2.182300903818632509e-01,3.423287769252492119e-05,2.136741890361326668e-01,-3.330446903423317419e-03,3.995839709864447442e-04,1.307711579830654440e-03,2.160439640283584595e-01
1.829516637754076136e-01,-1.695068571584551487e-03,1.987190332491557687e-01,8.470955070808557433e-03,-1.640618500172750724e-02,9.353832051869169842e-03,1.963152140378952026e-01
1.957701223993182360e-01,7.478582245342368928e-03,2.087110345089651098e-01,1.673114488987102180e-03,-3.623554939072212971e-03,4.915774921984535951e-03,1.953922212123870850e-01
2.063823174396729465e-01,4.489655484136934049e-03,2.112897310479073809e-01,2.250358897397288904e-03,-1.374893231786403084e-03,3.638453007921759429e-03,2.045387029647827148e-01
2.293416118491563571e-01,8.015815513116475444e-03,2.249990456993224419e-01,3.812140079398188431e-03,-1.059120611954708624e-04,4.541596985621696413e-03,2.194273322820663452e-01
1.874971082882807005e-01,1.475703955024157410e-02,2.242171704793256004e-01,9.251164464794384493e-03,-7.811480496775806241e-03,7.138588476860769153e-03,1.952516585588455200e-01
2.034048900206384403e-01,1.364627919163949321e-02,2.027971479229013774e-01,1.727297688452499253e-03,4.688746892884572415e-03,-2.958775508172856953e-03,1.897222697734832764e-01
1.937995044020973112e-01,8.907997776034237702e-03,2.069503047445971355e-01,-4.151955697631997885e-03,1.185353193037959676e-02,5.256258871884429869e-03,1.932495832443237305e-01
2.276337659756791920e-01,8.202346492801743105e-03,1.709112333914163673e-01,1.726209840383626654e-02,4.065490083270539151e-02,-4.126398178226750590e-02,2.233415246009826660e-01
2.255219241215624115e-01,3.747348587385679330e-04,2.246994184714398435e-01,4.325431972871673653e-04,-4.603400021285714082e-04,-1.207895535059065693e-03,2.247494608163833618e-01
2.182335054516587325e-01,6.521914556122804241e-03,2.119058176973540597e-01,5.756089662576509974e-03,-4.025910572296009793e-03,6.679771315306741800e-03,2.092942297458648682e-01
1.917033308653569301e-01,-5.677336366135432577e-03,2.022550928494057099e-01,2.547345953313968469e-03,-4.087409275625822694e-03,4.479981266723834926e-03,2.031821310520172119e-01
2.201118167829674288e-01,1.340005985076625494e-02,1.961285259171566542e-01,5.056134260269224898e-03,3.199145756569121615e-03,-1.520008150204844432e-03,1.961164176464080811e-01
2.025923399813047698e-01,5.819598805205772329e-03,1.995799166830700688e-01,3.241604589686255481e-03,-4.098668735734949282e-03,1.266392002185111982e-03,1.955059021711349487e-01
2.190205189730684565e-01,1.410273837504166794e-03,2.193790979123650398e-01,2.531299615110560886e-03,-3.220495774636500646e-04,2.730679723129998768e-03,2.178859412670135498e-01
2.008578811136212394e-01,1.440724107179838787e-02,2.106072904096137899e-01,3.320650554121325725e-03,-1.163206078682828097e-02,3.671755657031260198e-03,1.927592158317565918e-01
2.144486138956157584e-01,9.801090541149998225e-03,2.156164556411014344e-01,2.891712545832714372e-03,-8.014155229912547787e-04,3.638063759018105286e-03,2.053964138031005859e-01
2.152343142968564105e-01,1.240527673119040664e-02,2.015858032556770985e-01,-3.767903395711258863e-03,2.645955106692529993e-03,6.055953446202741626e-04,1.965255290269851685e-01
2.095646183872900692e-01,1.286834540354241108e-02,1.870951279370519083e-01,-1.605262940550725289e-03,5.404372160133722423e-03,8.482511579225457616e-04,1.867408603429794312e-01
2.194575348907343293e-01,1.496837752047244785e-02,2.246555275166397247e-01,5.442112548077492930e-03,-3.418149456730389286e-03,6.130377017985486586e-03,2.077075242996215820e-01
2.136056681878667762e-01,8.753055907713885864e-03,2.140698407037314732e-01,4.240747528340797767e-03,-5.328652171317513689e-03,4.279409180835798236e-03,2.055577039718627930e-01
2.096218734916465154e-01,-2.884959882860610447e-03,1.953858706329775208e-01,6.036884238694735158e-03,-2.152731784058210460e-03,4.864600721386908716e-03,2.062299698591232300e-01
2.222697491010111603e-01,2.610804803475558211e-03,2.326926447265645348e-01,-1.369899135371250014e-04,-4.507925102811210041e-04,2.144155720283525985e-03,2.250836044549942017e-01
2.413533461454613338e-01,2.282747810884105943e-02,1.541350214843152100e-01,9.739414789286057359e-04,1.059893405508541275e-02,1.935387263483637958e-04,1.914186477661132812e-01
2.198436377465717573e-01,1.378978584861129120e-02,1.884902111873407726e-01,-1.220885324805452352e-02,2.019813619545852632e-02,1.222430823488209611e-02,1.977374404668807983e-01
2.299325415099492953e-01,2.305271712793964534e-02,1.794111285288850777e-01,-6.674715011614280186e-03,1.205254179671095063e-02,2.665972533497177385e-03,1.883894503116607666e-01
2.093468686308356808e-01,-6.223075718781750920e-03,2.143783183360395417e-01,-2.109320142514144181e-03,9.793847287153407011e-04,4.165433796181718280e-03,2.182856500148773193e-01
2.309679747222211366e-01,-2.227170680101586697e-03,2.194239308973866542e-01,1.112350068999517485e-03,3.711818762830456872e-04,6.185924093708700501e-04,2.276543378829956055e-01
2.315771268622640044e-01,1.241120165952955268e-02,1.515819628127488827e-01,-2.177610949558232787e-03,9.591393329703235340e-03,-3.623354483248123799e-05,1.928495019674301147e-01
2.241107888731533881e-01,-2.745898923049716611e-03,2.292077790922869007e-01,-7.370143266975121704e-04,-1.144005903110799274e-03,5.207660399003239109e-04,2.294615209102630615e-01
2.367022778287661278e-01,7.459038970662329460e-03,1.545490029599825843e-01,-2.536979880857200085e-03,1.633105921159404110e-03,1.066911665249041172e-02,2.020825147628784180e-01
2.233184130659911781e-01,2.960163897162998436e-03,2.218410409957943252e-01,-2.156789095046897104e-03,-4.985095401187004775e-04,5.891862846182827247e-04,2.196591198444366455e-01
2.460531317806549101e-01,3.206634074589118089e-02,1.821750442210595122e-01,2.527716647002272669e-03,2.082914688305791823e-02,-9.391248481108289969e-03,1.943887919187545776e-01
1.994646561081475089e-01,1.588070533841781651e-02,2.041168659401570995e-01,6.127929126768768935e-03,1.278152175378550852e-02,-7.177577625074207761e-03,1.879789680242538452e-01
2.283278919956208131e-01,2.746058294973673097e-02,1.838873282345691584e-01,-1.251342033469155304e-03,2.116575765720894731e-02,3.710524062890782192e-03,1.865099221467971802e-01
2.268352906682992998e-01,1.185101375318178829e-02,2.129866062296912055e-01,1.244315778227006453e-02,-1.449444440223621525e-02,2.465679059847753624e-02,2.152937799692153931e-01
2.170748961442616198e-01,-2.906548796888563935e-03,2.177942230307796379e-01,-3.578077702994042139e-03,5.213617923895408617e-05,8.500004272066527099e-04,2.204340547323226929e-01
1.046353730755705119e-01,1.749317322816140718e-02,3.058556945969407859e-01,-1.626059166173746129e-02,-2.826800213320106517e-02,-1.897599487416314372e-03,2.623345553874969482e-01
2.216595641328796273e-01,-5.717808692006692839e-03,2.215346317935912857e-01,-7.886774008348682247e-04,-1.505457517418144113e-03,8.300217280435594810e-04,2.273385375738143921e-01
2.180522969221800333e-01,-2.154848000129827579e-03,2.142774082875799069e-01,-7.026612397718699343e-04,-1.548819949241185111e-03,6.481119701890976142e-04,2.183669358491897583e-01
2.240172700992471011e-01,-3.138327080287689475e-03,2.266515569013326792e-01,-8.883966209716891724e-04,-8.506531177705139784e-04,7.007233096728097401e-04,2.284972816705703735e-01
2.265666760295398374e-01,7.592841082513041018e-03,2.052070269830282845e-01,-3.982608039224969955e-03,1.245749024836405436e-04,2.070671151538511830e-03,2.092583626508712769e-01
1.745580312427239683e-02,-4.273568531673559157e-02,2.238848717010177014e-01,9.350567664055191644e-03,1.380591144445905867e-02,-2.989376277558742885e-04,2.439172565937042236e-01
1.771842083236604415e-01,2.147119412659533044e-02,2.330435809600733266e-01,4.272434978295510007e-03,-5.325632770046825198e-03,1.874980898592188555e-03,1.903030127286911011e-01
2.226313109667747980e-01,1.405988225306387118e-02,2.310690312890680831e-01,-1.786359930495779391e-04,-2.710506367281435413e-03,-9.348218498019055618e-04,2.129738479852676392e-01
2.311421677088102977e-01,2.335804675928876417e-02,2.411607997130283954e-01,-1.164953316270223591e-03,9.443455009560772651e-04,-5.483243142977051480e-04,2.129881978034973145e-01
2.199785585144495570e-01,5.147051997851731509e-03,2.090814752983281566e-01,5.042129191019634367e-03,7.506151866822861072e-04,-1.361398884189775425e-03,2.097946703433990479e-01
1.689902005524452633e-01,9.820552219839698282e-03,2.147825887413562507e-01,2.280095803694844828e-03,-1.155860661010087685e-02,-1.847276893051472038e-04,1.874491423368453979e-01
2.215708674520181221e-01,2.988148269034401894e-03,2.085554517718291589e-01,4.937002466053604793e-03,8.056471291006162038e-04,-1.411878868790547407e-03,2.125650793313980103e-01
1.796619060178125116e-01,5.463444608287543192e-03,2.083530995161575472e-01,-6.227688135115381877e-03,-2.944400408383582302e-02,-1.225550429017891255e-02,1.983281224966049194e-01
1.888345789363261584e-01,-4.334637966003473952e-03,2.165937251559403864e-01,7.159101408161237627e-03,7.201460556031175769e-03,-5.870793747492922612e-03,2.094274759292602539e-01
2.138706846848725251e-01,5.466156837292568405e-03,2.151226167380511090e-01,2.563862778124778238e-03,1.379407117775933783e-03,-2.211375004456918574e-03,2.091291993856430054e-01
2.250152007548831545e-01,-1.570872955249741354e-03,2.270762107015824038e-01,7.689393107546116640e-04,-1.062562211891380061e-03,-5.340435659303104229e-04,2.276367992162704468e-01
2.288161953423146211e-01,3.069771229505635635e-03,2.318371270193109734e-01,-4.565641997610060915e-04,-3.489477491579185396e-04,-2.476680232106751121e-03,2.273146063089370728e-01
1.636623252934696626e-01,1.216334702482595176e-02,2.165394241116919694e-01,-8.822948566700788346e-05,-1.042117085142757124e-02,3.025470982038810670e-03,1.846944540739059448e-01
1.650624533534676419e-01,-3.228390152407729918e-02,1.403101216374995908e-01,1.506430252472899453e-02,4.921256401605995229e-02,-1.641278297258622412e-02,2.083939760923385620e-01
1.621620983445293818e-01,1.475873436402014294e-02,2.336754658863218204e-01,2.260321488234394785e-03,-7.453264988572910407e-03,2.772476976827478561e-03,1.938769370317459106e-01
1.448782435372889532e-01,1.164695892346061246e-02,2.295642380176888542e-01,-6.086251585658847144e-04,-6.488988563368948935e-03,-1.615327808488204505e-03,1.906315237283706665e-01
2.957616641656863332e-01,1.012966011125288890e-01,3.469420732898547133e-01,-4.396736511550987381e-02,-7.493021182047218676e-02,-2.994228630635061700e-02,2.751754224300384521e-01
2.298273519661168107e-01,2.446202094747967903e-03,2.268003935742798349e-01,2.444296885938043729e-03,8.740534297817402140e-04,9.195757169884458864e-04,2.259332388639450073e-01
1.589959512500717376e-01,2.418344308319918257e-02,2.442292980219377130e-01,-9.566316320535549981e-04,-7.928911534424779028e-03,-2.955953832787650785e-03,1.927361339330673218e-01
1.505737726475581406e-01,1.650025053455712876e-02,2.356408046456580085e-01,1.096253695170850296e-03,3.354984777011432717e-03,-4.549444842729036655e-04,1.914558410644531250e-01
2.311127005937942958e-01,3.965652803494285061e-03,2.262090220229265869e-01,1.399375281623229522e-03,-7.569604991228683511e-04,-2.019383078115348853e-03,2.247794419527053833e-01
2.261330748516817701e-01,1.082590540257083456e-03,2.222176320700186003e-01,3.032216819085413548e-03,-7.939779298649075846e-04,-1.282331310729632832e-03,2.231956273317337036e-01
2.280719685443917399e-01,2.336121529699974886e-03,2.296399408903295469e-01,2.168704299849700222e-03,3.128550588154375587e-04,1.466401589887454627e-03,2.265699356794357300e-01
2.687491484138190279e-01,3.075038175493999271e-02,1.906447766476211114e-01,1.114185944627062858e-02,-3.865332717781830990e-02,1.995787080889551909e-02,2.240637689828872681e-01
2.264114125174672143e-01,7.900688799693939002e-03,1.834368325068989891e-01,3.385411761703573542e-03,3.829450329870729558e-03,-1.328027200538918007e-03,2.007162421941757202e-01
1.882253346291524743e-01,-7.156268548489719272e-03,2.289959479770304340e-01,1.668719608816846348e-02,-2.002829459825016412e-03,-2.392613236378988897e-03,2.206051647663116455e-01
2.011466380161504308e-01,1.699725430719657704e-02,1.838281882360948138e-01,3.841457547551792480e-03,2.757288920130526386e-02,-1.420130106519074294e-02,1.842602342367172241e-01
2.170020592285048788e-01,2.527182510184133868e-05,2.323992679540816952e-01,1.127817729005715051e-02,3.287715007640194115e-03,-4.851768247364078232e-03,2.261448055505752563e-01
2.228093182250311943e-01,-4.288180796723523036e-03,2.225121624922916652e-01,1.160874435465481490e-03,1.539212098526582164e-03,9.873562526015486167e-04,2.269800752401351929e-01
2.215671267951923595e-01,9.928739916859996573e-03,2.148649762830481535e-01,-3.097352923607204003e-03,-1.426390782197680361e-03,-1.949017218916677691e-03,2.084791958332061768e-01
2.314554419836728494e-01,1.752204216118019575e-03,2.257084038988769747e-01,2.882469437883451203e-03,1.182440066170704213e-03,1.414399506210225425e-03,2.269617021083831787e-01
2.238765909167175217e-01,1.409481789412300734e-02,1.642484528562566659e-01,-1.808201678547500255e-03,3.517272971823231370e-03,7.013934041929883491e-04,1.873590350151062012e-01
2.325636149420547694e-01,5.352084110082949708e-03,2.319830654920172486e-01,2.465675599476551804e-03,-4.670354117979970216e-06,1.454768736904350638e-03,2.269759774208068848e-01
2.244013546171217954e-01,-2.519452416931855510e-03,2.238607311153947566e-01,-2.758248005487699307e-03,-1.029216169693190821e-03,1.928232785478565863e-03,2.267329245805740356e-01
2.219140127066217549e-01,2.231887268186155682e-03,1.886167813326469211e-01,-9.486297003316915624e-03,1.913009597466865802e-02,1.447957810011453808e-02,2.098832130432128906e-01
2.161035267642223145e-01,5.558842029370639204e-03,1.676464810131765848e-01,-5.104599847042657831e-03,1.259233392317492609e-02,9.214245076675439683e-03,1.930889785289764404e-01
2.226913068542158702e-01,-4.039530538511443281e-03,2.221575763173572748e-01,-2.442032119797616502e-03,-1.570089195362458622e-03,2.146309300045229438e-03,2.265507727861404419e-01
2.271350083247988261e-01,-9.101111434010322743e-04,2.266143922076886974e-01,1.163351702952617043e-05,4.376149586069290939e-04,2.435221161144715193e-03,2.278255671262741089e-01
2.233245639357358536e-01,-8.443587950090758465e-04,2.294756153189161374e-01,-1.867042684762403645e-04,-1.560752839429330619e-04,1.210967865120914246e-04,2.273073643445968628e-01
6.475363856790125605e-02,-3.099715907415540039e-02,2.257861176299412465e-01,-1.850005281056869497e-02,-3.660407001152014145e-02,-6.857409426062584593e-03,2.360213249921798706e-01
2.228059268704835616e-01,6.049152598756352139e-03,2.081559899252027335e-01,-5.209635975105375572e-03,1.845540047058185154e-03,1.196367786638503298e-03,2.100442349910736084e-01
1.357292036255037249e-01,-1.895453858232198918e-04,2.507997710552164472e-01,-2.256052564815728620e-02,5.326330614314536520e-03,6.287106587320465470e-03,2.215536385774612427e-01
2.011123887925425069e-01,-1.841195641149595552e-02,1.182054375871582075e-01,1.416985882603250327e-02,7.567696436961063311e-02,-3.091471237914008782e-02,2.398227006196975708e-01
2.249585264410636776e-01,2.582939438689146883e-03,2.225817487562281038e-01,-3.181997753877411229e-03,-3.168612319669187509e-04,1.272057692048859890e-03,2.212770730257034302e-01
2.631735516775823847e-01,1.966753083045147399e-02,2.000049068335351954e-01,3.196201639714574792e-03,-1.350974113583126336e-02,2.173644072791992496e-02,2.233811020851135254e-01
1.140888263590095625e-01,-2.374956968931637991e-02,2.292041017236778333e-01,-3.133350589319929685e-02,-3.324167367372368731e-02,-1.336554264106420802e-02,2.343385666608810425e-01
1.258500354183820225e-01,-1.295708071091650204e-02,2.322008781379341080e-01,-3.947240377738713696e-02,3.592751926752215524e-02,7.236349064517948702e-03,2.324732989072799683e-01
1.692655986468580009e-01,1.037563910087913044e-03,2.503346632628791202e-01,-2.453911276333109112e-02,1.127296842894663642e-02,-4.707488062040558578e-03,2.253112941980361938e-01
1.722233870246439869e-01,-1.158854164015632460e-02,2.211651640044184908e-01,7.902029119460005774e-03,5.082355547337427323e-03,-4.744902152756316771e-03,2.133320569992065430e-01
2.232099864379055165e-01,-1.305728188576771309e-03,2.298263670040908702e-01,-2.836497500688504219e-04,9.028730579353312559e-05,4.511640459415275383e-04,2.278978675603866577e-01
9.862054857106009043e-02,-4.249263653341953106e-02,2.032723124645043344e-01,2.609371036682066672e-02,8.863703195389507211e-03,-3.136113053816755140e-03,2.189532220363616943e-01
1.309158765344291264e-01,-1.673585047083267496e-02,2.104071873460114650e-01,9.675836715951726882e-03,-1.441370767228119772e-03,-2.489710856495355555e-03,2.004061490297317505e-01
1.782905151772030128e-01,5.307741255043629813e-03,2.302790479069692642e-01,2.024786420000298202e-03,6.545625917669621943e-03,1.150360962763764868e-05,2.043521553277969360e-01
2.231628086983209469e-01,-3.301012747096765398e-03,2.262615214601920721e-01,-7.614934907165884798e-04,-1.117923514097952410e-03,9.124216998632943363e-04,2.280464768409729004e-01
2.145236101313070520e-01,1.321410640588413510e-02,2.362585785128428484e-01,2.081403810479353668e-03,1.241103384998696810e-02,-4.674967295164959673e-03,2.142756283283233643e-01
1.675639658007890276e-01,-1.877823875332443326e-02,2.147000026990371069e-01,9.423290990977826673e-03,2.540472038237843230e-03,-2.920450996086074082e-03,2.145693302154541016e-01
1.949577596704681615e-01,1.651934946335634202e-02,2.379841176489392307e-01,2.728334813496655249e-03,-2.808842095978431670e-04,-4.045153886275245150e-03,2.035700082778930664e-01
2.328803329529169908e-01,1.186730330092602981e-02,2.205789949381992132e-01,-6.750342303396361307e-03,1.089593182540365014e-03,7.140956811500738521e-03,2.158067822456359863e-01
3.404682104050869018e-01,2.715381372641600954e-02,1.517835387164153949e-01,1.353819623637649017e-02,-5.235542006348176819e-02,4.322689662474291789e-02,2.983772754669189453e-01
2.200517410687807818e-01,-2.679399804448867606e-03,2.211498507927730506e-01,-2.378861674693206595e-03,-1.460489577263954447e-04,1.736706536492625035e-03,2.233406305313110352e-01
2.056334967125625912e-01,-7.511732046770913662e-03,2.163475402032078165e-01,3.278929870012794751e-03,-8.723050743058376102e-04,4.774425994518365773e-03,2.189343422651290894e-01
2.233940012592929292e-01,-3.972610645343516156e-03,2.230551419612038788e-01,1.572712931039154391e-04,1.678346893375875061e-03,5.738891995806529554e-04,2.272183001041412354e-01
2.226145282535985370e-01,-5.120207025747475216e-03,2.240836304708206383e-01,-8.137073713613040063e-04,2.212610157813655210e-03,-6.534220686230319186e-04,2.285121232271194458e-01
2.049487425203747049e-01,-9.173457150953662209e-03,2.127219235159162614e-01,3.747852841816414187e-03,-1.371502287341360695e-03,3.784973661352086880e-03,2.183206528425216675e-01
2.236709584228992742e-01,3.562241077374406206e-03,2.262655885991223803e-01,-1.860282137928652869e-03,2.835497014365770049e-03,-2.026115680900188003e-03,2.215231359004974365e-01
2.192050035405864739e-01,-3.910193312301163404e-03,2.201054210846547232e-01,1.333879170251915268e-03,-5.687563235852470447e-04,2.393155847697698603e-03,2.236192971467971802e-01
2.237883208554048986e-01,-3.393468887764039543e-03,2.229226748289181437e-01,-4.202791562890891794e-05,1.605098809048686233e-03,6.465001347054802165e-04,2.267700284719467163e-01
2.247244553741475359e-01,1.112947735135927374e-03,2.036961100743906461e-01,3.228584729211644248e-03,1.791917542955796718e-03,-1.351067478671223818e-03,2.139824777841567993e-01
2.361256964051742790e-01,-1.152053416361176197e-02,1.292819521008933548e-01,1.467928469934060183e-02,3.422332608302204593e-02,-2.724196020843915045e-02,2.295023202896118164e-01
2.179313964863587860e-01,-5.164811417065318100e-03,2.182642747001874439e-01,2.366176060322844159e-03,4.854449991204926344e-04,2.308895497382298153e-03,2.233378291130065918e-01
2.567059676031095417e-01,-1.310458854877993851e-02,1.233922684710477419e-01,-1.794835919782012887e-02,-3.254281920288914359e-02,-3.690140826629159654e-02,2.506581544876098633e-01
2.304415696976187256e-01,5.139510992335727391e-03,2.191221468000389971e-01,-4.141433373795066868e-03,-2.426411480453527936e-03,-4.566725248128054339e-03,2.201602607965469360e-01
2.287932721443643458e-01,2.441728431149009504e-03,2.236646399512076111e-01,-2.505510901400652760e-03,9.005213655156272526e-04,-1.002275333784236316e-03,2.238855212926864624e-01
2.137352942645276976e-01,3.187707690225916046e-03,2.306449128311354180e-01,6.951686273832187284e-03,-1.453176477152507209e-03,4.504310604195120235e-03,2.199742645025253296e-01
1.452986500125024449e-01,9.238925171805911774e-03,2.757855049789716406e-01,-1.603879604606172097e-03,8.161691317503175225e-02,9.060702781219770853e-04,2.707161009311676025e-01
2.587726221111925073e-01,2.199945192727748022e-02,2.290162099498599391e-01,-1.073808913030220233e-02,-2.184018067818750686e-02,-2.483257574139683538e-02,2.313618957996368408e-01
2.164154608712992589e-01,-1.669753400905082952e-02,1.928630837334067982e-01,-1.520507132442177473e-02,-2.314342829064326701e-02,-2.704276406703004509e-02,2.321645766496658325e-01
1.946742960050431293e-01,1.254737862309894536e-02,2.027487945314614404e-01,6.507773001829553769e-04,4.019108567881434987e-03,-1.554925550208992487e-03,1.864483207464218140e-01
1.674952625083704905e-01,9.423783910950819798e-03,2.259343723825893990e-01,4.007285748410585428e-03,3.776347331080167399e-03,-6.375750431713343366e-03,1.945563852787017822e-01
2.401844463042241973e-01,3.057510238023802840e-02,2.396823874577759805e-01,6.985452847673815106e-04,3.484380428234470591e-04,-1.670347897132629664e-03,2.093831151723861694e-01
3.209646299275397130e-01,8.007988623631570602e-02,3.113515318666957299e-01,-7.829478223657090202e-03,1.074298039549119975e-02,-1.586172940010217164e-02,2.389291524887084961e-01
3.094495606815961253e-01,5.361455674938464533e-02,2.362334115297595183e-01,-5.899074555868244474e-03,-1.357072833484820537e-02,-2.458360319883212339e-02,2.335612326860427856e-01
2.124858124870517562e-01,6.317812815735873722e-03,2.051993767441684935e-01,-4.524003206143999839e-03,1.172055314666753997e-03,1.104940678968971976e-03,2.027937173843383789e-01
2.183594235576213349e-01,-5.129454112165726665e-03,2.080887693789901238e-01,-5.109379681029029875e-03,1.348462752587140752e-03,3.157357986452027660e-03,2.187945842742919922e-01
2.249936169014941367e-01,4.644792772401096226e-03,2.065698052099597670e-01,-5.036219845155704734e-03,1.139160865323799333e-03,9.701520632354349591e-04,2.119343876838684082e-01
2.137141301749620192e-01,-6.924589442284495577e-03,1.858254489501056650e-01,-6.114646199399217247e-03,4.491599771164713449e-03,6.180239295047748951e-03,2.087897956371307373e-01
2.140849348865611068e-01,-5.833405529992896632e-03,1.777775689594660868e-01,9.568103850676693695e-03,-3.395042314763737495e-02,1.621589754775453612e-02,2.149861603975296021e-01
2.335951996106154227e-01,2.366847831807480929e-02,1.892006269155100395e-01,-3.572761783039203609e-03,-2.368785406400765806e-02,-2.527583041810986010e-03,1.961155384778976440e-01
2.326805060736475417e-01,1.931718771422707981e-02,2.045429317782171963e-01,-2.153106562582191366e-02,3.969333604779914926e-02,2.225937362260743332e-02,2.188972085714340210e-01
2.347779656981983376e-01,1.778943927856674323e-02,1.971235245707628481e-01,-4.902918336139556327e-03,2.809682153149646588e-03,2.790580046669899686e-03,2.011229842901229858e-01
2.303565010652555978e-01,3.677016270613342463e-03,2.299385033940936074e-01,-4.253142682199967210e-03,-4.096678598150232768e-03,1.942530599143063759e-03,2.267265915870666504e-01
2.142697765607278204e-01,1.116418317811361527e-02,1.736801572774032132e-01,-1.701949507193072390e-03,-6.904433148955645312e-03,-5.062670850213860053e-04,1.865687370300292969e-01
2.380518022257798738e-01,2.505611172265140296e-02,2.011541554866571047e-01,-3.609300803801204164e-03,3.009170737209704554e-03,1.717510451352011538e-03,1.973440051078796387e-01
1.631326343431577230e-01,-6.700571050007625429e-03,2.034236326744102152e-01,-1.413103042832265961e-02,2.653383061677231508e-02,1.217956426666225861e-02,2.011607438325881958e-01
2.278852063375820802e-01,9.257541181713901945e-04,2.000876278599579006e-01,5.254804009444593617e-03,-8.384297948274738220e-04,9.913772767220028342e-04,2.146212309598922729e-01
2.264226473170902754e-01,-4.713879019386524316e-04,2.267684262247962601e-01,-6.502471119179629175e-04,-9.871123676974879677e-04,7.426462605475706242e-04,2.270800024271011353e-01
2.265950394562454284e-01,1.126196803297757620e-03,2.246031480042096073e-01,-2.536121511745428707e-03,-6.787816918638375340e-04,1.441049289012488440e-03,2.245394438505172729e-01
2.308132346865775231e-01,2.183112456839414461e-03,2.244677587633642502e-01,-9.223138889758475964e-04,-1.018718645264241399e-03,3.106284069081664389e-03,2.256010770797729492e-01
2.073565094256039631e-01,6.608983286685438108e-03,1.890586528436818126e-01,-5.699953629588894698e-03,3.540798798673509221e-03,2.337217676567764860e-03,1.926463097333908081e-01
2.214216544518560204e-01,-5.312850940761171259e-03,2.246488185201517829e-01,-3.496194562201488591e-04,-6.619098086793482249e-04,6.006179063916616085e-04,2.283712327480316162e-01
2.307405390581779292e-01,1.500824719544571750e-02,2.316460320270809503e-01,-7.802798485146634133e-04,-1.275375529899523165e-03,8.721103110518601013e-04,2.162072509527206421e-01
2.236406550276195948e-01,-3.537628227005207293e-03,2.252148652727525846e-01,-1.181158582218246348e-03,-2.705678816406937703e-03,9.153342253755967269e-04,2.280323207378387451e-01
2.133153615689591942e-01,-8.356879500124758664e-03,2.061234956442856703e-01,-7.943322133914436020e-03,8.133498336871654993e-03,1.057384680448131102e-02,2.198163717985153198e-01
2.307137662410515544e-01,5.145154582818917133e-03,2.262242042286553012e-01,-3.245341746874199750e-03,-7.785677251995396083e-04,5.820238544791513265e-03,2.236597687005996704e-01
2.285042159493643199e-01,1.150220973894416909e-03,2.128709926821814313e-01,-1.513355221290784173e-03,-3.575846347169992119e-05,-5.993698609801628892e-03,2.202149182558059692e-01
2.265204802309450371e-01,4.733736022333651094e-03,2.314151593719382949e-01,-9.534584548865555247e-04,-3.331289730245334552e-03,-1.398329201212187341e-03,2.243675142526626587e-01
2.311806719745048699e-01,1.856751177968324340e-03,2.224912063316730193e-01,-8.781664573931988313e-04,2.706340829838671850e-04,1.658402708667102983e-04,2.251108139753341675e-01
1.625509415758150944e-01,1.918063260824154348e-02,2.536928703785241712e-01,1.422202515086730401e-02,-2.744530615604858555e-03,-7.506838877925184643e-04,2.063008248805999756e-01
2.204080294123525463e-01,-5.201766472328395174e-03,2.207802153722156213e-01,1.634283259364673231e-03,2.300583455095582183e-04,-2.705550682472101110e-03,2.258628308773040771e-01
2.330328254612324956e-01,-6.207325410955699674e-04,1.635941598504065952e-01,-2.450475974570898163e-02,3.847390299607849479e-02,3.294659906457308995e-02,2.295424342155456543e-01
2.279947332004440552e-01,6.646121712286179317e-03,2.297302862404899670e-01,5.854414946756016092e-04,2.368450538935986793e-03,-9.646865185774040809e-04,2.222679257392883301e-01
2.344508188986682562e-01,8.163627405142342974e-03,2.244779056570212761e-01,-1.020965994606216030e-02,6.153402402718851846e-03,9.137535615786899351e-03,2.229919284582138062e-01
2.228241025638253991e-01,6.304127910368523269e-03,2.012667304510197264e-01,-8.356264553889025323e-03,9.256353576225244753e-03,7.995944085850812191e-03,2.081738412380218506e-01
2.248780587287512733e-01,-9.596424054114094382e-04,2.197422446678453656e-01,-1.921566311805501977e-03,5.892632993645415375e-04,9.417057875972712931e-05,2.233412861824035645e-01
2.218250763781665635e-01,3.391537352329360155e-03,2.088501443121262291e-01,-1.533410498914824713e-02,4.547086889397253251e-02,1.885648507422069478e-02,2.302657216787338257e-01
2.096053619477394880e-01,-3.746796047773781613e-03,2.239762248352568930e-01,-3.962413448052531408e-03,9.561424678086447081e-05,3.566616433453725053e-03,2.210814654827117920e-01
2.257787133576117933e-01,1.316765836640920728e-03,1.980016124503762298e-01,6.367327069636132897e-04,-4.449415875530787485e-04,-7.455042372968913615e-04,2.119511961936950684e-01
2.069810485764093932e-01,-7.644327581738469268e-03,2.197399619559248785e-01,-4.038866648657338243e-03,2.656276880744204284e-05,2.628605305426796272e-03,2.214382439851760864e-01
2.309265263401363566e-01,8.967756453138325812e-04,1.310465048925438247e-01,1.945764517212348959e-05,1.059587673471239569e-03,1.192522017905195885e-03,1.998048126697540283e-01
2.266740016720155404e-01,-2.023415536036743401e-03,2.246715648017469369e-01,-1.990898354730181053e-03,-1.866575756592032606e-03,8.687913548003108185e-04,2.277568280696868896e-01
2.134299236225464802e-01,8.852182651421292015e-03,1.958890056161499693e-01,-5.833726877940093036e-03,5.117883006149686817e-03,1.212829941803071415e-03,1.968663036823272705e-01
2.294911898759769697e-01,3.696481260628498022e-02,1.910126673308213952e-01,1.678378671061618067e-03,-5.398013329343569894e-02,-3.435853011794968645e-03,1.998106688261032104e-01
2.282125428628263841e-01,2.142433292574297266e-04,1.693467616160337086e-01,2.577807781894187627e-04,2.133932183189605689e-03,-2.206610307191204240e-03,2.050745636224746704e-01
2.247470876472853485e-01,-2.237587500619225844e-03,2.245350005076568733e-01,-2.019627044412238611e-04,-6.605251277450270358e-04,1.048493148217414421e-03,2.268891334533691406e-01
2.235506869993850454e-01,-2.141827957368364066e-03,2.266770791363301174e-01,-7.933975484639119212e-04,1.269969366004805372e-03,-1.131679187982962439e-04,2.272867262363433838e-01
2.220366457554758810e-01,2.386938905061336547e-03,2.258577767294946692e-01,-3.952922087322599878e-03,7.432989164847534150e-04,4.192806894848802139e-03,2.218133807182312012e-01
2.252684841310029773e-01,-2.399188774864779994e-04,1.971374582383206286e-01,-2.580999094791903981e-03,-1.004997718773072406e-03,2.025474244804667621e-03,2.129247188568115234e-01
3.773131088858038273e-01,9.913089786114409607e-02,2.755761428493761489e-01,2.251676207542847169e-02,-4.738920404480764792e-02,3.798713390840866705e-02,2.683684527873992920e-01
2.318828172883438399e-01,1.495772519511606724e-02,2.176025539241762674e-01,6.108816008004654650e-03,-1.195975583278854892e-02,5.435548490323632506e-03,2.116420865058898926e-01
2.226022316490317010e-01,7.715709470049181284e-04,2.270161619423277100e-01,-1.026545573283372615e-03,-4.806059968643099545e-04,1.910483745905066158e-03,2.241032719612121582e-01
1.595063198567830687e-01,1.060139964338144281e-02,2.471935760342074684e-01,-1.286021756323948474e-02,5.159947411796719785e-03,2.309150882804958740e-03,2.085924744606018066e-01
9.083446244060672248e-02,-1.511032658409747209e-02,2.677845040461479531e-01,-3.240033821902783134e-02,-3.391076060600380776e-02,2.409513877184420519e-02,2.638625502586364746e-01
1.492768573170539514e-01,1.919495190846320920e-02,2.615650329363100046e-01,-1.933692149948338518e-02,2.166827612069449280e-02,-3.176769012570208623e-03,2.160952687263488770e-01
1.624330311773421742e-01,9.231657275562327181e-03,2.109577434152759556e-01,1.690512024084277242e-04,-1.257466171950669641e-02,-3.134728051384788172e-03,1.837479025125503540e-01
2.154189535595603666e-01,-3.510144079393409666e-02,6.863935647707454513e-02,1.165443589277080985e-02,6.083857836832576305e-02,-2.230994335158768826e-02,2.460449337959289551e-01
5.900745645113132654e-02,-3.028262126939798571e-02,2.366858926653785944e-01,-3.395955928872006896e-02,-3.008582666716215319e-03,6.620199949522309092e-03,2.429519593715667725e-01
2.191661475614521959e-01,-1.432411795988602909e-03,2.073793852790502545e-01,6.724343594178510027e-03,-1.926745421544001288e-02,2.388452779502014262e-02,2.217279374599456787e-01
2.037004811566865969e-01,9.303301821745629807e-03,2.076695856699893594e-01,-1.154415799480106898e-03,-2.018559522068529531e-03,-2.173669117785275492e-03,1.964891701936721802e-01
9.337439931270327675e-02,-1.028800110198961615e-02,2.573821362735057017e-01,-2.525521122591308995e-02,3.242021280944686751e-02,2.119978775898467838e-02,2.471049278974533081e-01
2.262774042654613349e-01,-2.512024692095257694e-02,1.404356449755789216e-01,-1.081393755009126163e-02,2.526210582394164059e-02,4.155069848955460221e-02,2.375582009553909302e-01
2.134248120179909614e-01,4.053997419586424789e-03,1.767681407581629949e-01,-2.270819630038528256e-02,4.711795954533434111e-02,4.145294922118744618e-02,2.255379110574722290e-01
2.469412192342989032e-01,1.926921598281655656e-02,1.757184691731631943e-01,6.614291579844478429e-04,-3.941070075552194569e-04,3.208066702114632796e-03,2.018029987812042236e-01
2.172640938415658640e-01,2.863208921439459875e-02,2.076099238056286489e-01,2.753877449201430887e-03,1.296204256558486541e-02,-2.826992188029581882e-03,1.854856312274932861e-01
2.047088160503921506e-01,1.654562896679054318e-02,2.062235502114085350e-01,3.002026294264284901e-03,5.689058096041117209e-03,-2.947407099863967334e-03,1.893221884965896606e-01
2.272367287802770086e-01,1.059925263132394102e-03,2.303190356801716465e-01,-2.504261036845849969e-04,-2.277531400730920680e-04,2.126045832330688277e-04,2.277346551418304443e-01
2.237385179558220583e-01,-1.709315063854965899e-03,2.258825899629667289e-01,6.593514959166202382e-04,1.414348571342355322e-03,5.120490593046432169e-04,2.265453338623046875e-01
2.356535114986657575e-01,5.712434401284854912e-03,2.291882213937544710e-01,-3.534735289166735699e-04,-1.117386143477977923e-03,7.811764957518707239e-04,2.267906814813613892e-01
2.196052559962435868e-01,-7.047305266159931136e-03,1.785394976314891302e-01,-3.319282821701950194e-03,-3.864719148328402045e-03,2.848077629445982823e-03,2.094094455242156982e-01
2.106388122414518393e-01,8.831924883130837234e-03,2.142241519678696748e-01,3.231524107869926041e-03,1.291056561257157998e-03,-2.551521018578172591e-03,2.037603557109832764e-01
2.223375665983318428e-01,3.931514508281858111e-03,2.168849718752202671e-01,6.085390531255830543e-03,-7.820633844965221284e-04,5.812664262130988295e-03,2.162275314331054688e-01
2.053671644569217691e-01,8.786712745086855403e-03,2.034884558159844037e-01,1.057535622397055191e-03,-7.526011966427288875e-04,-9.254046143929786639e-04,1.956673413515090942e-01
1.807394355317583634e-01,8.211071833825092647e-03,2.008700989110543955e-01,2.117549323704127884e-04,6.430899462329222119e-03,1.949229376840296403e-03,1.837933361530303955e-01
2.199287565348236329e-01,-4.041496309501291240e-03,2.166092086732601951e-01,1.727194515363233897e-03,-1.808355268852737370e-03,-4.181121590138213787e-03,2.224891483783721924e-01
2.279265267885264012e-01,1.742054627239447706e-03,2.237588487305062768e-01,2.432717590767856115e-03,-1.682519270942606617e-03,-1.419263315575192532e-03,2.242017239332199097e-01
2.561929225032084645e-01,1.462649797733528434e-03,1.406513458612456691e-01,-1.284935833355780287e-02,2.034487727485996197e-02,-4.541997420472636271e-02,2.381835728883743286e-01
2.334569431277876972e-01,5.645917937584177260e-03,2.213093343550058822e-01,3.376373945238355691e-03,-3.818666800471433136e-03,-3.287481006443296935e-03,2.222350984811782837e-01
2.233790898478525966e-01,-3.360645538179246605e-03,2.262124403642481463e-01,-8.778674188639950865e-04,4.478268346885779308e-04,-7.549153092584143059e-05,2.281760275363922119e-01
2.007044708163857327e-01,-1.350814578081527273e-02,2.010822820890738605e-01,1.459930621419987772e-02,1.204037216059120063e-02,-1.493439430357003210e-02,2.184297591447830200e-01
2.129221370866999918e-01,-7.045290670404741329e-03,2.084793367791539509e-01,-5.303246252038262831e-03,-7.143148261822814069e-04,-3.082431867964318100e-03,2.180425226688385010e-01
2.469774636850530225e-01,1.266663805172818513e-02,2.177457285989385372e-01,-1.007029961158466096e-02,-5.132295096333612354e-03,-1.610659312592073802e-02,2.237593978643417358e-01
2.180210352757324666e-01,-7.234184794267628504e-03,2.046075627486947379e-01,4.242776386886706885e-03,9.630429376318725343e-04,-4.573712446557767937e-03,2.191299200057983398e-01
2.232347305962407991e-01,-1.756766368624929076e-03,2.271764113683993613e-01,1.474620740093608468e-04,-2.292316187509987110e-03,-5.848707452078785079e-04,2.270251363515853882e-01
1.782648468121690588e-01,1.138438919932678595e-02,2.129629406297456340e-01,-7.275821600116630459e-04,-2.867946525809569186e-03,-1.472842746185755577e-03,1.867518424987792969e-01
2.319808802923795099e-01,1.764539748368071370e-03,2.247391166010884733e-01,-5.272913718969892685e-04,3.052558498784815021e-03,-1.111002599425121124e-03,2.267538905143737793e-01
2.313932011822548429e-01,1.254453334168117995e-02,2.354124859563789529e-01,2.893318781113700605e-04,-2.251154301718125746e-03,1.134638457950073358e-03,2.209294587373733521e-01
2.283406718671456281e-01,9.132457247600950234e-03,1.381810952328569597e-01,-1.400612176848692238e-03,-1.972763367016791298e-03,-1.600524003325827494e-04,1.908793002367019653e-01
2.257866085361586728e-01,1.227813802871263738e-03,2.324187605117783995e-01,1.051566697114712101e-04,-2.181509998242510233e-03,-8.358259890475075232e-04,2.279832214117050171e-01
2.208785128984844248e-01,-6.155616689888315785e-03,2.159916059113616837e-01,3.093962131074226140e-03,-9.185115765776386085e-04,-2.975157027238435007e-03,2.247591763734817505e-01
2.255834130787947034e-01,-9.187623486167917353e-04,2.250766283578904958e-01,1.493682166763593035e-03,-2.519902629745711820e-03,-1.460008841951910587e-03,2.263202220201492310e-01
2.230373172916883528e-01,-4.176786930300740996e-03,2.227676471210099374e-01,-1.582874000876376998e-04,4.099774524654232642e-04,-7.979292113094103552e-04,2.270848751068115234e-01
2.204966433975195095e-01,4.440602548549305029e-03,2.103814086133675154e-01,-5.321952156209004518e-03,-1.319860071009465625e-03,-1.645929830711385065e-03,2.114128619432449341e-01
1.111769631805170078e-01,-4.818511048508766770e-02,1.802531345350871228e-01,-3.935451981634357360e-02,-4.814478328737149121e-02,-1.684302886012293762e-02,2.315751910209655762e-01
2.228362770429002382e-01,-3.206908126247132174e-03,2.224924308719130051e-01,2.298162684365232314e-03,9.126976590487153066e-05,1.951149867634958783e-03,2.259318679571151733e-01
2.301465353223717814e-01,2.365773961115646973e-03,2.286018199737876455e-01,2.584392313026799819e-03,1.420676626804665953e-03,1.839015057384970524e-03,2.270921468734741211e-01
2.275933741729791460e-01,2.509396997869783874e-03,2.330976987624406582e-01,4.547307402913945695e-04,2.961379929220774206e-03,9.377681500262017049e-04,2.279508709907531738e-01
2.341130639086393961e-01,1.665356314867703913e-02,1.489962022135145892e-01,1.411032905838232113e-03,-4.530347158761218254e-03,2.810542950870715141e-03,1.900402307510375977e-01
2.257671194117587543e-01,1.362102965813818956e-02,1.791064753994943415e-01,-1.495164603949322019e-02,-3.537035699024411450e-02,-2.630189394555509236e-02,2.092451155185699463e-01
2.224935220618545761e-01,-4.001995777579286928e-03,2.239414890651534318e-01,1.041237240690605879e-03,4.310984428833749237e-04,1.127092782243840777e-03,2.272397279739379883e-01
1.226819064496497136e-01,-4.349850678287323080e-02,1.870445111137006844e-01,-1.959140244562746977e-02,5.502538514231364308e-02,7.854372357200390883e-03,2.299439013004302979e-01
1.960565028818193334e-01,-5.308575135262438849e-02,7.275433561037478181e-03,-3.988378940472964151e-03,4.857360682863192530e-02,8.155309999234371804e-03,2.408365607261657715e-01
2.235247917122449857e-01,-9.509708938825744973e-04,2.288553912331321438e-01,2.007142344025837177e-04,1.025560715252930898e-03,-1.856098213222734345e-05,2.271951884031295776e-01
2.198333157832960127e-01,-5.179800780630072765e-03,2.200313496965514148e-01,-7.991498833582745239e-04,3.768380431354879110e-04,-6.685244422926660181e-04,2.251203805208206177e-01
2.949010732927809242e-01,4.832399794449249164e-02,2.450603137265187637e-01,2.711464325722502677e-02,-7.818117560294418622e-02,3.283406714678682031e-02,2.734437584877014160e-01
2.259472861332149640e-01,1.107160046648736351e-03,2.301507847029557741e-01,6.576575367061910683e-04,4.090948610432125162e-04,5.107339656026137946e-04,2.269767522811889648e-01
2.267523238096026406e-01,3.227951804512241285e-04,2.226500274883974340e-01,-6.433143932450942034e-05,7.744530474950243317e-04,1.019196988546696532e-03,2.244174778461456299e-01
2.323347469197553083e-01,1.389825950782999642e-02,2.367057565773635353e-01,-4.723407255339659894e-04,-2.054680273896621664e-03,-1.495695603361986252e-03,2.206998765468597412e-01
2.258987305424451919e-01,-1.047951706437955099e-04,2.311464736002336595e-01,-2.079423796866205457e-04,1.027777159657175077e-04,6.105953092905220311e-04,2.286753654479980469e-01
2.453614295161978820e-01,-1.146646216447232136e-02,5.576329654045313056e-02,1.217286719070794984e-02,-9.068088362006490946e-03,1.799136559927402498e-02,2.342567443847656250e-01
2.298485003308790298e-01,4.088259460996029881e-03,1.526677180115613153e-01,3.158963463378930154e-03,-1.460362216657376706e-03,4.141746699889225537e-03,1.989673525094985962e-01
2.126394054603052419e-01,-3.910099534981739677e-03,1.321221945114614826e-01,1.852228836065697177e-03,-4.680734452788368194e-03,6.343256061081661672e-03,1.900985985994338989e-01
1.885780834673508322e-01,-2.954439193479692360e-02,8.103174395715269374e-02,-7.247439875355053684e-03,6.769867698790264787e-02,1.959359432538144638e-02,2.252642661333084106e-01
2.251330278063710111e-01,-6.491176899125761235e-04,2.275359980287179340e-01,8.060741173476364306e-04,1.004075265167664408e-03,5.075472481258525579e-04,2.270058244466781616e-01
2.333859572035581198e-01,4.657497056872128560e-03,2.280839674306097686e-01,1.947943591054815491e-03,-5.072048735579140792e-04,3.800658700043399603e-04,2.261519283056259155e-01
2.304064845942019601e-01,4.370483639227706885e-03,2.008281296760239532e-01,1.484636680682143199e-04,-2.910714269991924118e-04,2.139101676174960231e-03,2.128272205591201782e-01
2.243073378025333686e-01,-1.618204606125078771e-03,2.277746876992129965e-01,1.010925282942083474e-04,2.811175655038587187e-06,3.520829083684120999e-04,2.276799082756042480e-01
2.290744234943875302e-01,7.319913412382306195e-03,2.299777322239787702e-01,-3.864538923031037281e-03,3.118317569548309780e-03,-5.684947424301255679e-03,2.225918322801589966e-01
2.513696193444976412e-01,4.410209848951021638e-02,2.519517807959121836e-01,-4.780926623306848422e-02,-2.517326528697574201e-02,-1.892479376850941461e-02,2.300294041633605957e-01
2.240381030162392484e-01,-2.052104487479750050e-03,2.229365657439274506e-01,1.026390416562179760e-04,-6.723456569449628127e-04,3.705582023522018876e-04,2.255454510450363159e-01
2.297751567955755858e-01,2.715236069149445930e-03,2.320505725422533916e-01,9.731489708247323053e-04,5.679142919053480759e-04,1.325120284901358525e-03,2.282260209321975708e-01
2.254674957514540834e-01,4.390638892025622297e-04,2.265982602431579895e-01,-1.311316582884153835e-02,-4.076934896746067100e-03,-1.681404791003838356e-02,2.287081032991409302e-01
2.287747975026515612e-01,1.625504024367840916e-03,2.205675212768527516e-01,4.021126070433178254e-03,-3.754682017843559926e-04,-1.050256183524401556e-05,2.232684791088104248e-01
1.569904468633669947e-01,-5.687039699723811514e-03,1.845629121523562621e-01,4.631098300113124615e-03,2.582058853488578345e-02,-6.156436590767316516e-03,1.840863376855850220e-01
2.271836545057841494e-01,6.778237264621400637e-03,2.351688938316596200e-01,1.345860413975441539e-04,2.921988214111651298e-04,-2.834372250335626293e-03,2.245589345693588257e-01
2.179729261309377164e-01,-5.572036509420119632e-03,2.174612647557848388e-01,-2.833452507821620885e-03,-2.223981625568526163e-04,-2.004727539856583033e-03,2.233708202838897705e-01
2.208840889508768557e-01,-2.802876057323877568e-03,2.190921983398235739e-01,-1.555538675043981189e-03,8.529669741290504597e-04,-2.299681589141100088e-03,2.228532135486602783e-01
1.560003556375515466e-01,-2.456180239099206575e-02,2.012439495271353962e-01,-3.583748794773005536e-02,-4.437929841165980799e-02,-1.739778423975313001e-02,2.312759160995483398e-01
2.243657240276532849e-01,-2.970640909689792331e-03,2.245449446473949950e-01,2.810117799816315171e-03,-2.102141357066156127e-04,7.261836000459065540e-04,2.274818718433380127e-01
2.332250236340264737e-01,4.519637892033634419e-03,2.241991816603963183e-01,3.976917051986216499e-03,-1.095554002990654268e-03,5.506750113328230624e-04,2.244444638490676880e-01
2.220340005595012045e-01,1.044464594056709883e-02,2.401434082135314174e-01,1.590266122381631814e-02,9.037484295347040369e-03,-8.305325034092437978e-04,2.234626263380050659e-01
2.242188901626531172e-01,-9.772630270344362380e-04,2.251822593797814798e-01,-1.062789772214956874e-03,8.261357323763836909e-04,-4.259820189565071422e-04,2.256926298141479492e-01
2.348977804058474672e-01,9.393857678971107017e-03,2.263082730287289679e-01,-9.399751080183005471e-06,2.878915093542816842e-03,-1.283741757518472402e-04,2.213904857635498047e-01
2.347622118171568961e-01,2.617360608549700041e-02,1.706704406676378127e-01,2.306192609779948255e-04,-4.924945875694978353e-03,1.424554377539286694e-03,1.852759122848510742e-01
2.392930224181543108e-01,1.513457023698966397e-02,2.322347948212405699e-01,-1.269009403404836641e-03,-3.943839334393515789e-04,-8.085033875708966754e-05,2.207260429859161377e-01
2.059126471910943945e-01,6.575848719340915416e-03,2.125304715949273837e-01,-3.250697323132698425e-03,-1.673318741310961862e-03,-4.096172628301442478e-03,2.029496729373931885e-01
2.338255978298742765e-01,1.571271081520136947e-02,1.660272096388335505e-01,8.600741421114164445e-04,-3.454075197495887293e-03,3.602307492696310304e-03,1.935435086488723755e-01
2.316777482034814151e-01,8.386898174965740083e-04,2.258521363512478453e-01,1.076775872991261830e-03,4.292454001494560244e-04,-4.034209949575075335e-04,2.279919981956481934e-01
2.102073084993808516e-01,-8.023293226548655621e-04,2.074076437982673715e-01,-5.716069347304095910e-03,-2.325595254666975188e-03,-2.398381938078873038e-03,2.099372595548629761e-01
2.209530148323224363e-01,2.021273344430724039e-03,2.272061374351419527e-01,4.571105204300074040e-03,1.700410442879338527e-03,5.538431165626911835e-04,2.222869694232940674e-01
3.493699831511467568e-01,5.706533744350325565e-02,2.552811532637621617e-01,1.015396679090270309e-02,-3.663597604601034896e-02,-4.081905190692738938e-02,2.759104669094085693e-01
2.237970449658355232e-01,7.158278950610746927e-03,2.123817027498274834e-01,-4.608576063398059017e-03,-1.069143375443327949e-03,-1.582833089277683840e-03,2.113393545150756836e-01
2.314395786594394822e-01,2.962977052675674905e-03,2.298834841814724750e-01,1.840145424009188282e-03,4.726735832532476256e-04,2.225042032265102041e-03,2.277589291334152222e-01
2.240295879079523544e-01,-1.659072894556551381e-03,2.237335245101937931e-01,-2.043215281376658816e-04,6.440007848405708297e-04,-1.412972219894550454e-03,2.255570888519287109e-01
3.421665970230237663e-01,1.277340627474501389e-01,4.094858344737460909e-01,-5.712969622783183737e-02,-3.256714503776961950e-02,-1.368357241305019102e-02,2.801492512226104736e-01
2.113606014390121968e-01,9.479131077051561327e-03,1.993281797500762453e-01,-4.579770820452596855e-03,2.743014404363068419e-03,6.198515102614997590e-04,1.963630169630050659e-01
2.359393951529675793e-01,8.259209512472137638e-03,2.304993987034067715e-01,3.395032837763745613e-03,-1.128873851886561582e-03,-1.174401701354404939e-03,2.251040190458297729e-01
2.033765126307828797e-01,-1.014297158036525648e-02,2.175159005479100627e-01,5.235444337591041615e-03,-2.798254892703559856e-04,-2.455860833411900503e-03,2.211562395095825195e-01
2.532374093353541578e-01,3.592909863174137408e-02,2.566231493425092380e-01,-2.737826933661941312e-02,-3.010566907711174911e-02,-1.681028980366764541e-02,2.319173067808151245e-01
2.363352406404835571e-01,1.600067733303923989e-02,1.597161077980211730e-01,1.464922500744284429e-04,-1.298627384888917293e-03,4.016087597547889423e-03,1.938800662755966187e-01
2.139704171823523238e-01,5.387139839078652903e-03,1.815090431785991165e-01,-4.963939684958078649e-03,-3.431937703889002128e-03,-7.418743724414415168e-04,1.946811079978942871e-01
2.308732198831218718e-01,5.142213254593630545e-04,2.254832839609741124e-01,1.636537160416704851e-03,1.559053783420513055e-03,5.138137933519266965e-04,2.277472615242004395e-01
2.280956264683753343e-01,-1.226750468696802265e-03,2.250774021097944610e-01,5.945747739546988894e-04,1.515633496091417032e-03,5.102784020595589002e-04,2.278474271297454834e-01
2.276485006364000474e-01,-1.624639166378311073e-03,2.247765857312339355e-01,2.642743828996579197e-03,1.471251955513954227e-03,1.085106996415548990e-03,2.279187291860580444e-01
2.286576438323689731e-01,-1.287618787750521854e-03,2.239996795587765877e-01,3.107704146336104535e-05,7.205562181177472972e-04,5.582641181927288721e-04,2.276574969291687012e-01
2.082768673551738114e-01,-3.067618409554828673e-03,2.247940397231156240e-01,3.929788385671656101e-03,-1.012748390845368603e-03,1.482608017905821633e-03,2.201956510543823242e-01
2.038143840763579073e-01,4.183043796395363723e-03,2.303880033833844154e-01,1.480587369054282799e-03,2.939963213192815276e-05,4.050264524499425263e-03,2.142884731292724609e-01
1.980481375601209626e-01,8.425455738346215862e-03,2.109248336363006571e-01,-8.998957307035814661e-04,-4.580662667334171531e-03,-5.545814811144262474e-03,1.967788785696029663e-01
2.180033560946602056e-01,1.716071974834422476e-02,1.841744606257939842e-01,6.753040949739390298e-04,-5.209336017964196278e-03,3.724288154191566819e-04,1.864700168371200562e-01
2.065502379374516695e-01,1.748152291514637469e-02,2.028869083583982880e-01,1.246692157480775148e-03,-1.201257501090309283e-03,4.506961305567812022e-04,1.872895658016204834e-01
2.313633918369764897e-01,2.457370128656322095e-03,2.285705029698751611e-01,9.595897091898471514e-05,4.312776076052360200e-04,-4.007017259440759003e-04,2.275247722864151001e-01
2.241666611756602812e-01,6.400971719377812619e-03,1.668486865959182552e-01,3.916598329875196904e-03,-3.609179284106506236e-03,3.789324611012754012e-03,1.958405822515487671e-01
2.289933411401202656e-01,2.434829878193600639e-03,2.286496652641031302e-01,-1.544056842808977153e-03,-3.699438828846046256e-03,8.049444781995876040e-04,2.264976054430007935e-01
2.408557831008866223e-01,4.682094569320346955e-02,2.406764001053711133e-01,5.683578581839593543e-04,-3.769179778271235758e-03,1.179599864611686208e-03,1.940683126449584961e-01
2.220872452289298637e-01,3.404430332587998764e-03,2.257314157531480903e-01,1.274686370166107103e-03,5.484353876841111355e-05,3.122694475582871772e-03,2.206048667430877686e-01
2.651388057668583875e-01,4.084287752522369752e-02,2.297689299739044955e-01,9.905969883077698351e-03,-2.043471304945814263e-02,1.833146972709738531e-02,2.148990929126739502e-01
2.275826073333095667e-01,1.180517741962261447e-03,2.290035092427017693e-01,1.388655943069836123e-03,1.906160266900258193e-04,-3.478251624084066672e-04,2.271296530961990356e-01
1.483056055943547946e-01,-5.705061986737869351e-03,2.252382978165720084e-01,3.527218139065346064e-02,-4.994096954619656886e-02,1.251395049277940000e-02,2.305880784988403320e-01
2.672950589500363017e-01,4.602835741294375449e-02,2.984662661978779163e-01,1.347626180930475842e-02,5.945973035948117977e-03,8.726292072525435387e-03,2.402229905128479004e-01
2.211701676482044909e-01,-4.038868109891652347e-03,2.204775354878875659e-01,5.779282866255815729e-04,6.435774953520732649e-04,7.071810333143486527e-04,2.248718440532684326e-01
2.196115062973216236e-01,4.461306167770601183e-03,2.113458742516432509e-01,5.470000997240635592e-03,-6.645814422306699698e-04,4.738845952615697364e-04,2.113559544086456299e-01
2.255336926393290975e-01,3.856386347239892931e-04,2.244392495089836959e-01,-2.120449739523938993e-03,-1.123648353786556352e-03,7.855534144415946820e-04,2.246454060077667236e-01
2.211141103421158660e-01,-6.215815207877645188e-03,2.153358336892990388e-01,2.210183766341267900e-03,-5.608238019954829437e-04,-1.344419275581850543e-04,2.245314270257949829e-01
2.601306212483806557e-01,5.709054106336247658e-02,2.891167103419094442e-01,4.887690530106948705e-02,-1.644268597501810994e-02,3.013585841961470557e-02,2.421843409538269043e-01
2.202082968458730083e-01,-6.875189424639743807e-03,2.190788923885929329e-01,1.090991311161973280e-03,1.090696694521056925e-03,4.058594048908993504e-04,2.265377491712570190e-01
2.236711247057296403e-01,1.687382815746901743e-03,2.213172966768919281e-01,3.979888111668065422e-03,4.742103917152322738e-04,1.370041556629496304e-04,2.209254652261734009e-01
2.342951607931118840e-01,2.204493812626828753e-02,2.412156254159485147e-01,2.939289285231174061e-03,2.173312288606075397e-03,4.617479081916631319e-03,2.160346508026123047e-01
2.233210768830837245e-01,-2.345643509715500397e-03,2.226659153798096202e-01,3.657373098867234174e-04,3.249745964520518748e-04,7.822894522865652192e-04,2.253455221652984619e-01
2.846613643607606714e-01,4.357356712990509418e-02,2.547598487545545409e-01,-9.884679270630995426e-03,1.283089374122417178e-02,7.498969658905683781e-03,2.297047078609466553e-01
3.031664772367432814e-01,7.936136219562331395e-02,2.948078395700746146e-01,6.633389232118903044e-03,1.100718560632070594e-03,-4.352687001709546616e-03,2.201825827360153198e-01
2.192640820160653703e-01,-3.517426529326905804e-03,2.196022679080424922e-01,-1.120586313180812251e-03,-3.146307468759494750e-04,-2.178870477711019899e-03,2.229918390512466431e-01
2.216505357648684837e-01,-1.729231384415580441e-03,2.189773170164038552e-01,-3.608771802242231180e-03,-3.972054807945658790e-05,-1.267905449751031066e-03,2.221540510654449463e-01
2.220096582165747567e-01,1.831971890840250472e-03,2.190668369488229517e-01,-1.824088138828588350e-03,3.227408718094880620e-04,-8.890657381251979800e-04,2.187500745058059692e-01
2.245039271722100160e-01,1.865414894018369019e-03,2.212205611422319307e-01,-2.845155042664474637e-03,-5.535995177729319207e-05,-1.290583683910112881e-03,2.210813760757446289e-01
2.860688732263374501e-01,5.923389668213904780e-02,2.171925106276300088e-01,1.181492032645633898e-02,-9.348229510902747452e-02,2.403603501345381865e-02,2.625705301761627197e-01
2.218122136593070892e-01,-2.117908382175931470e-03,2.224983030893188385e-01,-1.518080674201283987e-03,5.413169060028277932e-04,-2.530425509542457482e-03,2.243341505527496338e-01
2.082792896748003053e-01,-3.300105267592473579e-03,2.185349429178403136e-01,-3.988518098597157273e-03,-8.793019902304343013e-04,-5.972833036089890066e-03,2.172509431838989258e-01
1.805726127094142708e-01,9.404528300317349654e-03,2.186425181017557229e-01,8.316344768888367725e-03,-1.930985717323277853e-02,6.134631182521881922e-03,1.967312395572662354e-01
1.904299508570989896e-01,8.460373531883613740e-04,2.349837213362196420e-01,2.110498783741308546e-02,-3.163089900403754512e-02,1.134205267356243503e-02,2.260475754737854004e-01
2.216234400124782178e-01,4.120550442081663545e-02,2.500521348849723546e-01,2.658655509050896620e-02,-4.572204661474293247e-02,1.035735186762102439e-02,2.172596305608749390e-01
1.719503650634598979e-01,1.005991353391413878e-02,2.268964086687196846e-01,2.611804469980267759e-02,-5.635041186526894286e-02,8.209044616937114652e-03,2.233776003122329712e-01
2.163355002856571230e-01,1.210435473119420013e-02,2.177466565808142129e-01,-3.638919919081475430e-03,-3.068311326672710799e-03,-3.594455079275645816e-03,2.052005976438522339e-01
2.274430942914523190e-01,3.601015530480144999e-02,2.138161011832855063e-01,8.507484789614659301e-03,-1.014357981545052356e-01,3.018291177527808455e-02,2.608475089073181152e-01
2.009295888306110722e-01,1.637511302875677144e-02,2.039124011625948474e-01,-1.703918426390899597e-03,-5.806843678909570823e-03,8.906278831083905148e-04,1.863652020692825317e-01
2.099054351611006619e-01,1.568719740956181496e-03,2.081282474061225130e-01,-1.305291627195150289e-03,5.271249051238764737e-04,-6.777984090933580029e-04,2.074714750051498413e-01
1.610044225093284487e-01,-1.976171170485442607e-02,1.659721142974223129e-01,3.260284068389512208e-02,-9.373356020636353092e-02,2.127807146896011289e-02,2.539765834808349609e-01
1.767656456937747866e-01,1.018928519424924795e-02,2.323271099770188863e-01,3.300795679164102592e-03,-3.822778171871938323e-03,3.580273711626652706e-03,2.005117684602737427e-01
1.976624219478581856e-01,1.320830770735831328e-02,2.134843176870916959e-01,-4.431977562535777647e-03,-1.284251215264078233e-02,-3.122403326527791942e-03,1.943580061197280884e-01
2.320697564065282714e-01,6.513864016837844773e-03,1.595998031852842725e-01,-4.575464696368619459e-03,-3.090573372423257594e-04,-8.681570096296437403e-03,2.001762539148330688e-01
2.308435230154680107e-01,9.334375615015488847e-04,2.215673641713093722e-01,-4.271403284329178046e-04,5.485564821036741047e-04,-1.177843711781017839e-03,2.254276424646377563e-01
2.206444986713312351e-01,8.450811503665001112e-03,2.187161853162777614e-01,4.036623489001719793e-03,-6.691237378562917828e-04,1.371468508463002858e-03,2.113683372735977173e-01
2.664838383708026948e-01,3.657480962959203108e-02,2.599580726230307781e-01,-2.589631866459724940e-03,-1.140910767881804858e-02,-1.595752875096126400e-02,2.292923182249069214e-01
2.175741494485923244e-01,1.022037960596763884e-02,1.933558963996604152e-01,3.824406150415174486e-03,-2.283096096631621191e-03,2.520518152711152121e-03,1.965678930282592773e-01
2.125959254703197465e-01,-6.431139693697240922e-04,2.121380243840264579e-01,1.424640552413580178e-03,-8.207640508247425037e-04,2.685958647110864034e-03,2.130802869796752930e-01
2.212184183589883113e-01,-2.416369886859948135e-03,2.204890073979445531e-01,2.242983617135956530e-03,1.008579527332797065e-04,1.438395217829192916e-03,2.233187407255172729e-01
2.202245219040324109e-01,-1.261359577221343731e-03,2.179478709693512817e-01,3.167220258871708896e-03,1.533102160668602283e-03,9.599697531280569586e-04,2.204469144344329834e-01
2.100092389661827319e-01,-5.144667609710468215e-03,2.182085840001961596e-01,-2.640900220777433072e-03,4.826708668206573924e-04,4.246087113058911143e-03,2.195410281419754028e-01
2.225946153950638662e-01,-1.261058537432080406e-03,2.237667376367931671e-01,-8.319924890061967948e-04,-5.822873684102592394e-04,2.192230125526148810e-03,2.244830429553985596e-01
2.178436619455922374e-01,1.579690814393723552e-02,1.835447627074150989e-01,4.802731047648787122e-04,-5.224993411922325068e-03,3.939560462776000183e-04,1.874896883964538574e-01
2.209876793872943002e-01,-5.716329784950430204e-03,2.216867239571081449e-01,-9.211584369315074057e-04,-1.278466497282248170e-03,6.773904859305264394e-04,2.270737737417221069e-01
2.099799750741276616e-01,-5.964877533286505606e-03,2.167179726638137904e-01,-2.770843347318040478e-03,7.593621364788054415e-04,4.550302715380389468e-03,2.195893824100494385e-01
2.247136573466347320e-01,4.487566914176399635e-04,2.252350625493512726e-01,-1.506439839834952275e-03,-1.614441909679721187e-03,2.043343994390936329e-03,2.245865166187286377e-01
2.234298873922220263e-01,-4.096602154233019988e-03,2.223904472391867171e-01,-3.012541191874230394e-05,-3.532785875895870682e-04,7.526365542530270413e-04,2.270131260156631470e-01
2.277088751331379224e-01,-1.120652366172480985e-03,2.249585717819383435e-01,-2.461474754923821760e-04,-1.415307130478380034e-03,7.739327208425351469e-04,2.274844050407409668e-01
2.239226661466259261e-01,-2.139124294381122837e-03,2.250345645848786102e-01,1.082388705070857701e-03,1.375468926019306507e-03,-3.796166896719516744e-05,2.266400754451751709e-01
2.298281855868832546e-01,-9.175005131824565119e-04,2.241653888826180829e-01,-1.420211300630071184e-03,1.242170581119241826e-03,-7.924753266857097926e-04,2.279946058988571167e-01
2.212454345257507948e-01,-2.922922963225826898e-03,2.218501734582020712e-01,4.813702643817621501e-04,4.524984663918284406e-04,1.592291554617107955e-04,2.244744300842285156e-01
2.191404706542251224e-01,6.768508557915081658e-03,2.016549485289107491e-01,-5.224782097959485005e-03,6.453678270379041224e-03,6.129318530247820397e-03,2.049724608659744263e-01
1.409145169311067369e-01,-1.491402291888782594e-02,2.350494529718422654e-01,-1.737931577830234900e-02,-1.841820531644726075e-02,-8.963523765409419156e-03,2.235568761825561523e-01
2.331738928097872587e-01,4.371180091469725748e-02,2.844276102656725924e-01,-2.112788469682914255e-02,-3.579818407476433734e-02,-1.518795774873097845e-02,2.326138019561767578e-01
2.314844693945372622e-01,3.341053797792553626e-02,2.521371889280674683e-01,-2.776169889487702103e-02,-2.867950720466389686e-02,-1.264057725887668057e-02,2.213811427354812622e-01
2.199717964056270292e-01,-4.819287749023792866e-03,2.199306246961029165e-01,-2.814276731887838633e-03,1.241451551211216831e-03,-2.842364678834088769e-03,2.248875200748443604e-01
1.922199140203200429e-01,6.277170563257772340e-04,2.224910334817703506e-01,-5.673538886492563056e-03,-3.440257366241151072e-03,-6.984506863118755855e-03,2.090503424406051636e-01
2.106116137635661301e-01,1.621485511496251197e-02,2.147064113611729108e-01,-9.838015441489503677e-04,2.811690639317454814e-04,2.993455605344177897e-03,1.965525448322296143e-01
2.206674218467946924e-01,-3.608805265424619435e-03,2.207342421722553460e-01,-1.033886130486068484e-03,6.675880703378295200e-04,-1.064944055232849287e-04,2.243198454380035400e-01
2.048508578469059871e-01,4.832029501290191487e-03,2.295632541430400186e-01,-2.204695958677493298e-03,-2.063490493786509367e-03,-4.497603176049047927e-03,2.136567831039428711e-01
2.333519858044848516e-01,1.480975727926142627e-02,2.339135627925978678e-01,1.379282446171207306e-03,3.000539332461455051e-03,1.763874780485731971e-05,2.188982963562011719e-01
2.007853395740017977e-01,-4.509169729864648257e-03,1.817788231351721295e-01,-3.264368736205303882e-03,1.241646525069783763e-01,1.412792798742186495e-02,2.923807501792907715e-01
2.067479739714173093e-01,7.264216913772936213e-04,2.082266536809388169e-01,-2.736506365286370257e-03,-6.492970458496691820e-04,-1.185808831237613464e-03,2.068324387073516846e-01
2.005783299643877360e-01,1.271574074516035324e-02,2.438710660858733892e-01,-6.759316291446028357e-03,-3.715985024831936628e-03,-4.338989287183955129e-03,2.133885473012924194e-01
2.165284483236043223e-01,4.058936383033701079e-03,2.163044328036380914e-01,-2.195142033348807410e-03,2.684601425720831418e-04,-1.221188697832190691e-03,2.124026715755462646e-01
2.057276908910336821e-01,2.180847742809438605e-03,2.451998246907378665e-01,-1.503127455066002524e-02,4.970902467552674661e-03,-6.759455811063671236e-03,2.278438359498977661e-01
2.237366601307325120e-01,-2.958253761565721174e-03,2.238977205911931168e-01,1.537841947078983675e-03,2.215785528649150127e-03,1.398720210585143071e-03,2.268365323543548584e-01
2.250213611503334987e-01,-2.656916956651517170e-03,2.237288975649120437e-01,1.376895498554277881e-03,2.793302831100358350e-03,9.659575317703133655e-04,2.271050363779067993e-01
2.204054268102427772e-01,-4.280726342996976630e-04,2.271306143801535837e-01,4.282072738870245851e-03,-3.448466278525104856e-04,1.748539747190187886e-03,2.244155704975128174e-01
2.216159670076916777e-01,-4.740398058107719859e-03,2.222754371176632049e-01,8.742485522256237315e-04,6.967162404829563586e-04,8.289249375283425916e-04,2.266996353864669800e-01
2.223714418990012931e-01,-4.068860417473424418e-03,2.221914627028800104e-01,1.524669932114970910e-03,1.526815272805064723e-03,6.103558718728144305e-04,2.263836860656738281e-01
2.281090526749828262e-01,3.991402576376951172e-03,2.290032800759412845e-01,3.202091019745065617e-03,2.546773808244625313e-03,2.617486603808763003e-03,2.247236222028732300e-01
2.091089376368484576e-01,1.695522073950125885e-02,1.945619478108753797e-01,2.030727829915869500e-03,-3.014477784841377433e-03,4.456489180959723878e-04,1.854174584150314331e-01
2.145083866524956917e-01,-6.198601651479127006e-02,9.349098860942273159e-02,1.347364490462828754e-03,-1.878364003983711006e-02,3.872662113453555210e-02,2.513899505138397217e-01
2.120638642043745081e-01,2.841607528046852238e-04,2.033819414532994085e-01,5.293742909859817415e-03,-6.281750275336413399e-03,6.254379442282147553e-03,2.083438634872436523e-01
2.232640876039503897e-01,-2.239561316107419042e-03,2.091564984664581184e-01,-4.278814888330923286e-03,-1.010178322450897394e-03,-3.679139601213311014e-03,2.190164476633071899e-01
2.386261038243129295e-01,1.231054470909148657e-02,2.099244079810135000e-01,1.671426356971698196e-02,-6.529565432210303333e-02,3.610432886060318397e-02,2.511695027351379395e-01
2.226583466003896894e-01,5.309948044226603381e-03,2.269024960533848612e-01,4.147517216013405818e-03,8.294863186643242504e-04,4.523963281590191038e-03,2.197632044553756714e-01
2.436737176306446873e-01,8.473662820398408790e-03,2.245648320327147118e-01,5.502551452568810175e-03,-1.228416139568072347e-03,6.339408957486989370e-03,2.267283201217651367e-01
2.267754250075305067e-01,1.784629011178873181e-02,2.181814529550687998e-01,-4.449933386922457282e-03,-4.409817415618806635e-03,-4.890730914755218872e-03,2.052296549081802368e-01
1.799109245645440225e-01,-2.049095053245328368e-02,2.127908114115440175e-01,-1.704992528562199183e-02,7.505277803314976473e-03,2.233338472425227053e-03,2.211045920848846436e-01
2.092747046592676741e-01,1.459614479063620074e-02,1.978705751413253333e-01,-1.714187907218527344e-03,-8.909313248641675476e-04,-8.262663066296904767e-04,1.892693936824798584e-01
1.993719225091733771e-01,-7.544411412696877539e-03,1.673332226454218585e-01,1.918205268423959706e-02,-4.465558035785401753e-02,2.681110374129874047e-02,2.155324518680572510e-01
2.400739811147970526e-01,1.538826617158492449e-02,2.017960914401561168e-01,5.280190324063935119e-03,-3.820339223247810716e-03,1.501301872682440051e-02,2.101237028837203979e-01
2.373986737488678611e-01,3.366284091647334109e-02,2.409527886119239293e-01,-1.258841876788990930e-03,5.685913558727602067e-04,3.159721855398340152e-03,2.056227028369903564e-01
2.060708526808238683e-01,1.379584976909820071e-02,2.024929957173722816e-01,2.793183341915850965e-03,-5.698048002062862730e-03,2.262740684481432101e-03,1.908683180809020996e-01
1.618583127341035044e-01,1.023361610509498920e-02,2.344792407583886074e-01,-6.003600975990633359e-03,6.983888088507981054e-03,6.026909129722673140e-03,1.990939378738403320e-01
2.263662142437022351e-01,5.628029852386695620e-04,2.288385034213121783e-01,2.167077147757730422e-03,-1.688850639537540967e-03,-1.519678390087163744e-03,2.271147668361663818e-01
2.297557806881715681e-01,9.132925669927877133e-03,2.355718929793800820e-01,-8.263012356602596328e-04,2.008509646412260860e-04,-1.794200262315946660e-03,2.236140966415405273e-01
2.354964781989778433e-01,2.217337409799385872e-02,2.390849673442193013e-01,5.432931585577260077e-04,-2.724281299563888290e-03,-1.174379860968969647e-03,2.152032107114791870e-01
2.271715819413341886e-01,2.732608967612959461e-03,2.327376210462256401e-01,1.458960957862141848e-03,-1.284314068737545111e-03,-1.647650419883063501e-03,2.273159623146057129e-01
2.230317245493082245e-01,-3.040922109996291312e-03,2.265477923488176670e-01,3.313524261630357228e-04,-1.977367471027063981e-03,-8.554187125628012322e-04,2.278823107481002808e-01
2.196210744088927524e-01,-3.892274045049742837e-03,2.190764375886813942e-01,3.146397904480611931e-04,-3.162269410962600751e-04,2.240969453700525829e-05,2.232428640127182007e-01
2.190495018905434521e-01,-3.852151961152794346e-03,2.197404956978210588e-01,-6.104174297496632714e-05,-3.018827951242087238e-04,-3.533153462613529113e-04,2.232494354248046875e-01
2.050963858333990086e-01,1.085109432973441201e-02,2.091452073466452399e-01,1.273706461831640956e-03,-9.981381411257859472e-04,3.117979009578860164e-03,1.963952928781509399e-01
2.194147838048362553e-01,6.248867485764281193e-03,2.149184751511479252e-01,4.824916128337898742e-03,-1.440412182241387418e-03,2.153214976211337978e-03,2.111668437719345093e-01
2.222406331483292030e-01,-2.257720718959965733e-03,2.225935687276373032e-01,1.025284557940502181e-03,-1.071995333236893007e-03,-4.361795474399390556e-04,2.246909886598587036e-01
2.222556561689873478e-01,-2.923299152535807632e-03,2.238534603300676440e-01,1.107787025483516173e-03,-1.147891193177366306e-03,-5.129469818172596729e-04,2.260007262229919434e-01
2.198681272544215637e-01,-5.859932360500336168e-03,2.191637383720812515e-01,1.341686451602632597e-03,-5.822530786117856164e-04,-8.735674323592172285e-04,2.253960072994232178e-01
2.235712277223392275e-01,-1.723635831647390981e-03,2.241790335245730792e-01,1.337162622825356856e-03,-1.812144262244845538e-03,-1.416977274398519351e-03,2.256464511156082153e-01
2.220266500663294618e-01,-5.345005883606313013e-03,2.218487089621381525e-01,2.566651145662718521e-03,4.992280327437028211e-04,1.068164387668392099e-03,2.273353785276412964e-01
2.218515701398526829e-01,-3.095203024043369222e-03,2.211034138948286265e-01,3.867721657622629275e-04,3.305892577532270216e-04,3.801070911418421455e-04,2.245763242244720459e-01
2.202686137462634974e-01,-3.245344623230422831e-03,2.195616789655555068e-01,1.799691388861990315e-03,-1.866472353407768858e-04,9.977086137108253597e-04,2.231900244951248169e-01
2.209919297948752526e-01,-3.141706419252265903e-03,2.211436600522357354e-01,1.653618510230626395e-04,-7.355653721097306653e-08,-1.895269917454707139e-04,2.242099642753601074e-01
2.199787768893533557e-01,-2.082859731823982763e-03,2.162964634257552032e-01,2.969938938083529351e-03,1.223317935574827053e-03,7.645961804971754565e-04,2.203177958726882935e-01
2.208361456437069048e-01,-6.100426148058307740e-03,2.198792321260334415e-01,4.667130592598124454e-04,-8.951020109796325097e-04,-1.591671160609632379e-03,2.264831662178039551e-01
2.092930886371345278e-01,1.324501294984517519e-02,2.118640452558892551e-01,-8.150751261950334170e-03,-5.666506021860882002e-03,-6.284625342782747780e-03,1.983925700187683105e-01
2.191980657381820685e-01,7.228120473907778676e-03,2.205982986821042879e-01,1.526687530382478484e-03,7.292186893859889515e-04,-4.629261958903741099e-03,2.128447890281677246e-01
1.856178272874622337e-01,-7.402801981328643866e-03,2.163591912894511360e-01,7.549187213006900050e-03,5.556982555634223768e-03,-6.047784821116794843e-03,2.109716832637786865e-01
2.207658259393031064e-01,-3.704218135322956407e-03,2.213707175681457751e-01,-3.896001321093756547e-05,-3.393043429046250126e-04,-6.681100632220649243e-04,2.247768640518188477e-01
2.571462299898163995e-01,3.601502052527222331e-02,2.410340933337977165e-01,9.134049539697916553e-03,-3.019110103113715679e-03,4.742227891295839985e-04,2.141822278499603271e-01
2.067305762251402113e-01,-4.728690300316834572e-03,2.234581186771193440e-01,7.884108794204662887e-03,2.501783118127840779e-04,1.740770370977100701e-04,2.207233160734176636e-01
2.049912474890872582e-01,1.444973249386122260e-02,2.070814473739565065e-01,-1.816410894748992418e-04,-5.218574619123872741e-04,-1.541288712912023936e-03,1.916161477565765381e-01
2.122325934406910641e-01,-4.626818733150184215e-03,2.138983034283406526e-01,-2.349694418342898345e-03,1.661442622118507976e-04,-9.297817200555310094e-04,2.177412360906600952e-01
2.214041026403084644e-01,2.821055538946015684e-03,2.193414464103538575e-01,-4.058825031975329999e-04,-1.422650948301524892e-03,-1.276528585901770541e-03,2.175853699445724487e-01
2.176514927718393722e-01,-5.711301498846743652e-03,2.189045914427307504e-01,-8.912581509066158951e-04,1.738421738121544277e-04,-3.482249539916724480e-05,2.239975035190582275e-01
2.790391432875651834e-01,7.135278742574791000e-02,2.642876357014773969e-01,-5.864842409610329481e-03,-7.588048929646919356e-03,1.265435004831714377e-04,2.014038562774658203e-01
2.293672872847934141e-01,-1.162673711702560952e-03,2.227728807817750956e-01,-1.492107604504174965e-04,1.637587504258668052e-04,-1.264694138363137263e-04,2.273049354553222656e-01
2.179057168973662917e-01,-3.888207333036242108e-04,2.192227022702730732e-01,-1.077372276971251541e-03,9.414089255528325330e-04,-2.375697237254850280e-03,2.190086841583251953e-01
2.464500013537479772e-01,5.303887914969673822e-02,2.414898506307587012e-01,-6.750302034158104855e-03,2.633908641282776790e-03,-1.736575818922020658e-03,1.914149373769760132e-01
2.025452557581222668e-01,1.372027175292550583e-02,2.024794840599979939e-01,-2.940570944095965891e-04,-7.977747110069154622e-04,-4.399618051231580281e-04,1.887993812561035156e-01
2.038068810713720147e-01,-3.704997550797431427e-02,2.248921494692093237e-01,2.804257775426670374e-02,4.055946371409643869e-03,-6.648186392772452089e-03,2.570530176162719727e-01
1.792997697895950537e-01,-4.679381802773657784e-02,2.195699467105666214e-01,2.872108819607698676e-02,7.931737136064879318e-03,-9.996031034988736574e-03,2.545742094516754150e-01
2.035205602093069222e-01,1.022524099844426826e-02,2.067597940218330321e-01,-2.226779652839401373e-03,-1.947384066835800053e-03,-1.209670103753409005e-03,1.950137019157409668e-01
2.157313420299715179e-01,3.566794352596602824e-04,2.457799961985664416e-01,2.597445371210773887e-02,-1.889148314800063663e-02,1.695171582869703028e-02,2.402449697256088257e-01
2.406825135275705851e-01,4.095019140840155947e-02,2.714831098618948335e-01,-2.232440643490846491e-02,1.027784770889368995e-02,8.755984875139130943e-03,2.214398235082626343e-01
2.076151572000291545e-01,1.287066795456801027e-02,2.119440318177043536e-01,9.576274081460913173e-04,-1.829949969221510327e-03,5.606532259601196885e-04,1.969794929027557373e-01
2.044938697634448022e-01,1.467158422757408598e-02,2.033922823116136591e-01,4.502323225758929939e-05,-8.217292329154504823e-04,-4.349151371227723034e-04,1.892807632684707642e-01
1.927595798936040938e-01,-6.467214406226516610e-02,1.240660451030511230e-02,-6.603087261042844998e-03,4.918548017170379372e-02,1.611864083961927693e-02,2.460438609123229980e-01
1.315377460349747285e-01,-2.597246626477811571e-03,2.507389814794726002e-01,-3.943582248899631104e-02,1.815886758456577640e-02,6.882561249010979085e-03,2.323511987924575806e-01
1.332055979246668520e-01,4.486812934572478873e-02,3.548917148672335875e-01,-3.030543290780573010e-02,3.236737681894902990e-02,3.539624850900112852e-03,2.871710658073425293e-01
2.206208607885222495e-01,1.168640235976348141e-03,2.219464888661610569e-01,-8.853523599309752728e-04,4.470625605974172523e-04,-3.425956829393071550e-03,2.202046960592269897e-01
1.261739334015332392e-01,-2.237217245619430028e-02,2.255979644000745687e-01,-2.015353203387851636e-02,3.359895201138118209e-02,1.711946366480095530e-02,2.284830957651138306e-01
2.473578296702895196e-01,4.596756252386627328e-02,2.888731442115432535e-01,-1.684435840539990140e-02,1.990102652465083194e-02,8.866858673667954785e-03,2.300381660461425781e-01
2.258017560919039213e-01,-6.987778533693589367e-04,2.250845863118001167e-01,1.764377577325063106e-03,1.271684447232679415e-03,2.405961070013529126e-03,2.262125611305236816e-01
2.015787607295285999e-01,1.313531119888508569e-02,1.997481842707962973e-01,1.396495400296471573e-04,-9.211375593098390440e-04,5.563525370168686656e-04,1.875442862510681152e-01
2.077967583213827796e-01,1.511585889230890323e-02,2.164800377351759064e-01,1.215955725572489144e-03,-1.153532836576855614e-03,3.214413704831007527e-03,1.972659528255462646e-01
2.185702146179934746e-01,-5.216834513020324193e-03,2.219135667620276975e-01,1.770724499527980391e-03,4.123033812159863356e-04,2.393315374427555826e-03,2.255374044179916382e-01
2.200162627535883764e-01,-4.821445674040580887e-03,2.217078160456771030e-01,1.841034490182306060e-03,-2.336174454483755424e-04,2.644466567850084927e-03,2.257575988769531250e-01
2.127260506407311347e-01,4.200544261858063511e-03,2.134979379331226057e-01,1.208121460724159496e-03,2.681304759391796104e-04,3.239737795067952359e-03,2.089988589286804199e-01
2.253589496263850855e-01,-2.149627514450858090e-03,2.243651461332626940e-01,1.089214173181838984e-04,1.308296770637312019e-03,9.699572964170528194e-04,2.270309180021286011e-01
2.251319332940918128e-01,-1.314896844464563674e-03,2.246470948785254940e-01,1.587588478582884063e-03,1.873012140224206666e-03,2.570992922849556130e-03,2.262885868549346924e-01
2.166875658366771984e-01,1.144499846109736652e-02,2.179741610670132557e-01,-3.084357761624249589e-03,2.296127283574223368e-03,4.419839880014463269e-03,2.061387747526168823e-01
2.139047983437728784e-01,1.217769130085191720e-02,2.014624945161830882e-01,5.280558755323941714e-03,-7.721915046005759301e-04,1.340957932003750261e-03,1.960344910621643066e-01
2.051622664609211166e-01,3.717990394180886726e-03,2.115125060540193058e-01,-2.731318154162702943e-03,1.171079800522673757e-03,4.511210449384695127e-03,2.049070298671722412e-01
2.233617882251437425e-01,-3.938963737482592542e-04,2.223684721517511509e-01,-1.902398770319445624e-03,-1.047713935129387583e-03,2.587792155147554309e-03,2.233373522758483887e-01
2.192567552923340157e-01,-4.658996482026278585e-03,2.180758761508116150e-01,5.154612819311687761e-04,-1.398353522110938054e-04,7.571725808969435780e-04,2.233334183692932129e-01
2.131156097942277783e-01,1.979166516923036578e-03,2.168077614864883373e-01,-2.444020408582867065e-03,9.577132618625331870e-04,2.583626165820749384e-03,2.131020277738571167e-01
1.951542547612870049e-01,-3.261075480711472796e-03,2.043312092386379564e-01,-4.127648700076698256e-03,3.614913094196367267e-03,4.945637755746596503e-03,2.035617828369140625e-01
2.181935733650474663e-01,-1.102813010829789553e-03,2.202067531613552398e-01,-4.501255836788622456e-04,-1.134713490935566373e-03,2.885543226779528712e-03,2.203767001628875732e-01
2.215772771596782320e-01,-6.410410491224094454e-03,2.212676931863725716e-01,-2.349246037874163154e-03,3.899960637622302889e-04,-1.337344742528209784e-03,2.278821617364883423e-01
2.307758151680497360e-01,3.216825846318605020e-04,2.243617802676209361e-01,5.944806358124272170e-04,8.002213963486774512e-04,-2.404721275317663000e-04,2.273219376802444458e-01
2.276216489706672230e-01,-1.482375320185302936e-03,2.248428576103211340e-01,-6.030020357958440562e-05,8.275207320316370135e-04,-5.571217192775785188e-04,2.277339249849319458e-01
2.344015415002140001e-01,3.984369675063825778e-03,2.320860348691944908e-01,-1.553222156822959285e-03,-2.786081280419450612e-04,-9.972128419155036009e-04,2.292909920215606689e-01
2.180856208113956529e-01,2.966872952330501523e-04,2.206260739024307194e-01,-8.920163909077229994e-04,5.229000661021945438e-04,-1.817616367673268764e-03,2.191001474857330322e-01
2.070541745112730037e-01,5.097126361514492388e-03,2.088952464110618301e-01,-2.238806482635467485e-03,-5.675173229542014889e-04,-1.950116837555403724e-03,2.029513865709304810e-01
2.219018792702919241e-01,-4.753821480930647825e-03,2.222153686507670201e-01,-6.596041213352108086e-04,1.488515666638578041e-03,-6.797549934972309596e-04,2.268331944942474365e-01
2.089181747516725696e-01,-1.188946019033476631e-02,1.027346880342181190e-01,-1.383445736102717136e-02,-7.003203923290483857e-02,-1.100389859010273905e-02,2.285513430833816528e-01
3.011486453519730544e-01,3.082983707435733856e-02,1.296521792530589412e-01,-7.168464889463247239e-03,-8.118082409739049710e-02,-1.749297264517776437e-02,2.774305939674377441e-01
2.113609171518579521e-01,8.926966161383109721e-03,1.959901909730554226e-01,-4.278450263280710215e-03,-3.418269446734997340e-03,-1.019143812942160769e-03,1.954412758350372314e-01
2.212821873045078824e-01,-1.005516822641050467e-03,1.054379484040775944e-01,-1.060141948456588996e-02,-3.071821477866641670e-02,-4.422026412778196948e-03,2.007675766944885254e-01
2.102797804487316347e-01,3.443585012891881014e-03,2.122989269985924576e-01,-7.514911559858479008e-04,-3.951760599085601131e-04,-3.263267579642647933e-03,2.079351544380187988e-01
2.287451429830262839e-01,-4.578276953100465785e-03,1.212809696551625238e-01,-3.459036763332373841e-03,-9.047360825679567203e-03,-1.248802901116829144e-02,2.041170448064804077e-01
2.278198296679511126e-01,6.348775516820948095e-03,2.305438034523973057e-01,-3.993133677209222132e-03,2.781691268936583813e-04,-1.298655018113006225e-03,2.229647040367126465e-01
2.004232992854822482e-01,2.100949511201445630e-02,2.131248735490821611e-01,-1.320944340571385874e-03,-2.230449760081273762e-03,-3.244416701539560785e-03,1.862289458513259888e-01
2.131566005275473963e-01,1.424798649362524205e-02,2.109568389126709742e-01,-6.401500374242931855e-04,-1.937786272644956677e-03,-1.203708175188641320e-03,1.978604644536972046e-01
2.842120776531226189e-01,4.245405239645794193e-02,1.450425230985908087e-01,-2.217060956861406813e-03,2.516689417325871161e-02,6.574027292408520656e-03,2.149750441312789917e-01
1.964531076154408251e-01,1.662086977594123827e-02,2.100375228504361425e-01,3.604699727421798632e-04,-3.458448418185260977e-03,1.509796011604964050e-03,1.871101260185241699e-01
2.117303697392730055e-01,-3.695619264891258915e-03,2.148577077727794604e-01,1.181829099052119064e-03,-3.252928532058175495e-04,3.632337972416692113e-03,2.171081155538558960e-01
2.280867128345970274e-01,-1.954001233735652709e-03,2.235659852243597479e-01,-4.042483418827075379e-04,-7.446496865383290132e-04,1.739483812108473082e-04,2.278189212083816528e-01
2.260269206535662767e-01,3.310170805656126314e-03,2.312319065229095361e-01,-3.174455148036947789e-03,-2.039136032132664843e-04,-4.572145841810537625e-03,2.255707234144210815e-01
2.036623538694267987e-01,1.856475247595482103e-02,2.241371662570537659e-01,-1.130292305265968291e-03,-2.476658567042740525e-03,-6.258986950090947125e-03,1.964941173791885376e-01
1.663772481494226740e-01,1.421155201312451766e-02,2.376040033982031729e-01,8.496905756749021862e-03,-3.668315921766520001e-03,1.769927082837783206e-03,1.983236670494079590e-01
2.031261807647569695e-01,6.737488227454763168e-03,2.033540795651445354e-01,-1.363101121755505444e-03,7.330329699183584088e-04,-4.954036643589480090e-04,1.965228915214538574e-01
2.265752233779986524e-01,-2.277969825807701909e-02,1.819165945425962050e-01,-4.213372787916876659e-03,-8.342686414044607826e-03,-3.348010289536672290e-02,2.380362004041671753e-01
1.991250448210334367e-01,1.178890635132345821e-02,2.177975251371907506e-01,-1.162737443279006008e-03,-2.457113919424759336e-03,-4.698166795392303384e-03,1.975598782300949097e-01
2.067756490841273775e-01,1.001351130031843950e-02,2.030425809304591822e-01,-3.385844487018500448e-03,-4.646678337583075649e-03,-1.777723396978580367e-03,1.952009052038192749e-01
1.336620788317297859e-01,-1.739585309502617028e-02,2.039544090190748837e-01,2.076103710028255611e-02,-4.745194522337296134e-02,1.139114595972001188e-02,2.163680195808410645e-01
1.056151217655290075e-01,-2.352957436840830141e-02,2.315326251979031025e-01,3.750060924850013439e-02,-3.377729457893676596e-02,1.880386279754013568e-02,2.397863864898681641e-01
2.045495846437359044e-01,1.596850337578298307e-02,2.017841379585792183e-01,2.060950088916569181e-03,-3.424400921980742807e-03,1.975825739365959146e-03,1.873728781938552856e-01
9.232667500581390185e-02,-2.204999927282950967e-02,2.232226558341167677e-01,2.241616953140582180e-02,-1.005511509817244402e-02,5.192254554212284885e-03,2.169766724109649658e-01
1.964938699164972824e-01,4.214497333734779083e-02,2.989657330741104513e-01,-1.978733002689440912e-02,-8.267665529094898880e-02,-1.140781662866915264e-02,2.687225341796875000e-01
1.827173134872305815e-01,2.312249031096358376e-02,2.742554076252011197e-01,2.758863677452979418e-02,-1.630314413183598862e-02,2.799282260680360269e-03,2.270749211311340332e-01
1.970023102386064540e-01,9.202613322980210397e-03,1.927587239534439556e-01,-1.078922271117178222e-04,-4.552559859096766241e-03,2.215182573687793127e-04,1.858820915222167969e-01
1.504461386713489002e-01,1.648327104781385777e-02,2.809353255873403010e-01,4.263261320263339593e-02,-5.481725609345360073e-02,-3.913035988015070403e-03,2.587808668613433838e-01
9.859422626727455674e-02,-3.759147646188218395e-03,2.388265852054730076e-01,1.800033802700139185e-02,-2.666201812834292917e-02,1.389455702698206424e-03,2.181857079267501831e-01
2.184382998457073677e-01,7.308246196749829116e-03,2.153271141282558365e-01,2.591243105896800462e-03,4.009836417097233834e-04,7.583064929725297004e-04,2.096450924873352051e-01
1.319209216797799789e-01,4.581723465169385001e-03,2.267148167586245655e-01,-8.266841529292422424e-04,-9.729341521164070958e-04,2.171155794637760674e-03,1.931091994047164917e-01
2.049503124589669989e-01,1.213775935643710002e-02,2.104067533657917322e-01,1.068585311696228441e-03,-1.971846963837232437e-03,4.277991868011812686e-03,1.957767009735107422e-01
1.958126521001253284e-01,6.435825226587227332e-03,1.974824524126196912e-01,-4.597405216729652825e-04,-3.600485588610116434e-03,-1.826535797165070507e-03,1.903473883867263794e-01
2.267008494978598743e-01,8.867207585867259434e-03,2.310716082633280655e-01,-8.999655730819804914e-04,2.270411340928969908e-03,4.617883227368551756e-04,2.200936824083328247e-01
2.335553971052201916e-01,7.582477143393051566e-03,2.274451104852805994e-01,-4.706194671969813801e-04,-5.660106835691439261e-04,-4.497868380306690138e-03,2.231202721595764160e-01
2.229767663242350206e-01,-3.517445484772702136e-03,2.217825374294742913e-01,-2.289466790163659313e-03,1.068378170207815760e-03,-1.665066215434659463e-03,2.259602546691894531e-01
2.056720421321501791e-01,1.444861904562216859e-02,2.043699149545873395e-01,1.758635701507245234e-03,-7.882391365453644654e-04,1.104362117727235304e-03,1.906145215034484863e-01
2.152227920055290455e-01,-1.931310042211725753e-03,2.158064480098040860e-01,4.005356950005155119e-03,-2.771314532822641025e-03,4.924038058783594685e-03,2.177771627902984619e-01
2.246651345909558561e-01,-2.115954177222018062e-03,2.273977377296952374e-01,-8.641118112711411751e-04,1.693358302710541588e-03,-3.656584479978373286e-04,2.281842976808547974e-01
2.172787191968414133e-01,1.823297994424415147e-02,1.648442057125039939e-01,-1.291270216425314046e-03,-1.612772357354413238e-02,1.827523975359269214e-03,1.809061914682388306e-01
2.090950619403925126e-01,-2.384854273426717519e-04,2.067902616801507165e-01,8.745329910775890506e-04,-5.155054824750764705e-04,2.525036473604067022e-03,2.082440704107284546e-01
2.450924749562433114e-01,2.779996419291418108e-02,1.516983013151032567e-01,1.898199175918674042e-04,1.386328963270933023e-02,5.361609119229313741e-03,1.905454695224761963e-01
2.212629471451023067e-01,-5.532493337031346714e-03,2.228772314979343416e-01,-1.677911211172308835e-03,-7.093006929163915304e-04,-1.745026634082584615e-03,2.276488095521926880e-01
2.151068014614657686e-01,2.136335717135562362e-04,2.140680473024521024e-01,1.664047172920211232e-03,-4.442685119850523314e-04,4.823956898500020925e-04,2.143980562686920166e-01
2.117507481687113668e-01,2.540935391320608971e-03,2.122102012523311987e-01,1.497089171830889203e-03,-1.835898805837958732e-03,4.898646316195963933e-03,2.096518725156784058e-01
2.196359149363043273e-01,-1.624106605910391465e-03,2.194667578825998666e-01,9.447172693800986597e-05,-4.638807092220455501e-05,6.819319547984619605e-04,2.211787253618240356e-01
2.053755369676793785e-01,5.935715111503703234e-02,3.803959981792643386e-01,6.909096258673985691e-02,-4.337837960278446287e-02,1.555710545114094220e-02,3.133712410926818848e-01
2.243320069463748956e-01,-1.728048401833603975e-03,2.286536290352341461e-01,-1.007266635924855460e-03,1.134535435186967943e-03,8.995057463363157618e-05,2.282667309045791626e-01
2.232433421266815099e-01,-3.516783706847770308e-03,2.275515834034846363e-01,-3.267399334662921006e-04,8.494745150530291083e-05,3.505473676246929926e-04,2.289462089538574219e-01
2.229065509558639802e-01,-2.460050453849671470e-03,2.248410231072390797e-01,1.206927957337044274e-03,1.428166283772538915e-03,1.376178640868713169e-03,2.263757586479187012e-01
2.278466802047363904e-01,1.253104093504975314e-02,2.424995977226995780e-01,3.907191308246810851e-03,-1.174891026662736645e-03,2.501088722545049669e-03,2.231574356555938721e-01
2.201959666139836069e-01,-5.575366599827991099e-03,2.209582764298209656e-01,5.303210733824239914e-04,8.713139036125363288e-04,8.835927940946413815e-04,2.261655330657958984e-01
2.204238597041366932e-01,3.061318383094840945e-03,2.175515873518892862e-01,-4.596876156654311658e-03,1.105337536906388562e-03,-3.058294455672258202e-03,2.161608636379241943e-01
2.228518685161245128e-01,-2.598276257345183415e-03,2.227499215291095513e-01,-3.374137647851748086e-04,1.153386810817935097e-03,-1.136578765607480909e-03,2.254173904657363892e-01
2.187210577132338574e-01,-7.594072772050541875e-04,2.175541065849574129e-01,-7.433389712791444240e-04,1.066384742555393558e-03,-2.712695143648954487e-03,2.189613133668899536e-01
2.196472445163016873e-01,-6.352959745355074572e-03,2.205588541767264932e-01,-8.348867491159209491e-04,1.107012601672415983e-03,-8.105438172368957181e-04,2.264744639396667480e-01
2.233964136889272645e-01,-3.277125690036936101e-03,2.236471723562161729e-01,3.284645339652833844e-04,1.789172280484521791e-03,7.970219080220973702e-04,2.268251031637191772e-01
2.137723929093467978e-01,-9.787886126508604789e-03,2.129070538273192814e-01,-2.903562042222648278e-03,-1.037682328261730139e-03,-2.919330996556928053e-03,2.232500463724136353e-01
2.334945149953763233e-01,6.208244495000903029e-03,2.063772553891516925e-01,-3.390677242136332179e-03,-2.045129126903488716e-03,-5.504364455486936017e-04,2.151254564523696899e-01
2.132267428063357451e-01,-2.212604298251430457e-03,2.198988820612131634e-01,-5.363993463809978331e-03,-2.020993578893582384e-03,-5.423366251581841942e-03,2.192780822515487671e-01
2.154235017246101391e-01,1.497197677431189033e-02,1.756353585511007676e-01,-1.068752985325265243e-03,-6.737563406156560006e-03,-9.000608667969700822e-04,1.842019408941268921e-01
1.976517196438817014e-01,-6.028341188338448564e-03,2.208825228660644402e-01,-7.010100807730013095e-04,-2.082610460483321109e-03,-3.525079359724207859e-03,2.163530737161636353e-01
2.214254055552450362e-01,-6.163848942857819146e-04,2.209473318681074161e-01,-1.693222408537581889e-03,1.817183083180596789e-04,-9.578923439090339647e-04,2.218289524316787720e-01
1.793931449201664752e-01,9.492464812060064094e-03,1.947697192017324164e-01,-1.025255985730860742e-02,-2.161295430944071630e-02,-6.607310536793098606e-03,1.832016557455062866e-01
2.177660841988900420e-01,3.505047972792607602e-03,2.098927036431060822e-01,-4.783750874675020588e-03,-9.245594412815861781e-04,-1.517360889040728555e-03,2.106203883886337280e-01
2.055434397948163183e-01,1.192817231385701060e-03,2.197558319297179819e-01,-1.396379583372089027e-03,-9.270746586418200739e-04,-5.951176376779949116e-03,2.120852619409561157e-01
2.068806788318612033e-01,1.502591132738420598e-02,2.012376465165146289e-01,-1.350660155318396437e-03,-1.457733210656966165e-03,-1.136901218530213730e-03,1.891379803419113159e-01
2.042733320719802570e-01,1.269278547592386786e-02,2.146636008530459494e-01,-3.839935800633385160e-04,-1.763111868684294568e-03,-4.465179450044835276e-03,1.971578449010848999e-01
3.514164544009248381e-01,1.336410340885483550e-01,4.311288486583889634e-01,-5.698783848926301798e-02,1.701897529122499420e-02,1.132562290342616421e-02,2.865941226482391357e-01
2.284997664678842799e-01,1.881228977526350210e-03,2.298573906968672254e-01,1.741484702111206588e-03,-1.010035448594229744e-03,-2.098452654819927231e-03,2.273561954498291016e-01
2.062172247918171442e-01,7.572819147646708826e-03,2.130170080576906655e-01,-2.775654581540084546e-03,-1.527645881920998688e-03,-4.858090586646131651e-03,2.023795694112777710e-01
2.180589429117233413e-01,-1.107884402046538375e-03,2.126291697528577274e-01,-4.059978438318328359e-03,-3.581489902395342651e-05,-2.360361773873724707e-03,2.166557759046554565e-01
2.263089756271256525e-01,-1.442546430105301480e-03,2.234358952873244097e-01,-5.089539281079805827e-04,1.201443808081596168e-03,-5.298093027265917418e-04,2.263417989015579224e-01
2.210208442219740166e-01,2.781492508745950221e-02,2.346932856340299689e-01,-2.048659902396355453e-02,-4.451962050651042668e-02,-1.842807494498090518e-02,2.199566662311553955e-01
2.249624979869538910e-01,-2.496873201566496281e-03,2.233535053841171070e-01,1.766999368404115808e-03,9.536079311873214305e-05,-2.420946327056365706e-03,2.267186641693115234e-01
2.066351103843235282e-01,-5.643723591218618996e-03,2.230872512245337114e-01,-4.144107518633195590e-03,-7.133114467415129249e-04,-6.992082212397651058e-04,2.210880666971206665e-01
2.348830656802763373e-01,2.459247842481027124e-02,2.348500092688136087e-01,-3.396356109951747908e-03,-1.142890631129604446e-03,5.224351528761689289e-03,2.105601727962493896e-01
2.100266394606397635e-01,-3.853407036228134741e-03,2.140992913220888250e-01,-2.378709553418179891e-03,-6.984798502533635977e-04,-4.334104583505566863e-03,2.161182761192321777e-01
1.953436742558866124e-01,1.813643237908425798e-02,2.118982269245488492e-01,2.299245735015687745e-04,2.319386386023517509e-03,3.760806159529331803e-03,1.861955225467681885e-01
2.086661840665044454e-01,2.032917729894379022e-02,1.989659777448414268e-01,-4.746980049372076667e-04,1.222383951569589898e-03,1.523519600850131240e-04,1.836933344602584839e-01
2.232091208905060964e-01,2.010038806888575502e-03,2.272967091712345677e-01,-1.122231386732935182e-03,1.149558048404748702e-03,-1.798383264222330183e-03,2.233100086450576782e-01
2.308839332030508396e-01,7.091107497743553978e-03,2.273821572450370754e-01,-4.658524205472382531e-04,2.271393730923971978e-03,-7.620031853021373789e-04,2.221028804779052734e-01
2.302031202273374100e-01,1.173218024613181809e-02,2.405642215978836818e-01,-4.926306775746363935e-03,-1.630481731270198072e-03,-4.228305724969732594e-03,2.241314798593521118e-01
2.132590166827790235e-01,6.353485074670039978e-03,2.192316995758333831e-01,-8.219948886447107049e-04,-6.895551295692277502e-04,-4.382362306783515148e-03,2.101009786128997803e-01
2.320087006510672123e-01,3.060706167681337408e-03,2.263029107028752263e-01,-2.666554488245487676e-03,-9.133494574713562470e-05,1.013955844291888686e-04,2.261963784694671631e-01
1.896018243667921266e-01,2.534330060706131704e-02,2.211337387923170139e-01,-1.833617155107363861e-03,2.263885799360665710e-02,8.345682745753268267e-04,1.862907409667968750e-01
2.036891987742004417e-01,5.719468472679230253e-02,2.698348028960469991e-01,2.896509988335203411e-03,4.799866286892218170e-02,-5.017059936412833704e-04,2.060664743185043335e-01
2.313194958307709381e-01,1.029193525199323389e-02,1.792403916566727706e-01,-2.524646124562404410e-03,-7.273025049956245106e-04,-1.872511371293229115e-03,2.002141922712326050e-01
1.740762167598506327e-01,-9.226428544589243552e-03,2.203143261567497568e-01,8.753157217214140029e-03,-1.125476105858020737e-03,3.554552025852083380e-03,2.109145522117614746e-01
1.852222363473730593e-01,9.497885172113126884e-03,2.069894055059633420e-01,3.074500639774490739e-03,-4.470476830740942320e-03,6.192343268803714856e-03,1.880989819765090942e-01
2.105833768815263407e-01,-1.106972002548362033e-03,2.308042895049734200e-01,-4.537740283746022514e-03,7.878597902511518631e-04,-7.800057144112897394e-04,2.226381003856658936e-01
2.296498841238296673e-01,-2.205600438253962903e-04,2.242937275853109647e-01,8.505448942466986161e-05,-3.218326848478724540e-04,-2.553291797881554947e-04,2.272408753633499146e-01
2.103566854369285366e-01,-2.650634832220472026e-03,2.163834343214406097e-01,-1.834295907456729444e-03,1.097630340670309717e-03,3.702513458186978967e-03,2.162105888128280640e-01
2.006470980074452348e-01,3.695759968968839737e-02,2.451474943407224161e-01,-1.640545411835373987e-02,3.769461812276671264e-02,1.112440395477598890e-02,2.037157565355300903e-01
2.147351913934121281e-01,-4.414193475637262498e-04,2.193980582617003905e-01,1.426555365770432746e-03,8.404210081367917461e-04,3.871832001931292330e-03,2.176677584648132324e-01
2.173193023705388138e-01,9.816076527545486430e-03,2.219759689983738238e-01,1.365477772508082817e-03,-7.698089358922839990e-04,2.896429032501539064e-03,2.099478244781494141e-01
2.112197607556025036e-01,1.372480633245576342e-03,2.087356890114130947e-01,3.770491762894510965e-03,-9.813130814844710139e-04,3.463262998395804282e-05,2.087254673242568970e-01
2.142284947170650100e-01,8.669378392625631813e-03,2.084363019842526976e-01,4.654643622767603087e-03,-1.489079849841116457e-03,1.660092906197176057e-03,2.029221057891845703e-01
2.090150839001718164e-01,5.777356162857405497e-03,2.225554556676904716e-01,1.404897361396514931e-03,-1.420121728254493702e-03,5.126981594851070384e-03,2.105508446693420410e-01
2.250919015744164975e-01,1.054336810386191647e-03,2.139462830636586488e-01,4.108980320825728755e-03,-1.824335444668223746e-03,4.424511491923834895e-03,2.189506441354751587e-01
1.506809131333305407e-01,7.116286361172410868e-03,2.141998825905671033e-01,-9.552234733611868894e-04,2.206576431303850297e-02,3.474755629100545039e-03,1.877876222133636475e-01
2.184586648487481519e-01,-2.340114857203479115e-03,2.189894170765075698e-01,1.662183156225719230e-03,-2.747683666449643848e-04,8.099433659336192698e-04,2.210883498191833496e-01
1.865080973530507114e-01,-6.421308988860729983e-03,2.133482590223876318e-01,-7.827873354673810236e-03,5.960551784219495462e-03,7.441793472327539426e-03,2.087509483098983765e-01
2.058688927822345249e-01,1.107199128819708056e-02,2.139821769356857750e-01,-6.487999176688749071e-03,8.237483895383371918e-03,7.831753808385718066e-03,2.002647221088409424e-01
2.137620445505346023e-01,1.654763321117524999e-04,2.117721176639594249e-01,-1.583873685951925434e-03,8.093415721602663111e-04,3.945193218321488976e-03,2.127406746149063110e-01
2.259918970023466755e-01,-2.019110120237005424e-03,2.244970775078128367e-01,6.094536495541359906e-04,4.772963648172563115e-04,8.877904452866744586e-04,2.272764444351196289e-01
2.227793312683767346e-01,-3.951057778223354688e-03,2.232684956101297358e-01,4.533604859239561118e-04,1.167102235353099579e-03,8.610030402202616335e-04,2.269906252622604370e-01
2.160633031808235072e-01,-3.392307265372457303e-03,2.160557298791093150e-01,6.673933206984011693e-04,-3.346086611544090176e-04,3.623158889278338055e-03,2.195453345775604248e-01
1.870244428576752493e-01,1.163422744846226431e-02,2.085115719131112044e-01,-2.695660219875225996e-03,3.738887317696062366e-03,5.935212673197465261e-03,1.875139325857162476e-01
2.245938534497452232e-01,-1.477907441830655921e-03,2.290927886210152586e-01,7.340909513989612003e-04,-1.051998810013930665e-03,-5.034748117424715915e-04,2.283669412136077881e-01
1.824096041818042968e-01,1.270596700881172769e-02,2.008915265745704892e-01,-2.604113667361860566e-03,1.915301861583680598e-02,9.815025893054063217e-04,1.827596873044967651e-01
2.917265987368845015e-01,1.026231391677181193e-01,3.830012100958296584e-01,-5.392348347907007650e-02,-4.422711583089385112e-02,-1.459117043475181494e-02,2.767337560653686523e-01
2.056504617838103011e-01,2.504856236221680854e-03,2.179394954452397171e-01,-1.428251756595847778e-03,-9.677165421474035519e-04,-5.921111576431083157e-03,2.098326236009597778e-01
2.214226280791506962e-01,-3.288974544322170734e-03,1.972791046937560633e-01,3.161371211275377895e-03,-1.883873393206718155e-03,1.357468480607232093e-03,2.137733399868011475e-01
2.039892640577999072e-01,7.688872635886939699e-03,2.030193900901447746e-01,-1.117578097107853590e-03,-8.974740859701923297e-04,6.258027815644796486e-04,1.958359926939010620e-01
3.880194941588165358e-01,1.343298360957769499e-01,4.170988994537968009e-01,-3.654630110871931459e-02,-2.125396272980988044e-02,-1.623880940006935600e-02,2.805964946746826172e-01
2.232943195209102227e-01,1.958565183854080183e-02,2.362945917196537238e-01,6.744343262639488149e-03,3.188927598301441197e-03,-4.253674992757434242e-03,2.110349386930465698e-01
2.223321178352002936e-01,1.303382013478904256e-05,2.255334268664813402e-01,-1.079577207540081008e-03,-3.151410951914868650e-04,1.798147650046762885e-03,2.239670306444168091e-01
2.231579228982196184e-01,-3.671592674342916141e-03,2.241458241447288335e-01,-2.432709730654211960e-03,3.440721629622151283e-04,6.317936330549891403e-04,2.273675352334976196e-01
2.008757097023059768e-01,1.029732549438916456e-02,2.262245283361527248e-01,-1.558482628503104345e-02,-1.636521211587703070e-02,-1.212988611243723605e-02,2.092059850692749023e-01
2.417038330176610184e-01,3.650660761094831619e-02,2.511375318588143779e-01,5.046657147987821833e-04,-4.309204401337877609e-04,-1.760678531376600603e-03,2.100982815027236938e-01
1.377071458195950893e-01,1.018024496333012896e-02,2.307732049832500465e-01,-1.189412529104332764e-03,7.645560406732608777e-04,1.467467011959827520e-03,1.918470412492752075e-01
2.071727996697603769e-01,1.021597505497348624e-02,1.976262447038382442e-01,-4.328468104746926656e-03,2.274180386482135569e-03,1.011139932732422423e-03,1.925555914640426636e-01
2.222021024046508808e-01,1.189600133833124129e-03,2.283871362565251251e-01,-1.543993605546034337e-03,-6.324656689665106822e-04,2.431933103670673012e-03,2.242272198200225830e-01
2.498639460139491786e-01,2.412054138432098704e-02,2.354791210210303021e-01,8.225763057293533284e-03,8.173643026318906874e-04,-3.326978305502994830e-03,2.194491475820541382e-01
2.087050474426514479e-01,2.826330989786685066e-03,2.159418872351673846e-01,1.530334819011533887e-03,-1.730468497281932626e-03,4.945519415136863037e-03,2.098039835691452026e-01
3.239699021879707819e-01,7.074812497908777864e-02,2.318045523562381749e-01,-1.066805757380966113e-02,8.979637808820342681e-02,5.230764049428453244e-02,2.863866388797760010e-01
2.566950570479342164e-01,1.207633154650276652e-01,3.974838766600279349e-01,-4.806027518328662151e-02,4.037959616950712038e-02,1.505264749795676323e-02,2.644565105438232422e-01
2.655525070060523185e-01,5.182327796329416758e-02,2.788446772439416299e-01,7.836573675464801169e-05,2.165105151573541546e-03,1.325665633136750886e-03,2.207196056842803955e-01
2.304239912880945707e-01,-4.344068873649005458e-02,4.885634225778051620e-02,-6.508803850011126444e-04,5.142077811950488721e-03,-2.771218326247295791e-02,2.462279349565505981e-01
2.573047898689771462e-01,1.367122602628201289e-02,1.479110495756716659e-01,8.287960701840997244e-03,3.998371619177007973e-03,-2.593428275433883393e-02,2.166658937931060791e-01
1.631056282054835493e-01,5.839494277051762716e-02,3.711381554783081960e-01,-4.748138475516289203e-02,-2.404805276879464111e-03,-4.412610934710336011e-03,2.878615856170654297e-01
2.308817379637864153e-01,1.394099317023199391e-02,1.410279121481404496e-01,-4.473581530342628015e-04,-1.970177644721235206e-03,-4.585820520793640499e-05,1.888287365436553955e-01
1.991562440252005739e-01,1.450366992508014818e-02,2.219789711572224267e-01,1.509671827361179323e-03,-2.593910622552280613e-03,5.239617508942433569e-03,1.973350197076797485e-01
2.441719825167313340e-01,1.923943292479241007e-02,1.777900109451741595e-01,1.228921094354547402e-03,-1.721475846377906217e-03,-1.160869369980022103e-02,2.012149542570114136e-01
2.262508803049930184e-01,-1.563682864706444908e-02,9.115203136269477147e-02,-9.667841216654224010e-03,-4.633400369867687885e-02,-1.084417417395808214e-02,2.261776328086853027e-01
2.222883827755550712e-01,-3.673146540790206416e-03,2.215083864570576155e-01,3.820035930918131575e-06,-8.384045147692479032e-04,9.144555694097677078e-04,2.255827784538269043e-01
2.236935506731021761e-01,-1.319751613021918901e-03,2.259625159612455025e-01,5.099988781085846570e-04,-3.741909345957052362e-04,-4.719260801155548773e-04,2.261604517698287964e-01
2.412206602476272277e-01,-1.058680177756585183e-02,1.216015694911614792e-01,-2.156924646481894400e-02,-3.630599118518362117e-02,-2.811950309462354913e-02,2.351955324411392212e-01
1.947149942128855449e-01,1.947957973733963066e-02,2.427466680423378542e-01,-9.124312994684831771e-03,-2.127154223947142105e-03,-2.782127270332051898e-04,2.041933089494705200e-01
1.872177193110547699e-01,2.412914345724223586e-02,2.205393020178718633e-01,-8.120297734091364581e-04,-5.213943520105458231e-03,2.152953330112728804e-03,1.823184639215469360e-01
1.437047207800502269e-01,4.611595502084231413e-04,2.306476164133540174e-01,-9.327282664095324846e-03,-2.447132198825655459e-03,-3.216993666240093499e-03,2.020935416221618652e-01
1.608027446650459880e-01,9.401980535482995505e-03,2.385641879699915979e-01,-8.575077545850328872e-03,-6.306042450426384109e-03,-7.815344519132747317e-03,2.031386494636535645e-01
1.487001163798462311e-01,2.713364619387370613e-03,2.305521479643257710e-01,-8.617252419015534667e-03,-1.521992369505576750e-03,-2.422392293032015094e-03,2.005206346511840820e-01
1.695243486234512542e-01,2.517745026184151080e-02,2.708115446052232755e-01,-2.548348265988220965e-02,-2.660175652026396456e-02,8.840719537783179888e-04,2.231348156929016113e-01
2.263333459603720232e-01,5.162251763615455236e-04,2.273867071827815889e-01,1.023403604501672230e-03,-6.718285891597139273e-04,-4.836199532743888077e-04,2.263571172952651978e-01
1.886784982583990522e-01,-1.141255240471289456e-03,2.232693210302328923e-01,-6.901642362846891789e-03,-6.271744564890751467e-03,-4.789366054782655605e-03,2.100566625595092773e-01
1.724863205122083576e-01,-1.382145269194109960e-02,2.162073403228877977e-01,-1.208013180925825159e-02,3.752748323049413803e-03,-3.695478823765197961e-04,2.127160727977752686e-01
2.195112607722536913e-01,-4.023052562238949026e-03,2.076459397053887490e-01,-3.967588716919300158e-03,-2.122248598522878150e-03,-2.929064706215614954e-03,2.180425226688385010e-01
2.782661957677705633e-01,3.232422259769182626e-02,2.031451227316827535e-01,-7.468044246865874168e-03,2.323920469800497268e-02,2.193755796847124753e-02,2.255803048610687256e-01
1.869593983572336304e-01,1.260228495819254446e-02,2.320471670899503236e-01,2.374508493635321855e-03,-2.690906037333737951e-03,4.482338443100389487e-03,2.009815722703933716e-01
1.611363016861664943e-01,1.789107311319243498e-02,2.272708074394182431e-01,-2.334067568924837484e-05,-4.087732735001769688e-03,2.314882496809057312e-03,1.855603009462356567e-01
2.239729749978723872e-01,-3.773188342355901503e-02,1.217675808900303414e-01,8.744160989039738083e-03,-7.006249490103181113e-03,4.547129827915512984e-02,2.424196451902389526e-01
2.182934013857305011e-01,-2.833762975584130928e-03,2.211970150367344456e-01,1.761227949286092416e-03,-1.342993877495017737e-04,4.402067497628905923e-03,2.227447330951690674e-01
2.368665714918907206e-01,2.743930032101399297e-02,2.404310713337227956e-01,4.129428930991917331e-04,1.821107039075162354e-03,-1.482728111969898899e-04,2.112569957971572876e-01
2.283812435298489540e-01,-1.287549971690921113e-03,2.259149224764138153e-01,5.057242877834821964e-04,3.094299395048383770e-03,9.199021376651045790e-04,2.285157144069671631e-01
2.245297497475511606e-01,-2.813855127360181951e-03,2.238538872191625784e-01,5.405111979441279153e-04,2.393342207180518526e-03,1.276619525222520745e-03,2.270569652318954468e-01
2.298177563481824948e-01,-7.342595351178538010e-08,2.257456144721970426e-01,6.012482099167976764e-04,5.161496162709140008e-04,7.656490729045521606e-04,2.278170585632324219e-01
2.357904074304414954e-01,7.949137878038026184e-03,2.353388995371714087e-01,-6.301148249431662730e-04,-4.950833114399119488e-04,2.734123456416590481e-03,2.276693433523178101e-01
2.303426751719162002e-01,-6.522240998354800201e-04,2.248561486763588357e-01,-1.945297449311668078e-04,1.580086157998550301e-03,-1.935923384307019460e-04,2.283179908990859985e-01
2.231790009222127114e-01,-3.827456999691031259e-03,2.220548391117173614e-01,1.625381201516892761e-03,-3.342044805912583591e-04,-2.486021988924147583e-03,2.265056371688842773e-01
2.049945768774031896e-01,5.458402172029419575e-03,2.304116749123691354e-01,-1.238062731140793368e-03,-1.659018308329290219e-03,-6.031570622031896464e-03,2.136687636375427246e-01
2.043195175307729039e-01,-8.757531763496889665e-03,2.189274420366688623e-01,-4.514773917140003402e-03,3.609667711357138773e-04,6.882783055297125213e-06,2.208831757307052612e-01
2.279272118713699391e-01,9.106639967075835784e-04,2.258292640800190210e-01,-2.113509866894713093e-03,-2.867477195337319890e-03,2.304629582381569931e-03,2.260943353176116943e-01
2.260583310209772767e-01,7.207198569645911768e-04,2.308253800053865490e-01,5.375029832173491492e-04,-1.248066539102732223e-03,1.117593576672371040e-05,2.277707159519195557e-01
2.185756370393659997e-01,-1.389345245119633088e-03,2.240108629374240601e-01,-3.700147074915374670e-03,-3.233883977666730889e-04,4.169759303563430781e-03,2.229422330856323242e-01
2.067005950357627686e-01,1.732543865419378104e-03,2.181214886354107541e-01,-1.725680963351515799e-03,1.687139417681383013e-03,5.766649970656559897e-03,2.111882865428924561e-01
2.259551417191192346e-01,1.392029377892844977e-03,2.258716826535466515e-01,-6.076066384030179594e-04,-2.784221767334338349e-03,1.513484710322454121e-03,2.245909422636032104e-01
2.516723221238935659e-01,7.769914560865370801e-03,2.011891918623088249e-01,-9.928637297521745661e-03,5.444246937822729872e-03,1.849520121442416870e-02,2.261301428079605103e-01
1.988775740685888305e-01,-1.407976567717364458e-02,2.191239557098531576e-01,-1.545323420468145206e-02,5.554840900220840705e-03,8.980192921084480945e-03,2.261045575141906738e-01
2.239073484872690090e-01,-8.773256831181019955e-04,2.225103466485460202e-01,1.514613602628219185e-03,1.433792579783795115e-03,1.035371004334673019e-03,2.241257280111312866e-01
2.211175193358959346e-01,-3.398152079735539122e-03,2.204473857272923332e-01,6.236793599622329027e-04,4.715658976990655437e-04,1.100794166120442480e-04,2.241855263710021973e-01
2.640412067647118222e-01,3.932349660645545475e-02,3.948111612779076074e-01,-3.279504775327039823e-02,3.224036434541979051e-02,-1.235738825274036029e-02,3.221616744995117188e-01
2.299577734008168561e-01,5.063819244527922869e-04,2.236358192408980095e-01,4.393270210610711714e-04,3.754855781924199682e-05,-1.859377495787226922e-04,2.263581603765487671e-01
2.213923788023056671e-01,-1.673574704713659544e-03,2.215999504063724257e-01,5.142285688804308641e-04,-1.395015949464901766e-04,-1.104449956573486297e-07,2.231717258691787720e-01
2.210223592747943000e-01,-3.112058572214443375e-03,2.212016514018733671e-01,5.861216472254147502e-04,5.738003300091980979e-04,7.272559233609460824e-05,2.242286503314971924e-01
3.016585854494560071e-01,9.760024766848079958e-02,4.054793677952724940e-01,-5.506229096856866262e-02,3.328332285919770317e-02,9.837754755941268553e-03,2.937912642955780029e-01
1.188529615854098109e-01,-4.058441441126908744e-03,2.236718214648666103e-01,4.987262072975597905e-03,-5.695129369495145061e-02,-5.323385856398558762e-04,2.208697795867919922e-01
1.826223777247814317e-01,1.704570942641378539e-02,2.453762505479036848e-01,-1.637232667284697733e-03,-2.885626031105430808e-03,-3.908152106138239388e-04,2.043960392475128174e-01
1.998687908861500606e-01,1.067237467663822992e-03,2.258596668590996948e-01,-2.646782766439300348e-03,-4.115113090658809448e-04,2.670147782743283269e-03,2.130904048681259155e-01
1.708724638688563502e-01,7.118682536923826021e-03,2.223254056307554238e-01,-3.234548301435880447e-03,-3.403573817924319001e-03,-4.607797015502732192e-03,1.949824541807174683e-01
2.132205065283662715e-01,-2.085660070305730973e-02,1.583252511109455862e-01,-1.283247517574694421e-02,4.133289767512896007e-02,2.702589404372966395e-02,2.297091633081436157e-01
2.018173430295144288e-01,1.351821018344162573e-02,2.012414575765097968e-01,-1.546613049373331175e-04,1.029954439403209373e-03,2.804836015563688906e-04,1.880211383104324341e-01
2.213457369017597098e-01,-2.453958025135122289e-03,2.210707897850109072e-01,4.242738486530718838e-04,6.475991948688343981e-04,6.659661070493484844e-04,2.236693352460861206e-01
2.196748380822785562e-01,-1.659759836655561038e-03,2.193442367535787252e-01,8.145829430751724267e-04,-3.339192258241946296e-05,-3.799551054677785300e-05,2.211740016937255859e-01
2.343222845960653555e-01,3.448257714485480907e-02,2.385735404274753890e-01,2.501002188258494730e-03,1.564512114356724284e-03,1.346565689767554577e-03,2.020769715309143066e-01
2.273410786925848248e-01,1.878254163321535497e-02,2.338320525154282126e-01,-1.317319362301720047e-03,3.431938715803438920e-03,-1.624644094277763505e-03,2.119929343461990356e-01
2.211578475688471268e-01,1.575107091307384466e-02,2.184678199143220145e-01,-6.030834872559080219e-03,-1.027988233392547190e-01,-6.951481530552213080e-03,2.712996602058410645e-01
2.398584260733324647e-01,5.596947484334632850e-02,2.485567028745109264e-01,4.322903527028596176e-05,9.446416680563745130e-04,4.225666001361307218e-03,1.885379999876022339e-01
2.610777564328402023e-01,4.093452310823622597e-02,2.454767939354803308e-01,-1.331670940539164368e-04,1.515344095180964305e-03,-2.875013950445636738e-03,2.128467261791229248e-01
2.920009955852072570e-01,6.134995319733990704e-02,2.787668161556108304e-01,-2.557713727226312676e-03,-6.691206246043889796e-04,-6.116410094762106224e-03,2.246236205101013184e-01
2.343962708672196471e-01,2.772211557064122034e-02,2.412345969281985136e-01,-2.340691182636125186e-03,9.597060698281088473e-04,-4.137438492010833344e-03,2.103445529937744141e-01
2.255874997600791909e-01,4.818098999523290349e-03,2.323662381138934252e-01,5.859464897380224375e-04,9.251020002293790364e-04,-2.704339296941456064e-04,2.242441475391387939e-01
2.264457099582284361e-01,-9.374778589035237530e-04,2.244639783367902153e-01,-3.889481685697003164e-04,-1.290290821005536269e-03,9.996360634113752534e-04,2.264174818992614746e-01
2.088001780811228891e-01,1.347104271858506896e-02,2.002772894737284148e-01,4.740979184865998577e-03,3.555124720907801555e-03,-1.464954894167105242e-03,1.915022879838943481e-01
2.079054783294493891e-01,-4.368208772898007908e-03,2.224309538445942147e-01,-4.134310637964974666e-03,8.440331885921512284e-04,3.475636042368618860e-03,2.201002985239028931e-01
2.318621649847638355e-01,2.074638752139423836e-02,1.704762775221621285e-01,-9.853552642113973768e-04,-6.326516412926690147e-03,-4.225405378549647794e-04,1.884199827909469604e-01
2.316772900999827522e-01,7.042595325641998194e-04,2.227309387506208882e-01,5.018892091810725747e-04,-1.092756585905793783e-03,-6.891296477265562237e-04,2.266450375318527222e-01
2.217920065133090202e-01,-7.765077792235008936e-04,2.256009944544909163e-01,-3.396176608182461740e-03,4.812190725240251036e-04,1.669058484490549416e-03,2.245944440364837646e-01
2.272785379005229922e-01,4.397937751520475391e-04,2.250772290185287794e-01,-2.510674040487120666e-03,-3.748048609136652061e-03,2.063814949662650354e-03,2.259096056222915649e-01
2.013578400359490317e-01,-1.132091949608360348e-02,2.161373284268588435e-01,-5.097616968064774302e-03,3.516506845524851278e-04,2.338541679410418954e-03,2.206551730632781982e-01
2.277910440011157722e-01,-2.626137530132938158e-03,2.219941840695316138e-01,4.119098929182452191e-04,1.067329132648685546e-03,8.014286764639824299e-05,2.275827974081039429e-01
2.327525656641441787e-01,1.630795719458982829e-03,2.272528684377848884e-01,7.018758982561838691e-04,2.498619605689997823e-03,6.524394825777644165e-04,2.284686118364334106e-01
1.434807560056894638e-01,1.320053113398300670e-02,2.440803805220057021e-01,2.180965122107118848e-02,-4.739399870016395774e-03,3.225818718869951935e-03,2.042668610811233521e-01
1.560645610910009196e-01,1.830183628851267397e-02,2.388424221619693255e-01,-4.626186752058219533e-03,3.007856421967219571e-03,-6.805595676291192322e-04,1.932024359703063965e-01
2.344593820664697958e-01,3.347166714473398530e-02,2.395408624144558241e-01,6.413420122232190053e-04,-3.124475129336652321e-03,-1.824764084569263037e-03,2.036754935979843140e-01
1.581959716094865631e-01,1.776063232262126146e-02,2.387093878051354534e-01,-2.369583185533754406e-04,1.952618495704467423e-03,-5.081259446282140879e-04,1.937106251716613770e-01
1.516858953520141551e-01,-2.536378473276257317e-04,2.343324189947863234e-01,9.465287018240568090e-03,5.159979971196468167e-03,-1.567941818950981028e-03,2.069525867700576782e-01
1.546880698132855891e-01,1.244565707121711440e-02,2.471492462741918528e-01,9.618659271185299800e-03,-7.587452996222199958e-03,2.833922051274444763e-03,2.059325873851776123e-01
2.253725468338692584e-01,3.235579308933589360e-03,2.311260743109744276e-01,9.288539839990498769e-04,1.023453419309675212e-03,2.282228375065204016e-03,2.251163274049758911e-01
2.234122466361705417e-01,-4.769672227581761570e-03,2.214234766767798623e-01,2.447797196019453093e-03,-1.313047795005216681e-04,-3.789467827572201662e-04,2.272346764802932739e-01
2.434003508501974833e-01,1.620367899207195150e-02,1.813375451934971516e-01,1.062364785082181334e-04,-1.803034492704429898e-05,1.433688179341933685e-03,2.034105658531188965e-01
2.292614564749720918e-01,1.276489683896453453e-02,2.274025486477901370e-01,5.884497328688083513e-03,2.529439505653376997e-04,-6.022669666958208740e-03,2.160663306713104248e-01
9.478046969224149243e-02,-1.642603575975476460e-02,2.202138176538498970e-01,7.559298163044375629e-03,-6.262973792577216335e-03,2.813423527302835736e-03,2.058209478855133057e-01
2.070576842072167079e-01,7.214009924121772555e-03,2.293541377760091871e-01,6.468584358777530567e-03,2.026067624426942330e-03,-6.283139847264159958e-03,2.124775499105453491e-01
2.255166624459930269e-01,1.706999819669031970e-02,1.674513661125886232e-01,1.791999259849811005e-03,1.663292537295682147e-02,-6.130240290051845731e-03,1.888661086559295654e-01
2.054479040573064519e-01,2.620272036425314033e-03,2.262740449303848600e-01,-4.654100077758433146e-04,-1.496172305397394696e-03,9.831081502020720328e-04,2.140260636806488037e-01
2.347448996915712516e-01,7.681441048566106655e-03,2.296482676269488987e-01,9.344937032522229476e-04,-4.123240053824895300e-03,-4.006087187095049712e-03,2.247850149869918823e-01
2.319633609543794717e-01,1.275169733911110659e-02,2.346515949959052105e-01,-4.972636302422487557e-04,-3.357160544709743549e-03,8.497186800184728045e-04,2.206512838602066040e-01
1.842386843383007622e-01,1.152604785117530839e-02,2.154577047343547158e-01,4.159971592042572240e-03,-3.737796923550451653e-03,6.137458050631591951e-03,1.907957941293716431e-01
2.352025684239810177e-01,1.457394870490472116e-02,2.345938716417396985e-01,4.540188237460009678e-03,-6.437384022432495953e-03,-1.563691320277725864e-03,2.207635790109634399e-01
2.132893443729867999e-01,1.059094731328338868e-02,2.438635796545498557e-01,-3.853789426794025511e-04,-1.133127473459223265e-03,-1.950186729100697371e-03,2.196234911680221558e-01
1.813871941356789697e-01,2.198233570423141492e-02,2.297346922100024780e-01,6.693870374681862127e-03,-4.027356594173076704e-02,1.103300504660858702e-02,2.020388543605804443e-01
2.043504519115038331e-01,1.240570658055670239e-02,1.950534574169041635e-01,-2.201695316625573023e-03,2.252688557684577857e-03,5.774670700969541937e-04,1.875512599945068359e-01
3.616651094703360325e-02,-3.796490202093071031e-02,2.233613983804036418e-01,-1.678338271337172227e-02,-3.885798172405106454e-03,-7.777386779771014100e-03,2.355551272630691528e-01
2.754409221174838329e-01,6.609206716306698093e-02,3.061072326030014334e-01,-2.410553364304855381e-02,3.054215546860970451e-02,3.936107837119797587e-02,2.457171231508255005e-01
1.955414715494817046e-01,6.707877518203703149e-03,2.085740569186836368e-01,-1.871523264984701869e-03,3.314930114455030309e-03,5.011012978645671030e-03,1.959789991378784180e-01
1.645960631979567490e-01,3.754014114436973748e-03,2.109636463549977581e-01,5.312867507810473990e-03,-9.192951064318232585e-03,9.374752584216683796e-03,1.899469494819641113e-01
1.973523183748147614e-01,2.057784956525021691e-02,2.330218130086390005e-01,1.124832572265818675e-02,-9.913919689559829579e-03,8.327018964689089295e-03,1.992722600698471069e-01
1.629943928419419485e-01,1.204625329445391246e-02,2.204519422583041122e-01,3.402822854812607208e-03,-3.876417225815123602e-02,1.194989287170481786e-02,1.993262171745300293e-01
1.493392911866459338e-01,-8.017692309686047514e-03,2.201011193622999795e-01,-6.578830081750463091e-04,-2.757784751537313388e-03,2.291771069275005230e-04,2.023057043552398682e-01
1.579299218647405301e-01,8.984559500442357294e-03,2.294169824366996679e-01,4.345155167184600216e-03,-8.015356583887935787e-03,6.698771154841202426e-03,1.957722753286361694e-01
2.180410877434953432e-01,3.678070898025131985e-03,2.083898216342083554e-01,5.586592799310004069e-03,1.377991245121756511e-03,-1.052555136034283387e-03,2.099486291408538818e-01
2.238535756718675884e-01,-3.158935921052374862e-04,2.226698368510372505e-01,2.280509688675998615e-03,1.035933994946849467e-03,1.598260844865230079e-03,2.236391752958297729e-01
2.131893791233056834e-01,1.402841581573008312e-02,2.096237113486981718e-01,2.943878086455959612e-03,3.610505366734665387e-04,-9.462900013842346541e-04,1.974759250879287720e-01
2.032473225612664858e-01,1.952124528723203634e-03,2.256703829326552335e-01,9.777003109598058316e-04,-4.810518767160405036e-04,2.305414758859151286e-03,2.134378403425216675e-01
2.233676765058216773e-01,-2.580389760868329052e-03,2.223971785059663808e-01,2.053239521398171272e-03,8.414619613546949059e-04,1.027345575956662392e-03,2.255041599273681641e-01
1.354582940521766588e-01,8.431835163624085139e-03,2.333399814112941395e-01,-9.008444210807769461e-04,-2.182388617062137881e-03,8.577800826458643717e-04,1.953689903020858765e-01
1.841033963455553091e-01,6.845839381584173378e-03,2.261450895237719638e-01,2.333044223089022345e-03,3.269348929030625479e-03,-3.400288716879386157e-03,2.017994970083236694e-01
2.174310312790548316e-01,1.073593084944618470e-03,2.272763049052042295e-01,1.057670614238503948e-02,4.458715077852224047e-03,-1.016621799969767009e-02,2.230310887098312378e-01
2.212891327866723379e-01,-4.074841147825830623e-03,2.198421996947016455e-01,2.450155284878037694e-03,-2.045937814196772942e-04,1.117726260509896517e-03,2.246927022933959961e-01
2.226652706646964908e-01,-2.266292748301340643e-03,2.227757682455397126e-01,1.253232747059170125e-03,8.918044784050351524e-04,2.097769795461662719e-04,2.250028997659683228e-01
2.272452843251273058e-01,3.849781763397119860e-03,2.204492811844044331e-01,4.882656153276395024e-03,6.777970744315303317e-04,3.216114498804601308e-03,2.203122079372406006e-01
2.301148598899211417e-01,-2.723363843598891609e-04,2.196960497563023029e-01,4.548222097169755192e-04,2.147314741017864684e-03,-8.985188828876784989e-04,2.253959327936172485e-01
2.355615202690919396e-01,1.445163259481188622e-02,2.297586632402363604e-01,1.445137436109100856e-03,8.884531729538483859e-04,1.054771840290157255e-03,2.182937413454055786e-01
2.086004846506871457e-01,-2.549672317279788603e-03,2.295779870498823594e-01,1.149612090462549113e-02,-1.263470075928883538e-02,6.680655406958677447e-03,2.246399968862533569e-01
2.265061134214894079e-01,3.957565349818198408e-03,2.303281281948247883e-01,1.016792466900331461e-02,-3.184115413330195973e-03,4.533722806863416804e-03,2.253780961036682129e-01
1.801465197427983278e-01,1.088011963932530857e-02,2.418925126517549873e-01,2.369328637056588010e-03,6.034995145768110286e-04,4.315598604379129017e-04,2.072044759988784790e-01
1.991057992326391579e-01,1.799386486718662637e-02,2.385961638306232091e-01,2.571296859251973651e-03,8.125670301098783911e-04,-6.733652711646680731e-04,2.038047462701797485e-01
2.293157906412989222e-01,-1.494855909319914300e-03,2.238962498871364115e-01,4.281863883912853295e-04,-2.215926675040656680e-04,-3.354656038528945681e-04,2.281514257192611694e-01
2.475861791827912439e-01,2.723389598327163874e-02,1.984313784313184448e-01,1.889602060467318861e-03,-3.729812005067782450e-03,8.798564717060555068e-03,2.010588049888610840e-01
1.861134034856330166e-01,9.863279187801429759e-03,1.866518498365029588e-01,5.125062017825787394e-03,-3.539133375240190171e-02,2.690281581741259102e-04,1.870720535516738892e-01
1.859450751336950980e-01,-2.681002579388885865e-03,2.230846660651996105e-01,6.461157414271997274e-03,-2.183448752445482383e-03,6.781774116851896177e-03,2.103382050991058350e-01
2.473828622803478372e-01,3.907049114889617203e-02,1.816168972751433242e-01,2.870176108220999327e-03,-1.444361178155448636e-02,2.654083976599982096e-03,1.862553209066390991e-01
1.961769687681531871e-01,6.972117403242855671e-03,2.074925986201215655e-01,-4.991349544437742678e-04,2.423787967997490921e-03,3.629081788220108254e-03,1.952572017908096313e-01
2.308120002066516296e-01,1.250684275718616512e-03,2.248341550451501969e-01,7.170706373163827094e-04,-1.285268608388579533e-03,-4.105131397708449543e-04,2.266469746828079224e-01
3.755459061820378697e-01,1.058381560845232383e-01,3.350539047096004475e-01,-1.467159418890213313e-02,2.303767672696529697e-02,1.631208223122860082e-02,2.578702867031097412e-01
2.248604055512673228e-01,1.244732084179661635e-03,1.822080937965278591e-01,8.171665244439149309e-03,-3.324445662363831409e-03,8.924902021020360982e-03,2.067798525094985962e-01
2.238562260738400367e-01,3.134313632861537857e-02,2.919264252332679499e-01,-2.444341739321696100e-02,1.398963504609254151e-03,-4.164124215392891841e-03,2.380117177963256836e-01
2.281495118656880483e-01,-2.097675057853493064e-03,2.207882965961942001e-01,-8.095652691083224774e-04,-1.761474905604689615e-03,-5.785564083760343047e-04,2.266833335161209106e-01
4.068640978136496278e-01,1.433467658479467555e-01,3.308109271904449145e-01,-7.339342600883677452e-03,2.894634281388714508e-02,4.727358030650827270e-02,2.540940344333648682e-01
2.338268478110153703e-01,-2.281106336775651222e-02,1.342201486208574324e-01,3.835452948081725585e-03,-2.350732526720348756e-02,2.454669903111511217e-02,2.317999005317687988e-01
2.487375571509625738e-01,2.357140691676104516e-02,1.907479719247540118e-01,1.559543024485268454e-03,-2.844189638117734006e-03,9.806123827073260496e-03,2.032863497734069824e-01
2.358924353055311673e-01,7.934916007150571993e-03,2.277252513879098605e-01,-1.937967470569791108e-03,1.946569127364543815e-03,7.812365492611975451e-03,2.244444191455841064e-01
2.427477954565634977e-01,1.448556927517563597e-02,1.688528637626977025e-01,-6.898135693198762398e-04,5.605003757195089510e-03,3.527043900947766149e-03,2.020635455846786499e-01
2.267535246887829037e-01,5.343739899424077011e-03,2.342740689976506308e-01,-1.138476376162659209e-03,-1.313293407856224370e-03,1.782477174139558544e-04,2.252845615148544312e-01
2.104557240355237058e-01,7.314917062993753216e-03,2.234796053457678566e-01,-1.381382416630660970e-03,1.221064967068599683e-03,4.460694550275682083e-03,2.101223021745681763e-01
2.215256950020609017e-01,9.588708222351971511e-04,2.260197287340706129e-01,-1.346107272007693312e-03,-2.089225109974609282e-04,2.722455905022198169e-03,2.229101955890655518e-01
2.319714560166220019e-01,9.439139519201833473e-03,1.627396507795572933e-01,3.471042574398399208e-03,-4.085203601069459754e-03,3.884411140833158877e-03,1.975824832916259766e-01
2.237866292005386004e-01,5.342508389763717114e-03,1.397775273939400043e-01,3.910258175309375313e-03,-7.687358305278577629e-03,4.826491308502264994e-03,1.916170865297317505e-01
2.264863736797624316e-01,2.391627416797770245e-03,2.272843176501422313e-01,3.750018516557007166e-03,-2.953830662888733659e-03,-3.658780012273021940e-03,2.247363626956939697e-01
2.494199651553986041e-01,-5.600899047467355896e-03,1.484402443011056949e-01,-1.629196168928361390e-03,-5.079629999600572890e-03,2.728554834269904944e-02,2.275950014591217041e-01
2.207383058336339632e-01,-4.166052951279364258e-05,2.245110910784228753e-01,-8.700537605547741882e-04,-3.751604463420075497e-04,3.682293860220105328e-03,2.227876931428909302e-01
2.120173666115324207e-01,9.812714427788082894e-03,2.339454485192022370e-01,-2.377893721963435930e-03,-5.542037106076321646e-04,3.506442430728156073e-03,2.141408175230026245e-01
1.439953482538707807e-01,1.019072685690343427e-02,2.235073986457823403e-01,-1.377534419355664480e-03,5.264152747386867913e-03,-2.952044471823543121e-05,1.869592219591140747e-01
2.523125283237850902e-01,3.238585869224569480e-03,1.479816473997271620e-01,1.094074779755652843e-02,-2.763761007534091055e-02,9.496441033489034025e-03,2.232886403799057007e-01
2.173079335979377635e-01,1.406374216779784914e-02,2.064347080173067894e-01,5.315507023263599078e-03,7.101887810099920826e-04,-1.630996878023809049e-03,1.982694268226623535e-01
1.904920578770403494e-01,-1.432971878828792622e-03,2.162725980401075665e-01,4.966993369156924923e-03,-3.571206021195456361e-03,6.436531510310492324e-03,2.066019028425216675e-01
2.174734700006482058e-01,2.779617602054751391e-04,2.038760584340338355e-01,-5.641610760052657124e-03,1.856130713704940306e-03,1.372288649191756062e-03,2.109903991222381592e-01
2.636237524041405988e-01,2.869201072467578162e-02,2.705650801257781235e-01,-9.866836924263024111e-03,-1.201283592960815686e-03,2.338093662001076295e-02,2.425041049718856812e-01
2.042779320110294783e-01,1.316556155538116391e-02,1.936032048753897339e-01,5.277369555505969853e-04,2.421532975985525582e-03,-1.349590393252587299e-03,1.860690861940383911e-01
2.575482049740552837e-01,6.046581842505324711e-02,2.495516145741062675e-01,1.430930264373136192e-03,6.901516635928405322e-03,2.030010318140789381e-03,1.936254799365997314e-01
1.306088513561114994e-01,-9.106396665845173377e-03,2.499770434075778980e-01,2.669377598499315246e-02,-1.766124311118479442e-04,-6.306347296001988019e-03,2.295729666948318481e-01
1.529907248086024851e-01,-1.966516197343247396e-02,1.308712456705894145e-01,-1.107038861473234360e-02,8.801523302324082421e-02,9.823205064763930114e-03,2.244492322206497192e-01
2.501862276745578928e-01,5.354388048206032424e-02,2.433370285381936393e-01,1.686295262725575434e-04,9.144029434049266930e-04,-1.616202388840035217e-03,1.933357417583465576e-01
1.550911605501174018e-01,1.679192147331992624e-02,2.398178253671905957e-01,1.117376253194986464e-04,1.550887998211564331e-03,-1.201886924818956867e-04,1.950133740901947021e-01
2.516548073468520830e-01,5.587952725172715129e-02,2.435327944934186362e-01,4.410271759826070448e-03,5.230834707756195842e-04,1.915035946295448079e-03,1.920260787010192871e-01
1.382520115417510964e-01,1.499265484091696909e-03,2.165587505341898256e-01,-7.389253355150167879e-04,4.878851337298024601e-03,1.966220421191291340e-03,1.887500137090682983e-01
1.671277008573034406e-01,-1.353111146689367494e-02,1.875587435387007229e-01,7.675462140843327535e-03,1.964499488344561770e-02,-8.146261590297649430e-03,1.956519484519958496e-01
2.312837761713209539e-01,1.855879121294951029e-03,2.257038544503566224e-01,2.971254885066876013e-04,-3.103995442986221074e-03,-7.150045234658279625e-04,2.267571538686752319e-01
2.489718898952892057e-01,7.506568669354093948e-02,2.520468836009854274e-01,2.564437304896317535e-03,1.040861258389882320e-03,-5.214478690958278262e-04,1.755317002534866333e-01
2.234459379139986379e-01,8.387675738515398827e-04,2.253228073695132117e-01,1.246860655293196467e-03,2.006500151016754965e-04,1.539489492340611969e-04,2.235623747110366821e-01
2.100829991388412088e-01,3.154733143134696993e-02,2.582072449452399443e-01,2.358788424452472419e-03,4.327622272895674527e-03,-4.570595907803247718e-03,2.071674913167953491e-01
2.175402841380736363e-01,7.370696559342831966e-03,2.140062883673035654e-01,2.492262802271463535e-03,-3.591881672366403115e-04,-4.947542923684244195e-04,2.084724456071853638e-01
2.239697958661359678e-01,1.580853537798992958e-03,2.275202434480999292e-01,2.703009874900511554e-03,-1.995666307596356641e-04,-1.188804276336717734e-03,2.242438495159149170e-01
2.233298292179054512e-01,3.519281080737834966e-02,2.196569760661876425e-01,1.486036723110610927e-02,2.780930839446634287e-02,-1.818979964044561970e-02,1.967058628797531128e-01
1.040530149264315557e-01,-6.905225362087180629e-03,2.225667962138092593e-01,4.551876561016508262e-03,1.624945427818085333e-02,-2.206450947131568911e-03,2.009383589029312134e-01
8.678805758172308815e-02,-1.336410768292360662e-02,2.198612447911696965e-01,3.192633974132598473e-02,4.709549348210532310e-02,-1.417024223456805551e-02,2.266731411218643188e-01
2.055459904963955753e-01,-2.266389060835716229e-02,1.736775213503386206e-01,-2.643098488373162372e-02,3.253614953286539796e-02,3.415594548097385802e-02,2.336538732051849365e-01
2.504368233662376264e-01,2.509917421743967925e-02,2.408116020322421114e-01,9.505596658514364403e-03,-1.979958076464686991e-03,-2.686411789241028528e-03,2.213713079690933228e-01
2.773373616381232254e-01,6.209721369569376481e-02,2.560915895224040728e-01,-7.061075606735014651e-03,-2.204172136595576332e-03,-2.033069028292007387e-03,2.058720737695693970e-01
2.278441477791763869e-01,-1.043767494713077060e-04,2.253621447528347255e-01,6.692564291843989752e-04,-9.618870504448786629e-04,-5.982348203679493590e-04,2.267291694879531860e-01
2.400642241745031824e-01,-4.107096820835104412e-02,2.264047920414805071e-01,1.410937214853481142e-02,-2.594899602515575096e-03,1.345074730625157172e-02,2.766651809215545654e-01
2.299254399995597220e-01,1.892317545529259570e-02,2.281720723769647963e-01,2.275593607426875525e-02,3.117602963260357116e-02,-1.872489785777931015e-02,2.228817194700241089e-01
2.236225422204280444e-01,-2.205395676026650209e-03,2.242624982486439711e-01,1.006245722972763266e-03,-1.479117722768019108e-03,-9.637817370660409395e-04,2.261759787797927856e-01
3.590183737093460281e-01,8.160585367414069369e-02,2.859758135942919166e-01,1.751965383262956907e-02,2.893751912173343072e-02,-2.114595810999722603e-02,2.584654986858367920e-01
2.353003533565131145e-01,1.349846144631922096e-02,2.234689040279901340e-01,-1.043356101902357053e-03,-2.998379453565453660e-03,-1.146036837078614340e-03,2.162082344293594360e-01
3.068487583283170395e-01,5.888521851577530053e-02,2.780277443157209150e-01,9.144284409023159879e-03,-5.522138521152184995e-03,-1.436167363810488852e-02,2.369200587272644043e-01
2.407930526586987696e-01,4.208827054412966895e-02,2.416304807756874951e-01,-3.080229781554739629e-03,-1.637717305617868374e-03,3.915848579707157696e-03,1.993318945169448853e-01
2.309674760852788444e-01,-1.746730659663220386e-02,1.987265290368522563e-01,7.055677575486808163e-03,2.993340050981118782e-03,-2.550923874222564558e-02,2.384909689426422119e-01
2.394631792134233605e-01,1.821768832163156437e-02,2.405982501333644163e-01,-1.531301128948156672e-04,7.954198076301047292e-04,-1.071375246075899953e-03,2.218274027109146118e-01
3.579873784759806110e-01,9.696528747162211359e-02,2.490243782392819460e-01,-1.690795499009048464e-02,5.074004017427376223e-02,5.249190496359581320e-02,2.615553736686706543e-01
2.259411671738058014e-01,-6.809320108270011662e-04,2.243108519589503969e-01,7.102018968451001774e-04,-5.512948447725987949e-04,-9.170793822977724380e-04,2.258223146200180054e-01
2.277937578683154607e-01,-1.511995345204603103e-03,2.248288170750408765e-01,1.451631773696246495e-03,-1.566466543224566974e-03,-1.870959081815278891e-03,2.278908193111419678e-01
2.395161867755329910e-01,2.900265273175550718e-02,2.423257112557993809e-01,-5.135008928865578354e-04,-2.666792960273419236e-03,-3.404370908140594721e-03,2.120664566755294800e-01
1.462999377792089661e-01,-8.006686540779844874e-02,7.504756907205178962e-02,1.498226634123193783e-02,8.764404281107737726e-02,-3.061201928103619505e-02,2.582997977733612061e-01
2.395627961941049766e-01,3.875702420007612337e-02,2.663799813941183370e-01,2.959914109828494511e-02,8.665914716219844105e-02,-7.323326796217529203e-03,2.678540945053100586e-01
1.400230972377171645e-01,-2.745472095576181881e-02,2.077711987340690458e-01,2.650581775736573706e-02,6.429213160063411425e-02,-1.190841779814173600e-02,2.427312731742858887e-01
2.261500504522518384e-01,2.947376607513318980e-03,2.229456800932131388e-01,-3.173958700312810074e-03,2.755600729902637873e-03,5.016640565709208806e-03,2.219075858592987061e-01
2.212597567780873187e-01,7.160475858829132290e-03,1.459870161040458802e-01,-3.865032219698430038e-03,4.698340886854421999e-03,-3.806508927705779931e-03,1.885289251804351807e-01
2.220896362332439589e-01,-5.466806871866361495e-03,1.098386239932905017e-01,-2.172622707215892107e-03,2.310506854611053471e-02,9.862026450907143953e-04,2.011402398347854614e-01
2.064353399655783350e-01,1.418759521149451364e-02,2.173877268776549521e-01,-1.845504958637400562e-03,1.110826177082719019e-03,3.280505926910480628e-03,1.980679780244827271e-01
2.707639239674732856e-01,8.256044548479474221e-03,1.684700364169540165e-01,-1.651533526829706416e-02,1.031164670679931838e-01,2.443051452843330099e-02,2.950073182582855225e-01
1.548104918523681151e-01,1.987584370075068385e-02,2.370226268616619780e-01,2.454896176651024352e-03,-2.363502910795262958e-03,2.590205483085800142e-04,1.899855285882949829e-01
2.192141040649690509e-01,-6.914170958340154494e-03,2.210957291060199059e-01,-1.884880380384554169e-03,-1.882588995729545780e-04,2.497452828742335873e-03,2.271398305892944336e-01
2.358786907480951989e-01,3.362265052857404957e-02,2.351667932388776805e-01,-2.376387753295977449e-03,4.455898491531329331e-03,2.735386121176546469e-03,2.021459341049194336e-01
7.797347655240562114e-02,-5.106158291662610260e-02,1.234943589844021833e-01,-7.717996589726043360e-04,9.798981540981312188e-02,1.521362180607226935e-03,2.311076074838638306e-01
1.775063786344069916e-01,-3.551188852679466879e-02,8.414307673940267518e-02,-8.041178625076552539e-03,8.377107814039226608e-02,1.075267032795917781e-02,2.362181693315505981e-01
1.697999484930398095e-01,-4.143830088833268255e-02,1.085316782025939203e-01,2.891629978188771030e-03,8.263891071199597205e-02,-1.578883151600360066e-02,2.381044179201126099e-01
2.049205323327941697e-01,-3.883322257026727842e-03,1.538297254372734402e-01,7.250742896017769654e-03,1.621290576192339558e-02,-5.650709643829307863e-03,1.912679970264434814e-01
1.970300666317219562e-01,5.486071207876058731e-03,1.943209493292469559e-01,2.986344168994503005e-03,4.246014919364460641e-03,-8.970901513218306270e-04,1.904226392507553101e-01
2.513637847153837868e-01,1.909909572955428847e-02,1.696886699301344836e-01,-1.681441102374393176e-02,-4.595697391380738905e-02,-2.614872913179349181e-02,2.255726903676986694e-01
2.297136038225727483e-01,2.121241373402082964e-02,1.996305802237542670e-01,-6.239418346847359909e-03,-6.216789289479629846e-03,-5.633726210990436419e-03,1.960442364215850830e-01
2.180014253814410441e-01,-5.345598578947688417e-03,1.456083043055755866e-01,-5.614772848427411304e-03,-3.507089222088302302e-03,-9.279721905687078609e-03,1.983574628829956055e-01
3.058458337885328615e-01,6.327210211423153763e-02,2.553041933339226244e-01,1.718071334820177928e-03,7.918081576335500582e-03,5.543901095926793976e-02,2.419789135456085205e-01
2.337038410783010278e-01,3.640926065046318216e-03,2.259329968030417135e-01,8.324730330723002390e-04,-6.432078148214215134e-04,2.745825367565088124e-06,2.262849211692810059e-01
2.240608917238676168e-01,4.510595164307906746e-04,1.902927821764894278e-01,-6.651131413844482351e-03,-9.191947971852121790e-04,-6.113617416524295967e-03,2.093755900859832764e-01
1.926410008062900414e-01,-7.151034584607807165e-03,2.040832911547355022e-01,1.691998224603825669e-03,5.819198486206908320e-03,-5.789224358680228680e-03,2.062633931636810303e-01
1.892092303711668533e-01,1.515475570821420148e-02,2.318815959039799979e-01,2.286033396130977228e-03,3.262654359457459706e-03,-5.121430017940542881e-03,1.991720497608184814e-01
2.348757923132881453e-01,1.313141499289779968e-02,1.824107801062266887e-01,-4.371198278627129799e-03,-2.906466731575985465e-03,-1.515210202794574877e-03,2.009449601173400879e-01
2.234593380270046836e-01,-5.699714946727996168e-03,2.031725264715396606e-01,-7.366911214202942135e-04,-1.002604977984863054e-03,-6.325107340625806158e-03,2.200026959180831909e-01
2.923671777446197884e-01,7.580093862355929968e-02,3.146649572634905301e-01,-1.485927156031360830e-02,5.425383961568009013e-03,2.026171252058111584e-03,2.301957607269287109e-01
2.843041922944150590e-01,7.696494337058229496e-02,3.530666330882122339e-01,-1.933316246261420832e-02,-5.219550666501075568e-03,-3.985690294156713810e-03,2.514472007751464844e-01
3.009053294733201045e-01,6.177557340036796130e-02,3.566047419471571334e-01,-4.511510785316468625e-02,-2.339074802634965797e-02,-1.797641581475942696e-03,2.852403223514556885e-01
2.128810286160782717e-01,8.897874924054749446e-03,2.275196432784812317e-01,1.544499022709474017e-03,1.204455307169981400e-03,-2.099650040967231557e-03,2.117408365011215210e-01
2.171317047955908797e-01,1.318732268169345301e-02,2.371298908449977483e-01,1.532488158374091872e-03,1.179304245426213149e-03,-3.677489512815941119e-03,2.147639244794845581e-01
1.904804388260210313e-01,-3.917185982129395283e-03,2.139455186056082869e-01,1.468078974908972392e-03,3.182224787589829282e-03,-6.211866113590167569e-03,2.074974924325942993e-01
2.907544322276605642e-01,6.540191045094170819e-02,2.957295853614829717e-01,-8.553252937740771222e-03,7.731647683186226687e-03,1.238893126031865091e-02,2.297584414482116699e-01
2.220534891729577520e-01,3.084988275801253677e-03,2.216431893034330192e-01,-3.648342378684223033e-04,8.082637199722651116e-04,9.693994117480991780e-04,2.187754809856414795e-01
2.602119586978627885e-01,5.948603457261369964e-02,2.642491253434074983e-01,-1.508293801454572590e-03,1.562601194777556331e-03,1.126532739355794220e-03,2.028189301490783691e-01
2.237252942924077004e-01,-3.068596245923566057e-03,2.225608973655885947e-01,-5.959013664705767842e-04,-1.206718685166179722e-03,6.902449137259524447e-04,2.262291014194488525e-01
3.950663334474288635e-01,8.666878724890839103e-02,3.341866773998699580e-01,-1.742704140043075181e-02,4.379553656371607678e-02,2.303974862742009383e-02,2.971497774124145508e-01
1.953246166352632929e-01,3.929926260764254886e-02,2.681595344372407208e-01,-8.888397531581033670e-03,3.187085753251071157e-02,9.787121330961432927e-03,2.111505568027496338e-01
1.145257617214604229e-01,-3.800564143259801964e-02,1.876120304302149044e-01,-1.569480996471271650e-02,8.236108617230929185e-02,1.179858433063462123e-02,2.475116699934005737e-01
2.566969205012907262e-01,3.716752308615070555e-02,2.524043668103214677e-01,4.219223119386062912e-03,4.202247918037886262e-03,1.644811917239630966e-02,2.195159345865249634e-01
2.259834665314462421e-01,6.055068606761510042e-02,2.578949610553651350e-01,-2.141343345033712431e-02,5.572321053025134502e-02,7.309699194070914952e-03,2.109897732734680176e-01
1.780121215834961912e-01,-8.829546435814628058e-03,2.061666026121638517e-01,-9.246785487474245419e-03,1.670894405024453064e-02,9.061223287680294711e-03,2.056776732206344604e-01
2.126608809968990044e-01,-5.861180969913198924e-03,2.147395277369467670e-01,-1.293073979516234017e-03,5.608816710000599304e-04,3.739790116094044315e-03,2.196778506040573120e-01
2.415737283830655113e-01,1.177700776158160934e-02,2.121849383327343852e-01,3.376031949470183723e-03,-1.795035074084699476e-03,2.503133971335303257e-03,2.167474180459976196e-01
2.012974781719708006e-01,1.333167779319069379e-02,2.410065515463025720e-01,-2.168097947919534960e-02,3.804980089064186749e-02,1.592540220142173515e-02,2.255799472332000732e-01
9.965818864144923572e-02,-1.299975164473228528e-02,1.965651651441640557e-01,-3.862423276535678716e-03,4.674941939122044532e-02,4.144005395670022004e-03,1.991303861141204834e-01
1.975254501212374836e-01,1.177742124107356014e-02,2.174351759252495242e-01,-1.648135387285047790e-03,3.166978504364122930e-03,5.945741119302240876e-03,1.968278735876083374e-01
2.118660138777963553e-01,4.437852136130279734e-03,1.516059999498484967e-01,2.543018783217975906e-03,-1.806877119032417739e-02,6.611934707847845309e-03,1.878512203693389893e-01
2.029678595778848238e-01,6.396350504006026449e-03,1.989640067501541876e-01,-2.903145300289927244e-03,3.910301325210951626e-03,1.375502477955662045e-03,1.947977840900421143e-01
2.215374137620818584e-01,-1.968726081479799106e-03,2.249508006581830977e-01,2.259365190727669927e-03,6.903479552985956631e-04,2.062600390855389657e-03,2.252977192401885986e-01
1.584144215493752395e-01,1.620439671204110255e-02,1.962367445127800036e-01,-5.276094718742914413e-03,5.899537695081600447e-02,9.540396479892986059e-03,1.945015788078308105e-01
2.244817555387166597e-01,-1.743309451594565740e-03,2.268694444540573230e-01,7.659008332594046406e-04,1.480376393081936186e-03,3.673027969659999363e-04,2.274475246667861938e-01
2.233096585585620519e-01,-3.318211291984507483e-03,2.253870944655734232e-01,6.516399733466195308e-04,1.792360433438597517e-03,8.385590022488143133e-04,2.277022898197174072e-01
2.243321727084112982e-01,-1.375059275654927360e-03,2.255421426554627962e-01,1.203803621102538792e-03,1.182216008336615292e-03,4.311950157571201579e-04,2.263347357511520386e-01
1.954440744149606168e-01,5.044742874488861162e-03,2.054145244897689904e-01,1.711097858756027625e-03,1.967349470285306105e-03,-2.747901841629105894e-03,1.956852823495864868e-01
2.028409791402268625e-01,-9.202018785003929224e-04,2.001236355122887334e-01,3.048038813284081883e-03,2.966214878540293035e-03,-1.199363149447597258e-03,2.025608420372009277e-01
2.466314735270744296e-01,1.362136668067129297e-02,1.581191435775181064e-01,1.174289451682766539e-04,-2.995568995181396377e-04,8.720466910308937239e-03,2.042849063873291016e-01
2.057291753039195981e-01,7.657346218207405908e-03,2.122822963990052547e-01,1.421509145418791038e-02,-1.816664952704206276e-02,9.360980926070502917e-03,2.059916406869888306e-01
2.651245722241779568e-01,1.670557793712321160e-02,1.910067489857663059e-01,7.680169683288873977e-04,-1.051523536634828108e-02,2.650065340565780150e-02,2.263482064008712769e-01
1.784738689231638586e-01,1.130643003227128907e-02,2.122305140117592970e-01,1.044348669456540398e-03,5.291907147634019801e-03,-2.075849545160182025e-03,1.866217702627182007e-01
2.050982637100467465e-01,1.993189263053382621e-02,2.015670363891301498e-01,1.351130643516997151e-03,3.352512475920238749e-03,1.068009908399165540e-03,1.835423856973648071e-01
2.667766745241727522e-01,2.083345001635389382e-02,1.574272835458500885e-01,2.740990466698700525e-03,6.418146043145176241e-03,1.514896347393380853e-02,2.153745740652084351e-01
2.071594175939653892e-01,4.104259745699806450e-03,1.932655213244480752e-01,5.208694777833406016e-03,4.263136836059814964e-03,-1.485288545651796289e-03,1.968393772840499878e-01
2.142862971921893900e-01,5.609605523686223005e-04,2.141679012420474593e-01,-1.536999334655380712e-03,-3.965301812669698857e-04,-3.693026464450114622e-04,2.136848121881484985e-01
2.313763058710077425e-01,1.968392519003053787e-02,1.628317121511686227e-01,-1.644176864213313231e-04,5.876758659228265014e-03,8.133786098247964723e-04,1.873695105314254761e-01
2.200396976824898487e-01,-3.992497105863801465e-03,2.184325596978066719e-01,-1.523738520806941802e-03,-2.876243426618298421e-04,1.260547851424690833e-03,2.232597917318344116e-01
2.245367442834294014e-01,3.678983637034394238e-03,2.269676850034135773e-01,2.390073104753031707e-03,-5.333744979277746205e-04,-3.907427280104159260e-03,2.222267985343933105e-01
2.206792868147067488e-01,-3.515188233898403070e-03,2.209245040512914371e-01,-4.891167646396159989e-04,-3.739128734539424277e-04,1.560446996718343441e-04,2.243198752403259277e-01
2.212959762162393651e-01,-3.529857121732260516e-03,2.209567373849985195e-01,-1.229998803350624897e-04,-5.143123762860659504e-04,4.620876903500599638e-04,2.246596962213516235e-01
2.241676075252511113e-01,-2.651726501180701190e-03,2.234925538602550998e-01,7.967096380797155210e-04,-2.510449431206057073e-03,-7.572527621646379676e-04,2.265322953462600708e-01
1.920328611701487276e-01,-1.212194554213963382e-02,2.176900186114156255e-01,1.641607140706221463e-02,9.518041111227270104e-03,-9.273416916166751442e-03,2.211645096540451050e-01
2.142865581117581464e-01,3.540979384083042802e-03,2.045303955893645331e-01,4.790960050436365511e-03,4.273570083804068367e-04,-2.565628788839389128e-03,2.062570452690124512e-01
2.221347875031587371e-01,-8.504656288713108303e-04,2.214392693254391142e-01,4.574168756398525750e-07,3.754434000384414901e-04,7.905937567379659348e-04,2.226434648036956787e-01
2.195947969228644325e-01,-3.710152517116399595e-03,2.182877549452635346e-01,-1.279790636551588184e-03,-2.870275543646684567e-04,1.738494297934796125e-03,2.226862609386444092e-01
2.216871951514524652e-01,-2.771728288814695462e-03,2.212306090101105460e-01,-3.628384824618906810e-04,-1.037284819099150294e-04,2.583470852424122753e-04,2.242323756217956543e-01
2.430280525437274741e-01,4.630941412817368708e-02,2.408989077065205597e-01,2.596744290315604678e-03,1.362088405922703017e-03,-4.764843382907716978e-04,1.957304030656814575e-01
2.485779454152381995e-01,4.729339757773803887e-02,2.489464141314402523e-01,6.207908740151570938e-03,-5.684072558385261723e-03,3.920859108267960090e-04,2.019969671964645386e-01
2.557315756740510815e-01,3.756640915719450247e-02,2.441411836179854800e-01,5.912543528330952911e-03,-4.172809005383559464e-03,3.043022839826971682e-03,2.130414247512817383e-01
2.522480856682812744e-01,4.899400096622774647e-02,2.487868251586342061e-01,3.903830480910627787e-03,-3.650269986234965913e-03,-4.183772979666860320e-03,2.018883228302001953e-01
2.112083721932016545e-01,1.004920711581017145e-02,2.506825409549420791e-01,1.722196854927125764e-02,1.175210844566395001e-03,2.801100963873884298e-03,2.255688011646270752e-01
2.161036670842149121e-01,-2.839445826578940180e-03,2.133496947931134979e-01,-5.991558982097964494e-04,7.155853815376124038e-04,2.126970027834675699e-03,2.176163941621780396e-01
2.210745174597246177e-01,-4.920695429328963977e-03,2.198502082652251111e-01,-1.758468676916120389e-04,-4.487798293181381498e-04,1.274646249432972913e-03,2.253979146480560303e-01
2.159122485517301904e-01,-5.468873228722803681e-05,2.157809337856318455e-01,-2.795483801151593065e-03,1.291263804277222906e-03,2.682825675010750647e-03,2.160171568393707275e-01
2.078210744121156139e-01,4.441502125958757263e-03,2.178981563857188553e-01,-1.572520874116714335e-03,2.575752666974867860e-03,3.311019605180050718e-03,2.087450176477432251e-01
2.174293658012108055e-01,1.307932294711794396e-03,2.216210395319994642e-01,-1.286348380166427077e-03,5.579653505016584063e-04,2.079508978413244832e-03,2.182906866073608398e-01
2.225934781735174617e-01,-3.986184818699278765e-03,2.220855826191129867e-01,-9.509406495336321201e-04,-1.491642512057315658e-03,6.859873821082655915e-04,2.263499945402145386e-01
2.241448678657573246e-01,-1.714357626955348435e-03,2.258024261509347652e-01,-1.014027086106380083e-03,-1.074203503096172714e-03,4.048989989703506801e-05,2.267069965600967407e-01
2.159306701482774093e-01,-3.037693353888176739e-03,2.186813289573484864e-01,-2.746740829000425717e-03,5.737793436558449476e-04,3.062900401707180018e-03,2.204739898443222046e-01
2.191472635598258889e-01,-3.593379683463654439e-03,2.203862987188839606e-01,-1.098634687194906040e-03,-6.150353817981092912e-04,1.160734722093407058e-03,2.233824282884597778e-01
2.237388324315136845e-01,-4.733585615319391149e-04,2.250726923430471094e-01,-2.486002238948476634e-03,-1.671403546800689704e-03,1.240904113961214953e-03,2.249522060155868530e-01
2.101476390270684835e-01,2.986775077120917832e-03,2.121341882618457131e-01,-1.260585501478949559e-03,8.885357994731214694e-04,3.556992946156227291e-03,2.082695364952087402e-01
2.066799283360359896e-01,-3.815032976653143226e-04,2.087240922208906946e-01,-2.490646086250658964e-03,4.012871109284470465e-04,2.437343544139966664e-04,2.081373482942581177e-01
2.046903930934581006e-01,2.354355530252180695e-02,2.192872233712615526e-01,-6.186262209216359179e-03,9.714009741348728078e-03,5.599001346255073376e-03,1.901666522026062012e-01
2.123446459142969700e-01,2.324027215221569076e-03,2.112551905386433060e-01,-4.953952084529264846e-03,1.743343201456046135e-03,9.195634581025708288e-04,2.096814662218093872e-01
2.030733931024316374e-01,1.839090455127451174e-03,2.041888140525331408e-01,-3.403072127537147551e-03,5.545814104552000343e-03,5.015351757626072479e-03,2.022953778505325317e-01
2.038288227872813163e-01,1.500692621334764887e-02,2.041209473315899192e-01,-2.053522445664040727e-03,6.719190215948418754e-03,9.392341902598694368e-04,1.893665641546249390e-01
2.023602342265282961e-01,9.785158269426219579e-03,2.089224727629792611e-01,-1.680877483865737083e-03,2.226028647582878502e-03,4.794973306951943147e-03,1.961740702390670776e-01
2.032015889250252672e-01,2.524463835271495427e-03,2.057093350025982759e-01,-1.921678384889020626e-03,2.158246033755744676e-03,3.758675514631079021e-03,2.021095752716064453e-01
2.022504688191747446e-01,5.734140485484096050e-03,2.016822574401296309e-01,-7.521297523359823933e-04,9.018170297475323069e-04,1.866293470778835608e-03,1.962700039148330688e-01
2.012005206388777778e-01,9.129004727462711188e-03,1.750265621934689597e-01,-3.360489272804341541e-03,6.803199400045363381e-03,2.384613719716758683e-03,1.809393763542175293e-01
2.032522741389262144e-01,8.770756815223906822e-03,2.078196352246549916e-01,-1.726767631118794090e-03,1.098722789579383756e-03,3.548647750685832332e-03,1.969328224658966064e-01
2.229431157695724586e-01,-2.488151302489305383e-03,2.242841926306750888e-01,7.560809982899539686e-04,-1.870058727789700431e-03,-4.007937665492561819e-04,2.261328399181365967e-01
2.014758100548328101e-01,1.501661884548126380e-02,2.027903896849738152e-01,-1.154971490920390302e-04,9.079645094469092825e-04,1.857389729884855335e-04,1.871269345283508301e-01
2.279447014184117770e-01,4.972257072456881533e-03,2.316588981619914778e-01,1.876860877978318897e-03,-2.970418675389573972e-03,-3.941317818165628734e-03,2.250384688377380371e-01
1.970929543097302838e-01,1.881580402733097623e-02,2.094774115120437430e-01,6.010872199939046442e-04,2.657798392792358813e-03,1.534963280602974749e-03,1.848602890968322754e-01
2.319954785788052032e-01,1.157191397566997848e-02,2.359466018348050365e-01,5.708622607433192940e-04,-2.980217616924164380e-03,1.018299629053246195e-03,2.224945276975631714e-01
2.034596560186361369e-01,1.769908331887616593e-02,2.067300333025371417e-01,3.740249028011258313e-04,1.202815922208859715e-03,-1.682282187457352163e-03,1.874525099992752075e-01
1.956732276045323737e-01,1.820968659698211922e-02,2.109316355385836284e-01,1.659978958684619641e-03,2.269787711651234576e-03,-2.142263474851683735e-03,1.856648325920104980e-01
1.914649852610683933e-01,1.191041453079905166e-02,2.051242733834801601e-01,1.288128472022279048e-03,2.692386608743609945e-03,-6.852753706502446012e-04,1.868345290422439575e-01
2.593222432906788222e-01,3.558771212679481821e-02,2.320712439810707628e-01,1.033364617333016634e-02,1.411280180564566077e-02,-1.497512288542152473e-02,2.151589989662170410e-01
1.925749194886598736e-01,5.140711801640163170e-03,1.915157814979718265e-01,3.039220198900076993e-03,9.779021013175815194e-03,-2.978591767918081605e-03,1.878174692392349243e-01
2.106602790557909610e-01,1.507143654577325353e-02,2.137065016625835923e-01,1.107665489903593035e-03,4.590990820076855036e-04,-2.846971937074906610e-03,1.972022056579589844e-01
2.258545802582472839e-01,2.190791962125709924e-03,2.263598892552547703e-01,1.193101658093733168e-03,-2.766313139761707261e-03,-5.229285480829774183e-04,2.239794880151748657e-01
2.229629230593671574e-01,-1.074921624123065245e-03,2.233425504767342917e-01,1.422473869581464018e-04,-1.176830609871280233e-03,3.929438516129702829e-05,2.242373079061508179e-01
2.049228868379519286e-01,3.620054776092757054e-03,2.063397655589435109e-01,1.723378967768298461e-03,-1.886327076652436494e-03,3.403228500736116963e-03,2.021494209766387939e-01
1.997512384597440460e-01,1.091414394998263537e-02,2.124243160595345459e-01,1.898693621252509631e-03,1.279014052831303327e-03,-4.272143766478647860e-03,1.956621557474136353e-01
2.103413093981876536e-01,7.373442826917098181e-03,2.096431142996832420e-01,2.462957664412491598e-03,-5.185715074901856231e-04,9.634140095752936851e-04,2.026734352111816406e-01
2.134308559511073067e-01,5.734484142833007336e-03,2.170886210067591859e-01,6.690325624971934235e-04,-2.667187090937747900e-04,-2.147710743249986887e-03,2.095859199762344360e-01
2.218427449976579924e-01,-1.114616334349755045e-03,2.236722231545323902e-01,3.328107822075128744e-03,-7.144720437526536939e-04,-3.089962482419498797e-03,2.240192592144012451e-01
2.091217100994244293e-01,1.144642084418195926e-03,2.107145059797473352e-01,1.109944840613955475e-03,7.434507409984047717e-04,-3.263798941303428479e-03,2.088673561811447144e-01
2.195049147752508589e-01,4.337101941877807842e-03,2.170824589111363112e-01,2.965143845158514733e-03,1.809111119945785583e-04,1.278096439540411062e-03,2.140401750802993774e-01
2.129361274855156028e-01,-2.431264301379520987e-03,2.165784078542952462e-01,1.521868026947150896e-03,-6.921296910885544251e-04,2.943481264843872056e-03,2.172905504703521729e-01
2.149718389023787535e-01,7.292395776581750422e-03,2.174098896684252269e-01,9.138797593708799074e-04,-1.173281449712125805e-03,4.007575125895539311e-04,2.089261710643768311e-01
2.135336997039571083e-01,-6.377923048413169926e-04,2.136837291947205064e-01,6.133496116736688675e-04,-1.440944890031305430e-04,1.535794595248234648e-03,2.142658382654190063e-01
2.451600757104739348e-01,4.828881443665469786e-02,2.461346782809241129e-01,-3.326672856579678851e-03,-3.065472365289510521e-03,1.652647244173636532e-03,1.975365728139877319e-01
2.295517256758015656e-01,7.602627950602319773e-03,2.336064702094496903e-01,4.284091836689284984e-03,-2.847281893210533866e-03,-4.599170527656891785e-03,2.243226021528244019e-01
2.310550119780949707e-01,1.219991096753833548e-02,2.302749911071253486e-01,1.138737548245380101e-04,-4.138615813208050380e-03,-1.317810708869005800e-03,2.185957133769989014e-01
2.214225883693163865e-01,1.180718370270839035e-03,2.206248336232981000e-01,1.525370054105329443e-03,-3.496991670013111365e-04,-5.924078288705144149e-04,2.198631763458251953e-01
2.159845428187188721e-01,-3.270485159367814143e-03,2.197632199767867445e-01,4.265112051094697965e-04,1.322714184032563447e-04,-3.431450721861357099e-03,2.212497740983963013e-01
2.216915299162891262e-01,-3.330303400598810804e-03,2.230623483154697273e-01,-2.216540381850019403e-03,2.684446491086435026e-03,-1.960517517231526435e-03,2.258164286613464355e-01
2.287585885420771459e-01,-5.168904019439146680e-04,2.247420826618361511e-01,-1.525876502779876555e-03,-2.154132870281543887e-03,1.154946956775869480e-03,2.273486256599426270e-01
1.432344822894099090e-01,-6.113352988197871818e-02,6.411838119269580583e-02,1.570781855668738555e-02,-8.705737673021683720e-02,1.919102053478525735e-02,2.375687211751937866e-01
1.808467087154465580e-01,1.571647636508824442e-02,2.433280296469908510e-01,2.919412821295332659e-03,1.318256622325986659e-04,4.319238234558017198e-04,2.037538886070251465e-01
1.995975822744732175e-01,2.983802434318033603e-03,2.151200094318278522e-01,8.137294866674084706e-03,-7.031993816529399054e-03,8.118779626545759298e-03,2.061421424150466919e-01
2.500156434131536876e-01,4.422803843603245744e-02,3.520055624542661743e-01,2.661932931530550106e-02,1.389698785320410412e-02,-2.756568772396789796e-02,2.805770635604858398e-01
2.334911791780663326e-01,1.121186056299522393e-02,2.205503405543834394e-01,1.151137655061517827e-03,-4.709989146730908819e-04,8.674643769902849917e-04,2.161156535148620605e-01
1.464368081150786149e-01,1.485440825121107922e-02,2.346673997785777011e-01,-1.465503250584782686e-03,-1.826756108536647461e-03,-1.686171171641043156e-03,1.916589140892028809e-01
2.214815818536557401e-01,-4.932546083256161840e-03,2.215359932317017000e-01,4.616195748576235524e-04,1.128437535516730065e-03,5.822851208669188898e-04,2.264534235000610352e-01
2.099629333935444375e-01,-3.365188926021223104e-03,2.189302819690121527e-01,8.434555891282464329e-03,9.056453395002109913e-03,-7.110054759001269153e-03,2.193477451801300049e-01
3.489081128059259296e-01,4.216466764756721108e-02,2.745794651429259159e-01,1.461094173861545061e-02,4.277928990519664493e-02,4.137895688314092990e-02,2.967890799045562744e-01
3.142095061997834393e-01,6.321817613082242326e-02,3.774960253265832733e-01,2.292042612153739368e-03,-2.851086117686937524e-02,2.913469645701993738e-02,2.964575290679931641e-01
2.384207644254141278e-01,7.804429266142345889e-03,1.508750889421023311e-01,1.467607406638587404e-05,-1.464999034542015114e-03,-1.290146483523541866e-02,2.028902620077133179e-01
2.195897600855595821e-01,-3.396349385663381681e-02,5.467104002050694744e-02,1.169684664672503496e-02,-3.523209371120098604e-02,1.288226701863771917e-02,2.330321222543716431e-01
2.364095134505025952e-01,1.162358737753038662e-02,2.311843400930125858e-01,-2.350656823079414967e-03,-3.896699446910540255e-03,1.984302720695118889e-03,2.223857194185256958e-01
2.218151739415625268e-01,-4.570722750330435957e-03,2.212466307432711110e-01,-7.761654368911669001e-04,-1.542490703725091965e-03,5.683583878662899031e-04,2.261240780353546143e-01
2.405309825024057879e-01,1.081252867912568805e-02,1.818561817356152965e-01,-1.409043161604220905e-03,1.464870770799093884e-03,-2.928914512231354465e-03,2.068157345056533813e-01
1.980691026901456875e-01,1.325738510162624562e-02,2.198716834789677110e-01,1.492978839735810892e-03,-2.834093775643551326e-03,5.639398066804229143e-03,1.969423443078994751e-01
1.891723894395507255e-01,6.834816507618010628e-02,3.516787767492548511e-01,-3.965311942233638864e-02,-2.740165681945247109e-02,-7.279581511241341174e-03,2.603270411491394043e-01
4.091289996761027226e-02,-4.412421859499546239e-02,2.018835319131838668e-01,-1.009549632874462768e-02,4.373982176708032105e-02,3.997165751705440521e-03,2.300533354282379150e-01
3.316016628953990519e-01,1.171185352607411745e-01,4.238799877381304038e-01,6.140255870427913792e-02,-5.874621318129474162e-03,6.080518653872949743e-03,2.929773330688476562e-01
2.348623197374747340e-01,1.250773758695455928e-02,2.304894987175196697e-01,-3.558906049333913934e-04,-4.679528913185351628e-03,5.768940164574191910e-04,2.203529775142669678e-01
2.309346319677911263e-01,1.621994799185383362e-02,2.523187154994908643e-01,1.051276604318252331e-02,-2.085584217081469689e-03,-3.824975258630785181e-03,2.270234525203704834e-01
2.447453845165905861e-01,3.530002161085055157e-02,2.714495435931760237e-01,1.916145354698580230e-02,-2.577457352618713754e-02,3.228259268997023951e-02,2.374752610921859741e-01
1.726770806502871958e-01,5.006594010182163768e-02,2.804714381825065828e-01,1.338060273962464811e-02,2.105297895658692076e-02,-3.521622892939466152e-03,2.043866813182830811e-01
3.494142577896827140e-01,1.157787238712203459e-01,4.585501319803907960e-01,1.138658481822499638e-02,1.546074021206943552e-02,-1.360963570488670817e-02,3.060325980186462402e-01
1.408301338433681493e-01,1.450911964996297321e-02,2.350876225525002639e-01,-1.414929288441908913e-03,1.118930644703895923e-03,3.673713640888634046e-04,1.917246431112289429e-01
2.953071441169878852e-01,9.865577958259028057e-02,3.150543638897647658e-01,-3.237987294315824993e-02,6.512317703176064010e-02,2.661371398175168060e-02,2.468569427728652954e-01
2.322463423828765861e-01,6.780045448256666329e-03,2.270773202842648608e-01,-3.117774139576418805e-03,-4.762783223325625821e-03,2.571164803234776350e-03,2.231891006231307983e-01
2.334700033656589291e-01,1.220894146117729173e-02,2.222934744245832484e-01,-1.388281487616084770e-03,-1.159681007661934392e-05,3.793190469201870602e-04,2.159042805433273315e-01
2.211609870365163211e-01,-4.390033057696668406e-03,2.220569934874257467e-01,-8.856114283693195238e-04,-1.289866556968291989e-03,5.485784998028571738e-04,2.260186076164245605e-01
2.127209595776245188e-01,2.422155726135938325e-03,2.473691151060301296e-01,2.646580920948275739e-02,2.456683095248903687e-02,-1.458293522916417895e-02,2.392957061529159546e-01
2.982534775225628154e-01,1.038525702064817258e-01,4.076025661066432493e-01,2.624758025911132914e-02,-1.704580160854072060e-02,5.414491481995924518e-03,2.720899283885955811e-01
2.436319367433034122e-01,1.291184175718343430e-02,1.789622301550632677e-01,3.675703705058055125e-03,1.259242670031345771e-03,-2.400165371764304782e-03,2.062908262014389038e-01
2.244153668956833103e-01,-5.208467807554184592e-03,2.093775119674389229e-01,4.248800302918317659e-03,5.628751411886748213e-03,-9.012488830298455780e-03,2.233675718307495117e-01
2.254757924439846073e-01,-2.169637318864547915e-04,2.294336470036405229e-01,-1.179635289475429363e-03,9.486772511695429387e-04,-1.473225431069927465e-03,2.277268767356872559e-01
2.184037927455909633e-01,5.554500132376177790e-02,3.134392054543493900e-01,-3.427155324725505992e-02,7.448057933348253834e-02,1.182515542946687391e-02,2.676140069961547852e-01
2.417021688842692084e-01,5.106057440222631916e-02,2.350755636229625856e-01,3.226959244771490567e-03,2.552054794665459952e-03,-8.691779028160472390e-04,1.875576376914978027e-01
2.180641229736614561e-01,-5.912235586897823802e-03,2.049930430384899194e-01,4.881870915108736143e-03,3.030646211800542937e-03,-3.666994773795724354e-03,2.180551290512084961e-01
2.261093303262122212e-01,-1.330949880164467025e-04,2.315062168710905199e-01,-1.836705363538084415e-05,-1.987537750304238168e-04,-3.670198296107280464e-04,2.289897203445434570e-01
1.359600297923337919e-01,9.270013142779129356e-03,2.338009140465516222e-01,-8.797710196066065979e-04,-2.483259930159992246e-03,-1.141376267781015180e-03,1.950471550226211548e-01
2.240381718517587273e-01,-2.119111027163278482e-03,2.285764673499277588e-01,7.051691758872657273e-05,1.271195297947927806e-04,-1.976274394159112878e-04,2.284606397151947021e-01
2.294225276203439579e-01,-9.520756560692789083e-04,2.241809516370790734e-01,-1.524889330962487263e-04,-1.022454448546436219e-03,6.746413585862749522e-04,2.278090864419937134e-01
2.355777673631452851e-01,2.395735955610697743e-02,2.312487973134301766e-01,1.629615876759688562e-03,-5.457683013294972393e-04,-3.159405270049946059e-03,2.095820754766464233e-01
2.358674731868659058e-01,1.231346513167724810e-03,1.317465680463972832e-01,1.632912303010999790e-03,5.445103433219222397e-03,-2.859264406387260551e-02,2.097958922386169434e-01
7.619067297660668536e-02,-2.651119939125344549e-02,2.326870871050142897e-01,-2.986456255988315101e-02,2.633365446615825584e-02,1.210461857563563393e-02,2.372907549142837524e-01
2.286603234273101304e-01,3.508945736501956070e-03,2.320987388374386728e-01,1.267034954726628049e-03,1.101010544588903680e-04,-2.200795819260373373e-04,2.269011437892913818e-01
2.230603762706064863e-01,-4.066783444119759228e-03,2.258372587378468244e-01,-2.783961462127629619e-04,-5.088925367903731570e-04,-1.464130213742728497e-03,2.285445332527160645e-01
2.260444065830407578e-01,2.304798224952359087e-03,2.326831395125157909e-01,-1.603373193456037057e-04,4.169908418633007006e-04,-1.276097446616555062e-03,2.271438241004943848e-01
2.247144789131412801e-01,-8.482118427843854391e-04,2.299427928520295095e-01,-7.976415814855015432e-04,7.068101459731955440e-04,-9.786036696752318349e-05,2.282292991876602173e-01
2.356633304018259656e-01,5.339510331458374726e-02,3.261826529286291354e-01,3.643379194565287554e-02,-4.149619055704299904e-03,-1.995202126740649659e-02,2.512815594673156738e-01
2.655877451740979445e-01,4.785816212528426483e-02,2.871628400920841484e-01,-2.157543306994437471e-02,7.161769639186341130e-02,2.515933365547366393e-02,2.669306099414825439e-01
2.248301642808863687e-01,6.258959825000603994e-03,2.311372960734238147e-01,5.188066740263860485e-03,1.538973080787355984e-04,2.874158592412944576e-03,2.220299690961837769e-01
1.012729448546731553e-01,-2.686910997873848128e-02,2.287996597358358808e-01,-2.507044212189665083e-02,-4.306648030304355279e-02,-1.611340835746131323e-02,2.392773628234863281e-01
2.450699093559501052e-01,3.008051284552518134e-02,2.804075092585445184e-01,1.384139716575166421e-02,5.425818943273721939e-03,-2.187873163000407344e-03,2.361013144254684448e-01
1.403563812377304487e-01,-1.736862971273303580e-02,2.362360520466034730e-01,2.336069640013778773e-02,6.671941660307764872e-03,-3.839741609378987622e-03,2.258487343788146973e-01
2.251743887070310479e-01,1.220173818382547237e-03,2.222549800158511446e-01,-3.058097482892733684e-03,9.633793242284835728e-04,-1.023445653397043065e-03,2.225852310657501221e-01
1.459808124321787526e-01,-9.580548767155888656e-03,2.220274133188984700e-01,-3.051659507023081822e-02,-6.315703381867444899e-02,-1.541026777163872694e-02,2.393428236246109009e-01
2.246574469875300684e-01,-1.462738824959397554e-03,2.277182671129729108e-01,-6.182191113952682652e-04,2.598624018357151202e-03,-8.089986567580076870e-04,2.277173399925231934e-01
2.274696890412387373e-01,2.376952361622663989e-04,2.213029753232031993e-01,1.100515516943741546e-03,-4.611122225534043748e-04,-3.498586983078116885e-03,2.243036478757858276e-01
2.893708607821148804e-01,4.668882444518654418e-02,2.576764304648904158e-01,-7.550920198310376828e-03,-5.102257737497318223e-03,-2.034664816941974402e-02,2.317294627428054810e-01
2.388176227701871990e-01,-5.364504088058746900e-03,1.928414787998403157e-01,1.309501812674505015e-02,1.451793275363104027e-02,-3.182270685089649137e-02,2.338738292455673218e-01
2.611733247995376983e-01,1.146106583562689352e-02,1.234299683592955943e-01,2.038832940303402647e-02,-8.173736532444927927e-02,1.746942542036112461e-02,2.629426121711730957e-01
2.377783064015364378e-01,4.875509401591376912e-02,3.083034315105623868e-01,2.409177401191473639e-02,-8.793140209251879783e-04,1.049608583573383895e-03,2.361806929111480713e-01
1.583752470032710469e-01,-4.241467427577021165e-02,1.101674066461253432e-01,3.038287713140106622e-02,-7.887241152113841358e-02,4.041851448397067864e-02,2.435032576322555542e-01
2.079906785240101530e-01,5.436829861401787367e-03,1.948305904927398469e-01,-6.962734801474352968e-03,-6.733096019601113313e-03,-4.761898195517322470e-03,1.971930414438247681e-01
2.343158684667812075e-01,1.555727065602444115e-02,2.279206467699287364e-01,1.160482403436301950e-03,2.309154067530740442e-03,1.002644776292733238e-03,2.156855762004852295e-01
2.237011092686071456e-01,-2.357448551806085035e-03,2.258055496480944058e-01,9.849706350749524216e-04,1.635486428264804276e-03,8.535500989147369816e-04,2.271469682455062866e-01
2.130771532616676789e-01,2.087239575873950370e-03,2.165666815543073331e-01,2.343711051859260867e-03,-8.882838422679725093e-04,3.312862857115328550e-03,2.128777801990509033e-01
2.678524154564047577e-01,4.359380810438820419e-02,2.619344763202143822e-01,9.938462226352638360e-03,9.991489260081988164e-03,-5.824638902130977597e-03,2.229291051626205444e-01
1.406728965407313958e-01,2.800006282427790205e-02,2.522245872716587511e-01,-4.691477244357456465e-03,2.399370972451004766e-02,1.856748520466603922e-03,1.987743973731994629e-01
1.868370092204553190e-01,-8.425593117330515414e-03,2.509125352599804737e-01,3.203712048138665502e-02,7.687602677357959630e-03,-8.896381586979910938e-03,2.413267046213150024e-01
2.599198224526914625e-01,2.058046187519080306e-02,2.417370494256193270e-01,9.099250688629835146e-03,-1.269985046342703280e-03,1.015427998615340589e-02,2.320013940334320068e-01
4.224266644583573038e-01,1.079399263996767555e-01,4.064594566392394359e-01,-6.648958355855233253e-03,-6.566808882011903117e-04,2.370893432119418331e-02,3.097670972347259521e-01
2.269330240638242624e-01,1.062662078953335865e-03,2.279365262256398683e-01,-2.386079164290309373e-03,-3.916063099217959378e-03,2.661455016906644992e-03,2.265599817037582397e-01
2.168324513876448423e-01,-2.592836371727469391e-03,2.251444834985560361e-01,3.797606363011722490e-03,-2.678387532766873975e-04,8.636857530280523439e-04,2.237993180751800537e-01
2.656581616939038271e-01,5.979406184739291530e-02,2.624657080520165775e-01,-6.157702954322032997e-03,1.492162120666384005e-02,-2.134925165785600716e-03,2.062241435050964355e-01
4.088302933302508935e-01,1.165988375233417695e-01,4.077720808404519115e-01,-2.007026964975573008e-02,-8.593724741971251000e-04,2.187296211253046338e-02,2.962043881416320801e-01
2.243095645640590940e-01,-2.410336525887429859e-03,2.241281281998993014e-01,-2.483778121450898671e-03,2.479078286430603205e-04,1.668757949833635018e-03,2.266889065504074097e-01
4.727714852288331104e-01,1.906370163648982707e-01,4.834526921509986197e-01,2.047023579070625723e-02,-4.758961054928262380e-03,1.855143539167251887e-02,2.916933000087738037e-01
1.523332204316766858e-01,2.164056436138910022e-02,2.451267576397402892e-01,-1.439481357026957311e-03,-3.937023696783757535e-04,4.565278430605691383e-04,1.944889426231384277e-01
2.193948388579465836e-01,1.101523389759692662e-02,1.969509569535383420e-01,4.425930046598221604e-03,-2.666619935183180308e-03,1.003777929893915092e-03,1.983231306076049805e-01
3.789223562514432153e-01,8.065017926355896871e-02,3.359447638215130594e-01,2.678183622918321738e-02,-3.467587488331803219e-02,-5.716989142222329845e-03,2.895711362361907959e-01
2.406070957297653523e-01,1.982377410165908627e-03,1.714175153583258060e-01,-2.795162081772416002e-03,-3.151740219624069462e-03,2.390314593102589244e-02,2.167623788118362427e-01
2.287228833823224949e-01,4.996262806633261500e-03,2.234666034496579079e-01,8.708847138087121627e-04,3.251869013012398564e-03,1.303341543135910774e-03,2.212337106466293335e-01
4.552272292386725927e-01,1.790815633182198663e-01,4.702824488350598742e-01,2.786919943569628536e-02,-1.770629111114743748e-02,1.820121288590568695e-02,2.913846075534820557e-01
2.253193976509935692e-01,6.075000835364385843e-04,2.299795542372323198e-01,-3.508679945360823269e-04,-4.089133715930956016e-03,2.327477886351821037e-03,2.272248417139053345e-01
2.215572340371301796e-01,-1.002080410819422562e-03,2.202104255004593003e-01,-2.842924369773033953e-03,-4.783865202584015961e-04,3.300272474564372536e-03,2.220187485218048096e-01
2.353817224860299540e-01,-1.941082450974696005e-02,2.373322741216812859e-01,1.511491425519582987e-02,7.277159068409041077e-04,1.560173838573206823e-02,2.585290074348449707e-01
2.308507855819512122e-01,2.554281744114009212e-02,2.001427693527960405e-01,-4.040814737130624112e-03,-1.617218027269661310e-02,-9.879722218965634323e-03,1.947207599878311157e-01
2.063743992821867879e-01,1.842224606397796505e-03,1.755067467389671843e-01,3.530439536551199103e-02,-9.779438457697914311e-02,1.733003253959193232e-02,2.642048597335815430e-01
2.067234099468865383e-01,-8.895307826238624260e-03,2.160308945213721132e-01,-5.854343488686503290e-03,-1.507713201090874356e-03,-6.555434153588442919e-03,2.209603786468505859e-01
2.407703736431230646e-01,4.662526392186666646e-02,2.362589741930994081e-01,-3.527540119998845945e-03,3.173210262170998545e-03,7.158006838689794007e-04,1.921090483665466309e-01
2.182972270466033426e-01,1.602976468084149619e-02,1.800920850005671425e-01,-2.224748943639761299e-03,-5.449017719816124684e-03,-1.572326968575487043e-04,1.864084303379058838e-01
2.044862433356315901e-01,1.443656463003292756e-02,2.035355270429173025e-01,6.703462770660631757e-04,-8.621422749396872144e-04,-5.632174158670355492e-04,1.895880550146102905e-01
1.099367138229258301e-01,-2.502687865130882872e-02,2.085109668649967885e-01,2.481106250102316571e-02,-6.937887708510528939e-02,7.417457117838450499e-03,2.401834726333618164e-01
1.974171085646349300e-01,6.980142939031402927e-03,1.944649184872537240e-01,2.546732312968235865e-03,-3.710384820514657251e-03,5.332052726804050857e-04,1.891411095857620239e-01
3.406263321787349474e-01,2.873525571861379468e-02,1.327972557799888820e-01,5.847512156010501415e-03,-5.671133575393439569e-03,3.162322314959511993e-02,2.807990014553070068e-01
2.126517383743079803e-01,-1.448344114793359561e-03,2.229957927097330483e-01,3.750341361336240360e-03,1.244161765113845249e-03,5.247827068007870216e-03,2.197497785091400146e-01
3.130155292785705701e-01,9.926920420582013849e-02,3.114318222618390752e-01,-5.241249254224058379e-03,-1.819331613025995675e-04,-2.645782669605323614e-03,2.132017761468887329e-01
1.927871857494838082e-01,-4.444495206160833933e-02,2.192982086657671303e-01,3.105550013608980239e-02,-8.465248938919022262e-03,1.285670497492311104e-02,2.586027681827545166e-01
3.059293693283188786e-01,9.250487022722853059e-02,3.056882830112911398e-01,-1.594112092570562503e-03,-6.246687133247874656e-04,9.772076243650522701e-03,2.139950841665267944e-01
2.503795692046679178e-01,4.275040806130725457e-02,2.833466597856689195e-01,1.245862208363516729e-02,2.608320498616405886e-03,2.965737193259411920e-03,2.270552217960357666e-01
3.195486042268957938e-01,1.414547196683410557e-02,1.047006235754087411e-01,2.648326311285933553e-03,-2.722294667412553104e-02,8.414983756866114065e-03,2.761742770671844482e-01
2.196550136958557720e-01,-5.666460467224604391e-03,2.212529461591201674e-01,2.269378870021014714e-03,4.581469106052693443e-04,2.166535940598365070e-03,2.261913567781448364e-01
2.221435807655447736e-01,1.488064563170124477e-02,1.975926862450086141e-01,-4.673333266936254352e-03,-3.186787361130715562e-03,-1.517220958219998254e-03,1.964053809642791748e-01
2.562039280048212797e-01,5.997140371850870344e-02,2.787794806243598100e-01,2.105924230218717257e-03,3.291269618012401983e-03,1.002374032563383213e-02,2.092705070972442627e-01
1.992917781599611859e-01,3.007073742787821913e-02,2.779809536095478872e-01,-2.007544642172652202e-02,-2.042079196034268448e-02,-6.481370395130351368e-03,2.252326160669326782e-01
2.271485319017375604e-01,1.110187020990996420e-02,2.095531515949768109e-01,7.394299899319467864e-03,-4.376044878246221348e-03,5.460881839609116502e-03,2.085552066564559937e-01
2.327322007186852504e-01,4.039448087903130258e-03,2.301322593990390575e-01,1.822774952862947495e-03,6.830207159759454178e-04,-6.505622394026099042e-03,2.277078926563262939e-01
1.439381701747254327e-01,-2.012814847418828434e-02,2.086962187242266120e-01,-1.731178093614834518e-02,-2.148606627287123066e-02,-9.634940325217618284e-03,2.104721367359161377e-01
3.236572340860817687e-01,6.621433940144563768e-02,2.847656818790310074e-01,-3.853127627786540749e-02,-3.792497987469257287e-02,-1.745489573654511462e-02,2.597305476665496826e-01
2.274801544954181964e-01,-1.931359776285251906e-03,2.229545077739268910e-01,1.019774205756596858e-03,1.268429908421440469e-05,2.272467358358728779e-04,2.271897047758102417e-01
2.242508287135593359e-01,-2.866433987877364808e-03,2.225806883838342409e-01,-1.575194852145038373e-03,4.446742761255895616e-04,-6.149147390756720157e-04,2.263070791959762573e-01
1.726508015382858807e-01,4.265329241771503854e-03,2.302133559782290340e-01,-3.125279282460507145e-03,-9.691881856080557852e-04,-2.988147569049863245e-03,2.035159021615982056e-01
1.792084388919413518e-01,1.202577630178600088e-02,2.422172338830211324e-01,-3.108080783912063345e-03,3.551249718600589110e-04,-5.980204889972570714e-04,2.061178386211395264e-01
2.430928508377052655e-01,4.497584121091974252e-02,2.434776098370256270e-01,7.451534685298421201e-04,-2.934264260076342203e-03,-1.322924990611626427e-03,1.983922123908996582e-01
1.897973525570089137e-01,-2.412540587347800081e-03,2.162033302983561445e-01,-6.092318556423014647e-03,-4.114659952466890626e-03,-6.601719064645214345e-03,2.073892354965209961e-01
1.967935655070997547e-01,3.640732867819512775e-02,2.850898604924834157e-01,-2.794712738224052612e-02,-7.532349703516401374e-02,-1.349867642373361008e-02,2.599849104881286621e-01
1.751884984919996335e-01,1.015650908339410519e-03,2.242373468893615329e-01,-2.195756234040033977e-02,-1.922223934813212937e-02,-9.104355277333086791e-03,2.099726200103759766e-01
2.240500894551353817e-01,-1.749393698660062224e-03,2.261255715842561131e-01,1.218422498812193845e-03,-1.028812045500493389e-03,-1.058777561960450210e-04,2.268612384796142578e-01
2.628104897127431783e-01,4.528375765203418446e-02,2.526161659593705866e-01,-1.673835320094535853e-02,-2.944536395860338635e-02,-1.769767634021392547e-02,2.226780056953430176e-01
2.457439902311988889e-01,5.696735802555655259e-03,1.231624708848270827e-01,7.734307642987268624e-03,4.293079865700255571e-02,-8.787741903989164730e-03,2.217292189598083496e-01
1.507330297404056441e-01,-1.932855556261037222e-02,2.204221103974676188e-01,-2.386071380837848088e-02,-5.629710898320757634e-03,-1.980500123535114051e-03,2.178159654140472412e-01
2.271706569316541136e-01,3.617870961458224954e-02,2.348998596831776697e-01,3.684460860045117559e-04,2.438255539495660235e-03,-9.186474580333074376e-04,1.950247585773468018e-01
4.043120000463237274e-01,1.088659484427443314e-01,2.685380898732712684e-01,7.008420391382907434e-03,8.407594658379233948e-03,-6.011228957400979039e-02,2.771442532539367676e-01
2.169385161866630995e-01,1.157147569974326107e-02,1.817665390367391720e-01,-5.646965054193062682e-03,-4.340244024917576729e-03,-4.545658744217717130e-03,1.907975077629089355e-01
2.321328087422297459e-01,3.416278277627310400e-02,2.629364801713570676e-01,-5.413114855708985734e-02,-5.513836596593148232e-02,-1.183703258308982202e-02,2.541078627109527588e-01
2.292879451512032096e-01,1.569856592115841110e-02,1.608426707795778676e-01,-2.707205082044859476e-03,6.422594495791686571e-03,3.334035421421947093e-04,1.892935931682586670e-01
2.026570928057376819e-01,3.009717812143580806e-02,2.618893483085507623e-01,9.693426753427226636e-03,-9.685516703070655431e-02,1.311354398939117843e-02,2.691598832607269287e-01
2.125433008841385307e-01,2.103786703251597778e-02,2.426171535280207681e-01,-7.912475587562407126e-03,-9.973566148248123528e-03,-5.767424475167330991e-03,2.095807790756225586e-01
1.723423214973621442e-01,5.879800044243982393e-02,3.700981480766314391e-01,-2.595465972801784191e-02,3.365902367476517748e-02,3.414361754712006303e-03,2.826807796955108643e-01
2.257361384106326696e-01,1.339264298457470970e-02,2.272847743688862221e-01,-2.411323113394577087e-03,5.896538575582570860e-05,-1.053008248846615513e-04,2.131630629301071167e-01
2.327167156528534009e-01,7.698937569874719777e-03,2.085367165892775543e-01,4.934111856910339267e-03,2.520747238985766338e-03,-1.158635879435130928e-03,2.141795307397842407e-01
2.481344333900545873e-01,1.901851485744099346e-02,2.429817438310105937e-01,9.669156145272925565e-03,3.695498461668266519e-04,-4.720177517722507973e-03,2.273495495319366455e-01
2.228470967444145523e-01,-2.499499774165941934e-03,2.238157878992466931e-01,-2.371151446334156428e-03,2.361121837063120954e-03,-1.782644074484894493e-03,2.259279638528823853e-01
2.091006069397545741e-01,6.791938466305019739e-03,2.275438768746906038e-01,-2.224689986548238681e-03,2.406994836469128366e-04,4.608475675379720797e-03,2.123179733753204346e-01
1.447160332542308248e-01,1.565552604622835742e-02,2.365788069628058099e-01,1.535648432005693289e-03,1.092305105782617920e-03,2.897612315878960831e-04,1.922554224729537964e-01
1.505778473945312557e-01,6.254536568502416793e-03,2.181363517722242906e-01,5.860755531783723871e-04,6.094828629771099036e-03,-1.389236092751938148e-03,1.877815127372741699e-01
2.438543686465057536e-01,2.665438340407448592e-02,1.617770852419161409e-01,-1.041213033336367772e-03,1.149706313835678964e-02,-2.291321238196905152e-03,1.910520344972610474e-01
2.271314852533302397e-01,7.341149406571464975e-02,3.437260729731671516e-01,-3.487264446149820202e-02,6.526429398507847812e-02,1.513830944593715089e-02,2.688143253326416016e-01
1.562207151884743850e-01,2.858790406777642068e-02,2.776306860344066596e-01,-1.923962474824933433e-02,3.846899771576932532e-03,-3.916495610306168322e-03,2.184658199548721313e-01
2.151633101083440802e-01,1.553528180317673146e-02,2.395793134314524453e-01,-8.014531009810650641e-03,3.229985823971518507e-03,4.570402741890785235e-03,2.135609388351440430e-01
2.534403897149867246e-01,2.977300605558978741e-02,1.648559894021500993e-01,1.889428008519273032e-03,-5.443256411735036306e-03,-6.644851444228768583e-03,1.956857442855834961e-01
3.652269185517103001e-01,1.105809248489231789e-01,3.341862939200894167e-01,-2.511760461688662335e-02,-3.737552047446280473e-02,-4.928617041688396899e-02,2.669729888439178467e-01
2.243014700593969069e-01,4.766843685767588323e-03,1.535495538973190299e-01,-6.963902268865170692e-03,-7.393093456682610018e-03,-5.218064062571469396e-03,1.950895637273788452e-01
2.534695434677010084e-01,2.558082237987999163e-02,1.585965102882279931e-01,-1.721119595718631880e-03,1.240028132108421388e-02,1.165841661535792868e-03,1.994691342115402222e-01
2.804542046636587238e-01,3.587592336564439377e-02,1.535707765551586057e-01,-8.853517959142767201e-05,-5.260447581731152525e-03,5.858001841284264308e-03,2.122993171215057373e-01
2.507357852202422022e-01,-1.314286098531375346e-03,9.185229205583295142e-02,1.283699363981131601e-04,-1.187638156362953203e-02,-1.321373017151732804e-02,2.228757739067077637e-01
2.290232398269063108e-01,4.765118617970409698e-03,2.244219239738804161e-01,-2.000281799293424112e-04,1.885368200762610642e-03,-7.990824654743141806e-05,2.220175564289093018e-01
1.121575341644907020e-01,1.103150006143774342e-02,3.265228900421248692e-01,-1.385100573403764621e-02,-2.009739091988386669e-02,4.602270191608593894e-03,2.823255360126495361e-01
1.583379865382013030e-01,1.312384703982126533e-02,2.247032495584764811e-01,-1.572200739311251268e-04,-4.102393945122077140e-03,3.248666823182901932e-03,1.876456588506698608e-01
2.216190689545577130e-01,-7.652236451013788576e-03,1.036243293827322637e-01,1.963536150841786645e-03,2.209396963995874374e-02,-6.592436957413809603e-04,2.022685855627059937e-01
2.831935833043809359e-01,6.016302965030931316e-02,2.583121669626654016e-01,-4.904485125303893224e-03,1.353838854871259722e-03,1.511882585316518977e-03,2.118889242410659790e-01
1.750985147218694915e-01,6.482829748700374983e-03,2.299299251878818562e-01,1.851716779925444535e-03,-1.295661256428158256e-03,2.379783041842737507e-03,2.017807811498641968e-01
2.439490963786441480e-01,4.490092141638640788e-02,2.421424120629315779e-01,-2.043236933159904307e-03,-4.331094279748704304e-04,1.308760955777675278e-03,1.981969922780990601e-01
1.567843523550820350e-01,2.058470558684875884e-02,2.398079160902127360e-01,3.730722919694947053e-04,1.727557697676880685e-03,-6.230171457258238928e-04,1.917330771684646606e-01
1.800966628785904688e-01,-6.860728861572101822e-03,2.197204716484750797e-01,-9.082939396570836876e-03,2.491755680611035424e-03,6.497746408138486106e-03,2.105323374271392822e-01
2.049287834313408274e-01,9.454263831435799625e-03,2.360639078446976069e-01,-1.604544971644729021e-02,-1.980474397395129687e-03,6.844749070319910283e-03,2.149197459220886230e-01
2.228593489281695539e-01,1.991233204590253658e-02,1.988884026517652726e-01,5.658866787097194956e-03,-2.247978785872355775e-03,1.739428518903112430e-03,1.923995167016983032e-01
1.847929577341217711e-01,1.881504208492590369e-02,2.474361320792756169e-01,-1.817218474623399178e-03,7.449296903559134847e-03,-1.212774730533279282e-03,2.050634473562240601e-01
1.590192882671354058e-01,2.935345175192702327e-02,2.513635918257233204e-01,2.407969977258203869e-03,4.495243166998932373e-03,-2.667752217918484161e-04,1.933722645044326782e-01
2.292512037129728897e-01,-3.334372158202450476e-02,8.317843717805732673e-02,-7.691640370997280228e-03,-3.580043463875733599e-03,-3.937251186165843103e-02,2.383314967155456543e-01
1.759978365997252880e-01,4.065176936862258117e-03,1.972607706594190491e-01,1.221481958723582466e-03,7.320794513476842034e-03,-1.713118387230001339e-03,1.839641481637954712e-01
1.850020890743799273e-01,2.152404729705792441e-02,2.202383139009301272e-01,1.747745486409360473e-03,4.856424883643458562e-03,-4.298923852245135208e-03,1.840173155069351196e-01
2.259075004356197458e-01,-1.749053145835816059e-03,2.235500449287317060e-01,-6.720583872063176905e-04,9.131469410966168562e-04,-5.454819779418737524e-04,2.264975160360336304e-01
2.383396942348025016e-01,5.517210270419785345e-02,2.440715063643582317e-01,1.883113874019840613e-04,-4.035034452230301172e-05,9.683113290730846652e-04,1.861075609922409058e-01
2.069777178812738094e-01,3.322911142661411077e-02,2.646512106889054028e-01,-1.762485379417389961e-02,9.684705602996979135e-02,1.096707479810956655e-02,2.701227366924285889e-01
2.141155011823265009e-01,1.197345980935189680e-02,1.709967260136366907e-01,3.180099435031121403e-03,5.622147220573625419e-03,-5.017494686859918281e-04,1.847442388534545898e-01
2.417671310947865915e-01,4.560782237017030338e-02,2.410735974874619048e-01,-6.421233285723926330e-05,2.032668899954978656e-03,2.681411837363759359e-03,1.959002017974853516e-01
1.567473405463782332e-01,-4.822400352922182054e-03,2.006841761903500054e-01,-3.501840984943187327e-03,1.121906964241468560e-02,6.661661542839585927e-03,1.888957768678665161e-01
2.849907010673182750e-01,7.218375837440954568e-02,2.809784540113776652e-01,2.016597247154934287e-03,-2.678807608561122565e-03,-9.320395549724434792e-03,2.115263491868972778e-01
2.428281561614699935e-01,4.944532055267378268e-02,2.393132634787110136e-01,-1.730057465298656498e-03,1.116454015462332383e-03,3.635919784826658458e-04,1.916837841272354126e-01
2.305834301710434353e-01,1.168842049399043681e-03,2.269320952361311705e-01,-1.176066215670788112e-04,6.364035496314257253e-05,-4.783810205392647328e-04,2.276125103235244751e-01
3.358270766587692080e-01,3.540980218864073215e-02,1.729530539136657774e-01,-8.590625598178200720e-03,7.804042537525902878e-02,8.896852024220140015e-03,2.942415773868560791e-01
8.824617308231318125e-02,-2.984085977828258851e-02,2.153362279822989001e-01,-1.012105167897340077e-02,8.910088405211349927e-02,-4.889801882321310675e-03,2.632490396499633789e-01
2.492532918594811131e-01,2.406592020049354297e-02,1.620756501416795725e-01,-1.714285745626153556e-03,7.092498170537584086e-03,-7.379395031045579158e-05,1.970729082822799683e-01
2.261826927003033338e-01,2.318124543821936667e-03,1.066177505029134165e-01,9.411828249344761322e-04,2.273850351074648002e-02,-1.510954591411855369e-03,1.980035156011581421e-01
2.263680708140936582e-01,-2.607549540888959294e-03,2.223327765385333388e-01,1.180589900912371515e-03,-2.968928212134495752e-03,-4.221707146171276579e-04,2.270535081624984741e-01
2.602193703262415947e-01,1.880728176327819967e-02,2.766991304021402254e-01,-2.184135724374487372e-02,1.455758103508197204e-02,1.167063054100503199e-02,2.549613714218139648e-01
2.238390489869941935e-01,-4.188116399877150897e-03,2.261586386670027538e-01,-7.379869346568175906e-04,-6.287380879581929176e-04,5.214525216506871045e-04,2.292037010192871094e-01
2.220868533473493445e-01,-4.191748748502838184e-03,2.199422342769614680e-01,-2.197659992753648629e-03,-1.879373116713933811e-03,2.409467772401178379e-03,2.253082841634750366e-01
2.222626577117070013e-01,-8.650510029819147295e-03,2.056738789191406847e-01,1.518722139919101389e-03,-6.459078410566919100e-05,6.073833166009017133e-03,2.233452945947647095e-01
2.294380880822923241e-01,-5.622784100722810763e-05,2.243562776200481446e-01,-1.116264748106372508e-04,9.387769744169682546e-05,-4.890199807365573696e-05,2.269962280988693237e-01
3.741150072924377401e-01,6.907567193721694809e-02,2.806562546049857776e-01,2.485226548914569455e-02,-3.209335904565625841e-02,6.035920596633773810e-02,2.985757887363433838e-01
2.248482662470528415e-01,9.245308718783540325e-04,2.204224170001950200e-01,5.883784459285931745e-03,-2.179854312954891335e-03,4.419962809846730845e-03,2.221420556306838989e-01
2.305530234086845542e-01,3.911304081778960162e-02,2.344531667949070752e-01,-4.902254111810265677e-04,-1.460795910100961582e-03,6.149959719436406047e-04,1.934408992528915405e-01
2.420932005934414710e-01,1.321778255575205285e-02,1.487258018509544089e-01,-2.996070403445929859e-03,-7.708162645007660303e-03,2.426745888431972205e-03,1.998868882656097412e-01
2.605644773916294676e-01,4.911570519106484012e-02,2.515387620869399266e-01,9.422924670453549506e-03,-1.544190210990301071e-02,2.094601024615972210e-02,2.125594168901443481e-01
2.216961595952203490e-01,6.990470687355157531e-03,1.664496747769002583e-01,3.711338780421547922e-03,-4.158481553866767017e-03,4.134742389145241483e-03,1.934772878885269165e-01
3.380517955782337824e-01,1.246691775224840204e-01,3.606787290032258952e-01,3.938050597900517868e-02,-4.103165512311035545e-02,3.406117836784419012e-02,2.530930042266845703e-01
1.415405027592763210e-01,-7.042822095596701359e-03,2.158591857281970672e-01,-9.657403359397850190e-03,1.971777864636929840e-03,3.116272889811672053e-03,1.973914355039596558e-01
2.309078836008172653e-01,1.343399334786032906e-02,2.350749998194305301e-01,-2.903082077975584836e-04,-2.506912324994524377e-03,2.204351397749822455e-03,2.196637839078903198e-01
2.332993340677650407e-01,2.142001056128620129e-02,2.288658200589179237e-01,9.603449637700115166e-04,4.794155691911193735e-03,1.274011214735546805e-04,2.098687738180160522e-01
2.324086159514824335e-01,4.911186111129547949e-02,2.352588209878531678e-01,-1.740392749117126948e-03,-5.366972994280496713e-04,5.581727455451630489e-04,1.847678124904632568e-01
2.300981342041416022e-01,3.107116516233074388e-02,2.322147529272256539e-01,1.854223210900638429e-03,-7.855548448989607387e-04,5.935499449373603763e-03,2.003879547119140625e-01
2.276489933903929064e-01,1.588405231278677832e-02,2.459629118468925624e-01,6.068247235344328798e-03,-4.777831548598555217e-03,5.623390388301193095e-03,2.221077531576156616e-01
2.493032707232596401e-01,3.118116741107790357e-03,1.648482585019481195e-01,2.649094650326660333e-02,-8.957522853317689826e-02,-1.829265788726104451e-03,2.704343199729919434e-01
1.702838109529813404e-01,6.875161953724062691e-03,2.090534454691051480e-01,3.246305091177939008e-03,-6.106205303013039973e-03,2.957057493389120273e-03,1.863074600696563721e-01
2.263841736593888987e-01,3.495082492168677391e-04,2.279526961794330342e-01,-3.700630476358169815e-03,2.768086368701491544e-03,-3.010178350403944214e-03,2.270240634679794312e-01
2.272060024252970933e-01,9.938127265148422040e-03,1.813109708840598411e-01,4.711064196158717791e-03,3.437550625305276029e-03,-1.201130559980123809e-03,1.986114978790283203e-01
1.533564042415291873e-01,1.690114285695029639e-03,2.231295938114457589e-01,-7.988480631414475452e-03,-6.991249650378632621e-03,-4.524561715268239463e-03,1.971108764410018921e-01
2.408608265295648088e-01,4.649923863580965322e-02,2.404445150176651724e-01,1.165818821157503645e-03,-4.313544339727168157e-03,-2.803345756505962964e-03,1.943686157464981079e-01
2.234961075750557247e-01,-1.227425272948945434e-03,2.243352016253701287e-01,6.573263843665587240e-04,-1.799503886742926740e-03,-2.421358415942420617e-04,2.251690924167633057e-01
2.421212434970363980e-01,4.368501201813854151e-02,2.366784346210313028e-01,7.239893361915986179e-04,-3.127168796990203482e-03,-8.216825317041363515e-04,1.958556771278381348e-01
3.578790040647183424e-01,1.321030277715257439e-01,4.128087829758991800e-01,5.544239845736346345e-02,3.255401515721585010e-02,-2.155804244112492427e-02,2.831766605377197266e-01
2.477045033412722252e-01,5.427387048947129866e-02,2.490965582476020734e-01,1.838358637570527629e-03,-5.572692349015430022e-03,-5.514206635821222507e-04,1.943986415863037109e-01
2.329605786510914323e-01,3.177579067347163777e-02,2.341480490764112354e-01,8.548573532656443758e-04,-4.141495656648318431e-03,1.566264552538607253e-03,2.019322663545608521e-01
3.860313726295138137e-01,9.995065651062448597e-02,3.391548293977897921e-01,2.871824744115024711e-02,-2.738793591560997193e-02,5.487775537259574621e-02,2.904966771602630615e-01
2.347450702187963423e-01,1.202908730677890170e-02,2.255736025906859843e-01,4.394249708580225556e-04,-1.353753010900022279e-03,9.825981781330236312e-04,2.182953655719757080e-01
2.645389966329737552e-01,1.984130266266734277e-02,2.295654018861281453e-01,-1.148506623739278636e-02,3.731069016148643239e-03,1.983308393815538806e-02,2.327223569154739380e-01
1.314398836128541637e-01,-2.343919166841439139e-02,1.938700297222809288e-01,4.219700493969321883e-03,3.251465801161618902e-02,1.112126732549467006e-03,2.019477933645248413e-01
2.290428328830863558e-01,2.270489406390865939e-02,2.364699521042671893e-01,1.638474574875363899e-03,2.330582788126200466e-03,-5.317741523347544515e-04,2.102098912000656128e-01
1.872027731512634352e-01,-2.528622151934861728e-03,2.271855167165361677e-01,3.411108564076583121e-03,1.294222004228641129e-03,-2.542117304986059399e-03,2.127014845609664917e-01
2.253795321846715494e-01,-9.659580060027983528e-04,2.255088498207928061e-01,9.429810509948378721e-04,-2.982933668335079665e-03,-1.153591392937898617e-03,2.264838218688964844e-01
1.775074898156076275e-01,-5.769449067186738223e-03,2.259341275093469936e-01,1.153719640240717659e-02,8.693316532573277773e-04,1.225016964479855352e-03,2.126432508230209351e-01
1.856240443634858961e-01,1.150010037355467252e-02,2.287827089295341731e-01,2.241113850969884275e-03,-3.138592932831186805e-03,5.001925494783777265e-03,1.995406001806259155e-01
2.017014653934878221e-01,2.448389129142913845e-03,2.249828451070084723e-01,1.333811453478083494e-03,-4.342105212369262658e-04,4.884908933455715807e-03,2.120381742715835571e-01
2.286725376927880860e-01,3.546387135714645922e-03,2.245530268964363863e-01,1.924212091295145069e-03,5.305263875833778932e-03,1.182935542005493198e-03,2.233183532953262329e-01
2.174574421263431034e-01,9.436537413432505295e-03,2.194643813368120921e-01,7.731759893808267357e-03,-7.703919304963227242e-04,6.932784762803532357e-04,2.094678282737731934e-01
2.310233789610788568e-01,5.436835678200746536e-03,1.301485094005511989e-01,-9.336800200844183866e-04,2.865503616335396929e-03,3.699751944596684980e-03,1.959013193845748901e-01
2.457356102906969042e-01,1.793318449790143321e-02,1.432082956818007402e-01,-1.373850336682915082e-03,-4.977023954288139519e-03,6.508982658220575229e-03,1.981335431337356567e-01
2.481512617551522859e-01,2.659512468912918204e-02,1.658690273508461599e-01,3.225199293261373184e-04,2.083997486206616220e-02,2.334433649329711435e-03,1.973497569561004639e-01
2.729381213429156183e-01,4.251390730894658021e-02,1.590451578242912112e-01,2.065342441493299343e-03,3.689873859296954189e-02,-2.542005986710486198e-05,2.095723748207092285e-01
2.352223413789054363e-01,-2.409506573497248449e-02,8.613397646919596085e-02,3.278841312738054424e-03,3.928129757257648597e-02,-2.189391619965226979e-02,2.385602593421936035e-01
1.604026440035610790e-01,1.058640145028180712e-02,2.245374795022559433e-01,1.006387416173232458e-03,5.907654638397349771e-03,-3.300054045714604159e-03,1.905440539121627808e-01
1.378327431046618701e-01,1.319387853034077740e-02,2.326083777896182370e-01,-4.742504227476187660e-04,3.293166349047928730e-03,2.245877220953079040e-03,1.907310634851455688e-01
2.406173019744191621e-01,5.726802793210895859e-02,2.434587874077670522e-01,1.780459399301842429e-04,-2.558537994997113398e-03,-4.329685840593567626e-03,1.849918514490127563e-01
2.668932307559429562e-01,4.237003164232990005e-02,1.549187138616398007e-01,3.710461021154254965e-03,-1.436775696654403814e-02,3.687205481500002236e-04,1.961353868246078491e-01
2.109009533536272407e-01,-1.916946159536918326e-02,9.096985838444342221e-02,-1.378285259566322573e-03,1.534683241146886368e-02,6.790722900254529681e-03,2.014296054840087891e-01
2.232537373113297752e-01,-9.184443902118588632e-03,1.096097260337335899e-01,8.630901568504116897e-03,7.083764687156476891e-02,-1.117951277292209521e-02,2.370223701000213623e-01
2.239218426619378477e-01,-1.984410559325355816e-03,2.230554580280379173e-01,-3.240427417071512352e-04,4.373792464205453201e-04,-6.318639836104333147e-04,2.254789322614669800e-01
2.367437435702127724e-01,5.769102084174063116e-02,2.366676754364309410e-01,-5.195693476203116579e-04,7.403392544604339666e-04,-7.323180068788559148e-04,1.790260523557662964e-01
2.206077948713597303e-01,-5.011236931348805879e-03,2.215123502700677705e-01,-2.329707390647059277e-03,5.290348594125824982e-04,-2.060790827647752260e-03,2.261387109756469727e-01
2.241177622633789279e-01,1.218872301650650303e-02,2.348860391943659587e-01,1.103115065037713494e-03,3.203974074586688446e-03,2.057834554291820914e-03,2.176215350627899170e-01
2.256336828751890344e-01,2.477133530457809041e-03,2.300738969253947608e-01,8.300927881756321215e-04,3.446434952568580394e-03,-1.313040508503183427e-04,2.254931777715682983e-01
2.355095150904411017e-01,5.427397220832531899e-02,2.382680048748820334e-01,-1.689014322495851605e-03,-2.224799860805499758e-03,4.735031321207700092e-04,1.826963275671005249e-01
2.234070495897287900e-01,1.093745054313560727e-02,1.922519293892468450e-01,-5.911206096204598553e-03,3.889252579329571021e-03,2.572808142449400579e-03,1.991595327854156494e-01
2.400377531911570550e-01,3.983702614337356063e-02,2.469634835909623738e-01,8.412883044985413304e-04,-1.193030431956953802e-03,-3.983253662722860064e-03,2.038843482732772827e-01
2.469809226875815111e-01,5.590778162080914382e-02,2.450896582781457722e-01,2.677355878684067100e-03,1.178256108035240180e-03,6.819715713656001981e-04,1.902057230472564697e-01
4.204180416653320318e-01,1.267404152243150617e-01,4.332362166035793605e-01,1.964902604135792402e-02,-1.098134906030718248e-02,1.514311057677220941e-02,3.039461076259613037e-01
2.343347233191348244e-01,1.857750577419425841e-02,2.398539842735509242e-01,-2.657052065501925523e-03,-2.093970997207860677e-03,-4.385893687216217175e-03,2.187795788049697876e-01
2.597511235562800502e-01,-2.682523336352790611e-02,2.212401380802565543e-01,4.492210714610630606e-04,2.528314869261345452e-02,4.028963370609871253e-02,2.817105650901794434e-01
3.778577852013344507e-01,1.288694173924006814e-01,3.190855034275020818e-01,-2.986461457564966795e-02,4.507092965968418491e-02,4.789354523585728773e-02,2.578119337558746338e-01
2.309764184519554342e-01,2.409935590787073978e-02,2.457229333949723094e-01,2.810214586675588780e-02,1.042056115183138260e-02,-1.589120753348472262e-02,2.225282937288284302e-01
2.240538411197462998e-01,-2.090582580235311738e-04,2.244141381726300899e-01,-9.435496814769137605e-04,-2.108439290845700751e-04,1.930578232405583345e-03,2.244744151830673218e-01
1.616535363695143501e-01,3.525341329663944645e-02,2.480826927268806603e-01,-4.579483147500959875e-03,1.417118278326942767e-02,5.036832094751801658e-03,1.873849928379058838e-01
2.325315876903318868e-01,1.299466386008860108e-02,2.259857086077845523e-01,-3.176860342694868677e-03,2.518006918344911985e-03,7.903147105128380950e-04,2.164565026760101318e-01
2.036151134922746520e-01,4.096816790900070782e-03,2.283589378655768998e-01,-1.411446780756291011e-03,6.285017896593171616e-04,4.527976878965899593e-03,2.131321728229522705e-01
2.344124490730903898e-01,5.165183326274640219e-02,2.389713374209522789e-01,-2.168991767993783040e-03,-4.861362080539640210e-03,-4.851861727057794026e-03,1.855021417140960693e-01
2.301132636023998090e-01,4.501756807962645213e-02,2.329327224415048136e-01,4.002375597126018518e-04,1.062253795872478580e-03,-1.827741138301474354e-03,1.865586340427398682e-01
2.300938361399867682e-01,1.404429075167742957e-02,2.358053206027848070e-01,-1.212742887087052629e-03,3.538428722614131872e-03,-1.738294725900633260e-03,2.190776765346527100e-01
2.320957897202021170e-01,1.553842403745309131e-02,2.345309488765293104e-01,-2.195268980263488223e-03,3.832961845525091095e-03,-1.767324907030810941e-03,2.179410010576248169e-01
2.427006550694931764e-01,2.454935528844723325e-02,2.461406320844716222e-01,-3.302585885235661493e-03,8.337973858486158072e-04,1.115937370467829271e-04,2.199706882238388062e-01
2.324400714846715510e-01,1.524396819034845585e-02,2.346414171094922674e-01,-1.258647390245677244e-04,4.229154402293903645e-03,-1.608915397347403719e-03,2.184458523988723755e-01
2.329412430869964856e-01,9.017592851507855167e-03,2.337742510700790977e-01,-1.711699522439908555e-02,-5.065069722360496240e-03,-7.278941727506206029e-03,2.268125116825103760e-01
1.761714194431161784e-01,1.137107847485756273e-02,2.156281277730620061e-01,-8.777151636571708178e-05,4.795960995974041241e-03,1.201952280312439982e-03,1.878611892461776733e-01
1.646614328442473629e-01,2.328466995091649228e-03,1.811695219701982273e-01,-1.449021535974864133e-02,4.271290892483608354e-02,1.121266195663170491e-02,1.891680806875228882e-01
2.467673627839352402e-01,4.238954789495061326e-02,2.589152429621678353e-01,1.434983241768341203e-02,4.053544845617269854e-02,-2.758305526598156532e-02,2.285393029451370239e-01
1.525325181277019659e-01,2.453140830636699188e-02,3.006148274818236099e-01,-3.323624422536142903e-02,4.983296491611294982e-02,5.912107923460207387e-03,2.610289752483367920e-01
2.323851643033780223e-01,1.292863793307319487e-02,2.305901580272415874e-01,-4.542656204077716482e-03,-4.699076747381223480e-04,-2.175818005164537570e-03,2.187401056289672852e-01
3.667193872329612692e-01,8.424415896962025863e-02,2.399805281982151095e-01,-1.286708146851457853e-02,4.340434778909763730e-02,4.376133945476036458e-02,2.682313621044158936e-01
2.402471229657735519e-01,5.095158241517491748e-02,2.457473127536296265e-01,2.873829255955298242e-03,-1.079951480934021341e-03,7.127559270061278136e-04,1.921822428703308105e-01
2.228415953880727995e-01,-2.180767773150626976e-03,2.232672167353768611e-01,-2.144808118164901638e-04,3.611666186060008034e-03,1.093425561764420437e-03,2.253305912017822266e-01
2.765149893505480239e-01,7.850961708428100261e-02,2.800361571667940308e-01,3.906512927467022459e-03,-6.260536919499457183e-03,-5.362101952185501647e-03,2.004129737615585327e-01
2.307948689283645660e-01,1.440941096437470259e-03,2.259029819869703970e-01,-1.529005387530789524e-03,-2.106868517788263134e-04,-6.576259750218224013e-04,2.269661277532577515e-01
1.767851696638461090e-01,-2.374275244620391301e-02,1.525417786720046354e-01,-3.442535941585170983e-02,7.150235997972591295e-02,2.585367237843511773e-02,2.384030818939208984e-01
2.209202993117462821e-01,2.289743855202190648e-02,1.870877554055749847e-01,-2.094943947531634470e-03,6.185263355269322513e-03,-6.217971986600589942e-04,1.838128864765167236e-01
3.174453446101458409e-01,5.087253291381446663e-02,3.295116194747805816e-01,1.823443518856769641e-02,-5.941817480036955257e-02,1.063851703041094297e-02,2.938567399978637695e-01
2.452470443346049245e-01,7.378563985812212900e-02,2.474471294101384944e-01,5.404904698404465208e-04,-2.412618480570433762e-03,5.155872597632957591e-03,1.728559285402297974e-01
2.337920547724761378e-01,3.233229055921632566e-03,2.265537685040039939e-01,-1.754493254992417570e-03,-3.350517448078017520e-04,2.162752573151697263e-04,2.270476222038269043e-01
2.326891168139402777e-01,6.995510485827555192e-03,2.064917463601159686e-01,-3.359052170404644780e-03,1.156555109287899343e-03,1.483700968334950325e-03,2.139060348272323608e-01
2.362133827682664222e-01,2.134450013516978051e-02,2.341680336609937574e-01,8.614018216489384774e-03,9.605841935667122286e-03,1.309689223534343805e-02,2.162113487720489502e-01
2.343846666983216698e-01,1.434743599235779876e-02,2.386363841369752437e-01,-3.651820233747370918e-03,-2.397238113604732278e-03,1.843764797064726844e-03,2.223453223705291748e-01
2.174111218035636450e-01,8.571662819498726549e-03,1.925381979099506369e-01,-4.988315513839381744e-03,3.460516225026407516e-03,1.996757026341868836e-03,1.978905498981475830e-01
2.243509356842763591e-01,-4.925118135154255006e-03,2.225161827127268288e-01,-7.375051829355038294e-04,-2.592942588973380907e-03,1.042018893896055941e-03,2.284190654754638672e-01
2.255352043886335034e-01,-2.053081565073416881e-03,2.248019849478584964e-01,-3.176697561949644723e-04,-5.223755850909777817e-04,1.102495042413214428e-03,2.272330522537231445e-01
2.339643928634859149e-01,4.160047786947321247e-02,2.404023160381682511e-01,4.412893146205471538e-03,-1.817743948519528465e-03,1.518441223844240818e-03,1.958545297384262085e-01
2.296178193020992353e-01,-3.056964445703130862e-02,2.193635219534457170e-01,9.086149294315891065e-03,-9.486846771341407580e-03,1.250388326039679650e-02,2.571406960487365723e-01
3.246094126829044413e-01,4.938971289201707360e-02,2.378784196506270598e-01,-2.424428357677200704e-02,-2.169152128088865442e-02,5.336933577647602622e-02,2.666793167591094971e-01
3.066008209987418631e-01,8.839242650913270438e-02,3.057781483381820653e-01,-3.770329446470517456e-03,1.283089175480007973e-03,5.938007341161720756e-03,2.181500196456909180e-01
4.660927939698960021e-01,1.642846906365637571e-01,4.362081075325918711e-01,-2.314864964140867648e-02,1.167509436606533474e-02,4.642917134056927242e-02,3.023992180824279785e-01
3.858854231022483816e-01,9.378831140685450762e-02,2.425432860581010208e-01,-1.287391573232662088e-02,2.158227202090815672e-02,4.464335086064259717e-02,2.680886983871459961e-01
3.332328792219964586e-01,8.432903406763075926e-02,4.240815365375160684e-01,-5.261662132799387222e-03,-1.963363436426433795e-02,-2.856637236173561328e-02,3.106554150581359863e-01
2.345881778299708231e-01,-9.615897429383901684e-03,2.612411867567219215e-01,2.514380361504076414e-02,6.800970730776975323e-03,-1.356529518194592859e-02,2.635189294815063477e-01
2.225732865486644840e-01,9.652287288790944997e-03,2.318566371714793073e-01,-1.032912217592996985e-02,-1.155798535109974282e-02,-5.949432790688008281e-03,2.196023017168045044e-01
3.836475446307056614e-01,8.126803911735502872e-02,3.094499527771835123e-01,1.242161575651594754e-02,9.648668672988318720e-03,-1.269585500670609816e-02,2.751882076263427734e-01
2.230957406686408517e-01,5.165062392584296447e-02,2.967534071464321133e-01,2.779353014159306745e-02,-7.637722944900490751e-02,1.296045577787938337e-02,2.603246569633483887e-01
1.675439016794929570e-01,1.575838685267827444e-02,2.517953318837186649e-01,1.376690308651502131e-02,9.307247082084465356e-03,-3.314252819362321217e-03,2.092527300119400024e-01
2.285376135033981293e-01,1.267494031172322622e-03,2.280444052662141674e-01,1.799534684922278168e-03,4.408034869635330671e-03,1.856517706048985573e-03,2.271964102983474731e-01
2.260053538272798757e-01,2.033887391992839078e-04,2.117327498902915051e-01,4.746470435213368845e-03,-8.009688236745392655e-04,3.850539613157454109e-03,2.192748188972473145e-01
2.190630423713040842e-01,-1.307480965401508488e-04,2.205969127373396121e-01,9.140876805511125936e-04,8.315947856526197373e-04,3.863415552161221077e-03,2.200769037008285522e-01
2.232781331499815725e-01,1.351600514861384106e-03,2.258571723982168988e-01,6.905167942875775101e-04,2.282185588114926059e-04,3.098088296451194466e-03,2.232952713966369629e-01
2.220023713126337839e-01,3.426097406891787100e-03,2.114988042960176950e-01,5.594375609030390745e-03,-9.183384495133980639e-04,6.513609411586973336e-04,2.137469947338104248e-01
2.252958990162902408e-01,-2.002674529640924295e-03,2.287191137449483269e-01,1.006120674469787200e-03,2.481525157895640189e-03,1.059726475562143685e-03,2.290836721658706665e-01
2.453073380470463805e-01,5.628801239667444167e-02,2.444886995825519271e-01,2.283331820542948247e-03,-5.328320926899368128e-03,1.199966741624261361e-03,1.888898313045501709e-01
2.573916066338840514e-01,8.235260152716887549e-02,2.548918052948445090e-01,-9.940616308826515351e-04,-9.741619438274664580e-04,4.673830937797400845e-03,1.740077137947082520e-01
1.162033582242287949e-01,-6.410625521445396935e-02,1.225527228268847857e-01,2.465020748308872217e-02,-7.736433558830745072e-02,2.518074739940720508e-02,2.353243529796600342e-01
2.046388326711247319e-01,5.212163105938499852e-03,1.961092932819645251e-01,3.370476028514796715e-03,-1.761190842580988855e-03,1.207007602954390801e-03,1.954238712787628174e-01
2.917393973099703386e-01,7.917326878406028001e-02,2.878175959726463340e-01,2.661151287397096887e-02,-6.410584767634916470e-02,3.126723947971989104e-02,2.484999299049377441e-01
2.257011982266702022e-01,-1.340666915772753542e-03,2.260368579118507693e-01,-5.643291774968591402e-04,-4.737850901785040461e-04,7.090706600492803274e-04,2.272167801856994629e-01
4.200678092525820251e-01,1.219516547282433749e-01,3.060652708107861608e-01,-6.998044509453199384e-03,-1.487578734079662152e-02,-5.611409238832176793e-02,2.795370817184448242e-01
2.200897758456588083e-01,-8.404507828727897367e-03,2.032309025538301395e-01,6.686911133670727508e-03,-7.273961096255006364e-03,1.115498692306562956e-02,2.220537811517715454e-01
2.114395078430341413e-01,6.695551538444532991e-03,2.382051494605837982e-01,1.118416127259894838e-02,-9.430254366125215976e-03,1.123999184738995287e-02,2.216701358556747437e-01
1.950829557545377124e-01,2.567935435016516221e-02,2.443928833319745642e-01,1.160549865269680687e-02,1.811911351768247594e-03,-2.147019585015277985e-03,1.997750401496887207e-01
2.203500100703869591e-01,2.571758361322867836e-03,2.230908935599990039e-01,4.706016142749706410e-04,3.561048386907510080e-04,2.100265598574411856e-03,2.191941142082214355e-01
2.281714955404819944e-01,1.051666376932375302e-02,2.339554974277910648e-01,-1.036747087739203895e-03,2.623016263545652465e-03,1.364349021646014894e-04,2.206579148769378662e-01
2.739652827108900457e-01,6.305141876087033692e-02,2.549120678115255889e-01,1.481699842397144438e-02,-3.249824590468406056e-03,3.361655055334214926e-03,2.038462907075881958e-01
2.481631816428741533e-01,6.066767002154560551e-02,2.508173634861457502e-01,-1.489232352346889785e-03,-3.421903183409117115e-04,3.958493175668448098e-03,1.889795511960983276e-01
1.562805546357158848e-01,-1.902226582280372447e-02,2.338381073635272256e-01,3.775014395970575226e-02,-3.341124105178760323e-02,2.740528860745338260e-02,2.453968524932861328e-01
2.304706740055240122e-01,-1.411838353086833364e-02,2.054301150152525457e-01,-1.184544179205129083e-02,-1.573000888890899174e-02,-2.571381039554538825e-02,2.397353351116180420e-01
1.297094198149217892e-01,-1.760433928931690040e-02,2.400301437460830023e-01,4.940043517774343057e-02,-2.911790889267096977e-02,1.283146587855358255e-02,2.459318488836288452e-01
1.616356384319829198e-01,6.033692262645398707e-03,2.170182736852688254e-01,4.461229367417063611e-04,-1.191790352269472483e-02,4.255017582583402354e-03,1.907298415899276733e-01
4.150003138984346140e-01,1.110074240175695504e-01,2.944030695562616651e-01,1.368146807299457611e-02,7.733009621427187376e-03,6.053023949347690474e-02,2.864041626453399658e-01
2.126684321873170691e-01,-1.806534940136994560e-03,1.942319721731643467e-01,6.708888535483666614e-03,-1.689312348582152831e-03,4.825151868872863160e-03,2.063945084810256958e-01
1.465938105242871325e-01,4.238463180767043648e-02,3.354759492383353470e-01,2.954762848560151325e-02,-2.874524245985428383e-02,9.833491421176449379e-03,2.675956189632415771e-01
2.325553242570519985e-01,2.214396039059188248e-02,2.342445655018249862e-01,-1.168321311598076711e-03,-3.319823706026321132e-03,-1.949608135950812266e-03,2.113759517669677734e-01
1.060212309332374675e-01,-1.825369182800018475e-02,2.963747177692414581e-01,6.580179677083188017e-02,-1.418936042426130646e-02,2.278682021311089975e-02,3.008092939853668213e-01
1.734529375733095680e-01,4.641115482364319145e-02,3.303125088539742849e-01,3.683321770945394841e-02,-7.747381293589856999e-02,6.054718789442874735e-04,2.876629829406738281e-01
1.276832748994048694e-01,-5.899179023038417236e-02,1.686388494872723687e-01,3.435869631145926223e-02,-5.357948498269159143e-02,1.909783630354050868e-02,2.396212667226791382e-01
3.674480152394340449e-01,9.230518461304154654e-02,2.291980455342229606e-01,1.718277076560548178e-02,6.677686817978567557e-02,-3.027722503290752876e-02,2.716458439826965332e-01
4.138053096343051740e-01,1.024477831890588109e-01,3.085829710352684940e-01,6.893488725053514322e-03,1.626424019625381107e-02,-5.477455404647124659e-02,2.918739020824432373e-01
1.980552707686726588e-01,2.059003046147683813e-02,2.097516196728911320e-01,-2.617688440722648331e-04,-3.917999585605800965e-03,1.043509574475606815e-03,1.837278902530670166e-01
2.300653841038293179e-01,2.422532441308078432e-03,2.279370720618029977e-01,2.892083491565554040e-03,3.611465277864856459e-03,3.348296470660770512e-03,2.268020212650299072e-01
3.333967583154942571e-01,1.479892837946403250e-02,2.703567509417001968e-01,3.352667519671049395e-02,2.375099548744453656e-02,7.040862213840244285e-03,3.010105788707733154e-01
2.222081390968677628e-01,-2.166511343273114232e-04,2.263360648660722174e-01,5.194706490521882550e-04,-2.074149022539335157e-04,1.873709569304881544e-03,2.245427668094635010e-01
2.017381694048086538e-01,6.186251169316980825e-03,2.369924943600968115e-01,2.186957455921556374e-03,-3.950350140253714934e-03,6.855731240702297611e-04,2.154995203018188477e-01
1.184829921592712443e-01,1.765677230638296180e-02,3.319357571250561856e-01,8.607448699093397937e-03,-2.804808998081022298e-02,-4.942768622182197417e-03,2.826752364635467529e-01
1.842322420887445578e-01,3.930651871854040635e-04,2.250520666059610542e-01,2.106026209500167640e-02,2.827170900650175997e-02,-1.818081280471580893e-02,2.183746397495269775e-01
2.143852974272506817e-01,6.917136650690705602e-02,3.610052256319934982e-01,4.926054487425732265e-02,-5.480768416848803837e-02,8.734713153471877203e-04,2.831421494483947754e-01
1.521207535195069349e-01,1.919038698653272035e-02,2.341607225914465185e-01,-1.044877533552476465e-02,-1.915730713516603650e-02,-3.738461784618097271e-04,1.916653364896774292e-01
2.598722200351282763e-01,6.695136374919297140e-02,2.679718861490033577e-01,4.536761907317653567e-03,7.925762634913353921e-03,7.348121255704114126e-03,1.981384307146072388e-01
3.331057218645885332e-01,1.694345108859049431e-02,1.136852415262393778e-01,-7.149498358058080372e-03,2.551635196176270381e-02,2.351519453016491165e-02,2.872228026390075684e-01
3.260875435829626579e-01,3.584371800390051543e-02,1.519013925815036192e-01,-8.455998013476115349e-03,5.884739807996427347e-02,1.864264753421807086e-02,2.750855088233947754e-01
3.097757072126487987e-01,3.233464965214963294e-02,1.365260056609885475e-01,8.112050824412150515e-03,-7.611155227431315451e-02,2.294542531522907047e-02,2.794247865676879883e-01
2.378061465078697978e-01,8.917426022596708357e-03,2.082304964165276329e-01,8.889135960217629687e-05,-1.203109506686412936e-04,1.886760337891799305e-03,2.156524509191513062e-01
2.675355775904773026e-01,2.442381391599857121e-03,1.552473424724666040e-01,8.609550454139363099e-05,8.720204986861926008e-03,-1.212317641100144408e-02,2.319165021181106567e-01
1.585804263561897409e-01,5.985393152954313067e-02,3.772042225872336285e-01,5.025574834316245965e-02,1.979037154633778335e-03,1.220396742146481533e-03,2.944832444190979004e-01
2.390527661778450996e-01,-3.183036176995222843e-02,2.113568304733292463e-02,4.620942391297752291e-03,-1.459427753036602292e-02,-8.579565264210824160e-03,2.505181133747100830e-01
2.362874283800749098e-01,2.076106970177404865e-03,1.836312871643046574e-01,3.927853657877373485e-03,1.104066253625403532e-01,4.155651314395252894e-04,2.862003147602081299e-01
1.802458922862987811e-01,2.261167700244162693e-03,1.966401024802296171e-01,7.802742864230190548e-03,1.926399052382257379e-02,-9.722659675383434758e-03,1.909051984548568726e-01
2.581239858674208576e-01,3.108919706700863372e-02,1.832401708621361480e-01,3.833417599343622029e-03,9.062326977807254325e-03,-1.458109237509103151e-02,2.026806324720382690e-01
2.318775198072479116e-01,2.494045228842217687e-02,1.699263929343303725e-01,3.260372536289895401e-03,5.388357533661017156e-03,1.053980921843783859e-04,1.842822134494781494e-01
2.473080195884361232e-01,3.366982845135479963e-03,1.600645347535709362e-01,-2.848571724758783199e-03,1.681977012517778952e-02,-1.809621201127432216e-02,2.183846682310104370e-01
2.554387601532243091e-01,4.414989233605853824e-02,2.098660563480813923e-01,5.225452913998727619e-03,4.990874296492617962e-03,-1.793335919629287720e-02,1.954796910285949707e-01
2.868508922291742036e-01,4.022510908612067504e-02,2.266518862109909993e-01,-1.728125926936373638e-02,1.051022415573315272e-01,2.094811208388621532e-02,2.914676964282989502e-01
2.641942387894480881e-01,2.506044744724525430e-02,1.959389927919399088e-01,-1.596082258893996575e-02,1.160099406998068572e-01,2.393768095502174162e-02,2.972874343395233154e-01
2.225430576833658525e-01,-8.982239866383023852e-04,2.240973774730323498e-01,-3.771613632092688027e-04,-3.771556529985451594e-04,3.268166390790413784e-04,2.242251038551330566e-01
2.513107675105157313e-01,2.633913099309588557e-02,1.587056460619143960e-01,1.077028980650991024e-03,3.945035638324420613e-03,-7.217638514369958264e-03,1.963692307472229004e-01
2.358260029373104860e-01,3.537934583086765894e-03,1.434811217633900071e-01,5.166098617716811774e-03,5.115212009117914814e-03,-9.539751629072531006e-03,2.036327421665191650e-01
1.444950577141733139e-01,-2.295466345777985584e-03,2.325160341859656421e-01,-1.653292141626262410e-02,-1.315958731263158418e-02,-1.115452502625818507e-02,2.095915079116821289e-01
3.368874587095177509e-01,7.360486024920059878e-02,2.258805615689511437e-01,-2.004453767189345870e-02,7.122444563428725894e-02,2.292298864456590937e-02,2.653574645519256592e-01
9.907460231752981961e-02,1.007495069798672316e-02,3.257679374815565798e-01,-1.851841189944455554e-02,3.350737819057400535e-02,3.579836223085601076e-03,2.896927893161773682e-01
2.328835177311631977e-01,1.524538098531660890e-02,1.883183033488808333e-01,5.060730216436457561e-03,3.736784567399007058e-03,-1.397755071179897137e-03,1.994440108537673950e-01
2.349090846067510840e-01,9.742166927841147683e-03,1.334413739075009653e-01,1.768941327212415586e-03,1.145752531999522442e-03,-4.796709464955478111e-04,1.953527033329010010e-01
3.241824834734180483e-01,2.686719213485613822e-02,1.146291860806639695e-01,-1.773813547537195223e-03,-5.392805990703454511e-02,1.169103134932568053e-02,2.813356518745422363e-01
2.225105616872931069e-01,-3.188088867807734039e-03,1.442977234688891941e-01,6.248254380554181878e-03,4.085924554516669888e-03,-8.972945804488510063e-03,1.995328217744827271e-01
2.391988783063751511e-01,1.677249499989721948e-02,1.431935665219379039e-01,-6.010585135372246111e-03,3.845905669499909141e-02,1.741328105952769014e-03,2.046733349561691284e-01
2.280049826479928488e-01,1.647024843956731988e-02,1.664067637453517934e-01,-1.011822903547693591e-03,2.985465121660190683e-03,7.422129451113803397e-04,1.885274052619934082e-01
2.749309856763322846e-01,3.937039217081782227e-02,1.570575050078893142e-01,7.082451271589094120e-03,-9.103014129678916461e-03,7.042703261536067960e-03,2.053399085998535156e-01
8.928495670018737895e-02,-2.115746230822734830e-02,2.407484442295628746e-01,4.507015523345558883e-02,-7.103857715771705675e-03,-5.200497060595118438e-03,2.412326633930206299e-01
2.309335415196986374e-01,1.306668319729847871e-02,1.858782855933867051e-01,-4.647163753903883060e-03,-2.528571317619567656e-03,-1.769720102200281892e-03,1.994323432445526123e-01
2.835260688142684504e-01,7.362502906074250286e-02,2.844435701670943728e-01,-1.207471632873672630e-03,2.678362976607901423e-03,7.298334789977238210e-03,2.108021974563598633e-01
2.933791277338891890e-01,6.000194843960832136e-03,1.374583449785324873e-01,1.557983409322070576e-03,9.361429665057889593e-02,-3.650501662248319557e-03,2.973680496215820312e-01
2.428141063408696398e-01,4.590145271741430388e-02,2.420848554244214856e-01,-2.694517237701068903e-03,7.432582007738420008e-04,-2.760895490826479910e-03,1.966668069362640381e-01
2.420966339497594710e-01,5.069128844265821665e-02,2.447718808657243783e-01,-3.506760440467417139e-03,1.711631302262879356e-03,-1.221060935055412813e-03,1.928869485855102539e-01
2.366628876448686192e-01,5.406794260446935729e-02,2.378402535389099459e-01,-3.311964191429601911e-03,-2.010046156647043569e-03,-1.978432421274918182e-03,1.833413541316986084e-01
2.311153777822145261e-01,1.129922956858735172e-02,1.544718204065474998e-01,4.762557437297665688e-03,1.120597142075504399e-02,-6.982585861759014328e-03,1.947740167379379272e-01
2.401288349360218843e-01,1.149218588769672367e-02,1.240430038556867703e-01,-5.508896364503648941e-04,7.455182184487110786e-03,9.008751168899802085e-04,1.984420418739318848e-01
2.600888139487461115e-01,3.035094471992544340e-02,1.704811122390892109e-01,7.751799110887864185e-04,4.721870642289593446e-03,-6.734874485325044978e-03,2.010659426450729370e-01
2.405372831492043617e-01,2.099803231470416531e-02,1.230875643682385751e-01,-6.961332008048942352e-03,2.480296463109861460e-02,7.286499272324402712e-03,1.958502382040023804e-01
1.121212182685904918e-01,-1.414976586201645292e-02,2.287060850583771954e-01,3.415422694075964660e-02,-3.067611765972551308e-02,1.797040824674931564e-02,2.270442545413970947e-01
2.110779102920956607e-01,1.592293267983205252e-02,2.496224789795649102e-01,-8.789776098340668087e-03,-2.546771321062615921e-03,-3.222656969791489693e-03,2.176596224308013916e-01
2.704401173146393500e-01,4.040840841925566473e-02,1.503631795384781922e-01,-4.250356011815917441e-03,3.463024129961011360e-02,7.679341988450923660e-03,2.086634337902069092e-01
2.382109726868077426e-01,2.056459560766171757e-02,1.539388419987211543e-01,4.491042593239724483e-03,2.497861335465242222e-02,-7.103453238536439757e-03,1.954837441444396973e-01
2.183000336006876152e-01,-1.670282387236568522e-02,9.853727223486805076e-02,-6.193381129356690480e-05,6.103515338105193477e-03,-1.088157134574831326e-02,2.046750336885452271e-01
2.263300617836760953e-01,-1.070539077176027587e-02,1.066466670744328771e-01,8.389593535758055852e-04,1.013253285829338914e-02,-8.080567327814697567e-03,2.065108120441436768e-01
2.096386903814345948e-01,-3.816738877957914777e-03,2.104487090093041246e-01,1.667407787395342811e-03,9.069761008637115731e-04,-1.036023682362677062e-03,2.138943821191787720e-01
2.571145076349612424e-01,2.085311085008986764e-02,1.629989723575993310e-01,-2.487933007274813896e-03,-2.512341439797427609e-03,-1.592615061827129183e-02,2.079416811466217041e-01
2.997266555671030952e-01,7.651298221008268063e-03,1.424662850120468893e-01,-1.608157284584367866e-02,9.000957305830961652e-02,1.802385368676803767e-02,3.002707958221435547e-01
2.086275397440183199e-01,-2.891129987751123176e-03,1.611495099787395580e-01,8.336232145474764890e-03,-1.011548042370842559e-02,7.969821693131151630e-03,1.940562427043914795e-01
2.366678728579478808e-01,1.256850427900087219e-02,1.360237006741021881e-01,4.612087348417603645e-04,7.432594211628414929e-04,6.129284707171659807e-04,1.944193989038467407e-01
2.311365271706834479e-01,1.381554445075217075e-02,2.390043449177807755e-01,2.995748540410309024e-02,3.729407528747899492e-02,-2.089526744542836295e-02,2.391127049922943115e-01
2.420366602395613576e-01,1.938070224759803895e-02,1.438022331103539497e-01,-1.502958219388937991e-03,-1.214767494285522859e-02,7.627304089067719027e-03,1.948774009943008423e-01
2.539194525537928349e-01,2.984479595472543101e-02,1.686305063452167297e-01,4.686904585025650167e-05,5.197510874710044651e-03,-6.317456228317425669e-03,1.964009851217269897e-01
2.392832242762593653e-01,1.810634279269121572e-02,1.548821124428798601e-01,1.257118032151812890e-03,9.559705190778441811e-04,-5.488777597294315809e-03,1.935795694589614868e-01
2.438231354804029638e-01,2.179557888011593447e-02,2.112055865413842159e-01,8.197845034609317627e-03,-8.898325266090183205e-03,8.162319375551152154e-03,2.091821432113647461e-01
2.477576061617206005e-01,2.462503087712733518e-02,1.611126233726454249e-01,-6.938958785392198170e-04,-1.571436566064757841e-03,-6.286403650417187426e-03,1.951655447483062744e-01
2.221358755536617657e-01,3.460080973742743482e-03,1.244159469217937797e-01,-2.251572302914388746e-03,-1.438613384196632192e-02,-6.101154441294971177e-04,1.914066672325134277e-01
2.657738051940427004e-01,2.743434641610253966e-02,1.403768790204523720e-01,3.393420845324450052e-03,-1.557224279134930512e-03,1.204228894207354976e-03,2.066137045621871948e-01
1.598564586866419446e-01,1.391308527624238178e-02,2.143916543978064415e-01,1.200487962282062622e-02,-3.723588042405059223e-02,-2.675849413610568214e-03,1.919530481100082397e-01
2.228400011546607384e-01,-2.815813018737983731e-03,2.228378566089829205e-01,4.979466039915340664e-04,-6.855104879089570120e-04,-7.222435858317626748e-04,2.256629765033721924e-01
1.487810228798530088e-01,-5.881921564082792653e-03,1.872220617161788336e-01,6.332618615380135665e-03,-3.636200635305412987e-02,7.836504929238550035e-03,1.887190192937850952e-01
2.167101185366722693e-01,2.742026508207184854e-02,2.035874147307325244e-01,6.220156512352576286e-04,-1.371370578305839902e-02,5.433021178467338464e-04,1.846215128898620605e-01
2.089903733853321621e-01,1.649841644215249703e-03,1.523000030214707590e-01,-2.803146343290448001e-03,-1.501937922234174681e-02,-4.456360934048454389e-03,1.876421570777893066e-01
2.074166237734700324e-01,1.289744691640302976e-02,1.768398709846595029e-01,2.823007711649227602e-03,-2.154982725628997939e-02,5.972893828347649540e-04,1.850487738847732544e-01
2.011971496567582784e-01,-2.099878220982068222e-02,1.879636358535549667e-01,-2.247207620013270263e-02,5.022228810269386418e-02,2.998187816360136856e-02,2.416283935308456421e-01
2.370350135089164256e-01,2.414867789836908085e-02,2.383573143238054970e-01,2.741761670586372567e-03,3.353831455377413989e-03,-1.624602532117977232e-03,2.137008458375930786e-01
1.996818064549464866e-01,1.438330827728151462e-02,1.887767725984293432e-01,-1.944105418279798393e-06,-3.281217151181424485e-02,-2.321745471181938143e-03,1.888911128044128418e-01
1.970948373778413365e-01,6.265548932066489218e-04,1.546676748436240367e-01,4.195439306694636293e-03,-1.496589765998339663e-02,1.911911450134130353e-03,1.811076104640960693e-01
2.029571141086506658e-01,1.270740223192552698e-02,1.804110885740605186e-01,2.927452388325386018e-05,-7.301825428974320110e-03,-6.760294026643636324e-04,1.804860830307006836e-01
3.425016808606455854e-01,7.638521422826627383e-02,2.195833584930462490e-01,-1.713923813201815444e-02,-7.404476635197566881e-02,-3.706467873451280148e-02,2.732522785663604736e-01
2.407183628264762398e-01,1.484286157139935725e-02,2.396860161804869049e-01,5.454740481369534967e-03,1.917566969700048880e-03,-8.463323219736041889e-03,2.260592877864837646e-01
2.472732707180375633e-01,1.054272345691592561e-02,2.365677266815143232e-01,4.616180893334985089e-03,2.328314660405872080e-03,-3.408814990724633870e-02,2.391397655010223389e-01
3.580021870412455343e-01,5.431951976209439814e-02,1.143139674794129423e-01,9.174317723298092836e-03,1.659617171266735206e-02,-4.914246235059992890e-03,2.806322872638702393e-01
2.276853105763659568e-01,1.146078824303888022e-02,1.665481941943726674e-01,-3.276739453341217297e-03,-2.376729906897581332e-02,-8.315492214340100205e-03,1.980044245719909668e-01
2.380904275476249943e-01,1.343464535686414441e-02,2.370495058199949823e-01,-1.863310984917155091e-02,-3.667338104577987784e-03,-7.551225712587926117e-03,2.269150614738464355e-01
2.263269841729719234e-01,-7.063787498826872013e-02,9.833673894538708105e-04,3.855352360788771512e-03,-2.674335525541313846e-02,1.066201147211006360e-02,2.730933725833892822e-01
3.235528369361133083e-01,1.098871081624136492e-02,1.960536875392010492e-01,-3.983938181220567781e-02,-4.893882457567923228e-02,-4.153561290342540346e-02,3.020312488079071045e-01
3.575557958221338151e-01,4.252513742164348853e-02,1.283212570793048901e-01,6.769784090842227015e-03,1.773774293464227408e-02,-1.867577320307192701e-02,2.858401834964752197e-01
1.634348396141917792e-01,-4.574622419127793993e-02,1.421410323016728816e-01,-2.765382542386263590e-02,-5.938664485824422107e-02,-3.412345941954095241e-02,2.369042783975601196e-01
2.976412761215854741e-01,6.611463118289143126e-02,2.276980003513385808e-01,-2.386016866051505689e-02,-7.219274094627034510e-02,-3.393171763798400603e-02,2.511977255344390869e-01
2.886084394097185313e-01,6.623390166134079937e-02,3.520479674905173662e-01,2.800967502000972081e-02,-6.259147133641211440e-03,-3.117561300421461262e-02,2.701282203197479248e-01
1.754755971527102998e-01,-1.090404686316955307e-01,8.848965448180716453e-02,-2.171655378292559543e-02,-2.043166044784175406e-02,-5.701584531869515610e-02,2.760193049907684326e-01
2.309951276202051873e-01,6.329547040813204850e-03,2.090450647210592150e-01,-4.332855823559281574e-03,9.405785936202749984e-05,-1.213082801647524496e-03,2.146759629249572754e-01
2.641781855871391249e-01,4.972928375765978126e-02,2.534534264341973819e-01,7.901334376721141570e-03,4.983088605038487294e-03,4.681241929701385044e-04,2.099187523126602173e-01
2.402338409207621650e-01,1.994013616667061894e-02,2.345862115275021420e-01,-7.065614834963195598e-04,-7.336969584788556598e-03,-8.163615724683639854e-04,2.179037928581237793e-01
2.904130091581137441e-01,8.759888138826193993e-03,1.261917719319264330e-01,-3.038135618780416630e-03,-8.445304325075327079e-02,-1.188080204533229108e-02,2.861673831939697266e-01
2.371309133318748597e-01,-9.795227915349341563e-03,2.063999982333562244e-01,8.044056005706784820e-03,1.305774293673080209e-03,-2.723195781179698835e-02,2.382280826568603516e-01
2.177804795438260110e-01,-4.090594278436054942e-03,2.217950262524833738e-01,-2.755988887074304543e-04,-9.081193708337225454e-04,-1.522142457731033398e-03,2.239269018173217773e-01
1.877201948704300405e-01,1.360131410675741170e-02,2.450501096416313196e-01,2.755128681600337373e-02,-8.983391331850819339e-02,6.569094179990920754e-03,2.649592459201812744e-01
1.194584993368381781e-01,-1.125368713544752652e-03,2.205954225233568988e-01,-1.738885002268525035e-02,-7.947068876710297602e-02,-3.663413723481143396e-03,2.384507805109024048e-01
1.341678274594456099e-01,-5.252754922990801600e-02,1.365224471569078113e-01,-2.372542922701621759e-02,-8.765272493677035703e-02,-3.305720975817304924e-02,2.516273558139801025e-01
2.306612598542244763e-01,1.015668836715755141e-02,2.295419494743946853e-01,-1.531265045672223352e-03,-4.266101346980702533e-04,-3.778082565113272031e-03,2.200616002082824707e-01
3.932078372778566866e-01,1.315480024426108063e-01,4.191850276028853961e-01,3.539127707199192507e-02,1.951810840985872611e-02,-2.129394821835799492e-02,2.867031097412109375e-01
2.396592157240506338e-01,2.048603696048695300e-02,1.966336513368450722e-01,1.148355991982569040e-02,1.159169110433810046e-01,-9.835236068117690980e-03,2.854015231132507324e-01
2.287109076279452147e-01,-7.867159201121742829e-04,2.239588876650258908e-01,-1.750050505033455116e-03,-3.136952661277582315e-03,1.140982582716836176e-03,2.272526770830154419e-01
2.572106496837816003e-01,3.619772361633288860e-02,2.706133931384596680e-01,-1.518563550671200857e-02,2.146029739089831256e-03,-1.830358496008279399e-03,2.295739650726318359e-01
3.911354580231377054e-01,1.396275787043440575e-01,3.480989624028226204e-01,1.996948526559634216e-02,3.221532426734044496e-02,-4.134306677720324397e-02,2.524319887161254883e-01
2.237294035357363930e-01,2.790332180394364259e-02,2.074291137094004533e-01,-4.370052053152047138e-03,-1.026197706245964708e-02,-4.698786800162052003e-03,1.893699616193771362e-01
2.099373390369585479e-01,-4.360963016390440039e-04,2.220987568222513586e-01,-9.618578769999025502e-03,-1.107225967216902106e-02,-6.954793644814783078e-03,2.185263484716415405e-01
2.292421658356368075e-01,-8.625076829699152015e-05,2.254027554752778273e-01,-3.112682632077150248e-04,-2.123479633174296145e-04,-4.407985995728866364e-05,2.274339646100997925e-01
2.336337410452832830e-01,4.173777814926421525e-03,2.277143271243552702e-01,3.543190402569958153e-03,2.241525663948566987e-03,1.174549111464102697e-03,2.266837507486343384e-01
2.374612019544959929e-01,1.978611750545122838e-02,1.694627965648841383e-01,-1.931250861061818876e-03,-1.063309346444481739e-03,-4.808271422180558988e-03,1.931025832891464233e-01
2.882841311429480968e-01,2.608114764044330847e-02,1.790658723263047758e-01,4.250930118985930470e-03,-7.410499383884487645e-03,-1.965399583564199359e-02,2.311265319585800171e-01
2.539224528116601487e-01,9.024447458519588294e-03,9.308562154533472910e-02,2.188988028136774813e-03,-1.435915304670189879e-02,1.582912270697504897e-03,2.170146256685256958e-01
2.306365929428532413e-01,-1.827772989632658884e-04,2.252837755237158124e-01,-4.223399870648024889e-04,-3.274210786785271754e-05,-7.866635892604910147e-05,2.281912714242935181e-01
2.278305589839635936e-01,-5.205735731857508153e-03,2.040923639422099756e-01,-1.022325677330258430e-03,1.576113955529452625e-04,-4.588161389738094550e-03,2.222699224948883057e-01
2.358922471004756827e-01,1.882981270643646621e-02,2.418535360897048903e-01,-2.080491658061472352e-03,1.508673201378724765e-03,-1.657793201827969826e-04,2.201488316059112549e-01
3.823154359067663099e-01,1.164704813607282952e-01,3.371439627006020956e-01,3.892992586996178034e-02,-5.619076375224203723e-02,5.131346282246187357e-02,2.874429225921630859e-01
4.546021328956057483e-01,1.702814112397575408e-01,3.874083487641629686e-01,1.505276380255835857e-02,-1.586835292679988907e-02,6.264713211048257568e-02,2.818827033042907715e-01
2.332172415699867163e-01,1.591746521030240613e-02,2.368056309358788636e-01,7.144974351998874392e-04,-3.527798810198209262e-03,1.665160509336158700e-03,2.192236632108688354e-01
2.168744314413723062e-01,-5.458144177107354666e-03,2.186361702990135825e-01,2.381512742304854862e-03,-1.160128024523670708e-03,3.034306595036311959e-03,2.233276665210723877e-01
2.078717443945862775e-01,8.960935279439141699e-03,2.024474201579633537e-01,3.364943507785195850e-03,-1.050934066229966503e-03,5.636354745605503007e-04,1.963522583246231079e-01
2.482729742351753865e-01,2.205459765917416881e-02,2.223343544752387213e-01,1.204864107745102358e-02,-1.244994314307036956e-02,1.284830432278531200e-02,2.176591902971267700e-01
2.199508297128928980e-01,-9.062611568207035173e-03,2.152742611330749622e-01,3.194766803005091166e-03,3.356929408825392626e-04,4.540666873348172920e-03,2.269159257411956787e-01
2.633798747395010298e-01,4.649854213065884867e-02,3.301199965325146701e-01,2.491737519943406851e-02,-3.833217074437379746e-02,2.477298233011135734e-02,2.721731662750244141e-01
2.324197551588936261e-01,6.442585147763232878e-03,1.543482435575879996e-01,2.739383814358648406e-03,-2.529662247583709840e-03,7.851274678090500517e-03,1.993617266416549683e-01
1.615756439250076171e-01,-3.357173713913153001e-02,2.104554693470534754e-01,2.208393639418710155e-02,1.087839212825634887e-02,-2.909026552755166178e-03,2.277147620916366577e-01
3.049241964545277850e-01,2.408193538701017267e-02,1.614203302685370545e-01,2.728640173325193666e-02,7.916210702852896630e-02,-2.704788127700455055e-02,2.870402634143829346e-01
2.284702414768272072e-01,2.781637003023279542e-03,2.269096195564886953e-01,-1.654922160192067208e-04,-3.174983761090974677e-03,1.105790662670381346e-04,2.249798327684402466e-01
2.273403642020997983e-01,-2.522904993060320900e-03,2.241329780100373981e-01,-6.166721216369931962e-04,1.859753869344469256e-03,-5.236780377580740886e-04,2.283035069704055786e-01
2.228222698667152168e-01,-5.416708574003281651e-03,2.215567765104393960e-01,-2.720001178386403408e-03,2.440429503303112628e-05,3.733761915386816415e-04,2.276585400104522705e-01
2.009491432335971939e-01,-2.131536848685047780e-02,1.529804071835022816e-01,-3.454318095942546935e-02,-5.450754745403982304e-02,-3.476308401551930771e-02,2.390796840190887451e-01
2.272122258734165512e-01,-3.089833085822224490e-03,2.220307815543915431e-01,-3.182187608229084669e-04,1.004499232449285141e-03,-1.672062680817331477e-04,2.277630418539047241e-01
2.268708217765581237e-01,4.342935398506719835e-03,2.287497277237022786e-01,6.470208377914597915e-04,-2.671563034629695441e-03,-1.697242192472351056e-03,2.235433012247085571e-01
1.888926583049486130e-01,-1.248102649331014891e-02,1.398642880855366089e-01,7.606751850879256080e-03,8.660592837327553417e-02,-1.644789099254043846e-02,2.378425300121307373e-01
4.260478870228369130e-01,1.218633821722211741e-01,3.784394724790244857e-01,-2.010285296433443961e-02,-1.303382341397690304e-02,-4.313389500957782313e-02,2.960011065006256104e-01
2.337500637119191982e-01,1.055631864154510380e-02,2.257755414812362971e-01,1.587394655632075324e-03,1.622787949150100847e-03,2.187342711029817486e-04,2.193508148193359375e-01
2.315867653739490661e-01,9.111675495213078513e-05,2.250233507265900768e-01,-6.238485043908478626e-04,2.413300145698768755e-03,-2.080031525562767549e-04,2.283258289098739624e-01
1.652466933217010270e-01,2.529240048752033621e-02,2.423936402558933279e-01,-5.184934121944684803e-03,-1.207744108072830161e-03,-2.052611443482811864e-03,1.908757984638214111e-01
2.158809158424285779e-01,-1.940618584751459264e-02,8.258190859879263601e-02,-3.017977453969300332e-03,7.345055894062406388e-02,7.715185432767916393e-03,2.411554604768753052e-01
2.318985118370739396e-01,2.853175781565484015e-02,2.378185786023232773e-01,4.733887958841868308e-04,-2.266473671532496462e-03,3.246808635580535150e-03,2.065060287714004517e-01
2.227910511673124316e-01,4.303904516306245043e-04,2.212038379996331683e-01,3.967407606615729054e-03,4.311785755356239308e-04,4.036556739542523746e-04,2.216802090406417847e-01
2.257335220324339087e-01,-1.734551068055811829e-04,2.252819992825671191e-01,-3.222807441964501757e-05,2.532606544250000824e-04,-1.354658836833301993e-03,2.256941795349121094e-01
4.397315375315384300e-01,1.264374305566877965e-01,4.512316110167681193e-01,-4.539660981814808843e-02,-1.421985438490871480e-02,-1.541191698846227850e-02,3.307417631149291992e-01
2.855411549934613880e-01,3.394734048018840933e-02,2.095635105298262746e-01,-7.263051878705672863e-03,-7.419269627016356061e-02,-3.857639493957219085e-02,2.666324973106384277e-01
9.954778026719124373e-02,-1.365306097116783524e-02,2.241877529405701952e-01,-8.660316170211053086e-03,-1.194947633490296484e-03,-2.670543354755575225e-03,2.066629678010940552e-01
1.903177016568007307e-01,2.967832260551095391e-02,2.700398265249490115e-01,-2.358637383808989685e-02,1.538488787626377668e-02,7.102998289272455940e-04,2.175952345132827759e-01
1.553733301322591243e-01,2.515961513844446051e-02,2.489738824364601810e-01,-1.619616601357453788e-03,6.085305537471976702e-03,8.683800129028773108e-04,1.950024962425231934e-01
1.008486793110181801e-01,-9.010127562867079054e-03,2.263108467068118967e-01,5.349663000256926586e-03,-1.759869424477636911e-03,9.103142235444621963e-04,2.041824460029602051e-01
2.262848572618945120e-01,2.118333718595723225e-02,1.807386535421046936e-01,2.496565303744363497e-03,2.524828757041727278e-03,1.923224685416042570e-05,1.866475790739059448e-01
2.491214536806268254e-01,5.717628481167891241e-02,2.736721367235755986e-01,2.988163950932935103e-02,8.553767051110054698e-02,-1.933135922749087618e-02,2.605916261672973633e-01
1.843628977224641141e-01,-6.601899389270721175e-03,2.207016709492600204e-01,8.321649015134484351e-03,2.540856983427240440e-03,-5.078531387668073702e-03,2.122073918581008911e-01
1.464413837063604784e-01,-2.423153498029573250e-04,2.290985683656422411e-01,-8.566026862777005244e-03,2.392777327013872156e-03,4.633295987441492236e-03,2.019269317388534546e-01
1.190052420902906610e-01,6.366872548362434436e-03,2.333036775601669555e-01,-1.297602052921639770e-02,1.343156818390221253e-02,8.086219538688363406e-03,1.996708214282989502e-01
1.609955952382564615e-01,2.690200100460196642e-02,2.521594600064534508e-01,3.515646588892724390e-03,-3.015059670746694787e-03,2.311002243223551911e-03,1.964606940746307373e-01
2.177469382700286671e-01,-3.645859014061808567e-03,2.173897214436102399e-01,-1.185098188005576699e-03,4.468623265396281467e-04,1.595337014114744803e-03,2.212425321340560913e-01
2.235399204070430967e-01,-3.132727963915504787e-03,2.224636726648661078e-01,6.038994313573039065e-04,2.622355180552649045e-03,6.934735292565051643e-04,2.261876612901687622e-01
1.433985407284592006e-01,2.492954081029635782e-02,2.384141836633099643e-01,-1.409470756314016963e-02,4.079050444102261946e-02,-3.154679415705118842e-03,1.998417377471923828e-01
2.326472261799306107e-01,1.897374386344546915e-03,1.983163354497032294e-01,-1.804472559393594661e-02,1.758497574381778089e-02,1.899612864809906848e-02,2.224620133638381958e-01
1.843409809244708486e-01,-8.070834116362252120e-03,2.050898883764684100e-01,-4.313194702493545877e-04,1.244568410212372744e-01,1.958540797060988759e-03,2.965227365493774414e-01
1.513265774798058239e-01,1.464620492247473149e-02,2.428466677831541687e-01,-1.841065839654653508e-02,9.055572692043403760e-02,1.539955292161238921e-02,2.567017078399658203e-01
1.243622828799535313e-01,3.896030588863286237e-03,2.327834848656764322e-01,-2.095886708500410006e-02,1.862782966645934804e-02,-2.333290738931553115e-03,2.042143791913986206e-01
1.250883726427158005e-01,-3.097507739022176132e-05,2.309615315623179677e-01,-8.260260157801768352e-03,9.113577972855720771e-03,-7.948920035479509465e-04,2.014113217592239380e-01
1.981506295455219835e-01,9.733687791181361293e-03,2.032203493112197112e-01,1.635686624449494194e-03,3.390935199293695131e-03,-3.535519234849997944e-03,1.912116259336471558e-01
2.010426627738572947e-01,-3.038526243959838169e-03,2.597207853678202283e-01,3.045314914158775768e-02,8.746796600973374622e-03,2.292281400094739203e-03,2.451424449682235718e-01
2.894738010131002737e-01,-1.861678977255365464e-03,1.160263997664676694e-01,3.841676467942561467e-03,9.792519181581210708e-02,-5.447572282237862773e-03,3.055000901222229004e-01
2.898549136328655296e-01,-2.905264617250727377e-02,4.982559314279786516e-02,-3.814750742533833897e-03,7.018047722062899230e-02,6.291132047622304165e-03,3.125815689563751221e-01
2.246542800467012380e-01,-2.486357152448770425e-03,2.239994666270125612e-01,6.174583822679168476e-04,2.429669893260193430e-03,8.713049209876666014e-04,2.268605232238769531e-01
2.361470586051211129e-01,1.058978370848179251e-02,1.967404697700840810e-01,-1.673401147958609482e-03,1.156303085912902678e-01,-2.069996463322168120e-03,2.892626523971557617e-01
2.622488874725544816e-01,6.671089165422028344e-03,2.112173028163385757e-01,1.369154945202519409e-02,6.225161490737360359e-03,-2.583893231924667272e-02,2.399234771728515625e-01
3.561809753096177866e-01,9.045906239669607163e-02,2.565027509982904519e-01,2.686300939987793651e-02,6.617897700506797376e-02,-3.550054808100101128e-02,2.704475820064544678e-01
1.461797479169056890e-01,-9.259361892695577856e-03,2.888680255356499416e-01,4.548595605355484212e-02,3.900807838515602671e-02,-2.950276091025710173e-02,2.829905450344085693e-01
2.389467501227438562e-01,9.150892465324550473e-03,2.046556754907644660e-01,2.294880895600375122e-03,8.365161977033442947e-04,-9.412688074094337871e-04,2.147617787122726440e-01
2.225367482338845015e-01,2.265888574526225829e-02,2.591552312474989517e-01,2.049569268816887543e-02,1.211037906871449167e-02,-2.204478701741388255e-02,2.275289446115493774e-01
2.358325491262614204e-01,3.176330058056403560e-02,2.658201970417318205e-01,4.789970769120317079e-03,1.825913137701386940e-03,1.219171315326207108e-04,2.207757979631423950e-01
2.889962903721799981e-01,4.901075034743146430e-02,2.759487290955530137e-01,1.550344950911510672e-02,-7.669328325718104827e-03,-2.055379401025402529e-03,2.356740832328796387e-01
2.201318330378140287e-01,-4.352223290564061209e-04,1.281898891025153586e-01,5.990665375684736844e-03,3.210538969255289504e-02,-6.870947890242976204e-03,2.004129439592361450e-01
2.244530768842237789e-01,-4.497235754143680264e-04,2.295750671496927242e-01,6.132883269210343685e-03,1.035496523917765191e-03,-4.894185899719940376e-04,2.277635335922241211e-01
7.878721378334067882e-02,-3.171246697885131416e-02,1.976517586592866083e-01,2.462828636168047300e-03,-6.696281027458649004e-02,-3.303784125509353492e-03,2.301661372184753418e-01
2.198619282528421204e-01,-2.993156931129836718e-03,2.210705241525427467e-01,2.569012773881901562e-03,-1.420806611081088877e-03,-1.720650445584359558e-03,2.235395461320877075e-01
2.311891044702662490e-01,1.747823493780109594e-04,2.254474198811402541e-01,5.966511258674875653e-04,-1.258196858713885155e-04,3.920899402887645136e-05,2.282001227140426636e-01
2.281768201853017763e-01,-9.907089977752581156e-04,2.238387705122827642e-01,3.811904370303100540e-04,-3.917762205087187312e-05,-1.916507492376899526e-04,2.270307987928390503e-01
2.302364994288281785e-01,1.819012619009519049e-03,2.273918052275481216e-01,4.113427630043859978e-04,-2.109913513978135162e-04,-9.238132856341454589e-04,2.270155549049377441e-01
3.628512628975367749e-01,5.462634674405023039e-02,1.655379885787145455e-01,-3.195755630244976209e-03,8.625683201281911586e-03,-3.435602499914713892e-02,2.773321270942687988e-01
2.070512407998182369e-01,-3.708999780785204869e-03,2.258782615765707602e-01,-4.821112936597250070e-03,9.406968718227298742e-04,3.882058958208452985e-03,2.210427969694137573e-01
2.276880246697336463e-01,1.488288341507770784e-03,2.267174614797664578e-01,-1.460775176863994248e-03,3.343127794209650727e-03,-1.254837386137217870e-03,2.258149236440658569e-01
2.227640007122952959e-01,3.804198422858634521e-02,2.876265522555719878e-01,-2.436593949893792882e-02,-1.282782742922384048e-02,-4.178366822489896701e-03,2.294298261404037476e-01
2.234631670025026273e-01,-2.007094607012732679e-03,2.228776496247759087e-01,2.552628323232808069e-03,4.419406502566074983e-04,1.814950251033537994e-03,2.252447158098220825e-01
2.241237861321473401e-01,-3.272762716203136968e-03,2.226267585572494212e-01,2.400695324667525502e-03,6.147425049139592387e-05,2.049630147744144378e-03,2.267177104949951172e-01
2.231602780346989556e-01,-2.805487197513389930e-03,2.265091649799038098e-01,4.155946634671507179e-04,1.864912062995363736e-03,5.442343921699343244e-04,2.276846915483474731e-01
2.223986899121164762e-01,-4.284368809117450327e-03,2.226783191663164185e-01,1.844440624754613853e-03,4.305149556654091722e-04,2.456698991579735203e-03,2.268866300582885742e-01
2.408205169806326984e-01,-5.203671300350598550e-04,2.044390135508850070e-01,-4.127963835610566103e-03,-3.789953572460639749e-04,-1.118708970690316003e-02,2.263088524341583252e-01
1.948717606201411101e-01,4.898447700723868037e-03,1.978215791844594729e-01,1.494612514516333382e-03,3.624789698043417129e-03,-2.987014845274343217e-03,1.916555017232894897e-01
2.444498999815253315e-01,5.563670021227917761e-02,2.754699468568927445e-01,-2.969170828824110875e-02,-6.884951549333506726e-02,-2.688978374883124745e-02,2.480008155107498169e-01
1.819260034922390579e-01,1.108591051371760061e-02,1.776407869738112488e-01,2.683104101477372903e-03,-6.356415741448886991e-02,-2.467949004629627074e-03,2.015779912471771240e-01
2.110560149196099022e-01,1.177305547850290846e-02,2.303233717415785198e-01,-8.091731706788190051e-03,-1.127811615238531323e-01,-6.297005902168660574e-03,2.870517969131469727e-01
1.993805683661837025e-01,7.689932817427866385e-02,3.777158277463684710e-01,-3.094270955953404637e-02,-6.780009648468159067e-02,-6.009362330629177545e-03,2.922654449939727783e-01
1.621453540332452037e-01,-7.618058598196975062e-03,2.408912469571183046e-01,2.022981644004833227e-02,-1.007741783121588429e-02,1.296724225626016275e-02,2.245563417673110962e-01
2.183919966385216849e-01,-3.456031029365258522e-03,2.192992249114538994e-01,-2.302056133984441838e-03,1.449685552224192137e-04,-3.271793818575738279e-03,2.224111407995223999e-01
2.171687761982319387e-01,1.603718816632018762e-02,2.011028443100603136e-01,-5.233058454439422358e-03,-9.951535580977577747e-03,-4.261762780009479418e-03,1.947162151336669922e-01
2.334037585750304566e-01,1.050899805417926380e-02,2.647444751906015692e-01,2.295541836638573946e-02,-4.507158110513324011e-03,1.186661705354137043e-02,2.443649768829345703e-01
2.546378665745218650e-01,-4.127026557939061924e-03,1.592383665455530672e-01,-5.494248009400498796e-03,-2.549938634435955712e-02,-1.382048663911412782e-02,2.323543131351470947e-01
1.794429885709117878e-01,-1.406971083364386144e-02,1.858816165073093052e-01,-1.621731889243215735e-02,-2.990084259701510441e-02,-1.845868460473483810e-02,2.079132795333862305e-01
1.851510713622774862e-01,3.544551825618139085e-02,3.453062950712726398e-01,3.299523548405326051e-02,-3.250104914378135895e-02,7.166092251124581841e-04,2.801323235034942627e-01
2.463560192020328166e-01,2.516638608722057691e-02,2.653397405810499210e-01,8.629588403312784747e-03,-1.879269956759643811e-02,1.002426084629059501e-02,2.346670031547546387e-01
1.402641609603687278e-01,1.214845232720053458e-02,2.468298362662235956e-01,-1.642171415940898299e-02,1.829365528113269940e-02,2.971936434419628417e-03,2.079954445362091064e-01
2.027548590862787714e-01,5.384468651768226088e-03,2.373517876439056873e-01,4.342411232772340479e-02,-4.488976883574388732e-02,2.058211847565595901e-02,2.448541074991226196e-01
1.501776163737415515e-01,2.618961313352902165e-03,2.308783739999376583e-01,-9.682694949400676501e-03,2.242236384019571233e-03,3.552126035300649624e-03,2.013168185949325562e-01
2.087770654629329259e-01,1.332526200091721513e-02,1.988978756479117538e-01,4.281692663215330014e-03,-2.113633245856549707e-03,4.186861182785004743e-04,1.908848583698272705e-01
1.593145245945743471e-01,-3.321440239211784218e-02,2.128464318504135755e-01,3.994666365078262948e-02,-2.519240158388926648e-02,2.530256487587712391e-02,2.425929307937622070e-01
2.076855691446775620e-01,5.570912407093647767e-03,1.955549522436285659e-01,-7.986055690292129597e-03,-1.022138782140494945e-02,-4.658666807813707962e-03,1.977766007184982300e-01
1.733648410047269051e-01,2.513180995572572574e-02,2.250833967945531366e-01,2.264321097200999982e-03,-1.416520021558822888e-02,1.578420874871605799e-03,1.814911961555480957e-01
2.128614992563924446e-01,1.966247573801235826e-02,2.518554533721178434e-01,9.071250870785217690e-03,1.658304857820986321e-03,-1.675561339410613438e-03,2.159711122512817383e-01
1.689680090140960322e-01,7.627137869300693040e-03,2.221919294137927603e-01,1.387997574899700300e-03,8.453788748155974947e-04,-6.082022087563515762e-03,1.938291788101196289e-01
2.223358502658135394e-01,-3.955159505277971999e-03,2.233980718938269605e-01,7.896576647122451314e-04,4.411141333897176660e-04,4.532361941119673128e-05,2.268294095993041992e-01
2.049151335086685788e-01,1.937817380414375013e-04,2.282484077941628609e-01,8.859885468483661222e-03,-1.058677960929667837e-02,8.312455383115523525e-03,2.191143929958343506e-01
2.390613346794119298e-01,4.175932245167801593e-02,2.414133021622842934e-01,-8.703418972877320246e-04,-2.392199719107976092e-03,1.965063544962999172e-03,1.985665857791900635e-01
2.305364387495385248e-01,1.042757861001239461e-02,2.318296799032674715e-01,-9.336678781305734684e-03,3.034923009933034564e-03,8.951458140350971107e-03,2.219544500112533569e-01
2.139800555351418776e-01,1.792924109375529373e-02,2.316446484723492794e-01,-7.790380801547137218e-03,5.996691559356214299e-03,8.036781095040025982e-03,2.066272944211959839e-01
1.098830010475952135e-01,-6.678184495493674766e-02,1.253876963790501176e-01,-2.789867188788311761e-02,-8.026802022322566954e-02,-2.087174374352317174e-02,2.390831708908081055e-01
9.215709700356815304e-02,2.042193099208403084e-02,3.667644429342604706e-01,-1.166643077788049286e-02,-2.354983580666794585e-02,3.566999614372092214e-03,3.199443817138671875e-01
2.442982325791128173e-01,4.460218719276715094e-02,2.430037325506005097e-01,-2.235673781232417386e-03,-3.220033263861259441e-05,1.168584914481962450e-03,1.990999132394790649e-01
2.108138048655578967e-01,-3.381998892095228193e-03,2.080880205659766946e-01,-1.061824442208068354e-02,1.177306943248684033e-02,1.380283659368209195e-02,2.159375697374343872e-01
1.641218591478624256e-01,8.192349313119712262e-03,2.145049719061287163e-01,1.090407697127503128e-03,8.724124907669066412e-03,-3.123695813996394711e-03,1.870022863149642944e-01
1.618444660948550884e-01,-4.030720301007817419e-03,2.045917165225326628e-01,-8.426413045120137446e-03,-1.365925354405058724e-02,-6.182898418692197272e-03,1.931839436292648315e-01
2.434354629692619398e-01,4.958278764213092105e-02,2.414023112501776924e-01,2.804205018176862945e-03,-1.009532935904874917e-03,-8.487412431540368874e-05,1.929132789373397827e-01
6.819460395480528292e-02,-1.423040353613393150e-02,2.312782907670782873e-01,-1.470653265432076556e-02,-4.097520212298940562e-02,-9.741824594316829747e-03,2.297886013984680176e-01
2.451100954536569176e-01,5.247157794259826868e-02,2.461339347956754131e-01,3.047729162089708732e-03,1.128897035767874356e-03,4.295821440258647153e-04,1.932359188795089722e-01
2.252637188305710303e-01,-1.753517090708672788e-03,2.249599082161685693e-01,-6.043881615354122988e-04,-6.152201447591076769e-04,8.780013523277751348e-04,2.268754988908767700e-01
2.202227633132637918e-01,-2.210323834071548088e-03,2.208075155559728608e-01,-1.150759355095289874e-03,2.111331283960917588e-04,2.354187634004871379e-03,2.227725833654403687e-01
2.321313053061235254e-01,2.935150787564982933e-03,2.271690394923819856e-01,8.422986837703159806e-04,-1.905276922375528838e-03,4.667448509589033743e-05,2.267844676971435547e-01
1.368637811228616552e-01,-5.978839869932001116e-03,2.478956595624833281e-01,-1.645046075224120344e-02,9.395294916527076323e-02,9.553730734838918742e-03,2.759697735309600830e-01
1.787740969372077493e-01,8.188584943679258488e-03,1.997741387987458928e-01,1.674616544630809500e-03,-9.462857458174813927e-03,4.321812123308670962e-04,1.827575713396072388e-01
9.031151675061371842e-02,4.396730059839121241e-03,2.673805193209302100e-01,-9.666588366778503666e-03,-6.520362730097054894e-03,-6.170274966620745583e-04,2.331451177597045898e-01
2.030470792866747587e-01,3.379378106194430575e-03,2.119958951597726293e-01,-2.278092208556407611e-03,6.548621237779902234e-04,4.044933243648625269e-03,2.044504880905151367e-01
2.341086609356162196e-01,2.281709409513341114e-02,2.006046270770191486e-01,8.781073627009619922e-03,1.159255815126402772e-01,-1.354722988637786611e-02,2.824635505676269531e-01
1.443518124211938813e-01,-3.933935365874366430e-02,8.773677057686130043e-02,-8.649978994630703327e-03,1.067604773959050513e-01,1.385025899063034756e-02,2.480753511190414429e-01
2.084907767857544225e-01,1.661174197352768833e-02,2.214210532642598706e-01,7.468921792328570702e-03,8.269869554597420944e-03,-8.126205723984874715e-03,2.000910788774490356e-01
2.187517563492001604e-01,-2.406146569767397825e-03,2.142297021982247363e-01,-4.069793538328790768e-03,-2.743303460901108724e-04,1.629754660651781513e-03,2.190640568733215332e-01
2.081783024150743455e-01,7.022653161919689691e-04,2.163474350854351913e-01,-9.887203496354936977e-03,1.499016379789921624e-02,1.328561946433585474e-02,2.151856124401092529e-01
2.231060580299916718e-01,4.167227800858069875e-03,1.449703319567836324e-01,-7.110158938603822372e-03,-2.374789864643614759e-02,-1.704433570301546949e-02,1.991169005632400513e-01
2.859307351713024636e-01,6.991488008611049243e-02,2.834484320500386678e-01,-2.312403861869055666e-02,9.441499941969543064e-02,3.080170972437580590e-02,2.780751287937164307e-01
2.590351772002826847e-01,1.016133934570608022e-02,1.039296231082873501e-01,1.459075107036558218e-03,-3.724315520826015739e-03,1.307188852357037481e-02,2.189859002828598022e-01
2.174289098904282347e-01,-8.362163298555602697e-04,2.206898014487105320e-01,1.198486493515951538e-03,7.080656731718316639e-04,3.141024386899112647e-03,2.199942022562026978e-01
1.858209168633900288e-01,-4.995550225879258344e-02,1.805216357859443232e-01,2.024685067364751304e-02,-3.329907863282585700e-02,3.769071726036566511e-02,2.513706684112548828e-01
1.043766917162938235e-01,-3.057351652991217861e-02,1.587191132327406551e-01,-1.470464325681416877e-02,7.507184931528013139e-02,1.058834207027798194e-02,2.153846472501754761e-01
3.151966844584163097e-01,3.318750868257874798e-02,1.307501253269035268e-01,1.049358506667932671e-02,-4.876215169444346464e-02,-1.900047163970430483e-02,2.647276520729064941e-01
2.244109748206979948e-01,-1.951176695094758440e-03,2.236863103316582557e-01,3.522638519017606807e-04,1.304912117518791442e-03,1.467702259939498294e-03,2.260271161794662476e-01
1.611344497939027898e-01,1.309630047159093813e-02,2.476482677658962961e-01,1.565897830141673233e-02,9.374801464908721904e-02,-1.247591471285578249e-02,2.641513049602508545e-01
9.775270411955759575e-02,-4.422543297344255775e-02,2.377493059939826126e-01,3.340191057621343107e-02,-3.814805512347643150e-03,2.334158400572497721e-03,2.510783970355987549e-01
2.479444365394925798e-01,1.658868010000602577e-02,1.694892111133610157e-01,-5.474875937105437226e-03,-2.330524791741590482e-02,-1.177292605044365746e-02,2.089611738920211792e-01
2.068243445119105073e-01,-1.537091626361290764e-02,1.055740104756734549e-01,-3.554892870167853606e-03,-2.585203524287246757e-02,-5.044892101563247001e-03,1.981016546487808228e-01
2.064155775585377606e-01,-2.593349703417364982e-02,9.082572276305309056e-02,-5.635207656132738135e-03,-6.153478842743510119e-02,-8.486922160183216560e-03,2.283875048160552979e-01
2.337010597410633106e-01,8.178641048868950936e-03,2.310425975796002729e-01,4.576826515168338529e-03,-4.251215487166707177e-03,-4.458129814167930902e-03,2.245986908674240112e-01
5.936254965825425722e-02,-1.615466268937554295e-02,3.412479904659079244e-01,-3.282532849699612565e-02,-3.590627914251436070e-02,-1.628002569611431078e-03,3.369832336902618408e-01
2.276662685335195113e-01,-5.008464975335996661e-03,2.053487950599691136e-01,2.303347507086508927e-03,3.442552085531295353e-03,-1.111262813149575118e-02,2.233043462038040161e-01
3.318034870110848078e-01,3.796823678707803018e-02,1.644806584567103658e-01,8.182367319345157375e-03,2.455226741115560003e-03,-4.253725160107958009e-02,2.661163806915283203e-01
1.814129616320853400e-01,-4.630551872366966970e-03,1.623796723430849520e-01,-1.097294649249462095e-03,-2.464098809877991389e-02,1.652300630966498280e-04,1.823695749044418335e-01
2.350628330295432833e-01,3.019518648374752701e-02,2.359929983250478036e-01,-1.405849438712895470e-03,3.458673989956424777e-03,2.126020874098211080e-03,2.054691165685653687e-01
2.211113282440180239e-01,-4.583545559419782700e-03,2.153019576349988196e-01,2.853558955833836955e-03,1.405529130845719656e-03,-1.563205647317295055e-03,2.229315191507339478e-01
2.097023728952723820e-01,-4.200300143097551731e-03,2.197972067953977704e-01,3.284144573606170500e-03,7.275477277188058343e-04,-5.160038938178251704e-03,2.193841189146041870e-01
1.803907365255508766e-01,9.801268731855231064e-03,2.135576395300144981e-01,5.665042379395116359e-03,-1.821554929202184522e-02,5.463132660754288841e-03,1.924577057361602783e-01
2.271472314150963512e-01,-1.438169614636747307e-03,2.250395899593274907e-01,1.559120979685509902e-04,-1.484624396115679246e-03,-7.805426880861444407e-04,2.275576144456863403e-01
2.220473265014374364e-01,-4.665923256253368123e-03,2.230067451234465370e-01,2.000346640503755137e-03,1.678927222107524085e-04,-1.639593965823407315e-03,2.272388339042663574e-01
2.393633285753388185e-01,3.177262491217119900e-02,2.345508256032764471e-01,1.844728397885608264e-03,-1.531365922204443479e-03,3.107106701373588652e-04,2.052694857120513916e-01
4.073162117835886775e-01,1.594520736918708381e-01,4.307044692273181985e-01,3.700573274546876262e-02,2.067081056072779879e-02,-2.044595247157783915e-02,2.728094160556793213e-01
2.171326275507123038e-01,6.923519229761254667e-03,1.841601564156171156e-01,4.987430558761585773e-03,6.834406762259466819e-03,-1.433607653517130105e-03,1.963793635368347168e-01
2.170505827159997791e-01,9.352733004208843570e-03,1.742701197154348791e-01,5.330750358015378179e-03,1.640342798714421527e-02,-1.035629565132237598e-02,1.931252926588058472e-01
2.675027994068684967e-01,3.899955690301562528e-02,2.336856377420920006e-01,2.574360970587515757e-02,9.621682575912304802e-02,-2.927020963525774067e-02,2.792158126831054688e-01
2.228333966883524753e-01,-4.504508923724448444e-04,2.219293469540337682e-01,2.189914654416721170e-03,-3.357474225233594628e-04,-1.109929025108435247e-03,2.228745222091674805e-01
3.429713563118502728e-01,5.973669571125342359e-02,1.905225395159603485e-01,1.097702015275133294e-02,7.433558180142726957e-02,-2.002301127427666069e-02,2.800451815128326416e-01
2.442623793999543769e-01,6.457652858884777025e-03,2.343521530920092966e-01,-3.162590762666617639e-04,-1.279131947051299987e-03,-7.956564376562256374e-03,2.334260791540145874e-01
2.278369428984504119e-01,6.169812934299662155e-03,2.283747578662435052e-01,1.103106544921214236e-03,-2.500387213979178309e-03,-1.180841585485201302e-03,2.219964265823364258e-01
2.330858399182381691e-01,6.918528261136647206e-03,2.424921186536738160e-01,9.041624546929109482e-03,-5.706747477311601563e-03,4.952504170489869552e-03,2.319139093160629272e-01
2.381741815618539926e-01,9.257383401934882183e-03,2.045223983089552722e-01,7.853086623617282062e-05,2.542829682974733873e-04,2.140317728230636905e-03,2.141164094209671021e-01
4.296660089606382793e-01,9.239460275068467343e-02,4.669077793527662279e-01,-3.616425080607569426e-02,-3.421173950902356431e-03,-7.202230697168344326e-03,3.630617260932922363e-01
2.236631076663543327e-01,1.094616362331546355e-04,2.238293666656118730e-01,5.735029678373454627e-03,1.985989212327700197e-03,6.395375529845063675e-03,2.241576164960861206e-01
2.238428410617785691e-01,-7.059721587726608405e-04,2.294769672273814232e-01,-1.155650786151136278e-04,-8.826340874537487306e-05,2.371154582406318910e-04,2.274187356233596802e-01
3.305777305156873958e-01,4.839789310234182684e-03,8.115438872385238867e-02,7.836436090251532169e-04,1.947837044062933538e-05,9.096138724960619454e-03,2.955006361007690430e-01
2.194346708669236146e-01,-5.784046213563459604e-04,1.495325017442633020e-01,-6.263356310904305210e-03,7.956090041691760151e-03,9.703643201880888386e-03,1.962211579084396362e-01
2.277138233494805930e-01,6.197035135601158817e-03,1.908994896019737819e-01,6.180505102418654487e-03,-1.247851754779969336e-03,7.243298216323353772e-03,2.062683999538421631e-01
3.318989322512712059e-01,2.864352276165713085e-02,1.154562925475079022e-01,-4.344640748196852871e-03,2.151093462558985661e-02,2.402330118931940428e-02,2.763150334358215332e-01
2.531349768387547439e-01,2.625117931419135298e-02,1.768711466304760671e-01,-4.400942042725414921e-03,7.363270816770101090e-03,1.191653900187791999e-02,2.015841603279113770e-01
2.699700699070021748e-01,1.575471284138937889e-02,1.834182920116297077e-01,6.352300117288143567e-03,-1.295121991198642684e-03,2.746239748992451019e-02,2.291342467069625854e-01
1.955454563671746859e-01,-4.313268819274060362e-02,9.168386381980497823e-02,-1.428419147843928982e-02,-7.381643675576037011e-02,-5.950582097484909301e-03,2.450100779533386230e-01
3.351914310844022471e-01,2.716930686438354114e-02,1.286316916925940856e-01,7.876632237817116425e-03,-9.377008377609699630e-03,3.753942168010232505e-02,2.803517878055572510e-01
2.315626368353270736e-01,5.128427678539437817e-03,2.066949167233667062e-01,3.847197804842127523e-03,1.103592678014002825e-03,1.979649945867117261e-03,2.152202725410461426e-01
2.418523062851797301e-01,1.084296379091725937e-02,1.889439649476513938e-01,-2.598885468575473558e-03,5.178021357817695495e-04,7.060158889213787210e-03,2.100306898355484009e-01
2.548532688679538971e-01,-8.828259210931332923e-03,1.541798125854937918e-01,-6.007219352489853552e-03,-1.021663187032453152e-01,-8.386504740573286210e-03,2.911193668842315674e-01
2.287539072604552470e-01,-6.280475614029584763e-03,1.133170170269619526e-01,2.915533745567280323e-03,-7.120873464193681890e-02,1.589694944209086094e-02,2.396474331617355347e-01
1.964629928801345238e-01,3.274387372076026370e-03,2.084787436276779593e-01,3.573163892519672178e-03,-4.769591886138706792e-03,6.413573884597353371e-03,2.000436782836914062e-01
2.323961466643300333e-01,-3.918958599948196841e-02,7.070711894724861224e-02,1.557322728411530272e-02,-1.516022576770031417e-02,4.021675942399666193e-02,2.495174407958984375e-01
2.450466171977374596e-01,2.696189825910833004e-02,1.980564365077504829e-01,-1.690158854665758589e-02,-9.773680701195504306e-02,-1.300616238329728447e-02,2.637102603912353516e-01
2.271030307437419404e-01,1.206657575963959728e-02,1.844362768969413369e-01,-5.219311466517033253e-03,-3.073655400621805051e-03,-1.575174044145342695e-03,1.974936276674270630e-01
2.273327348692103234e-01,4.254187195700254165e-04,2.265108990060335503e-01,-7.423534750962526617e-04,3.594074950116129055e-03,-1.050984309774447229e-03,2.265940010547637939e-01
2.150064089124715805e-01,-4.820274407949493023e-03,2.191748863898485000e-01,-5.178547641306029473e-03,-1.732778931955841198e-03,-5.775950100154430937e-03,2.223668843507766724e-01
2.322096828074551311e-01,2.007410131699069455e-02,1.889600224937782735e-01,7.532467075192682097e-03,-2.420362887861103249e-02,9.343685276499024209e-03,1.997168511152267456e-01
2.283497909975175655e-01,8.676074415626261471e-03,2.294787663749253692e-01,-7.025607050905605588e-04,3.127111333085084380e-03,-6.783978784614002645e-04,2.203134596347808838e-01
2.392038194826409947e-01,2.248718264321070137e-02,1.581955406764285199e-01,-1.827000986383925342e-04,-8.131385471186924202e-03,-8.717368668101000057e-05,1.901869624853134155e-01
2.229254979612406151e-01,-5.421849060645633767e-03,2.218264206496197710e-01,-1.700594611481866323e-04,3.924851966102933473e-04,6.427598156824664661e-04,2.278037220239639282e-01
2.306537466534171466e-01,9.963995122437757646e-03,2.261836320099132325e-01,-6.038071530560735860e-03,-7.659446731626945969e-04,-6.040834731676656029e-03,2.189932614564895630e-01
2.266135773963766087e-01,1.939345002984980970e-02,1.728205219384644220e-01,1.152282127317998291e-03,-7.465432214481234133e-03,9.215685747377273503e-04,1.867099404335021973e-01
2.492141859921455371e-01,1.317282623412308062e-02,2.377658319569054823e-01,2.288018226638309852e-03,1.314678280119886602e-03,-6.882085255336478982e-03,2.308837026357650757e-01
3.318274922202326671e-01,1.005522038542885910e-01,3.167025018504440181e-01,-3.533180598450912091e-02,-5.493673034553527013e-02,-4.157529720414481628e-02,2.611582875251770020e-01
2.222935909534562993e-01,3.272476801950990888e-02,1.887696368714688322e-01,-3.821423470125915201e-03,-5.722040437360233905e-02,-7.964536671074716120e-03,2.018953561782836914e-01
2.257434867547190305e-01,-3.248083868617995806e-03,2.227587135220521208e-01,5.302514467419966156e-04,-4.761460547765028234e-04,-1.905322321160534673e-03,2.275411486625671387e-01
1.979743277364972021e-01,2.266293856543760699e-02,2.645149601049071042e-01,2.397155966697925300e-02,-2.387883793736732610e-02,1.110321849212366971e-02,2.250142544507980347e-01
2.162365369031634954e-01,7.968957459640255148e-03,1.702536468157377914e-01,3.668288348168646709e-03,-1.117080621718976631e-02,4.334462230740489946e-03,1.907463222742080688e-01
2.476544818615490362e-01,2.881134988020846166e-02,1.700535654627021165e-01,7.741110828057290319e-04,-1.252675603030580821e-02,2.420579800030971118e-03,1.934474706649780273e-01
2.308926183241702679e-01,2.140353250827489728e-02,1.656064497215923581e-01,4.054283589972242606e-03,-8.541779601313460174e-03,-1.467575512916098742e-04,1.863853037357330322e-01
2.407316307736145078e-01,3.690818371685544719e-02,2.406271260676165480e-01,-5.258095137647017005e-03,-2.265147210248281365e-03,-1.062104607338650855e-03,2.040206491947174072e-01
2.294174982757042347e-01,1.004707173177038504e-02,2.373858480653667224e-01,-6.626526741884936718e-04,1.764029576531018963e-03,-6.070309160947533807e-04,2.234874814748764038e-01
1.726119479617856389e-01,3.652427023104086456e-02,2.565355700899081826e-01,5.491450563448559662e-03,-2.909254364371171089e-02,1.303950444977177131e-04,1.990317851305007935e-01
2.709781284721930472e-01,2.835839061408904072e-02,1.493117436507020446e-01,7.471352483344609677e-03,-9.580985849830895087e-03,9.167209053303556829e-03,2.117624729871749878e-01
2.391649541045439697e-01,6.302662533974445758e-02,2.914017859728138538e-01,-3.228459433007999785e-02,-9.831069941834619241e-02,-1.834379883281205686e-02,2.758362889289855957e-01
3.210417902890763120e-01,3.419799494047504052e-02,1.544305291828692583e-01,-7.955575810396580891e-03,-7.243700217325522994e-02,-1.894528614520151616e-02,2.815231382846832275e-01
1.292371813775010370e-01,-1.311276031948796494e-02,2.369026725890206464e-01,-2.538428138201068510e-02,-6.572160911010241358e-02,-1.117070068053028532e-02,2.498939186334609985e-01
2.032730647184174955e-01,-2.163131609406719613e-02,9.941008004241314033e-02,2.875237509077620875e-03,-2.478514660536109554e-02,7.209737992278367029e-03,2.000847607851028442e-01
1.767549965374484722e-01,1.791500410289760536e-02,2.172064074711991810e-01,-4.186863026565438954e-03,-2.504796349885069981e-02,-3.105336204126467239e-03,1.877644360065460205e-01
2.210717266872476161e-01,1.637822047323478358e-02,2.244800260817926829e-01,-8.020492666544658603e-03,-5.396299215497764833e-03,-8.765331560539381742e-03,2.076524496078491211e-01
2.292385389163321130e-01,1.295353560159272222e-02,1.582864148248339098e-01,5.258297955989616780e-03,-1.353535357843442359e-02,3.411806144150498262e-03,1.927044689655303955e-01
1.478966030122751962e-01,3.268603667712746685e-02,3.239286918120815040e-01,-2.551506052582328682e-02,-3.924140110522283259e-02,-3.613350090953034582e-03,2.667459845542907715e-01
2.170989934619601547e-01,4.910552401700754577e-03,1.426298938788945203e-01,-4.900769530096088684e-03,-3.409514929445801174e-02,-3.552957359311438058e-03,1.958710253238677979e-01
2.597281164092476446e-01,5.100523626529410159e-02,2.667928851082528308e-01,1.563467669135020291e-02,-6.183476646775754731e-03,-5.197106555792593320e-04,2.143328636884689331e-01
2.413328065331289130e-01,2.387752233729451001e-02,2.461730021687260628e-01,3.462954891371850669e-02,2.934733895133071618e-02,-2.207464308777697462e-02,2.366559505462646484e-01
2.258959196492851262e-01,1.034231036264449122e-02,2.369584475478707097e-01,1.388770357428572959e-02,6.038185421772940958e-03,-1.832438141080311748e-03,2.228640019893646240e-01
2.953791264029022035e-01,-6.547593242931415425e-03,1.264903578986024124e-01,-7.306468140854729129e-04,-7.380285547769253884e-02,-7.115944145419626776e-03,2.918650805950164795e-01
2.773784018037107613e-01,5.513724277651355088e-02,2.869861836543661782e-01,6.896838461060947854e-03,8.857362172449314078e-03,-1.222154065703730426e-02,2.290083914995193481e-01
1.848854438034338021e-01,-4.177455810331782982e-02,1.019024537403298569e-01,1.044205405331302162e-02,8.223327769132830756e-02,-2.195522954331480606e-02,2.480164319276809692e-01
2.337537140385016476e-01,1.618005678117251378e-02,2.410056559971904544e-01,8.462645511864593656e-03,3.867217724492660793e-03,-8.427241581624521360e-03,2.223544269800186157e-01
2.233588745398083497e-01,2.627087759403901046e-03,2.325538677992174397e-01,7.094272844886208296e-03,2.664075382970804932e-03,-7.782567472881170637e-03,2.262535691261291504e-01
2.278298511007882388e-01,1.825432753225360305e-02,1.629136961321839827e-01,2.882366217774256882e-03,6.691293213947156066e-03,-5.727730259938617393e-04,1.862562745809555054e-01
2.365644536031363265e-01,1.991129800108078218e-02,1.525538277135490839e-01,-3.453904685019210455e-03,-9.563532630278849533e-03,-6.032855279024803641e-04,1.900170296430587769e-01
2.720956509720481864e-01,7.861902246449392617e-02,3.762158345491825040e-01,3.941610372813231233e-02,-2.727988248188181059e-02,-1.666191925243189556e-02,2.759445011615753174e-01
2.406827725794636608e-01,3.147821647641468878e-02,3.054566173031627585e-01,5.963784092042790502e-02,2.849566083336498371e-02,1.207754496849056981e-02,2.739649713039398193e-01
3.189816729324208566e-01,1.320503764413452630e-02,1.258360763074223010e-01,-5.105361609856643801e-04,6.400726066366682621e-02,-4.566899354687565908e-03,2.899987995624542236e-01
2.070124080484947726e-01,1.890789812866019992e-02,2.715015895448163463e-01,-3.134666170439263932e-02,1.400599164798272886e-02,-1.420338915831312419e-03,2.349792867898941040e-01
1.652225297643165058e-01,-1.246112150827560772e-02,2.351083517127681988e-01,3.883290443792414282e-02,2.172461939406860124e-02,-1.699296779065385607e-02,2.359644472599029541e-01
1.148684637210086040e-01,-1.291900490049451011e-02,2.192991470900330087e-01,-2.299130006299527490e-02,-1.072922607357196419e-02,-3.285398139580341346e-03,2.062616497278213501e-01
1.242260041655315894e-01,-2.827173719958470111e-03,2.653008784049605273e-01,-1.349212970059323127e-02,-8.194281096286152102e-03,1.310488167068537017e-03,2.339259386062622070e-01
2.244280337433116612e-01,-4.733665214321225445e-04,2.309019359042733255e-01,-1.821949378339307916e-04,3.305594419360942371e-04,-1.944021020864535076e-04,2.282084226608276367e-01
2.306910717891101914e-01,5.503587240370172440e-03,2.250317798437542205e-01,4.748028523721709721e-04,-1.287692911519853958e-03,4.217326048271131912e-05,2.224245667457580566e-01
2.625052871668268062e-01,1.056760114704484721e-01,4.032379198109338758e-01,-6.370258873332092231e-02,-5.342477300591129451e-04,1.786519932473693006e-02,2.821426987648010254e-01
2.172501380038052710e-01,-4.050964668012024816e-03,2.107160360140809541e-01,-4.692385182901106892e-03,-1.918817961608550561e-03,-2.981431763774172478e-03,2.183452248573303223e-01
2.078698984003791161e-01,5.385923914509010979e-03,2.118386760124929546e-01,-3.895729881836091247e-03,6.919770230059699156e-03,5.017328876213946603e-03,2.051434218883514404e-01
2.107547953824647213e-01,2.284983785023342318e-03,2.108616670037408714e-01,-3.137418485623498336e-03,-3.843419324415045003e-04,7.805148926002966831e-04,2.085995078086853027e-01
2.299749550960698552e-01,3.208794683238891388e-02,2.657208430398503296e-01,-2.448060336530433895e-02,2.577163082250400611e-02,1.247799437464633052e-02,2.275262922048568726e-01
3.308021187651015160e-01,1.405699474526421466e-01,3.922644105518177104e-01,-4.048412220172104004e-02,-3.710605822883839694e-02,-2.795087539889326567e-02,2.510960400104522705e-01
2.223079880753837667e-01,-4.663416546901222315e-03,2.225720098683338644e-01,-5.526241149824278080e-04,-1.713898316832270863e-03,8.465865285706465366e-04,2.271296828985214233e-01
2.672205045767327980e-01,1.422027012150100522e-01,4.538868670575092468e-01,-6.350878352986580322e-02,-3.831264372479745162e-02,1.011993373986342683e-02,3.010337352752685547e-01
2.342445820107445509e-01,3.090037190003022682e-02,2.392447551636990299e-01,-1.149756922138350096e-03,-6.736612566592787774e-04,3.121410370600770368e-03,2.059737443923950195e-01
2.208145865943866859e-01,-2.732621955266939517e-03,2.207330492644832276e-01,-6.466397180574457110e-04,-7.384776742165769610e-04,3.448080421631109435e-04,2.235137224197387695e-01
2.151837492576705868e-01,-9.986219911468086075e-03,2.034120038948390718e-01,-3.849650491518222858e-03,5.054908352360047491e-04,3.712306540989093653e-03,2.197180390357971191e-01
2.222153771784523835e-01,-6.178315230675052172e-03,2.052414225196683151e-01,-3.646290045190891450e-04,-2.219800234266926242e-03,-6.637721784242029896e-03,2.207315266132354736e-01
2.365719201797207571e-01,3.519379151969093122e-02,2.334072649030319579e-01,-1.003480939710953536e-03,-1.535424001857652130e-03,2.792659023630290286e-04,1.998404413461685181e-01
2.220349780060703604e-01,-2.408571660126507252e-03,2.222012589259431958e-01,-7.973534623061234988e-04,-1.145012526141033025e-03,8.266707076917073713e-04,2.245443016290664673e-01
2.862788957224194353e-01,7.178985929220813023e-02,2.752455852990995933e-01,-7.511885696932662018e-03,-5.835830636092833538e-04,-1.100740939234751397e-03,2.096060514450073242e-01
1.989670481869862395e-01,1.507039364458756525e-03,2.072060525466391245e-01,8.738458041823595965e-03,-1.242588791503003581e-01,1.219830311970724994e-02,2.961106002330780029e-01
1.599735274778478211e-01,2.218416858395372282e-02,2.293942196955836010e-01,-9.532128603968447259e-03,-3.297084777218543122e-02,-1.476636465664953740e-02,1.938002109527587891e-01
2.238431630484649659e-01,-5.021036574169301936e-04,2.223338994121371315e-01,-3.215223282797312170e-03,-1.917163472316660332e-04,4.391286441700798003e-04,2.236653417348861694e-01
2.511398545713666719e-01,5.362784058330191672e-02,2.491820155254106106e-01,-5.738188119990864436e-03,5.465292867918378076e-04,1.098937592347172098e-03,1.968030333518981934e-01
2.051507067008623286e-01,7.256988837569672279e-03,1.936543477491813325e-01,-5.202745343939185231e-03,-2.496571536872845606e-03,-1.363428019104578458e-03,1.926772296428680420e-01
2.378655117555743270e-01,2.937803803857386153e-02,2.318191082373721734e-01,2.934758152761429359e-03,7.253529194012720916e-04,-2.775661330285188427e-04,2.055982351303100586e-01
2.464762277862924122e-01,-3.216321784113629345e-03,1.733908513961260889e-01,7.380159764572184278e-04,3.519335959740144300e-03,-3.224212977868547853e-02,2.293391078710556030e-01
2.499324463174456001e-01,3.664898988588821682e-03,1.810381166083710192e-01,-7.238131170571407988e-04,5.710543246016807836e-03,-2.536224332245191546e-02,2.246259748935699463e-01
2.378617771606011400e-01,6.768275055337613644e-03,2.166017965972741877e-01,-9.295618947061566606e-03,-6.015065547100222759e-03,-9.059377426954399321e-03,2.226143181324005127e-01
2.418729997814875743e-01,8.130924588466342806e-03,1.506169051678450388e-01,-5.641905843067036332e-03,-1.507985415124792929e-02,-1.980551527646032609e-02,2.087752819061279297e-01
1.950657952232737469e-01,1.293854056587379064e-02,2.057734619289310340e-01,-8.333166396451928935e-04,-2.755023303410233243e-03,-1.396324309802224675e-03,1.877920478582382202e-01
2.382361388878223851e-01,8.742908364639395691e-03,2.332125661564158625e-01,3.519186526073109656e-03,-4.498883927124610986e-03,-4.324771240631466833e-03,2.273620218038558960e-01
2.272843818936187699e-01,2.051664459314278544e-02,1.923224740130659860e-01,-4.231780120814284882e-03,-2.023164815544028702e-02,-6.304446744999164798e-03,1.953129768371582031e-01
2.593028310814700088e-01,4.898460377155675061e-02,2.192408194268859467e-01,-2.124787265916582360e-02,-9.297093023069077922e-02,-1.844375755351022883e-02,2.563565075397491455e-01
2.109395333627596125e-01,3.648749724668276517e-03,2.121114457704381118e-01,-1.201204068018975855e-03,-8.185871787279285763e-04,-2.330498995459546682e-03,2.079336494207382202e-01
2.714424107311459444e-01,1.809104527474986179e-02,1.955066707048949970e-01,-1.596999770527835275e-02,2.313776467508583609e-02,2.521513432856618483e-02,2.345065623521804810e-01
3.146177905228685900e-01,3.876076522573368432e-02,1.664151135231642931e-01,1.867368562729570039e-02,7.787155634016482142e-02,-3.352653537443910786e-02,2.824686169624328613e-01
3.355305679357848403e-01,1.381960377115634686e-02,1.037021262492625467e-01,9.109523012139375889e-03,3.373395818330632290e-02,-3.598154211546626680e-02,3.003456592559814453e-01
2.918266576382110844e-01,1.991641710628105910e-02,1.519118095410451064e-01,-1.369158519498349207e-02,3.667433015144266895e-02,-3.685237868968223307e-02,2.532562911510467529e-01
2.409480984341707543e-01,1.088182999206765977e-02,2.124582619032520381e-01,1.020091133867663362e-02,6.635797723559194901e-03,-2.283599380457132857e-02,2.218024581670761108e-01
2.117759628801904603e-01,6.016287048312170260e-02,2.401040971801483570e-01,7.772445779473825117e-03,5.392679135599011409e-02,-5.270729592770526280e-03,1.925429850816726685e-01
2.823019576895537952e-01,2.628904090940503702e-02,1.917111842890449058e-01,1.415422821041961016e-02,1.549496912690666653e-02,-2.683436945110866459e-02,2.324617207050323486e-01
1.861375819961641476e-01,-3.980368516775828480e-03,2.106289296392361843e-01,-4.904718044256733446e-03,4.553933413281754765e-03,6.191318021834175435e-03,2.040840238332748413e-01
2.469086155069012967e-01,3.763029490513841724e-02,2.162533806306742024e-01,1.037356106511811565e-02,1.111557648059975784e-01,-1.577500505031317196e-02,2.765101790428161621e-01
3.869536276370873912e-02,-3.729360133654088805e-02,2.383626901978851687e-01,1.596258977223147246e-02,-4.122860429815173450e-02,2.096756535234666396e-04,2.582204937934875488e-01
2.360312218643969562e-01,2.985991586489278315e-02,2.343786063825726018e-01,1.107222698921078718e-03,-2.451571585812765963e-03,-2.794100664559967268e-03,2.054598331451416016e-01
1.802394030751105491e-01,2.990229509468783631e-02,2.878612262269324984e-01,-2.603631191477960571e-02,7.608092596192304879e-02,1.148037526626110791e-02,2.648721337318420410e-01
2.195217223163170583e-01,9.545965688593072151e-02,3.737317398762419196e-01,-4.318020348424689292e-02,2.986002548602670337e-02,2.019171308426519901e-02,2.603753209114074707e-01
2.315982639410072985e-01,1.970123729173511862e-02,2.338279305816107490e-01,-1.236500411763955800e-03,-1.645465767752900136e-03,1.848073302005995939e-03,2.130744904279708862e-01
7.896340251633238161e-02,-1.270889352688520102e-02,3.000048904153247431e-01,-5.372207663673393523e-03,6.300593607669691121e-02,3.019336999406894984e-03,2.992485761642456055e-01
2.102930872292063658e-01,9.804244069987866350e-03,1.845234932826838037e-01,9.294278282675370526e-03,6.083490937486776134e-02,-4.798585115125602804e-03,2.170811444520950317e-01
2.336826865093302730e-01,1.763801260216452116e-02,2.362657756439486278e-01,1.591013594228175843e-03,-4.132229692752948172e-03,1.901806927029113655e-03,2.175079435110092163e-01
2.201332474218392621e-01,2.603856244193569758e-03,2.247315251948708015e-01,-4.463271673241804745e-03,2.422853465494521387e-03,4.046143271372283461e-03,2.201520502567291260e-01
1.400913727817209853e-01,4.389642414248015601e-02,3.483645994846504834e-01,-2.674738037162842710e-02,2.787226638029318901e-02,7.103420178433792094e-03,2.780184745788574219e-01
2.395815175228191429e-01,3.073783707236124596e-02,2.322619679427505579e-01,3.286132526772613579e-03,4.017123864288245187e-04,-3.468999950537679663e-04,2.053627520799636841e-01
2.339155967347483212e-01,1.354168556895024578e-02,2.351561778144762582e-01,-2.307466194394652598e-04,-4.517669765764270769e-03,-1.409680889712282541e-03,2.211491316556930542e-01
2.282079596892203355e-01,-3.172091548056948929e-03,2.194300640503260014e-01,-3.484321850286973069e-03,-1.817374642010999557e-03,-2.776028084959513212e-03,2.272711992263793945e-01
2.226644538211173807e-01,-4.113883543734958570e-03,2.221328649972310609e-01,1.036030264241771746e-05,-3.535761170602126288e-04,1.199949643376031555e-03,2.265233695507049561e-01
2.125500060584447348e-01,1.012379637873339622e-01,4.218382872151232865e-01,-4.828193902432095092e-02,-2.948748027188805368e-02,2.615198349658696096e-03,2.985142469406127930e-01
2.186664967290573025e-01,-8.514934542683261220e-05,2.190353563574307660e-01,-2.079363754693260014e-03,-4.294284224588991168e-04,8.844729705512875293e-04,2.189725488424301147e-01
4.119820510467051000e-02,-1.923054749108582540e-02,3.485857795527130820e-01,3.844835466534953037e-03,-3.055913045864987534e-02,-3.141562380279525140e-06,3.457741141319274902e-01
2.287027724948953455e-01,2.385946216980239232e-03,2.311456018105763899e-01,1.830025622122620878e-03,2.310983123696772838e-03,2.663413044597233350e-03,2.276521027088165283e-01
2.238509111303800259e-01,-2.123985501598618653e-03,2.235095542897859167e-01,-7.913552353288098124e-05,-3.266005967991111847e-04,8.020591595801645525e-04,2.258094400167465210e-01
1.928719554415974369e-01,3.674786679218422503e-02,2.762202510777301834e-01,1.891051185438664614e-02,-2.453117042682229076e-02,1.316631398004542743e-02,2.184778153896331787e-01
2.211413128648028192e-01,-3.065521280577770957e-03,2.210968020052871408e-01,-1.771150509532389841e-04,-8.725399785178831243e-04,7.378429224739670601e-04,2.241935282945632935e-01
1.745544740786923454e-01,-1.115033491890066175e-02,2.152999699172573056e-01,8.668308689021688232e-03,3.022911927388776537e-03,-6.453926874210356469e-03,2.099783271551132202e-01
9.112996176454946085e-02,-1.652657089333950391e-02,2.499973846067099492e-01,3.572059382479394335e-02,-1.136608330038949184e-02,1.214741448548845373e-02,2.420537769794464111e-01
9.476283733913069829e-02,-5.472024578612436074e-02,2.104936549968966508e-01,4.112437259676197249e-02,4.351088883282529934e-03,-2.693299825255581880e-03,2.412277162075042725e-01
1.587086360281761699e-01,1.646592458701498507e-02,2.489929959348160804e-01,1.191668077904341032e-02,4.885193245679737319e-03,-1.191206657204197739e-03,2.042753547430038452e-01
3.436214786195094795e-01,1.314410949289494812e-01,3.809636259252504598e-01,5.419885346643655427e-02,-3.921516048962934986e-02,2.537781862966978150e-02,2.640006840229034424e-01
2.060415920780492849e-01,5.773452110554896932e-03,1.750171942160612670e-01,-5.678942083434025505e-03,1.171381554636141686e-02,6.813293829654678072e-03,1.884258389472961426e-01
8.163256648504910173e-02,1.007888809441181976e-02,3.333895272155471545e-01,1.094636855589858036e-02,-3.494089320324664932e-02,7.235151421209183413e-03,3.011556863784790039e-01
9.891627800589730679e-02,1.943650914040576105e-02,3.772537017746233068e-01,-1.618227536458431302e-05,-2.052508636565671118e-02,1.760549634042541376e-04,3.273757398128509521e-01
2.284806407396798300e-01,2.602141063325108528e-02,2.340141183942752168e-01,1.280564639077075588e-04,-1.895815635032079786e-03,4.636720656450561869e-03,2.054653018712997437e-01
2.227918844123309983e-01,-7.726881358885717699e-04,2.213419783761766679e-01,-1.794113006225552800e-03,-1.634310426296605584e-03,2.323394134248311579e-03,2.229191213846206665e-01
1.042119730550812029e-01,1.486671639654388311e-02,3.488174765355684381e-01,2.347387177901060634e-02,4.068339059312665179e-02,2.652685955711639280e-03,3.103358745574951172e-01
1.555515847175361621e-01,1.801260407677320041e-02,2.338774548670404796e-01,5.688656235423731125e-04,7.778575420730137607e-03,-1.899977430890575133e-03,1.897843331098556519e-01
2.234127633961093817e-01,-6.770501943799134281e-04,2.234070734654847179e-01,-1.886610283315994950e-03,-1.316937501637519513e-03,1.458094251709888666e-03,2.241366356611251831e-01
2.208180930545329823e-01,-2.075160155652316929e-03,2.210301329433237705e-01,-1.231641835384140017e-03,-8.640111601287149806e-05,2.591229731635309643e-03,2.230547666549682617e-01
1.484152608666176321e-01,5.310094162909409499e-02,3.666967710307638684e-01,6.018890640926786301e-02,3.948923828973552471e-04,-1.090212348048605513e-02,2.979297637939453125e-01
2.233282138808995176e-01,-1.355997732939012712e-03,2.228459911979219776e-01,-4.102913923305049628e-04,-2.625079175968948286e-04,5.033997294859313739e-04,2.244467735290527344e-01
2.243540127933199013e-01,2.138164998278982432e-02,2.455113544957632787e-01,2.133197799510692938e-02,-3.844712137760687015e-02,1.388969869905800486e-02,2.287318110466003418e-01
3.085909032978736422e-01,1.003295720761802345e-01,3.927762530197762003e-01,5.977663365099580156e-02,-2.648151102460777340e-02,1.391538231704778604e-02,2.853015363216400146e-01
1.760800210464061322e-01,3.354145662730553812e-02,3.050711503547221537e-01,3.489451043385854295e-02,-7.264985420227861035e-02,2.312730937336883452e-02,2.764663994312286377e-01
2.082564424031557171e-01,1.680499022081077820e-02,1.974394936366866693e-01,-1.741337681954534212e-03,-1.302735479048493586e-02,-3.287809159645629226e-03,1.877509206533432007e-01
2.351693922840027984e-01,2.208267548238640465e-02,2.536243657005297636e-01,5.499155088384410396e-03,1.396339037124030976e-03,-1.816885838065507687e-03,2.231266945600509644e-01
1.140943146024318289e-01,-1.585216606688510943e-02,1.998434609901944548e-01,1.648630414999333743e-02,-6.688909155142455654e-02,6.395155720151444144e-03,2.230299115180969238e-01
1.415292665041901210e-01,-5.350044430890668612e-03,2.174329242543132645e-01,9.581349316592789600e-03,-1.458563160100893180e-02,3.351221926230303107e-03,1.985721439123153687e-01
2.114986786872275482e-01,-2.208915516231450826e-02,1.166661281393329697e-01,3.006087974214389016e-03,-6.295122544553818054e-03,1.474534150647005201e-02,2.054337561130523682e-01
2.314011419073419562e-01,8.120990731651150929e-03,2.279983066834113115e-01,8.333941725240010499e-04,4.357785652776776514e-03,9.290316024497308114e-04,2.217373698949813843e-01
2.117707624935807609e-01,4.311932022031644829e-03,2.310078650773436659e-01,2.028824152471848333e-03,1.217032545954606094e-04,-3.715025240390436127e-03,2.178392410278320312e-01
3.129354803784897276e-01,6.233943799511476591e-02,2.473197698809040945e-01,9.959904257379366410e-03,-5.619614114868489926e-03,3.176459563532282870e-02,2.325512170791625977e-01
2.015684071895830209e-01,6.182583844611483359e-03,2.358404398384027212e-01,1.651063177969147805e-03,-8.039137798620902284e-04,1.382001940631394062e-03,2.146213203668594360e-01
2.094105594487365718e-01,6.129859273539872699e-03,1.953475040619400971e-01,5.044124122884041141e-03,-3.740628521033806126e-03,7.140448486819818376e-04,1.969312131404876709e-01
4.561093016964365976e-01,1.911453191772010118e-01,4.447381420900203830e-01,9.641563607283836629e-03,1.057116483379547459e-02,-3.293510047431523480e-02,2.668155729770660400e-01
1.824079856572471681e-01,5.235518007444263378e-02,2.700812332960008666e-01,-5.894392582079064670e-03,-2.587139600366312672e-02,-7.584949180667572601e-03,1.956713944673538208e-01
2.404577622898196321e-01,5.394399658119194974e-02,2.443140141495705464e-01,-8.264976793956153259e-04,-3.601148228793376802e-03,-4.964903900523404655e-03,1.887760758399963379e-01
4.872089766100957675e-01,2.147717177312989945e-01,5.158306895103106360e-01,1.603547306202903616e-02,-5.599703788523568634e-03,-2.064508474446768299e-02,2.915184795856475830e-01
2.421110705951752540e-01,6.602024163263289780e-02,2.387542504937271437e-01,2.738809145286443501e-03,-7.941558539098023529e-05,9.183639511676483904e-04,1.745084375143051147e-01
2.413078896849689681e-01,6.680123301118352785e-02,2.467741001943970225e-01,4.924846374218537536e-04,-1.479887246251105487e-03,6.284898061442330090e-03,1.776573657989501953e-01
3.390075630279009711e-01,1.055124240116944723e-01,3.473029147707523134e-01,3.823544158446809393e-02,5.527504369947207341e-02,-4.394155449511957801e-02,2.754453420639038086e-01
2.179353290031269541e-01,-1.153532241983232232e-02,1.749149468418515208e-01,-3.619723610927916366e-03,6.815155438164936449e-03,1.072308029007428172e-02,2.125069797039031982e-01
1.820158344300809028e-01,2.198208645896873592e-02,2.293266012083747807e-01,-4.027279264715490775e-03,8.367161460876175461e-03,5.632114423426972001e-03,1.891408860683441162e-01
2.394467655497332648e-01,2.867349937011434702e-02,2.335937995596291672e-01,-3.634993935538705957e-03,-2.741438382732346805e-03,-1.067400302958625505e-04,2.080581635236740112e-01
2.392468281103840022e-01,1.751882546927878426e-02,1.441614093538567398e-01,-3.929837161661965325e-03,-1.691356569957291845e-03,8.964841294457737142e-03,1.934359371662139893e-01
2.373787696513405265e-01,4.214081917954820566e-02,2.418020555104615221e-01,6.932883837109045692e-05,-1.728070063245089457e-03,-1.259227585096161324e-03,1.975215077400207520e-01
2.731382460576642357e-01,2.715030055909198325e-02,1.702570913975980649e-01,4.174896437747609309e-04,1.509843835473603617e-02,2.085033359130450056e-02,2.185765206813812256e-01
2.044692181968304767e-01,-1.820567489732166644e-02,1.979671996732887962e-01,-3.096950195908160577e-02,-3.759473864314588631e-02,-2.327678923858084170e-02,2.385820597410202026e-01
4.705332006452292437e-01,1.888612164901066481e-01,4.966935153610193554e-01,-2.749913595419519602e-02,-6.538411822276979195e-03,-3.449796328111985610e-02,3.055475056171417236e-01
2.121015095323344757e-01,1.261958204480256862e-02,2.013685940523195217e-01,-7.374944046171636423e-03,-1.502325633615009086e-02,-9.410974356398572882e-03,1.971628218889236450e-01
2.337686344465103039e-01,4.341761240222749563e-02,2.386574852577940664e-01,8.314605077069033316e-04,-1.548301648442236512e-03,1.534694919502215329e-03,1.928842663764953613e-01
1.395580371974271261e-01,1.537683067930528669e-02,2.356679038604697074e-01,-5.131771297409102803e-03,-1.017035348762159591e-02,-2.415670853480425193e-03,1.923536807298660278e-01
1.090482697124956074e-01,-1.282175884663788734e-02,2.427034238756680951e-01,9.360460394233629383e-03,-7.869511076343752021e-02,-1.474708040191715329e-03,2.604855000972747803e-01
2.033081760545674133e-01,6.934391924575289412e-03,2.343182629635094938e-01,8.577062849233693664e-03,1.114159783127052772e-03,3.284458841053175104e-03,2.141743302345275879e-01
8.037192116079230897e-02,-5.496604035017352285e-03,2.429590893195857360e-01,-5.704948174185582241e-03,-1.219787413399598883e-02,2.277468111069298664e-03,2.198378443717956543e-01
4.452138947220533605e-01,1.686368323861646701e-01,3.924280463789639462e-01,-3.706896550888158330e-03,5.240701836252826054e-03,-4.939500247964928592e-02,2.685611248016357422e-01
2.348734486180183989e-01,2.392923227092294547e-02,2.377237727664393008e-01,-2.413131569495217694e-03,1.303325346796862421e-03,-1.517162387073009346e-03,2.124530971050262451e-01
2.331606673509651062e-01,1.819224878004216395e-02,2.383333330377848669e-01,-1.276415378475358187e-03,-2.101518146589631628e-03,-1.284055505604032909e-03,2.176539003849029541e-01
2.048934370147539596e-01,8.273629268393245528e-02,3.714203952151395871e-01,5.537978747520484746e-02,3.159873896727950077e-02,-8.905446268316808897e-03,2.746455371379852295e-01
2.286368899173691349e-01,-6.380632926685503303e-04,2.253679951063311815e-01,1.826979716990217908e-03,-2.932688990311882655e-04,-5.452230950081611224e-04,2.276826202869415283e-01
1.274192330027029141e-01,1.394748258700277688e-02,2.389270855699444085e-01,7.006782069129949622e-03,-4.664370944206300967e-03,3.848101562330191131e-03,1.954988688230514526e-01
2.197605951451938044e-01,-4.393806191093641011e-03,2.234507596588485301e-01,2.680462291733432326e-03,-2.885643478329194198e-03,-2.916548139160711744e-03,2.261814177036285400e-01
2.302000174029081858e-01,1.158589355590217140e-02,2.228487296587879640e-01,1.341222028504970290e-03,9.062292532617339993e-04,1.359258137255584410e-03,2.150639146566390991e-01
2.183363217212830887e-01,-9.397445335571352754e-04,2.234065230663110080e-01,1.046935871542203781e-03,6.042574942981548958e-04,3.844112692043975300e-03,2.219643890857696533e-01
3.014867476301383298e-01,1.142003095721076389e-01,4.077796636894180371e-01,5.086669709630806113e-02,3.053119755546477437e-02,-9.831902378867732328e-03,2.777234911918640137e-01
2.388908794328901131e-01,3.107595001077090302e-02,2.397937106143761543e-01,2.948955896879664677e-04,2.565546769200131687e-03,-2.288438038214100564e-03,2.083535492420196533e-01
3.175483159636519614e-01,7.513295934530930809e-02,3.339465827220172711e-01,4.507002651227089846e-02,5.146982928375933020e-02,-4.022912467198363345e-02,2.861918807029724121e-01
2.252788921394645039e-01,-1.317457289978507529e-03,2.195231197529974032e-01,1.858939122866610540e-03,2.692010992600124271e-04,-3.280561527793269139e-03,2.238697558641433716e-01
2.242892754499395402e-01,-7.988507843987302515e-04,2.273382794463703616e-01,1.523455113791938927e-03,6.457291331465618610e-04,1.157510264757332860e-03,2.266550064086914062e-01
4.186580842280601678e-01,1.978678240070842753e-01,4.809430410554187962e-01,4.789422644595390383e-02,7.258687962052362899e-03,-6.327336130144711225e-03,2.711814939975738525e-01
1.751160164892068827e-01,3.687458927210482407e-02,2.776990031923614599e-01,-1.584493659246264882e-02,-1.496943329249291778e-02,-6.864869045449664220e-04,2.127017378807067871e-01
1.810965850310957692e-01,2.514415764044131141e-02,2.907083222435873360e-01,3.406438346334600409e-02,-7.285111840816081707e-02,1.705717067464772654e-02,2.714883983135223389e-01
4.917089417478091862e-02,-4.486199822811647031e-02,2.041711265678493592e-01,-6.915708172163055958e-03,6.922519319299297313e-02,-2.746791270492618051e-03,2.489676177501678467e-01
1.633779420835707874e-01,1.476002384998562067e-02,2.519737416097893035e-01,4.122759176119768915e-02,4.687639279432473383e-02,-1.698741948098996327e-02,2.359247207641601562e-01
1.373994888432076844e-01,-2.980340483684096320e-02,2.113038741003876453e-01,1.474269870090637660e-02,8.629649027407627904e-03,-1.032354767907212381e-02,2.167276442050933838e-01
8.620802945145242258e-02,-2.607520664118900822e-03,2.830835517533482060e-01,6.269720423894715663e-03,-5.849940126094787390e-02,-5.638496016255968362e-04,2.729820609092712402e-01
1.521351171799628643e-01,2.051492133320551026e-02,2.379583825016234055e-01,6.927138783621640886e-03,3.704016035811602547e-02,-4.472410397091992548e-03,2.007622122764587402e-01
3.827309217125495627e-02,-5.715971938089781101e-02,2.295653571479519539e-01,-1.310197910406809413e-02,4.471711921608457693e-03,-2.480283954631124377e-03,2.540652155876159668e-01
1.591665052832543503e-01,7.380327479275083924e-03,2.409222158055290830e-01,3.237992143975177567e-02,-6.937147177463426351e-02,2.738415813696885859e-02,2.489270716905593872e-01
2.017263211253796928e-01,3.208463184480900288e-02,2.051210388713712307e-01,-6.938148437025618703e-04,-7.245722155127187758e-02,1.482970515620951222e-03,2.124238759279251099e-01
1.401916648789245934e-01,-6.177060730348418738e-03,2.144791044810850644e-01,1.079969219718365965e-02,2.122044336398088218e-02,-2.514921417042379620e-03,1.988355666399002075e-01
2.178269192491438799e-01,-5.252420911361632694e-03,2.185483842422579759e-01,-1.732649771195866883e-03,2.212623735062597854e-04,-1.265149758950879924e-03,2.234721779823303223e-01
2.171880517537418398e-01,2.820721185313013191e-03,1.977000181464934336e-01,-6.729976642017489012e-03,-2.059718701295015861e-03,-4.742950515326516819e-03,2.058437019586563110e-01
3.899386276801632134e-02,-4.604375874322097495e-02,2.015037655795431093e-01,5.111043926078044121e-03,6.820782975786253421e-02,3.562197088117801270e-03,2.480598390102386475e-01
1.799232426879592839e-01,2.218214135780026408e-02,2.322224907338386601e-01,6.021140534125776073e-03,2.623993792866109818e-03,-4.424209275219476677e-03,1.898824572563171387e-01
2.019201572957170510e-01,6.741396282103712112e-03,2.310475246791716675e-01,-9.191110978969973394e-03,-4.877489347659725053e-04,-1.655591009813626947e-04,2.118547111749649048e-01
3.102187908784402315e-01,5.984533888493087650e-02,2.262941604275389984e-01,-1.852073769409995005e-02,-7.535575513837913797e-02,-3.000255341881202450e-02,2.635957002639770508e-01
1.683248096826313878e-01,1.127508439894617243e-02,2.452153772340457394e-01,1.461704869834636739e-02,1.588417885345767139e-02,-7.243380704771007830e-03,2.102563083171844482e-01
2.265848495660178485e-01,5.455348721680380875e-03,2.329333617235642140e-01,1.839490193722624308e-04,1.593628739807135620e-04,-9.051753936525135059e-04,2.243770062923431396e-01
2.345124503652877279e-01,1.127565284873097151e-02,2.460063085476743017e-01,9.239700199217810647e-03,-1.545760157048464267e-03,3.181787245668834499e-04,2.297742664813995361e-01
2.360198465245382793e-01,1.413830372025384752e-02,2.196156064400685282e-01,-3.422287651188790809e-03,6.569496407092346784e-04,-2.688329780520294383e-03,2.142868041992187500e-01
2.367612550671259752e-01,2.392216213836401151e-02,2.238103934928894201e-01,1.098039402977498899e-02,1.333256088634959292e-02,-1.760971105419353172e-02,2.110380083322525024e-01
2.190824064963608486e-01,-5.612251960984415700e-03,2.195190609411402649e-01,-1.394723454387299545e-03,-2.788111909229900481e-04,4.752388671559091508e-04,2.249283045530319214e-01
3.198682204223037284e-01,3.258239123129280657e-02,1.637224237269204463e-01,-5.225386736928853276e-03,-5.182875274788182468e-02,-2.896664918846481723e-02,2.696552574634552002e-01
1.995280058214757846e-01,-5.621594713965141765e-02,7.971661788667164239e-02,-2.088066806395058594e-02,-7.983268095580445256e-02,1.315870168673110782e-02,2.646996974945068359e-01
1.830817707065076350e-01,-6.628343608515829821e-03,2.254387330889982000e-01,1.111503264272808815e-02,4.374945738331796619e-03,-6.142446811638281080e-03,2.153156399726867676e-01
1.932724314120367048e-01,2.098322188162764224e-02,2.108134836319493777e-01,3.821358918758025781e-03,6.353462264360962633e-03,-1.332440505405553402e-03,1.821637451648712158e-01
1.973928848730620023e-01,1.094154140993616742e-02,1.944891483282449041e-01,-1.860038995421818379e-03,5.659360637346133767e-03,6.117865041053047138e-04,1.853070855140686035e-01
2.689505495733879314e-01,8.195042815692407667e-02,3.071668882930371214e-01,3.638319182647350991e-02,-8.831488892111873101e-02,2.317794030021684548e-02,2.693648338317871094e-01
2.082808662704790925e-01,-4.937778055728439530e-03,1.503479665794018594e-01,1.259312061227811988e-02,-1.440623195727131767e-01,2.084600100753007321e-02,3.170288801193237305e-01
2.083423667265247026e-01,1.638631371245824475e-02,2.039757642947551131e-01,1.805919154528894685e-03,9.270434485617852710e-04,-1.313724516545098145e-04,1.898431181907653809e-01
2.215319183343186504e-01,7.942400011673456106e-05,2.276857936641323299e-01,2.071277364904066222e-04,9.913857364421937762e-05,4.328395424836908563e-04,2.245942801237106323e-01
2.418382796525963274e-01,2.332266867021787204e-02,2.068127997382301075e-01,2.570133309250102402e-02,-1.269770079805624674e-01,4.435771714120930603e-02,3.123719394207000732e-01
2.175253480040901521e-01,-2.125756365160658135e-03,2.214715904708249861e-01,3.466476260098162536e-04,1.758236007399109689e-04,3.142806009422036660e-03,2.217184305191040039e-01
2.113836320999655793e-01,-2.224882579226150625e-03,1.947835645645267233e-01,6.940990936979722289e-03,-3.338066519078184292e-03,4.451199355896771556e-03,2.063871175050735474e-01
2.644021483729843691e-01,-2.035522797943722928e-03,1.493538394252327817e-01,6.389511790947171102e-03,-1.064721916355675368e-01,6.872492513669057170e-04,2.961499989032745361e-01
2.016902814531943700e-01,2.574846752512079118e-02,2.163261535730767182e-01,1.134581028282697810e-04,1.402165216146908713e-02,-2.486654683698569582e-03,1.853461712598800659e-01
2.025785587760094708e-01,1.613539377652578599e-02,2.068585389208495440e-01,1.361268008473610056e-04,1.853463489053848272e-03,-2.977488058164716239e-04,1.886477470397949219e-01
2.497109878670397687e-01,1.544262295395215645e-02,2.014171157141421697e-01,4.360065026438737258e-03,-1.118119665938936552e-01,4.169307779338638463e-03,2.889899015426635742e-01
1.303246209285718327e-01,-2.931661010090877428e-02,1.639492859537958203e-01,1.119001241354532390e-02,-9.568984886126304101e-02,1.601868715514492142e-02,2.461684644222259521e-01
2.062664396358465657e-01,1.916907069793261087e-02,2.082485697316833473e-01,8.123653101676453709e-04,6.741306869275752803e-03,1.612545317192971167e-04,1.884637922048568726e-01
3.168998826759876764e-01,2.942394541624709925e-02,1.502022695675038211e-01,6.485943297552717798e-03,-7.128538377697567208e-02,1.094804245746281227e-02,2.797133326530456543e-01
2.075866886719899551e-01,1.116971720415665947e-02,1.949366637306955696e-01,1.249938467001756627e-02,-2.211584928899311756e-02,1.141387158194152353e-02,1.964225918054580688e-01
2.388751867831176989e-01,3.737003098221036712e-02,2.365985163141365311e-01,8.065229511201562132e-03,-1.165952983501932910e-01,1.474385442588633729e-02,2.859745323657989502e-01
2.270494843908395510e-01,2.269880057853329580e-02,2.062584820239259376e-01,-5.154561803303205417e-03,-3.014537301453228124e-03,-5.650765470870545114e-03,1.953089237213134766e-01
2.894777826628766038e-01,8.331420485231444406e-03,1.412441067182705068e-01,-8.754927281469756378e-03,-9.668573489549388278e-02,-1.349916973039958640e-02,2.969211339950561523e-01
2.009213771200974996e-01,7.973264521062839449e-03,1.816879897495170815e-01,-2.806951722799943399e-03,-8.898920476761804782e-03,-1.449581593062070940e-03,1.848116964101791382e-01
2.212161230479177954e-01,-1.819166521540682702e-03,2.224952433932498030e-01,1.981895828003121807e-03,-8.682989833813158987e-05,2.725394075468515892e-03,2.237537801265716553e-01
2.131921687208109539e-01,-3.924186946775709561e-03,2.046250883569122325e-01,6.078970327059741649e-03,-1.070431643609875971e-02,9.274552244404394435e-03,2.146287858486175537e-01
7.982800649137350435e-02,-2.276773512965014901e-02,2.251264112536557338e-01,1.908943811720532902e-02,-3.514870151051679298e-02,4.665636940732923767e-03,2.267362475395202637e-01
2.271218972824387561e-01,-2.373198486807115426e-03,2.246408700507536715e-01,-1.339633531926659078e-05,1.480957574819247950e-03,6.758543312005821889e-04,2.282821089029312134e-01
2.521962519154976046e-01,6.283601506749364463e-03,1.918140572062531912e-01,-2.011398769063284936e-02,-2.694930881521239233e-02,-1.544412082056392452e-02,2.310376018285751343e-01
2.127025310024214522e-01,6.270391302633598896e-03,2.186814215773153769e-01,8.936607533493810818e-03,-1.514943025452133996e-02,1.168157597455301254e-02,2.126539200544357300e-01
1.721476366652422152e-01,-1.129305326497692663e-02,2.226024596221862772e-01,1.128550813025635223e-02,-8.416047903960777177e-04,3.765452449399046483e-03,2.141924202442169189e-01
1.104645175090419595e-01,-7.352542602853229248e-03,2.722350443280224797e-01,3.573412101200562890e-03,-7.454180929657382160e-02,5.315992920781804389e-03,2.755039334297180176e-01
1.223909670488985690e-01,-1.029117142666469142e-02,2.442959684015028887e-01,1.979801721940962697e-02,-9.658925309659660563e-02,1.282055661344691858e-02,2.798167765140533447e-01
1.445535624838086008e-01,1.793205934794600553e-02,2.177598875439668569e-01,4.559496789711352423e-03,-4.779799388929728554e-02,-5.261568209305469111e-03,1.940644979476928711e-01
2.054709602301690863e-01,-5.434590426656726869e-03,1.642207648423484045e-01,-8.991257688648656224e-03,-1.573950031747814796e-02,-8.810842475297944384e-03,1.967268437147140503e-01
1.068212194282245064e-01,-2.982346240544053728e-02,1.571272766771411034e-01,5.092079678941305310e-03,-5.145692998171565863e-02,8.848250811452297929e-03,1.906112134456634521e-01
2.191292497559820807e-01,1.864747266955754657e-02,2.056588291027560411e-01,-3.731860120410919555e-03,-6.066371598340255904e-03,-4.013451654313226341e-03,1.946132779121398926e-01
2.470016138748200862e-01,4.232404547220731950e-02,1.791413535284971659e-01,-1.374179047662069282e-03,-4.942601310824368266e-02,-1.155109089455817837e-03,1.998672336339950562e-01
2.442655244185334695e-01,7.288802577107528213e-02,2.452555348003175317e-01,5.167389911266171776e-04,2.588434860562247031e-04,-4.991671734330157921e-03,1.720948666334152222e-01
4.325507810967171851e-01,1.487887904470670264e-01,4.877031953152035082e-01,3.762479800089902487e-02,1.108682470881914434e-02,-1.100923982001067447e-02,3.227879405021667480e-01
2.401992713252386336e-01,6.216101487384301238e-02,2.437692977285781659e-01,-4.759718021924111853e-04,-8.110329946275747970e-04,-2.159833595446099003e-04,1.798576116561889648e-01
2.342912426742425058e-01,2.177585299519368967e-02,2.372599356859470543e-01,7.468975868172375446e-04,-3.500478054714973447e-03,-1.201687846592610796e-03,2.141150683164596558e-01
2.113930105535264392e-01,-1.996675194260379149e-02,1.143417181413669409e-01,4.032341978103461989e-03,1.541379990158265115e-02,-2.475512098307206324e-02,2.075873613357543945e-01
2.232700749254275530e-01,-3.917825501243699104e-03,2.238089986593465586e-01,-8.341644243146869881e-04,9.437179653729578467e-04,-7.589134013973042325e-04,2.274720966815948486e-01
2.202785963220461607e-01,-1.256762973971425890e-03,2.219839706523548672e-01,-5.515762982105502400e-04,-3.431607323361294837e-05,2.946638402987033622e-03,2.224535644054412842e-01
2.229791737582025313e-01,-1.638381938163679941e-03,2.221683280199064359e-01,-4.727566838486646646e-04,5.100146265599915930e-05,6.918567068015021165e-04,2.242179512977600098e-01
2.244766718499106584e-01,-2.065552291386191230e-03,2.284080543142404940e-01,-1.069114825957853893e-03,-3.345367872682539646e-03,8.405172424197615002e-04,2.286188602447509766e-01
1.507556817987776854e-01,2.871617562433630144e-02,2.615792209034021321e-01,-1.141116670908781661e-02,-2.413770905033166270e-02,-3.375291744534781257e-04,2.069763839244842529e-01
2.226570519361993628e-01,5.996300171033558390e-03,1.852029554549241841e-01,-1.310415005317796741e-02,1.760885840641124300e-02,1.291172523792149390e-02,2.053664177656173706e-01
2.182899626360771395e-01,-5.339140394215902141e-03,2.066347411844568493e-01,4.762214584199812514e-03,-1.856611526366453227e-03,3.125434454262085698e-03,2.182820588350296021e-01
2.193597319653202982e-01,-4.759300491840701142e-03,2.182487913473413199e-01,1.358192587821974292e-03,2.432344838270884694e-04,-1.317365305318659056e-03,2.235900461673736572e-01
1.832620391604635190e-01,2.094518076515053395e-02,2.387351182458514465e-01,-1.131844209800707615e-02,5.578051009658285125e-03,2.673672591300933331e-03,1.973001509904861450e-01
2.238596557023355693e-01,-9.730107715988367545e-05,2.295970092317375921e-01,-1.128714402832895738e-04,4.103372652060167458e-04,3.959850192798502425e-04,2.268822789192199707e-01
2.232040595508251735e-01,-4.239653890903777311e-03,2.223160686420030396e-01,1.472007277419543070e-03,-1.567368083741583302e-03,-1.106225483297589842e-03,2.270396500825881958e-01
1.823291419770786681e-01,1.252406292489993689e-02,2.345006082028426864e-01,-2.019184862198514663e-03,-1.594742465877678353e-03,4.746703841403087386e-06,2.010832428932189941e-01
1.761705198214367774e-01,-1.031114090340951028e-02,2.175589617328272385e-01,-1.158394054987643348e-02,-2.116789172824955299e-03,7.957240428126775432e-05,2.112406790256500244e-01
2.260100357590468789e-01,6.692150773745880743e-03,2.247178733725894162e-01,-8.229921780106076376e-03,1.797026673931290943e-03,5.173566435080258381e-03,2.193440049886703491e-01
1.050911163026451711e-01,-1.669258149599678331e-02,1.945866097243265092e-01,-2.308557173982452373e-02,7.056133103875220081e-02,3.085322621125248174e-03,2.242853045463562012e-01
1.250562066617556534e-01,-1.183102096330423958e-02,2.248929544613262610e-01,-4.145098230587310889e-02,4.077397175537973012e-02,1.966101580616191544e-02,2.316757142543792725e-01
2.189953576203306773e-01,1.646064817730302776e-02,2.271868183151377063e-01,7.690073030491282637e-03,-2.517452516875293318e-03,7.540430650465728031e-03,2.076378166675567627e-01
2.570329642252217051e-01,-2.619460220849981202e-03,8.990102470523583800e-02,-1.441928415039742464e-03,3.209176296143711332e-02,3.147239809631281054e-02,2.408810257911682129e-01
2.679320755372165963e-01,3.258279477431019755e-02,1.720551522419411228e-01,4.278962352706278116e-03,4.582041145229943935e-02,-1.431468525045330974e-02,2.213262170553207397e-01
2.181742185404595968e-01,-1.650248245886641596e-02,9.430729311508444235e-02,1.466572713525656716e-03,9.691166176961319920e-03,-1.153987112787599814e-02,2.050248831510543823e-01
1.702210573530407167e-01,-4.489679033555987742e-02,9.058055691704391954e-02,-1.341843954682732723e-02,4.563000373749844657e-02,1.735071752225870317e-02,2.077878713607788086e-01
2.127862020028643275e-01,-1.336831608935468152e-03,1.596099335373077355e-01,-3.686872520488426990e-03,7.915086925490266018e-03,1.055285489091892584e-02,1.945583224296569824e-01
2.072043192264339251e-01,7.094191510158887048e-03,1.550450129401231558e-01,-1.089271414569512129e-03,1.075325405665359876e-02,6.306837811795658506e-04,1.807725131511688232e-01
2.481373361785418341e-01,1.680885540065132910e-02,1.636510410672168403e-01,-5.703081144623187160e-03,4.950541516340206845e-03,9.604477248167897843e-03,2.038493305444717407e-01
2.311093897541223741e-01,6.935575914407382525e-03,2.266503204310852670e-01,-6.058281419676603795e-04,2.178794290963625112e-03,-6.397668486113015094e-04,2.220151871442794800e-01
2.160990423918700554e-01,2.586509569538569808e-03,2.104759621039705986e-01,4.453117664773054672e-03,-1.993571894496976786e-04,-2.609040353299108255e-04,2.108991146087646484e-01
1.322635780664096761e-01,2.274776646122490809e-02,2.802003556807721174e-01,1.849573817059201736e-02,-1.774549472712924191e-03,-4.727818303075145660e-03,2.262370437383651733e-01
1.228759567566372057e-01,1.255379405412125615e-02,2.414656383868921674e-01,1.487777076803559022e-02,3.182705561319032483e-02,-1.083827501232847859e-03,2.074223160743713379e-01
8.005455459648365413e-02,7.468551077660978699e-03,3.275930853406237020e-01,3.037045502830419685e-02,5.286731608695266482e-02,1.434217564205264106e-03,3.093056976795196533e-01
2.225164698212016567e-01,-3.021801261431922292e-03,2.218659820499852553e-01,5.613513416223562440e-04,-1.668523754185440922e-04,-3.225117397160342375e-04,2.252167016267776489e-01
2.091730643481650165e-01,-2.646816479097618968e-03,2.099884646208806660e-01,-3.265398433802620213e-03,2.205860304692546826e-03,3.731283691699885472e-03,2.124368101358413696e-01
2.245707235939281565e-01,-4.147844963887814540e-03,2.245211588713347806e-01,1.008091688512569896e-03,3.249397858474368204e-03,1.061803219466040445e-03,2.287770956754684448e-01
5.435531758791328771e-04,-4.751793132643664097e-02,2.438121092259118994e-01,5.965793136174795883e-03,1.382427034041718190e-02,-1.336471285250928230e-03,2.717844843864440918e-01
1.866461619484009737e-01,2.778881537591895712e-02,2.660001025245284922e-01,-2.471955941859003275e-02,-8.031767462133344859e-02,-2.369572576274022596e-02,2.588611245155334473e-01
2.424157838674554644e-01,4.190150483027776929e-02,1.990185309606911923e-01,9.913019210726341669e-04,-2.413693241723044794e-02,-1.196447804232340234e-03,1.874634474515914917e-01
1.993972732483890731e-01,9.162683509943619908e-03,1.781262150618110329e-01,2.342143282174723835e-04,7.968476488598660173e-03,1.270324752808955719e-04,1.810686886310577393e-01
2.086962012883626372e-01,2.515987818570133983e-02,2.206282320358089188e-01,4.994359407946265608e-03,-9.538158919879951431e-03,5.965812819499951430e-03,1.909776180982589722e-01
2.100903299944398284e-01,1.908382117566764791e-02,2.037103149203559060e-01,2.937972132508944855e-03,-1.234851991123117783e-02,1.881311051023540739e-03,1.892076581716537476e-01
2.571096670374198867e-01,-2.291427654639230371e-03,1.125946989793166486e-01,-3.547522038408718482e-03,6.958623217672500749e-02,1.900772195771546769e-02,2.575549185276031494e-01
1.483370710715913032e-01,-1.011581961755342318e-02,2.196404073316985117e-01,-1.424788147704931542e-02,-1.306649286930237561e-02,-5.961303412091683955e-03,2.066821753978729248e-01
1.976734422375416023e-01,1.228685507290488976e-02,2.085649410955498217e-01,1.868593960276340640e-03,-1.846871203645006603e-03,4.214692329299648231e-03,1.912588477134704590e-01
2.208455677191680788e-01,-2.296074894276856071e-03,2.213255272202107604e-01,-1.980790026966953369e-04,3.989047026783220512e-04,-3.701311800561933683e-04,2.233842611312866211e-01
2.039858755629412879e-01,1.508251746743370647e-02,1.769801620950068322e-01,5.128318748506079799e-03,-2.552698606314961205e-02,-1.038886088688954551e-03,1.826180070638656616e-01
2.141348337785071720e-01,2.790146178014207834e-03,2.321556791726870628e-01,6.034687033092009552e-03,9.162067841656810954e-04,1.814191128261778089e-03,2.211822420358657837e-01
2.078228036366998044e-01,-5.587930486699616006e-03,2.242766304292489743e-01,4.348831052646983178e-03,7.533454040412761220e-04,-2.282951885670855743e-03,2.222619354724884033e-01
2.221728223298591043e-01,-1.960132225784200211e-03,2.217970747282896615e-01,-1.432377069766159461e-04,2.002402623964800803e-04,-2.505327616541453859e-04,2.239461392164230347e-01
2.108866223494180736e-01,4.546147848391413060e-03,2.421689812554465027e-01,1.349965444561440457e-02,-4.971311197872652250e-04,-4.228404544003524362e-03,2.249686568975448608e-01
1.535865576880278416e-01,5.582430527931947495e-03,2.551421692935233465e-01,-1.206061172129785711e-02,-1.289199604557351130e-02,-6.921547034345925525e-03,2.198365777730941772e-01
2.177042125286298146e-01,4.301484488233531245e-03,2.314746982871703773e-01,-1.145299279917236061e-02,1.627075593898548792e-02,1.059795177631893404e-02,2.240394651889801025e-01
2.240258894218775387e-01,-2.507598853970921526e-03,2.224297343119198411e-01,-3.307372309439244673e-04,-7.430431844389709124e-04,8.376156150119072824e-04,2.257487028837203979e-01
2.325531165252643362e-01,4.764210057077500338e-03,2.304472442149695932e-01,-4.485988843576436784e-04,-4.142210004328324494e-03,2.976785227811370700e-04,2.268587052822113037e-01
2.189287752995099368e-01,7.941265177791034802e-05,2.287738093612943224e-01,3.909818707192937691e-03,-9.408027242876858395e-04,-1.871517588350110660e-03,2.240659892559051514e-01
2.222868142002066283e-01,-1.607552753820962188e-03,2.195697926029399616e-01,3.416667560485280985e-03,3.859324137790316181e-04,4.924090197132217992e-04,2.226296067237854004e-01
2.209541680747753312e-01,-2.181739189108633514e-03,2.215457525451659804e-01,3.158655539610944157e-04,-3.586872178384878113e-04,-4.599082813800959017e-04,2.234352380037307739e-01
2.252563927553191681e-01,-4.927767043275688152e-04,2.256822815753369293e-01,6.602333077879683765e-04,-3.084267221137599897e-03,-1.113313603402861203e-03,2.260366678237915039e-01
2.202904238652573232e-01,-4.889760607768023348e-03,2.191951141594199737e-01,2.270673964318906373e-03,-7.174725801894796281e-06,1.243072685570839912e-03,2.246792763471603394e-01
2.262696101294016937e-01,4.015476870121159614e-04,2.247310373250576143e-01,-3.136122371216088986e-03,-1.620556725055488298e-03,3.708582653409139493e-03,2.252773344516754150e-01
1.795397657440589434e-01,-6.490183611952360376e-03,2.290416598266153680e-01,1.095218510214826697e-02,2.081281855441010058e-03,-5.002245337619434795e-03,2.161349803209304810e-01
1.407135685643776668e-01,1.989199498606429584e-02,2.498617934587892275e-01,2.705679319237081631e-02,1.733038187093088184e-02,-1.327513421532446475e-05,2.068716585636138916e-01
1.756841431792526553e-01,1.548305332842317417e-02,2.140005317860626810e-01,-8.043863058571199378e-04,-5.812495604491994643e-03,-4.286629298373824913e-03,1.828367710113525391e-01
1.124032579689109024e-01,-5.718473234367565938e-02,1.791579411959893231e-01,-5.260173427584564215e-02,5.838882766903021743e-02,2.414755696271337140e-02,2.545878589153289795e-01
5.691705566832465368e-02,-3.040034390985692225e-02,2.237874592550924968e-01,2.432602561140462076e-03,5.329006471095940750e-02,-6.960516190309244851e-03,2.423290014266967773e-01
1.695857503932211019e-01,2.341536029164609234e-02,2.311829509309554220e-01,1.552188527697043359e-02,2.845348340509157650e-02,-1.874154821839672455e-02,1.958800852298736572e-01
2.004402272878469116e-01,7.909603948404897444e-03,2.076736606144728436e-01,-4.118730808410317771e-04,-1.193647037117213537e-03,-3.087595803185942938e-03,1.963323801755905151e-01
2.235761649925029904e-01,-3.264671031725341344e-03,2.222041519881106653e-01,-1.954422563128313008e-03,-3.486338852883288041e-04,-7.454466035356268347e-04,2.261877804994583130e-01
1.895046847523121913e-01,1.675730608794637200e-02,2.104959818437010521e-01,1.781402375398266277e-02,3.663867531688707463e-02,-8.157135658502963349e-03,1.977050751447677612e-01
1.032097105116074609e-01,-2.983250275543455898e-02,1.310872109852096457e-01,1.197347083904077257e-02,9.012051103076594571e-02,-8.302232874910796256e-03,2.172285914421081543e-01
1.804777042318510549e-01,5.764138895947040764e-03,1.934779658078595310e-01,1.501280755405139805e-02,8.522399678193692818e-02,-6.951616126884260782e-03,2.357449382543563843e-01
6.772743207520057207e-02,-2.340001167663099957e-02,2.180136353102747893e-01,-1.670363883015297179e-03,2.096243386712234869e-02,2.733429994861209366e-03,2.143231332302093506e-01
9.139904926347827696e-02,-3.737391856513984367e-02,1.507060109230081713e-01,-8.929051116574727651e-03,-9.672492853349502762e-02,-5.627470842669500019e-03,2.369351238012313843e-01
1.790837463855695644e-01,2.130794149418660521e-02,2.321980127453514009e-01,-1.399243135427390844e-02,-6.425869352253779643e-02,-7.953627709838531276e-03,2.219440490007400513e-01
2.225594016562451039e-01,-1.982675721454496554e-03,2.225717476356095514e-01,6.437201751342145001e-04,4.809763363784416864e-04,1.709437200347352110e-04,2.245527654886245728e-01
2.198769400498918336e-01,-2.650934225849221892e-03,2.206297016909392339e-01,2.647912559962017822e-04,-6.363802640488864094e-05,1.001616320560409475e-03,2.229124605655670166e-01
1.405772340683424937e-01,1.390154246140641592e-02,2.324811433369055880e-01,-4.120251637412878216e-05,-1.320429534814850613e-02,-4.615633645584894741e-04,1.914647668600082397e-01
1.616158454072717798e-01,9.518068324997200347e-03,2.082511282601506308e-01,1.452796796964692713e-03,-1.587025851442295382e-02,-2.346046077733552303e-03,1.821541786193847656e-01
2.193767147859844724e-01,-1.032397940036511308e-03,2.033112124376226237e-01,4.843463153100583535e-03,1.490940838729250826e-03,-3.729455572345981057e-04,2.130135148763656616e-01
2.272800862057202109e-01,-1.868972362142340415e-04,1.976380554411239499e-01,4.957431267869907669e-03,1.988164917484810945e-03,-1.263045600953264765e-03,2.144007235765457153e-01
1.807423585797323651e-01,8.444675043641630685e-03,2.139090666871978907e-01,-2.577800789431641034e-03,-5.304944542215031360e-03,-6.238666195459240289e-03,1.916303634643554688e-01
1.322230324728798090e-01,-2.540301187736085375e-03,2.074132308878747222e-01,2.154393296196644575e-03,-4.547205426914225496e-02,-2.847237234295510368e-04,2.004118114709854126e-01
2.221449943976043784e-01,2.515752694045414461e-03,2.216349752928724604e-01,-2.263922262839936257e-03,-5.495250541229337497e-05,-2.785254415408988053e-03,2.194627672433853149e-01
2.253747651893015513e-01,-1.806892121775760529e-03,2.277015535615483088e-01,-8.580902774775051034e-04,7.450583674040804063e-04,-7.975720772219657738e-04,2.283665984869003296e-01
4.276617830205592941e-01,1.254277872787571135e-01,4.151955942617711059e-01,-2.670565558270046949e-02,-1.310078704370344280e-02,-2.476259464657043843e-02,3.036891818046569824e-01
2.175585933737863020e-01,-4.066186539567473446e-04,2.065250935834399282e-01,5.016561176296547783e-03,1.070905609886438261e-03,-5.389274223210322292e-04,2.128507941961288452e-01
2.403545299434230731e-01,1.846155457838152825e-02,2.429840094105604198e-01,4.436145532247368420e-03,-2.836170516663189065e-03,1.070297190513768391e-03,2.234132438898086548e-01
2.335038853401482650e-01,2.042346965454169827e-02,2.312194564597752633e-01,-6.450681937232882225e-04,2.814955543909382005e-03,-1.029186214282384773e-04,2.120065242052078247e-01
2.343084001965419494e-01,-5.826372922142719624e-03,2.115844850323511939e-01,-5.179054359285974012e-03,-1.852910189328474400e-02,-3.083035767318858741e-02,2.380887866020202637e-01
2.419545957487277410e-01,4.241084185246285498e-02,2.395472771624029829e-01,-3.652678311064395944e-03,-9.145502125492521554e-04,1.461827296260437368e-03,1.984743922948837280e-01
2.462864612347955284e-01,5.043649113490061842e-02,2.479812146054488076e-01,-1.721024820877868860e-04,-3.465402334186205722e-05,3.631760255155761907e-03,1.968036144971847534e-01
2.192452249363012751e-01,-5.045157184992221655e-02,2.265722710018592545e-01,-2.868416186703320598e-04,-3.027161095820014684e-03,-6.114400154990118699e-03,2.736896574497222900e-01
1.403272825607085328e-01,-1.402709179263564310e-02,2.116119430445027039e-01,1.082117058768800044e-02,9.289645270403434907e-03,-2.728047488801395564e-03,2.013514041900634766e-01
2.232804509476790933e-01,-2.546231472135285223e-04,2.294622065997617422e-01,2.291644479958339486e-05,4.223971393386344092e-04,4.823160731349539795e-04,2.266919016838073730e-01
2.000138976988805606e-01,-4.886035747407757590e-03,2.312712205484857841e-01,-7.842535428740608425e-03,7.385293149000778101e-03,4.440496972865331203e-03,2.230984568595886230e-01
2.457356347861763823e-01,5.840184353897957814e-02,2.447632087562335579e-01,-2.681272411965966284e-03,4.291491530504181173e-05,4.771489130189088962e-03,1.870898157358169556e-01
2.172077181708669813e-01,1.770582927141878260e-02,2.593562762991878934e-01,-4.248094776705651360e-02,2.623802124602163388e-02,6.702902523022117968e-03,2.400004267692565918e-01
2.966630151552229755e-01,8.372506719080946569e-02,3.011497609627842298e-01,-1.659906569853412950e-02,-1.124881289939055895e-02,-1.193611143979751710e-02,2.189787775278091431e-01
3.196112207927929716e-01,1.296063579104000663e-01,4.509426464770923682e-01,-6.775325372186066786e-02,2.341993890779154111e-02,1.128123151295956292e-02,3.067607879638671875e-01
2.156456309796249970e-01,-1.818907457682622519e-03,2.158564784693799976e-01,4.859366011525683348e-04,2.197909025895541577e-04,-3.192537575224299682e-03,2.176422625780105591e-01
2.268561432495976304e-01,-2.461966801333537180e-03,2.235414206814589355e-01,3.307345157592851963e-05,-1.857790346793347517e-03,-4.856019084731869788e-04,2.277031391859054565e-01
1.776988474514575311e-01,2.263631463536044941e-02,2.230278817089720589e-01,-3.771233589476669871e-04,-2.952769548049125059e-02,-3.639172431077866742e-04,1.890619546175003052e-01
2.492148965927772353e-01,-5.416011056768449405e-03,2.382152173722270339e-01,-3.764994637450867071e-03,5.531944559164256141e-03,1.390540830166696502e-02,2.507418096065521240e-01
2.502602478775952100e-01,6.869952044661339907e-02,2.488911069324146741e-01,9.511676234274200892e-03,1.400169329498317889e-03,2.335566346903360929e-03,1.816899925470352173e-01
1.641835465884843581e-01,6.046503352413662435e-03,2.520586885564547464e-01,-1.835926399813218868e-02,-3.200968863214944532e-02,-1.806992185181541949e-02,2.273550033569335938e-01
2.698197676594983885e-01,5.867805817116508726e-02,2.713440333563199025e-01,-2.072421372286473856e-03,9.980686247114177109e-03,2.045310264758215622e-03,2.126717120409011841e-01
2.734848287801177058e-01,5.591816028091128876e-02,2.797866492432583563e-01,7.033617286776411466e-03,-9.519137210329460877e-03,9.800675301570017234e-03,2.223835736513137817e-01
1.910006369344869059e-01,1.811732173467150986e-02,2.370724696091222328e-01,-2.186285178100567765e-03,1.521986552518411143e-03,3.274534231134984801e-03,2.000743895769119263e-01
2.465179701923587152e-01,5.382973339769842047e-02,2.496127915307376766e-01,1.158836471712569724e-03,2.635088365809197444e-03,-4.448761358453850664e-03,1.944708377122879028e-01
2.619998402976703722e-01,-3.855357114036811472e-03,1.431517921810741278e-01,7.430048669367995788e-03,-3.292702332828454509e-02,-6.547308090260543778e-02,2.636016607284545898e-01
2.992966750988305114e-01,5.751420461904557802e-02,2.422208638355923815e-01,-1.349228367970798335e-02,-9.135338421749469862e-02,-2.384162980537889165e-02,2.742338478565216064e-01
2.680456247943195924e-01,1.692009716340184267e-02,1.351701904034549040e-01,8.743374919878523985e-03,-1.060228963191092444e-01,1.716157428495703168e-03,2.851530015468597412e-01
2.317110999840305552e-01,-2.573086730836560143e-04,2.261619407795751324e-01,-7.093486514866490780e-04,2.202699348961272875e-03,-6.601210312417873189e-04,2.292820960283279419e-01
2.733474653787160147e-01,4.077572435313969734e-02,2.199489626398290765e-01,-1.724057128176665482e-02,-1.013710433199422056e-01,-1.740123606987822522e-02,2.777596414089202881e-01
2.209562931057965640e-01,-5.969702448407054884e-03,2.205825202251969486e-01,-7.773646028562205710e-04,1.208521766919638850e-03,-6.432554873621641007e-04,2.267557382583618164e-01
2.070772601177550687e-01,1.729838905661088000e-02,2.083423369129183689e-01,-1.536743333711428582e-04,-2.755366138311252512e-04,-1.497559235742264554e-03,1.904330104589462280e-01
2.106770408530267980e-01,1.162995715105902272e-02,2.076189799880844844e-01,-1.605586050936390027e-04,-1.884134957506732088e-03,-9.065267441158046191e-04,1.975691914558410645e-01
2.311892003740997348e-01,8.615099165814626980e-03,2.213944277793751247e-01,1.588742551890346332e-03,-2.427321994273268398e-03,-2.155472659364074590e-04,2.179001867771148682e-01
2.445568776620906937e-01,3.473466703118488486e-02,2.409298740848968834e-01,1.572469049766920786e-03,-1.078600771689750817e-03,5.118205459219335972e-03,2.082474082708358765e-01
2.361247716418364284e-01,1.573242138739258666e-02,2.302632281309072992e-01,3.178096371107867572e-03,3.279779613765453419e-03,3.826431614654426678e-03,2.177654802799224854e-01
2.288880856080275916e-01,-1.627158894158181601e-03,2.247831983967835678e-01,5.181548610661999496e-04,-4.749881358458380234e-04,-7.515455006640486867e-04,2.284974157810211182e-01
2.458370864754998164e-01,5.078660567371751089e-02,2.491338563645520143e-01,-5.919998836176999053e-06,-2.322272456179616496e-04,3.936033715144077010e-03,1.968380957841873169e-01
1.776382558029802883e-01,9.891601790713688835e-03,2.287899631232813702e-01,1.404591589037702684e-03,3.525306345957061362e-03,-6.003756347984756311e-03,1.987141221761703491e-01
2.108093881634515998e-01,3.629683410161232970e-05,2.330464155403090265e-01,6.248851583747907362e-03,-1.673082436223855484e-04,1.888354367396530590e-03,2.230127155780792236e-01
2.094170155915500708e-01,1.473383655109850032e-03,1.982405774725080061e-01,1.379416723408186454e-02,-1.566768337209228923e-02,8.733239194256441074e-03,2.063430994749069214e-01
2.334282090366389395e-01,9.577447518043874508e-03,2.283435604579220901e-01,-2.435051903154901811e-04,-1.790285124623900576e-03,7.738712668413406676e-04,2.213784158229827881e-01
1.407503126220880363e-01,-1.295264060145656648e-03,2.411936768486259153e-01,1.785230451250395881e-02,-3.650147267038923032e-02,1.305095179362093273e-02,2.236012518405914307e-01
1.923532653861181330e-01,-3.453106660037730258e-03,2.195154897892594437e-01,1.870387102844779182e-03,2.233027073125731942e-05,3.752464674051856058e-03,2.108297795057296753e-01
2.097874423055930415e-01,3.570908867151501020e-04,2.254108088808376431e-01,7.313377520057206746e-03,2.322794858245044627e-04,3.912409139919249303e-03,2.181369066238403320e-01
1.518187790640976309e-01,1.058763356458652938e-02,2.450025034731882490e-01,9.459729093463580679e-03,3.072769243058118705e-03,-1.488922471571010918e-03,2.051665782928466797e-01
2.273926577665930093e-01,-4.541416476269155567e-04,2.245407769057146674e-01,2.964210267372819848e-04,-1.653329660348284991e-03,9.446859390272446192e-05,2.264530807733535767e-01
2.114133767533222796e-01,5.531478534537254133e-03,2.274457441786907896e-01,1.526214128429631209e-03,8.849016502293916009e-04,-3.964437256878322775e-03,2.144799679517745972e-01
2.092343639308290593e-01,-5.441708105320908206e-03,2.222721477234790299e-01,3.526800301329509595e-03,1.089046504567635050e-03,-3.508765927816352888e-03,2.216585427522659302e-01
9.694199614205836757e-02,2.267706313335529633e-02,3.386827761133487380e-01,6.025264995196076383e-03,-3.311180188786744250e-02,2.799366949584670625e-03,2.921101450920104980e-01
1.413922761606177247e-01,4.753804305648434703e-02,3.643960626890983545e-01,1.990548882055565363e-02,-2.094943259345556641e-02,6.007553805780822820e-03,2.865008711814880371e-01
2.311856265026115964e-01,5.291386002247988607e-03,2.267285994468201116e-01,-6.822536039141261334e-04,4.338263366421147085e-03,9.123063066807282195e-04,2.238338887691497803e-01
1.595630395216620367e-01,2.071236073666868349e-02,2.423380864683022939e-01,2.097131118371988335e-03,-5.900924178368895275e-03,2.936629452344317014e-03,1.943402141332626343e-01
1.765796230174553894e-01,-7.329607352660139075e-03,2.239474811422580425e-01,1.142953366148240918e-02,5.614000185716258844e-04,-8.779922571604453557e-04,2.125390917062759399e-01
9.053241518443408409e-02,3.961918323048030377e-02,3.809646899735710246e-01,-1.154366502806601809e-02,-3.279441044240132691e-02,6.359686848444983352e-03,3.247728943824768066e-01
3.933408982042852498e-01,1.063516596613291176e-01,3.328575755716633999e-01,-3.689210996125229930e-02,-4.094442240457990545e-02,-4.461256171646972579e-02,2.893894612789154053e-01
2.255866970800241567e-01,-1.661339445807735737e-03,2.241520216436607982e-01,-2.782642059535084429e-04,1.088746304129658334e-03,-1.061702850132187391e-03,2.265499383211135864e-01
2.293970412669757986e-01,4.857630588132932914e-03,2.277924836575517253e-01,-1.661340766993550135e-03,4.060168959720210705e-03,-1.085188200141762923e-03,2.238783240318298340e-01
3.203460665023525333e-01,1.125815007110015364e-01,3.407649585087613175e-01,-3.362741395730189237e-02,-4.514232399953264224e-02,-3.611181900173639908e-02,2.474741488695144653e-01
2.218938197665249468e-01,-9.109984435565487981e-04,2.234729797885354474e-01,-2.113361164815125322e-03,1.313416113001459728e-03,-1.981852127185219480e-03,2.236664593219757080e-01
2.205199101920279348e-01,5.352537391778433573e-04,2.202242425321380148e-01,-1.721964360780650237e-03,6.529325976172881780e-04,-9.459869965721097798e-04,2.198662161827087402e-01
2.248015016106146846e-01,-3.730470439929550741e-03,2.231067384915976226e-01,-4.862399198097596808e-04,1.799713201695118817e-03,-5.046500103512725072e-04,2.277138978242874146e-01
1.881548849705796944e-01,1.755711748066804412e-02,2.467241965747604404e-01,-2.098521486807347364e-03,1.706078349361468119e-03,2.868306518818426309e-03,2.063307613134384155e-01
2.072925820089746018e-01,5.294802521848135379e-03,2.126214153306210941e-01,-1.886483404926755751e-03,-7.952891509676740392e-04,-3.726960719912928831e-03,2.048466652631759644e-01
1.216012996289983494e-02,-3.228509186390252084e-02,2.626443640913677657e-01,-5.909008439880947088e-03,-3.455379788361157348e-03,3.443384991212802230e-03,2.757293879985809326e-01
1.455546155541395659e-01,-7.223726603488328513e-03,2.489530483700991281e-01,-1.334322177465877349e-02,-9.024063493008450954e-02,-6.586429149256246666e-03,2.737222611904144287e-01
1.554390116737795480e-01,3.263925161042860457e-02,2.666693358086533738e-01,-1.827479356272253969e-02,-2.037579551521710025e-02,-4.415848073131262326e-03,2.083673328161239624e-01
1.830885863542511816e-01,1.055718188806978319e-02,2.343523972119629928e-01,-2.130478318841945353e-03,-6.693126766464848817e-03,-5.221673466668831642e-03,2.036405950784683228e-01
2.227250249672526050e-01,-2.007794039904670091e-03,2.227774546564215419e-01,9.264114738833466572e-04,1.455676998513802389e-03,7.170002115330203476e-04,2.247823327779769897e-01
2.191542552324939885e-01,5.381536332564329506e-04,2.218375484266792985e-01,2.901230249029910710e-03,1.392691591940486799e-03,7.236355796547876357e-04,2.200442105531692505e-01
2.111037096649565070e-01,-2.790538009415699516e-03,2.229611095057688064e-01,-3.978714797263249725e-03,2.027924619320369253e-04,-4.251694830318897278e-03,2.202939391136169434e-01
9.739033294537381702e-02,-3.545376078515638518e-02,2.402464639565425886e-01,-3.514628973539965506e-02,-4.162571172655737256e-02,-1.970373811545316975e-02,2.590397894382476807e-01
2.244893977956328723e-01,8.921610671035612450e-03,2.347383284895531719e-01,-3.428234537338453302e-03,-1.937151633393009720e-03,-2.440409669821611959e-03,2.210163623094558716e-01
1.863203375700697717e-01,-2.778773387001470807e-03,2.375586973392901924e-01,-2.536198889693308881e-02,-3.630055891096002629e-03,-2.409336857910224835e-03,2.237400561571121216e-01
2.132407925960603245e-01,-1.097790913898027965e-03,2.123966435125413388e-01,-1.009962826239491421e-02,-1.357573972940859415e-02,-7.409367819362545730e-03,2.162970453500747681e-01
2.280469589359464810e-01,2.685824340928927301e-03,2.264840531372257493e-01,2.188721499152781092e-04,2.160015773162618068e-03,-1.105423351149388989e-03,2.246233969926834106e-01
2.289503937592685945e-01,4.592839707795476345e-03,2.293223312843139239e-01,2.092840476040995577e-03,-2.870307236905450012e-03,-1.763855735562581267e-03,2.246488034725189209e-01
2.119476762552652827e-01,6.309345889603995561e-03,2.061244866050513658e-01,6.011099479682539132e-03,5.538468320015386970e-03,-7.384539451250953131e-03,2.036850005388259888e-01
2.351614393905382405e-01,6.863647235816505709e-03,2.040105433733050144e-01,2.810025987187632921e-04,2.091583203277741151e-03,-1.022175426637771459e-02,2.151868790388107300e-01
3.678670789144016240e-01,6.593374226591491860e-02,1.869423203465043204e-01,-1.717699593527957950e-03,2.137553003708506441e-02,-5.322840850174109795e-02,2.813355326652526855e-01
2.589160606289023225e-01,2.021735151247816553e-02,2.492618115551147873e-01,1.122119819789918873e-03,-2.590715440027709527e-03,-1.379367174483784111e-02,2.352881878614425659e-01
2.274200232855243808e-01,1.351201384873679245e-02,2.292796352724852937e-01,2.022973739880195264e-03,-3.609545304489250248e-03,-1.851869578934907737e-03,2.149872779846191406e-01
2.443105323867741929e-01,4.763182598783560762e-02,2.441835366026373078e-01,5.990795447998822215e-03,5.449480442829135809e-03,-1.114169417780221582e-03,1.971244215965270996e-01
2.235045052804983667e-01,1.070400152971190399e-03,2.270882689587231384e-01,3.351926256445479733e-03,-1.694640471044664073e-03,-2.726808024639934026e-03,2.243915200233459473e-01
2.252711478577885396e-01,7.839784975402497302e-05,2.272932005133578848e-01,1.068790036413313571e-03,-2.367000274039421544e-03,-1.137447788736442459e-03,2.262638509273529053e-01
2.251653196044979821e-01,1.471061252236932626e-02,2.124866600756055435e-01,-1.014008695504622914e-02,1.679199157818927687e-02,1.864210598455511708e-02,2.097155451774597168e-01
2.147361390515355462e-01,-5.399977704627079156e-03,2.155676674288575789e-01,-4.043481567557805252e-03,7.353330912543405793e-04,1.293020400538876132e-03,2.206792682409286499e-01
2.204263529565005930e-01,-3.815380028028059201e-03,2.204609140732800565e-01,8.278730041497904492e-05,3.554956307387781528e-05,5.790498779679795595e-04,2.242613136768341064e-01
2.296649909069266027e-01,3.576171555151358428e-03,2.252099915718233925e-01,-5.381949425789139645e-03,-1.379995260641637359e-03,3.339502496737725441e-03,2.241759151220321655e-01
2.238630254851787793e-01,-4.377963602090473305e-04,2.224638210605712485e-01,-3.766907189389975385e-03,-2.182614449698595457e-04,9.902898131396358026e-04,2.237065583467483521e-01
2.302623439772126246e-01,1.921360238223990269e-02,2.376227882616352427e-01,-1.972957426525704522e-02,3.538808527794994746e-02,1.528881124829815398e-02,2.275414764881134033e-01
2.325531777360772545e-01,3.012918261600175396e-02,1.581643760495243800e-01,2.009426565649380554e-03,-5.590329028163778385e-02,-3.070165408515750875e-03,2.021559178829193115e-01
1.938065552578102368e-01,1.051089787592361657e-02,1.979089501442475307e-01,3.561555899858816362e-04,4.466914331130246267e-03,-1.262864983200140921e-03,1.855562031269073486e-01
2.804870680306283948e-01,7.270836694120105803e-02,2.857465948749974838e-01,3.025886150363833130e-03,-4.649259938605046320e-03,-8.967756372879808965e-04,2.106826901435852051e-01
2.298471346232331403e-01,-8.222055199264000080e-05,2.263903394975800010e-01,-3.782459278851276548e-04,-1.249021337760636849e-03,3.625753634143136337e-04,2.282326519489288330e-01
2.147601713090790954e-01,-1.835085625614185645e-03,2.219069727046270590e-01,-5.263034805098356674e-03,-3.716046907279323911e-03,-7.026293908524006322e-03,2.208736687898635864e-01
1.365905776748415068e-01,1.361273311412576625e-02,2.634129354326069650e-01,-3.955028034332356418e-02,-3.483223352427158165e-02,-1.690305213696132250e-02,2.366293966770172119e-01
2.321650562294835796e-01,-6.850274072936035630e-03,1.942506283836437087e-01,-6.379545491564282689e-03,5.452282055681744073e-03,1.417166247422897360e-02,2.243155986070632935e-01
2.267869004870650684e-01,4.364776531253861114e-03,2.322616253517965912e-01,-3.968839847175840594e-04,-1.336081934668204843e-03,-1.212678261750355568e-03,2.252321392297744751e-01
2.316426654882396963e-01,5.547815240404485593e-03,2.281840236959760682e-01,3.855614425909779496e-04,-1.920458632641221849e-03,-2.962257441138785373e-04,2.244117558002471924e-01
2.480809485341571863e-01,1.328436496226637065e-02,2.100552516344511567e-01,1.209842396150346069e-02,1.234772107770334276e-02,-1.112449118364353985e-02,2.211670428514480591e-01
2.270459966577147992e-01,-6.164041874832659751e-04,2.264289678405580486e-01,-2.920494182372226303e-03,3.455691503395365532e-04,-2.597256676148517861e-03,2.274560630321502686e-01
2.375935157102417317e-01,3.391138173788163512e-02,2.333178715240834533e-01,-1.545863527303008083e-03,7.069452964716327814e-04,4.689685380940564001e-04,2.016014605760574341e-01
2.181139411091747027e-01,-4.179194345555137247e-03,2.083440089344099078e-01,-3.987341198691142681e-03,-8.722641896382659016e-04,-2.916251602908017260e-03,2.177461683750152588e-01
2.163182889565706257e-01,2.316253213188707027e-03,2.076991941150759247e-01,-5.433533211367565750e-03,-1.743558746563488471e-04,-8.185114938080660088e-04,2.100412547588348389e-01
1.611503444131095475e-01,-1.557904409556742920e-02,2.168240548183490435e-01,-1.971503211744903353e-02,-6.411933024626445717e-03,-3.999482113616342413e-03,2.133293002843856812e-01
2.101479227402961725e-01,7.729243380547090592e-03,1.926411234781253146e-01,-4.910414553097664121e-03,-2.963856979267251879e-03,-1.434604039952930418e-03,1.945275515317916870e-01
2.167999836360846033e-01,-3.995256195727020510e-03,1.479844118985458867e-01,-5.723284676733439609e-03,-6.117366028113795096e-03,-9.143650744202595076e-03,1.968586444854736328e-01
3.755401744169015732e-01,1.030800767305182220e-01,2.478719064740453892e-01,-2.776712917152503526e-02,-4.941080315863971562e-02,-5.039117496621025455e-02,2.701930999755859375e-01
2.118966832367869535e-01,-1.123421927439638424e-03,2.202808492320366407e-01,-1.575964639431833882e-03,1.203773624538525275e-03,4.465362509922180499e-03,2.174982130527496338e-01
1.306688318592119369e-01,-1.737906424568974595e-02,2.163718886941720654e-01,-1.513893022465409230e-02,-6.100916267613186450e-03,-2.748458682191030726e-03,2.068169116973876953e-01
2.281727589538140588e-01,8.726860256190988041e-03,2.219005770269324163e-01,-7.554254208102120435e-03,7.333073429301890760e-03,5.381033597634057170e-03,2.173449546098709106e-01
2.778446468855094720e-01,6.874666889672048642e-02,2.943355141481547310e-01,-3.516855199222028439e-02,1.294044977876145346e-03,1.716561685305253993e-02,2.281262874603271484e-01
2.252539383961676966e-01,4.077806624014357340e-04,2.230179509699690421e-01,-2.998836978968926273e-03,-6.070389831619723100e-05,5.455577424229024605e-04,2.237988412380218506e-01
2.293568993772651388e-01,2.185816724339817441e-03,2.247820187903021849e-01,-2.325291369407071502e-03,-6.472013040548468647e-04,6.854271298272666220e-04,2.249605208635330200e-01
2.240878229814334821e-01,3.986229004266095277e-03,2.292143873169817103e-01,-4.016948498049488156e-03,-3.459259565905835657e-04,2.649914559954417889e-05,2.228185981512069702e-01
2.114095293779759965e-01,1.623107246871952070e-03,1.816269877670889654e-01,-6.889001942694855836e-03,3.683596295580613290e-03,2.126312855900020990e-03,1.970939189195632935e-01
2.212301587962241800e-01,-3.277355886051630529e-03,2.232413102729845500e-01,-1.761020496082300532e-03,-5.306476124053582599e-06,3.069731314854429443e-03,2.256031036376953125e-01
2.240102653002207789e-01,-4.771181901917553869e-03,2.232939122015384359e-01,-1.060580739085558799e-03,-1.448237234519365955e-03,5.998274976654824342e-04,2.284476310014724731e-01
2.254109362932762428e-01,2.991765533283091694e-03,2.226957887583718154e-01,-3.841574193784519191e-03,-1.800377906343282413e-04,4.994173925249580266e-03,2.213435173034667969e-01
2.210957685390939897e-01,-6.217734701267935149e-03,2.221492063113384985e-01,3.362648336083201128e-05,2.368788536126573022e-04,2.743737786262182531e-03,2.278919816017150879e-01
1.504334634048185015e-01,-4.425474141311558363e-03,2.313902719130062069e-01,-1.672169324818290059e-02,5.322498722172990665e-02,3.449589634961779810e-02,2.366001307964324951e-01
2.242656487982790936e-01,-2.583905130651376059e-03,2.196349760449672617e-01,-3.067353504791452221e-03,-1.257941040265167661e-04,4.039231314567219393e-03,2.247418910264968872e-01
2.341951331135970760e-01,7.976750344631661216e-03,2.096160557432875660e-01,-3.437837599459898398e-03,-3.869532857313897679e-04,1.386751451110073427e-03,2.150821387767791748e-01
1.943130826446129167e-01,1.124891119592627553e-02,2.067521093254486297e-01,-4.213633092913476007e-03,1.246144379008949990e-02,3.096427727729735100e-03,1.910294443368911743e-01
4.366594559471656534e-02,-5.544981940722312763e-02,2.201767531033221592e-01,3.794806453748020281e-02,1.194499201611754283e-02,1.694058980773185995e-03,2.514593899250030518e-01
1.551661328016900321e-01,2.120984713482043649e-04,2.478739606803780360e-01,-1.087326795849220514e-03,1.004350077335605385e-01,3.418278594997317330e-03,2.779768407344818115e-01
1.892062656753507044e-01,2.568186104910342993e-02,2.209181007782455297e-01,1.563289351659650659e-03,4.449055438970759419e-03,8.602358459801177654e-04,1.816602945327758789e-01
1.341223136210381861e-01,-1.242505474934685328e-02,1.785342257086036111e-01,-3.346718005495531809e-03,4.361339579776626202e-02,8.261915688417159967e-03,1.894776076078414917e-01
9.527487229307060601e-02,8.288985410893956463e-03,3.263760941645447167e-01,3.540329990769169009e-03,1.990188920415836976e-02,-2.348466848045895668e-03,2.869133353233337402e-01
1.137318329432446540e-01,2.029526583183202670e-02,3.427395174816285084e-01,-9.508509220368985271e-03,2.649324362173030925e-02,4.385048286309154233e-03,2.915599346160888672e-01
1.475221215316811774e-01,2.273649190046152235e-02,2.486555385910259319e-01,-1.261241389838561574e-03,5.252121574218833076e-04,-1.409258490139201420e-05,1.960230022668838501e-01
2.453135397647783211e-01,1.313474582707499505e-02,2.019160776789682421e-01,-9.823211739817297797e-03,2.892485268798019801e-02,3.089968002201329278e-02,2.266675084829330444e-01
2.212350636849573504e-01,1.930266163729718598e-02,1.909547417048444440e-01,3.369744860215099277e-03,-5.053976594597759005e-03,3.143312446498923440e-03,1.889956295490264893e-01
2.277859554146811072e-01,1.345764345651784266e-03,2.258805460776378560e-01,1.288823581017360014e-03,-3.935015251721984443e-03,-1.615304907942003831e-03,2.256248891353607178e-01
2.379161483428611223e-01,7.139713624710580797e-03,2.163455043991139026e-01,8.234128657962293436e-04,2.258344025079664710e-03,-5.466621008481044493e-03,2.210249900817871094e-01
2.237437605071025959e-01,-1.295454726445210980e-03,2.238460769192885946e-01,1.213705840577882942e-03,-5.645038862507701987e-04,-6.661021660083142051e-04,2.251052856445312500e-01
2.216628668785111389e-01,-4.947316829024633877e-02,3.845686342404816549e-02,-1.129493347921824132e-04,4.827820834072728273e-02,-1.637581148477254903e-02,2.553474903106689453e-01
2.226636495153347661e-01,-1.996484423681832432e-03,2.234449268570122549e-01,1.328954936186380184e-03,-1.749507958594588228e-03,-1.191259959306478940e-03,2.250934094190597534e-01
2.220826096504489588e-01,-4.085934508905264551e-03,2.237869318274592900e-01,1.066762894264997735e-03,-1.510897904430501607e-03,-6.655228671912852409e-04,2.270510345697402954e-01
2.212222028605643764e-01,-3.883528312834616525e-03,2.217800720971952466e-01,2.730401660107103883e-03,-4.044382620509279062e-04,-1.468802680498640465e-03,2.254502326250076294e-01
2.244699898754106693e-01,-1.967118254746075268e-03,2.267761521249008205e-01,8.745734478240986759e-04,-4.755148833929089144e-04,-9.920644059628360139e-04,2.276119738817214966e-01
2.217945512564577504e-01,4.538082974797380542e-03,2.240928965534740303e-01,1.166409903959037811e-03,2.406029098602894037e-04,-2.336208392536826169e-03,2.184619307518005371e-01
2.459290243790726582e-01,1.478119144152731379e-02,1.588716202075234896e-01,3.752603170530780657e-03,6.943777562692055212e-03,-1.243536214651266153e-02,2.038038074970245361e-01
2.322778796519674449e-01,6.269183252328225375e-03,1.744166965169108297e-01,4.655302395955501077e-03,5.762696371131476557e-03,-2.300667873401408218e-03,2.037921398878097534e-01
4.210029849087715270e-01,1.313618895574232559e-01,3.004877520183381612e-01,3.192872722542761978e-03,-1.094205429144745785e-02,5.974811164685672055e-02,2.731464803218841553e-01
2.257279883500891426e-01,2.422471737012404924e-03,2.008650851979875418e-01,3.852366455642480640e-04,-8.510492947578225231e-04,2.367915779227300257e-03,2.120163589715957642e-01
2.344599718747844563e-01,7.736112238697218091e-03,1.789150919269716644e-01,5.581047085693673949e-03,3.138519757330218707e-03,-9.672186802676951967e-03,2.056677937507629395e-01
2.371570013687231415e-01,3.478185158644389596e-02,2.440916243535458940e-01,-1.133926122674984915e-03,3.045287824926624226e-03,-2.630118663597178809e-03,2.060573101043701172e-01
2.264367963037849374e-01,4.754794480743312901e-03,2.299178950389055842e-01,1.039792334214932959e-03,4.973583737726124283e-03,1.485391809568246393e-03,2.236309349536895752e-01
2.263915100503746669e-01,9.453727683171042617e-04,2.321392225354012018e-01,8.313051203694825668e-04,2.257509950268651085e-03,1.366857005363663474e-03,2.284245193004608154e-01
2.239249099342734972e-01,-2.300441115971274542e-03,2.257341647525634987e-01,6.207038134287895048e-04,1.442981587350811298e-03,5.833075520456352560e-04,2.271539270877838135e-01
2.318344976336217944e-01,2.026535740623419679e-03,2.113804788467641416e-01,5.651825733752635986e-03,-5.440218978913333343e-04,4.901931726902396778e-03,2.206770777702331543e-01
2.260949313926310655e-01,-7.424236742765155661e-04,2.251907172264119572e-01,-2.498081910469578939e-04,2.404109682974081563e-03,-9.203505285652149349e-04,2.264309227466583252e-01
2.238342880394468826e-01,-3.486350641605379108e-03,2.205401670958895555e-01,-2.260012922961295544e-03,1.355809672027076486e-03,-1.948735946584672458e-03,2.257630079984664917e-01
2.340276764050680802e-01,8.433139423945607005e-03,2.330051560716138448e-01,-1.559123978247236512e-04,4.599257170393670352e-03,-2.116092990580072531e-04,2.252264022827148438e-01
2.499415038649282494e-01,2.970401038329789634e-02,2.456316402602184978e-01,-2.925178441824246439e-02,-2.609820159988315846e-02,-1.567222196618183946e-02,2.300459444522857666e-01
4.867061864201410182e-01,1.914534345251523162e-01,4.673752111417827093e-01,-1.622834909263656811e-02,8.580225845493385725e-04,1.468465105455402965e-02,2.885819673538208008e-01
4.222622338014045962e-01,1.562933396762689608e-01,4.280643719378150469e-01,4.427708867094953815e-02,1.943999194446139125e-02,-2.444356521562594461e-02,2.848225533962249756e-01
2.369689749521710909e-01,3.465242656080635975e-02,2.336556571136354510e-01,3.337484692155650331e-04,6.058332655381308291e-04,8.118638259351131786e-04,2.006889134645462036e-01
2.434738730161485898e-01,3.313231401451130487e-02,2.417450058302324234e-01,3.310438344271950974e-03,3.291505886444436643e-03,4.263865107358414839e-04,2.096397727727890015e-01
2.410021327802069346e-01,5.039458223111673019e-02,2.367276062400023307e-01,2.700342337791715713e-03,-8.503718326605030952e-04,5.158150203101190181e-04,1.885725259780883789e-01
2.304047679185542152e-01,4.441709034752050478e-04,2.248289791349218358e-01,4.303749541569029148e-03,3.065411585276839670e-03,1.189478843625768877e-04,2.274083346128463745e-01
2.474885831373739853e-01,5.991228265795235652e-02,2.405562948732051509e-01,-9.018780410548713627e-03,6.241850101825098659e-04,-6.186992997816147082e-03,1.851826459169387817e-01
2.315281045801492743e-01,1.546940444841668483e-02,2.381082172053106127e-01,-6.151317650274180319e-04,3.273261057149102256e-03,2.058945773619001718e-03,2.195275574922561646e-01
2.331147835381325861e-01,1.862550926014697183e-02,2.402368385781502302e-01,5.048616293849509523e-04,1.155391149996307012e-03,2.404624201181570272e-03,2.181882113218307495e-01
2.228336252988858401e-01,-2.401628676277828278e-03,2.202043145698414084e-01,4.872284856631713644e-03,-5.184428474878016507e-04,5.569486804797589910e-03,2.243004739284515381e-01
2.163593638429187893e-01,-8.866773773365616007e-03,2.128547310746873311e-01,2.737942606237026878e-03,-3.243692654994631611e-07,4.796342492957306365e-03,2.236990481615066528e-01
2.165554952015439072e-01,-5.095799039078113823e-03,2.209627908239811256e-01,3.333356003957062101e-03,2.861215052772926289e-04,3.235795992341816869e-03,2.240325659513473511e-01
2.271720692684818521e-01,9.081735832340565029e-04,2.306459599247153436e-01,3.849687852591797475e-04,3.262560588883401151e-05,1.240309721837729956e-05,2.280216664075851440e-01
2.250700063508018767e-01,-2.582710139334698507e-04,2.294662949314078548e-01,-5.701350709910940547e-05,4.294245567278041301e-04,4.701445640335743257e-04,2.275609672069549561e-01
2.251636392425052646e-01,3.305204427771213371e-04,2.309959045582958836e-01,1.865783676186918505e-04,1.790674722489388323e-04,3.350844063684732467e-04,2.278064340353012085e-01
1.983948083841297616e-01,-1.239238224134742161e-03,2.392139967516030696e-01,-1.097405135314392585e-02,-9.921529348045088088e-04,-1.586730070556229217e-03,2.236976772546768188e-01
2.378936197990578205e-01,1.846658436341089282e-02,2.328127573862544819e-01,1.733900692201866814e-03,5.564493779903139682e-03,-1.038575720141705514e-03,2.171734422445297241e-01
2.401255683192280166e-01,5.694886873473897770e-02,3.736286671048717478e-01,-4.335218023920166946e-02,5.205388412068434612e-02,1.013397780479547566e-02,2.998442649841308594e-01
2.490442910063410675e-01,5.728847322330180014e-02,2.474293942980583805e-01,2.707798907610417354e-03,-2.203646815120858258e-04,-5.832452112470776955e-04,1.910141259431838989e-01
2.391321530976441567e-01,1.862128628115397588e-02,2.339004061507404253e-01,-1.420547305576769486e-03,-6.619617964241835198e-03,3.505845394124561167e-03,2.183417975902557373e-01
2.104244937077738020e-01,-8.049768755265668263e-02,2.134629351450209045e-01,-1.189963003394959966e-02,-1.381996295283792779e-04,-7.519891914378040003e-06,2.931787073612213135e-01
2.273684474574267367e-01,3.556254486619891964e-03,2.265309180371377074e-01,-1.756256005239283926e-03,-1.493415549221459217e-03,2.549371323894706123e-03,2.234739214181900024e-01
2.241313413158032009e-01,-2.121011037420156287e-03,2.232900521602452504e-01,-1.485253501645936993e-03,-1.304671590972056750e-03,1.719297947785018493e-03,2.258784770965576172e-01
2.322934365313361338e-01,8.564057752505876975e-03,2.304041478280243194e-01,-3.447337277803717067e-03,-4.341497446653265306e-03,1.905693585006359297e-03,2.230219841003417969e-01
1.743514019985426267e-01,2.141274405780244083e-02,2.339628518442630201e-01,-8.576507199224949612e-03,3.555729353565559737e-03,3.200247420006204976e-03,1.906567066907882690e-01
2.215179688233809285e-01,-3.013549148095345798e-03,2.234862806385602974e-01,-5.113186090200176571e-04,-2.076347651426823596e-03,1.239698133230631187e-03,2.255627512931823730e-01
2.234236266685920569e-01,-3.571437986447711932e-03,2.244755132598013625e-01,-1.011019258256426381e-03,-2.408201576482195318e-03,6.380332133585160572e-04,2.275704890489578247e-01
1.697460226649284976e-01,3.591363120873020121e-03,2.238951563719963067e-01,-2.668765760231101188e-03,-2.858616440373229223e-03,-4.324552213952141330e-03,1.990944892168045044e-01
2.018926405162966842e-01,1.966709852040374185e-02,2.679284711651676032e-01,-2.595013222307456305e-02,1.848053109305990149e-02,1.820063621181992886e-02,2.316007316112518311e-01
1.701837635488536171e-01,6.227133528569878118e-03,2.138465548687201456e-01,-3.966598182329620151e-03,-8.261739448913618666e-03,-7.210019404462158013e-03,1.906697303056716919e-01
1.820612484909941986e-01,8.107182330935908121e-03,2.310620952050590482e-01,-2.077910118894828184e-02,-3.077610869582153574e-02,-2.077992162687463881e-02,2.159102410078048706e-01
2.128296282981423371e-01,8.032203228149181751e-03,2.094442510869540808e-01,-3.244073405824083201e-03,-2.292072221470466131e-03,-1.632384451086459597e-03,2.032620459794998169e-01
3.735401749530490867e-01,7.474880036463046884e-02,2.060409347428528160e-01,-1.378140038942677129e-02,-4.254113100754950555e-02,-4.964831061295300191e-02,2.840402126312255859e-01
2.267343419283513462e-01,1.461743582845648204e-03,2.277303613511673097e-01,-1.607175702561570519e-03,3.772457306804569057e-03,-3.016847110375777980e-03,2.259443700313568115e-01
2.344241352201406059e-01,4.251980636804458813e-03,2.232311290356212841e-01,-9.522304054354973311e-04,2.335342096207883040e-03,-2.760671673619190074e-03,2.248780429363250732e-01
2.240487268431322065e-01,-3.333994387490601952e-03,2.060272971506932893e-01,-4.116261459160650872e-03,-1.924380687574855833e-03,-4.144762199453887186e-03,2.191880196332931519e-01
1.716315044076926755e-01,-1.193404948177059777e-02,2.215960886532816754e-01,-1.977617057834089517e-02,-3.283660735571203304e-02,-1.835862116717079662e-02,2.253523617982864380e-01
2.311321190869632392e-01,2.956113651756048233e-03,2.297201050048370274e-01,1.445261848766870574e-03,-1.629034752089431222e-03,-8.280973345210383349e-03,2.279562354087829590e-01
2.255282352978552618e-01,3.830930430879120330e-03,2.279821909973418492e-01,1.595551681970230407e-04,2.658974148155452463e-03,-9.841420682212295799e-04,2.229886651039123535e-01
2.368086022383117384e-01,8.961466427707565074e-03,1.811162249268674918e-01,-2.629822182762533924e-04,7.752447472151074081e-04,-1.830057217313822053e-03,2.057636231184005737e-01
2.097549230331410552e-01,2.469728495600398421e-03,2.002147135398198441e-01,-5.601825750177564546e-03,-2.121406172482453393e-03,-2.939238153189439266e-03,2.030127644538879395e-01
2.147938103009771060e-01,1.155212257324950142e-02,2.025548624318654345e-01,-5.194630039944656517e-03,-6.571520778751767898e-03,-3.827474403784115499e-03,1.980504095554351807e-01
2.157600726355435872e-01,-2.248200535719530047e-03,1.903208758743313855e-01,-6.316666915203147936e-03,-3.654697004938497681e-03,-4.759237316816329610e-03,2.070181816816329956e-01
2.146552203159590722e-01,-7.350661030776611815e-03,2.141435708206824440e-01,1.304218252106466780e-03,5.204594623261025576e-04,-1.700939718512960337e-03,2.217833995819091797e-01
2.925338894836228554e-01,-4.051245656660459882e-02,5.642316263491573697e-02,-8.807633704908991029e-03,-1.391833560738515172e-03,-4.505760513494221770e-02,3.071830570697784424e-01
2.225401373080802270e-01,-1.768049238368429865e-04,2.204561244104185636e-01,3.743959312528956970e-03,-9.941296432007470669e-04,-1.258644106845245277e-03,2.217945009469985962e-01
2.215147783667720527e-01,-5.211179480185512691e-03,2.213910107236752023e-01,1.161450181362435989e-03,-6.954706698269724329e-04,-5.510871060652117528e-04,2.266782373189926147e-01
2.229499447918235622e-01,-2.391484534476989721e-03,2.267133136159459883e-01,9.152478037462303791e-04,-2.390524578321561421e-03,-2.655646507635004133e-03,2.273362725973129272e-01
2.157384380394609114e-01,7.344132269889169784e-04,2.153896491628048415e-01,-6.239802923242044740e-05,-5.075392081778444227e-05,-1.681163745668614153e-03,2.148496210575103760e-01
2.192314661362880779e-01,7.829900886877794175e-03,2.168794026075794024e-01,-5.439230055076729612e-04,-7.337212264344770756e-04,-9.294803405718792899e-04,2.102475166320800781e-01
2.024851005558429007e-01,2.644026106791652619e-03,2.038148133498901560e-01,-3.342260228971363246e-03,-4.915362875883964693e-03,-4.834338247637395489e-03,2.009479105472564697e-01
2.144525100328701916e-01,8.809147699194358472e-03,2.055814044389746298e-01,-5.131252490241975696e-03,-1.498801236465351766e-03,-2.357583705176880332e-03,2.016085535287857056e-01
2.051119047646902671e-01,3.787242998665590887e-03,2.065943780463778690e-01,-8.725174640256747180e-04,-1.525887434903470084e-03,-3.828983724323442583e-03,2.022016942501068115e-01
2.210993619873316551e-01,2.905418899591671877e-04,2.215678195222188229e-01,-8.646911074537392715e-04,7.536898175764917369e-04,-3.493246364064314484e-03,2.211351394653320312e-01
2.069152319226357783e-01,1.266266995073844770e-03,2.144932700877867915e-01,-1.795764489122146472e-03,-2.737150804410832909e-03,-4.935775170489762817e-03,2.097917348146438599e-01
2.614045918566094140e-01,2.776009472226226293e-02,1.804628619626480190e-01,-4.454557927338710643e-03,-4.870324350395323527e-03,-9.974100247785725598e-03,2.065402269363403320e-01
2.309682543232671748e-01,1.196884743736387202e-03,2.141565691597085430e-01,-6.659040230683173703e-03,-1.428084144596109429e-03,-8.574520526798468101e-03,2.226530611515045166e-01
3.063392446654007450e-01,1.079945718849623093e-02,1.145647548524677262e-01,8.600123421932797177e-03,-5.375680672772343432e-02,5.254539792642190510e-03,2.764386534690856934e-01
3.769252609765406659e-01,6.844606722998811121e-02,1.757809852243177040e-01,-6.335455387088990021e-04,-1.843645874891081116e-02,-2.730604606728365136e-02,2.771775424480438232e-01
2.390896825131409442e-01,-2.808078418522985675e-02,1.244665786853534628e-01,-2.184011265955822928e-03,-9.499400128292045248e-03,-2.881411144610600966e-02,2.380554378032684326e-01
2.181212472224194343e-01,-1.346626102650533285e-02,1.726044753954139865e-01,3.798319315180769375e-04,1.011474514394929510e-05,-9.713997717808762339e-03,2.131829112768173218e-01
3.522846792297843477e-01,6.125653232708894169e-02,1.933084365187214271e-01,5.403269043464394884e-03,1.470019361462020745e-02,-4.647813032345132767e-02,2.663095891475677490e-01
2.255346575564542988e-01,1.269306674265764656e-02,1.726469784322261225e-01,-3.451701136408736898e-03,2.699235987388353287e-03,6.847031379074047276e-03,1.924583017826080322e-01
2.269684014396091687e-01,-5.995284417031621071e-04,1.293018574836151957e-01,-6.588793405602852860e-04,4.729281199050262927e-04,1.346186189870234636e-03,1.977562904357910156e-01
2.692877037908599780e-01,1.948905426802022278e-02,1.973119324558860466e-01,-2.756302970850626425e-03,7.599460050140404571e-04,-2.371511047403528777e-02,2.265218943357467651e-01
2.169623600219616200e-01,8.197236569806864992e-05,2.124196918077869423e-01,-5.670716004601350675e-03,-1.750876538020174587e-03,-2.643130218760573937e-03,2.149398773908615112e-01
2.342172884136280442e-01,1.572319035409669441e-02,2.336369608753570692e-01,9.028766339177781266e-04,3.734033742938878270e-03,-1.270328854280401015e-03,2.183170318603515625e-01
2.186347521268458272e-01,-4.756515582965137323e-03,2.210725786744863197e-01,-2.585773242043386613e-03,1.068842614141584779e-03,-2.870941431694268558e-03,2.247273921966552734e-01
2.315728388878511568e-01,1.225361770082694646e-02,2.307975183554285270e-01,2.717688734078619293e-03,3.603280322548884241e-03,-1.379218821744322091e-03,2.190851271152496338e-01
2.316637865224740467e-01,4.101988105861778533e-02,2.388098520877253994e-01,-1.921356032993664373e-03,-1.300486062100212128e-02,-5.905462820186115416e-03,1.959122121334075928e-01
2.229445431718556081e-01,-1.219458891225572161e-03,2.236644310954380988e-01,-1.348974045948403032e-03,1.461659932185357307e-04,-2.668857079443164460e-03,2.245846837759017944e-01
2.216569586720923968e-01,-1.111645229664559587e-03,2.205945065330299770e-01,-1.800852502913630800e-03,1.927036730516742773e-04,-7.461279378913417051e-04,2.222651839256286621e-01
1.974098800271474885e-01,2.526713616895021053e-03,2.158763100885187636e-01,-3.418309165264088890e-03,-2.146965376360431346e-03,-7.251112332932942162e-03,2.052458822727203369e-01
1.963283435996355797e-01,3.216395762158458238e-03,2.186109526772405109e-01,-3.190714216173673023e-03,-2.253692842682036845e-03,-6.957720486524395127e-03,2.056277841329574585e-01
2.102858074794099474e-01,2.746949499197182121e-03,2.093976438596040213e-01,-3.547384144231065239e-03,-3.342555459502876813e-04,-1.736778204782006910e-03,2.072099745273590088e-01
2.071072594389652410e-01,1.748713563427262141e-04,2.037670894902655072e-01,-8.249949723343421096e-03,-9.534753220369339075e-03,-7.469189191104593298e-03,2.068459987640380859e-01
1.917388744395207012e-01,2.339877750652252786e-02,2.262071096830727268e-01,-8.336012126396674660e-03,-5.324974334892521033e-02,-9.391035522440072808e-03,2.104957997798919678e-01
2.354036830300101912e-01,1.945772598459968861e-02,2.374875467953609098e-01,1.263698604743471350e-02,-4.158923730064459975e-04,3.959688804955846173e-03,2.182054966688156128e-01
2.179283032070705173e-01,6.759172526953072246e-03,2.282817114984480034e-01,1.075407889698079024e-02,-5.495476571388819946e-03,7.922734739154056391e-03,2.179719656705856323e-01
2.231086528711823669e-01,1.299209865002057263e-02,1.898448759346056391e-01,8.039377753484991743e-03,-1.168430866345996320e-02,5.634646556992448790e-03,1.973952502012252808e-01
3.726983477106187714e-01,9.485745459160713211e-02,2.426496044785011463e-01,1.600278107798612168e-02,-6.564314856180177016e-02,4.174330339432383991e-02,2.773053050041198730e-01
2.309012683482743189e-01,1.284171323795213482e-02,1.889754357038943566e-01,5.177116074608192724e-03,-3.076824177921665387e-03,1.869057209645480803e-03,2.007105052471160889e-01
2.267667429910309451e-01,5.276991864109292774e-03,2.227972878390792055e-01,4.709533814192107086e-03,-5.377013289034972320e-04,4.867327395523692209e-03,2.198471128940582275e-01
2.245221271558103249e-01,2.293079073810322388e-03,2.312071354768810982e-01,8.254275557228249590e-04,1.394922288071231194e-03,2.612632823551785943e-03,2.257086634635925293e-01
2.190644325045086327e-01,5.015112297886592518e-03,2.104831430681275428e-01,5.424894653254709424e-03,-1.090985531210074454e-03,7.435412742008189668e-04,2.101129442453384399e-01
2.493940505958517906e-01,3.518221285413053456e-02,2.951021852066575413e-01,3.524762060153695947e-02,-7.568301188469286900e-02,4.785185269240841560e-02,2.924850583076477051e-01
2.031181627105520526e-01,7.327984097458467572e-03,1.997525799794281909e-01,-2.860674149530485332e-03,-3.667951286090544508e-03,-1.987002603512013667e-03,1.943268626928329468e-01
2.148731375885703787e-01,1.041024463196318917e-02,2.170887897639442454e-01,-2.553596600758675436e-03,-1.197310166162603683e-03,-3.845530016166555723e-03,2.057455480098724365e-01
2.073004983509555699e-01,5.626891875355338746e-03,2.132528146339649489e-01,-1.641391304423037850e-03,-6.775802287116263530e-04,-4.215978898225683502e-03,2.048679590225219727e-01
2.032166588853886457e-01,9.640046030134019617e-03,1.980526493565579749e-01,-1.520578890075840800e-03,-2.648431973466119915e-03,-3.441612045731515072e-03,1.912131160497665405e-01
2.116048178127601931e-01,7.169828120228177726e-03,2.130266558282112865e-01,-3.268985154157828289e-03,-6.814521892538180983e-03,-3.883862292198538447e-03,2.056768983602523804e-01
2.031131730599179952e-01,3.432707242275095938e-03,2.056790680334201205e-01,-3.514754670699019468e-03,-2.636443317417352852e-03,-2.240096812514579937e-03,2.011571526527404785e-01
1.999880658773949271e-01,1.291927673351475625e-02,2.061158460618412458e-01,-2.104213023651956872e-03,-3.363366404960916375e-03,-4.551052256562734474e-03,1.904939711093902588e-01
1.801943194671668802e-01,-8.115715290297279005e-02,5.242015456674552210e-02,1.448174480931660631e-02,-6.892063501979754647e-02,3.200899848476281701e-02,2.630397677421569824e-01
3.663600006903259265e-01,5.647088016959889156e-02,2.908750473630046240e-01,1.157371384476730929e-02,-2.893823811916655317e-02,2.330528507704086871e-02,2.878902554512023926e-01
2.014115308511783553e-01,-3.152573623019476468e-02,5.854767436584949053e-02,2.444509682590116900e-03,-5.591934386270844271e-02,6.804615332720392873e-03,2.256751805543899536e-01
2.223183909306181150e-01,-8.485712142737383834e-03,2.145710575152677824e-01,2.160260524175412061e-03,7.167578731757509375e-04,4.434922787125277280e-03,2.271937131881713867e-01
2.451192511098948812e-01,-7.979632405121098171e-02,1.634860906372649358e-01,1.940835595439775090e-03,-2.247196780992164605e-02,4.610584549870617999e-02,3.059636056423187256e-01
2.215894230312135116e-01,-1.522655423417895726e-03,2.216336784385387615e-01,5.392754550710482028e-04,-1.169464171927134038e-03,2.141510784292860372e-03,2.231761813163757324e-01
3.179271722157260838e-01,5.782773131933019450e-02,3.460061491726259542e-01,3.750210310886133050e-04,2.736375572387043931e-02,4.814334142759612439e-02,2.914507985115051270e-01
1.911574739401047385e-01,1.292366626942464958e-02,2.049517537210553408e-01,9.185722751102187722e-04,-3.716721700044954384e-03,1.471602118287649447e-03,1.856519579887390137e-01
2.265908488592059677e-01,1.955332360432439354e-02,1.626190088111493515e-01,1.499070716869131247e-03,-4.675589464592572707e-03,8.494551323829856952e-04,1.838120073080062866e-01
2.078183072704204437e-01,1.492486526839785499e-02,1.932847835151265126e-01,1.593520892323763453e-03,-4.193076832790001464e-03,8.145651708829628954e-04,1.862203925848007202e-01
1.669340754514198333e-01,1.106972266129498117e-02,1.925087409565303387e-01,3.142883610150392412e-03,-2.738188426634130881e-02,4.840308409357040216e-03,1.768704652786254883e-01
2.144171258454936058e-01,-1.311613581676501772e-03,1.938561486687756519e-01,6.576055057841742602e-03,-2.218658515151026092e-03,4.560740491054470283e-03,2.067195028066635132e-01
2.285152618658025658e-01,3.885187358689229375e-03,2.289387607297017069e-01,2.516181726284432481e-03,3.273872618770482489e-03,2.117275929699039168e-03,2.249857336282730103e-01
2.120467852047070723e-01,1.928770050936973179e-02,2.332998199019055974e-01,1.324768952373611523e-02,-1.657985092063321564e-02,1.117682910538625798e-02,2.083996534347534180e-01
2.057269987675172107e-01,-4.208820611489860752e-04,1.999362854648129018e-01,6.612385205905759594e-03,-6.646000165494742040e-03,6.512229708417941083e-03,2.042734473943710327e-01
2.330897525305926365e-01,1.476019682065604632e-02,2.262533158189456439e-01,-2.911626372398886092e-03,1.229984571722043778e-03,-1.659565738653959828e-03,2.150817662477493286e-01
1.757734523724108211e-01,2.202581168824324642e-03,2.141510409164713025e-01,-1.591107801973285114e-03,-1.003206869784769618e-02,-6.977901122628378701e-03,1.967651247978210449e-01
1.427959915180276318e-01,1.066938485565591122e-03,2.215159620269864238e-01,6.957474037400118543e-03,-1.691505351313390623e-02,5.084609816630930763e-03,1.962702274322509766e-01
1.499491309568033726e-01,7.310404249889546069e-03,2.425381074185054553e-01,7.016190805531820340e-03,-2.355903276543109930e-03,3.932701796969440347e-03,2.057572007179260254e-01
2.382207961760265391e-01,7.739963406556693570e-04,1.920563723044024784e-01,4.500279875745129450e-03,1.795009881027114082e-03,-1.577117041019744301e-02,2.199253439903259277e-01
1.454262076940822934e-01,3.152003010976217601e-02,2.777588557437832284e-01,7.343314923694259193e-03,1.201489915123146041e-02,4.181100670283839811e-03,2.149589359760284424e-01
1.093383434711052982e-01,1.201188385838300454e-02,3.120326189778024339e-01,9.036867076094112425e-03,-5.994417475310657994e-02,1.763757057502251136e-03,2.851651608943939209e-01
1.247084137919794444e-01,-5.409691252836662523e-03,2.136408200914677313e-01,2.078534750672860181e-03,-1.929358442614180838e-02,4.095262036943244917e-04,1.937565505504608154e-01
1.559661864309173918e-01,1.142035282574721533e-02,2.233474092547122480e-01,-6.321323242887882986e-04,-3.892641128994355632e-03,-1.080362081090366702e-03,1.876794099807739258e-01
1.261013462069477953e-01,-4.798815808122663951e-03,2.529218295124737725e-01,1.635492440037456668e-02,-8.772451187345331469e-02,-4.241520611483506550e-03,2.715921700000762939e-01
2.395118932481745122e-01,1.299295743522677071e-02,2.198239049326164984e-01,-6.453230443886257515e-03,-1.002063104265894442e-02,-1.582139047592521705e-02,2.200360447168350220e-01
2.185772904288659224e-01,4.665997057606563470e-03,1.770333870280113853e-01,-1.227655491237714634e-02,-8.538646942281070962e-02,-3.157691151181854505e-02,2.528106272220611572e-01
2.314744920416654805e-01,4.810027340371003657e-03,2.302224129448470769e-01,-2.599207804075156364e-03,2.299903480582668122e-03,-8.368775646889232023e-04,2.261255979537963867e-01
3.129943481488426937e-01,5.488565893414767971e-02,2.563568840218062306e-01,-4.381918224369851789e-02,-2.110162263493500431e-02,-2.226051187176789417e-02,2.525708973407745361e-01
2.008579039351133244e-01,-8.855485427179676794e-04,2.013078782200808658e-01,-4.816845655251269197e-03,-3.994684400000665485e-03,-3.304105039971270107e-03,2.023403942584991455e-01
2.315633825722316075e-01,9.826831453003115335e-03,2.325552734427521751e-01,1.310901738876853965e-03,-2.114696960611580842e-03,-3.716510874381374722e-03,2.223691344261169434e-01
2.270610339799393751e-01,1.349327422824078693e-02,1.704414130153128482e-01,-5.892702844949700147e-03,-3.732851887974372989e-03,-4.190786183888111499e-03,1.921548992395401001e-01
2.039969179336750815e-01,-1.207376611745925032e-02,2.017412305882260171e-01,-3.431907841208699933e-02,-4.102105755387884523e-02,-2.113375906448127992e-02,2.369086891412734985e-01
2.395457402333643904e-01,2.092745045548369265e-02,2.350319018620495026e-01,2.704153704669097318e-04,3.499113147300441685e-03,-5.062783615351348172e-04,2.164838165044784546e-01
2.405859986776777704e-01,2.582084619260252567e-02,2.410254868241316628e-01,-8.966846628273677762e-04,-4.309645372651217145e-03,1.381530299883698557e-03,2.151336967945098877e-01
2.275885764687507473e-01,1.968445005398888892e-04,2.265498381025623231e-01,4.594581121958319346e-04,-2.977047981467432526e-03,-7.884462318432963442e-04,2.269382476806640625e-01
2.251947727406103106e-01,3.157419399599514787e-04,2.273762662604812967e-01,1.245822581846749112e-03,-2.434283308893286576e-03,-1.160964508431600647e-03,2.260362505912780762e-01
2.471379155311932974e-01,2.598015183489757463e-02,2.479173683933383332e-01,2.312743925055253235e-03,-1.907475992753236444e-03,1.905477064226325523e-04,2.216096073389053345e-01
2.266731239886022320e-01,-7.922949823649938494e-04,2.250359303550201195e-01,3.276477487127304068e-03,-1.231551041255004404e-03,-2.310920441854680176e-03,2.267676591873168945e-01
3.442876217627242053e-01,9.935919622715747024e-02,2.894236517526167507e-01,3.368295511217773291e-02,5.502229048846077331e-02,-3.784303367213025238e-02,2.575742900371551514e-01
2.767152759142835761e-01,3.062247474409962589e-02,2.430230000304298699e-01,-1.090925129996762541e-02,1.618489786888751766e-02,1.789674984110602163e-02,2.356038540601730347e-01
2.242459120626486557e-01,-1.962102289152140022e-03,2.250602988931614812e-01,-1.616411739720796442e-03,-9.148957960750368247e-04,3.048991294227462517e-04,2.266397476196289062e-01
2.275410363852649609e-01,-8.169750177788676071e-03,1.545664551055401237e-01,2.004164212181101801e-03,1.450084690772906191e-04,2.118021425244847808e-02,2.122307419776916504e-01
2.414406049610423599e-01,2.114495223884649278e-02,2.455135131162080597e-01,1.089773037104390351e-03,-7.736482790095452209e-04,-4.893576981460802562e-03,2.225336134433746338e-01
2.258611121982808667e-01,1.532608228010723384e-02,2.328298916139447394e-01,4.960197190406424932e-05,-4.773308478578930369e-04,1.383117605613589122e-03,2.141195088624954224e-01
2.279902889764935381e-01,6.098402950210385365e-03,2.233928764857927574e-01,-5.124117839311552632e-03,-7.998190188606265011e-04,4.125294286753704819e-03,2.199289947748184204e-01
2.018922044021726203e-01,7.375195931863337551e-03,2.197727962736431007e-01,-5.750807931660910886e-03,4.204491438476898324e-03,5.627527110494075918e-03,2.046507149934768677e-01
2.010885786065521597e-01,-1.067456314612572066e-02,2.191798363745834921e-01,-1.001351462536610899e-02,3.620218099729796603e-03,7.169966199698918699e-03,2.224777191877365112e-01
1.935006944509866100e-01,1.850694021578619397e-02,2.493117050754118380e-01,-3.840244454422099551e-02,8.800192469280407326e-02,5.483945765243201757e-03,2.669302225112915039e-01
1.140911911570234305e-01,-1.570122237246401875e-02,2.281196993939020867e-01,5.580327181861457694e-03,7.836248467804551865e-02,1.465110437428140955e-02,2.526025176048278809e-01
2.139833444590286682e-01,1.619572583283476752e-02,1.798283006914155047e-01,-3.193295074908084584e-03,7.306815551475509714e-03,1.934067015218558219e-03,1.836655884981155396e-01
2.292458376333923464e-01,-1.064893622326062994e-03,2.252690575211412638e-01,5.211743485876760935e-04,-4.703052917234741169e-04,-6.255083138390214910e-04,2.283541262149810791e-01
1.190037721129631881e-01,-4.377172759553396575e-02,2.060892822124273938e-01,3.457558902538716145e-02,3.760492967573291628e-02,-9.029963829007375126e-03,2.373363971710205078e-01
2.185624183154414590e-01,3.284381371101180447e-03,2.155292195701172808e-01,4.052882564580262588e-03,4.625125376260981469e-04,-7.360877403820103269e-04,2.138981074094772339e-01
1.859040797211414242e-01,1.175043751055188102e-02,2.141286210521042288e-01,1.644558632330922173e-03,3.844598112936523267e-03,-5.917151506414226360e-03,1.902603954076766968e-01
2.028175017564137206e-01,-5.812685248331311838e-03,2.098818669758376609e-01,-5.384844373263510120e-03,-5.514522597359126574e-03,-6.852190537306495494e-03,2.130008786916732788e-01
2.232341018898016394e-01,-2.538921078283906674e-04,2.241186572960144618e-01,-1.405213671882614857e-03,1.221170256577929413e-03,-1.959794813720608635e-03,2.239805161952972412e-01
2.310021023731283762e-01,4.424123333712143280e-03,2.249051678685936584e-01,-2.531862787754082626e-03,1.085345082245275840e-03,1.311797882554168368e-06,2.236427664756774902e-01
2.053717399956914991e-01,8.815366849733580201e-03,2.377591649343518965e-01,-1.882783576835840578e-02,-1.704991364240247831e-02,-1.334991252832604634e-02,2.202714830636978149e-01
2.229733806784438832e-01,2.617217926945664130e-03,2.250299086062304554e-01,-4.673114195964734804e-03,6.400172673199849361e-04,-4.107024368558959311e-03,2.216564565896987915e-01
2.243786633393142216e-01,1.725832908010704880e-03,2.283065512740318770e-01,-6.758784797384881750e-04,-1.663927453042000177e-04,-3.306602458590375375e-04,2.246464937925338745e-01
2.376502889898983173e-01,4.261704960033146916e-02,2.371587818300077699e-01,1.266350970837468864e-03,3.386942595907542052e-03,1.517594799162504332e-03,1.949063390493392944e-01
2.288858016821357921e-01,4.953882481841254126e-04,2.248970967389702369e-01,-8.643525605338189940e-04,2.599427801162192651e-03,-9.239670387186243745e-04,2.264777719974517822e-01
2.265752261300680026e-01,-4.623370086205003116e-04,2.255109976260740723e-01,-1.944057831877760156e-03,2.549538090410289563e-03,-2.443400492945885152e-03,2.266149073839187622e-01
2.263184447781395048e-01,-1.608368669341914137e-03,2.233908349972968943e-01,-5.336531931218699851e-04,1.123746731449903153e-03,-5.819574307056582302e-04,2.264896929264068604e-01
2.325348151751914783e-01,2.345815841794662848e-03,2.262207648788269743e-01,-9.102064209191065283e-05,1.249107289410841164e-03,-2.893778084366292768e-04,2.271087318658828735e-01
2.237499719115291774e-01,-4.239447277235158795e-03,2.230800955992194301e-01,7.445844942302752610e-04,1.532549019082801982e-03,8.242555105052709521e-04,2.276788204908370972e-01
2.144195890124133141e-01,-6.516751695691741508e-03,2.083192686860164122e-01,4.597013412029592357e-03,-6.752340759991750860e-04,3.197481788531516839e-03,2.181690484285354614e-01
2.196323135639823287e-01,-4.805763407376123508e-03,2.163705456654735348e-01,3.024962932425464494e-03,-3.341199349351117688e-04,2.651631099344888432e-03,2.229347527027130127e-01
2.246857219839199504e-01,2.833328518391936557e-03,2.311317449669821333e-01,8.114642373423779781e-04,3.301384172966545689e-03,3.047036112782596992e-03,2.252834439277648926e-01
3.174540479018483907e-01,5.052082227447955709e-02,1.494649494290679059e-01,2.408273112921595696e-02,-4.068289385283505033e-02,2.726425424292620164e-02,2.521250844001770020e-01
2.390049813589709415e-01,8.553907170455385400e-03,1.364923663480485938e-01,9.875681469391989556e-04,-1.633812082781698968e-02,1.064029194005589388e-02,2.028195410966873169e-01
2.840305872435440748e-01,4.078387788231288558e-02,2.685137090351434885e-01,1.113335080549823601e-02,-3.863273032153604833e-04,7.975545851551130508e-03,2.370620965957641602e-01
2.372923096584826919e-01,1.643345028935483398e-03,1.821019138671616799e-01,5.459704186379129263e-03,-6.718995145816746874e-03,2.185377326651154195e-02,2.173211425542831421e-01
1.238394685668031681e-01,-2.618229152228515599e-02,1.447074025351064441e-01,-2.379451252331304598e-02,-9.436434441795403527e-02,-8.482520122219555994e-03,2.338822931051254272e-01
9.481464771256764568e-02,-3.868610937519507964e-02,1.489238959234937543e-01,3.161676850771756846e-03,-8.586552202169760173e-02,4.390078950699071933e-03,2.240097224712371826e-01
2.126119676448491869e-01,1.170286831605593658e-02,2.011578264259901994e-01,8.881911280823519966e-03,-1.020710891200972588e-02,7.594786826992482379e-03,1.972731202840805054e-01
2.454891227102600770e-01,2.662403324425144380e-02,2.531014591658548585e-01,1.175587771853263755e-02,-9.447278143370838998e-04,1.213901422337182456e-02,2.246893346309661865e-01
1.838603080541848789e-01,1.789220321421629289e-02,2.180351191001799471e-01,-1.779725902219677725e-04,-5.061811284205914273e-03,3.240491607720584651e-03,1.857248544692993164e-01
1.835208093870552837e-01,1.043754304374791553e-02,2.131442675302792078e-01,-4.159144942224282139e-03,-2.217870400288461490e-03,-4.556029534634429244e-03,1.899779289960861206e-01
1.868266349157671480e-01,1.091574509279652494e-02,2.090121264908456067e-01,-2.886854948539350259e-03,-3.795905779805376114e-03,-4.798723610153787268e-03,1.883529126644134521e-01
1.855004006918765935e-01,6.091420219863696861e-03,2.010247025284673805e-01,-2.914695200509225675e-03,-2.429016322167981690e-02,-4.996351071576991300e-03,1.925725787878036499e-01
2.111146117455509619e-01,-1.363075038691013985e-03,2.221064599958754437e-01,-8.453467196520037322e-03,-3.334415314089321253e-03,-8.553004596856664254e-03,2.192494273185729980e-01
2.385890644005568828e-01,1.770867957477031962e-02,2.160485398293840453e-01,-5.916364063949329684e-03,-3.966346471986265110e-03,-7.700316045623102970e-03,2.112996727228164673e-01
1.784286046615304044e-01,2.046639824085368098e-02,2.221661974096246772e-01,-4.096208487039488221e-03,-8.675790252809649147e-03,-4.615562736962017590e-03,1.846996992826461792e-01
1.768433450487444936e-01,-9.748527711471929869e-03,1.769397344783135151e-01,-3.421587647974131535e-02,-9.573783649447348276e-02,-1.982364010696653980e-02,2.588876783847808838e-01
2.296434953916987043e-01,3.542101701020261562e-02,2.704148323524285802e-01,-3.410251959620386186e-02,-5.708833285298901133e-02,-4.506857720874903050e-02,2.581919729709625244e-01
1.703416605926494909e-01,4.609065822246641297e-03,2.105378026842869565e-01,-5.025171170850056476e-03,-1.803954560326692311e-02,-7.704794320673498224e-03,1.922887414693832397e-01
1.497761846444460587e-01,-4.642498379842893708e-02,6.849550027651539474e-02,4.640227307613582416e-04,-8.163620017541554919e-02,-2.875708432921808468e-03,2.217497378587722778e-01
2.209260611042991318e-01,-6.061452422168517318e-03,2.213289332122558850e-01,-8.518881087954836622e-04,1.259003154987025893e-03,-5.821069157161241165e-04,2.272067070007324219e-01
2.222554658038796704e-01,-3.223179369190337651e-03,2.230995969215933405e-01,-8.588637212259854752e-04,6.472289964810221726e-04,-2.666198355053042137e-04,2.259100377559661865e-01
2.248994508401521708e-01,-1.604920313599877968e-03,2.244314280840163933e-01,-1.543222070267488786e-03,8.687968677676959376e-04,-2.341991267101858266e-07,2.262915074825286865e-01
2.229146560749551420e-01,1.119895192834480246e-03,2.208944522397083832e-01,-3.507062241970723866e-03,1.181378123414603587e-04,-5.656937379892466779e-04,2.208774089813232422e-01
2.141026637868752858e-01,-4.671859757448604267e-03,2.056942529163470756e-01,-5.951539016604844717e-03,-3.831832748449316706e-03,-3.943471801608499673e-03,2.151520699262619019e-01
2.211052743432897205e-01,-1.128549756760327538e-03,2.162943439266085122e-01,-4.998717309297585551e-03,-2.473669766407303027e-03,-5.537272482642622250e-03,2.202888280153274536e-01
2.235489845381515295e-01,-8.375561673281434194e-03,1.348424256267902743e-01,1.151285054649559122e-03,4.182341879722152773e-03,-1.109163771065926896e-02,2.037403881549835205e-01
2.230306924292085879e-01,-3.416982011860747459e-03,2.218779979062927565e-01,-7.034693922122829115e-04,7.159036822941269515e-04,-8.802916267062515967e-05,2.258802801370620728e-01
2.280237216577879200e-01,-1.565477834698680848e-03,2.235792984581073672e-01,-9.167722272072754519e-05,-1.707123134573231959e-03,4.247023172592116866e-04,2.274200320243835449e-01
2.279134078473545322e-01,-2.263633232613637691e-03,2.243228210123439093e-01,-4.065156042300777897e-04,2.469853960835357611e-03,-8.616575758277607387e-04,2.284489274024963379e-01
2.362979560880555385e-01,3.145951594953205754e-02,2.323137576201952104e-01,-1.655123980014189256e-03,5.133822240448119439e-04,-2.449618426861273411e-04,2.028983235359191895e-01
1.092136722786474640e-01,-7.133614573957530736e-02,2.225976227691766063e-01,-4.844235311137697064e-02,-1.377690828842536089e-02,2.018006107027537472e-04,2.711735963821411133e-01
2.454163977843494271e-01,3.166768957426202569e-02,2.356392242871148679e-01,3.263418039254919328e-03,-1.945811760097886306e-03,-1.086544381042940308e-03,2.091437131166458130e-01
2.398226163263279531e-01,3.682460276237922714e-02,2.441564694983702766e-01,-1.891360323761818920e-03,1.957614703612385251e-03,2.384465573640678036e-03,2.052949666976928711e-01
2.313917651643195295e-01,4.599833108521467206e-04,2.251802136874654914e-01,-4.707018295621601405e-04,-1.284485489346660339e-03,1.750707663442997481e-04,2.279020249843597412e-01
2.619207975858645066e-01,5.465009030348580432e-02,2.735153422349655972e-01,-2.066380889508565369e-03,2.748573101751125569e-03,8.340090439680074991e-03,2.138759791851043701e-01
2.690495617208793488e-01,2.459161415955257723e-02,1.930544126546149264e-01,-2.688430746590794729e-02,4.722887203661273875e-02,1.878797382086601006e-02,2.384875118732452393e-01
2.373331283652163615e-01,8.094426770778803681e-03,1.527238564761494999e-01,3.576408128064697406e-03,3.029113088658741317e-03,-8.399304773446466393e-03,2.014719247817993164e-01
2.105958366111104207e-01,1.352778624895084603e-02,1.915699508792330086e-01,-3.485120626141550038e-03,1.836803518305693203e-03,1.831026787795886172e-03,1.884277760982513428e-01
2.348821187406404110e-01,2.875532587622575686e-03,1.792495930169204221e-01,-9.936006382350795821e-03,1.803658907274094392e-02,1.089478241440227160e-02,2.136425524950027466e-01
2.246205064908845528e-01,2.102609505878379192e-02,1.813893432128651784e-01,-2.380889130900581355e-03,2.207776934481791437e-02,4.457912033228476900e-03,1.898865550756454468e-01
1.093151258407967508e-01,-2.096387083556361386e-02,2.250221000777414826e-01,-3.291751095425310414e-02,-5.675197120166532855e-02,-1.187341796583530652e-02,2.424270808696746826e-01
2.025568981886671227e-01,-4.865769827225752131e-03,1.578103340319099157e-01,-5.577271476056929085e-03,-1.190288131262312414e-02,-3.494307744520700181e-03,1.905254572629928589e-01
2.078264907951591911e-01,6.311619329637641052e-03,1.609165669500978169e-01,-2.433608830071981935e-03,-1.284046596795406642e-02,-3.892912071234000252e-04,1.840342134237289429e-01
1.558854743994871339e-01,-3.449819052564778721e-03,1.813170480708890531e-01,-7.519157089336869011e-05,-2.927468723419434857e-02,1.235479180279127395e-03,1.807270497083663940e-01
1.680366408597622763e-01,1.017726668536575452e-02,2.375255419216035502e-01,-1.316660713272308283e-02,-3.056587993170842808e-03,4.470748183381199740e-04,2.031415104866027832e-01
2.076716039604054043e-01,1.761646390387988648e-02,1.960171260254443548e-01,-1.461262190937047487e-03,-3.352409544211651209e-03,1.802235824447741589e-04,1.846131384372711182e-01
2.261063309864687343e-01,-1.844500205738786036e-04,2.274760233080562744e-01,-3.041575816611156221e-03,3.418410429224112181e-03,-3.145761808323220814e-03,2.271823883056640625e-01
1.635222896129065739e-01,1.172840993656257269e-02,2.206908521582403582e-01,-1.532709150593607704e-02,-4.862908218892934842e-02,-1.218770729819816222e-03,2.068599611520767212e-01
2.314576351789385811e-01,-1.209788915154488831e-02,1.476186022539028864e-01,-1.165355922236697029e-03,-1.713166697655883405e-02,-2.103607318610554305e-02,2.194104045629501343e-01
1.876699935580997125e-01,1.278734824595129105e-02,2.296099079548449273e-01,-8.342795094723987840e-04,3.363199726359901356e-03,4.963089794521138506e-03,1.994677335023880005e-01
1.580484587651878881e-01,-1.119218835331398099e-02,2.161665429778248104e-01,-3.188329118388064792e-02,6.450701577606261783e-02,3.274477833580340114e-02,2.461824715137481689e-01
6.915376047883711741e-02,-1.898906737072196538e-02,2.437070190550494897e-01,-3.613881772827198802e-02,-1.853401978744982593e-03,5.437158797527778288e-03,2.400846779346466064e-01
1.664934387897881174e-01,7.669807317721585860e-03,2.089907886804442116e-01,-2.632950098568619633e-03,1.352992264291518441e-02,2.878055618117001183e-03,1.854059845209121704e-01
2.027448340871229049e-01,2.673948395144620793e-03,2.275436133419825868e-01,-1.460239072130880590e-03,-4.435077500224423133e-05,3.311640290217976630e-03,2.136449366807937622e-01
1.184983584695894210e-01,1.944906286595782241e-02,3.545683965735404453e-01,6.987517805667178318e-03,4.235587467076992046e-02,-5.252457248044342317e-03,3.074633181095123291e-01
1.775778837919092246e-01,-6.829442861804924103e-03,2.200591594795880956e-01,2.117148620049610561e-02,-2.333887571798429206e-02,7.358112621863252718e-03,2.163002789020538330e-01
1.942928935848707295e-01,-1.166091335289137776e-03,2.393798200560706135e-01,-1.872696030635006767e-02,2.429004230070120306e-03,6.037209531787447389e-03,2.241178900003433228e-01
2.306490445399646538e-01,2.894209693047031240e-02,2.375007987482729011e-01,3.335153030453093270e-04,2.633913616831508927e-03,-3.206351633626680717e-03,2.053452581167221069e-01
2.210929430928653960e-01,3.529414531441649183e-03,2.308074943379503363e-01,-5.251006115638867308e-03,-1.692830249777932969e-04,-5.190794342274009793e-03,2.229471504688262939e-01
2.347533767199753707e-01,7.543819368356130539e-03,2.302526901707554474e-01,-2.049523921236100839e-04,3.904783093480909423e-03,-6.099064814834720546e-05,2.250949144363403320e-01
2.677181222109135117e-01,4.402920482938599278e-02,2.681457522170749841e-01,1.265479483833855268e-03,-9.219220252611272154e-04,7.838393244901601525e-03,2.243306636810302734e-01
2.611711756604309653e-01,4.452319176767413622e-02,2.939193376270329838e-01,-1.452658278081258789e-02,9.338824369012970156e-05,-2.723556611456221833e-03,2.361333519220352173e-01
2.296686824496997903e-01,6.545336890019209930e-03,2.285768368908830395e-01,-1.216764719668823836e-03,3.711118729810986613e-03,-3.488383816011881585e-05,2.226822078227996826e-01
3.522225218661908519e-01,9.767227872390496501e-02,3.212272621106537773e-01,-1.520951844872821430e-02,3.063495235576606246e-02,-4.250220891701479015e-02,2.584482133388519287e-01
2.869363842962728284e-01,4.929714483384017853e-02,2.647535667525903191e-01,-1.789902905651643075e-02,-2.407368647456418695e-02,-2.063937069019015913e-02,2.359463572502136230e-01
2.303946688232121898e-01,8.614388959600288720e-03,2.277154459451075641e-01,-6.486304193034151191e-03,2.871163681854177214e-03,-4.936933063029226056e-03,2.209604978561401367e-01
2.693863662791138869e-01,3.782676844008756034e-02,2.835277635070041491e-01,-8.378947760645225117e-05,5.383531993261809166e-03,-2.066064088959916958e-02,2.417890727519989014e-01
2.269816053014844515e-01,7.428769591785733262e-04,2.273273454199788990e-01,-1.812395682572217129e-03,7.036887458417001974e-04,-2.492849257749497633e-03,2.264779955148696899e-01
1.809022769815266940e-01,-1.124866909948527005e-02,2.172810200206147790e-01,3.027721316448439646e-03,2.467084639841570816e-03,-3.018978675431654795e-04,2.127948403358459473e-01
2.361619912506918162e-01,7.974665916339301885e-03,2.283748418784607992e-01,3.564325278160261016e-03,-2.085395974282889045e-04,-5.945243644747121454e-05,2.244803309440612793e-01
1.786505504576616499e-01,6.479088166626023604e-02,3.533116833679765811e-01,4.308733823880744884e-02,4.087249834240493096e-02,-5.939556954646260829e-03,2.721111476421356201e-01
2.350923758434391164e-01,1.161617872373466032e-02,2.312887274850531638e-01,-6.606671632082884455e-04,2.075878000667470170e-03,4.820348945112096781e-04,2.216325551271438599e-01
2.100962130533789163e-01,1.588072247193175746e-02,1.998852376492020744e-01,-2.336355753687685208e-03,1.081010895516549457e-03,9.873436501893874742e-04,1.893768608570098877e-01
1.820195328697911397e-01,-1.890994648381438825e-03,2.001362356990111779e-01,2.045059074734023336e-03,5.859139076030701887e-03,-4.461707511707981196e-03,1.940577328205108643e-01
2.184148909216228618e-01,1.608407826549601571e-02,1.972028009642834423e-01,4.016397844825465337e-03,1.145383057003057127e-02,-3.824190001863394736e-03,1.938599795103073120e-01
2.460919387020247262e-01,5.429013514251729289e-02,2.456835563186630933e-01,-5.533656517564771284e-04,3.512730409477114041e-03,2.272009071954101767e-04,1.916973143815994263e-01
5.258638037028689344e-02,-8.483835343567282250e-02,1.081396193943267858e-01,2.081464586978262754e-02,1.019612900999071481e-01,-1.250311583755304816e-02,2.501262724399566650e-01
2.279676266451725053e-01,1.728219767672464768e-02,2.335579062898139047e-01,-2.017584764421025828e-03,7.016667273265610530e-04,5.001601059623056109e-03,2.137431353330612183e-01
2.526355787035201583e-01,1.580715365578042042e-02,2.109268575577877280e-01,1.622539329690234067e-02,4.496132432860681233e-02,-2.670208180159774555e-02,2.386270463466644287e-01
2.340395316214451960e-01,1.020527500416157363e-02,2.303926349603533374e-01,-2.458686942128382978e-03,-1.813428486855965440e-03,4.252303748278509740e-05,2.220963239669799805e-01
2.329111601656718433e-01,2.983744970108337391e-03,2.264923634365689498e-01,-7.366422108727007289e-04,1.449816932349487747e-04,-4.560829568228884595e-04,2.267912626266479492e-01
2.351990331584019045e-01,1.115617531711882160e-02,2.296989278935491208e-01,-2.228853298014261963e-03,2.812591253746790209e-03,-1.023779756966352933e-03,2.214384227991104126e-01
2.111202246294885398e-01,-2.093696166333619546e-03,2.297475394879828492e-01,-4.635372768300722104e-03,-1.916389496101112127e-03,3.813993078245913769e-04,2.232815921306610107e-01
1.684652977010609731e-01,-4.817148063864046259e-03,2.250948692550075181e-01,-9.885283983555880755e-03,7.797298278681394183e-03,1.980018347775464732e-03,2.086478769779205322e-01
2.140323065901969801e-01,1.966932943572613501e-03,2.326639299807450600e-01,-5.511863980246548521e-03,4.707082703064181112e-04,-4.707024187828303882e-03,2.223246693611145020e-01
1.878580788652540745e-01,-1.447900718604755443e-02,2.119876999382240834e-01,-8.251014029631889915e-03,-9.309823835900756656e-03,-6.006708661123628425e-03,2.167425900697708130e-01
2.391284676150965960e-01,3.335920252005397657e-02,2.349473463215715763e-01,4.004561040116574357e-03,2.858289880766331798e-03,9.414942625064329001e-04,2.038955688476562500e-01
2.294716079214120796e-01,1.097687961557833325e-02,2.404193988853331465e-01,-4.190901109793693582e-03,-6.706032652798569766e-04,-5.588785203013723647e-04,2.242918014526367188e-01
2.261093699912973820e-01,3.253701884252724330e-03,2.290024212246729585e-01,-8.927539275443357536e-04,-3.246701496618713875e-03,4.730618859362501284e-06,2.243919968605041504e-01
2.859467689888475217e-01,6.527476768874385105e-02,2.624304687624485766e-01,4.846877483135392239e-03,-7.154771624829771130e-04,-1.017169115935250391e-03,2.100830227136611938e-01
2.417326416965869251e-01,1.612474828756202405e-02,2.344002665773982086e-01,-8.558493045481693415e-03,-1.219554884562493516e-02,-2.034491762540633492e-02,2.262877076864242554e-01
2.376493435384723907e-01,3.186750803856047698e-02,2.349328466221867751e-01,-2.164816745976463723e-03,-3.060020881321488979e-03,8.296198203198802473e-04,2.045452296733856201e-01
2.284161572422550579e-01,2.303570100239696328e-02,2.328875330709094249e-01,-1.434824676050541412e-03,6.865961164339282920e-04,-2.821392280372050487e-03,2.077280133962631226e-01
2.306757866841654403e-01,7.936083283435285685e-03,2.326511627533220938e-01,-7.142827557937875835e-04,-5.372251190638100554e-03,1.743051783654363425e-03,2.239511162042617798e-01
2.257721138188003296e-01,1.168983353794095237e-02,2.123182524118018000e-01,-7.018983150648073349e-03,-6.768322215697356037e-03,-8.327531797750833270e-03,2.088666260242462158e-01
2.146000338248459094e-01,7.379141908122749394e-03,1.840445093034982493e-01,6.722025532691446904e-03,-5.111971053193886672e-03,3.210386924157768943e-03,1.943894773721694946e-01
1.822072062177989560e-01,1.237766310660731728e-02,2.067867312301345240e-01,1.916822985734351666e-03,-1.026607997415179482e-02,3.228986120284572329e-03,1.843340247869491577e-01
2.182332930415136207e-01,8.856700170612963330e-03,1.864298688572552931e-01,-4.035331139701589347e-03,-6.089550923445304596e-03,-1.086208071957499386e-03,1.958437114953994751e-01
2.059123090531932987e-01,4.263475692691184871e-03,1.570935585239662813e-01,-2.411376719422555614e-03,-1.234839000543085444e-02,-1.424219279827948579e-03,1.835272610187530518e-01
2.220483297901771347e-01,-3.202999596822075912e-03,2.220881887162102220e-01,8.089376446204108936e-04,-7.472555663537072592e-04,-4.663362829498276596e-04,2.252807915210723877e-01
3.756343414044874263e-01,6.705789828374764117e-02,3.432872567827562893e-01,-4.494253214146959330e-02,1.446864513396426029e-02,-1.723049869519512750e-02,3.063696920871734619e-01
1.330667269750804016e-01,1.146110695648301647e-02,2.348360727043998786e-01,-4.934195477905562940e-03,-1.150975250077508009e-03,-3.194020303100594100e-04,1.939019560813903809e-01
2.277364390028583929e-01,-2.187033677740479742e-03,2.245673295198646890e-01,-7.607419558650301396e-04,1.538436427109541541e-03,-5.019581518510247498e-04,2.283764183521270752e-01
2.061789945725500117e-01,-7.467476708756193293e-03,2.247206839312647086e-01,-5.944725744761318251e-03,-3.001938065734560158e-03,-2.852512628368355802e-03,2.238469123840332031e-01
2.328663373493001509e-01,1.548072526407132110e-02,2.364819659148643394e-01,-1.040693200218541919e-02,1.153891760609329522e-04,-7.670906645963579840e-04,2.199597209692001343e-01
2.266936757336023844e-01,-2.535421186436265240e-03,2.232636375977776755e-01,-1.502927819640253752e-05,-4.570564554060614496e-04,7.073528010767261799e-04,2.275381386280059814e-01
1.672939065501480582e-01,1.230164862566120176e-02,2.165362855708506395e-01,-4.498698539410519483e-03,1.746246457728794013e-02,2.543319662699449618e-03,1.872819662094116211e-01
1.253537853297862492e-01,1.389259921155315547e-02,2.542471183432767901e-01,-6.899912085971748182e-03,-5.606235865978330055e-03,2.133590824976140232e-03,2.089365124702453613e-01
2.247433345530056581e-01,1.163192111421407215e-03,2.285303948639108573e-01,-4.201106435638774644e-03,-1.920021008505069099e-04,3.078183116809319990e-04,2.256157696247100830e-01
2.209580703060627926e-01,-1.767652773235650621e-03,2.204651218365545340e-01,-1.601339222656156984e-03,-1.593026494813330003e-04,8.174347292186861071e-04,2.225016206502914429e-01
2.139171702368118655e-01,4.211100167542594641e-02,2.717217224797540687e-01,-1.702193183807563376e-02,3.807486842886152745e-02,1.054212601976312058e-02,2.198673188686370850e-01
2.303539465727476032e-01,1.748217233542198601e-02,2.369387833120434050e-01,-1.106775252044273419e-03,-1.175123567369964518e-03,-8.350652683322613195e-04,2.162623107433319092e-01
2.048694836875314673e-01,1.495382115648442867e-02,1.814508065485316013e-01,-5.545493020021122210e-04,-8.281527238834704083e-03,-3.180780593923049977e-04,1.799327582120895386e-01
2.373432133745866091e-01,1.327717401156330856e-02,2.318712126695576803e-01,-5.098290159228570546e-04,-1.944172096140343170e-03,-6.505574579122415900e-03,2.216946780681610107e-01
2.490063445360750916e-01,5.287818886920370165e-02,2.522485025149440729e-01,1.851970267394399466e-03,3.201708427947065963e-03,2.393989164842101353e-03,1.979163438081741333e-01
2.256580342945948003e-01,9.166899449220916596e-03,2.276506547829841576e-01,-4.052093467189518509e-03,3.905111872652440932e-03,-4.206849604614840317e-03,2.178345024585723877e-01
2.305972692067819740e-01,1.282251937731154756e-03,2.261944086636717421e-01,-7.844826828540499720e-04,-9.093533336674639785e-06,-5.413145124787953691e-03,2.273430675268173218e-01
2.175421641905316283e-01,-1.011094314407129380e-03,2.201681688546116011e-01,8.496612319650119049e-04,6.431513223311239322e-04,2.790882027084434693e-03,2.199389040470123291e-01
2.211522300899423366e-01,-5.332868837846505006e-03,2.215040844905436512e-01,5.005818486511392140e-04,9.825145364229981217e-04,9.960073455426599488e-04,2.266758382320404053e-01
2.232230349818097315e-01,-2.416925011077541985e-03,2.242721624529014079e-01,7.444679611477437097e-04,1.114132319475906116e-03,3.714369710090092546e-04,2.261791676282882690e-01
2.226965038109973427e-01,-3.094685237058997229e-03,2.238540369785008699e-01,1.014615982279053847e-03,1.034811287761192543e-03,3.966581809465966101e-04,2.263871282339096069e-01
2.220155889037425390e-01,-2.980860537508733810e-03,2.215385520906555383e-01,2.730388766568040641e-03,-1.215805204836177647e-04,1.850128095385506714e-03,2.248309999704360962e-01
2.225732492956753183e-01,7.683979892035841530e-04,2.221900221141643039e-01,3.251389999726458663e-03,2.463171296070756347e-04,1.039847718499532217e-03,2.216927558183670044e-01
2.385348820253576085e-01,1.928493989535068343e-02,2.332206331131990162e-01,2.855000259443924143e-03,5.139592758370706629e-03,3.561579505742727908e-04,2.168817818164825439e-01
2.319432419134864198e-01,1.437856634471534889e-02,2.333340969746935112e-01,-1.772391091859185737e-03,3.334823182655447405e-03,-2.275381338916517178e-03,2.183969914913177490e-01
2.141841301300522749e-01,9.150114893334337918e-03,2.131707588492228189e-01,4.062407047482951249e-03,-2.993902854632915327e-03,4.278748756403986941e-03,2.048500031232833862e-01
2.404855131085190667e-01,1.779157637159850536e-02,2.282566495138572682e-01,-2.164954064194792895e-03,-1.671328926215122964e-03,-2.795687186530951669e-05,2.168900221586227417e-01
2.164918951886336818e-01,6.381316503150824548e-03,2.018702851213924343e-01,-5.720455923127282238e-03,1.898635450991360656e-03,2.799856851717269501e-03,2.035205066204071045e-01
2.248716796281576835e-01,1.621962666817772236e-03,2.210277516976201229e-01,-6.602640262815741290e-03,3.793510034586510243e-03,8.051968195334460038e-03,2.221835106611251831e-01
1.831578145674249147e-01,9.649934324941322750e-03,2.167313286249767657e-01,-1.184959674360457939e-02,1.844485135166187839e-02,6.429807468048946879e-03,1.965282112360000610e-01
2.416427631432672141e-01,4.382840648059807553e-02,2.403649512143780087e-01,-9.450645005078208609e-04,1.066398243778035170e-03,-1.124423380794756016e-03,1.972036212682723999e-01
2.400149383799724534e-01,4.134296046995208918e-02,2.522982821405668208e-01,-3.296290327884283250e-02,3.827936718851406711e-02,5.074004376541418893e-02,2.396685928106307983e-01
2.251129193361882663e-01,6.881910423916198782e-03,2.261069900684908318e-01,-1.658369058594935360e-03,-3.780605603899127136e-03,4.290224779104124565e-03,2.189727127552032471e-01
2.158522057837312658e-01,-3.767504519421732700e-03,2.129262785091469157e-01,7.482980048370713871e-04,-6.495370876556499353e-04,1.940937613137440126e-03,2.182041108608245850e-01
2.207123345676138548e-01,2.639751742679607993e-03,2.215518895802430777e-01,7.441871530726214138e-04,-6.459713350239050609e-04,1.928540708067405236e-04,2.185004949569702148e-01
2.215429775883393515e-01,2.325546201872863428e-03,2.200079140840473513e-01,1.729443689165997269e-03,1.089242682050638221e-03,5.338890637461908995e-04,2.184845805168151855e-01
2.182128919068626605e-01,-3.744372178469707046e-03,2.198700520222322541e-01,6.215641063877731711e-04,-1.209582426820997336e-05,1.499692956549427726e-03,2.228082120418548584e-01
2.268903530870134966e-01,1.517093175464390153e-03,2.286659070279089545e-01,3.324661734700805425e-03,3.135036988556085848e-03,3.246306301159899987e-03,2.264744639396667480e-01
2.204171167639672468e-01,-4.929720718656549483e-03,2.198990276590051529e-01,5.288376607283978761e-04,5.027678111359236391e-05,1.445910304139984585e-03,2.251040488481521606e-01
2.299674194233027880e-01,2.352595630406684180e-03,2.286000754375822619e-01,3.634220455060658932e-03,3.596327230473250584e-03,2.137986078890291575e-03,2.271371483802795410e-01
2.104063348961842383e-01,1.082366332578965640e-03,2.118966824670061311e-01,3.247097048974095183e-03,-1.430427403794828694e-03,2.920369355721655607e-03,2.102238386869430542e-01
2.316712641837989084e-01,5.592839840626473435e-03,2.328077136004443604e-01,1.566346743958849964e-03,-1.547551106155283006e-03,-3.830250234318495917e-03,2.267779260873794556e-01
1.700101649676091509e-01,-5.915948032125087352e-02,8.493049012542991383e-02,1.502858214255984280e-02,7.943927896636159003e-02,-1.762032056480638403e-02,2.465773671865463257e-01
2.175665132556573178e-01,3.543369755276140620e-02,2.393945690057075470e-01,2.033031143751381359e-02,4.298639147239080582e-02,-1.234290857222793483e-02,2.118134349584579468e-01
1.972599231797418362e-01,-4.162239472899612047e-02,9.807211458471067067e-02,-1.815269804635025533e-02,9.709287386476747606e-02,2.480347305174251948e-02,2.726243734359741211e-01
2.363931127979901070e-01,1.788930037025618369e-02,2.168595882310918599e-01,7.429966752254480583e-03,5.123119395294723800e-03,-9.801113345664583948e-03,2.106890231370925903e-01
3.957356548471865909e-01,1.354948198708414431e-01,3.234261038308682834e-01,2.537712914524557078e-02,3.352908417958789383e-02,-4.804769267805979877e-02,2.576167881488800049e-01
2.185368983629073503e-01,3.433295025438987125e-04,1.891275080367105788e-01,7.561192611186912278e-03,-8.052264115028505984e-04,-1.034284848421237156e-02,2.062784284353256226e-01
2.300105396766900512e-01,2.140273255535063424e-04,2.261672554814772029e-01,3.337855751065461700e-04,9.442559220117003509e-04,7.197977318611158658e-04,2.279091924428939819e-01
2.216706233495799871e-01,1.994583193745680383e-05,2.243995732051476955e-01,6.177630316293830463e-04,8.757215667367747921e-04,3.249299996414475433e-03,2.231063991785049438e-01
2.270513604646157702e-01,-1.356721021349205358e-03,2.244954196415253067e-01,1.452468516212225959e-04,7.034370632063250556e-04,9.163545029057909878e-04,2.271498441696166992e-01
2.259511592406265867e-01,-2.123774159418306828e-03,2.245155534007237108e-01,1.770171058730033603e-04,1.257868219053478358e-03,9.216555339308736463e-04,2.273767739534378052e-01
2.168809002246527839e-01,6.440617616791072253e-03,2.160932946166693736e-01,5.767610361210880922e-03,3.872927980079174035e-03,-6.924323153514802889e-03,2.107335329055786133e-01
2.239072702768508671e-01,-2.723426136291035027e-03,2.242544110663149404e-01,1.815145567468524641e-03,-2.704116680433962870e-04,2.273986855527406706e-03,2.268609255552291870e-01
2.284162133383296767e-01,2.764943107490924756e-03,2.260166546507572094e-01,4.233030247161689808e-04,3.362521692176480021e-03,9.747602044161491263e-04,2.245441973209381104e-01
2.369503850893869834e-01,8.644753641698588176e-03,2.040013671536535234e-01,-2.087416853564492720e-04,2.061626162702488509e-05,-8.859867587752729302e-04,2.137501835823059082e-01
2.538122012343715928e-01,3.320568677319185591e-02,2.736490433457451910e-01,-1.501165288494995739e-02,-5.309405718817881287e-02,-5.246988530352071634e-02,2.661374211311340332e-01
1.689067179802588303e-01,-7.925234261166655414e-02,1.008965985921023989e-01,-1.916536019235924246e-02,-5.777185048217973323e-02,-4.188979969924672836e-02,2.563394904136657715e-01
2.145607918570971995e-01,-8.200057311877867461e-03,1.431599381859152698e-01,-2.658871600660506077e-04,-3.035348966832237313e-03,3.824470456985971153e-03,1.971976011991500854e-01
2.231437885093618956e-01,-8.175124604379468973e-03,1.765777869315059978e-01,4.071583309389844620e-03,-1.229129964313024860e-03,1.079088560413161632e-02,2.128587067127227783e-01
2.319778878659472243e-01,1.810810905716431218e-02,2.613705713266668562e-01,-9.971808188967508715e-03,3.614063768587781351e-03,-4.052611824964657584e-03,2.308185100555419922e-01
1.861861746450799160e-01,-4.545900339566630310e-02,8.273143566877612376e-02,-1.682643120749739707e-02,6.286839580053513177e-02,2.675151710483826203e-02,2.350557446479797363e-01
2.259662074605926219e-01,-4.444103041587806058e-02,5.728714265697015806e-02,-3.811580574035562316e-03,2.817613075837074876e-02,2.316160329259015632e-02,2.449394017457962036e-01
2.380545908784404696e-01,1.262323673063425744e-02,1.670724331293634013e-01,-3.854582654383487562e-03,-2.730171562883987237e-03,-1.033985487916742538e-02,2.006086558103561401e-01
2.312024027811521720e-01,-2.734618576888121766e-02,3.878693880837977281e-02,1.295966121682577601e-04,2.786792825546798025e-02,-4.476372944521805550e-03,2.377232909202575684e-01
2.212953580515774621e-01,-2.596911200681956133e-02,2.314029524209376687e-01,2.462088064343295399e-02,6.520003135527052164e-03,-9.721238412936964238e-03,2.568476796150207520e-01
2.023599365881263989e-01,2.972335503028006309e-02,2.200804326718789339e-01,-4.274083726433472105e-03,-1.474048138699285415e-02,-3.977525040448444925e-03,1.842029392719268799e-01
2.383543164387803004e-01,1.970886805233904027e-02,1.919662401956548636e-01,4.958349418058749427e-04,-1.826717931855012696e-03,9.598340756879481309e-03,2.002555280923843384e-01
2.331262047884060662e-01,1.923487462559587968e-02,1.748883368429923479e-01,7.208908874422870466e-04,-2.640306272904071553e-03,3.100333639801227878e-03,1.916660815477371216e-01
1.858706714822997430e-01,-3.802929115523361048e-02,8.788218930536713380e-02,-2.019507361626823178e-02,-8.100425832479594968e-02,-1.864031331246628065e-02,2.444264590740203857e-01
2.603395026423789282e-01,3.229824542533765719e-02,2.045977202269558259e-01,-8.442922640663947514e-03,-9.671750872476585215e-02,-1.348358653781155797e-02,2.668719589710235596e-01
8.526960451037675359e-02,-7.388158780257797487e-02,1.149027357022658208e-01,-1.175311679608768804e-02,-9.380320718636196708e-02,-1.617166194254180192e-02,2.419079840183258057e-01
2.485644436569653393e-01,2.462440485040173765e-02,2.256659498821260157e-01,-9.414953285257470633e-03,-1.192510542361913464e-02,-1.467563831479310431e-02,2.165277451276779175e-01
2.174166351379026585e-01,1.761873804052843662e-02,1.791399169969945526e-01,1.167327259672285966e-03,-5.901998000557081604e-03,1.039955432770622683e-03,1.839797049760818481e-01
2.285771740288733977e-01,1.158867496959925525e-03,1.506978579751253600e-01,-5.181425026351492089e-03,-2.231052767282604935e-03,-9.193896788871695411e-03,2.010526061058044434e-01
2.573310650477016459e-01,-5.002373416528801964e-03,7.703413068394729390e-02,1.219828571995363242e-03,-3.266377379117470919e-03,2.777201519808696496e-03,2.325672209262847900e-01
2.922370109990976017e-01,2.315569767063430096e-02,1.410796472092953058e-01,-2.439292744669767019e-02,5.753204607210702509e-02,2.475496426822440185e-02,2.610228955745697021e-01
2.466173187475746986e-01,-1.288668543350907081e-02,1.190539122780030490e-01,1.088581712289229779e-02,-2.240233916915215784e-02,2.779127082456665787e-02,2.338582873344421387e-01
2.073653633256608841e-01,-2.425644620627681602e-02,1.282889548489092868e-01,-6.395248180102546670e-03,2.123223889786641713e-02,1.873639024625243371e-02,2.100338041782379150e-01
2.740263943225513810e-01,7.716227591180965795e-02,2.789631835055380593e-01,4.345684660812563355e-03,-6.442052507424060430e-03,-5.118716995223244678e-03,2.000287175178527832e-01
2.086937831113997444e-01,-2.437319902881890377e-02,9.315878397716731429e-02,3.549164954654306613e-04,1.043322317776333545e-02,1.327734114218710737e-02,2.039533257484436035e-01
2.873106307862990372e-01,3.654584575604294394e-02,2.178200375942389300e-01,-1.308665337686956177e-03,6.019656957888101095e-02,4.302903706383063437e-02,2.582956552505493164e-01
3.271570479581892843e-01,1.271785207180521626e-01,4.745949874354377096e-01,-4.388980638653705579e-02,5.010647750960355550e-03,-1.459163557202405176e-02,3.125808537006378174e-01
1.983361169197825347e-01,-1.883506167831411338e-02,9.304209135671144548e-02,1.840241902464585799e-02,-5.346724546038483794e-02,2.473934153589738699e-02,2.163599282503128052e-01
2.287970483389765164e-01,4.861705880548072845e-03,2.201837780644723130e-01,7.022905415646784645e-03,-1.003256625831253079e-02,1.223785779611545090e-02,2.217918485403060913e-01
2.435863280954982391e-01,1.811606379935989941e-02,2.434485377149864793e-01,1.223422189152819544e-03,1.544232305964939782e-03,5.023391439537160455e-03,2.255950719118118286e-01
1.982769683043679454e-01,1.035873281103480426e-02,2.201596161926744899e-01,4.165174697804448559e-03,1.840148137289637775e-03,-8.546422573965406153e-03,2.004634439945220947e-01
1.873693714160131751e-01,4.703104086958426189e-03,2.054384114847722376e-01,1.357961326167721064e-03,8.517356371047151570e-03,-6.062600961330885142e-03,1.932032406330108643e-01
1.486882178615243633e-01,3.555986643465999797e-03,2.301020845158623096e-01,8.797298024358158122e-03,2.910165226998077167e-03,-2.223757253074395025e-03,1.994486898183822632e-01
2.123777941958065463e-01,-1.686099360160286942e-04,2.146056354899207874e-01,2.055298363678947308e-03,3.407510189247124144e-04,-2.305081957594362369e-03,2.137368023395538330e-01
2.062475157734070252e-01,1.410777629574594405e-02,2.182545207120852593e-01,6.166623961671892709e-03,3.024722331519120403e-03,-8.614976606612740825e-03,1.993315070867538452e-01
2.190573873040100317e-01,1.091463427900322969e-02,1.740284152048847399e-01,4.684468368995968988e-03,9.918892421247573615e-03,-6.017718638542383057e-03,1.909140795469284058e-01
8.732857697287621512e-02,-6.342718650192424867e-03,2.559088521025945639e-01,-1.481760796922530071e-02,3.334730335458908207e-02,1.099365126741741992e-02,2.394621968269348145e-01
2.024741961114819300e-01,1.916295685593366604e-02,2.007346436250841415e-01,-1.412615165564337508e-03,5.103032119783045863e-03,-1.124092090107352932e-03,1.826884150505065918e-01
2.207037334699582520e-01,1.599888958722213428e-02,1.760443875633286859e-01,3.365589865177434463e-03,1.060410862814178783e-02,-3.942272375689335681e-03,1.875486373901367188e-01
1.551957127733469832e-01,-1.080753418520648268e-02,1.978501205314390776e-01,-1.581476558386813586e-02,2.763866996068691656e-02,1.245735011516522529e-02,1.999120116233825684e-01
2.240457233073090137e-01,-2.283076636935665871e-03,2.237122735052521350e-01,5.047124332302381847e-04,-2.578737866491642109e-03,-6.168119599185528353e-04,2.262105792760848999e-01
2.573466144799115285e-01,2.151803399159468722e-02,2.363516758689840902e-01,3.645287177406083406e-02,-6.317780430579017503e-02,1.518820496653548388e-02,2.603026926517486572e-01
2.379440429427185366e-01,1.680332774212078828e-02,2.289871452361164628e-01,5.536919758202929866e-04,1.629197261313439400e-03,3.118365047785128939e-04,2.168222367763519287e-01
1.958696734298913944e-01,-2.454514672065102876e-02,1.290264283021976544e-01,5.128292130913784594e-03,-7.474158237659735138e-02,1.821303777359153941e-02,2.369608134031295776e-01
2.346742408649968303e-01,1.672545039156492219e-02,2.437777859761719457e-01,6.231448670265533722e-03,9.975692072179572194e-04,2.694454184974208032e-03,2.229572087526321411e-01
1.922833961607398612e-01,-1.289462450072276223e-02,1.871914910083989914e-01,1.719093003684081869e-02,-4.232450076413907247e-02,2.728605903527406285e-02,2.226509898900985718e-01
2.250705075402804622e-01,4.658025852741304318e-03,2.273005857532572893e-01,8.047431461481270587e-03,-7.760719935869079406e-03,8.151162358216983844e-03,2.228283286094665527e-01
2.233736296006203492e-01,1.622696578507143439e-02,2.264534836848049459e-01,4.300148236470584598e-03,-9.719365650800856557e-03,3.256912487691289524e-03,2.095898389816284180e-01
2.264845251336769505e-01,1.627469889423427407e-02,2.583357717413234944e-01,2.166328232625766223e-02,-1.134552090012678344e-02,2.832362303973098155e-03,2.317676395177841187e-01
2.205410817818957703e-01,-2.815381997011062731e-03,2.234015367210270275e-01,2.563740886931356166e-03,-1.254343636661366199e-03,-3.051441311393084284e-03,2.249168008565902710e-01
2.231327079534759228e-01,4.458207564420973990e-03,2.078387273562004589e-01,-4.604306886844368625e-03,-1.756986300209364190e-03,-1.039155176982352324e-03,2.116226404905319214e-01
2.208749571755168617e-01,-4.450242785555835745e-04,2.092968900031684232e-01,-7.268281892190484386e-03,-1.008998419471357315e-02,-6.878305632040484542e-03,2.171634584665298462e-01
2.455628054452425602e-01,3.207385173651525201e-02,2.681052892266604371e-01,5.641025102815608490e-03,-3.515546020196079220e-03,-3.967076890234436451e-03,2.260044664144515991e-01
2.685596837230328493e-01,1.957758129839759498e-02,2.047059177142375730e-01,-3.570239159228007914e-02,-6.799564446465074241e-02,-3.271370410836067083e-02,2.666002810001373291e-01
2.368399292545508295e-01,1.108633221327048890e-02,2.391828545638687853e-01,2.421840051854545154e-03,-2.336305066685699389e-03,-1.106353171950029239e-02,2.278163135051727295e-01
2.340563746835135350e-01,4.023721691440218517e-03,2.154247916835487497e-01,-1.658398652500121155e-03,-1.186001337990336569e-03,-6.340460434046211319e-03,2.216063141822814941e-01
2.353774552362767614e-01,-2.725555701673376685e-04,1.552544625401560408e-01,-8.766255798417884465e-03,-4.920732858269203508e-02,-1.963378151127050802e-02,2.274218946695327759e-01
2.172838245696758208e-01,1.143482329320788526e-02,2.041513976125467478e-01,-1.793185697650464053e-02,-2.841899869009830576e-02,-2.439087381454737788e-02,2.121680825948715210e-01
2.176749564439699469e-01,-7.983357650219111146e-03,1.287943700015194703e-01,-2.488535519430807447e-02,-4.845265317875443317e-02,-3.731546252635958155e-02,2.276904582977294922e-01
2.121407564470337015e-01,1.356932316570048924e-02,1.817713793866782834e-01,-7.256005654923031872e-03,2.504932932372373050e-02,9.064570997524536156e-03,1.913355141878128052e-01
1.728629547970997882e-01,-3.173927063444907659e-02,1.377778236218328844e-01,1.821085680836856402e-02,7.075013066931820638e-02,-2.464397457277889975e-02,2.318365126848220825e-01
2.215232087099573421e-01,1.952819462587879196e-02,1.910212588685637758e-01,-6.216395643664753001e-03,4.305976405243166702e-03,3.436228701333340733e-03,1.891509741544723511e-01
1.895836438216910169e-01,1.013299155207804392e-02,2.029394086787379425e-01,-8.638385953694560930e-05,1.554589141294884531e-03,1.732475757910809881e-03,1.865312010049819946e-01
2.484978122722607818e-01,-1.467008807595653053e-02,9.358488107511958587e-02,-6.755821552298510273e-03,7.032237433664605131e-02,-2.135223389867592532e-03,2.597567439079284668e-01
1.931257315261687979e-01,-3.256237397768625697e-02,7.338155675979132764e-02,-1.110017115497860876e-03,7.518237578285068279e-02,2.340420083532873934e-03,2.350026667118072510e-01
2.467483286419136224e-01,6.064280495344082089e-02,2.430710205930721735e-01,-4.186842132086639884e-03,1.045286970275950819e-03,-3.285819850190359239e-03,1.845336705446243286e-01
1.764259461590974853e-01,-2.000132219838120229e-02,1.484972952235573962e-01,1.974797079923808207e-02,6.184266974954560209e-02,-3.026354592105641450e-02,2.219659239053726196e-01
8.464020972513144891e-02,-6.853258771685298567e-02,1.194454714568134873e-01,4.666219551709208904e-04,1.140689648495321895e-01,-1.122175413231668280e-03,2.627625465393066406e-01
2.272338506675105896e-01,1.399228347379821713e-03,2.300794726677806989e-01,-5.260607684290850806e-04,3.292539742140977287e-03,-9.316400682644032085e-04,2.273498922586441040e-01
2.228735773042407331e-01,-3.404158585025851558e-03,2.260779604500856854e-01,-1.654777245462166289e-03,9.066273594348058310e-04,-1.177028591578217938e-03,2.279293686151504517e-01
2.145391412733731185e-01,-1.934698839081502864e-02,1.638928436549792478e-01,-1.033106361061428421e-04,1.490245204790005985e-03,-1.304866392930876043e-02,2.143357247114181519e-01
2.300845460084067484e-01,-1.838429174721989412e-04,2.118648182559718929e-01,-1.227773780958045860e-02,-1.464036501035974672e-02,-1.272759898306710311e-02,2.252582609653472900e-01
2.234571261339788895e-01,-1.491632393964908987e-03,2.289772407587657710e-01,1.043280372208683362e-04,6.154391548343736895e-04,-4.341736273908760186e-05,2.277615666389465332e-01
2.261298387983246838e-01,-2.441009146747247227e-03,2.249840587639233558e-01,-1.255670737110646572e-03,3.256947174988672613e-05,2.759603674493244473e-03,2.280605882406234741e-01
2.277015796603716336e-01,1.125979042203101299e-03,2.306826701708754590e-01,5.221364960554487553e-05,-4.000364999616519836e-04,1.501926347589160849e-04,2.280819714069366455e-01
2.272195650488510466e-01,1.994397100224892805e-03,2.328656937726954201e-01,-1.058730981835810376e-04,-1.695497799726384635e-04,-7.844903843689787759e-05,2.281009554862976074e-01
2.256459596132585621e-01,-1.629573582324073122e-04,2.296118938352978145e-01,-8.708445244404545635e-04,-1.052286122038035426e-03,2.853262935023103178e-04,2.278305888175964355e-01
2.316402487073633276e-01,8.510931511603037070e-04,1.824295477397693543e-01,-2.573178048277278626e-04,-2.234613906620510314e-03,7.085097762874861642e-03,2.109355479478836060e-01
2.336266442637989771e-01,5.780747406825798018e-03,2.263655484288172870e-01,2.315008936379103939e-03,-6.466393048553108766e-04,1.114587756254022295e-03,2.243504524230957031e-01
2.244056083850345662e-01,-9.032259101057205086e-04,2.290194186904975504e-01,-5.561560872299317528e-04,-5.896992347556367572e-04,1.617604340397830879e-04,2.276553064584732056e-01
2.362165168205693222e-01,2.923588989832073826e-02,2.342862577642170208e-01,1.508552279780341933e-03,2.925008652836137788e-03,-1.727766703519359676e-03,2.061228454113006592e-01
2.260109915262351332e-01,8.995790567488559653e-03,2.319413918888603154e-01,-7.169603235048574712e-05,-1.452211563016711287e-03,-6.011694117385496441e-04,2.200572192668914795e-01
2.537904159737350840e-01,3.614527755319371649e-02,2.442159084903571531e-01,1.458120518432842044e-02,-2.215027773602108035e-02,2.261100653208917427e-02,2.214062809944152832e-01
2.440554118574828901e-01,2.933128661647935176e-02,2.572973034058116948e-01,1.497596270734861609e-02,-1.551504317445387762e-02,9.574560678053817275e-03,2.253778129816055298e-01
2.453501786451364741e-01,2.576076551422629146e-02,2.418024620482341347e-01,1.828068337271585844e-04,6.891907395079338453e-04,2.044170331447528379e-03,2.178694903850555420e-01
2.329948511400342648e-01,7.523524613325643928e-03,2.326997770552400313e-01,3.276028589025995678e-05,5.076888401221345964e-03,1.500979217172347972e-03,2.255104482173919678e-01
2.320573298402624496e-01,3.849000907899940982e-03,2.267560862961529033e-01,-2.563914210271632608e-03,2.122311185552483090e-03,-6.835906995648642409e-04,2.256811708211898804e-01
2.041603081652415552e-01,4.561248060267586446e-03,2.312966486708693536e-01,-2.361905242238473718e-03,1.025490729920720216e-03,4.990174479806654042e-04,2.145068496465682983e-01
1.111983834272125826e-01,-2.254944569113374875e-02,2.155625591226944249e-01,-3.770292554197381824e-02,5.476720586012558123e-02,6.045720427242289377e-03,2.368783801794052124e-01
2.064354799765322768e-01,2.745722780505804872e-03,2.076674268660463618e-01,-3.192856385116279571e-03,-3.941004656223375674e-03,-4.474700314288320921e-03,2.046441137790679932e-01
1.833718321288733133e-01,-2.189262317960341542e-02,1.592736187885610555e-01,-3.276865547165327269e-02,-6.725188599215786711e-02,-1.864369870134270635e-02,2.357971072196960449e-01
2.270745661782256897e-01,-2.029580769499994553e-03,2.191151725894684155e-01,-3.226812866211247605e-03,1.508925710368027575e-03,-9.350366863061212921e-04,2.253202646970748901e-01
2.045095747834169142e-01,-1.180372365181744931e-02,2.083229856319767925e-01,-4.114691312725232177e-03,-2.791363064530160559e-03,-5.372500178183016624e-03,2.186129838228225708e-01
2.442422564744014812e-01,1.798141429855698581e-02,2.261895630795701939e-01,-9.157230735499554200e-03,-4.522354962021996917e-03,-1.335608534978567630e-02,2.197346687316894531e-01
2.242918030086111791e-01,-1.388897864512711466e-03,2.274003124594244363e-01,-2.951105080880472332e-03,1.085184943875931078e-03,-2.237747620764140612e-03,2.273491919040679932e-01
2.604082802844034372e-01,4.368427252518972126e-02,2.522510608590863845e-01,5.874597571574218142e-03,-8.261449663587367917e-03,-9.285708890907871937e-03,2.140909433364868164e-01
2.111712416814179871e-01,4.344278877610135980e-02,3.091434264051105552e-01,3.457882786521803559e-02,4.963657904208240712e-02,-2.717731038658369180e-02,2.595349252223968506e-01
2.189290610094467571e-01,4.038010139430614487e-03,1.711270557279034321e-01,2.299488268755466719e-02,3.419172736748981450e-02,-2.446651121432869003e-02,2.123212665319442749e-01
1.716340197751637375e-01,2.383169801333934190e-02,2.559196593583312196e-01,1.775709299930885651e-02,9.001950854541797276e-02,-1.386955130579085350e-02,2.593082785606384277e-01
2.309275914444982591e-01,-7.082291455561856575e-03,1.725148052140166866e-01,7.568157949176614746e-03,6.659504313897543493e-03,-1.948689529649989469e-02,2.181788980960845947e-01
2.455941599001408293e-01,6.137342520984578886e-02,2.459365362920434839e-01,-4.447530970724140713e-03,3.766505419733596040e-04,-3.787590732569603904e-03,1.846707165241241455e-01
1.953244872429876766e-01,4.203188092666786113e-02,2.391670554519507996e-01,1.854880436084099706e-04,2.094120988073364803e-02,8.560112873884767864e-04,1.829192191362380981e-01
2.254828038160140158e-01,-1.088288443761797897e-03,2.255232935840403852e-01,2.420219886406974226e-03,-1.933566214528109097e-03,-1.444086337287358440e-03,2.266686558723449707e-01
2.373688543949582230e-01,2.434695621664137444e-02,2.417873165532573032e-01,1.589640177056993176e-02,2.951752969203003812e-02,-1.996883526381398877e-02,2.256264239549636841e-01
1.976000660215361526e-01,-1.510311089575333554e-05,2.118840143446575341e-01,3.940344963593986859e-03,3.304730083710938435e-03,-6.444790872703450892e-03,2.056269943714141846e-01
2.118169948387979284e-01,1.051723399867943165e-02,2.406472745303198935e-01,2.777410892551401833e-02,2.890157165742011230e-03,-5.738005739148283393e-03,2.226978689432144165e-01
1.449865255460412172e-01,3.946167436919782723e-02,3.010362555134729057e-01,2.173965497831820137e-02,1.291160770136451320e-03,1.348592184997483932e-03,2.310463786125183105e-01
1.900124255563486464e-01,-5.097250632377925417e-03,2.143686966879208011e-01,4.288956400554437727e-03,2.073655075823252827e-03,-6.600668709089120394e-03,2.088347375392913818e-01
2.243410224931089991e-01,6.171462380871933773e-03,2.291700041491971651e-01,3.695687686142536035e-03,-2.229398617187604032e-03,-4.483554394604132194e-03,2.208868563175201416e-01
2.333372192935166400e-01,4.852104404547082084e-02,2.351087104181232568e-01,9.900620659394408600e-04,4.006436429875762095e-03,9.935479089488335244e-04,1.858537495136260986e-01
2.125217092455732593e-01,1.453102075095885626e-02,2.105545066442800484e-01,-5.670784676198301674e-04,1.583353864063007143e-03,1.207803776358148907e-03,1.970470994710922241e-01
1.917450191575184038e-01,1.518669532525671051e-02,2.044404670727740791e-01,-1.507841630852300085e-03,1.734398781673362686e-02,1.590954534618400223e-03,1.857211887836456299e-01
2.103729332341756630e-01,1.940709421040076599e-03,2.086147833114411765e-01,-1.349067958888977949e-04,-1.022399645586831180e-03,8.982628904236764555e-04,2.075722515583038330e-01
1.999675093461294462e-01,7.033472713061789117e-03,2.041361550030885430e-01,-2.919871187970098786e-03,1.344535186066814735e-03,1.234393782966701535e-03,1.951429396867752075e-01
2.167095910806791093e-01,-7.048362952499637180e-03,2.149402691497420415e-01,-1.079230312502113022e-02,1.652504447533844137e-02,1.773732102906921612e-02,2.275683283805847168e-01
2.199663137298477067e-01,-6.657459181228786438e-03,2.058883340379827342e-01,4.467349201989527334e-03,7.817753900950281812e-04,-4.398110486261789728e-03,2.201950401067733765e-01
2.194806413964206782e-01,-2.987871007897630049e-03,2.103182943046508768e-01,4.944843223828289218e-03,7.690634810283890560e-04,-3.554392211076609284e-03,2.182908207178115845e-01
2.173268529241168534e-01,1.227120064847278536e-02,2.001642492119555250e-01,5.352572683796876646e-03,5.919802487493029501e-03,-1.039923288977856290e-03,1.975282579660415649e-01
2.225155118239637575e-01,-5.536444516336919142e-03,2.060414204142843042e-01,4.139097882719067548e-03,1.242363259513244679e-03,-4.206332382322782067e-03,2.205249369144439697e-01
2.277006773134595541e-01,5.952000928153344805e-03,2.316014606098830697e-01,2.715742188858811124e-03,-3.030639288218946441e-03,-4.174470487395316384e-03,2.239523231983184814e-01
2.272485027191866735e-01,7.657470915700681502e-05,2.298875738776179900e-01,1.132912625734371244e-03,-3.121102675967618416e-03,-8.843979064712020107e-04,2.285803854465484619e-01
1.839713337190624076e-01,3.257951929198468766e-02,2.577892966179374246e-01,1.447542452526263262e-02,-9.810579698657906356e-02,1.246852932305637061e-02,2.636536657810211182e-01
2.406292173696865100e-01,1.510757961519085257e-02,2.321274557404501282e-01,1.168452986796845311e-02,-2.345646735565208238e-02,2.173181828205710334e-02,2.291112691164016724e-01
2.204067150214213400e-01,1.467153366356635513e-02,2.163442240696889507e-01,5.204380499997773857e-03,-4.990647708983434426e-03,4.734564320985948024e-03,2.042814195156097412e-01
2.083656957395256804e-01,3.635822155518413090e-02,1.875305731185971658e-01,6.591498124546452467e-03,-6.176729624931405482e-02,5.888568931042549755e-03,1.952353566884994507e-01
2.325474877454902223e-01,1.225191858067203876e-02,1.994658895219145467e-01,9.494349317742342004e-03,-1.257472925325929178e-02,1.003046354968527287e-02,2.082868963479995728e-01
2.225849726427384656e-01,6.418923484557553794e-03,1.963401880361211604e-01,6.297498815543281676e-03,-6.182887566055548546e-03,7.337207834833179253e-03,2.052765935659408569e-01
2.241114699243072217e-01,1.371206415097941944e-03,2.047721765299924668e-01,5.801191699223776782e-03,-4.764225473025926125e-03,7.402710073628775882e-04,2.141268104314804077e-01
2.001790845376956729e-01,7.442389570242916030e-03,1.833258059517670624e-01,-1.879255435419518614e-03,-7.279713673592667911e-03,-1.518138943746983813e-03,1.853637248277664185e-01
2.116823086570584489e-01,2.671949885766808364e-02,2.241219249541930580e-01,-5.534568676038946304e-03,-9.609790404029474806e-03,-4.695670197488429135e-03,1.926186382770538330e-01
2.056691538679595310e-01,5.375409806466668883e-03,2.125766728912887593e-01,-1.270650030041187498e-02,-2.171232852375684988e-02,-9.077168624776079872e-03,2.090326696634292603e-01
1.664047914199199285e-01,9.832376671873255258e-03,2.228107735883914919e-01,-6.689799673097858446e-03,3.569618175193006900e-03,5.380359329953946466e-03,1.918006986379623413e-01
2.064389025471316530e-01,7.668361354270653019e-03,2.048053010907605609e-01,-3.138205048558566270e-03,-3.889465771720893288e-03,-2.400419889197694633e-03,1.981915682554244995e-01
2.135866671666817596e-01,-1.519391107215661840e-03,1.928362042046266600e-01,-6.827442593798504697e-03,-2.668440290069544561e-03,-5.620589363805171372e-03,2.061398178339004517e-01
2.219772218439777789e-01,9.647326102225461941e-03,1.837279905530200819e-01,-6.021123734107913100e-03,-3.834987997665384105e-03,-1.220493654009312647e-03,1.964252591133117676e-01
1.532743432886722601e-01,1.871529106317317004e-02,2.293006976476165693e-01,2.295251156800531215e-03,4.414967964795529602e-03,-1.912056362211999412e-03,1.849362850189208984e-01
1.420870378912321152e-01,-5.836180219079084575e-03,2.023967066153282146e-01,1.624908010865565441e-04,2.369050992944969625e-02,3.308811980839365067e-04,1.900627911090850830e-01
1.925102766865516291e-01,2.259288397485147148e-02,2.226664805751923382e-01,2.932910462951205527e-03,3.882459595404929350e-03,-5.167339013389867300e-03,1.872338354587554932e-01
1.487599022657782877e-01,9.844166116319899573e-03,2.170336151897501176e-01,-4.220218071863792234e-03,2.665424343482654390e-02,6.469319279988623717e-03,1.890859752893447876e-01
1.165299324851188645e-01,5.340066812874050273e-04,2.092936021041097994e-01,3.251635783331580272e-03,8.100964419294892638e-02,-3.429004073293588032e-03,2.292924821376800537e-01
2.106169661293436635e-01,8.672963144766815402e-03,2.293164575425193641e-01,2.143098958597972666e-03,1.454498375260938458e-03,-2.769982834608594735e-03,2.120151966810226440e-01
1.849462002373959135e-01,1.857603729166341922e-02,2.165055652482391901e-01,-5.390434431401479581e-04,2.345180913543024395e-02,-9.713967500492454719e-05,1.886171400547027588e-01
4.187044000977963726e-02,-2.995915819587990914e-02,2.342401901007242770e-01,-1.388296698003315191e-02,1.081583521522157081e-02,1.771799036030086366e-03,2.385833859443664551e-01
2.152514367067439038e-01,9.690599459550197636e-03,2.206592653554991790e-01,1.405634892246088001e-03,-2.103929100749703544e-04,-5.421528274236247537e-03,2.085434645414352417e-01
2.042520030533338249e-01,-7.395584828851491099e-02,8.498668446085468064e-03,2.082224088514954274e-02,7.568570949785381752e-02,1.253079700538082229e-02,2.832235991954803467e-01
1.700667263341667790e-01,1.871018706201416082e-02,2.380762533295656957e-01,8.256609982310050833e-03,2.077562271251602935e-02,-7.590709095518691218e-03,1.987461596727371216e-01
1.861308096895445408e-01,-7.683933134812598320e-02,8.641189287847522715e-02,-2.262628954241024948e-02,-3.463714588838679581e-02,-4.603787986173305674e-02,2.537076175212860107e-01
2.675743702449516759e-01,2.818382345857828319e-02,2.509497261404808333e-01,-1.291999717748507949e-02,-2.396750164692620227e-02,-2.160039525332259347e-02,2.392242997884750366e-01
2.236649320254833484e-01,-1.060416994146012870e-02,1.949214307480152952e-01,-1.610811109879705999e-03,-4.783099114055225625e-04,-8.964851319767002183e-03,2.218649685382843018e-01
2.993687734124295119e-01,1.241122164122637761e-02,1.376904170246779080e-01,-1.895718223536559111e-02,-7.586322361893421684e-02,-2.553571578242463253e-02,2.870361208915710449e-01
1.213329598062723447e-01,2.317315677096060123e-03,2.375005952862755954e-01,-1.159561858203784698e-02,2.134093839610210624e-02,1.444030428756719320e-04,2.079787403345108032e-01
2.072889742230633603e-01,-4.846013413108973822e-03,2.176496626975954474e-01,3.218577509219329273e-03,-1.270185666589343032e-03,5.384178339262571909e-03,2.177827954292297363e-01
2.117348982377395272e-01,2.861749900393034673e-03,2.283582446288130452e-01,1.180297049459008533e-02,-1.230703827272902444e-02,1.239974177512242169e-02,2.207036018371582031e-01
1.686800910187931379e-01,-8.920278262922465284e-04,1.896521540172374232e-01,5.663398755493615410e-04,-9.847166414910315385e-03,4.996822953944465243e-04,1.817784905433654785e-01
2.335463724356154902e-01,1.748630566609901682e-02,2.431879136757043591e-01,7.501479999450933606e-03,-5.967280055862622841e-03,8.044411286607232314e-03,2.220987230539321899e-01
1.909584508607719555e-01,9.002453152542527759e-03,2.039799490959448569e-01,1.172690899279655447e-02,3.076234323284788436e-02,-9.691655087217861814e-03,1.979398727416992188e-01
2.777438901404831739e-01,3.933118769863828967e-02,1.705050157595613403e-01,8.609072976818368111e-03,3.653425136365109904e-02,-1.306620402323704216e-02,2.179735302925109863e-01
1.695776224141269661e-01,-1.981889670346098642e-02,1.743572221377512055e-01,1.412723548190957489e-02,3.791146925063135914e-02,-1.053462872395117926e-02,2.050430029630661011e-01
2.174729090765998296e-01,-5.993945308775061598e-03,2.172063280698295906e-01,-1.656604026295644370e-03,4.020018406201474271e-05,-1.162998718202267346e-03,2.233612090349197388e-01
1.685755291316832216e-01,-2.708164163292503535e-03,2.164461367396604552e-01,1.562999125783199120e-02,-4.170774345965926749e-02,1.073007069041556280e-02,2.147697657346725464e-01
1.800179453995641721e-01,9.898558997570250373e-03,2.329989066055128122e-01,1.458223676791680018e-03,-4.109980020193099853e-03,3.430253662303212568e-03,2.021213322877883911e-01
2.335404726618152127e-01,4.521731107772430924e-03,2.246868118773217016e-01,4.185376167968478736e-03,1.429934741701364932e-03,-8.602176592192258995e-04,2.248582243919372559e-01
2.414598505997632150e-01,4.699212651774625771e-02,2.620468359838434291e-01,4.177235730958412524e-02,4.451969278392799850e-02,-1.308016878110067685e-02,2.322479188442230225e-01
1.489726605130168857e-01,9.015438753056242982e-04,2.264471605448040159e-01,-1.111366841007773061e-02,1.759539878319262007e-02,3.163357137023117133e-03,2.018128931522369385e-01
1.546843183767768193e-01,5.906197984627409303e-03,2.333071647381025071e-01,6.607577965850690987e-03,-3.047564658616975196e-03,3.902835114207620689e-03,2.005452066659927368e-01
2.552146768062040216e-01,6.913795527687716103e-02,3.535198238114993785e-01,5.218083523305861587e-02,5.583807945676036444e-02,-2.384083907150033599e-02,2.860211431980133057e-01
1.136543129614214220e-01,-1.000882987117593381e-02,2.250843052191240923e-01,2.317331478962667002e-02,7.352575693105958821e-02,-6.415458592253520283e-03,2.438064664602279663e-01
1.560212408568916742e-01,2.790107227846116977e-02,2.339123809014632682e-01,1.481309935393335803e-03,5.428680693456554990e-02,4.648431792324457523e-03,2.034055292606353760e-01
2.015078824809419245e-01,-2.216044335788708297e-02,1.725617755896381722e-01,-2.693465678534079366e-02,3.449678975946714882e-02,3.593221150052600121e-02,2.324025630950927734e-01
2.251044037189268154e-01,2.983276932427642025e-03,2.207356917055225409e-01,-4.728827203734867202e-03,-3.762671288829503810e-04,3.291801269692234272e-03,2.201965451240539551e-01
2.281696057401730315e-01,2.868721063423018691e-02,2.143154878515242112e-01,-3.400637432799302057e-02,4.208733000797140050e-02,3.271276528407082024e-02,2.218450307846069336e-01
3.129056775899342613e-01,4.006090673245674139e-02,2.113260668343967530e-01,2.193884405984678279e-03,5.950165039351491825e-02,3.682825516460384863e-02,2.678655683994293213e-01
2.296902230388926935e-01,8.003250803468531238e-03,2.326668531807298268e-01,-3.238664545846408043e-03,-4.165287336124900638e-03,3.817961215205801454e-03,2.234750539064407349e-01
2.277038916637023624e-01,1.286197879812653322e-02,2.304352614578355218e-01,-1.741555540660546381e-03,-2.016014762693806115e-03,2.586370796210775425e-03,2.163161635398864746e-01
1.975708355592324938e-01,3.988806349795610828e-02,2.406143354606160301e-01,-1.430217923411629573e-02,4.555003849041385638e-02,9.093641290848428205e-03,2.014695405960083008e-01
2.282581645776011192e-01,3.520257428347745021e-03,2.302198842284697011e-01,-1.768096979469662962e-03,-1.303109058968452512e-03,3.249097613028527082e-03,2.258273512125015259e-01
2.232955011551519819e-01,5.360239299656871514e-02,2.620434189140031789e-01,-1.225901078407478847e-02,4.573012653560742241e-02,1.195630452125759531e-02,2.098233848810195923e-01
9.494612026510021452e-02,-4.793728799021848563e-02,1.388166244909117553e-01,-1.966871291659945745e-02,8.924251963751159145e-02,1.666692175169818407e-02,2.334422320127487183e-01
2.420041889887581399e-01,1.571817586382963372e-02,1.495297875321251746e-01,1.538710093600288318e-03,1.711638609651858862e-03,-4.830626215895391626e-05,1.970967054367065430e-01
2.106487158343891275e-01,8.181609842740605876e-03,2.103587625712494136e-01,5.019746632237085011e-03,3.219850245083880503e-03,-4.506116971388514879e-03,2.027360796928405762e-01
2.201968768467463811e-01,1.257512654702364063e-04,2.033379926898467582e-01,4.803377069800746947e-03,2.867669228209399502e-03,-1.318997753552649671e-03,2.123781442642211914e-01
1.892058927040566607e-01,1.870546313433704699e-02,2.238464415408281671e-01,-1.105608062544228241e-02,1.930593587068925310e-02,9.099259275329918753e-03,1.947045177221298218e-01
2.468185967626370103e-01,2.206264184458639477e-02,2.344236233247625201e-01,-2.525440799612148953e-03,-1.749672137407857521e-03,1.417121900546210493e-04,2.188867479562759399e-01
1.783283782420259089e-01,2.147187475801246026e-02,2.279988526238639346e-01,-5.375861984365633284e-03,2.145805555191352895e-02,2.060827929212557478e-03,1.906385123729705811e-01
2.339906746822927319e-01,8.566085502152251396e-03,1.490486246295855965e-01,3.472339068763464175e-03,9.560035620372193651e-04,-1.055725652570572645e-02,1.981329172849655151e-01
2.383945305063180919e-01,-7.875241950091232956e-03,1.940458856374819019e-01,1.393028174394991825e-02,1.282661944983259569e-02,-3.080447976028635390e-02,2.358311861753463745e-01
2.254509437331608801e-01,2.823814825856960087e-03,1.499929094526473994e-01,7.612975143106178073e-03,1.460634561957153271e-02,-9.671124241235513896e-03,1.988774687051773071e-01
2.512956947739462543e-01,2.461451292061175855e-02,2.207330754998159117e-01,6.171922149916886022e-03,1.187202550390395418e-03,-1.122727890242811513e-02,2.142128050327301025e-01
2.318466784438271699e-01,1.412049581733604287e-02,2.353374595307194672e-01,5.458751289234529958e-04,1.001022915788026723e-04,-2.064713040521314741e-03,2.195236235857009888e-01
2.072485759306268438e-01,1.396859067265568410e-02,2.465408648132653979e-01,-8.784616685947382528e-03,4.377549626134714933e-03,2.328043551237091256e-03,2.163347154855728149e-01
2.466597137676944107e-01,3.581162280962027489e-02,2.411297362097148678e-01,4.101342853400611471e-03,-3.954575448251029931e-04,3.285566888299495990e-04,2.082612961530685425e-01
1.760291145369909382e-01,-9.661531422894581445e-03,2.163054262480919032e-01,-8.111711928198019061e-03,-1.923527385441395126e-03,-4.731317877587981960e-03,2.094225138425827026e-01
2.358963210223222196e-01,1.522591468025069616e-02,2.292494255274892256e-01,-2.893762205953144648e-04,-3.773443306642163832e-04,-1.625816077717845594e-03,2.174429744482040405e-01
2.239653613477797789e-01,1.113357225732816702e-02,2.329334576632359766e-01,-2.617425381045513765e-03,-6.098036669992341809e-04,-3.492571776316490562e-03,2.175884991884231567e-01
1.321828454098742389e-01,3.918724103669973813e-03,2.496003364278896741e-01,2.214349301023228397e-02,-2.746722993008342620e-02,3.123825319569218089e-03,2.215008586645126343e-01
1.764432762807247590e-01,2.212149480829463111e-02,2.179330914330025459e-01,7.716642376715217083e-04,-2.852296487519710017e-02,-1.223593224289086035e-03,1.854355782270431519e-01
2.001175201006510918e-01,5.968489527385517635e-03,1.961465657903607718e-01,-6.055941604655563047e-03,-8.648901416285223812e-03,-6.265863131300660437e-03,1.933671981096267700e-01
2.013059121346116587e-01,3.774697576802397980e-02,2.370802045609514686e-01,-8.261579640108188474e-03,-2.287309684895722298e-02,-9.390924168232207825e-03,1.895294040441513062e-01
2.066635833054882299e-01,2.225137339385874213e-02,1.865914010789213595e-01,-9.377038086691730917e-03,-2.019553962425212068e-02,-9.215503323576760761e-03,1.801425665616989136e-01
2.013633857692278817e-01,1.543126885527544567e-02,2.044137099956185311e-01,4.302757095366061338e-03,-6.978921772122699020e-03,5.130668584887780256e-03,1.882228404283523560e-01
1.988995564467394284e-01,1.368779618922458252e-02,2.089539278805038758e-01,-2.214268683615566637e-03,-2.282636684412436227e-03,-4.200463251080231893e-03,1.906566172838211060e-01
2.254074335888289482e-01,1.521603772053362058e-02,2.242930464449099937e-01,-1.951811267117429648e-03,8.655841766169585514e-04,-1.291865625626066041e-03,2.096809744834899902e-01
2.000461602157043994e-01,1.492260740339011738e-02,2.034478730750232944e-01,1.096883577521147327e-03,-2.164744821817900754e-03,3.729171651690876702e-04,1.868960261344909668e-01
1.945157779851753033e-01,8.450713958063321707e-03,2.111796895290923293e-01,1.505780844999442128e-03,-3.538890414975814826e-03,4.843216580939225559e-03,1.952260434627532959e-01
2.068257400922825506e-01,8.815589086850761369e-03,2.031468876586503269e-01,2.779302593890256405e-03,-1.638477494312536161e-03,8.542435519449851321e-04,1.962817311286926270e-01
1.501956539847604521e-01,3.282936072072462075e-02,2.676911449065186854e-01,2.063671796845029452e-02,-2.749270009090204123e-02,7.257433790823358821e-03,2.123045623302459717e-01
2.229896509620943879e-01,-8.346227522622096107e-03,2.040580215641656370e-01,-1.712670177447666925e-03,1.087816983816949695e-03,5.102269194639458619e-03,2.226781994104385376e-01
2.376726422112993842e-01,2.042166740766582222e-02,1.998213384855495323e-01,-4.577315421559597329e-03,8.054024313571600882e-03,1.443664539770517447e-03,2.016709744930267334e-01
2.081955001300238584e-01,8.184661235503418175e-03,1.674779196790931457e-01,-3.630270601499624526e-03,1.254524681682113625e-02,2.935491052972633800e-03,1.845422387123107910e-01
2.324501753594312436e-01,2.975556998308701018e-02,2.341317542216085901e-01,-4.910806950521494964e-05,2.523138020566149334e-03,1.985420421302404315e-03,2.036165744066238403e-01
2.365561007155412843e-01,2.891547810734992896e-02,2.442136192369335213e-01,-9.728639898786903273e-04,-5.526080897398590389e-03,-5.005573950164888750e-03,2.119738161563873291e-01
2.734699388467682346e-01,3.849122712307756489e-02,2.450809974587298268e-01,-2.509068499114116071e-03,2.721647659117534639e-03,-6.191274708148856477e-03,2.224999666213989258e-01
2.463007751459961592e-01,1.486622084923366893e-02,2.351224423503792127e-01,-7.221279586866506065e-04,-1.844756831863126256e-03,4.651879433598832443e-03,2.262223511934280396e-01
2.468693107676291354e-01,-1.712905054880073386e-02,1.107626854027211477e-01,5.584590030775698349e-03,-2.607755578444997946e-02,3.990083393191294625e-02,2.433066666126251221e-01
2.279251796368372274e-01,-4.162202541495074737e-02,4.985943896993283442e-02,4.262706425811777985e-03,-4.200466797886852051e-05,2.926118252384646290e-02,2.428768128156661987e-01
2.550937451901363340e-01,3.321385116200833987e-02,1.724779344343451981e-01,-9.435641556468884680e-03,4.282675500452780282e-02,2.039644321157081663e-02,2.115249484777450562e-01
2.203377242808856606e-01,-3.358794209193105562e-03,1.536956877856536230e-01,-4.961537647765564517e-03,1.598442167258630128e-02,2.699276067873386184e-03,2.010868340730667114e-01
2.253397796853562618e-01,-4.088758881671045176e-02,2.425629030690448773e-02,5.043974840845641709e-04,-1.464422668954027318e-03,7.988231897075573698e-03,2.407826483249664307e-01
2.200080480517495607e-01,-1.576411077024911234e-02,1.243329217544099086e-01,-1.931662276458642399e-02,-8.826336195535865181e-02,-2.125454073807627950e-02,2.608268260955810547e-01
2.445981886136991967e-01,2.400337055993299884e-02,1.593611582911352298e-01,3.095839518556455557e-03,-1.043756614096695394e-02,6.376445536279560155e-04,1.936010867357254028e-01
1.905465949517433921e-01,5.501298390220094037e-03,1.849386840192877024e-01,-2.161289177106577499e-03,-1.233690693749657161e-02,-2.345149511954753695e-03,1.836371570825576782e-01
1.911080866986091809e-01,7.922293451346609783e-03,1.809335809730694411e-01,-3.925296809101972047e-03,-1.450814244651798222e-02,-1.762337909052690216e-03,1.802324354648590088e-01
2.237220465380057033e-01,6.790203947781431326e-03,1.670612170998208301e-01,-5.195248730106208530e-03,-5.566103229442968293e-03,-5.630071970617023767e-03,1.955692917108535767e-01
2.338851817041963654e-01,4.796698308016544843e-03,1.276710336180428285e-01,1.251957177190934608e-03,-5.859412125792048259e-03,-9.944527388320845845e-03,1.995868831872940063e-01
2.087355760261576099e-01,-1.922044656522234329e-02,1.218702234898620812e-01,-3.614418791970179425e-03,1.451054850919722590e-02,1.679346205654363988e-02,2.030393481254577637e-01
2.358530438499540915e-01,-3.719131956859406118e-02,1.089415123172192551e-01,-2.042575279800819699e-03,3.356860876677888322e-02,3.409261889820480729e-02,2.507733404636383057e-01
1.562352752500817121e-01,-8.170932515590248468e-02,1.155563184532000937e-01,4.042457707778038950e-02,-6.599222366583749888e-02,4.736799308457896596e-02,2.707242369651794434e-01
3.072075311322696178e-01,4.494699208499472465e-02,1.846479661665251515e-01,2.450890650096174475e-02,-8.957880159601876169e-02,4.509848551307017034e-02,2.891983091831207275e-01
2.215444828625843798e-01,-4.047148178829784726e-03,2.074551618619496496e-01,-5.296096709990974136e-03,1.385240111198454997e-03,2.991738217815280865e-03,2.191538661718368530e-01
2.262448044621231946e-01,8.837498432509582891e-05,2.230609639129491617e-01,-2.189820244009541613e-03,1.006144744498969006e-04,5.485635077327546700e-04,2.246155440807342529e-01
2.145427671621047971e-01,-1.397252305807908379e-02,1.995872420396002656e-01,-2.326330355797543489e-03,2.094298482120176760e-04,4.890387850046899569e-03,2.216155529022216797e-01
1.956843861977827781e-01,-6.872414066513093944e-03,1.660728320391892665e-01,-1.673797358436086152e-02,8.343212792517298859e-02,1.065254875689989472e-02,2.407732307910919189e-01
2.203037292151539539e-01,-5.707312293124183755e-03,2.201524224843225963e-01,-1.063893586256553937e-03,-8.116987599152355754e-04,8.089017232884519173e-04,2.259516566991806030e-01
2.246073034498697329e-01,-1.745753533765687093e-03,2.280529461589373974e-01,-1.359268664044085409e-03,-1.602895869401797313e-03,2.693491400948234363e-03,2.281721383333206177e-01
2.255973477429643603e-01,-8.764434316850894247e-03,2.146779744668590728e-01,2.110436337565712792e-02,1.362670734537548868e-02,-2.690652723479431893e-02,2.378039509057998657e-01
2.224153418617991762e-01,-3.414990353577895821e-03,2.233112575011707568e-01,-7.538776043080640038e-04,-1.511485639205665307e-03,5.597421178552956268e-04,2.263006120920181274e-01
2.216328018331620298e-01,-5.255566702275532576e-03,2.223062360011973659e-01,-7.298812349346399256e-04,-1.611510619729366808e-03,8.985081628740899853e-04,2.272518277168273926e-01
2.296063082516733300e-01,3.052471638215703553e-03,2.316982489021214286e-01,-2.494125727761793351e-03,-7.911632218489341893e-04,2.004360500038120888e-03,2.276785969734191895e-01
2.113325392784973222e-01,2.163506889161204150e-02,1.961355823151518241e-01,3.597612558593483566e-04,2.409401127673882134e-03,-1.647650247565193458e-03,1.826450228691101074e-01
1.903221580103447996e-01,2.806000521708207351e-03,1.957852588206640265e-01,-4.593149526042769604e-03,1.166614357426279738e-02,4.718047863252861941e-03,1.917157918214797974e-01
2.181243015306247313e-01,1.939905798500451972e-02,1.930902986850415171e-01,-4.782998122246250559e-03,5.919435381820950526e-03,4.388422182532619557e-03,1.880825906991958618e-01
2.050099309020829708e-01,-7.273213134179917772e-03,2.192323344340046387e-01,3.639725959888256892e-03,-5.119952652045385664e-04,2.517785679290906759e-03,2.198752611875534058e-01
2.040147331640505268e-01,8.609781047222986317e-04,2.027829058104864690e-01,-4.610010220618174226e-03,6.055814147586502556e-03,5.547323722251558745e-03,2.031964808702468872e-01
2.005691759934024321e-01,1.645715342266318437e-03,1.887317091602380703e-01,-5.052464313024210285e-03,5.323329439325057144e-03,4.374619629293301226e-03,1.938425302505493164e-01
2.061777640408710699e-01,1.518220580352946936e-02,2.059742307593746824e-01,-7.237428445449418848e-04,3.333809913239190402e-04,6.603472021864003651e-04,1.909022927284240723e-01
1.983857819948565138e-01,1.438181171160052285e-02,2.097848612945798219e-01,-1.554643573969432613e-03,1.144993997705911560e-03,3.923422100910910898e-03,1.901111304759979248e-01
2.091115253435300581e-01,3.988830652207897565e-03,2.001574911742750595e-01,-6.082855214794984609e-03,3.296594068082343496e-03,3.471588940233295579e-03,2.012425959110260010e-01
2.058000639883828531e-01,1.314493081324527579e-02,2.010671670765657726e-01,-2.130035151291165968e-03,2.987641215864339072e-03,1.220459853929612478e-03,1.904506236314773560e-01
2.063565037552770876e-01,1.027286457793497032e-02,2.101422497621544261e-01,-6.579632305574947696e-04,1.559734034382249772e-03,3.439808306394960655e-04,1.980262547731399536e-01
2.093021831234686547e-01,5.841673863924562449e-03,2.086808917998145274e-01,-2.302850836161494594e-03,2.056536241106123703e-04,3.450099657720645779e-05,2.031900435686111450e-01
2.180317298134857862e-01,-2.175791835592716383e-03,1.476503324750198243e-01,-5.354969253982811567e-03,4.332253429711867970e-03,9.946013562390051271e-03,1.959221363067626953e-01
1.335076698520089589e-01,-1.749867803481383599e-02,1.610360103795785425e-01,-1.371043067557166199e-03,5.051481200488384948e-02,1.099834912666737378e-03,1.881015300750732422e-01
1.537493989367844927e-01,-3.634151871156590663e-02,1.348063102025273408e-01,-6.282248157906545304e-03,8.268195463944734425e-02,1.747703541703773955e-02,2.333155423402786255e-01
2.164241175987448029e-01,4.915237887212819956e-03,1.845900467471817130e-01,6.056216346019333528e-03,-7.366190779325856343e-03,1.686563497886252490e-03,1.982361525297164917e-01
2.408381295900194896e-01,1.160650583187616824e-02,1.786192592915926691e-01,2.505898699465330601e-03,-2.433375351789371279e-03,2.037629460820152005e-03,2.054381966590881348e-01
2.134381835130149119e-01,1.908750621380322920e-03,1.733495291757422008e-01,8.212579003418029114e-03,-8.151895931793719588e-03,4.584751189143559946e-03,1.957974284887313843e-01
2.200020788841820230e-01,1.201082650620466374e-03,2.020151329471159274e-01,5.798931816849899577e-03,-3.136745367125211986e-03,1.579740077382142628e-03,2.107124328613281250e-01
2.415066372938766415e-01,2.187332321512258648e-02,1.645080710140799374e-01,-2.239176843117762078e-03,-8.150075026843553103e-03,-1.283433983469091594e-03,1.935855746269226074e-01
2.348034882634181530e-01,7.584292282842491906e-03,2.080708832313261369e-01,-1.402440338363431860e-04,1.594469846748071233e-04,2.087104325567652914e-03,2.151330709457397461e-01
2.291102327416056628e-01,2.112892556055342985e-02,1.938347293252010717e-01,6.088143651306039336e-03,-1.543774332913815800e-02,9.502152426442886032e-03,1.956041455268859863e-01
2.250283454866623956e-01,-1.645969783544753984e-03,2.090715769517307865e-01,3.740671869417949193e-03,-1.233887812445428342e-03,3.710336975102306901e-03,2.193324416875839233e-01
2.195289879995515059e-01,-5.746882756302307271e-03,2.033155462886980236e-01,4.624108221315260427e-03,-3.000402258318451369e-03,7.857524035581306410e-03,2.182566672563552856e-01
3.815161695947199560e-01,7.079755298778644956e-02,2.819604113091532249e-01,-1.104413390962100117e-02,-2.811366283990144460e-02,-2.450012282410531442e-02,2.829512357711791992e-01
2.274167163925637225e-01,-2.560773946222616448e-03,2.243277239253135269e-01,-2.490759268800658757e-03,1.524484997414502982e-03,-1.298955349383222298e-03,2.285157144069671631e-01
2.246297107276643001e-01,-3.983672121554315826e-03,2.228440601539044275e-01,-3.298663372734032730e-04,2.187716186509177600e-03,-5.690190611672356997e-04,2.277601808309555054e-01
1.626284732829334778e-01,-2.531299779775683656e-02,1.532188288413874888e-01,4.267031461875064359e-03,1.315570288184739201e-01,-1.099640395917196416e-02,2.932255268096923828e-01
2.049632351287650478e-01,2.883389177854839280e-02,2.168094095384422437e-01,-2.651087538028589017e-03,1.187225502967569936e-02,1.776855772290667542e-03,1.835803538560867310e-01
1.638944353216002792e-01,-1.397045521698311865e-02,2.096945727381601399e-01,2.458109711703982195e-02,1.953532087792372862e-02,-1.178745574479593897e-02,2.127303928136825562e-01
1.849932147922475068e-01,-2.582125377517230369e-03,1.346167363885674984e-01,-6.439690217139135316e-03,9.215910736221968880e-02,-4.529058896606799958e-03,2.322472035884857178e-01
1.951169874086178813e-01,7.341097721312417335e-03,1.982489393324052829e-01,-4.371806575215250864e-04,4.387058693476040584e-03,1.540299425182341340e-03,1.895339787006378174e-01
2.493709682152601415e-01,2.002531206961855048e-02,1.841890907886921946e-01,5.917265052286812578e-04,-3.018479021332118924e-03,-1.980971498426404524e-03,2.047903388738632202e-01
2.050850319311002534e-01,3.831117048816418125e-03,2.110512330658049218e-01,2.080251051648648441e-03,-6.863326390120602812e-04,3.987680545646599475e-03,2.044542878866195679e-01
2.042453549220697995e-01,-6.762702790075902914e-03,2.217357447113730562e-01,4.493265920205631939e-03,-9.540049865797017728e-04,3.962716896115495852e-03,2.205251306295394897e-01
1.965973420595627796e-01,1.841802291814964576e-03,2.127385597762092018e-01,-4.499706944572657956e-03,-2.265477936615701345e-03,-6.347443053791695412e-03,2.037912160158157349e-01
2.209559019645496170e-01,1.816260102846412039e-02,2.184160714470571030e-01,-6.007139749528010719e-03,-4.925745406038564353e-03,-4.231807469137289536e-03,2.021170109510421753e-01
1.993019539425068820e-01,5.967404160392875134e-03,2.199152147918905786e-01,-4.702810292727000602e-03,-2.220269379994022768e-03,-6.002819086660409267e-03,2.048844844102859497e-01
2.075755657755016248e-01,2.427706194053663724e-02,2.184783311205278356e-01,5.013200927704509341e-03,-8.613845397660521014e-03,3.671751174995407062e-03,1.898791939020156860e-01
1.563216856495140972e-01,6.233922430647256818e-03,2.063039787066530129e-01,-3.640445374144218285e-04,-1.610710241899184283e-02,-3.365786857481109506e-03,1.825896948575973511e-01
1.810605829949241130e-01,2.003444289063111006e-02,2.165880531818263066e-01,-1.010208612345680091e-03,-5.305277915245605602e-03,-6.150607604962589131e-04,1.816620677709579468e-01
1.952562248570735848e-01,1.856443674344392114e-02,2.083692911058474262e-01,-6.029769601302971752e-05,-3.260073657652583484e-03,7.454230255450078899e-04,1.836912482976913452e-01
2.058059547559772662e-01,1.251133739695992064e-02,2.013233384209360266e-01,-2.073403433741430064e-03,-6.806609152895284030e-03,-2.331826758908940415e-03,1.915323436260223389e-01
2.690669891276563641e-01,3.916555838265545209e-02,2.270095534739179632e-01,-7.217621626674472317e-03,-1.034645694833896956e-01,-2.592179359565052743e-02,2.814982831478118896e-01
2.279007438222733772e-01,1.891029888848134999e-02,1.765584471550750156e-01,3.985373702683361430e-04,-8.625198331322395454e-03,1.705694304138579559e-03,1.892495006322860718e-01
1.576132663396688782e-01,6.270151973155613234e-04,1.966366808801768284e-01,-5.299498146410885728e-03,-3.646384606281410923e-02,-6.817360159362739758e-03,1.910658776760101318e-01
2.427518150548178544e-01,3.458117502476509841e-02,2.160600616408018815e-01,2.417046890218867150e-02,-4.783329993371639166e-02,3.388636336210491817e-02,2.248390316963195801e-01
2.422319109954050240e-02,-6.277827409234290612e-02,1.778067010928869041e-01,-9.268880959141034132e-03,-5.886283688373408762e-02,-1.524432816001935554e-03,2.349007278680801392e-01
1.977911771941107677e-01,2.501770209388798349e-03,2.166579441205127576e-01,3.970685355002895843e-03,-1.843648445305401959e-03,6.650531282239443946e-03,2.058362811803817749e-01
2.257823105803995478e-01,-1.549370530950555658e-03,2.227243967586104434e-01,1.083933307186969904e-03,-3.327877911233702128e-03,-8.453733919477183795e-04,2.259043455123901367e-01
2.483841045555085225e-01,2.190712465404526244e-02,2.549395119338810911e-01,5.237375047418371156e-03,1.685437836266645562e-02,-1.910583180816175647e-02,2.341987192630767822e-01
2.268106524585481454e-01,6.731853021902850509e-03,2.305602985114920400e-01,6.363575656398405903e-03,7.762007964551302566e-04,4.739197746271499681e-04,2.222564369440078735e-01
2.223157420592335454e-01,5.587287176207489381e-04,2.238811718133936202e-01,2.471636553170979654e-03,-7.524196573573894899e-04,-2.881128443076682276e-03,2.226447761058807373e-01
2.595685417807526152e-01,3.258434790272271564e-02,2.606820260099828035e-01,1.751924025093060805e-02,1.738403863829186130e-02,-1.026435660007541002e-02,2.322052270174026489e-01
2.065521307094533299e-01,5.238209754894265768e-02,3.033721509368595415e-01,-4.364372395180941833e-02,6.060477229251406278e-02,4.830608803113017728e-04,2.545645236968994141e-01
2.073084731626912425e-01,-5.652374042448504721e-03,2.218515115823612716e-01,-4.022620509127729747e-03,7.873169781371253681e-04,3.634122241732281374e-03,2.207961678504943848e-01
2.030338974982752454e-01,3.548709642972824874e-03,2.284672189360102412e-01,-2.404706087527730234e-03,1.803275633852894017e-03,3.550992533267337183e-03,2.134940177202224731e-01
1.790637422428320580e-01,9.547434380791919306e-04,2.277565484885633595e-01,-1.748352727725831224e-02,-9.419174056269612877e-03,-7.130019585504784874e-03,2.100050598382949829e-01
1.520253843093939128e-01,6.437209167543533894e-03,2.384180647881228021e-01,-9.841759725656271454e-03,2.399611100626617994e-03,2.614104323213578638e-03,2.038767337799072266e-01
1.195721087471723482e-01,-1.657113002628725351e-02,1.898062812719323589e-01,8.543213060688241781e-03,3.148314956704754974e-02,-5.109192428950997365e-03,1.905270665884017944e-01
2.350751102532832593e-01,1.882428142035685870e-02,2.347112874536484983e-01,-3.778185815971306458e-03,3.778780658010411596e-03,-4.849677067792117560e-03,2.164303511381149292e-01
2.406361082891059489e-01,2.789408303572074588e-02,2.354678039677769452e-01,2.771291475696521615e-03,-2.844002820225147773e-03,-2.203096096158951335e-03,2.103526294231414795e-01
2.178142281107881550e-01,-4.841878065581339818e-03,2.200922069076751697e-01,3.072507264425831421e-03,-3.313806518864430891e-04,3.513989939301500644e-03,2.239505052566528320e-01
2.382043001051399045e-01,2.372845333146131330e-02,2.349335865960285874e-01,-2.795329057996673479e-03,-2.876239745418470058e-03,8.176135304234381567e-04,2.129773795604705811e-01
2.638367206879649873e-01,1.705533157261521215e-02,1.616202691239672640e-01,-4.992310317683626604e-03,8.102647421067175415e-04,1.842412698736132018e-02,2.172998487949371338e-01
3.265447737977211773e-01,4.896916557189556762e-02,1.985300789015004286e-01,-2.551825992616934061e-02,3.147262626397025198e-02,3.582240159569955590e-02,2.582190632820129395e-01
2.238158428114652432e-01,-3.968615281572523967e-03,2.093198218086465556e-01,-4.203188918676509928e-03,2.426287507114001461e-03,4.385880904744408719e-03,2.211838513612747192e-01
2.885751418578299532e-01,5.830191009273996694e-02,2.785940209427835157e-01,-3.835938017764373154e-02,9.676068885254496266e-02,2.349729906606974617e-02,2.915228903293609619e-01
2.081901783535559380e-01,3.516711417230700132e-03,2.072265310311992570e-01,4.098862488490472022e-03,-3.028813178820563817e-03,4.845296126676227472e-03,2.045563012361526489e-01
2.248220065654896183e-01,-6.596304860083113120e-04,2.222806232348312760e-01,-3.231457117032503559e-03,-1.309685861542343212e-03,7.524506361916353907e-04,2.243068516254425049e-01
1.981068395625187328e-01,-4.241952860653944168e-03,1.498506853795302241e-01,-1.216743481025326940e-03,1.308429293071476131e-02,1.059987523606889916e-03,1.844736337661743164e-01
2.160261243327898650e-01,-5.283322921688893281e-02,4.700987024557163468e-02,1.305666227546967151e-02,-3.206871219627883962e-02,1.035546781420266724e-02,2.435746043920516968e-01
2.265032285716910287e-01,-1.084731067980154728e-03,2.244810970395946792e-01,1.476600786291639659e-03,1.530506193525253602e-03,5.073528833678109078e-03,2.267839163541793823e-01
2.044504977238054966e-01,-1.076237402784549491e-02,2.079514448311885477e-01,7.721938682291766727e-03,-1.047521070919577371e-02,5.421162802185918589e-03,2.183541357517242432e-01
2.263665552032472772e-01,-1.991696014346205912e-03,2.243942330492597059e-01,1.782379962626475661e-03,9.284059482423195030e-04,2.309278412377515060e-03,2.274403274059295654e-01
2.252652839048621125e-01,-1.178912610763444002e-03,2.282916127262838157e-01,5.333570576460494291e-04,2.220998978508873824e-03,7.386300401943720218e-04,2.280103415250778198e-01
1.999692250387236081e-01,1.190482383836619085e-02,2.309578595838344128e-01,4.069768769228508665e-03,-2.819296196067839697e-03,5.743468614971127678e-03,2.057398110628128052e-01
2.096084239303532826e-01,9.649860068844329231e-03,2.323446538686642082e-01,1.681756626974849605e-03,-3.073971758607912594e-03,5.051736986328903348e-03,2.125089615583419800e-01
2.329047836207697453e-01,-9.543796776298657525e-03,2.242568478561599576e-01,1.074168117853080938e-02,-1.835645184137300531e-02,2.718399459014375630e-02,2.456284910440444946e-01
2.257201243240507527e-01,-2.214659098421556394e-03,2.238594609216877362e-01,2.755620742372353119e-04,6.355441759167748932e-04,7.089991995471904909e-04,2.270166575908660889e-01
2.317581692697282258e-01,5.839044133877951959e-03,2.272767543262769196e-01,-6.885555028305677481e-04,-2.873521140706369707e-03,-4.724605837176752829e-04,2.237721234560012817e-01
2.314672923972920238e-01,8.372090428401673945e-03,2.317639314668507589e-01,9.360933360212187002e-04,-4.171983892647850370e-03,4.961558010227686184e-05,2.233664840459823608e-01
2.049070972432991966e-01,5.418590618727348041e-03,2.325467217025757316e-01,-2.378512255030973497e-03,1.118094854508100297e-04,1.149524105875019547e-03,2.146960049867630005e-01
2.164508776888183217e-01,1.469624500879043727e-02,2.445028608542378357e-01,-1.393689271717856761e-02,4.713157410702660186e-03,6.351183951923431402e-03,2.189105451107025146e-01
2.247417407338864470e-01,1.307038932628123984e-03,2.272191414569451617e-01,-9.436656710798282076e-04,-9.111278469213645475e-05,1.932794423687785642e-03,2.247145771980285645e-01
1.496948880594795028e-01,2.899151429208482456e-02,2.861396218118536505e-01,-1.421714839783068049e-02,-1.743989184558707715e-04,5.231664008754223494e-03,2.243755608797073364e-01
1.947800523016337271e-01,-1.329385640528368828e-02,2.157925691019366710e-01,-1.105156086285622244e-02,-2.974776126329404125e-03,-2.992193252959686380e-03,2.202912867069244385e-01
1.380414393970421372e-01,-4.099482020444344954e-02,1.983305991245994382e-01,-5.303083718906578120e-02,6.549971444881086402e-02,2.199339603913845129e-02,2.631374001502990723e-01
2.174917791207090223e-01,5.126810126075520557e-03,2.189788142693196160e-01,-7.325902002330838885e-04,-2.692444163647818170e-04,2.633584209343101459e-03,2.131654769182205200e-01
2.152254924035145456e-01,-3.626749269429019318e-03,2.171770013670379362e-01,-2.787768333587418469e-03,3.034227830257434978e-04,2.695439125236304828e-03,2.199376970529556274e-01
2.085032888451835986e-01,5.248130175232290640e-03,2.085757625247651736e-01,-6.690348955385636530e-04,1.315887217086480045e-04,1.676766356913389358e-03,2.033155858516693115e-01
2.168912246833779589e-01,3.502376773368204299e-03,2.162464130204727053e-01,1.580722510651345436e-04,5.794565259789716434e-05,1.567777166465594580e-03,2.130846828222274780e-01
2.002073635044312461e-01,9.968693213761620209e-03,2.170721225593473802e-01,-6.835854830630699354e-03,9.960173618928950742e-03,8.537632997490740908e-03,2.008481472730636597e-01
2.222619531796238279e-01,-3.011085959221698749e-03,2.202418461758028079e-01,-2.975772897246547685e-03,-1.661838172995940173e-03,3.143184069798880906e-03,2.244135439395904541e-01
2.259533912163978753e-01,3.472271674311577794e-04,2.223886818658951658e-01,-4.373084127288914824e-03,-1.358654799005664087e-03,3.119764636845208210e-03,2.240507453680038452e-01
2.442542148844248917e-01,2.176423273631275523e-02,2.469787793851787872e-01,-7.266868126636598021e-03,7.609549731839811149e-03,1.326045777148198747e-02,2.257765680551528931e-01
2.269126709362390693e-01,1.609702582361871581e-03,2.232189603396201039e-01,-2.285543615032247476e-03,3.025498116935885834e-04,5.095493875959306376e-03,2.236888557672500610e-01
2.120868098414125380e-01,3.114836972485240940e-03,2.148704115844683737e-01,3.211008936789283303e-03,-5.886594475676876806e-05,1.798303504364822053e-03,2.104741632938385010e-01
2.260406881464392947e-01,-1.434168242819444661e-03,2.249101650415549492e-01,-2.518693526833930014e-03,-1.124409681614425914e-04,1.796508477233983931e-03,2.269750535488128662e-01
1.865192678769201085e-01,-4.032191052131012254e-03,2.135687978557208044e-01,5.369430786226852409e-03,-5.272863409957204497e-03,6.730026008190509099e-03,2.061592638492584229e-01
2.354128628479535690e-01,7.139921859323217213e-03,2.292661162178885048e-01,3.277884259655713169e-03,-2.041458868258234742e-03,-1.764748512730200756e-03,2.253824770450592041e-01
2.272195276401337560e-01,-1.853003804214631289e-03,2.244175760698554067e-01,2.709741376862257541e-04,2.175401313120195988e-03,5.229284243141478147e-04,2.277179509401321411e-01
2.215636662739593754e-01,-4.457808810202745775e-03,2.224890535697125193e-01,1.752121012606064560e-03,6.303022661364636806e-04,2.208926892803399298e-03,2.265408635139465332e-01
2.230120616721271432e-01,-7.797668576169924926e-04,2.232609826521666785e-01,5.273578092363931727e-04,5.013629989173480644e-05,5.610730911858862477e-04,2.239203751087188721e-01
2.283120983357442291e-01,3.885454568789414864e-04,2.266227185128448229e-01,1.689165400738886587e-03,2.305674232617303636e-03,1.941635585794381034e-03,2.271624207496643066e-01
2.245335018372752178e-01,-1.131256261687779707e-03,2.245256278911599290e-01,5.431512820568625303e-04,4.524037763334974181e-04,8.702224876342275163e-04,2.256691753864288330e-01
2.227414438566676369e-01,-3.591957170893833595e-03,2.224793743858579920e-01,1.161460110043201991e-04,6.337739981863147647e-04,9.576970181664058550e-04,2.262113094329833984e-01
2.272326589470963498e-01,-1.767629375442197892e-03,2.254290571388278819e-01,5.383962084127415053e-04,2.362841049661315064e-03,6.261693474063659238e-04,2.281450331211090088e-01
2.247236598042758049e-01,-2.126406709743955403e-03,2.241942615334728828e-01,8.424826246937052680e-04,1.906163495654351761e-03,1.080723768597777450e-03,2.266223132610321045e-01
2.184522748011873960e-01,-3.803713341365977385e-05,2.189511504310509837e-01,6.189819919383608791e-04,6.813283705916830255e-04,1.810323450427309133e-03,2.187684625387191772e-01
2.247155056810917761e-01,-2.381831848007220920e-03,2.241654003007288731e-01,2.071147018739056926e-03,1.519537223729325271e-03,2.192845504777687221e-03,2.268982082605361938e-01
2.075896280547140371e-01,-5.321768726898684632e-03,2.217928268979203199e-01,4.415829121030084847e-03,-3.097272165166032633e-03,4.318673678140675862e-03,2.206813246011734009e-01
1.737863706098226602e-01,-1.217640023931720883e-02,2.189935388663675209e-01,1.118395834277658742e-02,-1.178910453727400514e-03,3.263912126860900580e-03,2.131761312484741211e-01
4.111431402214239111e-02,-2.357639321460201776e-02,2.583582243564416236e-01,-1.539354298442691983e-02,-1.943495671888208903e-02,5.439156789285908011e-03,2.595500946044921875e-01
1.589251845232236560e-01,-9.694154970030649521e-03,2.049169662378249046e-01,2.883299612617011912e-02,5.425155826457544322e-02,-1.661406339972383919e-02,2.246210873126983643e-01
3.322360931600681216e-02,-4.361751366689928244e-02,2.563660962196562254e-01,2.323521628205409487e-02,1.597386920006045596e-02,4.244512909478345697e-03,2.743771374225616455e-01
1.782382989406181006e-01,2.083533388813714471e-02,2.348128864445411246e-01,5.263094915716059682e-03,-4.378277816294383513e-03,3.154447028973299347e-03,1.924885660409927368e-01
1.997985352553865446e-01,8.637270331961488523e-04,2.497976969339316122e-01,4.116004431714002237e-02,-1.285027602896611672e-02,2.678530055675221871e-02,2.444416880607604980e-01
2.041853236310800512e-01,2.881693673654664445e-02,2.707524402168478006e-01,1.585348429491564501e-02,6.764744682094847236e-03,-3.800826978231930126e-03,2.186175733804702759e-01
2.300237907577479257e-01,1.066826421649763601e-03,2.248546525925948780e-01,2.573176160085315599e-03,-2.666662091301989605e-03,-1.278313531931191474e-03,2.265184372663497925e-01
2.080986721685203766e-01,2.713927898534806982e-03,2.387494592252543124e-01,1.201131519138061779e-02,-2.930218996174198745e-03,4.465553620798324349e-04,2.233310043811798096e-01
2.282032718866195409e-01,7.597851333347033220e-03,2.337513699132174883e-01,2.697139282529387345e-03,1.869382722280776583e-03,-3.926028602077634953e-03,2.236068397760391235e-01
2.526725233088882860e-01,3.848277805870609081e-02,2.788269802668565944e-01,6.240356094666161917e-03,-6.284730754571323484e-03,3.349538950604916392e-03,2.289810031652450562e-01
2.236561803893324374e-01,6.577435599456893378e-04,2.250964819634672653e-01,2.263952836982790866e-03,1.143304804198862819e-03,1.681357240932380677e-03,2.237841337919235229e-01
2.366015574839629709e-01,3.978169329636344065e-02,2.835931698540550827e-01,2.556269274937673919e-02,-1.051918364220650638e-02,3.272559438343116984e-03,2.291715443134307861e-01
1.645909904095422815e-01,-3.705347670449518627e-02,1.564758708940366394e-01,2.554330491328986666e-02,8.801319271784815990e-02,-2.956080937848728357e-02,2.586655020713806152e-01
2.280275467407839596e-01,-5.577461190184540563e-03,1.767062863149088114e-01,5.827689198963374902e-03,5.314701933008520070e-03,-7.880002516767421056e-03,2.135162204504013062e-01
2.422550247620333108e-01,1.064091449506024412e-02,1.986755448821337366e-01,2.464271698096208787e-02,1.051326602584158609e-01,-2.667835572197412020e-02,2.873434722423553467e-01
2.131179161401830779e-01,2.550235599511316287e-02,1.872198250002858888e-01,-3.591101155535456231e-03,1.247549899816389196e-01,2.028927868380650881e-02,2.810275852680206299e-01
2.203623894905883118e-01,-3.108474318539972137e-03,2.190567379896579125e-01,-9.449373965756150892e-04,2.429173006754205342e-04,-9.561359934941688699e-04,2.228334695100784302e-01
2.007869460908869585e-01,1.135438267980642957e-02,2.130874976226777018e-01,1.019755635435166778e-02,5.909045805782947580e-02,-2.063783655559823377e-02,2.245682626962661743e-01
2.093109486010043818e-01,3.197423056362641569e-03,2.012494777800608037e-01,8.422979319686954569e-03,8.891121436275651116e-03,-5.966294207742309924e-03,2.035754919052124023e-01
2.248386067386428100e-01,2.473917389084090424e-03,2.042013026828478073e-01,4.791988181699736483e-03,7.769409570455215524e-04,-1.317427630662034886e-03,2.129761725664138794e-01
3.243189041715497933e-01,3.810267420169433095e-02,1.881463526643048778e-01,3.352673367855115577e-02,1.655203356765939937e-02,-3.712075775045969861e-02,2.642267644405364990e-01
2.351544151587786069e-01,6.466148392645948428e-03,2.054537668048563304e-01,1.625923078751432714e-03,2.707659140318455920e-03,-2.135273455915254800e-04,2.154491245746612549e-01
2.318052309608892303e-01,1.736231395278781120e-02,2.337217230816279190e-01,1.001836315467630623e-03,-3.807983882502185939e-03,-1.208046262848721521e-04,2.155155986547470093e-01
2.297756495458377346e-01,-8.355387491133514644e-04,1.854254730594677991e-01,-5.366493442639575992e-03,-3.686490924605986125e-03,-9.262638414488976249e-03,2.128505855798721313e-01
2.259066575536397004e-01,-9.172941607542034470e-03,1.753007783140600739e-01,3.950659178471964232e-03,3.603258929076703725e-04,-9.511687596455362104e-03,2.150478810071945190e-01
2.294764699454707735e-01,8.679648914270088333e-03,2.370338407651191304e-01,3.078873498592928862e-03,-4.372281790333231583e-03,-3.479649095163819990e-03,2.249424457550048828e-01
2.001361897117635014e-01,1.373408348238153165e-03,2.124905211399737981e-01,6.876153391276358835e-03,-8.654855712053200617e-03,6.384250619866601792e-03,2.064066231250762939e-01
2.698996656243253245e-01,3.494918237830077490e-02,2.085478336202544747e-01,-1.203744488438788542e-02,-3.672381455213920287e-02,-2.718685024053331747e-02,2.263827025890350342e-01
2.107219417778055659e-01,-7.562007848270629884e-03,1.860295471645622700e-01,-6.927141414818174109e-03,1.172130016557918104e-02,1.977902532116600481e-03,2.084118574857711792e-01
2.194234068177420838e-01,-2.260160967734126114e-03,2.232804143622013626e-01,-2.632216106907223248e-03,-6.609740437372048751e-04,2.540116654212872926e-03,2.237296849489212036e-01
2.309206780324571939e-01,4.071443681391173630e-03,2.027067564174712677e-01,4.619869524836632893e-03,6.238819736210728280e-04,1.606004019412053414e-03,2.143110632896423340e-01
2.285523154417233027e-01,3.184707406484688086e-03,2.334650771027074190e-01,-5.194676644631316710e-04,-2.865463894121053623e-03,1.467030382274571833e-03,2.279336899518966675e-01
2.155508486754683373e-01,-5.550777744446400153e-03,2.175359055993253410e-01,-4.761164067599122501e-03,1.413360625566034093e-03,6.002214688583642002e-03,2.225103378295898438e-01
2.055660629639959325e-01,-5.678524676433510665e-02,8.069952403031534216e-02,-6.561054418715730682e-03,3.374335012970746533e-02,4.052172806093827517e-02,2.452182173728942871e-01
2.249909540106232453e-01,-4.465693245718577176e-03,1.748691916432947302e-01,-3.816631566713421541e-04,6.114346890094132184e-04,1.129705417096708332e-02,2.098718732595443726e-01
2.288602921407932866e-01,1.580364647240872777e-02,2.106157897637608856e-01,1.294288150441102146e-02,3.138853128690833466e-02,-2.035141363745309254e-02,2.157306075096130371e-01
2.183887624987766451e-01,-2.845848203183681813e-02,1.046707911511767924e-01,1.197650113254654890e-02,4.476910118869066590e-02,-2.933261025905644845e-02,2.341339439153671265e-01
2.195694545292515287e-01,9.030298920906870697e-03,1.864397168987207420e-01,4.969136951814704176e-03,7.079222700468287138e-03,-1.057252098942574031e-03,1.966646462678909302e-01
1.955825943690150392e-01,1.528612029001895356e-02,2.094169214610483165e-01,7.927306200801605661e-05,2.305705909066168603e-03,1.987650568318926735e-03,1.876707375049591064e-01
2.028988306092331939e-01,1.371828419796486398e-02,2.139771921015161671e-01,4.527089838429935488e-03,9.108551674785927976e-03,-6.732223408555523467e-03,1.960973441600799561e-01
2.042642904653475533e-01,1.200837346632363523e-02,2.024379887435290293e-01,2.632747569312932252e-03,8.252039524419410100e-04,-7.411432218046606728e-04,1.914132684469223022e-01
2.034997852218170533e-01,1.663785051854210773e-02,2.026772473280149256e-01,6.059727779308105673e-04,5.704368371159420064e-04,1.551302142760536203e-04,1.864577978849411011e-01
2.006026489165604054e-01,1.383055227747273519e-02,2.020603932046197704e-01,4.993118310861002253e-04,7.592300789707414656e-04,-6.702384424026322984e-04,1.875154227018356323e-01
1.965053284840114212e-01,5.000326432916049613e-03,1.712850688287173850e-01,2.700905191548958091e-03,9.700681024219974177e-03,-7.573949439294406800e-04,1.810699701309204102e-01
2.004994619096488462e-01,1.264001589977292728e-02,1.961297363290287477e-01,2.407647194783272149e-03,4.560752414364608980e-03,-4.124703589972635162e-04,1.859292238950729370e-01
2.138611746918471501e-01,5.690484251003158356e-03,2.024125044574571208e-01,-5.531193825053534394e-03,1.377027033251327541e-03,2.099758775041717616e-03,2.029618918895721436e-01
2.140290846312976059e-01,6.136708534606710730e-03,1.737522190869073002e-01,6.293011590646105206e-03,9.684435810716266607e-03,-3.693854672468907269e-03,1.921179741621017456e-01
2.256074810161020627e-01,2.729710781670363628e-03,2.269372724855868717e-01,1.371447789831085548e-03,-1.003535142883408074e-03,-3.909232326747721226e-03,2.236675173044204712e-01
2.296395162777977728e-01,9.325175402528224078e-03,2.302638881440519092e-01,5.446599954856945133e-03,2.305421271843556986e-03,5.263139728999573393e-03,2.210529297590255737e-01
2.074505784590949253e-01,-3.955719154683429162e-03,2.060845010262772892e-01,3.257413114430554243e-03,-2.708285796518312191e-03,4.377240263783983495e-03,2.109905481338500977e-01
2.354251415261575942e-01,2.237167924867419777e-02,2.341388331766733888e-01,3.325996059921716361e-03,1.514060125818224994e-03,1.129604482514188525e-03,2.125165164470672607e-01
2.198843830667899235e-01,-2.986355333488455166e-03,2.214216820629667237e-01,1.178605009651071713e-03,-2.119306219934860593e-05,2.237049641744611080e-03,2.236862331628799438e-01
2.267189118769374345e-01,1.982553400915604280e-03,2.290926830140890269e-01,2.639977646030069666e-03,1.563847565947177297e-03,1.550830398560953992e-03,2.260110527276992798e-01
2.299207143633972827e-01,1.369751009199318692e-02,2.275791828597681088e-01,3.886202214337271948e-03,2.765365895942967483e-03,1.585232147741793629e-03,2.152381241321563721e-01
2.218100700237721212e-01,-4.254528789362915786e-03,2.216898608572964169e-01,6.933077077364919105e-04,1.362228440285793117e-03,6.368512818194334768e-04,2.260227203369140625e-01
2.224346580354059078e-01,-3.644568404282760854e-03,2.272386493887296743e-01,4.927891063492081817e-04,-4.454529610068326951e-04,-9.277568495569252010e-04,2.285276502370834351e-01
2.334233284933620034e-01,1.177813311776826355e-02,2.331296524804330472e-01,3.219365924666523545e-03,-1.244197464346906683e-03,7.273819011763613465e-03,2.219370454549789429e-01
1.917152237379699531e-01,-2.483051419679199734e-02,1.465535153452387218e-01,-4.374232120461265562e-03,7.536594716597018462e-02,2.713808025752580469e-02,2.417828887701034546e-01
2.539573563854222726e-01,-9.895174672344742017e-03,1.896479759434494261e-01,-1.057664303400991657e-03,1.658092929149976996e-02,3.838014226662826711e-02,2.490640580654144287e-01
1.998021978317831571e-01,-2.895206445274189910e-04,1.834926798676458914e-01,-2.032113335926837364e-02,6.638856524690289751e-02,4.206753125807408816e-02,2.383474260568618774e-01
2.250636432090193650e-01,5.102181098374763968e-03,2.240523856862938201e-01,-4.300097513865954249e-03,-4.092910677526630670e-04,4.660628785470707566e-03,2.197334021329879761e-01
2.082168176385214842e-01,-9.103213196603510138e-03,1.434413396500880122e-01,-1.266557966665438073e-02,7.250926282182441895e-02,3.213995174227995272e-02,2.381172180175781250e-01
3.262897053544595583e-01,6.497390776874065188e-02,2.242138341919175382e-01,-2.904488021400415676e-02,9.574258135197570574e-02,2.207108811772250795e-02,2.890043854713439941e-01
2.424604112221585561e-01,3.937226609495877994e-02,2.430257269802700293e-01,-2.727650817515434771e-04,-8.664592092887242426e-04,-2.960232082691344798e-03,2.034420967102050781e-01
2.215314523381564649e-01,2.035282914607694504e-03,2.224443294782073588e-01,-3.313851221614404381e-03,-9.661951452546737283e-04,3.197235384160059327e-03,2.201049476861953735e-01
2.291247466991070125e-01,6.240192880682976506e-03,2.291511611487927758e-01,-6.311969123304943469e-04,-3.470182955704891135e-03,-4.105692422184784073e-04,2.229826003313064575e-01
2.321022185837808283e-01,1.436642129789805766e-03,2.263943104791470984e-01,-6.582115830602917970e-04,-1.748645732252258021e-03,3.773343120210915298e-04,2.278891652822494507e-01
2.175893300377934048e-01,-6.549292326209099624e-03,2.209680149762939805e-01,-3.610704531514383891e-03,5.557010322510834476e-04,4.549364865432118515e-03,2.260729074478149414e-01
1.946298947909138044e-01,2.094052919277802904e-02,2.374281924437374180e-01,-1.310227904468501577e-02,9.949441404349541537e-03,9.106036630435073581e-03,2.012313157320022583e-01
2.240466230933424452e-01,-1.506728159014092405e-03,2.263682834750683492e-01,-6.180368234149458823e-03,-5.340739432551680184e-04,3.311803406424201034e-03,2.270500212907791138e-01
1.942269827569778340e-01,-8.630549361783507178e-03,2.238262521425878337e-01,-9.946667769484534433e-03,2.750750387218949444e-04,-1.368098167401401869e-03,2.198508083820343018e-01
2.312018405700229651e-01,1.684947568359188019e-02,2.354644024227003918e-01,-1.179931522301003828e-03,-2.565121875741171054e-03,-1.581363209216476735e-03,2.165876626968383789e-01
1.889321103447134664e-01,1.592312045000635057e-02,2.168779113285081439e-01,-2.733056188308245500e-03,2.935170125007312628e-03,5.824338580832573095e-03,1.889390796422958374e-01
2.037623780206070379e-01,-8.334164993118370335e-03,2.228654466375951382e-01,-5.801229036302378399e-03,2.719990727235757871e-04,1.610456321719821700e-03,2.225096225738525391e-01
1.844494305013892610e-01,4.379059807440077723e-03,2.289759925313008537e-01,-9.204651941510997096e-03,-2.959880267181648028e-04,2.513522035123815120e-03,2.066379934549331665e-01
2.446665227089556138e-01,2.819328622169514631e-02,2.555879379242735894e-01,-7.787785970091754516e-03,7.537212645933073253e-03,9.185813588325651355e-03,2.234941869974136353e-01
2.486124021592842626e-01,4.267300978924565280e-02,2.569300453211058599e-01,3.315837045461635839e-04,-1.122885773901706940e-03,-3.938762105944061524e-04,2.102325558662414551e-01
2.520199073091934361e-01,5.418226557640293262e-02,2.472522475023251620e-01,5.846481612270713890e-03,-2.675543460312315453e-03,-2.746113015024768435e-03,1.958721131086349487e-01
3.817197454762540909e-01,1.057297415763742143e-01,3.473073373910792183e-01,-5.126894725597558496e-03,-3.137515133720741867e-02,2.444606354141656140e-02,2.695961892604827881e-01
2.526934560145409625e-01,4.279621074258624369e-02,3.583728588424887063e-01,-2.944350384183252664e-02,-1.531443692382112622e-02,-1.887349015203110963e-02,2.859716415405273438e-01
2.310984662421725067e-01,1.321294086738594720e-02,2.304944459190547967e-01,-5.967195102533633284e-04,-5.038735941324006505e-03,-2.279525553592799008e-04,2.177619189023971558e-01
2.286840542304972579e-01,4.159917571895488386e-03,2.242780516687413739e-01,2.809178534600810517e-02,2.854601598857209668e-02,-2.130085548055191472e-02,2.358272671699523926e-01
2.472394960258834651e-01,5.385284791617364619e-02,2.490538088847703557e-01,-3.558184923106958754e-03,2.571971200765761374e-03,4.930045714031359733e-04,1.944507807493209839e-01
2.358898352842545010e-01,1.401127212329972282e-02,2.311580007014282234e-01,1.546265540243685300e-03,-2.293253724918198257e-03,1.643966499167304890e-04,2.196033298969268799e-01
2.279246201264835681e-01,-8.560625840918212326e-04,2.251929229520185927e-01,1.464907560949641656e-03,-2.153992896115473465e-03,-1.136659935012027155e-03,2.274804115295410156e-01
2.311594022974136353e-01,2.251395447657111859e-02,2.362976729882062255e-01,-1.131590698008300274e-03,3.264440796671375859e-04,-3.535495319323752380e-03,2.113600224256515503e-01
2.293704754529751200e-01,2.301629718839839911e-02,2.303245916313440000e-01,-3.985794087583514330e-05,2.182966993309826912e-03,-2.137587035733547018e-03,2.069005817174911499e-01
3.110015680988915121e-01,1.059033725000034787e-01,3.082405184359561234e-01,5.637687764802596204e-04,3.435552735712878777e-03,-8.742121041415071292e-03,2.043825984001159668e-01
2.516210276349635788e-01,4.194092234569143929e-02,2.577359498294622409e-01,7.132705130924084543e-03,1.313692942560863025e-02,-2.629020888486890539e-03,2.144211083650588989e-01
1.927796789817406709e-01,7.276750002000065276e-03,2.280345062051529204e-01,-7.499366322152549794e-03,-1.668306760917492469e-03,-6.232535080235973232e-03,2.061254978179931641e-01
2.353880115131137263e-01,2.646710221276660224e-02,2.339697058460404600e-01,-2.850974617435016786e-03,-3.853943522232650652e-03,1.294582503501304519e-03,2.083929330110549927e-01
3.133285537007278743e-01,7.962338886167991125e-02,3.645339106672633722e-01,-3.324808111261859378e-02,-2.163321066912029470e-03,4.461091363675627475e-02,2.801924347877502441e-01
2.068245286701452523e-01,-4.657954958233634368e-02,2.002608982472613708e-01,-3.986226744625643442e-02,2.395225322504019802e-02,4.421321557833631649e-02,2.737627029418945312e-01
2.396391202724940661e-01,3.977158581123418912e-02,2.382950826997886629e-01,4.881877426705875239e-04,-2.275380528951993341e-03,3.804457281420011664e-03,1.993486285209655762e-01
2.620198015687117965e-01,4.441293826119863120e-02,2.546176270296767741e-01,3.425658682481460063e-03,-2.864708176302520424e-03,-4.846771949941649366e-03,2.143060266971588135e-01
2.784701897348818012e-01,5.392382110143828511e-02,2.525370174067385065e-01,-1.029069370410627595e-03,7.382150183476908663e-03,7.368696624493856900e-03,2.135414779186248779e-01
2.320806139547603175e-01,4.194626539537849030e-02,2.360492136328192214e-01,1.824111332209994761e-03,-3.099717660815608927e-03,2.834642560653329274e-04,1.922509670257568359e-01
4.087299362977937500e-01,1.816532766304783109e-01,4.539839815063144712e-01,-4.545166057113926572e-02,2.880660678941604144e-02,1.980737061885817427e-02,2.715730071067810059e-01
2.576689889269612177e-01,3.444118795941603084e-02,2.418277704751753410e-01,-3.675498068492092773e-03,-3.559957859425936979e-03,1.227756697037971252e-02,2.169704139232635498e-01
2.367112308167254320e-01,3.988648927162150026e-02,2.334118798509755011e-01,5.199055887660210262e-03,2.348044369529272339e-04,-8.928899000469442101e-04,1.954101324081420898e-01
1.656390308687303858e-01,3.623845892179203276e-02,3.155483805283296750e-01,-2.923566045692822107e-02,5.351899260466214114e-02,1.221699475491171832e-02,2.649914324283599854e-01
2.084039953359914654e-01,3.346111569597381985e-03,2.102622581301310245e-01,9.104656449770501259e-04,5.571399652659029134e-04,7.061730737695810908e-04,2.060052305459976196e-01
2.174611382246539326e-01,7.500825329815080655e-03,2.143118745590211760e-01,2.426958336105757702e-03,5.544812609785002098e-04,7.028089932409570077e-04,2.084516882896423340e-01
2.069041785048081894e-01,1.942876081088285023e-03,2.147714844910023901e-01,1.582145201483273721e-03,-1.542747466999697505e-03,4.763175438224753928e-03,2.092038094997406006e-01
2.215238380271134788e-01,3.009104121411143584e-04,2.189075228568121700e-01,1.624084881498629113e-03,7.353947081624688780e-04,6.434905144154231616e-04,2.199509441852569580e-01
2.134634268181727079e-01,-2.680010477690342174e-03,2.156513294761907285e-01,3.760074422605123715e-04,1.469997587194251569e-03,4.326241910342698885e-04,2.172628343105316162e-01
2.170521561235444485e-01,1.229736221246804928e-02,2.214793748238174931e-01,5.438022613970956362e-03,-4.792599450478977723e-03,5.973091490503357366e-03,2.076421827077865601e-01
2.285521390058179725e-01,8.293390912306547458e-03,2.271462656020505899e-01,3.791463391668605225e-04,2.178435447956794321e-03,-1.008137153218683496e-03,2.195995301008224487e-01
1.597958630437573690e-01,3.411324893258932400e-04,1.646526983882650175e-01,3.038814217196353275e-03,-4.946728788318020820e-02,2.294535205830807150e-03,1.833258867263793945e-01
1.678732044411547220e-01,2.087111956841930516e-02,2.180111587733295497e-01,-2.865111991595325428e-03,5.612575411718013357e-02,-4.727107571605894919e-03,2.025728821754455566e-01
1.220351008788144870e-01,4.484609172299136581e-02,3.448726370881203263e-01,-1.628363312343710304e-02,3.172025219356321146e-02,-8.641538190664955002e-04,2.768240571022033691e-01
2.190370291294289062e-01,-2.898385002452513737e-03,2.211148450962322487e-01,-4.692387607483463935e-04,-1.200850445534370949e-03,1.552985795204636730e-03,2.230089902877807617e-01
1.835093603081577041e-01,7.337786173389843070e-03,2.208067886545516390e-01,-7.115359081261119715e-04,3.717274853814931095e-03,5.521179012674340067e-03,1.978198438882827759e-01
2.039929240852124959e-01,8.712264284140736059e-03,2.196767183522297384e-01,-2.444441708783072053e-03,1.941735137628932979e-03,5.674620007555788471e-03,2.038850188255310059e-01
2.018929505167170180e-01,8.502302292158259167e-03,2.053329712150438746e-01,-9.947239935603432483e-04,3.614232233385011612e-03,3.032332643944102030e-03,1.953120231628417969e-01
2.098633503805778511e-01,7.751908623988862379e-03,2.134967701568319942e-01,-3.623452778797013954e-03,4.696080898357643529e-03,3.560506686470199002e-03,2.043041139841079712e-01
2.121091602186582492e-01,4.023065551735159617e-02,2.211004605714356197e-01,-9.258917787598264573e-03,5.467901554185792407e-02,1.488848526260911839e-02,2.026327848434448242e-01
1.295708794166270661e-01,2.256799150593467862e-02,2.574535262428363502e-01,1.356195167343327707e-02,3.866766328889990195e-02,-4.177530199932391435e-03,2.158172875642776489e-01
2.026934880458735599e-01,-5.416724118088023232e-04,1.818785944326169468e-01,-5.821226590301226828e-03,4.266590905782774966e-03,3.473085115495131575e-03,1.941646933555603027e-01
2.178470472597903163e-01,3.852164970654492482e-03,1.978225236129784181e-01,-5.931338397344120689e-03,2.380834477886396329e-03,4.497151990979271312e-03,2.051654607057571411e-01
2.158318762671848634e-01,2.587343815357856514e-03,2.070081786213100461e-01,-4.678947276672001422e-03,2.205914245712482270e-03,1.498702310843324365e-03,2.091805338859558105e-01
2.014514886332429977e-01,4.774448563828470604e-04,2.010639400929307152e-01,-1.038372359393768471e-02,1.527791560926117752e-02,1.030404968147046775e-02,2.040957063436508179e-01
3.231348798457793770e-01,1.572608323906476979e-02,1.086653438718948317e-01,1.717973733107523498e-03,-1.345059233462182063e-02,-5.399546120688604803e-03,2.742382287979125977e-01
2.303080563017654570e-01,1.284016269246913977e-02,1.443163565210343613e-01,1.019500570151965360e-03,-1.541884937159843528e-03,-5.948232141607087730e-04,1.897306889295578003e-01
2.346229108221954129e-01,1.252913003781758183e-02,1.863459088033555255e-01,4.791378228880945229e-03,-2.528555910331989950e-03,2.283857899517858885e-03,2.025783658027648926e-01
2.427490853973396923e-01,2.527184506137927777e-02,1.655989392350501466e-01,-1.092684796158121217e-03,-2.499018567436038681e-03,3.805084945097087206e-03,1.911435276269912720e-01
2.275728319732153448e-01,3.204908637695044749e-02,2.658366312603430703e-01,-2.010913954401002957e-02,2.776186688516923268e-02,1.315413857724312928e-02,2.263173162937164307e-01
2.052506307092825666e-01,4.622021758961841753e-03,2.312043266283214660e-01,-1.430883452652915999e-03,-1.123602189590446662e-03,-1.540698434553380489e-04,2.148080319166183472e-01
1.420330585338497875e-01,-9.477456890817595458e-02,3.366135764722135576e-02,-4.433450712710881002e-03,9.668047185900645324e-02,-6.626957640708384077e-03,2.653131783008575439e-01
2.125750199384717765e-01,5.894327870068744035e-03,1.746611541117450705e-01,5.748489361711718593e-03,3.153177449410988521e-03,-9.154032167853036472e-03,1.915689408779144287e-01
2.218296245508593612e-01,1.282311824459314575e-03,2.203813203477756333e-01,-3.926612240153022799e-03,-1.184437947332613549e-04,2.705276245639201636e-03,2.199819236993789673e-01
1.784842102323815349e-01,-7.005201710663544468e-03,1.875033076392991493e-01,-2.640530654225589982e-02,5.696514494370899517e-02,3.235416653317208652e-02,2.261145561933517456e-01
1.336562313861787421e-01,-1.782535715649188890e-02,2.110048219212071197e-01,-4.079617239924791805e-02,5.761972120865078983e-02,1.190368424327932495e-02,2.366950213909149170e-01
2.610676857372626336e-01,5.105791357576122680e-02,2.568416058694714121e-01,1.660464603130322328e-03,2.184891800719256962e-03,2.560826235150153243e-03,2.080305516719818115e-01
2.265967985398242290e-01,5.730893470249076582e-03,2.265607447204465164e-01,-4.438337330709644230e-03,-3.084506020348381714e-03,2.740368331233003236e-03,2.210971564054489136e-01
2.329669445178839671e-01,5.723388107371468747e-03,2.277022008113167018e-01,2.000534522514160672e-06,-7.577245217010305589e-04,4.569342849199535886e-03,2.248006463050842285e-01
2.360471001345389730e-01,3.224915125685648420e-02,2.362239991023599162e-01,-1.833012459266235251e-03,-3.507917919763449584e-03,-1.794753592210035411e-03,2.040253579616546631e-01
2.355690040244542982e-01,1.077202104007668471e-02,2.310810184991127780e-01,-4.403958702213009446e-03,-2.381846993260552329e-03,4.761191378588880418e-03,2.229083925485610962e-01
2.283728519671005541e-01,4.228363238004712032e-03,2.342554418736768063e-01,-7.528879894457270552e-05,2.063902518549170020e-04,3.009353591112683309e-03,2.272030413150787354e-01
2.321021312381732482e-01,2.483509863450783506e-02,2.399683024649162388e-01,1.312012336090955834e-03,-1.238922876147895711e-03,-3.300637819668623268e-03,2.114103734493255615e-01
2.039642290357205068e-01,-8.646189503154128042e-03,2.159810560455432404e-01,-2.979005626158119559e-03,2.776973528417070371e-03,4.018127683758066469e-03,2.190905958414077759e-01
2.184975044501266117e-01,-1.659482748331081448e-03,2.129897653907517618e-01,-4.194412910182193296e-03,-3.775607226230373462e-04,1.981022109910831989e-03,2.176048010587692261e-01
2.789179517676749764e-01,4.912918284698380988e-02,2.372848877209408347e-01,1.550525091109966440e-02,3.012141164144946717e-02,-1.976586751290395141e-02,2.226759642362594604e-01
2.309253735683224340e-01,8.839183278770285090e-03,2.301518684767139278e-01,-4.175753710292110974e-04,-3.709079062238032978e-03,-2.832703773284202558e-07,2.217946946620941162e-01
2.230621893265616329e-01,5.342272926005531275e-04,2.131061332004585696e-01,-5.756395095592723062e-03,-6.778429351494382089e-03,-1.091378445748377758e-02,2.190819382667541504e-01
1.686690956675098441e-01,-1.148855076235194561e-02,1.930668559763304981e-01,1.810127567224570702e-02,3.358159526031943842e-02,-1.236870195110459369e-02,2.056029289960861206e-01
2.229075122284632782e-01,-3.864423494381236113e-03,2.199145644334927208e-01,2.272755414010103545e-03,-3.024363014411975809e-04,-8.707859339314461813e-04,2.253304123878479004e-01
2.182628207964109057e-01,-3.578456382538452996e-03,2.186661999130932177e-01,1.653999683059268616e-03,-2.973036964237138051e-05,-9.030844665299216437e-04,2.220672369003295898e-01
1.735587500237304459e-01,-1.205803292869819798e-02,2.161225705376841888e-01,-1.157227705060615182e-02,1.688224675616442670e-03,-1.561182899631449782e-04,2.111307829618453979e-01
2.269681877965346040e-01,5.950349980694824570e-03,2.298845273532523215e-01,-7.017199945283974691e-05,3.268843341408010812e-03,-1.665011109310113140e-03,2.225810885429382324e-01
2.320024821574882545e-01,1.688121373767884070e-02,2.368316683956567525e-01,-5.997665936691295389e-04,5.477940868519609249e-03,1.810779431017689413e-03,2.178079038858413696e-01
2.243319627006876149e-01,-1.398415270757513706e-03,2.272632680485552892e-01,-2.525628868788834958e-04,1.423397335454664988e-03,-3.454870287275088776e-04,2.272247970104217529e-01
2.393435423962752828e-01,4.313143165550600844e-02,2.385107583789422558e-01,3.365260336303415364e-03,1.750744325956692451e-03,-6.313150849121154477e-04,1.959103047847747803e-01
2.330327598766749886e-01,1.022229891963538639e-02,2.261080411608161755e-01,1.152762899167351137e-03,1.513360377073962384e-03,-4.333315770976961978e-04,2.194560915231704712e-01
2.675025253028480710e-01,5.365424488903858258e-02,2.588425050986046805e-01,5.122237934272811863e-03,-8.077999913981337432e-03,-5.918731526323522951e-03,2.105557471513748169e-01
2.215831804687618811e-01,1.333116415070112470e-04,2.265810727110874057e-01,-5.474828254620225237e-03,1.854128318591853229e-03,-4.809460204669051449e-03,2.243689596652984619e-01
2.395146091436954061e-01,1.914662419440604779e-02,2.390022779098865124e-01,1.181951396560030352e-03,5.776702301652396516e-03,9.326852369628199635e-04,2.203549891710281372e-01
2.144906238956929001e-01,1.583662084274678472e-02,2.292859316094425504e-01,-4.363669933534437828e-03,-5.211113800981538764e-03,-6.570058740018782512e-03,2.070979177951812744e-01
2.213901632770300387e-01,-8.473130758254843187e-03,1.744754992024888096e-01,-6.689890023442246828e-03,-1.802691655806323498e-02,-2.494254433824762487e-02,2.173240035772323608e-01
2.120119963360806437e-01,8.489568489584473077e-03,1.550935902824681634e-01,8.091795966872901771e-03,-1.432983284347676828e-02,4.803409450270631348e-03,1.842785775661468506e-01
2.428527298234188225e-01,1.557810659796429742e-02,1.816263298736360277e-01,-2.180905008164531623e-04,2.636572616188407811e-04,1.609040926455208072e-03,2.037040442228317261e-01
2.226045161613509071e-01,6.573735600554020397e-03,1.669052710801817996e-01,6.607279496393372344e-03,-4.166008887471892540e-03,7.652032366533277272e-03,1.951861828565597534e-01
2.753790352670593689e-01,4.487909298047536300e-02,1.883106667493228137e-01,-1.102172611080145907e-02,-3.610571659560199431e-02,-1.373094817318730280e-02,2.132669538259506226e-01
2.824272202366383544e-01,6.084814348563594155e-02,2.541555982068872677e-01,1.427484957692502039e-03,-1.223852967119863980e-02,-4.199510035967230111e-03,2.100964933633804321e-01
2.375878959438189886e-01,5.636853928107163347e-02,2.431790900023630964e-01,-1.341813227966745384e-03,-2.547849789473213833e-03,-2.427097715671903272e-03,1.841941773891448975e-01
1.497333949204208425e-01,1.605375927405450209e-02,2.326676831430521952e-01,1.939466112940267098e-03,-7.195748462529144400e-03,-1.856596528059587881e-03,1.897680908441543579e-01
2.101339237779113467e-01,3.501161386184115099e-03,2.060688322122484484e-01,-7.245763577088709835e-03,-8.257260870748659581e-03,-6.976580734473914434e-03,2.058681845664978027e-01
1.802240806625756142e-01,2.096298867685481015e-02,2.217690160100528884e-01,-5.127583021685396328e-03,-1.828548065107577988e-02,-4.426598112783151212e-03,1.866743266582489014e-01
1.713450373154896955e-01,2.805704496897142020e-02,2.429484235522779423e-01,-5.027806813328455915e-03,-4.833190042553992677e-03,-1.399620806063309924e-03,1.899215430021286011e-01
1.741573109686704035e-01,2.290301295208128918e-02,2.327121774967189638e-01,-4.401104549703976215e-03,-2.389587092582905192e-03,-3.641625548227268167e-03,1.878250092267990112e-01
2.090438525055702268e-01,1.306377480360347565e-02,1.826292218960913760e-01,1.842135993973052690e-03,-9.512793879537208286e-02,-1.683194083804567462e-02,2.488720118999481201e-01
2.119733054996066346e-01,-2.269079692651304603e-03,2.215320035301602264e-01,-3.389972112126829300e-03,7.497414594825690210e-04,-5.391634769596755430e-03,2.194593697786331177e-01
2.062823077192458554e-01,3.472981143579356722e-03,2.252447424914431617e-01,-2.431714412177408621e-02,2.024341167358522167e-02,2.055603473937729284e-02,2.227284610271453857e-01
2.410740792660709952e-01,1.803282107343606722e-02,2.424234822435601677e-01,-2.262721230708643685e-03,1.841705374382352254e-05,4.892238482182998532e-04,2.237549424171447754e-01
2.161822989179389976e-01,-5.920330398246825832e-03,2.200682167130673106e-01,-3.953542841197140584e-03,-5.709499089090728542e-04,3.564913572993182699e-03,2.242626696825027466e-01
2.268249699238815142e-01,-4.757954453081832125e-02,3.817068047321116320e-02,2.804332979824708874e-03,4.628849141410878998e-02,-2.007982147407867332e-02,2.584216594696044922e-01
3.127004871080890647e-01,1.879296533260702007e-02,1.111230538850697114e-01,1.112721520157308915e-02,7.011658790928695928e-02,-2.104462813569368818e-02,2.902051806449890137e-01
2.170120848740915709e-01,3.936681615864384698e-02,2.482440542358828883e-01,6.245295761173674104e-03,5.982087617618683101e-02,-7.711943983289180730e-03,2.216134816408157349e-01
2.484407398324881000e-01,2.874280608027039718e-02,1.527956895999101894e-01,-1.932034028604111492e-03,8.204335689146857735e-03,4.569143231521409151e-03,1.915147602558135986e-01
2.045895903842580577e-01,1.560471524919294917e-02,1.886171610269609944e-01,3.362460332622840137e-03,6.124477344061850757e-03,-3.028367328544221467e-03,1.820049881935119629e-01
2.348106659180197453e-01,7.336625691941212057e-03,1.548094946149019269e-01,2.405231771614035549e-02,5.574946086418045704e-02,-3.052952854526307450e-02,2.319528907537460327e-01
1.863579158156685733e-01,2.110356146859443394e-02,2.422704311600278326e-01,1.284770550671538933e-02,-1.265234033348661830e-02,4.810329307259803011e-03,2.017915993928909302e-01
1.869628955770070711e-01,-1.248197911889038780e-02,1.518547429654916736e-01,4.053622386619775038e-03,5.392219192820923990e-02,-1.570107598806945795e-02,2.086153775453567505e-01
2.089244613964882924e-01,2.247812040286373270e-03,2.223071332974626557e-01,9.015282580055775877e-04,4.761739072059968311e-04,-5.312659734216733376e-03,2.138878405094146729e-01
2.190776210781916755e-01,3.011151485188059973e-02,2.704172304525092052e-01,1.937046116632577114e-02,1.777217477014466154e-02,-9.058583868686253399e-03,2.244209498167037964e-01
2.298761522782647448e-01,8.768537700573425520e-03,2.377457372068062513e-01,1.282217114517631264e-03,1.691450699051813989e-03,-2.173037491509468167e-03,2.252070456743240356e-01
1.317555073336880433e-01,-4.888286293507362879e-03,2.307367273052735590e-01,3.823545465468497495e-02,-3.680704914643913306e-02,1.903325894076587574e-02,2.270041853189468384e-01
1.824047295860713458e-01,1.244058627216837465e-02,2.432494124682760828e-01,2.011945760063800319e-03,1.179629418684927837e-03,3.565224494632979733e-05,2.072380781173706055e-01
1.821010989010983794e-01,-3.254229920676338095e-03,2.277163692224292713e-01,9.739458883533386527e-03,-1.307287931050503480e-03,2.230586626151393869e-03,2.125958800315856934e-01
1.971376891851581714e-01,-1.216502151801537868e-02,2.164145036556200385e-01,1.068060715834440351e-02,-2.412674610511045866e-03,5.031806429695879351e-03,2.205664366483688354e-01
2.215596317547103566e-01,-5.820231311665896579e-03,2.067269145814966125e-01,-3.861476217216674306e-03,1.166676145487571164e-03,3.664895528420661006e-03,2.205403894186019897e-01
2.188999487058607696e-01,4.301348844319374809e-03,1.912385003157883456e-01,-8.292467868425813446e-03,6.389469380910562692e-03,4.981141134747991972e-03,2.031866461038589478e-01
2.271677701905431834e-01,3.990316646949432222e-03,1.882294453461191841e-01,-5.667771471541487548e-03,1.828279869062161790e-03,5.467863583557950984e-03,2.069548368453979492e-01
2.204704878360716491e-01,-4.963557014324854189e-03,2.163210668737437226e-01,-3.533594095966367810e-03,-2.298415836328298264e-05,3.040059296508105299e-03,2.235340923070907593e-01
2.242942340333854701e-01,-7.320541014114445577e-04,2.248150603381175450e-01,-3.212051813012729243e-03,-2.131928481818037673e-03,2.703756496132602750e-03,2.254347354173660278e-01
2.268854957423613594e-01,2.167192307311799349e-03,2.034284958697443746e-01,-3.392903515492112602e-03,1.641615502165540618e-03,1.338874789298687704e-03,2.140685170888900757e-01
2.446081152654872026e-01,3.527372258844482800e-02,2.487938880858077129e-01,1.378817636043603917e-03,-3.905942508500925316e-03,-2.825591160095926660e-03,2.116366177797317505e-01
2.741790226208478121e-01,1.222511062530970416e-02,1.595035513408105954e-01,-6.708862235732431303e-03,1.074716220074365125e-01,4.582706862635090028e-02,3.046579360961914062e-01
2.416476158170553501e-01,1.065142499418950117e-02,1.981786136146249100e-01,-1.390504938830563857e-02,2.744591950304036895e-02,2.618235524244362858e-02,2.238393425941467285e-01
2.449591918927093159e-01,-1.427630824810771637e-02,1.042463463430102349e-01,-3.156705633107329684e-03,5.448540397658403582e-03,2.678661145798164056e-02,2.297757714986801147e-01
2.180615897008894855e-01,-1.466727549511534501e-02,1.949762541830876994e-01,-7.418941253088514633e-03,3.711053072855020809e-03,1.271519777721089213e-02,2.236392199993133545e-01
2.335792050246607854e-01,1.501324577752588540e-02,2.076112417931202381e-01,-5.109258466418255783e-03,4.384916609835500662e-03,8.263301259920325520e-03,2.076307833194732666e-01
2.117344940027761635e-01,-7.680463812656818101e-02,2.102481882963950777e-01,-2.187440241615175480e-03,-1.338021395464370888e-03,1.394171515943406874e-02,2.888442873954772949e-01
2.400489284431674142e-01,2.231856771073763290e-02,1.684175495621231811e-01,7.810773639823589097e-03,2.317660067057125337e-02,-1.348179037206513262e-02,1.981943547725677490e-01
2.141575380688816033e-01,1.609558963738544346e-04,1.942674878288741802e-01,7.145901819261549735e-03,2.360558768434082005e-03,-5.836422744182436992e-03,2.054406255483627319e-01
1.868077763348948428e-01,1.006679407620580946e-02,2.280206855487889872e-01,1.353270007906398273e-02,3.632835636505545723e-02,-1.160504003715452995e-02,2.124442756175994873e-01
2.236285192791085119e-01,2.459008813833818419e-03,1.485069849952268262e-01,7.800547137991224907e-03,1.113252031397696414e-02,-6.686926366189618713e-03,1.965530365705490112e-01
2.281403260398388311e-01,6.667757794981521435e-03,2.324503870563489061e-01,2.951112049496778622e-04,-1.765039645764257103e-03,-3.453041148313787043e-03,2.237601727247238159e-01
2.133080421539672034e-01,8.490587288116163700e-03,2.223514730774032166e-01,-2.286435033626392499e-02,1.674004689683044819e-02,1.132237237313015073e-02,2.160505503416061401e-01
1.847610681047552605e-01,1.632220921856328277e-02,2.395037973358419836e-01,-1.760093762036393306e-03,4.111460377902807078e-03,2.606230345747012796e-03,2.016670554876327515e-01
1.933503939441998387e-01,3.659125454168590807e-02,2.817018126143049916e-01,-2.245068761227148046e-02,1.160337768261350024e-02,5.519858344152073042e-03,2.196285873651504517e-01
1.686813944793431885e-01,-4.323033371825019122e-03,2.243721210466933513e-01,-1.016117770865753410e-02,5.352352211577367062e-03,4.507673479243065606e-03,2.076617032289505005e-01
1.812205343249886913e-01,-6.662788753365594951e-03,2.193847910912088139e-01,-9.049014273646139792e-03,2.055462807938372542e-03,6.196629058378610479e-03,2.104770839214324951e-01
1.879160581118529960e-01,8.742209793821398289e-03,2.202205606374394997e-01,-1.895084446224033639e-03,4.983025655244732906e-03,6.278054507268635877e-03,1.978344768285751343e-01
1.585112871011261082e-01,-7.416359861330296122e-03,2.125937352996412066e-01,-1.703321087016076291e-02,2.643695690538283224e-02,1.366553254419163380e-02,2.072632163763046265e-01
2.042047926734998353e-01,1.418200387673579366e-02,2.541094360903954907e-01,-1.596317581811665734e-02,2.680381066316784439e-02,1.332679140940695381e-02,2.270126938819885254e-01
1.960007764884637571e-01,5.889549245957081958e-04,2.199172500878454894e-01,-8.535336389584589553e-03,1.093363524966781651e-02,6.905545984962031987e-03,2.101227939128875732e-01
2.362780381539109353e-01,1.838657905259963310e-02,2.327986892478062786e-01,-1.935326252866137768e-03,5.047908060233785230e-03,1.289390263201544394e-03,2.163870185613632202e-01
2.415845831758303697e-01,4.467889172443453849e-02,2.408980862667306488e-01,-3.412639074930464908e-03,5.249735834252967220e-03,-2.976239735352453723e-04,1.968629807233810425e-01
2.621485671649070870e-01,4.358159254034130181e-02,2.787610820976614834e-01,1.673533230199593380e-02,-1.645820088133888304e-03,3.968626310896923061e-03,2.292902916669845581e-01
2.273768569064418543e-01,3.182378850610984022e-03,2.292928007205117247e-01,8.487647673695789116e-04,3.163540330582163482e-03,-1.827123613245318671e-04,2.252302467823028564e-01
2.206142423943570907e-01,2.395340121383393583e-02,2.074414881370902908e-01,6.707321305793378929e-03,-9.791402160325377371e-03,5.865493961535037624e-03,1.917921602725982666e-01
2.087075714682118943e-01,-4.600160491592425460e-03,2.192733395880797076e-01,2.620850317102608150e-03,-4.135466347307671740e-04,4.358886484004055768e-03,2.189605087041854858e-01
2.403031462800416795e-01,1.872054077702384189e-02,2.312100228573676364e-01,4.408208008481850904e-03,1.356152087357037845e-03,1.003038130532443918e-04,2.173257917165756226e-01
2.319421871059224594e-01,6.949426832736388393e-03,2.320198709795765202e-01,1.717356816234967597e-03,4.542254677266524023e-03,2.375907720594763891e-04,2.251891195774078369e-01
2.417055172703078680e-01,4.506879958307732914e-02,2.627057383966980852e-01,2.363402876644175865e-02,-2.809646562926397528e-02,1.719351820836228714e-02,2.194702923297882080e-01
1.805292247350855361e-01,-7.467381220552238297e-05,2.233004599336095297e-01,-7.449495321893576452e-03,-4.700013328659385578e-03,-6.014908794886193559e-03,2.061870247125625610e-01
2.188621599500522041e-01,-1.184067780345349208e-02,1.823611908348125588e-01,-5.311769618002638686e-03,2.754815431113821593e-03,7.848082895100198103e-03,2.154702544212341309e-01
2.209162088485167319e-01,-2.866997798813580856e-02,7.511528978328926853e-02,-1.595950674857592871e-02,3.442084630814915697e-02,3.933481608475483671e-02,2.368996888399124146e-01
2.327891686904646762e-01,3.266469060241261602e-02,2.435285861855823186e-01,4.251511952155584764e-04,-9.655386790529068381e-04,-3.779389534357063124e-03,2.058167904615402222e-01
2.276632399713406918e-01,9.851975020868181110e-03,2.326820525520984506e-01,5.879009952577856149e-04,5.977161701527109123e-04,-7.248416695215908860e-04,2.203719019889831543e-01
2.393547479476756945e-01,4.380065697724933038e-02,2.371897069979249650e-01,-2.638752584706310564e-03,3.943447546409756081e-03,-5.337600131910430782e-04,1.946563720703125000e-01
2.367628778460979522e-01,1.427187245964145479e-02,2.324747268220398178e-01,1.962245671081031071e-03,3.861628102322589833e-03,-4.909780259060282865e-04,2.205075323581695557e-01
2.361451699664687542e-01,1.972614445951187401e-02,2.435726327176979122e-01,3.402305763734109374e-03,6.706758737137746406e-04,-1.827393608957969410e-03,2.203313410282135010e-01
2.571502950637981066e-01,4.678992486767230563e-02,2.478461459843450676e-01,-3.024089598126113946e-03,3.093636130286717047e-03,-4.303112291851032487e-03,2.061371505260467529e-01
2.416803266056232191e-01,4.154819142722404601e-02,2.494213476220645542e-01,7.564308268166719789e-04,-7.928534385874376825e-03,4.311218991002524308e-03,2.047146409749984741e-01
2.419719372146483527e-01,4.683634777311992958e-02,2.670038562540791860e-01,-1.008791096696516447e-03,-7.665176246004118225e-03,1.153569259605647518e-02,2.101610004901885986e-01
2.418129538188401040e-01,2.936914452942296361e-02,2.676503818048958649e-01,1.482329174264629054e-02,-8.117618132291316846e-03,3.555604587272357883e-03,2.284376323223114014e-01
2.050056561390026788e-01,-4.520145528126612300e-02,1.003283127579433776e-01,-1.213696271119680745e-02,-4.290614984173921759e-02,-3.793814960865381919e-02,2.401094883680343628e-01
2.197446807815055247e-01,-3.201117975385886494e-03,1.834546999357850317e-01,-6.084412437260961794e-03,-2.903019764217888363e-03,-7.239174658145166967e-03,2.079053968191146851e-01
2.273664720406211592e-01,7.925866680820181642e-04,2.261567366389877765e-01,-2.561151004728312152e-03,1.144415338842712324e-03,-1.385712130363423063e-03,2.260364145040512085e-01
2.115677554872196220e-01,-3.224816704666400025e-04,1.960479880150692855e-01,-7.094694280178844015e-03,-2.264828849547666570e-03,-4.702027886563099092e-03,2.051403671503067017e-01
2.392617397926894984e-01,1.299458747689324900e-02,1.927718293771005509e-01,2.187292851233675530e-03,2.297637998738544934e-03,-7.571046558340932195e-03,2.074636071920394897e-01
2.151670059507762855e-01,-5.798069247886024347e-02,3.395698763440843648e-02,1.891931294968001234e-02,4.761027784655608164e-02,-3.872842777862981617e-02,2.651855051517486572e-01
3.729983546760828883e-01,6.605841312307378366e-02,1.665951546481436729e-01,1.218061401430913307e-02,4.204557393588340825e-02,-1.931668832466050187e-02,2.834237515926361084e-01
2.332321616274073695e-01,3.695008839341679119e-03,2.265056805127015904e-01,-8.400521499705935471e-04,2.532365426511130630e-03,-6.582639412544111874e-04,2.262989729642868042e-01
2.104226196586053699e-01,-2.198190997983440198e-02,1.616839075195808384e-01,3.534544052499218980e-04,7.239664119362584742e-04,-1.309453460036401166e-02,2.134867161512374878e-01
2.200029418588435037e-01,-1.133390196650821413e-02,1.698332355613545452e-01,-6.202617297368132401e-03,-9.059993206485827261e-03,-9.592170856715334648e-03,2.122859656810760498e-01
2.332352371597690710e-01,7.768629493752898796e-04,1.527857464562319689e-01,8.424984639025679539e-03,3.020614579109970679e-02,-4.703609145230931016e-02,2.267051339149475098e-01
2.200783543897056327e-01,-3.361648495423960603e-02,1.359749961966197629e-01,1.124488044892923977e-02,3.377313353252853895e-02,-4.105205697252616720e-02,2.428062707185745239e-01
3.579269570802756650e-01,8.706505156738736373e-02,2.999102764787008324e-01,2.409966435935925050e-02,1.468557253158308228e-03,-2.088934926425794689e-02,2.531314790248870850e-01
2.836459960046783246e-01,2.313233504190712053e-02,2.475319541830293679e-01,7.233059790640924275e-03,-1.179698742193051493e-02,1.753617085562308650e-02,2.475083917379379272e-01
2.270106617464870968e-01,-3.362575701689957119e-02,1.697602912317551505e-01,-7.421526551357945749e-03,8.075517914865982388e-03,3.658167877677132029e-02,2.462985068559646606e-01
3.853605645382423006e-01,7.705177526450651682e-02,2.683747386264055956e-01,4.405991881216826667e-02,5.828570985569814060e-03,3.240175491490232540e-02,2.859153747558593750e-01
2.575865627962706794e-01,5.674713160583236271e-02,2.825494913016107779e-01,6.148048325270175779e-02,-1.120024447481331349e-02,2.132435963630466627e-02,2.430087178945541382e-01
2.417195214095536060e-01,3.052468105428041145e-02,2.395042239245337434e-01,-2.962940512546543247e-03,-1.379777007931038205e-03,2.338618596758396866e-04,2.101725935935974121e-01
2.203035134536684980e-01,-5.377801011605842785e-03,2.233362656885315434e-01,3.723886077302324300e-03,-4.701728416626093829e-04,-1.920901407740686516e-03,2.273302078247070312e-01
2.019714456337394770e-01,3.350549712455963558e-03,2.562622821547538288e-01,2.030782524246075790e-02,1.273668479483796440e-02,-3.007399539568565185e-03,2.343759238719940186e-01
2.484740490452711503e-01,4.899138815630169064e-02,2.460854668179164872e-01,-2.914650708739622079e-03,-1.623133573741705098e-03,2.268260023276135601e-03,1.984222233295440674e-01
2.321168014454583206e-01,1.380862188765374921e-02,2.262741115234556954e-01,2.564494790056270901e-03,6.873496694808734842e-04,-1.075925767479853469e-03,2.155033946037292480e-01
3.144427254227734059e-01,3.762006143903362521e-02,1.808134464770354000e-01,3.834876759503502708e-03,5.658958362249828095e-02,-4.597621978495445433e-02,2.710879147052764893e-01
2.221942849501055139e-01,-3.304790069144192266e-03,1.848156585578197841e-01,5.367582198566962434e-03,2.848151756008551489e-03,-5.824663158196234647e-03,2.098349332809448242e-01
2.283705130368883229e-01,8.056421152072557046e-04,2.093451123523681900e-01,1.286259383683901591e-03,-9.813765171719152688e-04,-4.423746621057902256e-03,2.188259214162826538e-01
2.715201971528067859e-01,6.836277070921020771e-03,1.238179360840072074e-01,-5.749633153674701090e-03,-1.537411334931374288e-02,-1.869434959144689393e-02,2.337430715560913086e-01
2.015371306520124250e-01,1.615885362601691966e-02,2.037659962454494988e-01,3.408929639330320559e-04,-1.678622166011025946e-03,5.894522325939660808e-04,1.865290850400924683e-01
2.040970022428293951e-01,3.488680349120393265e-03,2.064433886606414636e-01,3.770756277221915670e-03,-2.228904265488402398e-03,2.112916332354786327e-03,2.019674777984619141e-01
1.743568381689646341e-01,1.668964671838117642e-02,2.304438335912348534e-01,3.927738023695256757e-03,-5.345188001711551756e-03,7.076934698201757697e-03,1.926915049552917480e-01
1.955884557128598766e-01,1.153854035064026673e-02,1.986482853557671180e-01,-2.418230951687553416e-04,-3.486496614139025178e-03,-1.523704437847775688e-03,1.857161819934844971e-01
2.024765740772445921e-01,1.636286721178099868e-02,2.040966179047693507e-01,1.144896517404644476e-04,-6.964410804118888534e-04,-4.618894756442115668e-04,1.869347095489501953e-01
2.015893428506690399e-01,1.305296752947196492e-02,2.024760367286104756e-01,-3.494136185981875091e-04,-1.991998491340053257e-04,-2.257040382631261534e-05,1.889825761318206787e-01
1.741576314228266142e-01,-3.834795726680439998e-04,1.954651415336446929e-01,5.373662499352012401e-03,-1.970044625080383249e-02,6.403572704851340225e-03,1.897672712802886963e-01
2.017506608151552472e-01,1.561323130726169350e-02,2.054387540044027294e-01,2.269040728884970989e-04,-1.846514084020428907e-03,4.701983554238237952e-04,1.880379766225814819e-01
2.058499740084176188e-01,1.737568849586547393e-02,2.037639487085508294e-01,1.926838146081625257e-03,-6.219373655698190451e-03,2.261893722487611901e-03,1.878197938203811646e-01
1.688105681913823763e-01,3.444064859126372280e-02,2.696651895245358865e-01,2.150111193290734496e-02,-1.346102553491206749e-02,2.599795225767293980e-03,2.091160565614700317e-01
2.120181669529185020e-01,8.193376393085399778e-03,2.098812243620054585e-01,2.603032865431444305e-03,-7.516529791659741109e-04,1.023686125673361688e-03,2.028268128633499146e-01
2.262113973545090695e-01,3.199132008843394437e-02,2.210142494009220970e-01,-1.728509590987480429e-02,-5.453775363145531296e-02,-2.051146793346213248e-02,2.186793088912963867e-01
1.669305744642057832e-01,2.536285523728903923e-02,2.666825077254669774e-01,9.603026487145486026e-03,-1.062350855008866064e-02,2.016345832940956775e-03,2.115205675363540649e-01
2.637031067316126243e-01,4.170419328744695564e-02,2.692452300938761311e-01,1.727023484252264776e-02,-1.920905949575799077e-02,8.092992759599631700e-03,2.296580374240875244e-01
2.057714130756771176e-01,4.512528862535863938e-03,2.256749731082042520e-01,1.089315323159556828e-03,-3.015254987603631451e-03,5.437299071850929325e-03,2.121946960687637329e-01
1.857478822936437513e-01,7.074295054242507597e-03,2.179440747729403105e-01,1.782593545200972110e-03,-5.628854839019744281e-03,6.027931536971441531e-03,1.972993910312652588e-01
1.925324662725359792e-01,2.543665894316460285e-02,2.214312728066423763e-01,3.169501802102054396e-03,3.263827707477077317e-03,-3.521945080983573430e-03,1.835329085588455200e-01
1.713634292368365619e-01,2.192735620653869788e-02,2.171350918565128352e-01,2.386247757289906325e-03,1.451968596578729481e-02,-3.378553525730820708e-03,1.787453889846801758e-01
1.889600623205565655e-01,8.785766311448978128e-03,2.170463259395156441e-01,-3.610794528603128353e-03,4.180893780919708869e-03,7.805753179190314840e-03,1.964341700077056885e-01
1.934131911711768903e-01,2.533036912786122696e-02,2.235949427678132762e-01,-2.475573953174694999e-03,4.791896380490434648e-03,3.419599473203150872e-03,1.853595376014709473e-01
1.928767630043534409e-01,1.018003017844554270e-02,2.079596983013735079e-01,-9.064822792500164608e-04,2.386259731014674524e-03,3.619756790310686267e-03,1.908403784036636353e-01
1.947675536997419965e-01,1.680986932532781142e-02,2.105075933912551878e-01,1.918611643748045726e-03,1.458946939902806481e-02,-5.194318586628775790e-03,1.882771700620651245e-01
2.024840429023389843e-01,1.936593741274539315e-02,2.127265450856459239e-01,3.496318889558079970e-03,2.406605206045232120e-03,-1.849113902091160120e-03,1.886187791824340820e-01
1.937688865022376694e-01,-1.634908027430651001e-02,2.187851960044450705e-01,-1.243859086988092187e-02,-5.103828105258365749e-03,-5.884860872603346789e-03,2.251176387071609497e-01
2.050978850222164307e-01,4.437444952977848134e-03,2.309244594675140261e-01,-1.406373410164338082e-03,-1.106749290019497321e-03,-3.127521163233625803e-04,2.147647440433502197e-01
2.307981422951005390e-01,1.680509465225082932e-02,2.261186594054685195e-01,3.138398405036258148e-03,4.040914105573327475e-03,-3.561155265938443452e-03,2.119672745466232300e-01
2.154558877940234152e-01,1.103731596668447446e-02,2.067144831816509210e-01,8.557586361907195890e-03,1.178814888837037902e-02,-9.856879109949720150e-03,2.024957090616226196e-01
2.237535964208290928e-01,-3.303658141751708577e-04,2.207772801962608611e-01,3.891616863518483800e-03,-1.697604954698527825e-03,-9.011251032742020320e-04,2.227376252412796021e-01
2.203998015822811185e-01,-3.026350655670528855e-03,2.158383951828168612e-01,5.653270890332667137e-03,3.735113916384321699e-04,-1.808089017856040785e-03,2.214204519987106323e-01
2.289080305207872035e-01,1.834749175569028168e-03,2.215817769874899867e-01,4.430929020054377547e-03,-1.057482068417543762e-03,-3.513488772223120459e-03,2.237222343683242798e-01
2.135572642750468986e-01,-3.588229992830427317e-03,1.845380873318802628e-01,7.166112906668259223e-03,6.533456254377512096e-03,-4.309278771154999819e-03,2.050139605998992920e-01
2.168742404355473719e-01,5.277186133593930739e-03,2.011353100828469631e-01,7.186911108160587078e-03,2.191098903611858779e-03,-5.610513240155804229e-03,2.048279941082000732e-01
1.935742043761520259e-01,-8.964804999070374869e-03,2.112205828980262823e-01,2.544039053461003008e-02,1.748967225497952832e-02,-9.644036600127858794e-03,2.191936373710632324e-01
2.279112622255591858e-01,7.952793798713109208e-04,2.268224636718370602e-01,8.282541705534488072e-04,-2.655189430917102855e-03,-7.304303566827443327e-04,2.266282886266708374e-01
2.222090590437197921e-01,-1.051456429362829237e-03,2.221149523292601791e-01,7.533733333213618874e-08,1.035577979958922774e-04,4.724407172406890651e-04,2.232150435447692871e-01
2.186858766411338695e-01,-4.546447006783610467e-03,2.197616422323858676e-01,-8.204254301511646396e-04,1.065032548223782523e-04,4.752537789543561210e-04,2.237782478332519531e-01
2.209085228911127075e-01,-3.547291036491873051e-03,2.211606395245589718e-01,-9.862354326753956400e-05,-3.812795689380240900e-08,1.646559575994774034e-04,2.245822250843048096e-01
2.219504971605407717e-01,-1.566828724922142424e-03,2.225317576012534881e-01,-3.824241418812861486e-04,-6.432400200912829135e-04,7.154848650814733162e-04,2.238157093524932861e-01
2.221288405867017368e-01,-1.264793837911393215e-03,2.204846392024847335e-01,-1.451066775804154847e-03,-1.251557617667035667e-04,7.033779719099560917e-04,2.225937247276306152e-01
2.168487341349369379e-01,-5.834413063260518451e-03,2.172594139179287731e-01,-3.399882253694690160e-04,-5.902514239256698532e-07,5.969159747276813269e-04,2.228919416666030884e-01
2.420463714474874184e-01,4.174950086786195780e-02,2.080734399833613912e-01,-1.596831815519592773e-02,-4.415087383302036123e-02,-2.090801083045460210e-02,2.058946788311004639e-01
1.152748965199035525e-01,-6.894636705968887336e-02,6.556790317684767222e-02,2.272309868557910624e-03,-9.480193539605356878e-02,-3.882213520589868983e-04,2.328719347715377808e-01
1.978638897208061520e-01,3.739835681240449849e-03,1.854797005417490041e-01,-1.228764418096273993e-02,-1.058791699782108270e-01,-1.543193143333491252e-02,2.650132775306701660e-01
1.362660404981779760e-01,-5.563696914993292164e-02,8.764006886936479002e-02,-1.508184503555537286e-02,-8.570328096846244192e-02,-1.879446933172466278e-02,2.315966784954071045e-01
2.202267460196204174e-01,2.142813920599340172e-02,1.820069007797791294e-01,-1.266829739847027741e-03,-5.439024487822350859e-03,2.351768053754630966e-04,1.829680800437927246e-01
3.000527677995649123e-01,8.735850309287529480e-03,1.185689347757045570e-01,-5.636115969186418322e-03,-5.650335172918217325e-02,-1.781042894992824685e-02,2.748771309852600098e-01
2.313201911663975152e-01,-5.067915018320656717e-03,1.730167621803550271e-01,-5.323064945268823900e-03,-7.077571256071744487e-04,-1.058503297048177076e-02,2.142872512340545654e-01
3.383923413432137206e-01,4.189280357176486391e-02,1.561135264202518080e-01,-1.865474252993405344e-02,-3.150610372238231427e-02,-2.796252290971934854e-02,2.710342705249786377e-01
2.363344797331132230e-01,-1.180049649848941007e-02,1.711614596373693398e-01,1.203295058349549860e-03,1.462861966535846173e-02,-3.734976503747224064e-02,2.334055155515670776e-01
3.102937079940437659e-01,4.920244714381605267e-02,2.364516422429973619e-01,4.987718933678149044e-03,1.698646332368218548e-02,-2.443532209442453654e-02,2.389001548290252686e-01
2.321261479090533930e-01,2.422997789372022259e-03,1.696730389681763151e-01,5.722000460273292226e-03,7.269645276517630768e-03,-1.072384513574614791e-02,2.071714848279953003e-01
2.367354697008748621e-01,3.221328441693682709e-02,2.429355351296829113e-01,5.143523193405523039e-04,6.038831436711002360e-04,-2.700578799657690245e-03,2.077488452196121216e-01
2.239067125168487382e-01,-5.244205634698306806e-02,8.463632807000429081e-02,9.191896957207823602e-04,-1.015711631289850474e-02,-4.133720480719414031e-02,2.504316568374633789e-01
3.005440229986217071e-01,4.249568504168257932e-02,1.864122178146922493e-01,8.707318088710450793e-03,1.835838152886281466e-02,-4.641499633067722175e-02,2.405516356229782104e-01
1.798818450678226211e-01,-6.921718966487006020e-02,9.070720077549750127e-02,8.410968820113749050e-03,4.471376245464927374e-02,-4.309509910144762590e-02,2.440714836120605469e-01
2.240656898255632135e-01,-2.406573102411502241e-02,1.109891373977390516e-01,-2.276736374488846221e-02,-4.300110096841876922e-02,-3.032186521887488342e-02,2.369773238897323608e-01
2.743972221807544076e-01,7.530225221484498910e-03,1.773900746743987400e-01,4.914877938246148097e-03,6.673534576111659310e-03,-2.696189446344751314e-02,2.390131354331970215e-01
2.226534874693567034e-01,1.566208597256113499e-02,2.196936516745402745e-01,-2.157708088137498537e-03,-2.239307435659448897e-03,5.330444385185435785e-03,2.058052271604537964e-01
2.022429505113208237e-01,6.928206982296764016e-03,2.033480401197073628e-01,4.790613513897265877e-04,2.576158435503577045e-04,1.057275790362525742e-03,1.958804577589035034e-01
2.022993905035626594e-01,6.528073537800271886e-03,2.017775366953876992e-01,9.919498910177151213e-04,-1.087445256149058596e-03,2.502405851477387810e-03,1.955755650997161865e-01
2.133502875391733167e-01,1.462058157072049225e-02,2.094666985213839983e-01,2.679300013498023790e-03,-3.186667267655484597e-04,1.019066093322990073e-03,1.968800425529479980e-01
2.129307128302533048e-01,2.115506904119071607e-02,2.141637928288678272e-01,3.749813873556067170e-03,-3.655064829936992363e-03,3.830804561413301852e-03,1.927230656147003174e-01
2.114234391463712948e-01,1.848794770707526403e-02,2.009214677474635002e-01,3.200166342324273043e-03,-1.642057665861465510e-03,1.392151038114661709e-03,1.880234479904174805e-01
2.114273232408243608e-01,8.210042503078190945e-03,1.946766169030235971e-01,5.282718801701666474e-03,-2.182346922827807598e-03,1.319186713799876381e-03,1.956451982259750366e-01
2.070343929484660395e-01,-7.824984318085759227e-03,2.110054982326628470e-01,3.133249165491910383e-03,-1.807044442613469368e-03,5.148877900322491527e-03,2.171458750963211060e-01
2.263972772430655755e-01,1.029105556469070426e-02,2.271603980074442530e-01,-8.545549035377812599e-04,-2.533774321072911669e-03,3.653498062781284760e-03,2.166307717561721802e-01
3.530026019496079748e-01,7.848078880524159140e-02,3.067056626381328699e-01,-2.489309501486979101e-04,-4.383478076084987296e-02,2.858966273013692494e-02,2.702089250087738037e-01
2.236196815023537288e-01,9.269611480234252188e-03,2.376945739112214517e-01,-2.394400172024176154e-02,3.544054113696124605e-03,1.846909709620489157e-02,2.279077917337417603e-01
2.478197877476978062e-01,3.749624798541670301e-02,2.646024493917428222e-01,-1.181705727213872015e-02,3.575466176358708687e-03,-9.049680319843226607e-04,2.202434390783309937e-01
2.556185786521159020e-01,3.196572825984184130e-02,2.625439686096090464e-01,-7.414281506985553362e-03,1.152601968593064408e-02,8.269245107429414043e-03,2.288799732923507690e-01
3.058116033942951395e-01,7.150473578052873869e-02,2.731707847156477076e-01,-3.186047146787449741e-02,2.364523722951392126e-02,1.600803723681540683e-02,2.319665849208831787e-01
2.544311900996364950e-01,2.020189685876050412e-02,2.462466778138115431e-01,-1.947883949405613407e-02,2.386997656844377230e-02,1.557925216402057146e-02,2.378845065832138062e-01
2.264823235843071991e-01,-5.711459309165334286e-04,2.266413243290317514e-01,8.720017305745309812e-05,3.014119031160482180e-04,1.314294051245748019e-03,2.271450757980346680e-01
2.510179666147657196e-01,6.418866682459214990e-02,2.474902529186906452e-01,-3.601757656091460810e-03,2.776881778643814063e-03,-3.080157424498704017e-03,1.853350102901458740e-01
2.274176749878801251e-01,-1.670811468394206578e-03,2.246192751420523215e-01,6.039186525357850095e-04,5.922958920974708257e-04,8.344144423503927627e-04,2.277114838361740112e-01
2.275119305563878258e-01,-1.752666577126527070e-03,2.244254244712819424e-01,1.762775613234653441e-03,8.833939179214738606e-04,4.502406624192388453e-04,2.277639657258987427e-01
2.221473418634442865e-01,-4.047831360517645249e-03,2.208293518286598145e-01,3.069042536671071097e-04,6.065687840143410081e-04,5.647151421745394244e-04,2.255442589521408081e-01
2.321752824742331356e-01,1.704401788139409124e-03,2.270370465791174130e-01,1.135378023363573050e-03,1.051970650446605593e-03,3.802539156586016685e-04,2.279619127511978149e-01
2.183122307712742627e-01,-2.281131386880852485e-03,2.253530151549840710e-01,1.773894527341853922e-04,3.970805260763336591e-04,1.463300473596947310e-03,2.242122739553451538e-01
2.433296486930791036e-01,2.337501745880210535e-03,1.424660279981401489e-01,-2.413865976032331107e-02,-3.854747333365855094e-02,-3.532863699027755100e-02,2.321495860815048218e-01
2.803643908451325384e-01,1.181580958757769140e-02,1.427504394238767738e-01,-8.218498874303124065e-05,-3.782313526708047657e-02,-3.881574186875558913e-02,2.508220076560974121e-01
1.987096078520274867e-01,-5.454088721352312596e-02,6.820212097369893200e-02,5.401997837463649171e-03,-5.891029681469800439e-02,-1.726920854377283002e-02,2.439475804567337036e-01
2.549604279995338896e-01,-8.488298509654768065e-03,1.135879196916625422e-01,-4.447406371595208699e-03,-1.613328234361124242e-02,-4.153341655998300797e-02,2.411685585975646973e-01
2.330764032604257241e-01,5.446028228696081497e-03,2.027580087563509159e-01,3.201936010192370122e-04,-5.370471032434145572e-03,-1.087440365356583290e-02,2.151162326335906982e-01
2.419368821484466636e-01,1.793150761055867237e-02,2.347698723145998922e-01,-2.037328402293571861e-03,-3.314176672868002910e-03,-3.218067310584908722e-03,2.206825762987136841e-01
2.325549765323811358e-01,7.706634044441385001e-03,2.256724252793989582e-01,-7.033996643432618046e-05,1.094813228518514260e-03,6.086238797789910414e-03,2.217461466789245605e-01
2.170887556822489461e-01,1.726869440855048621e-02,1.813975027091310754e-01,-6.950049882240407276e-04,4.690736832826154432e-03,7.263190668700458602e-04,1.847677826881408691e-01
2.225494487291337919e-01,4.709824018896309472e-02,2.119008427647832149e-01,-1.599401438561116537e-03,5.214605638152735451e-02,5.281330421178205038e-03,1.930730342864990234e-01
1.681371663342149658e-01,-2.469787503609306711e-02,1.063883631027628951e-01,-4.892726268720884106e-03,5.095465410606556111e-02,6.758612073552819864e-03,1.925848275423049927e-01
2.243468098561236523e-01,1.222790289882352832e-02,1.585332081177417141e-01,-5.211993564055342198e-03,7.579745384455771617e-03,2.209970439146336386e-03,1.887698471546173096e-01
2.050118121698582818e-01,-6.387534179811721335e-03,1.711442850909355995e-01,-2.089584654883456724e-02,2.609657207362844900e-02,2.437943655260294690e-02,2.093160152435302734e-01
2.144993687755242240e-01,-1.812659423722801089e-03,1.729673525742069784e-01,-2.047067006544037518e-02,2.960106747051866397e-02,2.434250678912290231e-02,2.125921249389648438e-01
1.695683805570177005e-01,4.170802827146255498e-03,1.993985455132146756e-01,-4.279169817379533183e-03,2.990625816945710266e-02,4.758478176364786504e-03,1.896999031305313110e-01
2.296248865770538217e-01,1.323496695475556706e-02,1.732463973120207668e-01,1.071627851367153335e-02,-2.338898775831768639e-02,1.452531126939203901e-02,2.010522335767745972e-01
3.751114999809055939e-01,5.978028369820853616e-02,2.216426859410589312e-01,6.727905868759096082e-03,-3.285246533060164498e-03,4.661719515126459823e-02,2.850975394248962402e-01
2.501996556688965700e-01,5.911572116856222969e-03,1.428798835786159460e-01,9.593932936859188645e-03,-3.333567949932687846e-02,4.771574360356053979e-02,2.354093641042709351e-01
2.200045164192721558e-01,-2.747329835141115728e-03,1.486675951157363229e-01,5.952446095376259967e-03,-8.906587706326142204e-03,6.734755041269254762e-03,1.982353627681732178e-01
2.341513639622900267e-01,6.961135072524493594e-03,2.360128579297308959e-01,-8.108240431499260433e-04,-1.660014614784378374e-03,2.299152078224501149e-03,2.281838655471801758e-01
3.069649850747263597e-01,7.880083520576564027e-03,6.965479024700525768e-02,2.895177483833310302e-03,-2.271170963198262949e-02,8.357314430132765579e-03,2.767203450202941895e-01
2.669794077412147026e-01,1.780527280983609795e-02,1.428125044296733315e-01,-4.027651116490850100e-03,4.740654950198711776e-03,2.630595894630768233e-02,2.208123356103897095e-01
2.222611511761827530e-01,-4.797351668923113821e-02,1.288671269729229907e-01,1.700958674192056333e-02,-3.665295016869898198e-02,5.666803068273352367e-02,2.665389478206634521e-01
2.168285150128481109e-01,-1.176578203281916646e-02,2.007959574771799871e-01,2.949052853036333594e-03,-3.352024860541791035e-04,5.561787220427324291e-03,2.212841510772705078e-01
1.832094393991289261e-01,4.258857782394037672e-02,3.186742722998791022e-01,-4.277643842364326626e-02,-1.469627982604894065e-02,-2.985814424843178869e-02,2.568775415420532227e-01
2.143873695718368222e-01,-2.572837378708003886e-03,2.270298956826514447e-01,-1.869110817904149485e-02,-3.166148516698565757e-02,-2.307273578083421373e-02,2.358536869287490845e-01
2.299951575121531311e-01,3.529954485182609791e-02,2.695102437861300881e-01,-2.456603007431612529e-02,-6.904072545119760429e-02,-3.158984077786035349e-02,2.574205100536346436e-01
9.206479851547169635e-02,-4.960108042532335171e-02,2.049691446567920849e-01,-3.091193539306028373e-02,-5.814898245263258603e-02,-2.108583466946093929e-02,2.513079643249511719e-01
2.114756769532094016e-01,7.075220432580298091e-03,2.272006176718082138e-01,-1.538626893268152992e-03,-1.444907632396649853e-04,-4.334028063524281507e-03,2.128485888242721558e-01
1.734346790500994051e-01,9.354673030954802071e-03,2.714429544887899115e-01,-1.764442457220569832e-02,-1.011066932944344526e-03,-2.685271173070589035e-03,2.314470708370208740e-01
2.033480008689637908e-01,7.282337974886754495e-03,2.193362224940852978e-01,-2.441199994935056017e-03,1.750275025415908231e-03,6.179031506304289920e-03,2.048748880624771118e-01
2.034580261174477878e-01,-5.244422573889045980e-03,2.203461971910276040e-01,-8.839798932362178188e-03,4.772669041012380341e-03,8.064360521996796066e-03,2.187793105840682983e-01
2.120622550869852296e-01,2.051104215671087361e-02,2.266741579193454481e-01,-4.291929948407853003e-03,1.624677024719734875e-03,6.375666387584365963e-03,1.997233927249908447e-01
2.020923613372792027e-01,-3.682060539559328660e-04,2.194007308051408311e-01,-1.206107684564499587e-03,3.511263782165648800e-03,5.266007314735172452e-03,2.119402438402175903e-01
2.239992084448736154e-01,3.039993190918077737e-04,2.255009451347228522e-01,-8.766918406075220388e-04,-8.229179611707390781e-04,3.219775926751752837e-03,2.245287746191024780e-01
1.980958963241834514e-01,1.164591943954684794e-03,2.096926868163884738e-01,-2.795927481982701281e-03,2.795695795054126652e-03,6.975685274457384469e-03,2.034528851509094238e-01
2.076847945061283118e-01,5.441268270982180244e-03,2.139380524623231417e-01,-1.738419313022561809e-03,3.874881317602569620e-04,3.453739356085396787e-03,2.055517733097076416e-01
2.289838543518292746e-01,-2.702581712446250339e-04,2.253558931495356354e-01,-8.206558843539523958e-05,-1.737635932073535285e-03,6.788158349609186952e-04,2.274848222732543945e-01
1.831922005129983377e-01,1.810673216359441617e-02,2.162276561303067834e-01,6.543225524019668248e-06,4.002143104733005795e-03,4.214536139847861003e-04,1.839750260114669800e-01
2.143354159405677917e-01,1.798762256276575933e-02,1.970569126976243202e-01,4.323928296288694420e-03,1.432733059910283428e-02,-6.376396896633108359e-03,1.904003322124481201e-01
1.799104232013120919e-01,2.814407439946187139e-02,2.515732429213036747e-01,1.567353838492675788e-02,4.258120496171211716e-02,-1.215665105299421241e-02,2.136922925710678101e-01
2.011812625214225436e-01,-1.903816147504192036e-02,1.934037366597986529e-01,9.758923118504235147e-03,1.091472970967413691e-02,-1.328937194723197983e-02,2.191283851861953735e-01
2.243918934324076742e-01,4.864890019141754340e-03,2.254109365310945634e-01,-2.228319987166489918e-03,-1.863846676408860295e-03,2.743506193202815014e-03,2.201471030712127686e-01
2.305060589742063681e-01,6.462043919406690318e-03,2.271999470203694971e-01,3.383073663453978501e-04,-2.575612656544029773e-03,3.381057615469136948e-04,2.224556654691696167e-01
2.356644496480920226e-01,1.207169372598534962e-02,2.309876321200254046e-01,-1.728453778425018258e-03,-3.044513793246341870e-03,6.677086325912325818e-04,2.213775068521499634e-01
2.341303592781184828e-01,1.878604418507898166e-02,2.304204747218422389e-01,9.580905234501768501e-04,-4.903237352437856203e-03,1.022092401797011947e-03,2.136961519718170166e-01
2.252716050513407509e-01,-4.754220869157915752e-03,1.795818746826145507e-01,-1.657711497264324632e-03,-1.048608797388116609e-03,-8.440047309813614868e-03,2.114588916301727295e-01
2.314662104944888998e-01,-4.385635354964195765e-03,1.801360433580249942e-01,4.643209962439387439e-03,-1.268873781453269938e-03,-9.949082350737534219e-03,2.156873345375061035e-01
2.305680393505004089e-01,-4.909596919530773151e-03,1.793704335975515041e-01,-1.095910551533149950e-03,-3.663068668323016296e-04,-9.667192977839928619e-03,2.151729315519332886e-01
2.212188428512574800e-01,-2.922978349563148948e-03,1.853230430121257932e-01,-6.736811600655402688e-03,-2.236354880702537233e-03,-6.169451611849839298e-03,2.091594040393829346e-01
2.332893270848950262e-01,-2.801928517238927441e-03,1.754879932975193513e-01,-5.119263054387745808e-03,-1.702709745544178643e-02,-1.725358330303264701e-02,2.174284458160400391e-01
3.241932912544419620e-01,9.080647141446629433e-03,1.322537628842516133e-01,-2.339903752448571281e-02,-2.160834251116544938e-02,-3.483085261893576617e-02,2.869443595409393311e-01
2.670520980493631402e-01,1.336783763403884273e-02,1.401596373754784297e-01,-6.750420551092464229e-03,4.969334314985512664e-04,-2.041304830785128921e-02,2.228324562311172485e-01
2.325731490834761217e-01,2.242752010129875351e-02,2.360717615301759775e-01,9.184122898255554432e-04,3.069450706582994414e-03,-3.667461640471674400e-04,2.119901925325393677e-01
2.362571880012255265e-01,2.689621859293137018e-02,2.306025889838502763e-01,1.555574671942334128e-03,-1.368000797208376645e-03,-3.046299237365324587e-03,2.066902369260787964e-01
2.432634011292852672e-01,3.262692063566893785e-02,2.360304768607921766e-01,5.033777602243052866e-03,-2.375839167698503770e-03,-1.653062762462698511e-03,2.073588073253631592e-01
2.379101844961638013e-01,3.295302079475481705e-02,2.364694495149030629e-01,-2.952667018667495466e-03,-1.104829139488445848e-03,3.071194508513168820e-03,2.043828219175338745e-01
4.414488800969046389e-01,1.572216777104342433e-01,3.761408927650048417e-01,2.747062659857652314e-02,-2.262064413010560215e-02,4.376424644149611021e-02,2.757405340671539307e-01
1.858307643163095435e-01,2.629282923791803617e-03,2.339916563021090523e-01,-6.533656588892198559e-03,-3.713193342612168286e-03,-8.261664154078815839e-03,2.123195677995681763e-01
1.183856530198412887e-01,3.386929404105984420e-02,3.579997911234670260e-01,-1.694660460875565752e-02,-1.869489440306432854e-02,2.992292416031223055e-04,2.944819033145904541e-01
1.206570797202396461e-01,2.804522371204759557e-02,3.548226613584531952e-01,-3.886409524499325613e-02,4.492260169192714182e-03,-6.888070553465502205e-03,2.997183799743652344e-01
1.330177472719150378e-01,2.629090004574205497e-02,3.381541051215686267e-01,-2.274648377724127618e-02,4.002624309157000460e-02,-4.190594465826054230e-04,2.858743369579315186e-01
1.699578963862976300e-01,7.153301913824350322e-03,2.361045853617628199e-01,-2.849854579478754840e-02,-6.649755006884669473e-02,-2.877188587157138155e-02,2.446128427982330322e-01
2.662698939280493948e-01,3.875155339431675394e-02,1.541604100975038361e-01,2.520252314129614851e-03,3.518928621962798958e-02,1.696538496650893952e-04,2.063011527061462402e-01
2.095283987048526253e-01,-2.918429609263945013e-03,2.104981290313820419e-01,-2.745051285256520750e-03,8.849651644055885709e-04,6.887940267457709140e-04,2.129952758550643921e-01
2.151375757102919339e-01,-1.326462332239125574e-03,2.136128941317433361e-01,-4.433941553693905233e-03,4.033064053879023146e-04,1.715094050604858101e-03,2.158639729022979736e-01
1.868666315522541366e-01,1.160114024083558348e-04,1.860418434390522235e-01,-3.384912353280627312e-03,1.206572856115023691e-02,2.255921921792438528e-03,1.876401603221893311e-01
1.868710724575931292e-01,-2.699233565714831418e-03,1.617326913059997373e-01,-3.363639443194117989e-03,2.469946150735237433e-02,5.083409565002214824e-03,1.836981326341629028e-01
1.033583284893482418e-01,-1.043996420182113916e-02,2.230737181182143036e-01,-1.132687527268887509e-02,9.464741041375721031e-03,3.819306868565764193e-03,2.039672285318374634e-01
2.255605004582432738e-01,1.149668909218012902e-02,1.908069823699217737e-01,-5.289485539290502900e-03,1.195586199614716684e-03,1.381985662590099178e-03,1.992124617099761963e-01
1.092604923192165844e-01,1.280857980728689061e-02,2.703837782899199960e-01,1.794943678971078552e-02,-2.498859721944452980e-02,2.556542815512758207e-03,2.316544353961944580e-01
1.539900708777337535e-01,-3.000459105174343999e-02,1.630849750031708456e-01,-1.612305437501874994e-02,9.366125856065404820e-02,1.768062937389458869e-02,2.522798776626586914e-01
1.580317126559431795e-01,-2.964604828719866192e-03,2.075172723305546696e-01,-7.421740229239403956e-03,7.264969192710538960e-03,8.294400340670015151e-03,1.920041739940643311e-01
1.678229188249154014e-01,1.382593372205723203e-02,2.147827644193095187e-01,2.221879529216434952e-04,9.400283345654347755e-03,2.411641094869755673e-03,1.828514784574508667e-01
1.371138667264677480e-01,-1.108337134277456726e-02,2.191031116325361516e-01,-1.222854718594565057e-02,1.626543011202720435e-03,6.993985664899248758e-05,2.032038420438766479e-01
2.161416268817355213e-01,2.578462584060214891e-02,1.992907651584027717e-01,-2.867136525362102076e-03,1.436714936589094868e-02,4.022541995871713356e-03,1.844031214714050293e-01
2.250393994615929871e-01,-9.994266761008119282e-03,1.930025705763454280e-01,1.796420683312010885e-03,7.823209986590792375e-04,-3.450326807380782977e-03,2.208725512027740479e-01
2.293784968965190130e-01,1.379689157121610776e-05,2.283812051273404475e-01,-1.154020020290101372e-03,9.397269180721487883e-04,-2.682991343736036184e-03,2.289293706417083740e-01
2.378363985809651415e-01,3.043086166251779412e-02,2.389855373303773622e-01,-2.461046674579701063e-04,1.046516828147789433e-03,-1.841773561076366032e-03,2.080152779817581177e-01
2.637305698890832772e-01,1.223709545513565478e-02,2.154290300417718851e-01,8.259285221722678302e-03,8.409852903019342241e-03,-1.315333135172752806e-02,2.331744879484176636e-01
2.307317107488195962e-01,3.576937176538869112e-03,2.003602127198396976e-01,-8.671976326997248854e-05,1.847614857019529426e-04,-1.157976666601272893e-03,2.136043906211853027e-01
2.160850719362031325e-01,-5.691402295231129393e-03,2.168395180708667658e-01,3.373843879926332820e-03,1.197925037514633076e-04,-2.706095248872536670e-03,2.222810238599777222e-01
2.279258315092196896e-01,7.449635934412002225e-04,2.108535924419541463e-01,1.786604251858509322e-03,1.436933586079267846e-03,-4.071213604603012362e-03,2.192934453487396240e-01
2.322667688249006879e-01,6.714898329252871889e-03,2.295960286449612586e-01,1.293147977933532030e-03,-9.007615729933271878e-04,-8.898701719203299526e-03,2.247741073369979858e-01
2.213260911196487934e-01,-3.570646748140421378e-03,2.220355644289146446e-01,-2.273318324451596478e-04,7.254173304903080910e-04,-1.005275669682407320e-03,2.252628952264785767e-01
2.230756390777572928e-01,-1.814785429621657009e-03,2.224564398544426891e-01,-4.794441938741040936e-04,5.152973528532759994e-05,-6.191310821065417044e-04,2.245855778455734253e-01
2.175165458813656527e-01,-5.887594206698043564e-03,2.216664565038329315e-01,-1.850789266131430298e-03,-9.070517631866993570e-04,-1.452586948620231263e-03,2.255500257015228271e-01
2.190816756275253963e-01,-5.499790878896432256e-03,2.199078933878853281e-01,-1.375764972311842175e-03,3.707268312515149284e-04,-4.848551689888614975e-04,2.250108122825622559e-01
2.243246078880160310e-01,-3.106051584400498777e-03,2.238002071951401550e-01,-7.091163478891820667e-04,2.440017646349509992e-03,-9.186728298470090781e-04,2.272171080112457275e-01
2.229038994446985167e-01,-4.320468442023689404e-03,2.244958854063036635e-01,-1.151425578424185910e-03,2.357797249334948105e-03,-7.129304903011629167e-04,2.280731648206710815e-01
2.191422011966728534e-01,-2.483696781766769890e-03,2.204282807730887916e-01,-1.352356098154747655e-03,1.045667105594539422e-04,-1.472152264495791164e-03,2.222987711429595947e-01
2.241673467298747335e-01,-2.165261663592099595e-03,2.238726602095215124e-01,-9.910110902021369947e-05,1.129318877407342126e-03,-5.945952683454161546e-04,2.261962741613388062e-01
2.125789549725795591e-01,-1.235137215042925174e-03,2.155922511349049053e-01,-3.086127205487220262e-03,-1.316760401811103423e-03,-3.585775899062502211e-03,2.155044674873352051e-01
2.375205350445902530e-01,2.595897018753942631e-02,2.304271354875596645e-01,-2.844109806027364691e-03,-1.520864120388674750e-03,-7.454184576769222643e-04,2.081845253705978394e-01
1.674846593668290751e-01,2.647007014648726508e-02,2.335738258861786432e-01,1.653965894033663370e-04,-5.036909440926750844e-03,1.359285354574239822e-04,1.834357529878616333e-01
2.577734510167010162e-01,6.878546368071428163e-02,2.552126551767180396e-01,-5.218130259132698449e-03,-1.363441652222728041e-03,2.642347730876283291e-03,1.880086958408355713e-01
2.387222308086291434e-01,2.986555463831191970e-02,2.353430749091583174e-01,1.530090799842243011e-03,7.345201876654001549e-04,1.841368511044197539e-03,2.072331607341766357e-01
2.403949300899357322e-01,3.083534122007955403e-02,2.372718247064828367e-01,-2.489261660830158381e-03,1.966698621197033713e-03,3.099066787726880508e-04,2.080888748168945312e-01
2.314239501189790382e-01,2.739541674429518681e-02,2.453036043334918537e-01,1.193156064033995545e-02,2.682729244975752509e-05,1.684216421341843024e-03,2.123387157917022705e-01
2.387054295113801849e-01,2.941262289250576312e-02,2.326291798994732374e-01,-2.194096214768078302e-03,1.758130067160248175e-03,7.041013816819516151e-04,2.063828706741333008e-01
2.308445515059442676e-01,5.943551858057061210e-03,2.257183257925479691e-01,-2.736440788490153084e-03,5.851092740261406845e-05,2.211792713582822845e-04,2.224330604076385498e-01
1.698826531795906702e-01,1.757472711868546256e-03,2.232975441086123003e-01,2.292088431851985880e-02,-5.811304732799923295e-02,3.566879625056757624e-02,2.358471602201461792e-01
1.224701849253216346e-01,-2.724421542679202057e-02,1.306969385479804791e-01,1.490029035163664695e-02,-8.782464452974282632e-02,8.839563856493393504e-03,2.185262441635131836e-01
1.303364663233847476e-01,-2.094335753921963694e-02,2.082771446657453729e-01,3.082324287792448728e-02,-5.821011188840294337e-02,1.193045727298440786e-02,2.327953279018402100e-01
1.448640155055896106e-01,1.239372117254887440e-02,2.248580091641322332e-01,6.489278560928922468e-03,-2.062871604397154002e-02,-7.894410612015345012e-04,1.896024197340011597e-01
1.415383949481691106e-01,5.982868590037188072e-04,2.077731771012548412e-01,3.718300442455457159e-03,-3.553600272491045514e-02,4.078719223964744935e-03,1.935616284608840942e-01
1.543108128689536229e-01,-9.180742614342443653e-03,1.745525378288274587e-01,-5.015777548794560052e-03,-2.938723276975825291e-02,-4.581080984044009000e-03,1.821478158235549927e-01
1.637207731660340615e-01,9.688869355841914222e-03,2.132084917572741323e-01,3.903842458830724966e-04,-1.209578056883189867e-02,3.521516549907247919e-03,1.851327419281005859e-01
2.256487294117310027e-01,1.272886598947414738e-02,1.534938102320886066e-01,7.404382128481923168e-03,-4.296158508373381507e-02,1.669319789732650466e-02,2.042438238859176636e-01
1.303484569382489244e-01,1.119511374677308047e-02,2.351974472482225020e-01,-5.118904590572006738e-03,-2.589885373033229410e-03,-1.502526028643843062e-03,1.943950653076171875e-01
1.377963338567342877e-01,1.158386546737065481e-02,2.276909218243509114e-01,-2.042741840845953630e-02,-2.045188639581178164e-02,-1.965415508058982776e-03,1.946142464876174927e-01
1.030776768259263204e-01,-7.088084709678976747e-03,2.177712537224157918e-01,-3.866807016030342301e-03,-2.395020082918066298e-02,-2.636510138608585008e-03,1.992811113595962524e-01
1.329635189865060185e-01,-1.208086149089833417e-02,2.146485110906502236e-01,-1.196942260212556508e-02,-1.966576525696777170e-02,-8.103568037222235940e-03,2.033354192972183228e-01
1.357104130911856166e-01,2.973283270956703084e-02,2.736904525892024376e-01,-6.654988935541319463e-03,3.881578044072610256e-02,-2.282496379390580761e-03,2.226230502128601074e-01
1.730280466311421850e-01,-9.094772620529323337e-03,2.259752412067223548e-01,2.144354045985622653e-02,-4.151519586569325446e-03,3.382758745345096005e-03,2.169804871082305908e-01
1.482485483833230477e-01,2.990943887618824348e-02,2.548618219231928439e-01,3.219831868592521948e-03,2.205029969705490228e-03,2.540889068900531716e-03,1.950695067644119263e-01
2.206366648853831658e-01,1.681148468016785413e-02,1.976389589603060604e-01,1.048183692430565070e-02,2.221552297870916029e-02,-1.723509911875201889e-02,2.002184540033340454e-01
1.368551757511670686e-01,-3.190240568228265572e-02,1.454714728348917574e-01,-7.319623110281087142e-03,8.013206620621281251e-02,1.880523109837797108e-02,2.247053831815719604e-01
2.737837543286716913e-01,3.074689607625238907e-02,1.805762990955644409e-01,5.870765674976437601e-03,1.218548622132368392e-02,-2.397007799027612088e-02,2.176562547683715820e-01
2.238257563747207413e-01,-5.868991725191202713e-03,1.777992882886224035e-01,-6.546729640649595269e-03,-4.070348602387855418e-03,-1.092242024612941238e-02,2.117598950862884521e-01
2.270693132159680716e-01,-1.274951860758433142e-03,1.720334750996473372e-01,2.204746290108775594e-03,8.923330484801072701e-03,-8.409511590342382339e-03,2.075296342372894287e-01
1.176315990430909925e-01,-4.048407671776929617e-02,1.709561996348756829e-01,-2.230644220623519830e-02,-3.790949433834049642e-02,-1.241722945979176901e-02,2.062576562166213989e-01
2.226842109429466587e-01,-2.320131014632464961e-03,1.829629966127640506e-01,6.206165179924144626e-03,2.654026004233530928e-03,-7.875453101684569759e-03,2.087822556495666504e-01
2.307128104597314933e-01,5.534822675845540996e-03,1.702418444602348258e-01,3.405590921398106690e-03,6.891434417818189002e-03,-5.704107974726599925e-04,2.022952735424041748e-01
2.455648559301557288e-01,4.040247933409221726e-02,2.384094740211693542e-01,5.987373706002230463e-04,6.274663422069817450e-05,7.731580702187401373e-04,2.016870528459548950e-01
2.524032356844037039e-01,5.645104912303750000e-02,2.608709223864882354e-01,-1.168252416374754386e-03,2.761375232252241360e-04,6.482156870301624156e-04,2.003342360258102417e-01
2.469814476714265461e-01,3.488647092810451267e-02,2.383929562478861452e-01,2.074155059025659630e-03,2.811551418015493554e-03,-6.129191584811092761e-04,2.080245465040206909e-01
2.202570834465939487e-01,8.072571916869941688e-03,2.669684988024670913e-01,-2.933744282029331074e-02,-3.294802746539288608e-03,6.794692734000589221e-03,2.446810007095336914e-01
2.005543959209148408e-01,-7.016131894052118900e-03,2.266842860127039616e-01,-1.595680803545040244e-02,1.765373128955184667e-02,7.936597118534184300e-03,2.260085791349411011e-01
2.419500359653922184e-01,2.499406769277337514e-02,2.818116392710295348e-01,-4.800529387494316576e-03,-1.807337364124154879e-03,8.077750608643668312e-03,2.399619519710540771e-01
2.359791851819621478e-01,1.413572612413940832e-02,2.309272224814138408e-01,-3.448047122774849406e-03,2.377294599091910911e-03,-1.990686044929629653e-03,2.195081114768981934e-01
2.661987654277110926e-01,3.490006050958957551e-02,3.087611430148908820e-01,-4.956781911923156814e-02,-4.093962865843255722e-02,2.283209794633469722e-04,2.784860730171203613e-01
2.226044812532541051e-01,-2.611593077394613882e-03,2.420924066130963337e-01,-2.174035024267341465e-02,-1.589433629096072276e-02,-1.696608012558989409e-02,2.419306039810180664e-01
2.549296688628589491e-01,3.134557210508270853e-02,2.896427712653822373e-01,-3.016299804442649363e-02,-6.894972214151627067e-03,1.600077192601346079e-02,2.501924335956573486e-01
2.364929924894608737e-01,1.195948601839444403e-02,2.386843638372442289e-01,1.011903317199302609e-03,-2.575651087438747631e-04,-3.487471076850713961e-03,2.257252633571624756e-01
2.261865948858745035e-01,8.216315025275006123e-03,2.324779600782196365e-01,1.670270081597073985e-05,-1.656313378977066278e-03,1.026895992164496936e-03,2.212088406085968018e-01
2.292100319262643793e-01,4.876385619367179514e-03,2.299655625116723834e-01,2.154861213570929707e-03,-3.093937807884519970e-04,-3.130965940497665734e-03,2.248094081878662109e-01
2.620082987181214795e-01,4.962254711217115033e-02,2.929788390457226943e-01,1.664274315778714944e-02,7.275321949271152527e-03,4.795447207515657860e-03,2.317397445440292358e-01
1.776378187535102571e-01,1.252270473229849523e-02,2.765815709545316192e-01,-3.308343156865854034e-02,-1.730982182284391407e-02,-1.101621362847229153e-03,2.399500906467437744e-01
2.275518864360547844e-01,-3.433099312904475120e-04,2.214810400461298401e-01,5.304539681174344837e-04,8.874934680448235422e-04,-4.170507463457992850e-03,2.250443249940872192e-01
2.274234839213650217e-01,3.641064607116717422e-03,2.309845795380572886e-01,7.029266483399606961e-04,-2.546263509348812692e-03,-1.323560763670670421e-03,2.256420850753784180e-01
2.230993599946321515e-01,-1.804784156089922487e-03,2.289631444906638780e-01,-1.690888402113937617e-03,6.120848128721970063e-04,-6.675001057184273010e-04,2.279168367385864258e-01
2.295975507567567242e-01,1.147164913155135357e-02,2.373448283378485624e-01,2.109474147966819722e-05,1.256130761249803478e-03,1.679418309127005040e-03,2.221306115388870239e-01
2.256796946990697883e-01,3.624317904379004140e-03,2.320052393033209814e-01,-3.160259787121870293e-04,1.338200390636095196e-03,-9.786536760642621999e-04,2.253037244081497192e-01
2.186493120290602110e-01,-6.905920494191031267e-03,2.043836714274523958e-01,3.198073085899706246e-03,-1.482759174228559854e-04,-3.474018845403636143e-03,2.189245074987411499e-01
2.256523264050343813e-01,-1.381817645783572912e-03,2.237541543350708428e-01,4.891019920013804862e-04,1.032856228305760763e-03,1.313307389662093493e-03,2.261111438274383545e-01
2.148504280427519786e-01,-6.100752512500084990e-03,2.204790186560203757e-01,1.583209663955320546e-03,1.590085927683880377e-04,3.336977475626212979e-03,2.239101380109786987e-01
2.251742846128833020e-01,-2.441030777668329321e-03,2.236521762980254457e-01,4.512995748966721005e-04,1.057521864472308910e-03,1.169685501243031408e-03,2.268758714199066162e-01
2.217205973551032439e-01,-3.493232687199060438e-03,2.211558393902666175e-01,1.726197891143155532e-04,7.050667217033474354e-04,8.432865439291548125e-04,2.249402403831481934e-01
2.269598606543002939e-01,-2.433498795931687830e-03,2.240743115758886961e-01,5.654636836257381479e-04,5.433323432733197034e-04,6.782860400766871443e-04,2.279713600873947144e-01
2.239755936077099940e-01,4.110706913906220228e-03,2.245015816408038045e-01,4.210687956639929883e-03,-4.592380046673778088e-04,4.760579969456793514e-03,2.204048633575439453e-01
2.083326971726404964e-01,-4.299815091164088665e-03,2.195050477176571091e-01,7.099310793286601508e-03,-2.120912627772867515e-03,5.599800385693397622e-03,2.190246134996414185e-01
2.282316900822074501e-01,8.859612768533364768e-04,2.261101589240996634e-01,1.285957950435334500e-03,3.750657193011912999e-03,1.079497772437915722e-03,2.264043241739273071e-01
1.395223798216530253e-01,1.650631463071390581e-02,2.347923152033579708e-01,6.800262855819633537e-03,-1.081807601109517972e-02,1.551602624608340109e-03,1.908562034368515015e-01
1.302946465546714061e-01,1.284899722732525673e-02,2.357913678747536879e-01,7.170913857312717458e-03,-2.671306206719846997e-03,2.125545323702728202e-03,1.936553567647933960e-01
1.906883498911215447e-01,6.299496263632797799e-03,2.267890393423295237e-01,4.267685931107338161e-03,-1.308848597577001163e-03,5.367991304792818497e-03,2.051957547664642334e-01
1.536992269415038970e-01,6.099288960731738540e-03,2.313443729806655136e-01,8.335340307275946117e-03,-1.602021551100766932e-03,2.443793821684202110e-03,1.987686604261398315e-01
8.965759324316874279e-02,-2.709597005408080628e-02,2.181100347274051443e-01,2.380276464667190062e-02,-6.216362467886082759e-03,3.181882131908395691e-03,2.167365252971649170e-01
1.655699526304151292e-01,1.200768882478053801e-04,2.075998568019278845e-01,4.262597633861137970e-03,-1.019942305240623473e-02,6.001675905234880697e-03,1.912293732166290283e-01
1.397637405079308892e-01,1.371862254258737757e-02,2.387753164798035455e-01,1.776530613819576670e-03,-4.732875277359860876e-03,-4.740122604490145698e-04,1.955707818269729614e-01
1.796429474795669390e-01,1.437340318597998823e-02,2.413332651279848640e-01,3.100393150993397805e-03,3.898366205895445556e-04,-9.365321999405982686e-05,2.033336311578750610e-01
1.822773521414283726e-01,-4.970861107663759881e-04,2.358241578679364792e-01,1.175812382290498254e-02,1.134823314202054430e-04,-1.667816694232963134e-03,2.156012207269668579e-01
3.208084345654316216e-02,-2.700925133928752664e-02,2.403571980758309190e-01,1.757036519485489796e-03,-3.899805830731713913e-02,8.250457657807703377e-03,2.528908252716064453e-01
2.244808730738774294e-01,-3.087316114641691644e-03,2.248475437887662021e-01,-1.143640022201769090e-03,2.673108625539966933e-04,2.530671929972062428e-03,2.278030067682266235e-01
2.323806296594039533e-01,1.776924159367165856e-02,2.383300653564617844e-01,-3.946667407379931251e-05,-3.902043440486174016e-04,2.275240576432760453e-03,2.176838368177413940e-01
2.354835840247308520e-01,2.917011215753015363e-02,2.432980209829750384e-01,-7.253532110874529428e-04,-2.396523550796244781e-03,-2.360951927015734596e-03,2.104140371084213257e-01
2.200661582145332362e-01,-4.997320190700371700e-03,2.196445065274239550e-01,-1.829487786855319049e-03,-1.897129850790655215e-04,3.445693121396621594e-03,2.249546945095062256e-01
2.406624701153637913e-01,4.254769262348315206e-02,2.428263808556183900e-01,2.265546431660321429e-03,-6.968610502788231053e-04,1.830000094401223847e-03,1.992730647325515747e-01
2.437479077378332248e-01,2.257942848943006453e-02,2.371435705933369609e-01,1.850249540837934107e-04,-1.994417709594133517e-03,2.118792182688617690e-03,2.179998755455017090e-01
1.810278834735435660e-01,8.782943650649785439e-03,2.042975682858729491e-01,7.664525761824662539e-04,8.673373864206039910e-03,2.764271689701469983e-03,1.856562644243240356e-01
2.099331345765581835e-01,1.219116673419790020e-02,2.062991997427160162e-01,-3.069624824331766439e-03,2.629504226521211033e-03,1.290803840648989745e-03,1.960880458354949951e-01
2.123116553874408452e-01,3.815978880867210155e-03,2.115058789353059798e-01,-3.906598210372054687e-03,8.467648571127490064e-04,1.047493015620456786e-03,2.082170099020004272e-01
2.171788529011899893e-01,8.647461205479878288e-05,2.182083507775131048e-01,-5.246288345239386551e-03,1.938059303797884207e-03,4.918994303191902458e-03,2.179910242557525635e-01
2.257909308539723936e-01,-4.701186546738622685e-04,2.304117588409050343e-01,-6.401215605045365619e-04,8.902502466676928726e-04,-5.706704247395539761e-04,2.286165207624435425e-01
2.259590780454616143e-01,3.967067484994479809e-03,2.285662285338453947e-01,-1.239409960469573359e-03,2.969605088658450968e-03,-3.167454878466487156e-04,2.233772128820419312e-01
2.278037633648750115e-01,3.295830976479841024e-03,2.329283047088424596e-01,-4.775756668444519387e-04,2.022442609826181469e-03,-1.350727653680591344e-03,2.271541357040405273e-01
2.311894150338554554e-01,-6.745482982762784907e-03,1.981249569498115815e-01,-3.389901766359823543e-03,-1.513065799329194267e-04,-1.667703417032300253e-02,2.251843661069869995e-01
2.231388004853139817e-01,-3.146502404021034316e-03,2.222090914274495455e-01,-2.329401335473363973e-03,6.510134425536766301e-04,-1.421593159964006526e-03,2.258741557598114014e-01
2.246655630817936400e-01,-9.862419682262202336e-04,2.273077037244692622e-01,-1.052161701553631186e-03,6.619554498297442954e-04,-4.875843586854540046e-04,2.269961982965469360e-01
2.252216238466901443e-01,-1.425679809817004262e-03,2.255601371451355919e-01,-6.573529002932428870e-04,3.167229350570815137e-03,-4.468747993224299591e-04,2.268872559070587158e-01
2.224816412372654650e-01,-5.067602186560049571e-03,2.234470199213382247e-01,-4.380078083823828660e-04,1.278340177649742778e-03,-8.332010892130918773e-04,2.280500382184982300e-01
2.275168536096481564e-01,6.092870578124354175e-03,2.226410661800568291e-01,-3.979317363145159353e-03,-1.514161760078721296e-03,-3.872944560270685007e-03,2.192535549402236938e-01
8.868020748668192788e-02,-7.397280996086150195e-02,1.432483836450371972e-01,-1.432383404388333503e-02,-8.931560166281148072e-02,-3.419415479053447820e-03,2.507823705673217773e-01
2.273043509098222614e-01,3.785366399728790077e-03,2.326825118209190357e-01,2.108678140505531803e-03,2.330119978367056061e-03,1.566931229774675121e-03,2.263377457857131958e-01
2.944468894657867875e-01,6.271028482056292819e-02,2.756949317593158089e-01,9.512975732247980687e-04,1.886164317615857729e-03,1.829064529509462009e-02,2.252221256494522095e-01
2.253526169888210862e-01,8.920705321627059314e-03,2.316107264152395540e-01,8.475148155241207315e-04,1.060020406137974006e-03,-9.846670299723607987e-04,2.196470499038696289e-01
2.315837847019236451e-01,1.202278847201471157e-02,2.346951915458235227e-01,8.246190300404687159e-05,1.851913081313974604e-03,-1.109170203412574362e-03,2.211647629737854004e-01
2.996813688678965359e-01,5.903823889156672999e-02,2.724439592635539142e-01,7.599993474829558468e-04,7.513406878036225575e-03,1.201777370535968455e-02,2.295666933059692383e-01
2.373110419877726140e-01,4.158677835932553246e-02,2.473880032169009091e-01,8.580711297196164144e-04,1.596321529795516206e-03,3.834922422355574283e-03,2.010865807533264160e-01
2.218999394153698956e-01,-3.020496409940315319e-03,2.222502164743263564e-01,-1.597790820812120558e-04,-1.526144299242280806e-04,3.840250616415762531e-04,2.250970900058746338e-01
2.232144471863919399e-01,-2.179421614196735968e-03,2.226645730127699840e-01,-4.127907882816205984e-04,-1.132138200550615592e-03,1.203381655216974539e-03,2.251387536525726318e-01
2.217275166129200614e-01,-3.129450733932587214e-03,2.217315034960244957e-01,-2.231544497188011104e-04,-2.309004493515381582e-04,3.142142198494600859e-04,2.248603105545043945e-01
2.180654110624805075e-01,-4.888538312335016789e-03,2.178168688120287744e-01,-6.673012123932886390e-04,-7.917595109263479757e-05,7.514992479836803390e-04,2.228366285562515259e-01
2.313044191158014073e-01,8.765027812942333130e-03,2.309861557569858892e-01,-1.331878903180829053e-03,-4.588050517371978360e-03,7.025485023008304288e-05,2.225343585014343262e-01
2.217163657561718737e-01,-1.008702710691145032e-04,2.232146372622140218e-01,-7.265344459030076939e-04,-6.297954469155432524e-04,3.293500733400558586e-03,2.226494699716567993e-01
2.205648289060784251e-01,3.327343833172402565e-04,2.202489387484167227e-01,-1.004899315114492729e-03,-4.555966771749483382e-04,1.988024393839844112e-03,2.201095521450042725e-01
2.221005217191101555e-01,-4.566263517414292927e-03,2.227282603913734726e-01,-2.015114758625550975e-03,-3.719469923792486071e-04,9.684965806031259122e-04,2.270152568817138672e-01
2.041147522571820916e-01,2.870593857093811652e-02,2.896197246953000071e-01,-1.470893164505031499e-02,8.067465000246692650e-03,2.889580148252971197e-03,2.322650104761123657e-01
1.736839487012799554e-01,1.347210133046551628e-02,2.129662294145440726e-01,4.490636490667973373e-03,1.045841358610895104e-02,-4.076849427712618372e-03,1.842360347509384155e-01
1.832804502483404430e-01,3.403901807915274413e-02,2.343222302831870496e-01,5.235471304225372546e-03,2.113328524223574006e-02,-1.523946859210339360e-03,1.841870248317718506e-01
1.803726885733450969e-01,1.944758240507857283e-02,2.334666397567251583e-01,6.192917155618921435e-03,7.418372240768923362e-03,-4.004285905098851558e-03,1.938769221305847168e-01
1.156981226151045788e-01,-6.844919242208827304e-03,2.278889762481122738e-01,-1.456358541190271375e-02,6.656797841469185885e-03,6.965111709583890302e-03,2.055883407592773438e-01
2.253765161592675703e-01,4.110806390280830058e-03,2.208163820683443634e-01,4.970097667833152204e-03,3.756158537055629461e-03,-4.301433447736168793e-03,2.194134145975112915e-01
2.228339783526364359e-01,-4.050356298215318507e-03,2.179443986017024493e-01,2.747515083027351340e-03,5.364061147146432888e-04,-3.979689579838008133e-03,2.246376276016235352e-01
2.259025499095402012e-01,-2.652985692780551741e-03,2.242558342789462977e-01,-2.793563451023508572e-04,-1.897781850667279967e-03,4.870608408009495234e-04,2.277624458074569702e-01
2.319462024965197600e-01,2.611156747243298382e-03,2.281621887328740272e-01,-1.411538895242047970e-03,-2.510664828256972680e-03,8.024718139806606742e-04,2.275255918502807617e-01
2.293664382332415985e-01,3.866186979013586100e-03,2.261233861023339564e-01,4.358353241474540265e-04,-2.261170247139761627e-03,1.489913358520535353e-03,2.239467352628707886e-01
2.371058483255978067e-01,2.619857347920528934e-02,2.293782292218862207e-01,1.879297597281061457e-03,2.806914555487476093e-04,1.000490528675423898e-03,2.071849852800369263e-01
2.241944499537495417e-01,2.077832047178540531e-03,2.296927453499332805e-01,-2.729191597503719847e-03,-7.548081165617577916e-04,2.638651036395966206e-03,2.250160574913024902e-01
2.391164077989507697e-01,2.896985468084975479e-02,2.327548565529398150e-01,2.012871200131429502e-03,-1.783971659481153497e-05,3.982396270660954396e-04,2.070695906877517700e-01
1.911989761144236022e-01,1.283691524948005203e-03,2.308474209591924731e-01,-2.530631871304431582e-02,-1.816194095349528068e-02,-7.092074841472072871e-03,2.196163684129714966e-01
2.418442850897397078e-01,2.902580513403918427e-02,2.452299863037315786e-01,1.058311159577272984e-03,-5.957778708113831839e-03,-2.442663396326097674e-03,2.148288935422897339e-01
2.326273213721957722e-01,7.071537975536529297e-03,2.281173806604959997e-01,-2.949996138536491175e-03,-2.816920069732267804e-03,1.387217897929646270e-03,2.234596014022827148e-01
2.231236047066802453e-01,-1.796746165469265133e-03,2.233982636417216894e-01,1.391356541082348474e-03,6.792743374625764396e-04,1.150263547071605005e-04,2.250738739967346191e-01
2.227157095967359501e-01,-3.787834451115412726e-03,2.224466277734054587e-01,1.097862276857396397e-03,7.539088732862431978e-04,-2.477209557828245014e-05,2.263808846473693848e-01
2.246411808899992923e-01,-1.153199665373361160e-03,2.263376192379972784e-01,8.256282430928096796e-04,1.070865798324895177e-03,2.349161925941911633e-04,2.266598343849182129e-01
1.389767503512236713e-01,-6.716340127303183083e-03,2.243640066275441602e-01,9.944426425753799537e-03,1.023581554916329871e-03,-1.020752378995591571e-04,2.031197696924209595e-01
2.324405076446564578e-01,5.586690390928711336e-03,2.336055012905094153e-01,2.824080912360000888e-04,4.817244667505137141e-03,-8.997879734473041382e-05,2.275921255350112915e-01
2.173195839663731310e-01,-6.011126627995938554e-03,2.087249607385061601e-01,5.260600445568965229e-03,-1.031290382324601259e-03,2.476316378787032230e-03,2.193983644247055054e-01
2.269855343348943233e-01,-6.321551434743111209e-05,2.245662968985014663e-01,2.439631000519812756e-04,-7.007577892354471913e-05,4.877068253424024090e-04,2.258508503437042236e-01
1.970174680249974219e-01,6.605226056180524274e-04,2.127425775070171665e-01,4.254150517062897652e-03,-2.010542342152000887e-03,6.478242897672134050e-03,2.051423639059066772e-01
2.000959983091585292e-01,1.439170319083160621e-02,2.096947887337629879e-01,-3.128153311869736469e-03,-1.347172317739517809e-02,-4.212638684182532130e-03,1.923221647739410400e-01
2.054171645728318785e-01,6.720344531427085988e-03,1.818430576166704671e-01,-4.712795037252683235e-03,-6.643027350883541973e-03,-4.717779899736688001e-03,1.887269467115402222e-01
2.171496367026910790e-01,1.515168432125291176e-03,2.178641734613748215e-01,-5.770698575496060849e-03,-3.682268857595695673e-03,-7.628486262350590331e-03,2.167209535837173462e-01
2.252692986474192083e-01,5.323141752964499762e-04,2.067901539302211267e-01,-9.057427758392312331e-03,-3.151357306380280637e-02,-2.626180963603941265e-02,2.280125468969345093e-01
2.266870012739658491e-01,6.048984423467879123e-03,2.127791167375140402e-01,-6.222613627000332832e-03,7.793402720059544380e-04,-2.301048910602807550e-03,2.143357694149017334e-01
2.057553709120218954e-01,-3.805469328050425926e-03,1.596810131032281310e-01,-5.826045143664053926e-03,-8.592400397026064840e-03,-5.922030423913681070e-03,1.918638497591018677e-01
9.182117260627054023e-02,-6.036897208647344637e-02,1.185561189472796317e-01,-1.388887823957294515e-02,-8.818377784565425981e-02,-1.683547114330538261e-02,2.295724898576736450e-01
1.786536570067848717e-01,1.055559102976104391e-02,1.923928164651238781e-01,-7.778350569100271963e-03,-2.339071984729795828e-02,-8.440978537394816170e-03,1.810853034257888794e-01
2.037008694556666222e-01,1.750054041006893213e-02,1.913517188076417352e-01,-3.424433026642745466e-03,-1.832423134825723540e-02,-1.940413217754588440e-03,1.832415312528610229e-01
1.964423301544442058e-01,1.469311557133104462e-03,1.768051031102552961e-01,-5.478845036043456830e-03,-1.944783878625650983e-02,-5.851856548244468818e-03,1.894698143005371094e-01
1.696672261145983629e-01,-7.763303112318542532e-03,1.829159750342823354e-01,-6.610126902295473603e-03,-2.306623087421216106e-02,-7.443507086792301893e-03,1.894764006137847900e-01
2.238223461896220456e-01,1.573159520580880155e-02,2.044040285036699822e-01,-9.931311400828809338e-03,-1.235807586892388212e-02,-1.110473922581042307e-02,2.018961757421493530e-01
1.861624158359783676e-01,-4.022741424290759982e-02,1.116028250046919162e-01,-1.439065321043833841e-02,-6.279865820728816606e-02,-2.446143218421320542e-02,2.327645272016525269e-01
2.210526427068876809e-01,-5.005360536378039571e-03,2.220136370198862730e-01,-1.370513284493250642e-03,-1.649521743159288595e-03,2.230044127508637366e-03,2.266034036874771118e-01
2.045453048247928840e-01,1.247672289707180138e-03,2.036232520843332949e-01,-3.673359851278533948e-03,2.655631769674146343e-03,2.393586287376291664e-03,2.030323892831802368e-01
2.239483462774383427e-01,5.166449882166218588e-03,2.233234558928114399e-01,-4.169103028809249649e-03,-6.918496039234791738e-04,2.992524875869270219e-03,2.186541557312011719e-01
2.124148022419383997e-01,4.799242962963301551e-03,2.148478964373135569e-01,-8.129456918109214053e-04,5.133036091470138647e-04,3.669982346658792402e-03,2.089460939168930054e-01
2.011097153150465944e-01,-1.652095639706668839e-03,2.000923296496543713e-01,-3.728545661712592916e-03,2.833389514597823948e-03,5.825060771456936487e-03,2.026689052581787109e-01
2.108530886781074809e-01,2.841339195256864514e-03,2.000560856322337600e-01,-4.905717604631930004e-03,2.118307992768843524e-03,2.789009848013117906e-03,2.030974030494689941e-01
2.117856344547128511e-01,1.481194125303619824e-03,1.982117195872173387e-01,-6.786681361926878361e-03,3.355010434032926637e-03,4.010929392351252933e-03,2.043960988521575928e-01
2.178614124754640335e-01,-4.972977863908684126e-03,2.069212073238054506e-01,-5.851048334016530766e-03,1.485511064595855480e-03,3.360421713740199476e-03,2.178995162248611450e-01
2.229876534350884176e-01,-3.910739021716791441e-03,2.226047266155851134e-01,-3.041389928012370753e-04,1.187073923764958051e-03,-7.362545761164286402e-04,2.267206907272338867e-01
2.128950299482934017e-01,3.358940861337531003e-02,2.633144124166069133e-01,1.836750503032546361e-02,-2.617562316436311196e-02,1.355385615263552876e-02,2.176046967506408691e-01
2.285837816204820960e-01,1.751521135459871426e-03,2.264249044710141545e-01,-1.233194303068897626e-03,2.448786262729245582e-03,-1.461686288652270724e-03,2.258246988058090210e-01
2.220967832979502399e-01,4.820506033425375758e-03,2.288813701805360590e-01,-4.874846121455183104e-03,7.249534629239401439e-04,-4.305167513372201889e-03,2.210375815629959106e-01
2.226416768493947596e-01,-4.245862265686017878e-03,2.217386677799478290e-01,-4.055636025183967808e-04,1.342921493979269557e-03,-4.007685036654723074e-04,2.264514863491058350e-01
2.201431604298358102e-01,-4.920054488652902958e-03,2.215440529909085965e-01,-1.480830990751456824e-03,3.667993825651366430e-04,-2.319445971464363220e-03,2.258181273937225342e-01
2.260962582087190365e-01,-1.877571434963198893e-03,2.241711040238207331e-01,-4.433008550588575275e-04,4.610901008213242084e-04,-7.392404908467240009e-04,2.270236909389495850e-01
1.878150429172524283e-01,-6.827507374617125535e-04,1.861738688928224750e-01,-3.296807629254987649e-03,-1.287638054739219384e-02,-3.917729519661116225e-03,1.892110258340835571e-01
2.497906672772418069e-01,2.802678283988641050e-02,2.491032525809448450e-01,-1.205730843833655724e-02,-2.072481990337816590e-02,-2.778924011369245106e-02,2.303663790225982666e-01
2.048572787301292664e-01,9.498779730819917333e-03,2.083365083853698230e-01,-1.055078476977725204e-03,-4.369213738224907574e-04,-3.673485273974270125e-03,1.972337216138839722e-01
2.058793979291627663e-01,2.137710349340690708e-02,2.166165397427126105e-01,2.925940336745390391e-03,1.008693225968923524e-02,-3.413479855476690868e-03,1.910583376884460449e-01
1.165397985528897756e-01,-3.074473249657312668e-02,1.687710358575041647e-01,-8.497344131358056801e-03,3.922527270000943783e-02,4.733161643836669361e-03,1.923886090517044067e-01
2.340588905174190715e-01,3.319409577868120964e-02,2.128657026484378767e-01,-1.139961974198223926e-02,5.524691595559444446e-02,2.158099954447461125e-02,2.179049998521804810e-01
1.928893821011875287e-01,5.801891867386527180e-03,1.829160620731280495e-01,9.800449575922499934e-03,1.134993529094290021e-01,4.699606996302468096e-04,2.686455547809600830e-01
2.188260619227894999e-01,-1.064055400910507432e-03,2.149810866929791620e-01,-2.227416987826463714e-03,7.721096477255378005e-04,-2.150870447966181116e-03,2.180631309747695923e-01
2.112785489530418226e-01,-3.265063040600812982e-03,2.109506291350389251e-01,-1.161358798715962648e-03,-1.379106296839187080e-03,-2.955975193394085911e-03,2.144637107849121094e-01
2.088908657558784521e-01,6.350000734302474470e-03,2.093314707056575519e-01,-1.620176887466498157e-03,-1.982028063956623733e-04,-5.699811529535246321e-04,2.027836441993713379e-01
2.132005853674742712e-01,3.790542662198248536e-03,2.134293427019255951e-01,-1.510270360470039206e-03,-3.009219774256817882e-04,-3.083300103857271497e-03,2.096095383167266846e-01
2.086112447914576506e-01,1.707315325152336527e-04,2.072678473375317854e-01,-2.924833757010625139e-03,-1.995578945390920952e-03,-1.016518342336005139e-03,2.078700214624404907e-01
2.165050248741576255e-01,-8.100563781926195528e-03,2.152382885367214727e-01,-3.895802878922040476e-03,-1.219059752186463274e-03,-3.377030457421286661e-03,2.241628021001815796e-01
2.102950948265393527e-01,1.608450292371027546e-03,1.503295969324945913e-01,4.047799666137988014e-03,-1.802177280764326664e-02,3.149905543429371967e-03,1.889054030179977417e-01
2.292123175310671057e-01,8.259011581444736239e-03,1.642570708381388966e-01,5.357248482391089965e-03,-1.614500937597288313e-02,1.081056502393091916e-02,1.997652649879455566e-01
2.333306050542225396e-01,2.342720188130628656e-03,1.296504238566927592e-01,1.533074480208945030e-03,-7.362946472755439384e-03,9.512983233838888386e-03,2.014877051115036011e-01
2.331578722532064440e-01,1.808947984865451331e-02,1.632028068232045936e-01,4.298380216834180902e-03,-1.844995487825151770e-02,6.605611732087202440e-03,1.931593418121337891e-01
1.447363957924557853e-01,3.588494260947219794e-03,2.236377569701809009e-01,5.363650591966319901e-03,-1.660775926758878071e-02,2.294912279797829951e-03,1.954852342605590820e-01
2.312860711555775328e-01,2.375118376864529535e-02,2.386134151980012774e-01,-1.990508960998074294e-03,3.185280909969799134e-03,-1.619632018920230156e-03,2.114126086235046387e-01
2.438395521504018726e-01,3.015406408336254729e-02,2.407539367235776440e-01,2.735662222545907733e-03,-3.163881581028492145e-03,3.543282491714429727e-04,2.122840434312820435e-01
2.412169465854372419e-01,3.624518644804822221e-02,2.363837382277162169e-01,-2.120609277061934455e-03,-3.286814414028653691e-04,3.717608872629501820e-04,2.026335150003433228e-01
2.420336400966096035e-01,4.785011922928650296e-02,2.471796765009424690e-01,-1.701847731145950246e-03,2.873492955504457192e-04,3.728129473686074037e-03,1.969355940818786621e-01
2.418503915127192538e-01,5.214176690846394902e-03,2.295487920500043355e-01,-5.938976852417022709e-03,-8.753644528992509180e-03,-2.453230851329927034e-02,2.353257685899734497e-01
2.266778584724397638e-01,1.823365871567134144e-02,2.334334665690193655e-01,-8.249106533005798542e-04,2.668228598240219001e-03,-1.579638155814760796e-03,2.119756489992141724e-01
2.447064269596554431e-01,3.132739426645034242e-02,2.393280007343576155e-01,3.343931664726727294e-03,2.718607448407072812e-03,3.408886004718929860e-04,2.108742743730545044e-01
2.278819134182765715e-01,1.755057198639109473e-03,2.295154083458037231e-01,1.724893694553510104e-03,1.340628448571241091e-03,1.251384852696852063e-03,2.269899100065231323e-01
2.400288971365995006e-01,2.944656295012318403e-02,2.364557171804799740e-01,-2.178970349819219290e-03,3.039463982329570612e-03,-1.293399889161073960e-03,2.089311331510543823e-01
2.236028842003431050e-01,-4.501841692111069326e-03,2.205298300186934179e-01,1.827154041337783995e-03,-2.098538458558188435e-04,9.246902747873208660e-04,2.266118824481964111e-01
2.254465643245782691e-01,9.700458645758636145e-02,3.700491845169868732e-01,5.095432108045168385e-02,-3.286432052069353238e-02,1.383849087323604093e-02,2.599692940711975098e-01
2.398507551624970147e-01,1.706620088684154823e-02,2.326519864843180629e-01,3.789179450203385147e-03,9.724511220138611902e-04,2.421930586291926773e-04,2.193788737058639526e-01
2.046440878446789124e-01,-7.200977820750298353e-03,2.199184210909835291e-01,9.188559646621820981e-03,-3.064390104751991539e-03,1.127576737511005154e-04,2.205196768045425415e-01
2.199818134088007693e-01,-4.063069538042363149e-03,2.220129670279062384e-01,3.132259006446947228e-03,-1.521365736807996126e-03,-1.910332516600452132e-03,2.251724451780319214e-01
2.318565327233561013e-01,9.016324746084075636e-03,2.274402953848605469e-01,-8.182383646449090976e-04,-2.481211341702762099e-03,-5.060896179980116372e-04,2.207133769989013672e-01
2.358423251785025099e-01,9.408743169532995942e-03,1.937415246235461297e-01,5.929833114142765357e-03,-9.555581915469466350e-03,1.668448309409151231e-02,2.114855647087097168e-01
2.483397568353503115e-01,1.305134835709725882e-02,2.035340676373189051e-01,-1.046753668625919264e-03,2.756970018510632777e-03,1.251122132675233818e-02,2.175353020429611206e-01
1.699905032793718185e-01,2.658238551303349073e-02,2.433693555825689470e-01,2.311139359520092765e-03,-7.368572692748345983e-03,3.996401293236455921e-06,1.914481073617935181e-01
1.136320582906361620e-01,-7.180181544637068147e-02,1.121319485174222669e-01,2.471002433875910467e-02,-8.189662318696812326e-02,2.174055320965143090e-02,2.397512942552566528e-01
2.534174208097970116e-01,4.200059108180539957e-02,2.378973489869870839e-01,1.285347486542276485e-02,-4.366254310536418076e-02,1.730936948367134062e-02,2.208403795957565308e-01
2.250227703081424946e-01,1.481768980719477824e-02,2.126167230931116925e-01,1.485736046599453811e-02,-1.404865487533374369e-02,9.667040383633014253e-03,2.080070823431015015e-01
3.225838983117889081e-01,5.164260903697778793e-02,2.446592600108843663e-01,-5.428958538102432625e-03,-5.561092215795875038e-02,4.423164423183750804e-02,2.713003754615783691e-01
2.681600954002240078e-01,1.863986696838786095e-02,1.438483513452323281e-01,3.825434244136299670e-03,-2.805824707054417957e-02,5.072869008805187818e-02,2.383723109960556030e-01
1.996452567650440768e-01,-3.515269272165132131e-02,7.471541258458315460e-02,1.570082358148783275e-02,-7.239646587257915489e-02,2.251622665592436026e-02,2.436975687742233276e-01
1.577754191251955485e-01,-5.535511695253556019e-03,1.886783771139348698e-01,1.451259715571585028e-02,4.397389918529448494e-02,-6.818377477737305910e-03,1.981026828289031982e-01
1.858472573147914864e-01,-2.986023719921476749e-02,1.543408303325133346e-01,1.602528432075265435e-02,-4.623342223050268263e-02,2.597927854128357500e-02,2.234591543674468994e-01
2.257151289780975900e-01,8.692900903396971746e-03,2.247852144824653009e-01,2.193260537543633673e-04,3.671740295550118393e-03,2.784180259325249457e-03,2.167061269283294678e-01
3.141633015250663297e-01,6.116581873388066137e-03,1.317559015998103211e-01,2.264436331529264337e-02,-4.470987824759192070e-02,3.454404192186261158e-02,2.882539331912994385e-01
2.297080950500189900e-01,6.512111471394160800e-03,2.220927861487932975e-01,4.209311449186022014e-03,-8.544625551158024522e-04,4.976371233813757684e-03,2.197825610637664795e-01
2.702847627071641723e-01,3.789395108163520764e-02,2.505169755324003766e-01,-2.800727326031318513e-03,-7.539657643142283310e-03,1.440815242881766933e-02,2.249872386455535889e-01
1.768039958684456681e-01,-2.698799316375977142e-02,1.227570838727417846e-01,6.655954838769065872e-03,8.650731288217818060e-02,-1.975082205492981191e-02,2.391477674245834351e-01
1.170404989892472464e-01,-9.430126059421478635e-03,2.164295091292338380e-01,-3.148741471060958336e-02,6.138916934202044012e-02,1.056847403739086255e-02,2.303434908390045166e-01
2.083823046169286930e-01,1.029166226523714478e-02,2.220686069259645845e-01,-7.031621721634169139e-03,7.200815515806820166e-03,6.207095787266527290e-03,2.062954604625701904e-01
2.049145286932760324e-01,5.278701133377666777e-03,2.093544928809301930e-01,-1.119179023927899252e-02,1.163527304311859703e-02,1.036460290663859113e-02,2.046087384223937988e-01
2.256384140507314284e-01,-7.433677253113057937e-05,1.956312574673574334e-01,-1.807544137925632885e-02,4.078812114459105798e-02,1.755221122633979919e-02,2.279673069715499878e-01
1.987165561988550877e-01,1.327052839582847088e-02,1.992983422080707723e-01,7.921385284183048376e-04,-2.757212825654019317e-03,-7.716604287027090418e-05,1.858040988445281982e-01
1.131201501164261214e-01,-2.924357914615399734e-02,2.128147623536219279e-01,-3.231186997867704219e-02,5.568924512923698056e-02,3.685834730530590693e-03,2.384871989488601685e-01
1.728456613715386170e-01,-2.717911351574980872e-03,1.654279838821558768e-01,-9.379041634298158556e-03,8.956183063606514005e-02,5.483551432219684225e-03,2.323647737503051758e-01
1.430428234674605559e-01,-4.757801334513259151e-02,1.386927021540666494e-01,-1.635857267633647125e-02,9.262453182103075333e-02,6.930420658364747771e-03,2.494209557771682739e-01
1.782423309156810354e-01,2.072069481535888935e-02,2.297927427111641219e-01,-4.838580197824500148e-03,2.211692339808251848e-02,1.818760641480510198e-03,1.927133947610855103e-01
2.251811854322409989e-01,-2.317489722824250808e-04,2.294110769125890514e-01,-5.280524797166413753e-05,-6.400535016178146878e-05,1.085880755464313724e-04,2.275574952363967896e-01
2.269877009914691435e-01,-7.002465691215153942e-04,2.266654764806236289e-01,9.415890305429463732e-04,1.663232565573517926e-04,1.545640591819948118e-03,2.275487780570983887e-01
2.237588590732209060e-01,-7.818887514681654993e-03,2.039181468428931665e-01,-1.258592459496702190e-03,-2.841315707193350733e-05,5.234599702446981161e-03,2.225178629159927368e-01
2.186560483332745664e-01,-4.058432052482241481e-03,2.178537918990562372e-01,-2.284979269384976915e-03,-2.697926091810671167e-04,2.270581335803888851e-03,2.223849296569824219e-01
2.280892441057094100e-01,1.941172011468789149e-03,2.254560738761599570e-01,-1.623899805164721183e-03,-5.713053950789071227e-04,1.276480396480629336e-03,2.248736917972564697e-01
2.263621244560824475e-01,2.769760489575695539e-03,2.337000792004668703e-01,-5.721557141290076778e-05,5.649985493124332818e-05,9.826008763656915272e-04,2.273565828800201416e-01
2.260365411633268595e-01,3.317330473122936940e-04,2.303166140789308369e-01,1.107525131509589722e-03,1.143640725225788949e-03,1.348801643433734845e-03,2.279036492109298706e-01
2.516591905666000772e-01,1.676710103838471855e-02,2.088995239651935121e-01,7.446648424649036577e-03,-9.820004068772692635e-03,9.268795481586393839e-03,2.183395624160766602e-01
2.251988164340762710e-01,-1.045033925212157655e-03,2.301973860340699174e-01,-4.087022334801645009e-04,-7.412631316322862689e-04,8.447124348729742865e-04,2.287934720516204834e-01
2.245779992878977338e-01,-5.133197900547559200e-04,2.302739957125168879e-01,-4.262300768849298363e-04,-1.918348836780115634e-04,4.165543786600346666e-04,2.279952615499496460e-01
9.199474976762644918e-02,-3.612707729911718291e-02,1.616827755595320881e-01,1.794973045897789096e-02,6.818394539632235962e-02,-1.371982394860441629e-02,2.137255519628524780e-01
1.675083167521256855e-01,1.532462382590971117e-03,2.089675037721500095e-01,1.452519666504485055e-03,1.176569802646049330e-02,-5.655603347070065762e-03,1.914827823638916016e-01
2.234104017850362112e-01,4.838698933527812995e-03,2.269989212746237883e-01,3.667729099378549008e-03,4.483057980922800596e-04,-5.111907594236680431e-03,2.206584960222244263e-01
1.557781616836890481e-01,6.141517866697004946e-03,2.279997258853039832e-01,6.512187560073707041e-03,9.908586404890057722e-03,-4.409478523131482239e-03,1.972160488367080688e-01
1.508072354279448579e-01,8.639823423812004188e-03,2.080137034088194725e-01,4.341372528903862139e-03,2.371322368658651883e-02,-6.630529033383603631e-03,1.830093860626220703e-01
1.689790152073805674e-01,2.109215973129860422e-02,2.306455575059095098e-01,-1.170871862035800575e-03,9.870434430535696482e-03,1.308472576403707510e-03,1.873352080583572388e-01
1.467397853406952890e-01,-1.323218201083775636e-03,2.246307639213950824e-01,-9.797766239180881118e-03,3.202750722674329534e-03,3.459590238462573707e-03,1.996925026178359985e-01
1.772711312941387118e-01,-8.876087359475509642e-03,2.237470448305579618e-01,-1.169748209242439316e-02,6.067482823354757981e-04,2.975093994816520229e-03,2.142435759305953979e-01
1.788829205077477891e-01,-3.298657326167159232e-03,2.287158808562276824e-01,-8.664454676702650765e-03,-7.310667380599893692e-04,-3.340782729831261438e-03,2.121612727642059326e-01
1.467541012530779732e-01,-5.137819314732922082e-04,2.247797102430701410e-01,-1.235957904545932802e-02,1.010860502587452485e-03,3.608785995456802263e-03,1.994164139032363892e-01
7.582255068680805732e-02,-3.058047288357235161e-02,2.393779715091603477e-01,-3.555978889715571967e-02,2.953476765229879134e-02,6.581340573933719754e-03,2.490283399820327759e-01
2.229797711071099531e-01,-3.894429688863831895e-03,2.239137129120207237e-01,-1.053958984961857323e-03,-4.898568125540570190e-04,1.591937639230891176e-03,2.273682355880737305e-01
2.246445894547241529e-01,-2.350515201621439232e-03,2.256646145566597039e-01,-4.608783407237356986e-04,-1.006858192416927974e-04,1.951220566518408611e-03,2.275334000587463379e-01
2.311302501558407385e-01,1.275507968079814258e-02,2.355892218045057551e-01,2.311264197745588724e-04,-2.963868768849021377e-04,-4.481052901485056109e-04,2.206407785415649414e-01
2.262616689161590089e-01,9.859691534183090411e-04,2.314877076380568166e-01,-4.218911766359908578e-04,-9.161653461907265112e-04,3.067629152249070658e-04,2.279409766197204590e-01
2.249597990712894346e-01,-5.149768516204134006e-04,2.295843918177699616e-01,-2.288876860612163203e-04,4.769015948945120762e-04,1.479644392519199447e-03,2.278385311365127563e-01
2.234810969988201279e-01,-1.343655694906187303e-03,2.291223818349648333e-01,-3.432460599633762916e-04,-8.933018325240877180e-05,1.276153152142966984e-03,2.277093678712844849e-01
2.221861537532812403e-01,-4.085548330719307453e-03,2.241654416399771477e-01,-2.626935243817140903e-04,3.070150913822278487e-04,1.855349627329281248e-03,2.272916138172149658e-01
2.214401050591255082e-01,-1.444687709331149428e-02,1.918827649262445090e-01,-5.054442732585053520e-03,-4.421761258536617209e-03,-1.175014059399981034e-02,2.238160073757171631e-01
2.293755039126084416e-01,1.999045325683457275e-03,2.303064140083663225e-01,-2.966572510022356599e-03,2.162810834331620104e-03,-2.113388947366006288e-03,2.279614508152008057e-01
2.404751589163939551e-01,1.217014158317866745e-02,2.383356471356908868e-01,-4.891369685810781874e-03,-1.791029375177285478e-03,-7.746299759381069204e-03,2.278172820806503296e-01
2.220562277479722346e-01,-2.752631072305222748e-03,2.288573787307508489e-01,1.407414674848346428e-04,7.369148017743867634e-04,-7.333710373597679714e-04,2.282926589250564575e-01
2.257439823689974256e-01,1.413120095435094203e-04,2.318101876525362759e-01,1.654958668217143287e-04,-2.946007964677807849e-04,-7.435102416382504938e-04,2.287004888057708740e-01
2.297666062811166698e-01,2.046323295055385572e-03,2.263597195984145549e-01,-2.464467662699889672e-04,3.735943497775893671e-04,-1.244171089166735923e-03,2.260476946830749512e-01
2.244643039683824615e-01,-6.849768546036250072e-03,2.038204762389494162e-01,-2.147633734101952758e-03,-4.007354298292812081e-04,-5.695125374226811532e-03,2.219657152891159058e-01
2.683506931414851304e-01,4.894195780056112555e-02,2.730972155563695103e-01,1.640849468388720644e-02,1.936433521596234511e-02,-9.742128470769681123e-03,2.267631441354751587e-01
2.939634923469277572e-01,5.773237679295839531e-02,2.619411662564430920e-01,1.484423651884428028e-02,6.289059338605885140e-03,-5.035424853036205017e-02,2.401088476181030273e-01
2.032607315192438979e-01,-9.951889307054373468e-03,2.014974472054158749e-01,-3.674539028285486036e-03,-3.556816808540510123e-03,-5.060045150913911570e-03,2.127017825841903687e-01
2.257091982443126255e-01,6.417479238015416643e-03,2.209228191850113876e-01,-6.235286964116792952e-03,9.968506180285672863e-05,-4.494371648818443893e-03,2.173463106155395508e-01
2.315546410945839018e-01,8.634735497425022333e-03,2.265586899970966628e-01,-6.308080121920246232e-03,2.976236904160868839e-04,-4.415989977624198981e-03,2.208680361509323120e-01
2.248949080075272056e-01,-1.464046340984126449e-03,2.247729145211269930e-01,-6.601785774188920859e-04,2.632479451836257714e-03,-9.483669120646867623e-04,2.263527661561965942e-01
2.249759255956634285e-01,9.307367066927751953e-04,2.234323815988839002e-01,-1.592407722485891103e-03,1.155774011342584028e-03,-1.520922949515075362e-03,2.233189642429351807e-01
2.214223897635199390e-01,-1.787861913888855181e-03,2.210006367425138007e-01,-8.993028436308829693e-04,6.892100381902155262e-04,-8.572632786339597988e-04,2.230132520198822021e-01
2.247361845073693187e-01,-3.345266284334597051e-03,2.232695891320358728e-01,-4.943331963030373139e-04,1.815997062355976903e-03,-5.052789897239232152e-04,2.273767590522766113e-01
2.187119183828209468e-01,4.145867501404082445e-03,2.168176503335828009e-01,-4.518018431088326008e-03,-5.262860372628149538e-04,-1.390931609453659396e-03,2.137840092182159424e-01
2.268016158002119087e-01,9.857783877273151862e-03,2.263893678536688658e-01,1.758563985851737581e-03,9.564872982939816434e-04,-7.401465166655779538e-04,2.167695313692092896e-01
2.353529836581341184e-01,2.782706942160489971e-02,2.383641730016640148e-01,1.247622218352624057e-03,2.767309218777513381e-03,-1.592394918850201018e-03,2.091320753097534180e-01
2.670891919919480273e-01,1.831539288437836199e-02,2.542013132556818489e-01,1.739155516607569438e-02,-2.491784801386254591e-02,2.052466240704407807e-02,2.507632672786712646e-01
2.396778702941598505e-01,6.324453471012102257e-02,2.445684926786441671e-01,-5.091794730669173567e-04,9.607029439381986743e-04,-7.736379392784256334e-04,1.789437085390090942e-01
2.250889987217249144e-01,-1.774002614095104846e-03,2.245181890181777995e-01,8.394796557197296708e-04,2.833918985442329674e-03,3.376835968590374804e-04,2.266367226839065552e-01
2.234669886669068961e-01,8.424448090259328836e-03,2.396731349888150397e-01,6.070256402154984229e-03,1.142414749953921192e-05,1.877517562896897918e-03,2.238572388887405396e-01
1.610498834757062847e-01,1.854607084326202748e-02,2.274920992426495980e-01,4.899730099822107972e-04,-3.359358204891663320e-03,-1.350919450958167631e-04,1.849994659423828125e-01
2.515533096003138569e-01,5.682270000614553229e-02,2.411069202309883974e-01,6.132710914681619059e-03,-2.236884554971951388e-03,1.555480052877055309e-03,1.900789439678192139e-01
2.340558170955758521e-01,4.704221859084775637e-02,2.402066936703111111e-01,2.071948501601685098e-04,1.375084278736865345e-03,-2.474030101107306014e-03,1.902271807193756104e-01
2.418375243555406506e-01,4.653836219573395661e-02,2.372426173537706684e-01,-3.439666928509721878e-03,-2.670847546248160051e-03,-4.639631662458340642e-04,1.931917071342468262e-01
2.349942881697937580e-01,3.680941524001779541e-02,2.366134727867645338e-01,9.578507616610035811e-04,3.010678027300890420e-03,1.436533316020348599e-03,1.990901827812194824e-01
2.603140014784909861e-01,7.228075501825675930e-02,2.582993748418474511e-01,-5.638281064777137842e-03,-3.355852669553450432e-04,-9.890063078412173175e-04,1.872975826263427734e-01
3.361215408677079575e-01,7.205923133302141737e-02,2.910332559186160628e-01,3.602427648844513941e-02,3.060382314424814690e-03,4.306889558865834716e-02,2.633284628391265869e-01
2.208136335455668231e-01,-3.093066976349198582e-02,2.264924512515678612e-01,2.657915900295303169e-02,5.143670499379190270e-03,-1.203347956994436051e-02,2.597502470016479492e-01
2.647090782727882230e-01,4.815362627986605193e-02,2.571860929632534543e-01,3.602028677471937057e-02,2.770538660523147456e-02,-5.095958918357471057e-02,2.435354292392730713e-01
2.301885547076824023e-01,6.620913312557430430e-03,2.257610871658318752e-01,3.906040889049060012e-03,-5.982227166449510976e-04,-5.228609507806292189e-03,2.216779589653015137e-01
1.761049098445642835e-01,-4.182241614571186039e-02,2.129258809087092030e-01,3.944530187348860989e-02,-1.525282327573952885e-02,1.349473774599124418e-02,2.505682706832885742e-01
2.262662728030194192e-01,2.002878005268854400e-03,2.278052760772286134e-01,2.203336335892658055e-03,-5.950122307613800281e-03,-5.365534435937361658e-03,2.254966199398040771e-01
1.744638563534068043e-01,-4.751449260934503815e-02,1.310318900335414316e-01,2.396316413560763484e-02,5.463502113524839471e-02,-4.436550716164421732e-02,2.410442233085632324e-01
2.330001970739183637e-01,-5.482003832455950576e-03,1.709492906117677791e-01,-5.347209401580324019e-03,-1.187642175042256248e-02,-2.049974638528294368e-02,2.183934152126312256e-01
2.360608429412210940e-01,9.015013198080401580e-04,1.743294159696508194e-01,1.283264975454579543e-02,3.467697727283589049e-02,-3.354647443154076120e-02,2.281919568777084351e-01
2.390118370470589171e-01,3.360300746840508279e-02,2.368337124707614594e-01,1.937448437405223621e-03,-2.394110910428282318e-03,3.292653186615450076e-03,2.044776380062103271e-01
2.227744303982847340e-01,-4.264717073698465200e-03,1.783302135546139255e-01,1.569053952452372554e-03,-1.169352726637872507e-03,7.426262129414756136e-03,2.088262885808944702e-01
2.314393867287861672e-01,6.186647231563729976e-03,1.959051536384272818e-01,-3.494319868383531820e-03,4.979965379061241856e-03,6.380665298622752168e-03,2.103103995323181152e-01
2.235714745567727868e-01,-9.899009036168429643e-03,1.181049014088550453e-01,-7.283060903099897003e-03,9.556911983537306685e-03,2.701566773084857626e-02,2.088803648948669434e-01
1.487555861061125861e-01,-2.031599024551827837e-03,2.200644759896166480e-01,7.209329846907874123e-03,-5.347636834315923869e-03,4.664627190606602733e-03,1.971831470727920532e-01
2.235426716819745030e-01,1.772752610373037885e-02,1.965566118123169836e-01,1.542587112516233781e-02,-1.112588731470996045e-01,7.345791459933340498e-03,2.748551368713378906e-01
2.257856395043328912e-01,-1.024230198124087554e-02,1.212974395052740517e-01,1.922840582701871009e-04,-6.780715013428051732e-03,1.189639846926563577e-02,2.062218636274337769e-01
2.578936776983089540e-01,3.536645251033396220e-02,2.448769355966558259e-01,-9.105819216935583452e-03,1.376226805766792190e-02,2.809230625731309883e-02,2.235524654388427734e-01
2.396199534558040301e-01,-1.621200785503087993e-02,9.812381832263207537e-02,-7.410448710189252277e-04,2.254685285191250586e-03,3.330458870863088616e-02,2.293826490640640259e-01
2.472776259889257755e-01,-2.554494426092202009e-02,8.762228905475602514e-02,7.188518760258147747e-03,4.997351882829254716e-02,2.202907929181399313e-02,2.558658421039581299e-01
2.871196144257838201e-01,1.385653440125322877e-02,1.386031502281528105e-01,-2.683213171492341773e-02,3.161516820158838392e-02,4.249261387397695877e-02,2.583042681217193604e-01
2.390865274546807862e-01,-2.719134417274698956e-03,2.145136157852235437e-01,3.730562022087846076e-03,-1.321125835885759818e-02,2.051981874234756059e-02,2.344365417957305908e-01
2.105477175307519655e-01,-3.121698951517912213e-02,1.749859726777812652e-01,1.306292960329914939e-02,-1.726129852496969055e-02,3.002446981259411160e-02,2.350051552057266235e-01
1.250180492498433049e-01,1.744682663785229737e-02,3.112284658298922202e-01,3.164303634716096603e-02,-2.615414690799915468e-02,9.130278627554258911e-03,2.675496637821197510e-01
2.221090688329646623e-01,8.209391577151115005e-04,2.165493946028670402e-01,4.526674043966591281e-03,-3.414054169790114170e-06,3.977801093096798926e-03,2.188104093074798584e-01
1.742404768884412425e-01,-1.231787960437713547e-02,2.112534728490004787e-01,2.452222035893496244e-02,-2.356502084249697399e-02,9.736129778073324137e-03,2.164102345705032349e-01
2.292696849894246269e-01,3.048578287831532618e-03,2.266487229843398010e-01,-8.192462924261748102e-05,2.984622307700390050e-03,-8.922671073163793891e-04,2.249868363142013550e-01
2.510704080904744839e-01,6.103082582190499927e-02,3.668161502126915940e-01,4.611634317909882319e-02,-2.081499559780726483e-02,1.352628667939872673e-02,2.823777794837951660e-01
2.115665610248111117e-01,2.506875283956794265e-03,2.258163250773684572e-01,7.864952533096653334e-03,-4.643476830948650713e-03,7.267668904952144168e-03,2.174782156944274902e-01
2.246283697271959090e-01,-3.790111604285051339e-03,2.230057612503163478e-01,-6.070820301050347837e-04,1.516771082702084855e-03,-6.880475879533261155e-04,2.276322245597839355e-01
1.808508330983491508e-01,-1.364792291670802182e-03,2.313677192068541166e-01,-9.024040277221171899e-03,-3.531796428111964170e-05,-3.756014070360619468e-03,2.127112597227096558e-01
1.398472922164813170e-01,-1.804373799413619417e-02,2.298169884079969139e-01,2.732960257567737875e-02,-3.051875262197348629e-02,7.808764644330589907e-03,2.290139049291610718e-01
2.610576705547676957e-01,3.791709303106662043e-02,1.806954247866573438e-01,1.458765979441051935e-02,-4.590844883051471703e-02,1.485697537002190864e-02,2.143386900424957275e-01
2.407398968922236371e-01,1.607613026952128821e-02,2.076292673659290156e-01,7.150494057072649852e-03,-8.517147489463005802e-03,8.545726265724626347e-03,2.114745080471038818e-01
2.915429766924927946e-01,4.569775758377678243e-02,1.880504221275008103e-01,1.193570931285290078e-02,-8.669398648673189156e-02,3.983778677113664068e-02,2.710046172142028809e-01
1.976466465202301737e-01,-2.925505452987306465e-02,1.950190938812712549e-01,2.453781982185978053e-02,-3.497611183469025858e-02,3.349285066266036170e-02,2.444109320640563965e-01
2.746445549648015572e-01,3.748609755374043839e-02,2.392687270360780993e-01,5.867796712240437584e-02,-3.880962296740405465e-02,1.747026695712567898e-02,2.546947300434112549e-01
2.023180164603121667e-01,1.719558597081917439e-02,2.049970713081845919e-01,5.559836775117278380e-04,-1.362659568474386277e-03,-2.983436058164123483e-04,1.864945292472839355e-01
2.125651308011223262e-01,2.109944992588402846e-02,2.127243511996518843e-01,-3.646566599981998936e-03,-4.701032414063111009e-03,-4.547805014048589799e-03,1.919839978218078613e-01
1.750465389920651260e-01,-3.122554740167968190e-03,1.933220575741358971e-01,-2.540683502944551635e-03,-8.333553981628612217e-03,-4.493447915060543203e-03,1.887395977973937988e-01
1.790407321220836012e-01,8.559243325898205357e-03,2.004233319107022182e-01,-6.186884146256684848e-04,-8.798973099065916792e-03,-1.452916598665438463e-03,1.827737390995025635e-01
1.938250013305591324e-01,5.489289395992441589e-03,1.942931349614833714e-01,-1.122281578809963863e-03,-4.574298626628343044e-03,-2.384430447051571859e-03,1.887917667627334595e-01
1.801533773707340857e-01,1.424697246392765682e-02,2.026078249802784614e-01,-1.043569586160023551e-05,-7.628079214870682294e-03,-6.680055160975041954e-04,1.786907315254211426e-01
2.357793134462932427e-01,1.208794829185860786e-02,2.312155352671105280e-01,1.309779663408925082e-03,2.080786966252824981e-03,-4.642766330046249655e-04,2.214871495962142944e-01
1.538325819581082277e-01,6.127363193490303894e-03,2.312629304050229373e-01,7.687820873917545692e-03,-1.599163605644337866e-03,1.733484097380472806e-03,1.986030042171478271e-01
1.421304942332285437e-01,-1.894075184530499834e-02,2.168800896940028533e-01,1.935693815008031685e-02,3.030033396840014093e-03,-1.038468996278525463e-03,2.114859521389007568e-01
1.230097433717535771e-01,1.371422739310082517e-03,2.206916370781005776e-01,2.094056586747374341e-02,-2.971304967211877562e-02,3.091197309769668639e-03,2.005299925804138184e-01
1.967622428830519132e-01,3.117726558402243719e-02,2.305561709827302908e-01,4.240154322478966592e-03,-1.816698331119865131e-02,2.261252523821533078e-03,1.876581311225891113e-01
1.484860302781974006e-01,6.874808020497155669e-03,2.383075214126112451e-01,1.186505867334730971e-02,-4.548220360782988074e-03,-1.411187949535605687e-03,2.033021003007888794e-01
1.488154478636264932e-01,-2.141599933706411774e-04,2.206272257256785552e-01,8.023186618692154659e-03,-1.967533307205967738e-03,3.645728792833122494e-03,1.957381963729858398e-01
1.712264048032550723e-01,-2.930260678831336785e-02,1.757337698170750584e-01,1.753625926388761511e-02,-3.396114561841197949e-02,1.976667802605218058e-02,2.160806804895401001e-01
2.097856182550314474e-01,1.141958789787031470e-02,2.264981963282863830e-01,6.481969585268796720e-03,-4.807915250105284852e-03,6.314530587184812548e-03,2.079870551824569702e-01
2.257424649044245113e-01,-2.507482796585941420e-03,2.238254405970064032e-01,-1.972480179751799579e-04,9.056305502617810607e-04,-9.104434902613316779e-04,2.273086309432983398e-01
1.458754483690943293e-01,1.336393291148278706e-02,2.292688851261327210e-01,-9.940707235041165366e-04,9.802589087764783729e-03,5.072094982108924649e-04,1.893577724695205688e-01
1.485960359034323441e-01,2.108328720773251785e-02,2.475274698460123712e-01,1.723495957833918969e-03,5.405518532142239777e-03,-8.425788666369060870e-04,1.968772411346435547e-01
1.389666106175013460e-01,1.841599423262564594e-02,2.433404760883923768e-01,4.350203187722399660e-03,3.840893103558876490e-03,-1.054923659457121271e-04,1.952171921730041504e-01
9.441425698662249399e-02,-7.881887621070587935e-03,2.217944148720860931e-01,2.413133181298394297e-03,5.536503742257377868e-03,-7.707839377585324302e-04,1.995793431997299194e-01
1.654988724978280756e-01,3.041339246035894284e-02,2.576654023903611201e-01,-6.695169329413402752e-03,1.828635836368275530e-03,1.948025547910096781e-03,1.983658373355865479e-01
9.315305065044909849e-02,-7.244285919661710982e-03,2.650880584015896102e-01,2.707114801120256639e-02,3.575020880695421732e-02,-5.259665063750627347e-03,2.510355710983276367e-01
1.498454711835747466e-01,2.049473999091781795e-02,2.331745436931861870e-01,1.629108144259016830e-03,6.657151421929995323e-03,-9.029146115694750702e-04,1.860037147998809814e-01
1.046412333979852005e-01,-6.050510618732490853e-03,2.331571428468653950e-01,-4.778184080248636285e-03,2.715350792230601922e-03,9.080313835943787078e-04,2.075758576393127441e-01
2.242012216410773917e-01,1.937302764221660034e-04,2.274896703067119941e-01,4.355386847137921597e-03,2.026155494158653637e-03,3.123692256982096589e-03,2.258878052234649658e-01
2.212910303701549897e-01,-2.580964574279309698e-03,2.200480249789583120e-01,1.008721788253540532e-03,6.254651858706704879e-04,5.666290609674251447e-04,2.232647091150283813e-01
2.161374458189130876e-01,-5.731904424451456093e-03,2.174839975852511931e-01,2.372595262974553504e-03,-4.912721959053348774e-04,3.483855354839531567e-03,2.226670235395431519e-01
2.219993201608858047e-01,-3.230044467035370070e-03,2.219519812109648216e-01,3.660327168631295888e-04,6.407575044632817397e-04,7.829221205315061317e-04,2.252134084701538086e-01
2.167874493869100250e-01,-1.323519848133392074e-03,2.163171377692759134e-01,2.332223659003589133e-03,-2.100264290086913761e-04,1.132699676557734998e-03,2.179227769374847412e-01
2.086626680573024639e-01,3.123037227051872478e-04,2.088139791045074967e-01,2.455264325701664394e-03,-1.488121533742707819e-03,6.925590928862587238e-04,2.084888219833374023e-01
2.304277473233769524e-01,7.405902479114823134e-03,2.305367014295671702e-01,-5.358579362295579421e-03,-3.555804006012906401e-03,4.880357697007086694e-03,2.235141694545745850e-01
2.498321000562272742e-01,3.001581119818191867e-02,2.423399495331501896e-01,6.942632022745258815e-04,-2.809919744599791462e-04,3.075778490031703949e-03,2.162371426820755005e-01
2.113494072317100847e-01,3.202845755252620163e-03,2.151998809019988745e-01,-4.862827000784255595e-03,3.458535755193160605e-03,7.182518800579235432e-03,2.107198834419250488e-01
2.960660771074586917e-01,3.272678436109369149e-02,2.215569414280454119e-01,-3.953904011153476852e-03,9.257106766492705432e-03,2.135375594121524667e-02,2.386418730020523071e-01
2.420208846906592992e-01,-1.815046562312644385e-02,1.916584133136954859e-01,-7.607905400418966957e-03,-1.358982777110967922e-03,3.322807593382402086e-02,2.461993843317031860e-01
2.247683252525826125e-01,7.350730058732546368e-03,2.227916782663620365e-01,-2.313333255837169474e-03,2.282624582155489638e-03,3.479604538587254079e-03,2.165931016206741333e-01
2.509630623766175295e-01,1.602815561579976067e-02,2.348281525333575370e-01,-4.087888362077763196e-03,4.645768048832618277e-03,5.803003572657993228e-03,2.277718186378479004e-01
2.389377300232948254e-01,-5.966954576038518976e-03,1.783843640584054091e-01,-2.679902909158887237e-04,-2.125173169301866095e-03,1.118159783388068644e-02,2.218198776245117188e-01
2.389154352196237174e-01,3.035840430978112292e-02,2.436397096780187899e-01,1.614605845748490198e-04,-1.342710894705195345e-03,-1.039706397136286797e-03,2.109795361757278442e-01
2.284132339934656641e-01,1.112186610694973488e-02,2.334970890470961791e-01,-2.495085322606823710e-04,-1.463007269791004046e-04,-5.610320311129565491e-04,2.198801040649414062e-01
3.278591775789004292e-01,4.036687688042192579e-02,2.379714724945757032e-01,-2.361814662380578786e-02,1.192456155739241193e-02,2.805625434354253045e-02,2.633459568023681641e-01
2.308808232080322154e-01,1.708769063433518420e-02,2.347711900740487301e-01,-2.740122964440085303e-03,-1.092618199907912334e-03,6.787675463432274285e-03,2.161450833082199097e-01
2.015953694765189874e-01,-9.427170638309195771e-03,1.427075351712173146e-01,-3.923666830443869186e-03,-1.419368752746531966e-02,-2.091689133323163582e-03,1.903557777404785156e-01
2.262500573460409226e-01,2.507728667577091564e-03,1.555834860298265787e-01,-4.836515143712127700e-03,-1.219694781361516621e-02,-1.036532644169289863e-02,2.002051025629043579e-01
2.347196441166491399e-01,1.232243863880608248e-02,1.576389837529857951e-01,-5.340034043441923683e-04,-1.426171728129780160e-03,4.683951041997998395e-03,1.957861036062240601e-01
2.784300807918469456e-01,-2.714589017676682925e-03,1.024011449846754657e-01,-2.198768947457245288e-03,2.293662510801033980e-03,-2.852869994993590536e-02,2.510196566581726074e-01
2.440228391126219309e-01,1.315912932679327851e-02,2.076923847782398969e-01,-1.487341788414359937e-03,-1.350682792319092898e-03,-1.151036885335586513e-02,2.159633040428161621e-01
2.173878071784128840e-01,-3.290998626895413892e-03,1.883447955424686904e-01,-5.827541456514722176e-03,-5.206207088636047309e-03,-6.413817971094939313e-03,2.084227949380874634e-01
2.790751398573153574e-01,1.833198646727876580e-02,1.329237032760771375e-01,1.282847697336887867e-02,-1.875126515191354113e-04,-7.870338584183672950e-03,2.278571724891662598e-01
2.283591563474983988e-01,1.260730996104270085e-02,1.953860949422009385e-01,-1.663480773369918966e-02,-2.340878165970649433e-02,-2.234014696493692373e-02,2.109345644712448120e-01
2.383478909561248249e-01,-1.881375125169981732e-02,6.080634583195304588e-02,2.357083642608163131e-03,-3.736912240737883667e-02,1.273117289007018489e-02,2.380934804677963257e-01
2.152965984732790883e-01,1.045794223662405154e-02,2.468983641236005555e-01,-7.527388386356518267e-03,-4.469468509441879185e-03,-1.554996586412434783e-03,2.228631377220153809e-01
1.529932435271662561e-01,8.736926482493564960e-03,2.250416730178398939e-01,-6.811887004198076759e-03,2.457435892060467336e-02,2.125973104029559024e-03,1.958539336919784546e-01
1.565157661031204017e-01,-2.049000888992032199e-02,1.769127171771221751e-01,-3.957593029486455166e-02,6.654854400750152832e-02,3.220146638675807499e-02,2.375987172126770020e-01
1.874046587381476558e-01,7.467370912007678663e-03,1.895356439999281162e-01,-5.977745533541694786e-03,1.571474037559733583e-02,9.414780189289243331e-03,1.840635389089584351e-01
1.834377401301190702e-01,-4.517736717375236966e-03,2.269698481849947713e-01,-1.076139323370210905e-02,5.551901305004412063e-03,5.595895701655057876e-03,2.143320739269256592e-01
1.569096157358816079e-01,6.080624641609536085e-03,2.064406596458623344e-01,-1.128836817925515110e-03,1.245103440854704487e-02,1.790733481995262361e-03,1.820767819881439209e-01
2.290572931141728885e-01,-7.352614327970907748e-04,2.255107938048995231e-01,-3.152435020701906425e-04,9.997905714414414419e-04,-6.975447425872878049e-04,2.280504107475280762e-01
2.409062984388830597e-01,7.571629706011107075e-03,2.232208929168961187e-01,-8.466946541821025046e-03,-5.114871833159001020e-05,9.176725280102458748e-03,2.260507345199584961e-01
2.049810742769894167e-01,1.820915476419010526e-02,2.660189903762500974e-01,-2.550584708577899318e-02,2.987115495907048668e-02,8.594490833409653557e-03,2.342213541269302368e-01
1.913090528743758567e-01,7.750775367559747941e-03,2.092064187080636684e-01,1.298080286928320336e-05,9.962893768197939731e-03,5.656118137269313013e-03,1.941466480493545532e-01
1.933888395670536331e-01,2.025853676084300725e-02,2.113766375790881447e-01,-2.419180860156248686e-03,6.458037652135836457e-03,3.528044225948467113e-03,1.832809597253799438e-01
1.929751797319135820e-01,4.494095763312888625e-03,2.206171652015439522e-01,-5.918684761442633349e-03,2.764674292075104071e-03,8.034967584354318904e-03,2.045015692710876465e-01
2.229665363655533028e-01,2.758315798922020279e-02,1.870210796160705624e-01,-1.137856843612389170e-03,2.251411998564632755e-02,-2.400541214796134831e-03,1.843513548374176025e-01
2.233502518534402070e-01,-1.409752766866362306e-03,2.231374163364854279e-01,-2.719112869829044387e-03,-1.632049166816585718e-03,1.545580648828280340e-03,2.247367501258850098e-01
2.199216981715651498e-01,-4.567254200360360006e-03,2.201754194044136526e-01,-3.192986785457887621e-04,-6.274059219951384813e-04,4.164160241771118834e-04,2.246203869581222534e-01
2.227184214135164708e-01,-1.236207757618595915e-03,2.222770113071419751e-01,-5.904779615886245406e-04,-2.353971361238824664e-04,3.840880793052730007e-04,2.237379550933837891e-01
2.214589498679512269e-01,-4.983264658647845735e-05,2.212007571685115637e-01,-3.310644743469752949e-03,-1.171189884744572524e-03,5.714458709946504964e-04,2.214655578136444092e-01
2.205291688952653040e-01,-2.593424136709765460e-03,2.219000220400288992e-01,-2.037788989295839272e-03,-1.382646171485314409e-03,1.441380709843118882e-03,2.238657325506210327e-01
2.182026087905424294e-01,-2.168459862427668527e-03,2.163366473227920084e-01,-1.533074396299209316e-03,5.451697922025561293e-04,2.161231754472733857e-03,2.194940596818923950e-01
2.202841807346782588e-01,2.251448142637668681e-03,2.214863084843263774e-01,-6.201223214766044206e-04,1.733727231445335998e-04,5.972231111620514852e-04,2.186415642499923706e-01
2.187957229174419260e-01,-3.480575310488648322e-03,2.182591738808116189e-01,-1.534204887722319215e-03,-4.713723680672493263e-04,2.039802651492145669e-03,2.220540195703506470e-01
2.351528578023218685e-01,1.188401627064758492e-02,2.306813868977523052e-01,1.362613432918212929e-03,-4.133294086767119561e-03,-1.131724043422454971e-04,2.211955934762954712e-01
2.255537604004319574e-01,-6.202038676469012746e-03,1.986278988252837552e-01,3.006636647922261013e-03,2.252102214699810197e-03,-8.473224224958346776e-03,2.201209962368011475e-01
2.300291231713085804e-01,1.981448031685845157e-02,2.424450368190412819e-01,6.522588057846999063e-03,7.806040122128370985e-03,-2.102245435171626580e-03,2.174351662397384644e-01
2.331533433417837253e-01,1.514628556541994242e-02,2.316452952949382693e-01,4.205905226953985353e-03,-2.466600313819751217e-03,-4.715559542190001473e-03,2.175743877887725830e-01
2.441378081695722846e-01,1.137539149564534280e-02,2.811615012003931269e-01,8.038435883761343992e-02,-1.451714924093985663e-02,-7.679936567483562800e-03,2.904495596885681152e-01
9.394470122748610486e-02,-4.430126189580056717e-02,1.863006635398615496e-01,2.803856934870482820e-02,4.631835327405823405e-02,-2.043064950052220913e-02,2.246247977018356323e-01
2.262089824813292571e-01,2.696864014259392484e-04,2.274452946418343280e-01,1.174312758536500160e-03,5.752350148579986246e-04,4.523563972098282922e-04,2.265726625919342041e-01
2.239373483327679049e-01,-1.839277043213627394e-03,2.259935907270213817e-01,6.666331274020287313e-04,4.815859634729024574e-04,4.115155063076450536e-04,2.268173247575759888e-01
2.256040181612253004e-01,-8.219169516776037021e-04,2.298024399144757979e-01,6.198202488313985046e-04,7.715648814693330457e-04,7.105538060685008452e-04,2.285638153553009033e-01
2.245555676326964623e-01,-1.191589323645492193e-03,2.252159713944779929e-01,8.369589364476695765e-04,1.916779184198859473e-03,1.019344232640309296e-03,2.261140048503875732e-01
2.253857164123959922e-01,3.391922393354562804e-03,2.285651223746347493e-01,9.862940228369887832e-04,2.877170561487027520e-03,1.426348843743564245e-04,2.236626446247100830e-01
2.289622712649471703e-01,-8.387853231308639579e-04,2.252985015749837117e-01,-6.245229574683018765e-04,4.416267650394588426e-04,-7.138471291115250578e-04,2.279984503984451294e-01
2.233101093820756278e-01,-2.003572495036576306e-03,2.270269473378881686e-01,2.721088091574962327e-04,2.002764095055109377e-03,3.542452997150469371e-04,2.272226959466934204e-01
2.269011505106789950e-01,3.527985588485604840e-03,2.343838755083932635e-01,-8.992469321396443643e-05,5.291495093973538595e-04,8.677552084940873397e-04,2.272138297557830811e-01
2.240559839930364450e-01,-2.295514190799180509e-03,2.254285536933461342e-01,1.044050412738825248e-03,2.999788824582163595e-03,1.433572850054431070e-03,2.271211147308349609e-01
2.369220695500667828e-01,1.485794305945198346e-02,2.433278194077505563e-01,4.629015729373638956e-03,3.787191947003542072e-03,3.821944620920372272e-03,2.256703972816467285e-01
2.240633453452943735e-01,-3.764826770828288982e-03,2.236575666629485315e-01,7.250953660003955003e-04,1.569868087076965518e-03,7.128625871904264695e-04,2.276486009359359741e-01
2.181187352525920664e-01,-4.357351096334866059e-03,2.185509836129425065e-01,1.260150748774757287e-03,-2.287122272232000283e-04,2.138075740186100911e-03,2.227343618869781494e-01
2.223970741070906143e-01,-2.970241365064685279e-03,2.232818773731821693e-01,1.560521138426444179e-03,1.375383597345255279e-03,2.446093104902826755e-03,2.258794903755187988e-01
2.058229278294818054e-01,6.398774372736462657e-03,1.810563374437415551e-01,1.203843210589710527e-02,-5.414222607350611949e-02,5.149555939718270317e-03,2.115485519170761108e-01
2.198925883982629503e-01,-2.944060113141661050e-03,2.205630173901459434e-01,2.217805548905572247e-03,6.921834129775380953e-04,1.604427896735500375e-03,2.232261896133422852e-01
2.249605611120267246e-01,-1.913224872629903928e-03,2.236324153916564583e-01,2.355716413934032770e-03,-3.937602501582136401e-04,1.806248001881712549e-03,2.262720912694931030e-01
2.182575950172473966e-01,-2.453008567189024491e-03,2.189325706341587185e-01,4.618081674422691639e-04,-3.416266074693248274e-04,1.050039335890013510e-03,2.210585922002792358e-01
2.222887443015411080e-01,-1.747186801799832656e-03,2.206853076495300936e-01,1.200242566132381661e-03,9.223036326627692552e-04,2.319421224380982006e-03,2.232900708913803101e-01
2.507085106109688821e-01,2.308985113973563430e-02,2.515092712946784825e-01,4.976024723076247431e-04,-8.607907542602823495e-03,-9.592041959349316069e-03,2.291118055582046509e-01
2.382379099098323461e-01,3.088476775759263493e-02,2.403750142641957188e-01,2.271114175548490533e-03,2.160050292233396500e-03,2.789295031453966831e-03,2.085565626621246338e-01
2.409735570846867070e-01,1.523644100263507606e-02,2.313399037712525197e-01,-1.779918208086146095e-03,-3.557008577101577855e-03,1.247736685769991732e-03,2.211956381797790527e-01
2.270554531079472249e-01,1.134127675547672021e-02,2.342539986072468272e-01,-1.033368814231483456e-03,-1.514173534764114452e-03,1.988946710106539225e-03,2.194520533084869385e-01
2.291627958628712491e-01,1.336043077303303295e-02,2.352859233130251693e-01,-2.766050740400434939e-06,3.584911979097884019e-03,-1.737040066062269829e-03,2.190368622541427612e-01
2.391933220610615030e-01,5.127523741397532753e-02,2.448628999978388343e-01,9.166570426693988055e-04,6.077943252484851289e-05,3.294236303119445642e-03,1.909079700708389282e-01
2.351500066881908046e-01,2.072612509503121703e-02,1.826277392792399201e-01,2.860437034510366749e-03,1.922119701710737691e-02,-8.309040377951784628e-03,1.970131695270538330e-01
2.014696766882487222e-01,4.583505680822552719e-03,2.167077218263849525e-01,5.484527554134948323e-03,8.522696529990657008e-03,-5.224379168420488842e-03,2.058799564838409424e-01
1.990038413281757512e-01,2.349280573354334267e-02,2.131041113605048887e-01,-1.275916244824119514e-03,1.225201557718090875e-02,1.440557467817196301e-03,1.842257827520370483e-01
2.150225576791490179e-01,1.204853535489493199e-02,1.743166519610626075e-01,5.098087086927573057e-03,3.328286937593955778e-03,-8.440127864777248468e-04,1.862968653440475464e-01
2.273269073418204278e-01,2.699118968635907945e-02,2.022244880983571358e-01,6.398980872184005866e-03,8.635073097168748796e-03,-3.050445678278026346e-03,1.900264918804168701e-01
1.770422675462512418e-01,1.711918160536435307e-02,2.210162851613689805e-01,3.905327404453305153e-03,1.013623721141811845e-02,-3.238085582297315756e-03,1.868876963853836060e-01
2.505340579191911998e-01,3.380253692640969310e-02,1.677382787548370446e-01,-2.803824105033330023e-03,5.295031238381144034e-02,6.680213494531887612e-03,2.108362019062042236e-01
1.943062461195691204e-01,-3.816070485601619211e-05,2.155118343162610306e-01,5.261750328738336834e-03,-2.231781970704318531e-03,6.460431538451757126e-03,2.063100188970565796e-01
1.655950662952483943e-01,9.258993801407808255e-03,2.151691589071277888e-01,-3.240913381089538910e-05,-1.336013948917665235e-02,4.171403825935200184e-03,1.877137720584869385e-01
1.760573449276698621e-01,1.203281100893686950e-02,2.120270058524498236e-01,1.528390537855556447e-03,-5.492889936955344839e-03,2.616572200258755927e-03,1.849752217531204224e-01
2.089938153268737775e-01,1.227730541445593015e-02,2.151967189230615807e-01,1.942209255495228569e-03,-1.318194839597554855e-03,5.108980055698954074e-03,2.001272290945053101e-01
2.043890037213535738e-01,9.401743811559476471e-03,2.448004285750892406e-01,2.398400747288194704e-02,2.199043599139191736e-03,4.986640919154277513e-03,2.221432775259017944e-01
2.214414969388268650e-01,5.084379538283639866e-03,1.999974222622541709e-01,7.623935724770399165e-03,-7.692220568880805791e-03,9.138899634491529436e-03,2.079257369041442871e-01
2.035203804685819795e-01,6.699542555677906464e-02,3.611780056778917114e-01,-7.085256916409887751e-02,-3.130056794953765820e-02,2.613041071958034645e-02,2.916625142097473145e-01
2.208469609997594785e-01,3.374702140754745616e-02,2.774428297209170502e-01,-3.013898015669932637e-02,2.061509123201485036e-03,1.696421558402007833e-03,2.270352840423583984e-01
3.154202451378100291e-01,1.014465404296144568e-01,3.429705900433698829e-01,-5.282928755871923315e-02,7.142302425472184246e-02,3.427391204175612993e-02,2.822046577930450439e-01
2.670039183390179316e-01,7.041123883845967768e-02,3.960573684510140247e-01,-5.421474752257222224e-02,3.837715144515931737e-02,-1.656163854318765810e-02,3.077879846096038818e-01
1.331999028427731935e-01,-2.503464801808499840e-02,2.485265339572199361e-01,-4.810635395226681849e-02,-8.725639592560178320e-03,-1.047979988322648645e-02,2.531553208827972412e-01
6.023389897014355676e-02,-3.993886687167710892e-02,2.320514584922817869e-01,-4.819531595453042244e-02,1.019883948323797862e-02,7.447539408854964189e-03,2.534050345420837402e-01
2.397390005865391027e-01,3.509251100055096884e-02,2.783903171765916840e-01,-1.540641215959892910e-02,4.975698816924645955e-04,6.730708674308531932e-03,2.283258438110351562e-01
1.729940377751764680e-01,1.630686790906694938e-02,2.212337866374508022e-01,4.684409611557248908e-03,1.996378028549417732e-02,-5.791825562447184758e-03,1.892052292823791504e-01
1.503104094832229121e-01,-1.014064036385750600e-02,2.065525969739815393e-01,1.573667545086658570e-02,2.587190600496846668e-02,-7.380060239028982290e-03,2.021045088768005371e-01
2.108593828096427814e-01,8.265867233219287291e-03,1.904761201911856494e-01,-4.679648102890698359e-03,-5.005448819345025870e-03,-1.075705086675313345e-03,1.935831159353256226e-01
2.070085605026322217e-01,1.585186368333718621e-02,1.956457707467366136e-01,-1.283715629025261292e-03,-2.616585692872146641e-03,-5.374376756076857742e-04,1.858070790767669678e-01
2.160232917282932097e-01,1.371420646387042086e-02,2.063038411165080688e-01,-5.259077886710496717e-03,-2.178738580548237030e-03,-2.715007314137879522e-03,1.979303658008575439e-01
2.646449910961867769e-01,5.664283386824278677e-02,2.756707016958974688e-01,-1.687910266983263727e-02,1.704980354256586776e-03,-4.801102166716163136e-04,2.157404869794845581e-01
2.401106371244521032e-01,5.257839769754159287e-02,2.392714485933091217e-01,-2.060471269484562620e-03,1.527910605297979002e-03,2.235679762272689813e-03,1.872068494558334351e-01
2.720118776171244757e-01,8.559408184732791858e-02,2.966811471179742199e-01,-3.267134441780498132e-03,-8.398251199133004163e-03,-4.068614035445784023e-04,2.005070298910140991e-01
2.188506352723837423e-01,1.936491347613567005e-02,2.484243993472688150e-01,-2.673954058717034621e-02,1.526944365724540974e-02,1.126747886509727598e-02,2.231457978487014771e-01
2.358976577798588270e-01,2.634524870966778454e-02,2.320551514972410967e-01,2.126915973050643588e-03,-2.596106332705346281e-03,3.352698723997899269e-03,2.078203111886978149e-01
2.657276233106258267e-01,4.870439849055940851e-02,2.803084779845352870e-01,2.848176289965878571e-03,-2.939113874303976148e-03,3.971295283340389032e-03,2.248858213424682617e-01
1.892325557747903952e-01,-6.030965253000911130e-03,1.601863065011952525e-01,7.785891398596847882e-03,2.543772341208995480e-02,-7.308117994100906019e-03,1.886350214481353760e-01
3.522153378501971521e-01,1.402562067691301428e-02,2.786917213244686220e-01,-2.770048517111807496e-02,-1.042647658688638200e-02,-1.746025962206200575e-03,3.123304545879364014e-01
2.131279660283100785e-01,-5.268169704686298527e-03,2.204162957857948024e-01,-1.614489789645971729e-02,3.156533197248861250e-02,1.237947474910274133e-02,2.314575016498565674e-01
1.408166063282382807e-01,-7.413309888586758212e-02,9.852123589458403052e-02,2.410083460610618761e-02,6.922909500549306872e-02,-3.086501989336434826e-02,2.405813783407211304e-01
1.137278986002546038e-01,-1.623058719783945780e-02,2.311554912407137174e-01,1.714686615331631470e-02,1.026807185525036303e-01,-1.440594401384102669e-04,2.800915241241455078e-01
2.119413798667487414e-01,-6.134839057196084244e-03,2.170377827256310677e-01,1.143927843188617677e-02,2.847762754039086588e-03,-9.596810220531167002e-03,2.222336828708648682e-01
2.018609343048040627e-01,-9.619331077015180753e-03,2.208445264475510372e-01,7.758299735228512371e-03,1.817270902532800401e-03,-5.365534556263122298e-03,2.222066223621368408e-01
2.271552059515336563e-01,3.120561150010742191e-02,2.659273260376860959e-01,2.318451105790874864e-02,1.648983393947158274e-02,-1.480606046152713878e-02,2.249063551425933838e-01
2.226659530064701853e-01,1.490171029511283551e-02,2.317087743292866320e-01,6.713111801961517931e-03,1.483095858160793108e-03,-7.020073509134126290e-03,2.131107002496719360e-01
1.780113899545087419e-01,4.223236379678421692e-02,2.785015161391394822e-01,2.000844812244653020e-02,2.555015578842812635e-02,-5.214458904004285432e-03,2.131189256906509399e-01
2.237866329307502400e-01,9.666014148828616648e-04,2.237003000026015487e-01,-1.426457732669605873e-03,-5.050267468203054663e-04,1.371460862052141820e-03,2.228049635887145996e-01
2.224539794955811001e-01,-3.851371377790208106e-03,2.236478417236468230e-01,-1.580333399972189004e-03,-8.462943655424530085e-04,6.483840109045858327e-04,2.269286662340164185e-01
2.222425704673780256e-01,-4.502014761808670329e-03,2.232270255435165884e-01,-5.649336477808608462e-04,-4.358248729793256756e-04,-3.682486523373191607e-05,2.272417843341827393e-01
2.239666595017547057e-01,-2.346363805358686605e-03,2.245674015463861584e-01,-1.020745077502127748e-03,-1.076510425539974926e-03,4.806575202934128483e-04,2.266300916671752930e-01
2.207339142489718187e-01,-5.567548235101610343e-03,2.195668010836153150e-01,-2.416045867667037089e-03,1.530321224925672448e-04,1.337636981485598210e-03,2.257709950208663940e-01
2.208961988141409094e-01,-2.013746169408359155e-04,2.202229222966383682e-01,-3.729304877771671446e-03,-9.140873848452210713e-04,1.005842456557328032e-03,2.208687216043472290e-01
2.245871701503132090e-01,-9.540041411014998918e-04,2.274974918119337941e-01,-4.638888166868219303e-04,-8.158775043534686111e-04,5.570791867320136785e-04,2.270181924104690552e-01
2.257906238279087929e-01,4.365614722045829676e-04,2.287158426090078467e-01,-2.192439467071039417e-03,-2.591379259864368297e-03,1.777189620606351231e-03,2.269278764724731445e-01
2.280354046156577164e-01,3.450996056690081026e-03,2.277925490903797701e-01,-8.511431701090893640e-05,-3.405599835206713725e-03,3.706963636677927144e-04,2.245415449142456055e-01
2.250249622905311497e-01,-1.119957346408073651e-03,2.248590384737489123e-01,-1.160989631973944171e-03,-2.962283649623498674e-03,8.522157945778825738e-04,2.261339873075485229e-01
2.223956187482845348e-01,-2.727505465442425781e-03,2.229329776788261108e-01,-9.504781254583936087e-04,-8.740245649165988978e-04,1.413070685742025441e-04,2.254035174846649170e-01
2.225737709426348354e-01,-4.055841374376756292e-03,2.217656485349567275e-01,-2.330518000322555090e-03,-6.624171188077046654e-04,1.630889444370300706e-03,2.262831777334213257e-01
2.137081326944429427e-01,-6.070734048816583961e-03,2.102556445186133938e-01,-4.437824495304662671e-03,3.878568948440166888e-03,3.657909289716021993e-03,2.184038460254669189e-01
1.649076684669114612e-01,-1.676547445672360581e-02,1.818053938411492432e-01,-1.908966321571574712e-02,3.532317238190523651e-02,1.355287407457957116e-02,2.043232619762420654e-01
2.221611001265184626e-01,-3.891200372086789372e-03,2.215321757075358333e-01,-9.542883419915597137e-04,-1.580751459360101203e-03,3.108152865130520918e-04,2.257617861032485962e-01
2.241017611316519220e-01,-8.998692413350606323e-04,2.245677151494007151e-01,-8.553812750909417810e-04,-4.730479193900511640e-04,3.511760393018061943e-04,2.252421528100967407e-01
2.515669885128052341e-01,2.282293752701677891e-02,1.488618987783837944e-01,-1.170993371717877346e-04,5.199133185883430056e-03,-1.280465898708024177e-04,1.986458748579025269e-01
2.389022196562148315e-01,1.748611015081777409e-02,1.737913382782590443e-01,6.065554476987346233e-03,2.422826271818549412e-02,-8.381334080035324555e-03,2.023117989301681519e-01
2.232538036176319463e-01,2.792832901295366765e-04,1.486042063082810005e-01,6.958179582236414563e-03,1.115399106067711289e-02,-1.298444018907358825e-02,1.991720646619796753e-01
2.509097466682694844e-01,2.233812790887962363e-02,1.477124925183097848e-01,2.985431345530668943e-04,5.510422458994511732e-03,-1.595899125275536921e-03,1.985086798667907715e-01
2.232428694677429104e-01,1.470576938318909899e-03,1.299546885846578070e-01,6.451976238681730522e-03,1.878259366998775645e-02,-2.702844385303464301e-03,1.959644258022308350e-01
2.270516264316098654e-01,-1.445513345511850734e-05,1.442774471858328522e-01,2.391334133276905576e-04,1.234281747993991882e-03,-1.695400461689020727e-02,2.012024372816085815e-01
1.671194023393896555e-01,1.832039138652233334e-02,2.531520538952115595e-01,1.241612437537150879e-02,1.200723216289540859e-02,-5.670210089695340745e-03,2.081725001335144043e-01
1.981535582857045785e-01,1.521255280622613171e-02,2.004530387710428130e-01,1.404962114866782803e-03,-4.785428386654560357e-03,-1.306704871258062119e-03,1.843179613351821899e-01
2.208319654242857366e-01,-3.047289860818785945e-03,2.215418043105023826e-01,8.246829441866359699e-04,3.768680849345356254e-04,-5.819574848395455172e-05,2.242405414581298828e-01
2.228361186143740513e-01,-1.399786826967980291e-03,2.236376235475233121e-01,6.750841755594445348e-04,2.730986469852148533e-04,2.731861015850629761e-04,2.246417701244354248e-01
2.225641085410290376e-01,-2.793328523494981175e-03,2.229743754733845007e-01,9.167687284488257706e-04,4.432983246334251323e-04,1.453142231239348944e-04,2.255698889493942261e-01
2.181121851146398671e-01,-3.348359466134737117e-03,2.199006954227057942e-01,8.888458402398577039e-04,1.863072790409490151e-04,1.043075376441312445e-03,2.223730981349945068e-01
2.069580236802313067e-01,1.496558746193948908e-02,2.032847556154109003e-01,4.432116641803724583e-03,-6.736659511924962367e-03,3.454226265910164025e-03,1.907884180545806885e-01
2.204721916643896940e-01,-3.855247672341660659e-03,2.190769409649755417e-01,7.923344875555961633e-04,3.686436527018536525e-04,3.117272986053675702e-04,2.236388474702835083e-01
2.661324616666786991e-01,-2.820732901053224495e-04,1.550351355214149851e-01,6.593151003961230001e-03,-1.737227250108556650e-02,2.550767455270990663e-02,2.381367236375808716e-01
2.432530287720878759e-01,-5.945620886521063575e-03,1.463504760052097564e-01,-9.362672982701299509e-03,1.177363448967400604e-02,1.606240466355175409e-02,2.208957225084304810e-01
2.374075580761126625e-01,3.976512455607317253e-03,1.828240689932625340e-01,-1.296458021095103644e-03,-1.960418135407914712e-03,1.133102639346072332e-02,2.124374657869338989e-01
2.413015117075058003e-01,1.426471369473680806e-02,2.190193867028775720e-01,-5.053718265912747129e-03,4.184491277658389588e-03,1.468960910727899749e-02,2.185402512550354004e-01
2.438632214925535724e-01,2.447371342863594035e-02,1.842906392982607833e-01,-7.311522017811546495e-03,1.740084492514647543e-02,8.520087799538628853e-03,1.997437626123428345e-01
2.985300224218575549e-01,1.528304785800063681e-02,1.800513199104123996e-01,2.104188327143129145e-02,3.931247090470983002e-02,4.305502649409800181e-02,2.687623798847198486e-01
2.339153136882481387e-01,-2.417316819723192012e-02,6.642984258821073296e-02,-7.731160128908047373e-03,2.552772096962801010e-02,2.264778258474231878e-02,2.347510308027267456e-01
2.105843738205047666e-01,1.763851926943743598e-02,2.156527418203717239e-01,3.663961523877302950e-03,9.268213645157249644e-03,-4.600420539034689310e-03,1.964514553546905518e-01
2.055650460212730124e-01,1.018515279421028374e-02,1.921883009958841870e-01,1.120994946616568708e-03,2.887493406948310644e-03,-1.372139658316196779e-03,1.891378462314605713e-01
1.883978582072434182e-01,1.921253771092090723e-03,1.905926341747433139e-01,-3.775334332392865384e-03,1.317175955565734642e-02,4.321563903542628357e-03,1.892270743846893311e-01
1.818325019722814018e-01,2.048330799133525615e-02,2.259910785568485792e-01,5.649114857966544383e-03,5.564480055671713887e-03,-4.156805793197137708e-03,1.880131810903549194e-01
2.093710355133204803e-01,-5.343980510364165770e-03,2.240392773150607919e-01,3.922591871242310513e-03,2.470106577858681277e-04,-1.569753214393978386e-03,2.225329726934432983e-01
2.056686092284447376e-01,2.887561068701277600e-03,2.344017868785660541e-01,4.082668547259038667e-03,3.105372565745290799e-03,-6.313763263926215966e-04,2.187519669532775879e-01
2.319981144478626689e-01,2.293861176530659352e-03,2.294563702624620727e-01,9.433993066972354638e-04,-6.944219423833790936e-04,-1.668987557887807380e-03,2.284712791442871094e-01
2.280943338735970660e-01,-8.118856695015774783e-04,2.260513945367405575e-01,3.444616656461785384e-04,-4.320514933211303931e-04,-2.861241990165973781e-04,2.278941720724105835e-01
2.318400060067988822e-01,1.697153567833453724e-03,2.242154406399261557e-01,2.643748351619470104e-03,1.914938377345795460e-05,2.979095748609805511e-04,2.264737635850906372e-01
2.371613025513248374e-01,1.264093191518367298e-02,2.273641792842790998e-01,-1.402225602863456854e-03,6.502689795961154491e-04,3.914184531355849751e-04,2.198029905557632446e-01
2.275005102817098668e-01,1.235534271060759193e-02,2.359818469886671988e-01,1.871557508318604911e-04,-2.085265539935972823e-04,2.440702354575758834e-03,2.195499986410140991e-01
2.281811989797266349e-01,1.071779247907145294e-02,2.358684756628476598e-01,-1.499090953619399173e-03,4.363912807642853593e-04,-1.071179694738159374e-03,2.214314490556716919e-01
2.384496222390211362e-01,3.353761541577296446e-02,2.417044871176098897e-01,-4.557030549737647548e-04,-1.322779883651182013e-03,2.855266067525443104e-03,2.066320776939392090e-01
2.398810585444320631e-01,3.449762167412032121e-02,2.424237590395770803e-01,-6.000233719282589001e-04,2.090953018024852873e-03,3.736839591095764829e-03,2.068021744489669800e-01
1.160063859380884299e-01,-8.057695536845543849e-03,2.287835822310628764e-01,-2.312820280669400722e-02,7.765639570507796782e-03,8.494485761593330688e-04,2.094994336366653442e-01
1.818686309067809592e-01,-2.969628654228895215e-03,2.329789162101612576e-01,-1.228781722363265008e-02,-1.047052088599363011e-03,3.872557992042780818e-03,2.161615788936614990e-01
2.324707258190813752e-01,2.577022657940758466e-02,2.678345623024093736e-01,-2.148217992471394139e-02,7.232249085903442835e-03,1.863677533185726862e-02,2.320964783430099487e-01
9.292397207377568746e-02,-4.979507219027287657e-02,2.304970795352493662e-01,-6.250810050624672209e-02,-1.256784235838383917e-03,3.184887365590367836e-03,2.658690512180328369e-01
2.739761178074231474e-01,7.947712332511167044e-02,3.279765375559878793e-01,-5.714288172751588041e-02,8.538386354806299164e-03,3.016328934498962305e-02,2.529684603214263916e-01
3.183286194092974086e-01,8.257651072457661279e-02,3.259447277679940469e-01,-5.361344045867200148e-02,8.149758613568555340e-04,1.311153418600288258e-02,2.580184340476989746e-01
2.257458341276029623e-01,2.255618496924016725e-03,2.286777814748474080e-01,-7.435883375684728888e-03,-1.654334213643600350e-03,6.880311164454270580e-03,2.256719768047332764e-01
1.715916089307796821e-01,9.406726644454549424e-03,2.713315994854103019e-01,-5.534533686931444180e-02,2.233666648046116546e-02,2.968321344636748460e-02,2.564326524734497070e-01
2.265990972092503664e-01,9.378042731448654745e-03,2.427428950153311948e-01,1.053433021539630469e-02,7.282424820850117060e-03,-2.276424540458692105e-03,2.268478423357009888e-01
1.170288571545442802e-01,-2.190171109317909370e-02,2.208123454236657346e-01,2.725298955031031645e-02,4.961242450580603813e-02,-1.850627876637145688e-02,2.348003685474395752e-01
1.288036308746834391e-01,1.178329193056082413e-02,2.480520601831159855e-01,5.067314280277002841e-03,1.649673888408909050e-02,2.044285811779190162e-03,2.068198174238204956e-01
1.455242800110633783e-01,1.990508690921780066e-02,2.372407276185752312e-01,2.565114252466735301e-03,2.669398724462179826e-03,8.691287722211969713e-04,1.890947371721267700e-01
1.315959077376729069e-01,2.758323943048562876e-04,2.074026969259517850e-01,-1.455509341023123815e-03,2.284028953578906215e-02,-2.771296382209580307e-03,1.858521401882171631e-01
1.379295342361390175e-01,-9.718603962706073851e-03,2.248120791873311486e-01,1.932451881020518653e-02,-2.115428327754450069e-02,9.550251860896509515e-03,2.119269669055938721e-01
1.511706456428767442e-01,2.293104624985414786e-03,2.284513808172536353e-01,9.255407083345996988e-03,5.451213141138705649e-03,-3.885255382974971399e-03,2.000840306282043457e-01
1.853896199085682261e-01,1.961946699683805861e-02,2.442906217593618923e-01,1.010575862389166690e-03,3.829430093206963835e-03,-4.118727317174656309e-03,2.020174413919448853e-01
2.010459165810430104e-01,2.878604949565916060e-02,2.443336648391286059e-01,-1.209743075433599747e-02,1.117529871701533617e-02,7.732354496217802402e-03,1.999927610158920288e-01
1.911547943526963889e-01,3.011842278823795294e-02,2.607325339397467134e-01,-1.524627255072802910e-02,3.515409033903341141e-02,1.237407070950586122e-02,2.164311707019805908e-01
1.961280852667287300e-01,9.457654992516745240e-03,2.286920404399941931e-01,-6.223207207756348280e-03,1.669740985456004195e-03,6.406185466714856003e-03,2.055058479309082031e-01
1.679498158383237183e-01,2.726764496604658361e-02,2.433681634149358342e-01,-4.781644771883312300e-03,7.400089236068380441e-03,2.173758489915055599e-03,1.906212717294692993e-01
1.591347153599902420e-01,6.959188210193006929e-03,2.303869478481881394e-01,-8.217918720138375419e-03,9.701979898576081063e-03,6.088195314835394105e-03,1.991815865039825439e-01
1.658764409405429907e-01,3.306282363482382358e-02,2.366538246130128753e-01,-3.154994293495799328e-04,2.786347372589369556e-02,3.517058345763655544e-03,1.855144798755645752e-01
1.677478739792980511e-01,-1.205210208348864165e-02,2.182348772405788284e-01,-2.453643277689874017e-02,1.494238778653484388e-02,8.569907993095088675e-03,2.159879505634307861e-01
2.848499453186723596e-01,4.960666054118900714e-02,2.764289181442996512e-01,-1.553718791965536146e-02,-1.150202950297470050e-02,-1.256040574810116453e-02,2.345713526010513306e-01
2.995608362290389515e-01,4.436919876033834642e-02,2.589783696285061221e-01,4.427082860677121522e-04,3.780627080008470281e-02,-4.967079904095313136e-02,2.609664797782897949e-01
2.382020924026598818e-01,-3.874324440220844323e-03,2.232687299459470975e-01,7.107735277902499198e-03,5.430487697701336710e-04,-2.365720389108752139e-02,2.388313561677932739e-01
2.374907899971292480e-01,3.620078389088787763e-02,2.428173543933030698e-01,2.620679392768224085e-03,-6.275508150763185527e-04,2.523951937678147774e-03,2.041056603193283081e-01
2.267836929830402692e-01,2.081280393109294358e-02,2.206383672179957067e-01,-1.638815955641462511e-03,1.739267422532027449e-03,-2.323948250434273305e-03,2.030501067638397217e-01
3.524335148518299987e-01,7.574008310315885617e-02,2.970832752358810724e-01,1.439714313571255171e-02,-2.406119023054793804e-02,-2.818085127575526566e-02,2.627717554569244385e-01
2.520662647412332258e-01,3.266680321179127322e-02,2.458548385470109010e-01,3.024138593663959138e-03,1.457991589882158263e-04,-3.451053205414934995e-03,2.165067046880722046e-01
1.754760360579548650e-01,-6.117940523897409666e-02,7.668785795996066468e-02,-1.400977721866309051e-04,9.545452978268730015e-02,-5.919443552656501219e-03,2.642461359500885010e-01
1.883966495038368327e-01,9.768136165514224034e-03,1.914173229505750085e-01,1.252695233722654646e-05,1.455436768767371346e-02,-1.991104034833878454e-03,1.819456815719604492e-01
1.922184498373281925e-01,1.182324915139398858e-02,1.572813144200191915e-01,-1.579227882361673024e-02,4.961496693975578354e-02,2.625204633739294455e-02,1.940648704767227173e-01
2.213675051937682436e-01,-5.547932690072795991e-03,1.298223250113795524e-01,-2.225655356851314985e-03,8.479863503560512716e-02,1.780526887585235501e-02,2.482669800519943237e-01
2.952818155374704601e-01,5.714288743054291020e-02,2.157064138159974498e-01,1.185936625192103057e-02,1.080543109096641224e-01,2.842228451182070292e-02,2.862953245639801025e-01
2.296200926497490580e-01,-1.729219687395089355e-03,2.238073126119458078e-01,-3.955902336858092274e-04,-2.823354193361534608e-04,2.627200296794181896e-04,2.285003811120986938e-01
2.315123306798381464e-01,1.210407734434371108e-03,2.266371860450035747e-01,-1.020541621897409681e-03,-9.561996735419781837e-04,1.726108295802192055e-03,2.279359400272369385e-01
2.288191120742215090e-01,1.555847764727891214e-03,2.251551531916689275e-01,-3.148531890940333648e-03,-3.159037969338948475e-03,2.041703101180777913e-03,2.256136387586593628e-01
2.317502295690689607e-01,1.195519047493900922e-02,2.384837020145777475e-01,-4.451152057327227921e-03,1.280329974188072414e-03,3.984022139266163963e-03,2.234885990619659424e-01
2.045868621581047875e-01,-6.429214045051756532e-03,2.232873754311314740e-01,-5.010069569499253118e-03,6.768862707280789764e-04,1.306821056352142031e-03,2.211456596851348877e-01
2.004634734447519051e-01,-1.101928044364475223e-02,2.218997266059432871e-01,-6.605838835374377473e-03,2.033736148201010523e-05,-1.259851355105998192e-03,2.232790589332580566e-01
2.291310402107335775e-01,-1.714726086994800003e-03,2.243251061467999019e-01,-3.490221013568047242e-04,-2.869943231873364818e-04,3.099585710585031541e-04,2.284826785326004028e-01
2.233676483738931684e-01,-4.762421892984980420e-03,2.223455103670574640e-01,-1.057496456768281618e-03,-1.683295101547492437e-03,6.770713546702481498e-04,2.276497781276702881e-01
2.240386744199262259e-01,-3.634348233287815200e-03,2.241680758209828039e-01,-2.788225447399554982e-03,-2.669493469020176859e-04,6.677395695658699297e-04,2.277923524379730225e-01
2.365215731840885627e-01,3.257053399218248768e-02,2.369504441927227090e-01,1.466159446357391668e-03,3.169328728888711876e-03,-9.046033932205080471e-04,2.042613923549652100e-01
2.241077531126541289e-01,-2.381610990385307769e-03,2.239874973383242651e-01,7.945691808500358628e-04,2.592582399940303057e-03,2.583073789088736701e-04,2.264784127473831177e-01
2.427127901126027998e-01,3.158801642444944435e-02,2.476968380474365294e-01,3.094693523526352835e-03,1.578815055632750266e-03,5.703335558298285556e-03,2.139732688665390015e-01
2.335612893643003174e-01,1.345228495576550332e-02,2.284833427785358806e-01,1.288004108133466302e-03,2.673191047175978077e-03,-4.125172770454967270e-04,2.176763266324996948e-01
2.727406281547576361e-01,5.564978196837644386e-02,2.581858823299236216e-01,3.013904550830942032e-03,-8.253204010470268845e-03,1.585754414600738706e-03,2.107598483562469482e-01
2.665712548364477241e-01,5.629552861748127190e-02,2.901263451480613487e-01,1.305719671974179749e-02,-7.240419971754906252e-03,1.133086848125886958e-03,2.244913876056671143e-01
2.314429832752295524e-01,7.239093005257407620e-03,2.297092772247530945e-01,8.886599045250121592e-04,4.547648656018585429e-03,-2.910578276763576828e-04,2.234868109226226807e-01
3.074058529642759718e-01,6.773177895128398851e-02,3.707221275587526121e-01,3.310225446101914409e-02,3.232809236774461525e-02,1.587774794058359126e-02,2.894940078258514404e-01
2.939419788369941888e-01,6.386876700581797794e-02,2.764107657104305504e-01,4.319741647738578258e-03,-1.502468030564566362e-02,1.292790266447680497e-02,2.245933264493942261e-01
2.208323996160254377e-01,-2.944357300928485133e-03,2.210444600254032887e-01,-1.042730193973663588e-04,1.438370046252870711e-08,-5.880008793348109338e-05,2.238829582929611206e-01
2.214032429356839471e-01,-1.851911430862523966e-03,2.214686486007114707e-01,4.882758919603186930e-08,-1.299110902076077920e-04,-2.442036396755638402e-04,2.232883721590042114e-01
2.221448072663062545e-01,-1.825516810231603282e-03,2.223105117748983561e-01,-1.892480274370787470e-04,3.994509184354527232e-04,-1.345243215732521455e-04,2.240546494722366333e-01
2.186688282149566176e-01,-3.285721392785961870e-03,2.188153604062193225e-01,-1.510426616441245314e-03,-1.752381119180104274e-04,-6.674272250273969491e-04,2.220464795827865601e-01
2.180725932559415825e-01,-3.784491013664958992e-03,2.188765287402438253e-01,-1.149343570583593764e-03,-1.493786612643659422e-04,-9.878523838402584068e-04,2.222757935523986816e-01
2.228097888975874297e-01,1.792026560067105923e-04,2.224790570703067960e-01,-1.772815176815869739e-03,4.936778250822848125e-04,-1.566732803930433659e-03,2.225047796964645386e-01
2.133292392917358338e-01,2.906031845510220757e-03,2.071971339908904586e-01,1.678194333217860679e-03,-1.452618867632167205e-04,-8.312361504563262797e-04,2.074506580829620361e-01
1.173258868047840631e-01,-2.028599321558094415e-02,1.728112493038922448e-01,7.515501476013255674e-03,4.086683307156391970e-02,-3.653179877061939022e-03,1.867374628782272339e-01
2.046786097672223526e-01,1.470339270749743132e-03,2.031951439547454163e-01,3.888168627977909263e-03,2.704647806854226788e-03,-4.488940415401460916e-03,2.027858495712280273e-01
2.095416347010899960e-01,-1.711369189111661138e-03,1.943908179476855069e-01,7.192605488402031844e-03,2.904764246856668137e-03,-5.708670369065597418e-03,2.047803848981857300e-01
2.154598611708138933e-01,2.662478035831195022e-03,2.077935535497386632e-01,5.333945651582377122e-03,7.361235405232850791e-04,-1.209927600138451702e-03,2.092880755662918091e-01
2.180678012442652247e-01,-4.410174914893261189e-03,2.086422294534175104e-01,5.111912468458630968e-03,2.345223918389733252e-04,-3.385979489816658052e-03,2.181771397590637207e-01
2.144397794077208541e-01,-1.273359954477917833e-02,1.951424585033424974e-01,5.843974405430833047e-03,3.770982252341386481e-03,-7.887956213759105689e-03,2.189248055219650269e-01
2.088562896828068671e-01,3.605279071471317875e-03,2.083406302112483510e-01,3.320355174561821256e-03,4.318182561315312210e-03,-3.354369130958914993e-03,2.052928954362869263e-01
1.994068672545405430e-01,2.699660671205694751e-03,2.311135709432141083e-01,2.149269086617828020e-03,-2.474414329787134534e-03,3.680803432553194721e-04,2.144029140472412109e-01
1.680193503570884817e-01,4.819733549839277931e-03,2.575100968259853018e-01,2.432415097253209577e-02,-1.390169564130505284e-02,5.036111431563287076e-03,2.273288667201995850e-01
1.878458718887905388e-01,5.957794672875577069e-03,2.431295269679187854e-01,9.044074005871585373e-03,-9.875468985574631983e-04,7.687801431874853554e-04,2.155112028121948242e-01
2.353007188320554444e-01,1.414064114628171831e-02,2.282750032711407528e-01,2.895259791126255939e-03,-4.995544423405966954e-04,-1.577777706658403710e-03,2.178088575601577759e-01
1.682236530156231147e-01,-1.438839923121271180e-03,2.039379876923996804e-01,1.259790329979720847e-02,-3.034371209969093444e-02,1.334494699204548558e-02,1.997319906949996948e-01
1.987804051709125830e-01,3.507297367059680759e-03,2.197490966900703668e-01,5.923513012402618037e-03,-8.263782270366592728e-03,7.039581647517355323e-03,2.076648622751235962e-01
1.990563396703402543e-01,2.937599662138579149e-03,1.932198475133525828e-01,8.227884728686660903e-03,-8.394706858567694413e-03,7.872649797292066362e-03,1.948138177394866943e-01
3.118156546386784966e-01,2.034500134223532486e-02,1.995307636284491537e-01,4.272231819004863179e-02,-5.689844030132668040e-02,4.314296924341717854e-02,2.925869524478912354e-01
2.478586403290557738e-01,-2.544116547732508393e-02,1.829101964737313013e-01,-1.047927286118768148e-02,-6.513240146120815102e-04,3.483279154859469928e-02,2.552084922790527344e-01
1.846994287501230736e-01,2.956716157040127635e-02,2.049960423766837569e-01,-1.084688845631883846e-03,-5.943133450773775694e-02,8.065874027801293172e-03,1.960142552852630615e-01
1.182849538305882353e-01,-2.938801783776094634e-02,1.478513841432299025e-01,4.405856797581348013e-05,-1.037224084579832506e-01,-1.043279734030178908e-03,2.435691505670547485e-01
2.758182329005559597e-01,4.112639334935215552e-02,1.724002910107833575e-01,9.690273909804826211e-03,-2.016145455488182331e-02,2.252680178627750052e-02,2.110158950090408325e-01
1.175572353272484050e-01,-4.221951016240621524e-02,1.451160860216222648e-01,1.569845883456844754e-02,-8.831819126143312937e-02,1.189380599063694088e-02,2.350646406412124634e-01
1.793462403832722374e-01,4.688604795534953573e-02,2.707433105149578689e-01,-1.772258741130751380e-02,-3.277406807435533087e-02,-4.836920416258969763e-03,2.055248767137527466e-01
2.102890537308589602e-01,4.078648522883218663e-02,2.914005814550264528e-01,1.958193381410569534e-02,8.633050453599517074e-03,-5.806210771728560413e-03,2.247974574565887451e-01
1.530090116088337338e-01,1.958939460232128615e-02,2.365705172390713540e-01,6.960646012467922982e-04,4.656283101605448657e-03,-2.557130220314493118e-03,1.897845566272735596e-01
1.096230316435903712e-01,-1.960127012067562624e-02,1.975431666361353311e-01,1.213891443656880259e-02,3.357822284125426548e-02,-8.789318124997200915e-03,1.996161192655563354e-01
1.720097968668632682e-01,-5.338307513049977970e-03,2.301646903398139044e-01,2.280415513093369748e-02,1.960540278190494451e-02,-1.516568424293596000e-02,2.203433662652969360e-01
1.070825293466223099e-01,-1.734573843507682123e-02,2.204165068508040504e-01,2.387453691100706321e-02,4.590876088812331085e-02,-9.234953768187413592e-03,2.252057045698165894e-01
6.773651779768637138e-02,-2.287145215242300522e-03,2.915059240122747086e-01,6.903810271874894801e-03,4.083743307885803059e-02,7.681379366078339849e-03,2.756234705448150635e-01
9.525068911306952546e-02,-3.621347651391379485e-02,2.091039863516437891e-01,2.539505825129621461e-02,4.584586699700906459e-02,-4.574641157115940868e-03,2.313354015350341797e-01
2.295549492404377889e-01,-9.479981700706463510e-03,1.372517974162753840e-01,-4.114412132453481035e-04,3.878461737285232146e-03,-2.185593641490972752e-02,2.123030275106430054e-01
2.930216164434031878e-01,4.362676312478355745e-02,1.950915685076854977e-01,3.824757167752795839e-03,2.527069458102199073e-02,-2.228597425221517936e-02,2.254208028316497803e-01
2.433309663026523295e-01,1.613486405315825434e-02,1.809343852529445018e-01,-5.401811108310133501e-04,-2.788082038822890536e-04,-1.992222899312253229e-03,2.033424675464630127e-01
2.368957072659400864e-01,1.233973496670415226e-02,1.915434628603890077e-01,2.921257130579575385e-03,1.152319873440056132e-03,-7.764555997404332978e-03,2.061759978532791138e-01
2.253003816552244243e-01,-5.835727543218788282e-03,1.765426896316119876e-01,-5.424776656359944771e-03,-9.179082505976583414e-04,-1.117221251285130217e-02,2.121245265007019043e-01
2.087480183155272784e-01,5.532845047987816622e-03,2.080974379848525291e-01,-2.764660791263691235e-03,-6.625906570871556390e-04,-1.472522695341135345e-03,2.029664367437362671e-01
2.170159133611500035e-01,6.899829995914347203e-03,2.134461014966875514e-01,-8.188537785976575129e-04,-1.332972106187215030e-03,-1.131224601091641423e-03,2.083809375762939453e-01
2.148625461152322558e-01,7.662999491798522245e-03,2.175385225938184508e-01,-1.299074669457020307e-03,4.179932514518522541e-04,-2.476458943695134581e-03,2.086079120635986328e-01
1.860467439592887184e-01,5.573654433207370085e-03,2.058465382306306490e-01,-1.267141969516415124e-03,-6.229793666308558638e-03,-3.190765475060598853e-03,1.915403008460998535e-01
2.075735889777260978e-01,-4.313982809659777651e-03,2.096484384519334554e-01,-4.180275449644405700e-03,-1.345322457967512795e-03,-2.049941168280901369e-03,2.130979597568511963e-01
2.017655615857378293e-01,4.768124413277174956e-04,2.035106280449457961e-01,-2.005085285803397208e-03,-2.416869338540268176e-03,-1.711792083942032536e-03,2.022618204355239868e-01
2.085124228384354628e-01,3.359477278072037221e-03,2.170490514042184849e-01,-1.459544299782152129e-03,-3.198600864121332876e-03,-5.820704624589534068e-03,2.098824530839920044e-01
2.220105880716945479e-01,-5.136896486471309586e-03,2.216806322908047022e-01,2.018669095348105125e-03,-3.432376008488304681e-04,-9.409679943126051434e-04,2.270162403583526611e-01
2.231742075214667442e-01,9.700463907317269374e-04,2.267545800909512854e-01,9.550559795933388557e-04,-4.979880635171780520e-04,-1.780251844625543390e-03,2.240447998046875000e-01
2.116128653771713330e-01,-9.515435946974848402e-04,2.516125501162337352e-01,2.252340872295649152e-02,-2.320389384451055498e-02,1.765222487473913984e-02,2.436351627111434937e-01
2.230247525318375390e-01,-1.847354674581497269e-03,2.238403968907941854e-01,1.662339434668879540e-03,-1.217262441776547868e-04,-2.773844644394081634e-03,2.253507524728775024e-01
2.259132689804571326e-01,-5.849680960578751421e-04,2.255951850781677814e-01,3.134160266803277372e-03,-3.158186423292543704e-03,-3.778006868994951504e-03,2.265650480985641479e-01
2.274095714728262552e-01,-1.512335039725115626e-03,2.244760913142313519e-01,2.970857492708376952e-04,-3.760233113675346892e-04,-6.667022322416609349e-04,2.274737954139709473e-01
2.287091468358984914e-01,-2.567967638314461176e-05,2.260996768828850145e-01,1.691071643190185728e-03,-2.493636482439486393e-03,-1.701816272593091638e-03,2.275202721357345581e-01
1.861891680522508863e-01,1.156321676296701018e-03,2.369449310008616694e-01,9.465626942616640546e-03,4.357481836981307033e-03,-2.538873623215804568e-03,2.157542109489440918e-01
2.283259575595525392e-01,8.438512736175740603e-03,2.372210928333848279e-01,5.003791852616376427e-03,1.751695759460790858e-03,-1.122957442156973960e-03,2.246633917093276978e-01
2.331447064050247708e-01,7.658910796913637187e-03,2.260900066556374155e-01,-6.891416786396050093e-04,-1.583715781494256540e-03,-3.131622168311213846e-04,2.220633327960968018e-01
2.356801578126162533e-01,1.063408349863656510e-02,2.309684085434791367e-01,-6.906683288084282607e-04,-1.964729664030499551e-03,-3.898625826095488095e-04,2.227578163146972656e-01
2.052671614692233026e-01,-1.973746057203545901e-03,2.308368663156794287e-01,5.044346113090319127e-03,-6.947686595685893200e-04,2.500738971868666453e-03,2.213554531335830688e-01
2.317054876993575596e-01,8.841990481523426260e-03,2.289106770975319061e-01,8.539945297347040557e-05,3.275696124207103186e-03,-6.716707292122340786e-04,2.215550839900970459e-01
2.028489281479099460e-01,1.317009620796660840e-02,2.449959184755586550e-01,7.946187711884027810e-03,-1.345025246462718330e-02,2.562648234055929855e-03,2.156401574611663818e-01
2.421894115957753391e-01,2.741588289220869834e-02,2.395538783103209057e-01,-1.133790068256056594e-03,4.179791579326315627e-03,-1.053816055952846043e-03,2.136075198650360107e-01
3.118138086946184440e-01,1.096636949933369465e-01,3.144863761007035130e-01,-8.351197383734415211e-03,1.903830349315328418e-03,-5.186813345648982713e-03,2.042373120784759521e-01
2.110680747851574890e-01,7.443510362459104801e-03,2.084226838988476882e-01,-2.608681976809937471e-03,-7.440338527992124964e-04,-9.305215079824558132e-04,2.023758143186569214e-01
2.920725676386354275e-01,4.990220528849917403e-02,3.369446460972904123e-01,1.712459664901875428e-02,-1.181043986561613156e-02,-3.707063661830076878e-02,2.773942947387695312e-01
2.219581003066575242e-01,1.195533412329760625e-02,2.158375584077658615e-01,-6.745284517601988876e-03,-3.574883641137903238e-03,-6.067546181199403622e-03,2.076982706785202026e-01
2.128833488251216377e-01,9.755063762242749403e-03,2.111487536558130651e-01,-2.416683819057088844e-03,-2.023558953480670674e-03,-3.680862529041780892e-03,2.024406492710113525e-01
7.519224401621490972e-02,-1.019832773773290957e-01,1.986338426643270427e-01,7.436719809249171809e-02,-1.440604687584324736e-02,-8.801526348046337031e-03,2.931659519672393799e-01
2.299638727166911645e-01,5.700786249759809410e-03,2.285406018165908604e-01,1.056049024598434494e-03,-3.858612967907863647e-03,-1.594382905148630076e-04,2.236623764038085938e-01
2.248596667477783528e-01,-8.701345448413611017e-04,2.311650912534144175e-01,-1.290615652078283787e-04,-1.392236583817796553e-04,-6.796411051886314938e-04,2.289509028196334839e-01
2.436940556863343432e-01,4.386216431267014881e-02,2.409876248188467240e-01,1.319641332153626088e-03,1.000476451964836793e-03,-2.432843540625238658e-03,1.985579580068588257e-01
2.346521147470201352e-01,4.406517805468046500e-02,2.299374938545879210e-01,-2.172274459789086225e-03,-1.292193554551184344e-03,-3.362495486984043110e-04,1.883257031440734863e-01
2.495286689312231354e-01,2.956720691833045200e-02,2.427837470163429212e-01,1.007008469548759284e-02,1.466514467848639182e-02,-1.535598070550748574e-02,2.204580605030059814e-01
2.356171814875301362e-01,1.311528904228817516e-02,2.281563082018160382e-01,-4.563627009570282566e-06,-2.770137474926933057e-03,9.552312348253497469e-05,2.189195007085800171e-01
1.756542508000170089e-01,-6.359727941632670190e-03,2.264076601999555627e-01,9.177579347916764788e-03,2.956681711480937599e-03,7.328539728614323623e-04,2.126578241586685181e-01
1.979793940966410315e-01,2.734275611646544424e-02,2.861519583862160987e-01,2.316762185998426024e-02,1.994158946167180410e-04,-3.350054685989259742e-04,2.314031273126602173e-01
2.167085361754006734e-01,4.351954737342755841e-02,2.933659882219588622e-01,1.990134227913572043e-02,1.468118109965378844e-02,-2.637244957693147835e-03,2.258377373218536377e-01
1.548877770888727190e-01,4.412091679567436975e-03,2.581618077730815641e-01,2.320872271340525261e-02,2.582633756435633032e-02,-5.287787432468700130e-03,2.292367815971374512e-01
1.107741101523399135e-01,1.105415534023418411e-02,3.184525840292546928e-01,2.298196771329754848e-02,-5.169968726039061990e-02,6.687790176204157482e-04,2.887707352638244629e-01
1.361445515972060094e-01,2.979656935963082010e-02,3.354021953131562928e-01,3.219870420803635364e-02,4.201889923679003741e-02,-2.105127076295900627e-03,2.839444875717163086e-01
2.394784146346858877e-01,3.598586758324681667e-02,2.612536042759112664e-01,7.224104389539012447e-03,-5.365523537980932886e-03,-1.960079477079607578e-03,2.157983332872390747e-01
1.266672077645285832e-01,1.026658759947199351e-02,2.894732161033161666e-01,3.986686653354822724e-02,-3.808332564087432703e-02,-1.010275623425133280e-02,2.615930736064910889e-01
2.211182721222200165e-01,-2.906405192254601921e-03,2.211092025908074632e-01,-7.507549215913785845e-04,-4.013604651031246534e-04,4.154901239216596308e-04,2.240261584520339966e-01
2.212986211556025318e-01,-5.022378661259596644e-03,2.217439575880666425e-01,-1.230151955805558039e-03,-8.950958293425633145e-04,5.843862506235383055e-04,2.265615761280059814e-01
2.207787207046139621e-01,-8.325545267763440060e-03,2.075981251064380473e-01,-2.802800900954226411e-03,-1.995631800055942384e-03,8.284305471337629137e-03,2.233476340770721436e-01
2.206646294246905893e-01,-4.458712167840356289e-03,2.210909331264645783e-01,-1.046926003361700998e-03,-3.835873015948185216e-04,2.887661278964790638e-03,2.254005670547485352e-01
2.360083052070264809e-01,3.031503997387405280e-02,2.405741399279610615e-01,1.449231619767027456e-03,-2.927102930605308094e-03,-1.340112475061686894e-03,2.081036269664764404e-01
2.185888321050535321e-01,-7.320484460404896865e-03,2.188368035169768189e-01,-3.828186700159338408e-04,-3.719984578545715965e-04,9.546384326295163621e-04,2.260413467884063721e-01
2.212883453741801010e-01,-3.117600991202812422e-03,2.217104040445558866e-01,-6.502527755766858084e-04,-1.942718422949111026e-04,1.077257747148556216e-03,2.246280908584594727e-01
2.308347373843349926e-01,1.504534772179041968e-02,2.329921311265823469e-01,-5.492838216590967921e-04,4.164053492136530338e-03,-2.337377963368846793e-03,2.170358747243881226e-01
2.261469872695473504e-01,9.672018034963869582e-03,2.344307976638982938e-01,5.062436775204394619e-04,1.441132252356485451e-03,-1.203446039119619596e-03,2.207591831684112549e-01
2.362350016417060772e-01,1.131900485304704329e-02,2.309847095532928940e-01,-2.357890248517514366e-03,-4.408175152238240531e-03,1.505800327470232581e-04,2.225060462951660156e-01
2.263153663834333029e-01,9.853041600479672812e-04,2.238458802583453977e-01,-6.069520292457069970e-03,7.940580549773400016e-04,8.954908896454817635e-03,2.248916774988174438e-01
2.485617970568723689e-01,6.097694126099734158e-02,2.494964169753494942e-01,8.150805963139172265e-04,-3.050842480692770534e-03,-4.703046855137752932e-03,1.883096992969512939e-01
2.296977639573355434e-01,1.601841592895525412e-02,2.369221770039184050e-01,-8.357508531675333178e-06,-1.125464729550946629e-03,2.379634370970724021e-03,2.174294143915176392e-01
2.292068553310079304e-01,1.068124451471230696e-02,2.337098573090643783e-01,-1.466349767538121694e-04,4.531247563192990040e-03,-1.460539739496987148e-04,2.209512740373611450e-01
2.271645548547470417e-01,6.681112068308348029e-03,2.300498427946129354e-01,1.454732072835615174e-03,4.193159845353818319e-03,1.681510203949328555e-03,2.220923453569412231e-01
2.430085414362604113e-01,9.138212085768315784e-03,2.156969118238085403e-01,-6.586274286633428399e-05,-3.970191319189225916e-03,8.187130660488903949e-03,2.220411300659179688e-01
2.386727243022022382e-01,3.355734315644617882e-02,2.437682178774934760e-01,2.073101154033322817e-04,-1.078489281388124302e-04,-2.562881435601298014e-03,2.077578306198120117e-01
2.555211017583912114e-01,2.758291283244740377e-02,2.706977481771291605e-01,2.307694512350311200e-02,-2.236289460596579959e-02,2.003810359583755446e-02,2.448427975177764893e-01
2.736578574972332589e-01,3.460527236474195134e-02,2.696928526474068333e-01,7.083424181563801811e-03,-5.060422921291472982e-03,1.673151300199679850e-02,2.393348962068557739e-01
2.345118656602637741e-01,2.161820551460913453e-02,2.333177884121157564e-01,3.337347672627747393e-03,2.833874271796736274e-03,1.080851425368219458e-03,2.124427855014801025e-01
2.194189721221118383e-01,-7.038332791860640869e-03,2.197039644086625221e-01,5.450510662164701099e-03,-1.344423960825338535e-03,5.104232130981736955e-03,2.269807010889053345e-01
2.518762944605516529e-01,3.475564595518604305e-02,2.450945988699435585e-01,-2.180693330534574145e-04,8.666581874847970783e-04,3.324413162080226431e-03,2.138936072587966919e-01
2.224699380475631261e-01,1.178240339001160319e-02,2.151748660137361158e-01,6.705274244971692887e-03,-4.020079830477304300e-03,6.616575249537974893e-03,2.078946232795715332e-01
2.039458395470412078e-01,-3.965980764893878296e-03,2.333772979004827275e-01,-1.128698725272221995e-02,-2.577446430771547937e-03,-3.499189123681160137e-03,2.250589579343795776e-01
1.909362845738769299e-01,-1.470029417375379177e-02,2.195078956880660015e-01,4.513321768422057234e-02,-4.451234391233768739e-02,1.585128047279441010e-02,2.485698461532592773e-01
2.122948263684776016e-01,-5.199055138397970510e-02,1.251306157619160864e-01,1.609859938420127312e-02,-3.361754778879588040e-02,5.905094072616550588e-02,2.627491056919097900e-01
1.626992772349344918e-01,1.346886548788459037e-02,2.329963479172485474e-01,-5.461774542484696890e-03,4.924612033461064735e-03,3.358501315948353699e-03,1.946739405393600464e-01
1.817835848890478889e-01,2.803174459594798273e-03,2.279643120436045389e-01,-1.038367187516427148e-02,3.088567222871093395e-04,3.818251924720390041e-03,2.068805843591690063e-01
1.805737635288097720e-01,-5.001802970307417384e-03,2.292667124491939989e-01,-8.157483125430558396e-03,-1.481665826932117682e-03,-2.444077911225431277e-03,2.146384268999099731e-01
1.987345245643066527e-01,2.547227772786364586e-02,2.522230075552602813e-01,-1.066249545497295267e-02,-3.905605816183018884e-04,-2.242938939285028105e-03,2.061673402786254883e-01
1.402836895311839471e-01,-2.835732339490637521e-04,2.348071976135437944e-01,-9.770490755219884624e-03,-2.119733968365651068e-03,3.071354170818011743e-03,2.056913375854492188e-01
1.917595866124624515e-01,1.131508661852254072e-02,2.389683736215089116e-01,-9.323926226632200595e-03,2.360412150810578969e-03,1.609734640144039374e-03,2.087887674570083618e-01
1.845658509635195732e-01,7.548086129217368434e-04,2.326011821634272614e-01,-2.349369453738373373e-02,9.542121354831614374e-03,1.313787025377117536e-02,2.176468372344970703e-01
1.454681931334189382e-01,-1.807921120249550428e-03,2.188553008174575210e-01,-1.141086191063867689e-02,1.533525836193824765e-02,4.508384937304395386e-03,1.975884586572647095e-01
4.047186298006331950e-02,-4.551313629460466970e-02,2.166620459280128308e-01,-3.311014217144100241e-02,3.941420163705895360e-03,-2.894475634643356183e-03,2.386350631713867188e-01
1.040341651558520375e-01,-2.699210227787768313e-02,2.284811668477270408e-01,-3.174718234012528090e-02,2.589659813723328707e-02,2.263794298006780933e-02,2.356559932231903076e-01
1.437247615034735748e-01,2.054932317236497774e-02,2.449718912339606536e-01,-1.684007165954943402e-02,3.898779836130623205e-02,3.078390389319331406e-03,2.081674039363861084e-01
1.055201270735581370e-01,-2.124589118566808099e-02,2.373764868928948668e-01,-2.686046052953847130e-02,-4.301026303419970553e-02,-1.065680115482236547e-02,2.412994652986526489e-01
1.695525882069946755e-01,-5.356941040497359419e-03,2.238972836134398847e-01,2.199959829978345369e-02,-1.012917986340067071e-02,1.061985762971273152e-02,2.124857306480407715e-01
1.442837252813057025e-01,-1.351705281672388459e-03,2.302504371057612076e-01,1.251597507434657440e-02,-4.377844176527714848e-03,-1.068010521288721487e-03,2.040848433971405029e-01
1.835530456436474944e-01,2.551264352239041022e-03,2.396473535974726898e-01,1.131930993713798142e-02,-1.410705401066106920e-03,4.148090920557135622e-04,2.155278474092483521e-01
1.872384837967819571e-01,8.323821533019748475e-04,2.311166219466159744e-01,9.016805584012518165e-03,-4.393243017352002448e-03,3.404677041391152709e-03,2.125753164291381836e-01
1.983937233990046844e-01,2.195239731586806631e-03,2.223684502275762587e-01,7.079295597564928301e-03,-6.962155137395565664e-03,6.995584118826429602e-03,2.102736681699752808e-01
2.039638643720033118e-01,3.198043425184010635e-03,2.278909146136004482e-01,7.781907300266916599e-04,-8.973651860069329242e-06,3.127470563831814820e-03,2.138090580701828003e-01
2.100552451054598646e-01,1.588076752656666923e-02,2.430621018311358572e-01,8.804863114616194586e-03,-5.038949221263055653e-03,3.391534484001259512e-03,2.134139835834503174e-01
1.761434548952995338e-01,1.082707360535943575e-02,2.028490802738876220e-01,-2.035022841917631577e-03,-9.346132482339611011e-03,-5.587946664913636188e-03,1.811787039041519165e-01
1.877934889645541672e-01,1.515460905132101632e-02,2.179675702901143763e-01,3.011519565161461295e-03,-3.459556900274963868e-03,6.318057279894191344e-03,1.900177448987960815e-01
2.037651907210391578e-01,1.023255115581017671e-02,1.993262115920635125e-01,-2.335249261773882264e-03,-2.496056163092078874e-03,-2.203514892246223253e-03,1.914813816547393799e-01
2.314045856676296142e-01,6.748770343558030405e-03,2.293765682993315902e-01,-1.809826674377207020e-04,-1.537916272184717322e-03,7.646085469617986156e-04,2.236687093973159790e-01
1.973142625050549603e-01,4.244032908743380905e-03,1.764156506780204248e-01,1.616690789059420288e-03,-7.937924554745887096e-03,5.752774043897688241e-05,1.840512156486511230e-01
1.960936343075028176e-01,2.956432401683789513e-02,2.357789955344405664e-01,4.172750365220939672e-03,-1.816698799924996305e-02,1.517455975396494496e-03,1.922627836465835571e-01
1.950585788751075800e-01,1.147357339349459882e-02,1.992017730136619869e-01,5.683003680647191009e-04,-4.724786255999091633e-03,1.096534039452410660e-03,1.858838200569152832e-01
1.995238366215552062e-01,1.244376341270483910e-02,2.070670893443045391e-01,2.069789581185318885e-03,-3.170540517596428295e-03,3.803152434486293913e-03,1.911895573139190674e-01
1.932191530900065068e-01,-8.130587897584029555e-05,1.753517638378296051e-01,3.215709838734653100e-03,-8.434920162287024362e-03,1.132900945224498334e-03,1.856848150491714478e-01
2.430986776425119733e-01,2.988774226647650245e-02,2.363465476932354037e-01,-2.467324446491345538e-03,3.716679378586894116e-03,-1.496296044510709829e-04,2.100586593151092529e-01
2.335831231473383118e-01,1.063121788828569336e-02,2.258319167234785485e-01,2.126589604566705635e-03,4.481664157984875836e-03,-1.695366194907290303e-04,2.193476557731628418e-01
2.460726773649230537e-01,2.777525610018366509e-02,2.859915301651974051e-01,2.615820947787431822e-02,-3.590503933615649297e-03,-1.045734388635611092e-03,2.450636178255081177e-01
2.337729430771871564e-01,1.900059159371281226e-02,2.451719232716743635e-01,8.955515588156987353e-03,-2.615006932768979393e-05,6.937537258711146820e-03,2.215632647275924683e-01
1.714360088743869803e-01,-1.261981986740176587e-02,2.301946285620681265e-01,2.288914811565135807e-02,6.262241530582273417e-03,4.042415277273220275e-04,2.232349961996078491e-01
2.358497859770456451e-01,1.137910735968808429e-02,2.261267500895773885e-01,-1.626587886993880122e-03,9.768324992274022168e-04,3.533996823599904201e-05,2.197951078414916992e-01
2.351246152711032877e-01,1.144316589433203024e-02,2.275552399463741104e-01,-8.649461961582898158e-04,-1.785759641814861068e-03,3.836543919567629818e-04,2.200222909450531006e-01
2.066104694902574368e-01,-3.154844758764763224e-03,2.300002667876525353e-01,5.152252877725707614e-03,7.098541046844860118e-04,-1.578370935051151092e-04,2.225672006607055664e-01
2.367079967022703846e-01,7.991968222779061159e-03,2.311725086101719118e-01,3.866593872208041668e-03,2.586851054374293083e-03,-3.034223486321523805e-03,2.262037843465805054e-01
2.382988642658865064e-01,1.688086574962674447e-02,2.321070915891410014e-01,2.892786496040544199e-03,6.577934011546920879e-04,-1.349611862386842836e-03,2.184609025716781616e-01
2.562725379292885575e-01,2.766814804286002460e-02,2.410649620650424652e-01,-3.768831561011000940e-03,-5.055279935917967454e-03,-5.105290399658608466e-03,2.218382060527801514e-01
2.344259844357164946e-01,1.887829702140683685e-02,2.313217239685386173e-01,-2.281361988626336157e-03,1.460516271784502267e-03,-1.469915093942654460e-04,2.140640169382095337e-01
2.244087144691064295e-01,2.288298740278998933e-02,2.557763736689249168e-01,-2.744489680986914384e-02,-1.803571136585267395e-02,-1.692640971985154633e-02,2.280635386705398560e-01
2.374237201579381118e-01,2.095249280588040719e-02,2.359601552564349336e-01,-6.167091511041015474e-03,4.038664906523345942e-03,-4.172495037460734191e-03,2.162414789199829102e-01
2.473055838975721787e-01,3.559043747098925015e-02,2.541492535348689463e-01,-1.378191090839263680e-02,-2.355061851822272314e-03,4.417809057697017275e-03,2.167119234800338745e-01
2.426214810761318508e-01,2.780509008132511783e-02,2.368862306120881611e-01,2.660613809922222645e-03,2.751149750220812165e-03,2.329443073754784883e-03,2.121489346027374268e-01
1.549597014419212826e-01,2.722991245839634367e-03,3.081554074896812878e-01,-4.282759403946923699e-02,-3.122754582615854327e-02,-2.107048183829075133e-02,2.823595702648162842e-01
2.315270540242996833e-01,2.171029464954402077e-02,2.387396189678503977e-01,3.231675352560626894e-04,5.166898817234214826e-03,1.736743291045387888e-03,2.137238085269927979e-01
2.533556466221399406e-01,2.209355712321814380e-02,2.147923162596160895e-01,-4.778155800440414547e-03,-6.955174325104133450e-03,-8.795233356382195847e-03,2.156310081481933594e-01
2.107993480610929615e-01,1.781155128640449226e-02,1.775166218614523672e-01,-7.699622136556667600e-03,-5.929799661702248037e-02,-1.088848072362469215e-02,2.073913067579269409e-01
2.213276464449430991e-01,2.703418164139981261e-02,1.910126357696178556e-01,8.512483649318917586e-03,-3.817723703638157412e-02,1.091684033020019935e-02,1.942327618598937988e-01
2.127193742337423754e-01,-3.017615904504286628e-02,6.506296955722173925e-02,-4.233790779979542188e-03,-6.601066563542562493e-02,5.855574004754405745e-03,2.411730438470840454e-01
2.598647266274622947e-01,1.595558723393047940e-02,1.922356918655484526e-01,-7.340687105167815682e-03,-2.685026758130593105e-02,-2.042718030413565033e-02,2.261554598808288574e-01
2.064790325443399688e-01,-1.691265062504443417e-02,1.036425512142480215e-01,-3.650077859322223457e-03,-2.395659326855350060e-02,-6.991924689931222452e-03,1.985314935445785522e-01
2.403069177348966801e-01,2.934473129884043741e-02,2.313804442882446133e-01,2.569367325742596010e-03,-1.478735515756688690e-05,3.756706074414254337e-04,2.066925466060638428e-01
2.228563462127038652e-01,-7.547147980914256649e-03,1.369002767484158445e-01,1.000872571405725126e-03,8.200772030820503917e-05,-1.035878647457601914e-02,2.024711668491363525e-01
2.888437204980831563e-01,5.911310383513751487e-02,2.899938899872617215e-01,-7.717096738872404778e-03,5.539800281859727504e-03,7.945932375129149267e-03,2.313046753406524658e-01
2.418624281910079499e-01,4.640417108937092139e-02,2.402459808920189288e-01,2.341696817754876717e-03,-4.795009680943916955e-03,-4.479363328795191689e-03,1.950287520885467529e-01
1.716642406721974323e-01,-2.676414194086365606e-02,2.269944768058149154e-01,-3.340160874853369266e-02,1.725742277639346831e-02,1.531409320079105824e-02,2.415747642517089844e-01
2.516051120646327077e-01,7.223502218240747397e-02,2.509964108420253415e-01,2.698083349856180476e-03,1.392864974877052733e-03,-9.429570611963300313e-04,1.791511774063110352e-01
2.247276456855781535e-01,1.526781747057320837e-02,2.220904326283620334e-01,1.125512140590433563e-03,-4.472339840156621879e-03,3.405759862434624106e-03,2.083904743194580078e-01
2.469367923653610908e-01,3.879480481802854985e-02,2.526522187805916864e-01,-1.375840288574990862e-02,-5.882481356408116079e-04,-2.145423511665934917e-03,2.124337553977966309e-01
2.412544113681093227e-01,5.993866238397657642e-02,2.415225805212249111e-01,9.493518622125483994e-04,3.056429260663546567e-03,2.803059724947126741e-03,1.815995573997497559e-01
2.553402600099616282e-01,6.953688290565589181e-02,2.500177269205012820e-01,3.005659521304470012e-03,-2.600443134534221462e-04,7.245407441144622934e-04,1.832789182662963867e-01
2.419345823546870944e-01,2.261769946352706895e-02,2.420821484486633812e-01,3.190436911449095071e-03,-1.234746115188078150e-03,5.037239122920857354e-05,2.194707244634628296e-01
2.807081395484726793e-01,3.982721322305243783e-02,2.713328373806092597e-01,6.737670514764189031e-03,-3.987400131916243873e-03,6.196682257564001609e-03,2.369647026062011719e-01
2.468968375518806047e-01,2.676145291029002893e-02,2.496336501286305354e-01,-1.114553649103637058e-03,-4.379921150750882425e-03,-3.363007768217883726e-03,2.217312604188919067e-01
2.683464238723092254e-01,1.570505744852382368e-02,1.284186515518477012e-01,-3.684421038975181054e-04,3.991309360319409577e-04,-1.036697946028162891e-02,2.199527323246002197e-01
2.316588304468500392e-01,3.547329714001040690e-03,2.280897765230900931e-01,-2.352220715974543460e-03,-2.000744800562292286e-03,2.100993155372364064e-03,2.264405041933059692e-01
2.303229096308953283e-01,1.761083995299593530e-02,1.734285621693285318e-01,1.886215774506435174e-04,-2.132884211297958119e-03,3.066418129736414328e-03,1.908487379550933838e-01
2.405102766834980865e-01,1.717362784064507819e-02,1.400423056715230929e-01,-5.051599281051973294e-04,-2.119233721523885224e-03,-8.332797162460248131e-05,1.937760412693023682e-01
2.466372689648730909e-01,6.292844377140949241e-02,2.415437833876799556e-01,-1.574855826103082864e-03,2.250969299510394476e-04,-8.312037032207018070e-04,1.812424361705780029e-01
2.487281520254238099e-01,6.589038961551237084e-02,2.450257234336001844e-01,-5.689230438973496423e-03,-2.380171299424436136e-03,5.455707702142612026e-03,1.815758943557739258e-01
2.256079505792387696e-01,2.407131588286223756e-02,2.258622315859612484e-01,1.316842084401829852e-03,2.524222351289927713e-03,2.674710251508532165e-03,2.017773687839508057e-01
2.338295726190048052e-01,9.387333892356436449e-03,2.271835813319258435e-01,-2.227940149261805475e-03,2.701523712208830051e-03,1.292865147713463297e-05,2.212772816419601440e-01
2.519056057101291546e-01,7.347973108328378911e-02,2.543851304068605601e-01,3.130462950978129665e-03,-1.390663268525983015e-03,-1.462981323953517611e-06,1.797764003276824951e-01
2.504386589449335565e-01,6.916912049896231651e-02,2.522849140181392391e-01,1.045485727575361581e-02,-1.033220805115098130e-03,2.951531435035035632e-03,1.831774413585662842e-01
2.240563411561511120e-01,1.666679051099442810e-02,2.351866950209232365e-01,8.059256373231810794e-03,-6.091388911000496058e-03,3.047463689341738894e-03,2.139548063278198242e-01
2.428478629958023549e-01,3.507835356898525436e-02,2.367835831897713850e-01,-2.610176226463103120e-03,9.900087275869957643e-04,-1.140446920495394355e-03,2.048713117837905884e-01
3.006837548010619088e-01,1.010250114315282555e-01,3.028419799762815390e-01,1.516710703164993353e-02,-1.972665726935692379e-03,1.149233769043202409e-02,2.034630179405212402e-01
2.904286703445654871e-01,1.314014382331246678e-02,2.714571173268048865e-01,-9.665458870990451673e-03,7.921325714968329226e-03,-3.190582430512559596e-03,2.692346572875976562e-01
2.154748789760122518e-01,1.157130309000220514e-04,2.149601657344679673e-01,-1.375105108977990208e-03,-3.039402987213002529e-05,-6.717820744572846302e-04,2.151186168193817139e-01
2.138444827188527297e-01,7.379661386159780401e-03,2.162994465061475746e-01,-2.842043450819850461e-03,-1.700899617656215310e-03,-3.078207129115750115e-03,2.078507840633392334e-01
2.192602490255824432e-01,-3.522070290050360875e-03,2.191516352020788649e-01,-5.663131573677906028e-04,-3.436886077355396339e-05,-1.082542515208517265e-03,2.227380871772766113e-01
2.220607714158656654e-01,2.203493913366105783e-03,2.208935734013688645e-01,-2.860412688552592983e-04,-4.379455854399247512e-04,-1.068194222169441222e-03,2.192856818437576294e-01
2.844806944247856850e-01,5.498130108238583058e-02,2.627801954768525516e-01,2.551927317448554697e-03,1.301643544278156947e-03,-1.720199129397519816e-02,2.215242087841033936e-01
2.189309565612047592e-01,-5.001273737973210842e-02,1.190394401136973812e-01,6.004100913913299267e-03,1.064334308159128190e-02,-4.648166500231092763e-02,2.497467845678329468e-01
3.037149341877254938e-01,5.757312463817018666e-02,2.732015515071321565e-01,-2.375714248972775680e-03,-1.603064827186472278e-03,-1.199314501722355958e-02,2.333717793226242065e-01
2.184327658714091125e-01,-4.695019098786554212e-02,8.295077461729641333e-02,3.251624797055752180e-04,-7.775359891547305516e-03,-3.373282830018903278e-02,2.375379353761672974e-01
2.324747335345456745e-01,-6.083634428637740843e-03,1.704342413150479185e-01,-1.712177075950622150e-03,7.706248534082393506e-03,-3.465720034835797353e-02,2.230451852083206177e-01
2.886813365451914443e-02,-6.014298229549742969e-02,2.258134735899398060e-01,6.564204687632834052e-03,5.225915561633482156e-03,6.375288907182017663e-03,2.541139423847198486e-01
2.505725526070730624e-01,4.309083165718481656e-02,1.841584168929162879e-01,-2.362417672759305632e-03,7.228495736341224165e-02,8.851676274879045903e-03,2.227261215448379517e-01
1.275493628272720281e-01,2.851568535140582006e-02,2.772916132731780836e-01,9.518093262642272553e-03,1.269878482923141039e-02,-1.798644010450122877e-04,2.186677753925323486e-01
1.384677768375390250e-01,-7.286960574629172682e-03,1.949291753049318121e-01,-8.653665139241144277e-03,-3.904736826323391280e-02,-5.811365711217248917e-03,1.938089579343795776e-01
3.037198413075962167e-01,6.395856693052059949e-02,2.094451657762013697e-01,-7.881921900012436172e-03,5.569747463928451103e-02,1.891916865989681090e-02,2.331020683050155640e-01
1.350396305102943006e-01,1.385914062651727452e-02,2.408219516921787096e-01,9.557591136222972836e-03,3.171743761306117237e-02,1.961381390444603186e-03,2.049315422773361206e-01
6.116613227509619388e-02,-6.094944959136935902e-02,1.698920632243039464e-01,1.415955111895331013e-02,-6.184073555762709812e-02,8.428073496503894757e-03,2.286877334117889404e-01
1.668105315766916785e-01,2.946698217640378314e-02,2.544500272714296796e-01,-4.183501272760924150e-03,-2.813196783936793680e-05,-1.721985333753653065e-03,1.965758204460144043e-01
2.970192007664615441e-01,5.664425206502765597e-02,3.727366909638200054e-01,-1.996042276796023210e-02,-2.654315642507575068e-02,-1.476734917907395091e-02,2.927062213420867920e-01
2.438038493204378043e-01,-1.320473654981491052e-02,2.447598352749971728e-01,-2.844454173260057769e-02,-2.132246231383633575e-02,-9.297720682284977417e-03,2.652368545532226562e-01
2.278793275373933447e-01,9.931804830744739299e-03,2.252509033675171302e-01,-3.980453920976555551e-03,1.704355600556570682e-03,-7.310987362896093729e-04,2.167787402868270874e-01
1.948103862811323972e-01,-1.671926570805820633e-02,2.285578502540648593e-01,-2.909728476859989657e-02,-2.417426579876189724e-02,-2.023634502965184281e-02,2.419585585594177246e-01
2.237058586000275073e-01,1.458521716165343818e-02,1.772813494234291853e-01,-5.297210627724693519e-03,7.904211997064357689e-03,4.414252963301152841e-03,1.910717785358428955e-01
2.426785183979464078e-01,3.174880583034622727e-02,2.415906536770187074e-01,1.463656801426885604e-03,3.052934687685423566e-03,1.934743887202626739e-03,2.104962766170501709e-01
2.350931062156403351e-01,3.516234466166823225e-02,2.377286475389792375e-01,-3.908851508873449968e-03,-1.877230254208531093e-03,-1.546886410172287982e-03,2.014193832874298096e-01
2.393881572222691101e-01,3.225091336119845220e-02,2.409574205504444455e-01,-2.145601867896190697e-03,2.799457385348706490e-03,1.851428692408138435e-03,2.080407589673995972e-01
2.381099535585335381e-01,4.144267960298070319e-02,2.344602519230669091e-01,5.422558176244137622e-04,2.001184414048366971e-04,-8.908247760807596824e-04,1.948767453432083130e-01
1.945624111138326284e-01,-8.975109725456620335e-03,2.118558094408054815e-01,1.562223882954721574e-02,1.967858693613107335e-02,-9.752845502943896169e-03,2.177744209766387939e-01
2.101599102628484150e-01,-4.412089786087314280e-03,2.204440061681774421e-01,3.669430562646209138e-03,2.094531915270758660e-03,-4.643238714513148353e-03,2.201631665229797363e-01
2.009569758946551099e-01,-1.973218280992214413e-02,1.778680411470500988e-01,1.110768382157924054e-02,2.196040294070638818e-02,-1.506294498613714415e-02,2.159604728221893311e-01
2.084910538756566400e-01,6.071154523765526223e-03,2.094927694342969826e-01,2.541299764958262000e-02,3.906057437245356867e-02,-4.392453988736414600e-02,2.312581390142440796e-01
1.703059064825544477e-01,-3.412486101976086594e-03,2.226058341569695509e-01,2.660787913577787600e-02,3.973552062622544290e-02,-1.796012894876946805e-02,2.232200503349304199e-01
1.493709484421482936e-01,-9.173003877198243616e-03,2.144070899331162183e-01,2.618078080925938939e-02,6.310946219043636618e-02,-2.549433854915373471e-02,2.358634471893310547e-01
2.029525714484688992e-01,1.145543098613310828e-03,1.398286486278466634e-01,1.314319108394227352e-02,7.588866161929049003e-02,-2.262463005647420353e-02,2.265015989542007446e-01
2.195547296729626896e-01,1.150882635884438454e-02,1.735472902527373518e-01,-3.978039168853341086e-03,1.156653563472397755e-02,1.430171975281016930e-02,1.920691728591918945e-01
1.708801471852425258e-01,-7.839780608031682307e-02,4.214709697791424459e-02,-1.788208894370857741e-02,6.377033129515073673e-02,3.924713903413714483e-02,2.537748515605926514e-01
2.308818325233865099e-01,1.104060173023990732e-02,1.696203232933665705e-01,-6.119599437539937313e-03,1.942626271849890590e-02,8.681754802056677878e-03,2.002147287130355835e-01
2.049988783469353648e-01,-4.481667934857075375e-03,1.672549727844069578e-01,-1.175725412632900452e-02,4.733765707656055477e-02,2.751857329761677601e-02,2.163542509078979492e-01
1.814821435388538073e-01,-5.098292094237316663e-03,2.288239794687446926e-01,9.629711620568952996e-03,3.952489709531263606e-03,-4.965116101184662532e-03,2.151408493518829346e-01
1.768953766325532251e-01,7.757200235727262916e-03,2.380203116539749697e-01,1.571365014990713099e-02,2.778674377587918472e-03,-2.199637407434941634e-03,2.084729671478271484e-01
1.556343734930216993e-01,1.248239607893657233e-02,2.430413530337136585e-01,1.281495877508048893e-02,-5.948618043608146742e-03,-1.858627991003394863e-03,2.031111568212509155e-01
2.505231768664331615e-01,7.807146651232568790e-03,1.362206904212721059e-01,9.426418506589734347e-03,-3.120504150483163069e-02,1.337931228942408797e-02,2.189930081367492676e-01
2.630588917997471743e-01,3.029618688996391085e-02,1.449515769390301301e-01,4.520648215341829812e-03,-3.283559649981027811e-02,1.308724947569867882e-02,2.108233869075775146e-01
1.986943848291843617e-01,5.971359867186262771e-03,1.764289941124622119e-01,-8.411495297598276053e-04,-7.579766406003034078e-03,-1.147399576084097862e-03,1.830991208553314209e-01
2.144195119601202681e-01,2.863023453974042343e-02,2.185193261678544108e-01,7.629625828991667101e-03,-5.267342166874090792e-02,1.396313952074300889e-02,2.106636464595794678e-01
2.223972854650142217e-01,2.551017614120298926e-03,1.948593915326660708e-01,6.848908876498605372e-03,-3.078197058682228746e-03,4.752917546227913327e-03,2.080229222774505615e-01
2.007578060096655292e-01,4.432853309804654640e-03,1.661665729859369556e-01,-6.023856598336158573e-03,-9.313694328101042308e-02,8.673710637899151310e-03,2.435301840305328369e-01
1.906732404783111900e-01,-6.068243244367493849e-02,7.456050550270118538e-02,-8.839302626273890656e-03,-7.893889310397846082e-02,-9.681599847120197708e-03,2.582361102104187012e-01
1.184953440713195083e-01,-4.293365691803985307e-02,1.354800799161004210e-01,1.557785280985638822e-02,-8.525239971042097853e-02,1.637171122886734581e-02,2.289664894342422485e-01
2.172992267760697482e-01,-2.509898505943894409e-02,9.114787295862697425e-02,1.725437725303435518e-02,-6.077363360865507824e-02,1.822792395007283295e-02,2.388774007558822632e-01
2.150177969633877140e-01,-3.446181636629491729e-03,2.068297227312387854e-01,-7.021510825375124054e-03,-3.793292482707613655e-03,-5.249380633887245316e-03,2.151243686676025391e-01
2.209094090455390180e-01,-8.628339904810378158e-04,2.239025617942361213e-01,-2.195411682674006278e-03,8.108049588029891909e-04,-1.529765052392356717e-03,2.233363837003707886e-01
2.204014977897276739e-01,-5.258349019180263983e-03,2.216360004131758821e-01,-7.662846706323807886e-04,1.198714005037918029e-03,-5.634921602374582490e-04,2.262951433658599854e-01
2.221070096889349033e-01,4.439950509056933559e-03,2.268677132447282641e-01,-3.556189949707693528e-03,5.972462542526781092e-04,-5.346835365601232751e-03,2.203693240880966187e-01
2.212272123895076548e-01,-2.149778379740313605e-03,2.212809043802093090e-01,-4.601596738135010586e-04,6.352937339070730167e-04,-9.120995076467249864e-04,2.234135568141937256e-01
2.193972893150790693e-01,-5.647813664788198240e-03,2.193786870547580481e-01,-6.802491615777461493e-04,5.445440315342385410e-04,-7.902928529568574358e-04,2.250450253486633301e-01
2.228272840342159222e-01,-3.721153831356682762e-04,2.242457254856369819e-01,-1.104599442193597439e-03,9.980839494638888906e-04,-2.078561272186373737e-03,2.239557802677154541e-01
1.985536549787994820e-01,-3.437992909695763988e-03,2.160304790761024829e-01,-1.289327940554286416e-03,-2.933461299474497772e-03,-5.847592045431082922e-03,2.115883380174636841e-01
1.935509966706716600e-01,1.991641737188157291e-02,2.406674084375163836e-01,-7.793314181892897416e-03,-5.494199192062669546e-03,-1.162827637931662531e-03,2.020563930273056030e-01
2.291165239701785372e-01,2.002170260655605771e-03,2.237038401018727751e-01,-3.285272613459950045e-03,2.655313527900315766e-03,1.851878550198461171e-04,2.245764136314392090e-01
8.691654136454120272e-02,-8.854667769292290380e-02,2.040544319863941691e-01,-6.085070940569492493e-02,8.028713409764097475e-03,-4.541644969501650898e-03,2.764520049095153809e-01
1.134976528490389547e-01,8.678052053006299338e-03,2.758177670331265485e-01,-4.975698238406089935e-02,2.301453918861596799e-03,1.966549999363286991e-02,2.509036660194396973e-01
2.275379959374700667e-01,2.574605410073566025e-03,2.308253902816772007e-01,1.477042172892828985e-03,3.020401113519984027e-03,2.407396301980965422e-03,2.267381250858306885e-01
2.263637223457705683e-01,1.126020827528856350e-03,2.278674226894557009e-01,2.207060336535402682e-03,1.653792809819468928e-03,2.146119054880058549e-03,2.260743379592895508e-01
2.244166807482166626e-01,-1.889569363371895738e-03,2.261197496209441105e-01,2.978995028616771186e-04,1.600311243981994425e-03,9.251096490537554255e-04,2.271857261657714844e-01
2.188477521177805696e-01,-5.329413711431058021e-03,2.197569936944630542e-01,2.238944767736339003e-03,4.425113690197210090e-04,2.168410251308633581e-03,2.246993333101272583e-01
2.179626572221190495e-01,-4.275144938918895576e-03,2.096595023845149730e-01,5.046621374798605612e-03,-6.400131662946012849e-04,2.845400288466027640e-03,2.184381633996963501e-01
2.178236452382516508e-01,-4.578109671081270760e-03,2.083692922796049063e-01,4.595735882712465720e-03,-3.108022312644891094e-05,2.974231578198952182e-03,2.180347740650177002e-01
2.278162932391171736e-01,1.029946837423550976e-03,2.288269208661690701e-01,2.370812606206042315e-03,1.589467629229730826e-03,1.833627988226831096e-03,2.273692935705184937e-01
2.281289336556112102e-01,-2.197940288261091002e-03,2.074146598728882074e-01,5.358500724004624897e-03,-1.365975041484168923e-03,5.258928270991643575e-03,2.210954576730728149e-01
2.242745507583711051e-01,-1.064966635339698042e-03,2.252071883468776403e-01,5.536129545342754988e-04,-3.319538741743995134e-03,-6.099596268859797370e-04,2.258849740028381348e-01
2.099542603929535622e-01,2.753821342741047395e-03,2.083194888047152360e-01,5.222095397938254563e-04,-7.432909730434434205e-04,-8.118996447146938902e-04,2.063986957073211670e-01
2.303624238552892389e-01,7.004722527300027979e-03,2.273000404820217923e-01,-1.036040587703247539e-04,-3.359585041762791578e-03,2.046303662363894386e-04,2.219190150499343872e-01
2.366943480112466136e-01,2.688708937463732407e-02,2.419524007461232307e-01,-1.357729134108354423e-03,-1.570933261406424987e-03,-5.027460512862669956e-03,2.126938402652740479e-01
1.713564027064786166e-01,8.909392455264120159e-04,2.370488145745290876e-01,2.216554412742251234e-02,-1.240613765236886143e-02,9.668776511552531691e-03,2.163062244653701782e-01
2.257192920193240027e-01,-2.282898150956891303e-03,2.249804103900677754e-01,-2.320917913977377930e-05,-2.715911798283197898e-03,-7.226837557038145272e-04,2.276856899261474609e-01
2.224884661622458237e-01,4.874746755698100564e-04,2.253299196290090567e-01,2.671720100035232092e-03,-4.918777255412830254e-04,-3.791522590773787824e-03,2.235812693834304810e-01
2.224884435302851293e-01,-5.061281908798814788e-03,2.219636491158736846e-01,2.569452367858382925e-03,-4.497830191927083355e-04,-1.540272068331319851e-03,2.273483425378799438e-01
2.281216227847427669e-01,2.861378344813758634e-03,2.253698267710513292e-01,-1.339996794766835117e-04,-3.346731628503964943e-03,-5.719934456192908405e-04,2.239743620157241821e-01
2.456047117864277318e-01,1.543827782329088016e-02,1.632110011092311463e-01,-7.511378798949610658e-05,-5.049019837458311975e-03,-1.453430195280556309e-02,2.037431597709655762e-01
2.309413476111728536e-01,-1.915246861401292966e-03,1.289375899560430139e-01,3.089874008677754528e-03,5.745159647629409852e-03,-2.888918973071917529e-02,2.085812389850616455e-01
2.257008765276463103e-01,-2.900535250812547039e-04,1.440918674005038924e-01,1.026299097377588463e-03,-1.379847299791771937e-03,-1.287113146406272321e-02,1.994865983724594116e-01
2.402272020506547590e-01,1.098858114843637157e-02,1.825494359094081420e-01,-1.218599616177280863e-04,-1.696890814497832405e-03,-1.817800209341747988e-03,2.065761238336563110e-01
2.454070696797337747e-01,1.438654014244794555e-02,1.593212661855998857e-01,4.214062507331160778e-03,5.255499099271999756e-03,-9.622289556691863630e-03,2.032426297664642334e-01
2.287594184444501910e-01,1.377936795127777947e-02,1.552241264121675957e-01,-7.398010148912315641e-03,9.629231072244573419e-03,2.467776643861867552e-03,1.904622465372085571e-01
2.129090763686576904e-01,1.211814474238526174e-02,1.850723037922548109e-01,-6.564235115011521869e-03,2.675513259992284842e-02,8.280482665863585223e-03,1.948973834514617920e-01
2.892144466076912446e-01,5.092365374193322247e-02,1.816463692515367934e-01,-7.649944739233965375e-03,2.362090463329468218e-02,2.040262926534721494e-02,2.140540033578872681e-01
2.237663880297629526e-01,1.749216067109964079e-02,1.721620810664789003e-01,-3.018228305566438441e-03,8.778625737448510213e-03,1.819264107498770968e-04,1.866173744201660156e-01
