sxx,syy,szz,sxy,sxz,syz,smises
-1.269594600873314577e-02,-1.269594600873314577e-02,-9.460810798253381504e-02,-1.768025648076257931e-52,-8.663325675573240495e-53,-8.663325675573240495e-53,8.191215991973876953e-02
