sxx,syy,szz,sxy,sxz,syz,smises
-1.143932314527078831e-01,-1.143932314527078831e-01,-2.070199887074881118e-01,4.396815231560742192e-52,2.044519082675768190e-52,2.044519082675768190e-52,9.262675791978836060e-02
