sxx,syy,szz,sxy,sxz,syz,smises
4.533333333333507673e-04,4.533333333333507673e-04,-9.066666666667015347e-04,4.000000000000001818e-04,-4.399999999999999051e-02,-4.399999999999999051e-02,1.077883541584014893e-01
