sxx,syy,szz,sxy,sxz,syz,smises
1.020000000000628043e-03,1.020000000000628043e-03,-2.039999999999124545e-03,8.999999999999993248e-04,-6.599999999999998923e-02,-6.599999999999998923e-02,1.617027968168258667e-01
