sxx,syy,szz,sxy,sxz,syz,smises
9.389104910188444952e-02,9.389104910188444952e-02,1.620292225509486483e-01,3.513499546337349850e-52,1.862154759558818507e-52,1.862154759558720213e-52,6.813817471265792847e-02
