sxx,syy,szz,sxy,sxz,syz,smises
1.460810798253374398e-02,1.460810798253374398e-02,-1.492162159650675946e-01,-9.921589252668522360e-70,0.000000000000000000e+00,0.000000000000000000e+00,1.638243198394775391e-01
