sxx,syy,szz,sxy,sxz,syz,smises
3.397111764347719443e-01,2.720132835926993842e-01,2.642385900693455247e-01,-9.435957041408272235e-04,1.284209198833363317e-03,-5.218375703462960202e-02,1.155284941196441650e-01
3.705747103502818884e-01,2.737462484703769294e-01,3.130276436052041866e-01,-4.002732324292266816e-03,-8.781197522915352646e-03,-4.891670923373972468e-02,1.207192987203598022e-01
3.741389561722310297e-01,2.304565670863656657e-01,2.494561309512497438e-01,-2.665246877417942750e-02,-9.564593595965086015e-03,-7.734563049005155344e-02,1.965407282114028931e-01
3.747010083337278807e-01,2.599810217022047176e-01,2.897644336736090453e-01,5.276765469386528878e-03,1.737887593580465101e-02,-6.443851759091968889e-02,1.551694273948669434e-01
3.712520425137740832e-01,2.976642058301779414e-01,2.861460259094609215e-01,1.078851872910074026e-02,7.088519327829995512e-03,-4.919685626192136368e-02,1.189804449677467346e-01
3.100396008546853488e-01,3.165311645736192392e-01,3.646651912067926937e-01,-2.617067447914369835e-02,-1.111523771786123924e-02,-1.471226093437863133e-02,7.580369710922241211e-02
2.611809930660680679e-01,2.172335267265697312e-01,3.408415238757721566e-01,-5.645853702455626982e-02,-1.769429707503343899e-02,-2.300275251135444621e-02,1.544907838106155396e-01
2.790738508347130331e-01,2.735186645697309515e-01,3.373556705134408973e-01,-6.146762375643560067e-02,-1.837467116276209067e-02,-3.960399744913978282e-02,1.442377120256423950e-01
2.924969510499796366e-01,2.891477427008612433e-01,3.397999349565136162e-01,-2.552026938436490963e-02,-1.175728119900962092e-02,-5.128463640266417781e-03,6.967549026012420654e-02
2.893308696042805606e-01,2.670720573419037569e-01,3.354035586362224541e-01,-3.688721457021274658e-02,-1.907229223056833983e-02,-1.061797204315010658e-02,9.568255394697189331e-02
2.404273494434700509e-01,2.692414391799228257e-01,3.246351399536493432e-01,-4.537430328571453314e-02,-2.224233286993186620e-02,-1.948454343409736916e-02,1.195592805743217468e-01
2.973487672474919852e-01,3.155253924451357772e-01,3.677754151978316344e-01,-5.759546651672397405e-02,-5.217713080946742576e-02,-2.788838401641539205e-02,1.564050614833831787e-01
3.132472774283782124e-01,3.246566903763973277e-01,3.863323546995329205e-01,-6.093894272828415809e-02,-1.868401607851019608e-02,-1.978163658953818044e-02,1.341626793146133423e-01
2.938985172543439606e-01,3.014563691138867907e-01,3.581171102967178332e-01,-3.647087652596132934e-02,-2.882088145815157355e-03,-7.020805359010438319e-03,8.865079283714294434e-02
3.052482154183256968e-01,2.955337978299688584e-01,3.477530490291698695e-01,-2.487684082835514565e-02,-8.801618148183084495e-03,-4.973959389436405018e-03,6.691142171621322632e-02
2.709833976426453961e-01,3.024083674615756778e-01,3.229026541894882141e-01,2.272525851187014861e-02,-1.729250283939671659e-02,9.882177086289346130e-03,6.921671330928802490e-02
3.183367681770294944e-01,3.163176239457779482e-01,3.421260731951024092e-01,1.668135516274141250e-02,-5.359524563093893620e-03,1.337108549467110573e-02,4.555629566311836243e-02
3.169522180128100941e-01,2.964551260717343539e-01,3.480380470711753604e-01,2.632898661286772746e-02,-1.428862632819361510e-02,1.516711614414682600e-02,7.352478802204132080e-02
2.934784057144206870e-01,2.972276648296148238e-01,3.244164730428523713e-01,1.370416830463258226e-02,-1.105142545437875698e-02,7.275310144696971529e-03,4.408890008926391602e-02
3.318577144371639975e-01,3.147796622203113404e-01,3.538220034472685516e-01,1.583114799813416934e-02,-7.551069750332088659e-03,1.426036951790821648e-02,5.178999155759811401e-02
3.230837912546615232e-01,3.049781221862039038e-01,3.368701672996762264e-01,1.570677233005865828e-02,-7.052367142420321554e-03,9.475361013756022216e-03,4.388797283172607422e-02
3.028536589232014298e-01,2.848949115824533918e-01,3.268959339897736793e-01,2.643838159078593097e-02,-1.845707995900242038e-02,1.932998275353942780e-02,7.464728504419326782e-02
2.974577430522086230e-01,2.789935460154814306e-01,3.151246800441410700e-01,2.667852583298133823e-02,-2.088995024448918325e-02,1.583546656763366173e-02,7.194400578737258911e-02
3.564801390566512684e-01,2.907651260681227146e-01,3.166307049775435867e-01,5.487725216469477481e-03,7.534091893269235195e-03,1.660025762505982008e-02,6.614433228969573975e-02
3.549716783501992157e-01,3.142565505480783838e-01,3.178370179606799795e-01,4.411133983320106138e-03,-2.956094820053114646e-03,1.993495067460075015e-02,5.292975157499313354e-02
3.678249448572368796e-01,3.169509255201605202e-01,3.227996162246813960e-01,1.543434626778120849e-02,-1.628848624128037548e-02,3.732593769669560746e-02,8.952711522579193115e-02
3.987336777935636678e-01,3.265882053243448491e-01,3.434845654195458620e-01,1.492545040239495052e-02,1.072561503609506528e-02,4.932290130445874526e-02,1.121745482087135315e-01
3.546206455454633533e-01,2.697727938192004959e-01,3.199794076349411487e-01,-1.133765455747850603e-03,-1.082898196429509050e-03,-6.261592597635272719e-03,7.473243027925491333e-02
3.802176248410700787e-01,2.529664509046187226e-01,2.869122567023263404e-01,8.504524343762245517e-03,-2.058003550584113547e-03,9.181497698905904947e-02,1.963292956352233887e-01
3.482063287343996616e-01,2.971327314354256788e-01,3.021775757734448398e-01,-8.869504634120652965e-04,2.147173547815995308e-03,-9.017065908952896780e-03,5.134605988860130310e-02
3.633326246253412162e-01,2.926503336081196505e-01,3.115701457919307638e-01,2.490475760488586321e-02,-9.959007114127997606e-03,6.322225078663656905e-02,1.347816586494445801e-01
3.402504489524824649e-01,2.617145664777035252e-01,3.014453902538563046e-01,-5.150811466720950881e-03,7.355122255084787890e-03,4.663242464959641703e-02,1.067322045564651489e-01
3.155582781405301129e-01,3.574909717437479428e-01,3.050283808795383189e-01,-3.705222640892412260e-03,2.511836758279686541e-02,1.346781090739223100e-02,6.920191645622253418e-02
2.882199398755972419e-01,3.314250134186443320e-01,2.973855416543957908e-01,-1.023848491315342002e-02,1.459403254998968384e-02,6.962601228453146711e-03,5.151268467307090759e-02
3.037559890135791973e-01,3.354925556404564357e-01,2.843899355257638595e-01,-4.057863219087791407e-03,1.148391396399414330e-02,2.421881036492263065e-03,4.959336668252944946e-02
3.109084718652058155e-01,3.382318153418759077e-01,2.874899034867103853e-01,-6.999811193886661814e-03,1.174764394084898932e-02,1.480423870642864253e-03,5.002455785870552063e-02
3.432636441379681713e-01,3.693014083398903913e-01,3.039625328245206259e-01,-4.811927212182719876e-03,2.636380158070711702e-02,1.385579440760497869e-02,7.730729877948760986e-02
3.206175365453288739e-01,3.191901976052112233e-01,3.235618304237572462e-01,2.682317992304729956e-04,2.286589450559972907e-03,9.592321245578138995e-04,5.793993826955556870e-03
3.482012621779360662e-01,3.666963289122240899e-01,3.128125497993951565e-01,-5.650899171350550962e-03,2.243664332212904830e-02,1.251707962593766148e-02,6.576460599899291992e-02
3.237421776309093446e-01,3.140590263671249049e-01,3.260428655895348249e-01,7.369109454367225691e-03,8.381334108691532170e-03,-1.036868226320672264e-02,2.859221585094928741e-02
3.292663834880313334e-01,2.959371654250652628e-01,3.101662107194245732e-01,1.826496673344837895e-02,2.036380470209591537e-02,-2.025054578247469789e-02,6.568252295255661011e-02
3.413095144222471067e-01,2.949481825784070477e-01,2.896520844307489684e-01,-2.243352553647297385e-03,-4.386145160243051940e-04,-5.271745242806997155e-03,5.021956562995910645e-02
3.130223782947474387e-01,3.403791474700097464e-01,3.051712404132404521e-01,-4.266057263707098007e-03,5.033080860526848235e-03,5.102366346390258163e-03,3.512137383222579956e-02
3.320266970517323224e-01,3.235575231772408467e-01,3.006803545573034087e-01,1.787030955002013449e-02,1.557262717048648985e-02,-1.321529365292631666e-02,5.475708469748497009e-02
3.478499041887555543e-01,3.421618376770045877e-01,3.269527439121586165e-01,1.582730306571565604e-02,2.312238494189393367e-02,-2.339842170626838316e-02,6.594000011682510376e-02
3.571470169572820152e-01,2.484767739082197058e-01,3.666597250990679679e-01,-1.667527525820687237e-02,-5.591448268275846147e-04,-1.539924232392385524e-02,1.203328892588615417e-01
3.464035068951860086e-01,2.637998433639580087e-01,3.670897271756160540e-01,-9.258520183426797306e-03,-4.034677544840225422e-03,-1.290904056964616020e-02,9.882291406393051147e-02
3.180070065276827673e-01,2.541110438255325121e-01,3.577553371330310927e-01,-1.875376098911424316e-02,-3.998107281492079522e-03,-8.925953082709671069e-03,9.769577533006668091e-02
3.543821537733463645e-01,2.193845821450308708e-01,3.657556428983958496e-01,-3.444798637549045806e-02,-3.409263298948805323e-04,-6.293986153869560000e-03,1.535196304321289062e-01
3.400477183902097522e-01,2.412257348421810443e-01,3.594551816461944993e-01,-7.263862604467261237e-03,1.868720072672230793e-03,-3.273225527548255347e-03,1.107304245233535767e-01
3.133037971529613053e-01,3.315830461696899767e-01,3.106388614991822394e-01,-2.466851427801524180e-03,1.622269887100036409e-03,5.483767918525001787e-04,2.042056247591972351e-02
3.145743359689152086e-01,2.105142559881079956e-01,3.480534785445005275e-01,-3.278160125073084630e-02,1.341376551754281830e-03,-6.778415244470109829e-04,1.366157829761505127e-01
3.349510021217283473e-01,2.150844930857375159e-01,3.570424819585922283e-01,-3.459537113452768042e-02,6.098033650698373755e-03,-3.212888876181561448e-03,1.457294970750808716e-01
3.459134579066964754e-01,2.550906942617633399e-01,3.702954904553384941e-01,-9.786479537245901250e-03,9.697865428890740155e-04,1.550789093157330274e-03,1.065601408481597900e-01
2.899112286781092562e-01,2.987368326899222937e-01,3.419724066700995380e-01,2.447816998946007391e-02,1.868163971773393467e-02,-1.227233677629458244e-02,7.500113546848297119e-02
2.588717469158742235e-01,2.710700745057852967e-01,3.406383402251019765e-01,4.452498189425693753e-02,2.059796130238802925e-02,-1.222598853232658919e-02,1.162146031856536865e-01
2.827112270046812093e-01,2.940379114868594268e-01,3.254129620738893669e-01,2.207528010693011328e-02,1.758783563408151257e-02,-2.419598765211516608e-02,7.492896914482116699e-02
3.613713323251829812e-01,3.183329550274145991e-01,3.877334911742482682e-01,5.503312377687762796e-02,3.137042160798447776e-02,-1.321746122201283846e-02,1.274527311325073242e-01
3.217847301087645162e-01,2.713437898238934554e-01,3.349276204379437738e-01,4.865679693370531661e-02,2.173593719681963729e-02,-2.811744207517791541e-02,1.194635480642318726e-01
3.407968966963823010e-01,3.219104484298922486e-01,3.674949045717602059e-01,3.368605621679662820e-02,2.022942306516961608e-02,-1.030992623870047829e-02,8.077459782361984253e-02
2.828300260507420893e-01,3.481259952003067926e-01,3.116644753310232607e-01,3.866340542400028332e-03,-8.546318416419396158e-03,6.215241497685202766e-03,5.993386358022689819e-02
3.150366530175185420e-01,2.927946469425691811e-01,3.284989992389989455e-01,-7.847939068278495661e-03,9.287682140267188718e-03,4.164156888518816269e-03,3.835290670394897461e-02
2.752022117963328629e-01,2.434498847540381150e-01,3.191632178767179751e-01,-3.387712334565763650e-02,4.802426971461439334e-03,3.477966264070484967e-03,8.879809826612472534e-02
3.340674044527751074e-01,3.291023261424328439e-01,3.495922025999311233e-01,-2.821930117890169079e-02,2.035717926472305206e-02,2.615856105694972650e-02,7.763887941837310791e-02
2.852057538822364013e-01,2.827835225304570765e-01,3.228112537098946633e-01,-2.325061876934247582e-02,8.779496047391706359e-03,8.394060622160748331e-03,5.979567766189575195e-02
2.657627561214145895e-01,3.368276250814460915e-01,2.911514249616874994e-01,-2.078757465530810603e-03,-1.237934384025036853e-02,-1.738952777226756468e-03,6.612365692853927612e-02
3.272436767926943380e-01,3.018524925340470566e-01,3.425338622886569540e-01,-1.096313760823959885e-02,4.028842520092400931e-03,6.285950925742843712e-03,4.236204922199249268e-02
3.258730188316610876e-01,3.309454385693859635e-01,3.586119247330457616e-01,-2.128443350663878145e-02,8.009441501004372493e-03,2.293866832651390852e-02,6.373054534196853638e-02
3.135211856865984803e-01,2.855190296885656842e-01,3.373294878797574725e-01,-1.701917632106430406e-02,1.038400413788773471e-02,1.415401892391285159e-02,6.173401325941085815e-02
3.183939753924989180e-01,3.216879782932087206e-01,3.324982545915562415e-01,-4.459950459015507096e-07,1.712688517538448699e-03,-2.188183797313808087e-03,1.365598663687705994e-02
3.201694451091637861e-01,3.140342581572423408e-01,3.352563449718803379e-01,1.253366554386057055e-02,8.942696337839596554e-03,-8.705347188844185513e-03,3.600498661398887634e-02
3.238383154504155259e-01,3.180976835297699146e-01,3.386847565539210514e-01,8.214178869041703981e-03,7.958391256932255409e-03,-6.872599099082553863e-03,2.954189665615558624e-02
3.236577956424577240e-01,3.280346344639583078e-01,3.382885303861370430e-01,9.208101099804820444e-03,1.057794503678198897e-02,-8.244401466916014692e-03,3.103442303836345673e-02
2.852536651749972285e-01,3.019179949796534368e-01,3.139742243727263737e-01,7.839405744807072599e-03,5.632478213705315387e-03,-1.186788902786568671e-02,3.641490265727043152e-02
2.971971229978456197e-01,2.850211947449107219e-01,3.176726855435242358e-01,2.178655129126312595e-02,1.352483609784858529e-02,-1.295313434951977927e-02,5.738368257880210876e-02
3.512664519432811550e-01,2.471526339274092432e-01,2.716146780575083852e-01,3.931929295242103661e-02,3.124611204195019282e-02,-7.001949628027939743e-02,1.765401065349578857e-01
3.163780153395769901e-01,3.384502162410462089e-01,3.045208548657871162e-01,4.622902407147910786e-03,1.274386877005681800e-03,-1.058343410824742932e-03,3.101344965398311615e-02
4.795329969191205466e-01,2.069036065146873105e-01,2.989652224412381876e-01,-9.522444496365200378e-03,-3.093482802702325119e-04,-1.270799067957295858e-01,3.262263834476470947e-01
3.605093091359408697e-01,3.015338841149817761e-01,3.265016446979177034e-01,2.683999521197281621e-02,3.220137492360847925e-02,-4.036645185591083984e-02,1.130897775292396545e-01
3.738918761299707683e-01,2.958350610542012649e-01,2.791362465790732661e-01,8.922173749070646046e-03,2.043716817026333416e-03,-5.045126472969044262e-02,1.247497871518135071e-01
3.551928829746143768e-01,3.038801716574942025e-01,3.261546352130437199e-01,1.085222057573769112e-02,1.713052992389486190e-02,-3.885455948486199462e-02,8.802778273820877075e-02
3.428196560828335460e-01,2.881600312466680580e-01,2.879299428377867232e-01,2.629654132928895688e-03,9.359051600987631364e-03,-4.313286768058910425e-02,9.415496885776519775e-02
3.146499883954628207e-01,3.206798123186963001e-01,3.332332209149438396e-01,2.610298029255801386e-03,2.042316593791135802e-03,-3.952649111822017819e-04,1.740874908864498138e-02
3.423560089791441996e-01,3.126965251684845071e-01,3.074407036462961651e-01,7.454579782623389078e-03,-7.169163360500504546e-03,9.081565262616093578e-03,4.039209336042404175e-02
3.432826766049046352e-01,3.107898703150542286e-01,3.116242100261190640e-01,4.133981632493470906e-03,-1.797441990141024825e-03,7.070493522210979931e-03,3.521797806024551392e-02
3.434116057145895073e-01,2.921864640239340560e-01,2.914417708016462938e-01,8.549309427537052364e-03,-7.715811779006448261e-03,1.673839589224256075e-02,6.245888024568557739e-02
3.120082805986639229e-01,3.070418366895960038e-01,3.635894372429823718e-01,-2.894091925453497888e-02,-9.996889729089342841e-03,-1.856357449234116719e-02,8.238822221755981445e-02
3.128819936369453547e-01,2.996218966711867715e-01,3.465742675537487050e-01,-4.012271639686101898e-02,-3.306773653035501026e-02,-2.613773451674089934e-02,1.091660559177398682e-01
3.073041702802358222e-01,3.220086025190154744e-01,3.475569085369884514e-01,2.704750835955323750e-03,1.490265135557460171e-03,-2.345539535160196757e-03,3.591272607445716858e-02
3.249737950791140584e-01,3.196907400189442638e-01,3.185303176139849257e-01,-9.267133777211002902e-04,1.623759481513681368e-03,-1.099215233087280364e-04,6.775710266083478928e-03
3.351310182157781203e-01,3.763722935308310147e-01,3.377423864075380089e-01,-3.406622960393686228e-02,-4.884482042299289478e-02,-3.440391375158777243e-02,1.256575733423233032e-01
2.651010994775088725e-01,2.898765071316022346e-01,2.786091894825395432e-01,-3.759239787861091975e-02,-4.038627210524437655e-02,-3.715883269290603391e-02,1.172035634517669678e-01
2.936772991372536001e-01,2.959735372577221302e-01,2.896390539931458785e-01,-2.203292122109921231e-02,-2.623400400299850596e-02,-1.894560471132599941e-02,6.803438812494277954e-02
3.024707913391603831e-01,3.205459135898355294e-01,3.012352603784468341e-01,-2.584168770340905877e-02,-2.741529376019207279e-02,-2.697938490178642540e-02,8.241604268550872803e-02
3.303640848164798305e-01,2.769106489046726516e-01,3.562417481480896209e-01,6.941888836972117706e-03,-3.221630002862935650e-03,1.111293295393653508e-03,7.134132087230682373e-02
2.894466282717388927e-01,2.953413207500849569e-01,3.361673773703169332e-01,-4.668210951003858022e-03,-2.290194070532637627e-03,-1.887831813751165164e-03,4.509960860013961792e-02
2.657506099200154792e-01,3.148775637525105808e-01,2.922497483887805947e-01,-2.043392247772399598e-02,-2.260131123973739553e-02,-2.179144142193926992e-02,7.761143147945404053e-02
2.690121323486280303e-01,3.230290611490531649e-01,2.777397180855994407e-01,-2.314586946870907797e-02,-4.078044555305314345e-02,-2.394191779876337842e-02,1.041082888841629028e-01
3.321754930282181939e-01,3.342595692838109533e-01,3.137223781510177223e-01,-2.271079671108368336e-02,-2.457288943419185315e-02,-2.507243368732020583e-02,7.502013444900512695e-02
2.848482749997237606e-01,3.087891343159032687e-01,2.935196147123658728e-01,-2.115562220044369529e-02,-2.835811609797243490e-02,-2.699354587038209699e-02,7.988705486059188843e-02
3.125411488246948588e-01,3.505721095117696473e-01,3.115482594230078450e-01,-1.623032855655975187e-02,-2.705242477734959641e-02,-1.322763114043183467e-02,7.068084925413131714e-02
3.032959389743200007e-01,3.001211680011845462e-01,3.086256574764886240e-01,-2.342586746852306015e-02,-2.184542644645640075e-02,-2.143488641638784109e-02,6.716956198215484619e-02
3.075829503249686847e-01,3.071622487264229484e-01,3.326308665103416828e-01,-2.637286435626970404e-02,-2.150430896342559600e-02,-2.390205940990093245e-02,7.632776349782943726e-02
2.752391276693966216e-01,2.571979044989158858e-01,2.998304230408278537e-01,-4.294101558246916223e-02,-3.649386886910586936e-02,-3.447892245820530222e-02,1.202807649970054626e-01
3.145324990147744804e-01,3.028958844826067920e-01,2.951257139907335625e-01,-1.773654735520982517e-02,-2.010023717353601885e-02,-2.068918659061234552e-02,6.104216724634170532e-02
4.017910228063112932e-01,2.894736278311799693e-01,2.846131609577683408e-01,4.191095540851553364e-03,8.550004165686424587e-03,-5.828999348255605589e-02,1.537852734327316284e-01
3.701090462419194260e-01,2.781230415918020116e-01,1.673131133926317182e-01,3.705406161294116929e-02,3.610681610861479762e-02,-1.409473008086635226e-01,3.139455020427703857e-01
4.004368496352783136e-01,3.547402588258411482e-01,2.961953452636595929e-01,2.557505751924910725e-02,2.353320154485114696e-02,-5.138923587623070444e-02,1.404892653226852417e-01
3.923170724747931937e-01,2.778090813581761687e-01,2.656023980731126444e-01,1.587719439716347644e-02,8.712208093077978416e-03,-1.216291060974632604e-01,2.449973970651626587e-01
3.276506543054766296e-01,2.608985553063882246e-01,2.432233089885636468e-01,2.331028092190620682e-02,2.130039554972543159e-02,-6.241146917264666499e-02,1.436137855052947998e-01
3.768308416896435920e-01,3.291213590774775821e-01,3.209289881330320560e-01,1.648293126688592930e-02,1.316478460041275826e-02,-3.722388463489741117e-02,9.069736301898956299e-02
3.644168693931892911e-01,3.378022561255756284e-01,2.807440627559882329e-01,1.671669600218476243e-02,1.810254184613204267e-02,-5.055487405636530096e-02,1.223576441407203674e-01
3.082218302555926326e-01,2.705946396490205297e-01,2.506897871619073181e-01,3.987582027966728171e-02,4.722019267573186740e-02,-5.410566635804317515e-02,1.510057151317596436e-01
3.063481052988268893e-01,2.847538306733579661e-01,2.991020414290671559e-01,1.835706487285457614e-02,1.959084253849328189e-02,-2.035841902930261155e-02,6.138476356863975525e-02
3.820359077456267349e-01,3.386177397584130833e-01,3.708095495635005956e-01,3.096657500234436741e-02,2.031180215849099496e-02,-2.215536272211636459e-02,8.432564884424209595e-02
3.323812905637669735e-01,3.255170596583604747e-01,3.425317044789703003e-01,2.583547563782093159e-02,1.205643785962483804e-02,-1.965547380413635442e-02,6.178450211882591248e-02
2.715378663009609950e-01,2.697732110356396706e-01,3.037669047065633121e-01,5.234515674770318094e-02,3.894293075155046829e-02,-3.306572326027599346e-02,1.309520006179809570e-01
3.408638025212815115e-01,2.640566059634052998e-01,2.460089461692110124e-01,-2.903575823936547715e-03,-5.780589375455581595e-03,-5.168985086408794255e-02,1.255082190036773682e-01
3.300568254453320471e-01,2.489522133035342311e-01,2.457135152322408034e-01,1.748956221191549573e-02,1.621810178799089341e-02,-6.164158532617764613e-02,1.412689238786697388e-01
4.646543375663599873e-01,3.122695821367252877e-01,2.699630302548957639e-01,1.506281067810684438e-02,8.776877581258017702e-02,-1.313275744517934107e-01,3.270922899246215820e-01
3.835897165319385183e-01,2.973918140458170489e-01,3.203851460523212125e-01,-7.005675534674789089e-03,-5.287975649688678170e-03,-4.981120346022267775e-02,1.168391630053520203e-01
4.251923917812711617e-01,3.593151723022417476e-01,3.252596748693425410e-01,8.513600358185978781e-04,-1.672560041530857938e-02,-7.704572421492184020e-02,1.624580174684524536e-01
3.649390942798357296e-01,2.540955306627105115e-01,2.623378108648405926e-01,-1.565405489987279491e-02,-1.218987265791855908e-02,-6.570938636800002786e-02,1.599209904670715332e-01
3.291198877460290162e-01,3.100802775302972658e-01,2.840856006749261642e-01,-1.613250517067205819e-02,-1.229239165855588838e-02,-1.783267149224189788e-02,6.100207194685935974e-02
3.266675676459301347e-01,2.833439093160665667e-01,3.052580580140197841e-01,-1.276944601527171645e-02,-1.119050708962469713e-02,-1.544077969999580954e-02,5.466150119900703430e-02
3.353521211923738421e-01,3.147416225236001064e-01,2.924013452986295447e-01,-1.515301479874244135e-02,-2.474109340057384712e-02,-3.110605731453202835e-02,8.253660798072814941e-02
3.343238866124422226e-01,3.314812551792364337e-01,3.287740695924439294e-01,-1.361393921269453237e-02,-1.228403230668235341e-02,-1.536705385240489871e-02,4.171635583043098450e-02
3.154063647126952308e-01,2.921380396631706455e-01,3.087004986947787244e-01,-1.140810024014430810e-02,-1.248425184683125792e-02,-1.150242696515234829e-02,4.105204716324806213e-02
3.249502108592681737e-01,2.741357576008334740e-01,3.042199803253818891e-01,-1.765673538225431827e-02,-1.665471169031581752e-02,-1.763609290574038452e-02,6.825664639472961426e-02
2.999644921192882174e-01,3.344953954548589015e-01,2.993429022786889826e-01,-4.131689933648744276e-03,-6.457485806695269399e-03,-4.879663588640155078e-03,3.823580965399742126e-02
3.044438000858504245e-01,3.018734855449141663e-01,2.827127135277321957e-01,-1.721709375545940265e-02,-1.613719879286210079e-02,-1.536577695017000630e-02,5.293226614594459534e-02
6.588563989010312594e-02,3.101470028377866228e-01,3.448398345381935570e-01,5.307318066696390529e-02,-5.773382480528942672e-03,1.485025584084763775e-02,2.802734375000000000e-01
2.916112975765679516e-01,2.765079717630041234e-01,2.951664424578946955e-01,-2.932951446037915938e-02,-2.456591597039522665e-02,-2.713019051875920767e-02,8.302830904722213745e-02
3.430070275686817327e-01,2.937833581765820767e-01,2.535285918087381574e-01,-4.482870067274707243e-02,-3.567503134166031403e-02,-7.619049145249914834e-02,1.824468076229095459e-01
3.733610248776579321e-01,3.279380613546752365e-01,3.183947284196100291e-01,-2.885419537087030237e-02,-4.217828887988638031e-02,-6.521916753390059884e-02,1.522601246833801270e-01
3.896778190066870762e-01,3.339293639894143628e-01,3.204162355218077018e-01,-1.668053725696574952e-02,-1.213924872242610684e-02,-3.701504749375168768e-02,9.711322188377380371e-02
3.466874546013989922e-01,2.732730554327530426e-01,2.965920303436117011e-01,-2.067752101396705400e-02,-8.425199020138631617e-03,-4.184754897853881772e-02,1.047415062785148621e-01
3.299236074165396992e-01,2.702691306266463700e-01,2.884316825309241605e-01,-1.892600597410965674e-02,-1.851958679190324891e-02,-2.711962061147908665e-02,8.435036987066268921e-02
1.735855010876162785e-01,3.676003684475407929e-01,3.446761084132907160e-01,6.166240510359973642e-02,8.565996727788909026e-02,-9.358448947603979773e-03,2.596189975738525391e-01
3.126115565528355122e-01,2.682093990572590458e-01,2.928848698915881843e-01,-1.806484226602915466e-02,-2.327751515057302142e-02,-2.288621124407839297e-02,7.523740082979202271e-02
3.064942528499676189e-01,2.690882883505003043e-01,2.981483677439740743e-01,-3.289840448204896239e-02,-3.447342390119338684e-02,-3.921620158467205991e-02,1.121720597147941589e-01
3.418406236739495174e-01,2.994048928042534197e-01,2.842827995242848682e-01,-2.154405094932953374e-02,-3.012224641241995071e-02,-4.126112494987044244e-02,1.090555563569068909e-01
3.177946575382490924e-01,3.592593679958173691e-01,3.172892364912447416e-01,-1.183905439744079892e-02,2.556571885582236206e-02,5.056180473374157977e-03,6.479611992835998535e-02
2.990400198689185385e-01,3.415095950296465621e-01,2.755238671224773395e-01,-1.411305380618464722e-02,3.268753406887107971e-02,1.336521385813593983e-02,8.771682530641555786e-02
3.220393196991894191e-01,3.615962650642448595e-01,3.217692250821086453e-01,-1.349214646649521399e-02,4.790560075433678705e-02,6.180886843884908152e-03,9.550430625677108765e-02
3.111759875702962974e-01,3.284011108949517199e-01,3.081536075161117050e-01,9.220425382885149776e-03,-1.344353774762220392e-02,1.075697556971561691e-02,3.875916451215744019e-02
3.088184901274338423e-01,3.353277443259413682e-01,2.583429682811417827e-01,1.124638200995246688e-02,-2.465660922356712956e-02,1.653923947394031480e-02,8.724972605705261230e-02
3.351062901929128812e-01,3.400002058000919924e-01,3.281935543188345128e-01,1.913561107765197888e-02,-2.007597903304134124e-02,1.605940650592651425e-02,5.645290017127990723e-02
3.197303165616615095e-01,3.359664697020308122e-01,3.011164924562964584e-01,1.724269218629434150e-02,-3.048278369059501114e-02,2.137143127427102579e-02,7.721430808305740356e-02
2.759312816566805715e-01,2.855537414005517305e-01,2.551961073972704441e-01,3.042661947544426926e-02,-4.738001444421650193e-02,4.857168171376462923e-02,1.315736323595046997e-01
3.152816432802031943e-01,3.245850024212336704e-01,3.031992628549847746e-01,1.269384543280484973e-02,-1.332471509405666436e-02,1.515490258809838037e-02,4.527694359421730042e-02
3.203018296991932412e-01,3.246652276436411966e-01,3.176584558208880305e-01,1.268619556560474787e-02,-1.333751573441652877e-02,1.956864066259900170e-02,4.693444818258285522e-02
3.470146954416495899e-01,3.615326990290765319e-01,3.101339817050592362e-01,1.536990015383192174e-02,-2.719646857134615930e-02,2.353912421945548658e-02,8.183098584413528442e-02
3.095166246129926191e-01,3.157276048526580503e-01,2.942017197951565244e-01,1.116506924828342649e-02,-1.493779451362456379e-02,1.213329427975493729e-02,4.304977506399154663e-02
3.004597434965118330e-01,3.456847645439626859e-01,2.578656829744522261e-01,-2.622838172407298066e-02,-3.236843649135095341e-02,-1.552910333951887552e-02,1.082416921854019165e-01
2.851077991017074709e-01,3.133579608061420330e-01,2.570942063558487312e-01,-2.148452757160548149e-02,-2.888483007983527751e-02,-1.997779654435333577e-02,8.636731654405593872e-02
3.376987729145062844e-01,3.636667103151926539e-01,2.711473848118158281e-01,-5.305253686302606984e-03,-3.113736519796429791e-02,-1.310375234412992397e-02,1.016847640275955200e-01
3.373644651374022585e-01,3.791734438971625654e-01,3.102931129999395021e-01,-2.074200491475726438e-02,-4.426619788667474076e-02,-2.612243209507975755e-02,1.132651716470718384e-01
3.043193552620947484e-01,3.192239350927535413e-01,2.775966414170207841e-01,-1.123126718084055918e-02,-1.532957858785671985e-02,-1.387885906253059735e-02,5.473409220576286316e-02
3.520727305672882168e-01,2.231605207925166368e-01,3.082818324848937142e-01,4.982993791063556471e-03,4.160890603372853838e-03,-5.500266074707988589e-02,1.486375629901885986e-01
3.634456745448209070e-01,2.197165055136899581e-01,3.521680721802129543e-01,-7.711621904021029794e-04,1.640870662805365716e-03,-2.578274673316550622e-02,1.454938054084777832e-01
3.317042614727230276e-01,2.295066863333785345e-01,2.934224106227026896e-01,-5.444600270011975413e-03,-5.571734659705389336e-03,-2.234447596554259979e-02,9.837388992309570312e-02
3.814449263557160297e-01,2.899996413413887808e-01,3.493415679317832812e-01,-1.681629008298213962e-02,-1.016373909811637763e-02,-2.701664705252122475e-02,9.902086108922958374e-02
3.572009339953290397e-01,2.710439893928886512e-01,3.272908338717902543e-01,-1.247254011799110718e-02,-6.890156159301770488e-04,-3.408817008737106968e-02,9.846216440200805664e-02
2.889725474189328014e-01,2.907631051693122526e-01,2.652536294787815607e-01,-3.444988276700384350e-02,-3.726604567711688798e-02,-3.916528423496027506e-02,1.137395277619361877e-01
2.864422037706650381e-01,3.075568036429032759e-01,3.333644667886803692e-01,-3.507151305670317548e-02,-1.741364891523222019e-02,-2.499829021350988625e-02,9.017351269721984863e-02
2.623020497044994404e-01,2.840354817474214921e-01,3.290611907608479436e-01,-2.548845334150522460e-02,-1.221171880891368244e-02,-1.266945865256499139e-02,7.972532510757446289e-02
3.166064178375841420e-01,3.221056424848740551e-01,3.579431053587613376e-01,-3.080484818464845551e-02,-2.268624901572510733e-02,-1.447468936012950326e-02,8.081464469432830811e-02
2.852419687000584125e-01,3.223287167467215886e-01,3.079111829747908091e-01,-1.217769485700655012e-02,-1.576577807441519735e-02,-1.559635173228729119e-02,5.448760837316513062e-02
2.702468652271935445e-01,3.266260212433591548e-01,3.209690851146662083e-01,-2.204345202926024164e-02,-2.225980031696061373e-02,-1.656882518491571005e-02,8.160571008920669556e-02
2.549628859657166458e-01,3.184202291697441622e-01,3.201881278856527624e-01,-2.771638586390428455e-02,-3.074904628802845041e-02,-2.602965365890501717e-02,1.063761264085769653e-01
3.560091316681571749e-01,3.327322130894554419e-01,3.282592662173168252e-01,-2.301547579546398686e-02,3.369898603572494405e-02,3.443444788927173261e-02,9.601631760597229004e-02
3.660642002028229314e-01,3.509559606939770537e-01,3.536182785715014099e-01,-1.643225471261702472e-02,2.543037946208047753e-02,2.644974697763818189e-02,7.102154940366744995e-02
3.332621869910454837e-01,3.289043982829662482e-01,3.250313224002554513e-01,-1.170867841943134743e-02,1.638794898877533185e-02,3.065525047699956332e-02,6.393024325370788574e-02
3.168460184294418225e-01,2.813210683725259620e-01,3.070415979153735542e-01,-1.732093725294767475e-02,1.938201574027569041e-02,2.526047110866435838e-02,7.036443054676055908e-02
3.828805513585367692e-01,3.161387939083440957e-01,3.435240461930514910e-01,-3.568313341850237741e-02,5.698776573217839009e-02,4.262471622322529241e-02,1.496327072381973267e-01
3.662786605641056292e-01,3.006746238568395735e-01,3.526960943884199784e-01,-1.406353356723066481e-02,9.082729033233299248e-03,1.500084488458938888e-02,7.150676846504211426e-02
3.125317774074972688e-01,3.234409365739530640e-01,3.207915850216053744e-01,8.374088284954065570e-03,-8.396935303462804701e-03,8.759501528918439694e-03,2.737179026007652283e-02
3.333222807777623808e-01,3.324769460111796082e-01,3.275189895068193469e-01,9.686634962006047261e-03,-7.008899275868953407e-03,9.679087809567870487e-03,2.719205804169178009e-02
2.784379507363495820e-01,3.016051221260516169e-01,2.948978095131751243e-01,1.335224101334395001e-02,-2.060278704116919740e-02,1.292963710315534961e-02,5.230788141489028931e-02
3.416203756255298263e-01,3.340040976686469709e-01,3.262353186031807795e-01,1.872362824637914189e-02,-1.891234664890453082e-02,1.278677481498430649e-02,5.284684523940086365e-02
3.023404631228400752e-01,2.822771536588836172e-01,2.959552385723062118e-01,1.128135767272468032e-02,-1.128032527423691866e-02,1.796948619818872217e-02,4.524876177310943604e-02
3.070122046672358884e-01,3.031421747009770407e-01,3.186960894264120880e-01,8.200209066171443295e-03,-8.977353178458311045e-03,7.933095275898327872e-03,2.879267558455467224e-02
3.383936361581567631e-01,3.065517033945924230e-01,3.149063192742825312e-01,1.372251172325591323e-02,1.143175746252560014e-02,-1.825264248900550917e-02,5.267006158828735352e-02
3.324825695574618045e-01,2.761593902104243492e-01,2.557357063539157926e-01,8.826069431944603971e-03,1.025466735685089809e-02,-3.211096958853719430e-02,9.155473858118057251e-02
3.576738206374263096e-01,3.143228872717788724e-01,3.039874340707146017e-01,2.554981884779998838e-03,5.547252207214448637e-03,-1.583332592006016226e-02,5.742960050702095032e-02
3.332639925325121544e-01,2.964614946110634697e-01,2.963875012527237285e-01,8.833361540247525179e-03,5.295621469334065023e-03,-1.846165623867672412e-02,5.194098874926567078e-02
3.498682213399985641e-01,3.091107859481870279e-01,3.147479347205283662e-01,8.651578208889558474e-03,8.567544464488829198e-03,-2.077198370722336748e-02,5.658952146768569946e-02
3.548186671086891453e-01,3.006275294162180090e-01,3.045050153324430631e-01,8.417726431868222114e-03,1.412329872330057336e-02,-3.592443965286771373e-02,8.616415411233901978e-02
3.212574560497620801e-01,2.954647733575531676e-01,3.010848746437013723e-01,1.426983002985837690e-02,1.201076248336356914e-02,-1.542065985015220533e-02,4.805143177509307861e-02
2.699346031097745735e-01,2.930788301693422193e-01,3.845058237264068479e-01,-6.662329576890031746e-02,-1.291629424464504905e-02,-3.857459460247485150e-02,1.711462438106536865e-01
3.380720581615361819e-01,3.531080973825069247e-01,2.478766850061480398e-01,8.751458946674461198e-03,-6.968159735454120159e-03,9.795734179344345316e-03,1.018860563635826111e-01
2.768646959106543792e-01,3.155481650370698943e-01,3.441348295034149518e-01,-3.441672700721494504e-02,-1.164292201005377725e-02,-1.717718496797917410e-02,9.091101586818695068e-02
2.648170487229680181e-01,2.459659910442891784e-01,3.276291467963183823e-01,-5.891882803383607231e-02,-2.718077183332840915e-02,-3.109716687286288167e-02,1.449709087610244751e-01
2.141701811794349264e-01,2.466170161840954833e-01,2.958042482460473965e-01,-6.815390093038511954e-02,-3.995708411628419443e-02,-3.383017595989630533e-02,1.650035232305526733e-01
2.826723935818138966e-01,3.089636615080159632e-01,3.431057185060566450e-01,-4.298471618767832347e-02,-2.792497517004473295e-02,-2.235270727564014209e-02,1.101632863283157349e-01
2.849824712862338849e-01,3.212914636294277315e-01,3.679031345876391246e-01,-3.813960539648124370e-02,-1.556765406221423051e-02,-1.419513988148337139e-02,1.043017879128456116e-01
3.148551194693257060e-01,3.246514987640902739e-01,3.721905137499471605e-01,-3.829326726008491777e-02,-1.524281409943854110e-02,-1.643348459723942279e-02,9.342359751462936401e-02
3.016372963109992256e-01,3.492539021816329914e-01,2.748418134856359663e-01,7.229455207743351250e-03,-2.080140310819556665e-02,4.249932865775846516e-03,7.596265524625778198e-02
2.940580244782315944e-01,3.393354824758587074e-01,2.779094059284347717e-01,8.562417882508586726e-04,-1.188495013642600594e-02,-2.124408339826361868e-03,5.900414660573005676e-02
2.912087737072437954e-01,3.551861541839769210e-01,2.725581449036464377e-01,-8.551591437683664365e-03,-5.067650199192055144e-02,-1.783999253800626350e-02,1.204685792326927185e-01
2.944237701688387498e-01,3.433320375430199967e-01,2.756047622566272226e-01,-9.580655423967261025e-03,-3.128248590177248878e-02,-1.170791267805677480e-02,8.537536859512329102e-02
2.977939079841469550e-01,3.566929903984206729e-01,3.088875519006331061e-01,7.233813624970079610e-05,-1.450273747087078152e-02,2.235332333360274312e-03,5.987286195158958435e-02
3.029897072469420194e-01,3.558218234724883078e-01,3.132688123682011994e-01,-5.157377146812048077e-03,-1.766841163260381847e-02,-6.086197607086846727e-03,5.900224670767784119e-02
2.869169669532249389e-01,3.407165356168034287e-01,2.842300254215295308e-01,-5.904410932656454364e-03,-1.391596075240126781e-02,-3.115866055672703982e-03,6.132571771740913391e-02
3.055935921754002749e-01,2.922786981898146119e-01,3.054646256416397310e-01,-1.468097790137772290e-03,-6.390639680110368238e-03,-1.743856361976362955e-03,1.771145686507225037e-02
2.551230638755775382e-01,3.367053942422922330e-01,2.791416578913099578e-01,6.297179487144671794e-03,-3.954526693480470145e-02,6.597088904907430322e-03,1.010647788643836975e-01
3.012018455951298579e-01,3.641541061597128870e-01,3.288389984990767734e-01,-6.602439469849856815e-04,-2.078997493369448557e-02,2.475886941802609483e-03,6.559988856315612793e-02
2.490899649589407849e-01,3.234176266904910113e-01,2.631743326301068664e-01,-5.154075967086255844e-03,-3.628500882828097907e-02,-6.521529889859563507e-03,9.398511797189712524e-02
3.748163719168796093e-01,2.639387163759890909e-01,3.322027223386621042e-01,1.990018578419378362e-02,1.234089571054954558e-02,-7.598436618266665721e-02,1.683766394853591919e-01
3.397553296058349881e-01,3.214964417114793971e-01,2.794123508324022342e-01,5.175076501620494429e-02,-3.606776801429419088e-02,4.811937461565456153e-02,1.475003957748413086e-01
3.118588503073740914e-01,3.337712593775388759e-01,3.293633181878156679e-01,4.273275127490093472e-02,-3.243474859025109042e-02,4.814651519345516939e-02,1.264577358961105347e-01
2.955456437332303898e-01,2.497410037582774300e-01,2.861545435010736660e-01,3.943455747786313997e-02,-2.930364512020894319e-02,4.679735288260383069e-02,1.247695535421371460e-01
3.504397479272466920e-01,3.856639110629811462e-01,3.538060838573929834e-01,1.810320873107479356e-02,-3.219042864185582553e-02,5.939584466292002068e-02,1.257336288690567017e-01
3.441039815867442120e-01,3.329152139435958002e-01,3.144832140617414007e-01,1.646152038079477103e-02,-1.521672970726459587e-02,2.772950157716276565e-02,6.697406619787216187e-02
3.563033953293588407e-01,3.508293211001244916e-01,3.491302207194871277e-01,2.001150952108512321e-02,-1.989383967135542955e-02,2.107265671997902989e-02,6.134329736232757568e-02
3.481142030593991077e-01,3.304714094737521979e-01,3.395009262725934285e-01,2.258353005354964138e-02,-2.127703408806522895e-02,2.616072690671984030e-02,7.193628698587417603e-02
3.160410478603926654e-01,3.246963154290790077e-01,3.171916043529107720e-01,1.437878378290070565e-03,5.056750019964730003e-04,-6.332011044707245087e-04,8.628528565168380737e-03
2.883657349352277133e-01,3.030625540434893628e-01,2.921528163263136246e-01,4.072180998403297780e-02,-3.658028583630738850e-02,3.775862415588489285e-02,1.159351989626884460e-01
3.161205214619166592e-01,3.098980623398334688e-01,3.211322395350010850e-01,1.533000905558947261e-02,-1.792824481398500730e-02,2.784733557468277443e-02,6.395886838436126709e-02
3.241737689487205754e-01,3.322203130273730376e-01,3.312560738295947660e-01,1.586018148227573421e-02,-1.729578506262820919e-02,2.219640065543400376e-02,5.646261572837829590e-02
3.171976455017845309e-01,3.308436513494527609e-01,3.269338828846933276e-01,6.580784659555891786e-03,1.230380769733416257e-02,-1.048083230349730957e-02,3.258468583226203918e-02
3.045627915866443991e-01,2.989860641782530193e-01,3.101633839463259212e-01,8.691784620863587246e-03,8.817722317141285515e-03,-9.738441211588975965e-03,2.895011752843856812e-02
3.122495727943372934e-01,3.140556080885995582e-01,3.151239000909747401e-01,4.676100602134569510e-03,4.084417343762348357e-03,-5.117087109578800225e-03,1.416090689599514008e-02
2.881684334845828754e-01,3.356198141704020976e-01,3.480845405966987993e-01,5.600124676129828935e-03,3.519534798942745239e-03,-1.344979866055571495e-03,5.599235743284225464e-02
3.109655493917238278e-01,3.386892984832601816e-01,3.058321403931249516e-01,1.850037882812618356e-02,-2.677801313661236707e-02,2.547930854349527915e-02,7.786423712968826294e-02
3.793825401400048869e-01,2.796251894231416291e-01,3.439395343963040363e-01,4.450240969087785985e-03,-8.195267621440954471e-04,-3.265222156052118019e-02,1.045560464262962341e-01
3.896405420919566986e-01,3.042245248979770778e-01,3.816202241175344345e-01,-1.158338075649993915e-01,-9.082651077754166913e-02,-1.201536543704319615e-01,3.390967845916748047e-01
2.860456180025405248e-01,3.135816280824886837e-01,3.006104359824584016e-01,1.718649510629082638e-02,-1.991214519723290277e-02,1.261573894682761245e-02,5.587832257151603699e-02
3.014124694974931185e-01,3.332012927091088095e-01,3.149651081712775968e-01,1.108887058139018580e-03,-2.834248993517423862e-03,5.650747614278413961e-03,2.978189848363399506e-02
2.985888508237892203e-01,3.292345919724219416e-01,3.174768144406632242e-01,2.222182943193952692e-03,-5.294293562266955480e-03,8.575714861336935710e-03,3.219646960496902466e-02
2.942510852375628261e-01,3.458292931052792119e-01,2.860097883953530706e-01,4.505479876011160914e-03,2.324741245512073479e-02,-4.588407507639150301e-04,6.954248994588851929e-02
1.789059611472091360e-01,3.490902505908004549e-01,2.203607727991297727e-01,-8.704415519138579416e-03,1.102574845978019219e-01,2.791788026139253170e-02,2.503235936164855957e-01
4.139659385776329747e-01,1.833722973809940315e-01,3.713653592175534257e-01,-8.797934018366407663e-03,1.258120762813683992e-02,-9.161205044432715818e-05,2.141772806644439697e-01
3.238283861260564112e-01,3.541761975465482215e-01,2.812163588534317693e-01,1.079896770659071609e-03,2.312620131419541175e-02,-1.951368275456222268e-03,7.516210526227951050e-02
2.394753401567132345e-01,3.903990338564671259e-01,2.828202551126531850e-01,-2.728672761866421034e-02,1.448646338683529655e-01,1.553048993154048339e-02,2.898784875869750977e-01
3.284455387283089500e-01,4.011880350255550010e-01,2.265159546413600400e-01,1.417977339462850837e-02,8.560344957713500458e-02,3.581673078800388238e-02,2.225562632083892822e-01
3.424021299660608975e-01,3.616648249651093772e-01,2.863423594933706129e-01,-9.997690225467727870e-03,3.518171310763984483e-02,-1.002097921081813873e-03,9.278871119022369385e-02
2.794195419815393988e-01,3.245943247303855195e-01,3.763534384039372571e-01,-8.018646748824628800e-02,1.426297267198161668e-02,-3.271250806879378269e-04,1.641895323991775513e-01
2.944225334654606008e-01,3.368138586906489484e-01,2.769697072596527532e-01,-1.608659911895298292e-02,3.652942133585232454e-02,2.143547800071248302e-02,9.486540406942367554e-02
3.565680364355706122e-01,2.974587589380845443e-01,3.106584767025125093e-01,-7.736658247104641860e-03,-5.929958381454198887e-03,-1.918702345092021533e-02,6.540183722972869873e-02
3.716586482175393558e-01,3.524274428475723808e-01,2.836312647986501956e-01,1.172336121047496370e-02,7.282257309067645921e-03,-2.934663947530915390e-02,9.788190573453903198e-02
3.314689438966316182e-01,3.125961393338865801e-01,2.839958265878871901e-01,1.216971483589568241e-02,9.611138783562088450e-03,-6.222020762757071027e-03,5.051234737038612366e-02
3.479764530714151149e-01,3.191824694722343869e-01,2.724646612006447199e-01,6.004943921309695634e-03,5.466116226194729644e-03,-5.833280967141175888e-03,6.824026256799697876e-02
3.505228101039828958e-01,3.286775854552568821e-01,2.684586084358721036e-01,1.180648377351767829e-02,4.513911593616625265e-03,-2.725756661757427340e-02,9.015135467052459717e-02
3.466516744092728031e-01,3.151675794317933543e-01,2.464546209911314678e-01,1.792269848406228411e-02,1.828118460380713864e-02,-4.557373576482101618e-02,1.267803460359573364e-01
3.596582556888492932e-01,2.790895333060795513e-01,3.283587973000631210e-01,1.732282325368635816e-03,4.647438667146236088e-03,-6.275713005756857268e-03,7.170195132493972778e-02
3.572209229791424301e-01,3.390589655538603364e-01,2.690596757225245383e-01,4.722383156955700309e-03,5.168719335046104146e-03,-1.585529740290958500e-02,8.603663742542266846e-02
3.377524904787701510e-01,3.188023526699223509e-01,2.344988808424230686e-01,4.364530532320902781e-03,4.972117411672469407e-03,-1.982618689209149354e-02,1.018542647361755371e-01
3.461957019093848120e-01,3.239308211538383664e-01,2.496554379756845687e-01,3.087503640234463224e-03,-1.146791641768795745e-03,-2.165177929621914937e-02,9.542133659124374390e-02
3.082794617450936858e-01,2.896735794138965980e-01,3.481339895507469806e-01,-4.737845854320894487e-03,-1.252404184242871324e-03,-2.526171076976696517e-03,5.260496586561203003e-02
2.951518353568258202e-01,2.873980762175474823e-01,3.432118603481764119e-01,-6.021506904918940382e-03,-2.870739200965889953e-03,-1.803074846987879785e-03,5.371950194239616394e-02
3.421532736644607997e-01,2.973297038875871157e-01,2.912952612772862770e-01,-6.794305720217389682e-04,-9.180836424422839266e-04,-3.498911345971002663e-03,4.854578152298927307e-02
2.759975070721812918e-01,2.525935719495712717e-01,3.366178281345778012e-01,-3.675625808276358764e-02,-3.753249450613364391e-04,3.656920127990493990e-04,9.846427291631698608e-02
2.996861927946102289e-01,2.719542850631415654e-01,3.426620064833260093e-01,-1.173261780950863448e-02,4.974961297887735279e-04,-5.078219191999981154e-03,6.556562334299087524e-02
3.072629055131910203e-01,2.851343879129472070e-01,3.305492114636932044e-01,-1.912277870862768431e-02,-1.806771054103420426e-02,-1.373008984014283985e-02,6.472348421812057495e-02
3.035263168558279268e-01,3.039990355371213759e-01,3.503576980340625813e-01,-8.496888475587060369e-03,-2.487527994069057766e-03,-1.114255294388115424e-03,4.909320920705795288e-02
3.002463636692724314e-01,2.851319726092449436e-01,3.270423343902817970e-01,-1.728428848697058373e-02,-1.379172679785028478e-02,-1.229072787875635196e-02,5.719733238220214844e-02
2.559093876107526588e-01,2.778708046525665831e-01,3.422658529579815645e-01,-3.781563050886883881e-02,-7.369227041548243040e-03,-3.578936559255382899e-03,1.026384010910987854e-01
2.809528973470106217e-01,3.023086674914693406e-01,3.312507488323218618e-01,3.917784475327946991e-02,-3.041598428038585350e-02,1.349353383429227615e-02,9.918732941150665283e-02
3.038156949155635389e-01,3.233586026386970902e-01,3.738676721562445016e-01,4.281685169659437545e-02,-2.343194152350004320e-02,2.124357887924726435e-02,1.114498525857925415e-01
2.893960628595154128e-01,3.432272542704988272e-01,3.739565033561403906e-01,6.217476499565281756e-02,-3.167981080841596880e-02,4.462688478481224852e-02,1.614895910024642944e-01
3.047437040389170959e-01,3.114938261587548163e-01,3.431906643330392415e-01,-1.958230463496596352e-02,2.000152135992695757e-02,1.614608371119766184e-02,6.630899012088775635e-02
2.610348899977462667e-01,2.921551151077922959e-01,3.123186669755042555e-01,-3.354144589929902720e-02,2.766102772354248410e-02,3.134482109185800225e-02,1.030558496713638306e-01
2.677209093489351655e-01,3.337981122847992754e-01,3.214971909542205797e-01,-5.850772483361334209e-02,1.864650128014775504e-02,2.705650821136134851e-02,1.311998516321182251e-01
3.475640492054080655e-01,3.243605041680345802e-01,2.713014764046465799e-01,3.330291697362066945e-03,-1.548777943316501180e-03,6.769691070524762669e-03,6.901288032531738281e-02
3.043069581326228734e-01,3.162161728489263912e-01,3.556053059396218075e-01,-3.407265831480173202e-02,9.761946709225186036e-03,1.283320480211416585e-02,8.015750348567962646e-02
2.814529944581372622e-01,2.888648978940986378e-01,3.870217289253183313e-01,-5.345135164058838206e-02,2.876296276184582210e-02,3.376320199902810293e-02,1.577661335468292236e-01
2.055709972841028854e-01,2.675650082655928186e-01,3.362036279820618812e-01,-6.089357613878334380e-02,8.783415491549855653e-03,4.385631234529792366e-03,1.556371748447418213e-01
2.897469479801200731e-01,3.472429022609665461e-01,3.881259008345411265e-01,-3.153644177133528570e-02,1.291635778062555709e-02,9.066099925429371362e-03,1.051595583558082581e-01
3.482566545046661410e-01,2.884357992302024609e-01,2.882677800102764198e-01,4.663133475613731420e-03,-3.699342911456781572e-03,-2.660569277772054098e-02,7.627904415130615234e-02
3.331741941356025638e-01,2.384972527957053556e-01,2.852413760628187411e-01,2.870723591098261421e-03,5.556409695550127911e-03,-3.431786922253632355e-02,1.018510609865188599e-01
3.370488071011444875e-01,2.533035374865579836e-01,2.830034748575747661e-01,-2.315282927775442080e-03,1.363559068771511354e-03,-3.389926600966598758e-02,9.421925246715545654e-02
3.734450708834176069e-01,3.343687614280912990e-01,2.827443647625388357e-01,9.236156888711697689e-04,-5.964386235140804737e-03,-5.717290140556382377e-02,1.269835829734802246e-01
3.576115658349288129e-01,2.847400160588982043e-01,2.847370279723105968e-01,-7.903164557331145493e-03,-1.936345535858089578e-02,-4.523017612594698589e-02,1.129601597785949707e-01
3.544578910014786755e-01,3.056838020023003311e-01,2.998922121928472295e-01,-4.432945974670803035e-03,-2.771407422688932070e-03,-2.229364755201319881e-02,6.532954424619674683e-02
2.973636536021476151e-01,3.176532316151045587e-01,3.169417886310649246e-01,3.335299815106032920e-03,4.324638413125567182e-03,-6.920293036661612218e-03,2.511752024292945862e-02
3.574437008475813138e-01,2.996997208996303175e-01,3.169172505721635225e-01,-1.639623242947813118e-03,1.527024744063090527e-03,-1.998139450728614319e-02,6.204378232359886169e-02
3.441530965117602370e-01,2.786341020594254592e-01,2.869172381429305752e-01,-1.251853159173222686e-02,-1.158022097014527185e-02,-2.641883867551045664e-02,8.237084746360778809e-02
3.753643000197519619e-01,3.049562560512902865e-01,3.093593185154909220e-01,-1.830897530488644444e-04,4.045980431454307413e-03,-3.035925630926332094e-02,8.649238198995590210e-02
3.727320074560380170e-01,3.751240194572046383e-01,2.886241460365566169e-01,2.141157533438457425e-02,3.308957876263149411e-02,-4.851866035414448275e-02,1.378526389598846436e-01
3.611373602493519464e-01,3.379098488622739316e-01,2.627770736853519140e-01,2.218311360675853661e-02,2.494445575441965254e-02,-3.137887487400618791e-02,1.192746758460998535e-01
3.430284182341362120e-01,3.115009629381534362e-01,2.392680970359510606e-01,1.715414185881926346e-02,1.725107385898833751e-02,-3.953846284189210109e-02,1.222879737615585327e-01
3.767143105586072127e-01,3.226873670029140606e-01,2.042974352375490077e-01,9.548260678585298450e-03,1.445571741013386424e-02,-6.819949818615034243e-02,1.954104900360107422e-01
3.668479867764720126e-01,3.227010112928128116e-01,2.038473742872952688e-01,1.261141026218655023e-02,1.980799998624873520e-02,-7.539158021252349851e-02,2.000701278448104858e-01
3.922880257326399334e-01,3.135844045895377907e-01,2.555912891139124898e-01,2.652027658855263606e-02,4.214091143920925542e-02,-7.105351747767074677e-02,1.915857046842575073e-01
2.795588537782147665e-01,3.456291601077517983e-01,3.118939546714173394e-01,-7.007488189554602568e-04,1.173462178552892379e-02,3.762222882232146674e-04,6.074089184403419495e-02
2.715759778888396925e-01,3.745773781357368826e-01,3.544557633529519247e-01,-1.887612823952925927e-05,1.447087885635858426e-02,3.142689100251291803e-03,9.797684848308563232e-02
2.843876353004586854e-01,3.914503750269086035e-01,3.638549067048135743e-01,-1.554897710837064261e-02,3.458850820900713496e-02,1.043980165284889849e-03,1.165640205144882202e-01
2.804822610613884604e-01,3.808814270690577541e-01,3.171428024075240715e-01,1.117542739106752031e-02,4.158450700510255005e-02,3.354573740363800231e-03,1.154969409108161926e-01
3.116950260653775229e-01,3.644000645645980585e-01,3.318306077745804550e-01,3.763180241443063543e-03,2.051609218473712110e-02,3.151901138408067914e-03,5.879655107855796814e-02
3.385649978684963646e-01,2.966485411585063625e-01,2.703029733073339935e-01,1.216146836500317345e-02,1.158492548509556380e-02,-3.072512347352941361e-02,8.505190163850784302e-02
3.568641346919828594e-01,2.383464499612550080e-01,3.738722397776777506e-01,-4.175166427283810711e-02,-1.436993449781916697e-02,-2.413678768186782592e-02,1.547524482011795044e-01
3.259743022321742734e-01,1.781896568308550255e-01,3.498447119269050276e-01,-6.459097440334243823e-02,-3.116486952892652193e-02,-3.372866752540590318e-02,2.116137444972991943e-01
3.442359041135839570e-01,2.279696900611801469e-01,3.672237575654661024e-01,-3.742338740661849822e-02,-1.415428812922079303e-02,-2.379072287970445190e-02,1.523796021938323975e-01
3.764079834142052272e-01,2.127147724623986158e-01,4.009094906059066932e-01,-5.437287705326019488e-02,-8.307855450252721666e-03,-2.892081756021348468e-02,2.073452472686767578e-01
3.523519109593704624e-01,3.597563378298515580e-01,3.274343428905948095e-01,5.947904029733154518e-02,-2.831642894712016814e-02,2.836550475194226512e-02,1.276430338621139526e-01
3.470867349869937724e-01,2.580908897903330113e-01,3.133709648009731508e-01,2.590158066286312247e-02,-1.108666959744055228e-02,4.289223510778347737e-02,1.181401684880256653e-01
2.802220340142709265e-01,2.053144151027277986e-01,2.742508291710060164e-01,4.220984931426652320e-02,-2.678734732532278215e-02,5.297887869576291264e-02,1.453186273574829102e-01
3.555622436054651225e-01,2.906795261642182160e-01,3.046982919698666414e-01,9.482614298966116073e-03,-1.673524461187503309e-02,2.689294592989554741e-02,8.231873065233230591e-02
3.154484475358282358e-01,3.337138853617975798e-01,2.583151164100599972e-01,1.186441585081658007e-02,-2.503576371113374818e-02,1.452184987104617603e-02,8.704437315464019775e-02
3.408069651599220373e-01,3.672644636547376384e-01,2.581683025912741014e-01,6.037522467656280048e-03,-7.571022878132131761e-02,2.545649732502868953e-02,1.701914519071578979e-01
3.028678647317581962e-01,3.244964308949946363e-01,2.698528035167697126e-01,2.609327110752934428e-02,-4.376314166318741317e-02,3.867147847360114660e-02,1.206089630722999573e-01
3.220027982097287689e-01,3.921967530756919063e-01,2.716735068065644354e-01,2.761952406034022187e-02,-4.996550150343585101e-02,5.076832148797963407e-02,1.688297241926193237e-01
3.381368406472029520e-01,3.790025815052130986e-01,2.644146420945933107e-01,2.336111378277555550e-02,-4.210895991148788653e-02,2.819778825262654609e-02,1.394982039928436279e-01
3.376726394995409608e-01,2.986110655045713380e-01,2.697439377844041974e-01,5.946123834450004093e-03,-1.496917084096602898e-03,-1.500662193579170405e-02,6.538425385951995850e-02
3.258222335903547817e-01,3.178902570788059712e-01,2.495479468969689918e-01,2.297138614702658177e-02,-2.824737136734907506e-02,4.190899267251135818e-02,1.205054521560668945e-01
3.455735386848939328e-01,2.865252937449172532e-01,2.943784117201528328e-01,-2.227785368575182395e-04,-8.901501579065163473e-04,-1.566949915757793674e-02,6.183671578764915466e-02
3.479571323350542644e-01,2.970150938790504513e-01,2.999981205571564669e-01,-3.316879734881800386e-04,2.542602092011478007e-03,-9.200436766243363235e-03,5.220820754766464233e-02
3.428320244818049423e-01,2.918098146690180639e-01,2.963233134778412992e-01,1.337214849517139124e-03,5.754617326787394953e-04,-5.989983643682921140e-03,5.007341131567955017e-02
3.480251979866740286e-01,2.942508627947493793e-01,3.100716475136183203e-01,7.281529590557485852e-04,1.869808406911785230e-03,-4.800066571942058352e-03,4.870754852890968323e-02
3.239288275557239416e-01,2.672992046656611498e-01,2.829349480255903826e-01,1.967153549252176337e-02,1.282746695630250684e-02,-3.483357379775823409e-02,8.866012096405029297e-02
3.446764833387037652e-01,2.917049993149585241e-01,3.168513419989003599e-01,4.381561732576106510e-03,7.157637878918202655e-03,-1.410112756477913468e-02,5.398233607411384583e-02
3.367738521005593233e-01,3.053703943385147612e-01,2.797541675151082874e-01,6.900804369610025711e-03,1.770507403108422233e-03,-9.819903497549341623e-03,5.374351516366004944e-02
3.288949028900247651e-01,2.785251660842988919e-01,2.548899641261418991e-01,6.628789933909169999e-03,5.709308100582104889e-03,-3.537863184621167084e-02,9.094386547803878784e-02
3.817798261303418927e-01,2.908676843364775277e-01,3.242068718160550644e-01,9.411922054716418545e-03,1.106965223035570947e-02,-4.518110593160788724e-02,1.144680902361869812e-01
3.432147521771427567e-01,2.580153744035501573e-01,2.832356755326578268e-01,-5.861215046014478600e-04,-5.984951444211322746e-04,-3.046035008919250123e-02,9.236799925565719604e-02
3.129420127634262028e-01,3.142663563710832442e-01,3.198470391108109157e-01,1.028071238534677853e-04,4.764788123655543974e-04,6.254852885332737224e-04,6.494239438325166702e-03
3.508981351395570880e-01,2.830579742403272481e-01,3.156232781368208951e-01,4.666988872430153680e-03,1.398713501934012969e-02,-4.348366436707264138e-02,9.888529032468795776e-02
4.291296559075112316e-01,2.101946934020103575e-01,4.193437625172344307e-01,-3.623480258639008317e-04,1.435669573474127221e-02,-1.218767897731270686e-02,2.166798710823059082e-01
3.843588295667245691e-01,2.439473073781750212e-01,3.820994184015109596e-01,4.802020817759529089e-03,1.854979326581815934e-03,-6.044138905999788328e-03,1.399726718664169312e-01
3.871692211185299159e-01,2.454523324924987315e-01,3.791677867069278007e-01,6.469386007512536313e-03,5.837981817339936950e-03,-2.932929230281399770e-03,1.388069540262222290e-01
4.407184092767157391e-01,2.253442329238420916e-01,4.313924887499478444e-01,-8.806262738350044764e-03,8.682084349849057345e-03,-8.844394230068542556e-03,2.125038951635360718e-01
3.707992718668638998e-01,2.285064608869738501e-01,3.705572438837179683e-01,-3.036045075062278244e-03,1.043797505947860384e-03,-1.691138340092532928e-03,1.423107981681823730e-01
3.644863437276862350e-01,2.067324270030803102e-01,3.666532989034385626e-01,-1.289221988650973184e-02,-2.021623486766394723e-03,5.382771514664317844e-03,1.607191711664199829e-01
3.164932408500261141e-01,3.207334965575967534e-01,3.231976207016331593e-01,2.247043735423854952e-04,6.415534226867402115e-04,-2.107075096940939517e-04,6.001635920256376266e-03
3.138743428412639203e-01,2.648935022989036270e-01,3.279434919638068435e-01,-4.738328383772374974e-02,-2.142609262283588431e-02,-3.732201980667906871e-02,1.248108223080635071e-01
3.363544997403761228e-01,2.500251146262872926e-01,3.427653164208724901e-01,-5.564690059575053138e-02,-5.025733281255855001e-02,-5.531496857529232675e-02,1.846447139978408813e-01
3.220900481310141061e-01,1.386190960854850052e-01,2.891859179180785722e-01,-4.233186839553297609e-02,-2.752021104066019325e-02,-6.129371877904409016e-02,2.182341068983078003e-01
3.383701347042512575e-01,2.785720370018400227e-01,3.315954552116570642e-01,-3.996326910620215389e-02,-2.447245578453233900e-02,-4.054463733838642447e-02,1.213923022150993347e-01
3.235741915917447198e-01,3.129484618211861302e-01,3.323349086253948315e-01,1.513090101412542998e-03,-5.980270241736349024e-03,9.318107392878350898e-04,1.998773030936717987e-02
3.046179054773300865e-01,2.149027980082248157e-01,2.718372108878828186e-01,-5.183864893680621005e-02,-3.855295476406352118e-02,-6.493521964568670091e-02,1.770675778388977051e-01
3.108252713712729154e-01,1.668945317759867319e-01,3.426154085267913429e-01,-6.045680371950411941e-02,-3.099210724240550677e-02,-3.385404515438359546e-02,2.087753415107727051e-01
3.661033500221615999e-01,2.418206569696916830e-01,3.411586106206432323e-01,-2.260321214118515831e-02,-7.393820488371042991e-03,-3.571740990776231528e-02,1.359858512878417969e-01
3.652351667159459692e-01,2.458003983239284429e-01,3.491917119278573067e-01,2.476346540681218997e-02,1.272509258989107297e-03,-5.612528883624017667e-02,1.545981913805007935e-01
3.181977003450555674e-01,2.132725835383179058e-01,2.935147967006651593e-01,2.912378701323975819e-02,1.961407820582988099e-02,-5.128561745607313621e-02,1.435898095369338989e-01
3.033591534841955095e-01,9.478050224100675880e-02,2.996796212315729901e-01,5.955557935925173685e-02,3.525858783957634690e-02,-8.935694554807638301e-02,2.847371101379394531e-01
4.247610645712624478e-01,3.084717101659761873e-01,4.069547920213356096e-01,5.822458798386150741e-02,2.684419095924694618e-02,-5.056094086831660478e-02,1.782441139221191406e-01
2.974919326106988393e-01,3.060200828104744364e-01,2.333702505678078576e-01,-1.773113234275398853e-02,4.038894175667596953e-02,3.616432731351822832e-02,1.203815340995788574e-01
3.009645080624037128e-01,2.561735575134025389e-01,2.703485788751082142e-01,-3.403774021368613512e-02,3.542327179550148336e-02,5.153267178017374717e-02,1.295346468687057495e-01
3.259380265569711277e-01,3.455615717539996523e-01,3.083332397766038735e-01,-1.600867246485998194e-02,1.577065146362631454e-02,1.649140595535780740e-02,5.806335434317588806e-02
3.471429444564900213e-01,2.929115360343353958e-01,3.070681442609753953e-01,-1.148768256367500677e-03,-5.589560393782670895e-03,-2.219926413307427016e-03,4.986176267266273499e-02
4.018493032798967635e-01,2.074740368222016684e-01,3.629070601190824696e-01,-3.885724859562011209e-04,-5.475466485811662613e-03,-4.558499428435924122e-02,1.950723081827163696e-01
4.090133596557209983e-01,2.117151150978096585e-01,3.785413309394312087e-01,-1.250681696965114109e-02,-1.242359383439584249e-02,-3.795085706437696660e-02,1.977275013923645020e-01
3.988598740212465632e-01,2.536942522005555811e-01,3.513269619764202711e-01,-4.376653142819682263e-02,-1.829263013319030323e-02,-5.369797958944958621e-02,1.784183233976364136e-01
3.613510448401237585e-01,2.418376275085826477e-01,3.317882307897918048e-01,-3.741615443415159670e-02,-9.985259904199303774e-03,-5.938709777778446858e-02,1.634128838777542114e-01
3.252710025658029913e-01,1.510575496558939634e-01,2.798499622169610679e-01,-1.629308523991998547e-02,-4.975890614228942188e-03,-7.958601661236328062e-02,2.106488049030303955e-01
3.634417518725832630e-01,2.087629169632495840e-01,3.487584906183512912e-01,-1.176825434680963192e-02,-3.521932922327773371e-03,-3.011696439068297509e-02,1.582521200180053711e-01
4.134861177349893890e-01,2.033541896910980307e-01,3.758170307524354437e-01,-1.498628184998952381e-02,3.497621930372501065e-03,-7.171650273792924690e-02,2.319464236497879028e-01
3.490099709383835402e-01,3.433185939726775548e-01,1.891780385143005394e-01,3.113231339598748065e-02,6.118752884532448894e-02,-6.347458226193668229e-02,2.256001979112625122e-01
4.251846051956446049e-01,2.460225390032021731e-01,4.112821800678633233e-01,-2.336082314767070137e-02,-9.729715227121455215e-03,-5.471958062375522486e-02,2.017558366060256958e-01
3.095783860869041892e-01,3.077240816361533904e-01,3.107077035480600435e-01,4.584104251620522465e-03,-4.619082656527074074e-03,3.776971215385960864e-03,1.329113449901342392e-02
2.928369812487882085e-01,3.288360462455162114e-01,2.587725883506196145e-01,1.512582300887313838e-02,-2.956884566560005062e-02,1.675852905167403428e-02,8.851253241300582886e-02
3.115957173969465255e-01,3.321599473837364425e-01,3.076016973281302525e-01,7.348435562030608201e-03,-7.096668907030346217e-03,6.601970793891205787e-03,3.106152638792991638e-02
3.449253237117012039e-01,3.383331971727660537e-01,3.339050699578560155e-01,1.371120687243743141e-02,-1.972512517472327365e-02,1.908881222333180805e-02,5.400589480996131897e-02
3.121439485773607747e-01,3.276580542645113336e-01,3.152449491186057884e-01,1.248034638915369171e-02,-2.331859426088774001e-02,1.391579973661702038e-02,5.368138104677200317e-02
2.869227775788232848e-01,3.313978523674225851e-01,3.080585654070916446e-01,1.182333057998767416e-02,-1.562179889009333682e-02,8.282607063326194105e-03,5.331076681613922119e-02
3.204166944763353619e-01,3.241101650257912081e-01,3.101403531539663749e-01,8.479766722485519020e-03,-1.015045474330392161e-02,6.688266176726924764e-03,2.856945060193538666e-02
3.177977360564302467e-01,2.542346779394879519e-01,3.139973189947127263e-01,2.980104019204485657e-02,-2.212741096171467331e-02,3.495472069577023472e-02,1.077581048011779785e-01
2.734198408906612365e-01,3.100091076120101152e-01,2.926200628621207778e-01,-1.857087055174282478e-02,-2.708970191033525585e-02,-2.426551343392667134e-02,7.750828564167022705e-02
3.191194812735376196e-01,3.258607782156759947e-01,3.485634952391250541e-01,5.584738387158152961e-02,-2.443076280172556611e-02,4.035807423457640070e-02,1.294125318527221680e-01
3.528399964881349660e-01,3.377208469580497141e-01,2.376745036443876913e-01,4.462806971998359989e-03,1.114320044354895865e-03,-7.158498391089970422e-03,1.093969047069549561e-01
3.379384090345910474e-01,3.435132326046505535e-01,3.085683803037073680e-01,2.055773928861702460e-02,-2.756226793953971826e-02,2.039030981001702103e-02,7.649576663970947266e-02
3.344787003171876272e-01,3.284847389945224627e-01,3.209527013133484652e-01,2.025078784332502713e-02,-1.470744756490040446e-02,3.334359672491371551e-02,7.316011190414428711e-02
3.433391198300843050e-01,3.035527563027977660e-01,2.754590462187668787e-01,8.021916062838932437e-03,3.068941603993845767e-03,-1.130331410258465785e-02,6.398876011371612549e-02
3.152226828284584448e-01,2.859168616358150339e-01,2.942147414384156945e-01,1.791158169818151541e-02,-1.637178996240158321e-02,2.396766916872355990e-02,6.460989266633987427e-02
3.330632880240949056e-01,3.034690718845802770e-01,3.306123484831033355e-01,1.793832257141633399e-02,-1.391185040125613066e-02,2.494220138341210133e-02,6.497384607791900635e-02
3.166101053493881046e-01,2.972034200834095530e-01,3.373157942987420332e-01,2.160100704664992891e-02,-1.875405814605111271e-02,1.601542448403975999e-02,6.657033413648605347e-02
3.366986649533819653e-01,8.589328455582223576e-02,3.270733825829014729e-01,5.510738044243115863e-02,1.179121962365976828e-02,-6.107711837945022093e-02,2.851328253746032715e-01
3.708881440625118597e-01,1.951324481415981915e-01,3.933396146963967777e-01,7.130363744580274846e-03,4.053367662542666991e-03,-1.261367436090604296e-02,1.897873431444168091e-01
4.627816681974382673e-01,2.640205119816049217e-01,4.288674684550312644e-01,3.004259528901838047e-02,1.364073749637076394e-02,-2.275013944861334347e-02,1.968093812465667725e-01
3.652477597837090473e-01,7.442045767730437467e-02,3.621547479406246883e-01,2.222505566502215937e-02,1.886847461061923192e-02,-1.096868222854369482e-02,2.942811846733093262e-01
3.734511035802707823e-01,1.054231168283414621e-01,4.909180152458633151e-01,-3.117301635242925809e-03,9.931078072083916394e-03,-4.351890225777576421e-02,3.508968651294708252e-01
4.395992092831277898e-01,1.010090054128277848e-01,5.034992269066007609e-01,-1.043715314952546602e-02,4.567425478690786966e-02,-6.351087845630160045e-02,3.988089263439178467e-01
3.406595361902776675e-01,1.353076298590821791e-02,3.379900782226588629e-01,-5.723962118744291283e-02,1.804205541757209971e-02,3.573607762581857816e-03,3.420395851135253906e-01
3.336847780497926852e-01,-2.200856831104944233e-02,3.333507179458233827e-01,-1.409699909891913051e-03,1.858328359249553433e-02,2.087411482850354966e-02,3.588150143623352051e-01
4.175615859289505960e-01,1.857388907476538176e-01,3.979975433774711746e-01,-1.361409767696091476e-02,-3.533828853263486919e-03,-2.756210973118367741e-02,2.290450334548950195e-01
3.420371536980319482e-01,1.446271128899361269e-01,3.420578768533024672e-01,-1.604160773764538861e-02,5.712163928840561893e-03,-6.067334064753142700e-04,1.996141374111175537e-01
3.189756340236400978e-01,1.206962466921201460e-01,3.231691625414345737e-01,-3.116617993181282353e-02,-1.803133640493100184e-04,-1.424625182397063275e-02,2.090137451887130737e-01
2.964063243812968818e-01,2.205702460565149570e-01,2.372941302853987522e-01,-4.386517965869585201e-02,-3.995230496595203462e-02,-6.796568949249229274e-02,1.708260923624038696e-01
3.410027658056211664e-01,3.096874524845953380e-01,3.415865694085487569e-01,-3.550445515904665506e-02,-2.431560748340765021e-02,-3.275526958929166760e-02,9.886071085929870605e-02
3.433736956973343912e-01,2.891701346873191691e-01,3.091829242273796963e-01,-3.410258405215217670e-02,-1.418184716054122704e-02,-3.393428939851499127e-02,9.899855405092239380e-02
3.008037680842888806e-01,2.907077273746368484e-01,3.042860710263090018e-01,-7.167959970939851745e-03,-8.860410931384607447e-03,-1.000043445619486909e-02,2.896376326680183411e-02
3.110587225443262049e-01,3.113792810322710269e-01,3.120618186563596241e-01,-2.023724556255483351e-02,-1.781549358556783202e-02,-1.998977399560462193e-02,5.814098566770553589e-02
3.114727018264127345e-01,2.982074857673354673e-01,3.095277669093549622e-01,-1.033002528816168164e-02,-1.033034368012924163e-02,-9.566335346975374243e-03,3.269203752279281616e-02
2.492622278558553339e-01,3.021072476588099187e-01,2.866310085084199377e-01,-6.600929459107111874e-02,9.602840787093505637e-02,7.154889893940930001e-02,2.414705902338027954e-01
3.241772428837392805e-01,3.334639910134547525e-01,4.053005955035017260e-01,-6.916073546699280650e-02,2.921534529512739842e-02,3.046986414327273324e-02,1.600291877985000610e-01
3.517398887606233426e-01,3.738182270039617228e-01,3.752626342582542907e-01,-4.678652841700051135e-02,6.381646668649365584e-02,5.338372852573980420e-02,1.668995469808578491e-01
3.159290646760815613e-01,3.329091338937721356e-01,1.809131512990519997e-01,2.581344441026364039e-02,8.248871285534120634e-02,-4.976832264220275304e-02,2.250622659921646118e-01
3.408485729669182285e-01,3.461714172621389030e-01,3.606552805939809425e-01,-4.901752102375295933e-02,6.461929824973305925e-02,4.957551039357956796e-02,1.656004786491394043e-01
3.544310582124318709e-01,3.541046839737013174e-01,3.061002643560944980e-01,-2.056999600737623862e-02,-3.622755507843844480e-02,-3.640232707282464730e-02,1.072486266493797302e-01
2.286188640073942846e-01,3.204996722305188395e-01,2.356521748487289403e-01,-3.559085029989918214e-02,-7.045255099400776766e-02,-3.257963806942041490e-02,1.723961532115936279e-01
2.714551759431915734e-01,3.385778520173834405e-01,2.910880129000377181e-01,-3.326148863280297546e-02,-6.610366425185046357e-02,-3.289060510848335062e-02,1.524681299924850464e-01
3.337360515442961972e-01,3.136310996379884641e-01,2.898868943418805855e-01,-5.331240348975718225e-03,4.716494268630575144e-03,7.511403934544744372e-03,4.203139618039131165e-02
2.910174543002213565e-01,2.847767063355583494e-01,2.330329502369692940e-01,-3.795199770944740481e-02,-5.520078259682804217e-02,-5.778617840161242442e-02,1.628479361534118652e-01
2.377203562760869526e-01,3.011041680780291441e-01,2.078550457654971262e-01,-4.075468577594001940e-02,-8.099974565271997329e-02,-4.722141163283289506e-02,1.953400075435638428e-01
3.166303193450860087e-01,3.619090134148735260e-01,3.215834596897090281e-01,-4.738009432969353396e-02,-7.709967104105128199e-02,-4.884919474269965728e-02,1.832398772239685059e-01
3.518559482914133674e-01,3.272560916925726926e-01,2.681071449682892460e-01,2.069057430352876613e-03,8.261382607307772921e-03,-2.951756147740271924e-02,9.159836173057556152e-02
3.102964288346456434e-01,3.312624846953343694e-01,2.820642554885281483e-01,-1.554701526441779058e-02,-4.287121186241818482e-02,-3.463480099426041736e-02,1.080102249979972839e-01
3.152470535983608602e-01,3.276585017525247001e-01,3.222606111107025884e-01,1.092387347995555551e-03,1.599720503855321403e-03,-7.029358921889178151e-04,1.135452464222908020e-02
3.216012845632208461e-01,3.403104516530679469e-01,2.448651413045275504e-01,-5.674082186664840960e-02,-5.914859176953368713e-02,-6.020639053242868299e-02,1.967302709817886353e-01
2.777813823225654954e-01,3.721436920992839958e-01,3.642520442500245537e-01,1.161228836427308231e-02,-2.207747555081306101e-02,8.882972553253740827e-03,1.016137376427650452e-01
2.671103854746558204e-01,3.362721385577723821e-01,3.649413060602618719e-01,1.635413148412528245e-02,-9.929305947189215331e-03,5.653023243178569371e-03,9.371283650398254395e-02
2.771976795599699894e-01,3.433085635326482143e-01,3.601138988826791953e-01,2.214361882484314897e-02,-2.648613095960724792e-02,1.119674591268137939e-02,9.856850653886795044e-02
2.902337600040904020e-01,3.863599050251357858e-01,3.891665816028879177e-01,1.366785043375108935e-02,-9.801520161271299464e-03,8.521873546801733354e-03,1.028805896639823914e-01
3.748142601224077608e-01,2.650556863364529336e-01,3.789426466639529978e-01,-5.877817286260432483e-02,-7.162523477815242734e-03,-3.144163528783423117e-02,1.612493991851806641e-01
3.523396900452521741e-01,2.998221740411157743e-01,3.324759151721373707e-01,-3.430981954389714095e-02,-2.837994888706510399e-02,-4.125613631412334420e-02,1.147319674491882324e-01
3.573833546583434218e-01,2.115153666993996873e-01,3.542157996690016852e-01,-3.184270692388178892e-02,-7.685261679447543889e-03,-2.967139512242935803e-02,1.633575707674026489e-01
2.949165368606590509e-01,3.403570765090574435e-01,2.938533681542099818e-01,7.668189393650780760e-04,-4.248962426538452353e-03,6.549932723306515873e-03,4.794698953628540039e-02
3.486850059385878664e-01,2.352975632498340297e-01,3.604459794432760544e-01,-2.955900947586294694e-02,-2.895500039183321155e-03,-2.368888245011350341e-02,1.365958452224731445e-01
3.359167017873377348e-01,2.721732069574492874e-01,3.220678604268793488e-01,-1.919323531752208795e-02,-2.602540150681641185e-02,-3.672146452860250432e-02,1.027363315224647522e-01
3.808709509040119068e-01,2.803564769233066745e-01,3.483737354951929599e-01,-7.546121539777917060e-03,-1.260097204900823518e-02,-3.151520630203775986e-02,1.073293909430503845e-01
2.859150146346636223e-01,3.337389938210126306e-01,2.743301817618321037e-01,9.979251131537098668e-03,-1.956157706499002391e-02,5.885754065440995490e-03,6.727571785449981689e-02
3.089087170057927545e-01,3.230178558178861681e-01,3.114865179744403800e-01,3.502512147596269134e-03,-4.782709659251336252e-03,4.493548594513016928e-03,1.831239834427833557e-02
3.072539062400619359e-01,3.209787681270975246e-01,3.538729391929594792e-01,2.446097570467509891e-02,-8.500960578913751252e-04,6.486792499680402863e-03,6.037621945142745972e-02
2.401737878863519915e-01,2.746986558043055804e-01,3.452584449255813315e-01,4.800275947959913025e-02,-1.598955408335386331e-03,9.104805387778764497e-03,1.256020516157150269e-01
2.314766834772871706e-01,3.315794308242402400e-01,3.883363726302966334e-01,5.459996755219056336e-02,-4.528995372719176772e-03,3.096701948020852413e-02,1.755144149065017700e-01
2.521867285493991639e-01,3.103827824344954078e-01,3.582507009749205107e-01,4.709052418436007054e-02,-3.853396135636397764e-03,1.119885337608449508e-02,1.246482431888580322e-01
3.224985613918543437e-01,3.276045703313269497e-01,3.626741952840196181e-01,2.813358861067713490e-02,-1.412200085772105304e-02,9.759315361450356802e-03,6.850939989089965820e-02
1.978924035468411502e-01,1.372606692371167725e-01,3.115826164682563570e-01,1.195522869604599553e-01,1.400804298424894283e-02,-1.179505266324101104e-02,2.595750391483306885e-01
2.872543048343413341e-01,4.366863989105950750e-01,4.392195394820551657e-01,8.963313981648846074e-02,-3.168004423921728756e-03,3.039189945673501786e-02,2.227516770362854004e-01
3.351034185502402285e-01,3.922276584854147430e-01,4.404503542778140379e-01,7.991844150615226572e-02,-9.937843392142368948e-03,2.237644631262638781e-02,1.711799055337905884e-01
2.608240093694277895e-01,2.789330310918676226e-01,3.278721649271331140e-01,5.919585992912838879e-02,-1.833709720607767935e-02,2.064577561228819400e-02,1.280982345342636108e-01
2.960749086573908895e-01,3.494887931073469844e-01,2.933292848217506910e-01,-2.845533359430279727e-02,-4.357450289121251458e-02,-2.577343176673732930e-02,1.145660281181335449e-01
3.261060495362487766e-01,3.269983714222908233e-01,2.613625117163649314e-01,-2.412055657958527347e-02,-2.515521465891743663e-02,-2.575071056046037560e-02,9.941503405570983887e-02
2.856425989972153912e-01,3.219301879780850917e-01,2.656509438121790745e-01,-1.085626616418789575e-02,-1.261883795414119047e-02,-8.739139433226832815e-03,5.918025597929954529e-02
2.931770166764003926e-01,3.499945264552464241e-01,2.877342657811343685e-01,-9.616718763351021076e-03,-1.514521705355517493e-02,-6.478412203173564143e-03,6.825380772352218628e-02
3.148687738677308223e-01,3.412873996031170476e-01,2.867880663765577376e-01,-1.306987266298257656e-02,-1.590747828743408268e-02,-1.109890083666460400e-02,6.220521405339241028e-02
3.305216963005222497e-01,3.219658951897361177e-01,2.727427228307646168e-01,-1.556857432388408444e-02,-1.919831134483403895e-02,-2.084459118832543076e-02,7.780504226684570312e-02
3.418470093818055111e-01,3.775749188960499936e-01,2.828383160025418341e-01,-1.369248512600605878e-02,-3.164599604415921363e-02,-1.558671164888810780e-02,1.056525558233261108e-01
2.898895260256925122e-01,3.274817045442212082e-01,2.540457569428428708e-01,-1.755254267026863657e-02,-2.897898458636810962e-02,-1.456048622946282817e-02,9.013897925615310669e-02
3.139446849662063110e-01,2.996557578717846670e-01,2.962131790730094805e-01,-1.898823715470872309e-02,-2.502484311769817560e-02,-2.514546562297728313e-02,7.157155126333236694e-02
3.110446833718554793e-01,3.330075348799163559e-01,2.784996701946997888e-01,-1.459151725083122214e-02,-2.009923456911764245e-02,-1.842143785674077092e-02,7.158944755792617798e-02
2.429995908824753581e-01,3.433898722117459945e-01,3.573498492568283891e-01,-8.536462441853975153e-03,-4.369267959960477891e-03,-1.324015127021324883e-03,1.093420311808586121e-01
3.001445593426198544e-01,3.130133539823684585e-01,3.259965656692635494e-01,-1.397946088673942492e-03,-2.366508408529708566e-03,-5.546327157889449980e-03,2.482331544160842896e-02
3.145775233498154799e-01,3.515575541858299013e-01,3.043609285401392417e-01,5.575228319723441080e-03,-6.875257716690011227e-03,4.130966164272305632e-03,4.621648043394088745e-02
3.308790107525784174e-01,3.373079970249059922e-01,3.060429353800924734e-01,-1.989166514356647403e-02,-2.630725126695964561e-02,-2.199772261658198419e-02,7.438267022371292114e-02
3.298331322075458427e-01,3.367230564501332846e-01,2.969166900197458547e-01,-8.577534395955217772e-03,-1.162366611969709203e-02,-8.524100351096474543e-03,4.692320153117179871e-02
3.185215616959857221e-01,3.253953888314213838e-01,2.762465996323683060e-01,-1.877651185669824974e-02,-2.502612049294586707e-02,-2.235292473904826327e-02,8.099731057882308960e-02
3.085705707808284459e-01,3.133419787045538807e-01,3.105623457467866499e-01,-1.392042966699231707e-02,-1.598643909140142622e-02,-1.308031401439646406e-02,4.334221407771110535e-02
3.164823838288887692e-01,2.918919175886085515e-01,3.131512489585824288e-01,-3.540038647776946185e-02,-3.602683279381535542e-02,-5.227424762918411044e-02,1.280039995908737183e-01
2.971716675486743564e-01,2.962990700400089938e-01,3.311222990183468884e-01,-3.198283929227552225e-02,-2.342233321130771789e-02,-2.005252641433408894e-02,8.428443968296051025e-02
3.105038206296883430e-01,2.855994691809782826e-01,3.150584716874382796e-01,-2.982425056545734421e-02,-3.303393626653533532e-02,-2.833905740508555968e-02,9.542478621006011963e-02
2.238492261981950282e-01,2.413050644949469303e-01,3.153521809394282949e-01,-9.682709515858570204e-02,-3.476009407054421463e-02,-5.261621855278549031e-02,2.171103060245513916e-01
2.923266066431468024e-01,2.816361789607366717e-01,3.156963680244725401e-01,-3.584006137105728157e-02,-2.447936793085490892e-02,-3.156161643859757560e-02,9.772368520498275757e-02
3.004765423010959946e-01,2.760234253831327367e-01,3.218033432224153279e-01,-3.047758488660062479e-02,-1.959157353812238100e-02,-2.743796641010720974e-02,8.815304189920425415e-02
3.377286752145843840e-01,3.038590665939298052e-01,3.374819442264889169e-01,-3.738805486878639395e-02,-2.395292505350578305e-02,-3.084286990622552016e-02,9.953657537698745728e-02
3.030030698963176450e-01,2.770715844128989747e-01,3.365860189132039992e-01,-5.987331393210065800e-02,-3.222105031925642793e-02,-3.266662337605921729e-02,1.405043303966522217e-01
2.451875315904102903e-01,2.891244664911082896e-01,3.301726194926940527e-01,-6.835616559522797453e-02,-5.145181688375283224e-02,-5.660350266206772007e-02,1.923288106918334961e-01
2.190130206355967168e-01,3.464342424978849033e-01,2.725875098025558607e-01,-1.372426701498128711e-02,-6.835387322386071718e-02,-4.259759033895960806e-03,1.640613526105880737e-01
2.622170728416598484e-01,3.978095616629928055e-01,3.042047919092812358e-01,4.049478759283994637e-03,-7.132888866521439053e-02,-8.590564480609675507e-03,1.731735914945602417e-01
2.941064350225260360e-01,3.903115999633229305e-01,3.327145614626183523e-01,2.396117394178512547e-04,-4.040405952087720853e-02,1.279480085444927116e-03,1.092440709471702576e-01
2.663138131376943107e-01,3.406474445429552023e-01,3.057463190193706049e-01,5.817750893805583370e-03,-4.241256780872049159e-02,9.756012314062915969e-03,9.966345876455307007e-02
2.227535932386773831e-01,3.336947202264204382e-01,2.492794341027978477e-01,1.313090436972077189e-02,-7.733879638627816355e-02,1.463335444007377896e-02,1.707989573478698730e-01
3.045284525193218683e-01,3.730895577920730899e-01,3.292935301240105805e-01,1.728619307133311481e-02,-4.103716233626017451e-02,1.008346758185341141e-02,9.934598952531814575e-02
3.040921734706493185e-01,3.417829712345969440e-01,2.871133151676756867e-01,-5.855220011195059592e-04,-3.750857619835895520e-03,1.654762296538945469e-03,4.899259656667709351e-02
2.919661230766258941e-01,3.377010677260858795e-01,2.452951203090484311e-01,4.266368611567960753e-03,-3.322502440777086452e-02,2.248004006764985768e-03,9.892338514328002930e-02
2.929728947929655103e-01,3.434197982236092961e-01,2.739087838410430020e-01,1.038430930621516010e-04,-2.737435804387710128e-02,2.338379135050829699e-03,7.832342386245727539e-02
3.103665751471816336e-01,3.193164323307427499e-01,3.232519640485551071e-01,9.694038682061682831e-04,-2.147951876564220021e-03,4.556866579253202390e-03,1.448330841958522797e-02
3.105222444787212877e-01,3.159955144193625776e-01,3.222356030353391576e-01,1.583540139750442589e-03,-2.700141615933082835e-03,3.499725049139551774e-03,1.300724409520626068e-02
3.208612376554798584e-01,3.187826461439289827e-01,3.188277435779477975e-01,9.611936716909454288e-04,-2.114177945210019699e-03,1.034088245760730624e-03,4.859812557697296143e-03
3.165139752233960824e-01,3.148024893449933304e-01,3.161190956784343253e-01,2.369436604443694687e-03,-2.819921418703694518e-03,1.697601441120398427e-03,7.193983066827058792e-03
3.172122191542452452e-01,3.213460618690442971e-01,3.182769258089979680e-01,9.211029406871709853e-04,-1.255550851077209384e-03,2.396938989423506167e-03,6.191235035657882690e-03
3.027952785368271948e-01,2.847528537687810113e-01,3.420960658988640435e-01,-4.749849781400318147e-03,-3.792259291400578228e-03,3.081798236703334410e-04,5.186785385012626648e-02
3.692897443250300338e-01,3.220907330059077922e-01,3.087748918119430086e-01,1.273087173106618279e-02,1.511106840443047876e-02,-3.675636539741651554e-02,9.087300300598144531e-02
3.419214730393397850e-01,3.262126514609089423e-01,3.128464399144144092e-01,8.457631775423376727e-03,9.619559858874065367e-03,-1.190781578657643981e-02,3.940787538886070251e-02
3.009571414681130874e-01,3.473688516725721431e-01,2.914440685481397564e-01,-1.558345047024309185e-03,-5.642993663402190614e-03,3.575660203470843942e-04,5.281346663832664490e-02
3.285480349946826029e-01,2.893913668487961277e-01,3.069751176290188566e-01,1.360254026046763161e-02,1.337349807485809124e-02,-1.880465441593618184e-02,5.750126764178276062e-02
3.332803669929794710e-01,3.095634376608455418e-01,3.034793812575312666e-01,1.089569833251292572e-02,9.052078779331420438e-03,-9.739894242656281162e-03,4.037783294916152954e-02
3.463556483162590349e-01,3.209811967626133855e-01,3.313540092374090418e-01,1.073231921581394369e-02,1.025167925576154007e-02,-9.236413612911307386e-03,3.748368099331855774e-02
3.882698839048979722e-01,4.154483588904991365e-01,2.012165355198610173e-01,7.571815107151112605e-03,-3.416890492442720140e-02,2.856555239223415241e-02,2.166424691677093506e-01
3.755662859765507289e-01,4.352583891924536874e-01,2.478387594505738478e-01,1.158353384582794764e-02,-3.139201859434047337e-02,-2.511807559593857379e-03,1.757260113954544067e-01
3.475522330404967608e-01,4.282220212690908134e-01,2.562353725785231351e-01,1.589794748809345709e-02,-5.486587979103350887e-02,5.375067526938870008e-03,1.791329085826873779e-01
2.568774863802441022e-01,3.294961051331212198e-01,1.317903580538248853e-02,-6.712765305359254687e-04,-1.277694945196621301e-01,-2.174800820810894597e-02,3.643553853034973145e-01
3.341691094728812539e-01,3.694573935306650347e-01,1.227682670738561022e-01,1.691955401916766036e-02,-6.431669898352221360e-02,6.738997643501745682e-02,2.833522558212280273e-01
3.198266273634267076e-01,3.539668073895312905e-01,2.499015345554044809e-01,1.616837088779005463e-02,-4.984834883566905545e-02,2.071975875878879006e-02,1.340487748384475708e-01
3.417455982866433595e-01,2.571597650969966176e-01,3.111010126630494588e-01,-6.588016220306744386e-02,-2.594448790663078652e-02,-6.731049363913792216e-02,1.847533434629440308e-01
3.756621113863606309e-01,3.215572478235264597e-01,3.302893958610118585e-01,-2.128657200459394688e-02,-1.922451934512555555e-02,-3.608897927380556869e-02,9.437414258718490601e-02
3.502449650304274575e-01,2.980285110562522766e-01,3.032576561348631072e-01,-1.288086970549613165e-02,-1.007090970797039006e-02,-4.262583912480880782e-02,9.345459192991256714e-02
3.799712732170065221e-01,3.090035217216607344e-01,3.166383989345945560e-01,-1.053849273931803041e-02,-8.896791254530515836e-03,-4.303737964668519211e-02,1.033449023962020874e-01
3.142967920056479181e-01,3.248439236587414847e-01,3.010200943278218966e-01,-2.668365683623273241e-02,-2.482319563472671492e-02,-2.000218787684433092e-02,7.491616904735565186e-02
3.340189582198330731e-01,2.995847039146710689e-01,2.715760065217600605e-01,-5.256564505381165764e-02,-3.929602676980501613e-02,-6.303751202690807687e-02,1.666668057441711426e-01
3.457986132913534183e-01,3.001865697381219111e-01,2.917152554963394762e-01,-1.194321653730740038e-03,2.552181317416685538e-04,-6.966163746998298330e-03,5.185241252183914185e-02
3.560204021241672456e-01,3.092940818849615470e-01,2.973302244233322900e-01,1.562176659926594029e-03,-4.483421886343994314e-03,-1.996656997067993572e-02,6.441371142864227295e-02
3.442732828940109902e-01,3.064502521814101987e-01,2.821725343381656925e-01,8.955366459759584331e-04,3.732879904762616101e-03,-4.852372210792722448e-03,5.525479093194007874e-02
3.377814084023851859e-01,3.422866030175723551e-01,3.151987551841616830e-01,-9.924011872114821275e-03,1.353588005005376335e-02,2.071310139644768136e-02,5.257592722773551941e-02
3.207066610440278964e-01,3.031388122793871043e-01,2.941392236475423028e-01,-1.095503546164747558e-02,1.424712912595045740e-02,1.911223426267793027e-02,5.111299455165863037e-02
3.395202087891615594e-01,3.279187510127136718e-01,3.185981369261344232e-01,-6.829757788429204404e-03,1.015947055000286300e-02,1.040208140158326716e-02,3.322335705161094666e-02
3.142108214525928811e-01,3.200590886564536608e-01,3.162202478024225272e-01,4.094770713150733634e-04,1.282515292162837023e-03,9.053218240691311312e-04,5.863850004971027374e-03
3.473065159317951789e-01,3.484216255236615156e-01,3.256100697323920934e-01,-7.514145343101030945e-03,9.441594903214146906e-03,9.981136624565033200e-03,3.509787470102310181e-02
2.816606465384253744e-01,3.205459054471644920e-01,3.049849744584048339e-01,-2.487250764570341378e-03,-3.844224966713030191e-03,-8.622863615465273940e-03,3.788231685757637024e-02
2.757571183414530003e-01,3.212707811747881892e-01,3.160732660479771972e-01,-4.624666510275474152e-03,-4.254743964942948528e-03,-1.114972319378713939e-02,4.851154237985610962e-02
2.725085360485397512e-01,2.948183050234676750e-01,3.151418700166440656e-01,-2.002799167226152616e-02,-1.312171403488257386e-02,-1.559565931640139076e-02,6.175564974546432495e-02
2.970173760802299334e-01,3.087513438983346403e-01,3.140039812617362314e-01,-1.191068638990719353e-02,-8.394399149723050235e-03,-1.019665197501117525e-02,3.429018333554267883e-02
2.348226768708029932e-01,3.825654413189943925e-01,4.287733492673252433e-01,-7.141955798056066895e-02,2.503276840704100111e-03,2.167268267811214150e-02,2.179911732673645020e-01
2.723198576064057574e-01,3.225022933071140518e-01,3.233964433678062633e-01,-4.783009223231510926e-03,-4.278313738528632948e-03,-1.150250196285708404e-02,5.553749203681945801e-02
2.763428535438866573e-01,3.033137190988598464e-01,3.185719691274820908e-01,-6.266394764947255495e-03,-4.372696948523390609e-03,-9.893145695495635800e-03,4.290172085165977478e-02
3.653244591140124564e-01,3.543755162483178678e-01,3.119300081250583889e-01,-2.664531667371821885e-02,-2.914125779851836628e-02,-4.463523552469998712e-02,1.141959056258201599e-01
3.630279186119956258e-01,3.048416435097055510e-01,2.646428784331930073e-01,-1.687010777751521071e-02,-1.417884924849733240e-02,-3.306473778935527241e-02,1.098970025777816772e-01
4.040362599651017295e-01,3.646344673208029019e-01,2.680932872127598232e-01,-1.980839060267274715e-02,-4.691096640780532262e-02,-6.508813740681465565e-02,1.875234097242355347e-01
3.798607672552646863e-01,3.322102179245321474e-01,2.834867735425226076e-01,-1.068737698493358798e-02,-3.896584216468054751e-02,-8.052350413819958641e-02,1.769633442163467407e-01
3.182738533572858075e-01,3.025126548923521841e-01,2.453368016402184548e-01,-1.767391434951252546e-02,-2.780791535795435268e-02,-3.742908605760097984e-02,1.089880988001823425e-01
2.815291334098614096e-01,3.582000013552336104e-01,2.643197203275255980e-01,-1.198566863263758088e-02,-5.700991568039025237e-02,-2.615826757386572124e-02,1.404570043087005615e-01
3.431072473791034194e-01,3.872527286105287847e-01,2.840346323672632289e-01,-2.127322636053722085e-02,-5.773344726441993063e-02,-2.550591086004633593e-02,1.461333036422729492e-01
3.143433055450966518e-01,3.477950262340253063e-01,2.928387308787524512e-01,-3.459787024759630736e-02,-4.403291876023843199e-02,-2.173999882216232776e-02,1.145706921815872192e-01
2.725431641423175511e-01,3.627350821725681684e-01,3.009765551493475133e-01,-2.248355071110465578e-02,-7.589504403714619762e-02,-4.005789468902704736e-02,1.731738597154617310e-01
2.800752304019152317e-01,3.589814306519945597e-01,2.978027777788914143e-01,-2.006511599563296638e-02,-3.978044549609457275e-02,-1.528796697104806840e-02,1.086189895868301392e-01
3.002350212382940420e-01,3.412370969852115410e-01,2.831722709242806557e-01,-1.693667326643233384e-02,-4.112818056104274034e-02,-2.283531800742625781e-02,1.008533835411071777e-01
3.026956536523154329e-01,2.368600430751412467e-01,3.594987057126058372e-01,-5.565261544757674206e-02,7.844926535112359267e-03,-3.128036067728921701e-03,1.442435532808303833e-01
3.371363632521389708e-01,2.735752196836476191e-01,3.684140695752295414e-01,-3.335669698060517163e-02,-8.442011216221342179e-03,-1.051799997565262823e-02,1.043554320931434631e-01
2.755902468744938494e-01,2.636363466188018645e-01,3.598602263194684570e-01,-6.439055425936743293e-02,-8.162423762132301744e-04,1.076780870311836325e-03,1.438596099615097046e-01
2.853129999161811980e-01,3.386527786740164414e-01,2.820890789471054982e-01,-6.436782067298299145e-03,-1.449538544392397349e-02,-7.085882881253315058e-03,6.271174550056457520e-02
2.970699511218867772e-01,3.043102556191264463e-01,3.624176526160751699e-01,-4.222855368133592718e-02,-5.412048718847829384e-03,-5.694765783940585260e-03,9.687373787164688110e-02
3.116422360423297122e-01,3.128227056917595172e-01,2.339079975752051399e-01,2.486772682926715466e-02,3.743233897895802131e-02,-3.227463006440062232e-02,1.237718686461448669e-01
3.411126008965503775e-01,3.445809242495117553e-01,3.402936515257893868e-01,1.006795842205535259e-02,1.455823484072145402e-02,-9.623778089705246203e-03,3.511850908398628235e-02
3.378869384718117264e-01,3.616544908402201663e-01,2.793965030857778475e-01,2.119596552416336613e-02,4.802212892511045078e-02,-5.243458658375339115e-02,1.479545235633850098e-01
3.937296996317841691e-01,2.522345171811931630e-01,3.087675778543810257e-01,2.982352015155735267e-02,2.857588688488771692e-02,-8.237178296164325564e-02,2.017204016447067261e-01
3.176934341307132148e-01,3.249823167742160179e-01,3.222798109443235637e-01,5.833659921793778180e-03,-7.085366827657938772e-03,7.012210835387559099e-03,2.099877223372459412e-02
3.162035156469868991e-01,3.167544983309431017e-01,3.119449136090315378e-01,8.990686693644134656e-03,-7.218290866398717996e-03,5.402012206466183866e-03,2.251975610852241516e-02
3.145459933543924835e-01,3.017391305215351149e-01,3.050194637774212292e-01,6.169784145252419673e-03,-6.455353269932183856e-03,8.561648737806668019e-03,2.432867698371410370e-02
3.123187967357970996e-01,3.133587605804493137e-01,3.109228993590050227e-01,2.839270717626363356e-03,-6.140079680663140110e-03,3.374008984532384826e-03,1.326347049325704575e-02
3.026554906810302592e-01,3.237511441261838319e-01,3.158510702902955769e-01,9.398103431625625531e-03,-1.173022398634865002e-02,1.178276449119712577e-02,3.788203746080398560e-02
3.154059430947537268e-01,3.145391020403939253e-01,2.991402862813944963e-01,5.864612369161524216e-03,-9.941681996433247501e-03,1.535152392086186783e-03,2.565122768282890320e-02
3.147683309318678457e-01,3.184347308831405043e-01,3.090570854837656478e-01,4.912039756203730699e-03,-3.122524018616363445e-03,3.110800391637028300e-03,1.405939646065235138e-02
3.193920908531614478e-01,3.250732362852600255e-01,3.048743135068365251e-01,1.088838232825693753e-02,-1.246481377927481822e-02,8.059189618358345020e-03,3.663544356822967529e-02
3.757954816265527409e-01,3.868964222295202537e-01,1.810945679076099435e-01,-6.959804547214227480e-04,5.929209282565749833e-02,5.977842531723020353e-02,2.479143589735031128e-01
4.612634966251167312e-01,4.579712145831449366e-01,2.573174259554207310e-01,1.395907360218857744e-02,-5.757976955726427405e-03,1.810701168788094936e-02,2.064001262187957764e-01
3.457634604725405292e-01,3.145596674395707004e-01,4.222471592352153302e-02,4.754005212911160440e-03,-1.610811966329697351e-02,6.006168111185254677e-02,3.087172210216522217e-01
4.168630101874594707e-01,3.857263744830761176e-01,2.058918949928035258e-01,3.889071957689432552e-03,-1.900909240513408991e-03,3.058717018518320591e-02,2.043827623128890991e-01
3.267666428107335319e-01,3.325890860619703515e-01,3.183578909406328816e-01,8.939610102556096172e-03,9.161826481520602555e-03,-4.725472203723614026e-03,2.668566629290580750e-02
2.921880088117023710e-01,3.372575481611954640e-01,2.681271803271308429e-01,-1.188582402886798235e-03,-1.433684331135751458e-02,-1.633002463309538238e-03,6.575310230255126953e-02
3.211717753999545066e-01,3.420058577570558311e-01,3.300913269621553736e-01,8.647410101760118900e-03,1.332786383510147117e-02,-1.108957072410348028e-02,3.813071548938751221e-02
3.031834614066338252e-01,3.247126549540384488e-01,2.957054799500469233e-01,8.998150495422838069e-03,9.881248188101068169e-03,-9.925331488058139820e-03,3.888155519962310791e-02
3.277474414787368007e-01,3.294673529302937220e-01,3.270924958861368692e-01,2.552343664476125831e-02,2.688034368631073145e-02,-1.311717675738158922e-02,6.813729554414749146e-02
3.421328829427626173e-01,3.524311185400098578e-01,3.394288704071168339e-01,1.783573794705963639e-02,2.376196599900807019e-02,-1.708959013082815906e-02,6.054426357150077820e-02
3.031599707137324073e-01,3.175001134071787079e-01,3.055081231816776932e-01,6.604671572872057410e-03,6.497804808019930732e-03,-7.274212050568087430e-03,2.436704002320766449e-02
2.724020573624896802e-01,2.758148682540834673e-01,2.437549093872144745e-01,-5.482248183548076720e-02,-6.793914155739690097e-02,-6.506872391120124832e-02,1.910381764173507690e-01
3.407128086592718930e-01,2.863479127789743117e-01,2.603843109925922938e-01,-3.306490618144070082e-02,-3.642449915230185770e-02,-5.188157770766240601e-02,1.427457481622695923e-01
3.330187366505358293e-01,2.930944072712569071e-01,2.532508986178626520e-01,-5.005248967187762854e-02,-7.345687243625123597e-02,-7.144023155458591179e-02,2.092529386281967163e-01
2.903003532552135280e-01,2.607431085149617411e-01,2.587602112015167100e-01,-3.788421009069009582e-02,-3.278289406559749958e-02,-4.306282689329225116e-02,1.184448674321174622e-01
3.311377349240071100e-01,3.098641069882965837e-01,3.055576768152357681e-01,-2.223454935539134758e-02,-2.107527392928194854e-02,-2.720060224892920445e-02,7.481959462165832520e-02
3.310190596576693123e-01,3.718545624060926036e-01,3.106362650353615695e-01,2.650655452544806341e-03,-2.044438209904681295e-02,-1.901055393729323469e-03,6.481648236513137817e-02
2.841037784060393978e-01,2.954558853573082122e-01,2.546029305784670571e-01,-3.077203542382733747e-02,-4.194438725205446722e-02,-3.643134551269040788e-02,1.159074828028678894e-01
2.988406008332148978e-01,4.382244796617400517e-01,5.394348894549443330e-01,-1.369337088810149705e-01,-3.082954683668098425e-02,-8.935885639879848075e-03,3.211261034011840820e-01
3.252503063943870121e-01,2.760246414477295906e-01,2.364671913396919067e-01,-6.094297451875056726e-03,-1.116500281748829954e-02,-3.414954948297833220e-02,9.959501773118972778e-02
3.365235849411850055e-01,2.984606839689562530e-01,2.741020432107239557e-01,-1.691561797447837384e-02,-1.621153203469503229e-02,-2.363429966581673258e-02,7.932139933109283447e-02
3.476488556801993202e-01,3.169327501124679647e-01,3.001786663398262611e-01,-1.034401236548231247e-02,-1.092126260682497324e-02,-1.494062012134342483e-02,5.556332319974899292e-02
3.651807328217713255e-01,2.932786806539504076e-01,3.039337068449556312e-01,-1.216309960836862124e-02,-1.160913344404733601e-02,-4.730507910098859237e-02,1.099034398794174194e-01
3.280033203963884092e-01,2.669984946032964990e-01,2.750458413290770565e-01,-1.625159676063563791e-02,-1.565152572135810119e-02,-2.849561050411388366e-02,8.519785851240158081e-02
3.216355942038524596e-01,3.547930476192263649e-01,2.692371900432500853e-01,-2.771445419062596241e-03,-6.247317318681123652e-03,-1.047370147360771747e-03,7.566919922828674316e-02
3.327997445385700859e-01,2.831557942451526366e-01,2.859621775073933336e-01,-8.954994849341434832e-03,-1.012368721101284362e-02,-1.522221129384653156e-02,5.980190262198448181e-02
3.452372586278643074e-01,2.888865062993993815e-01,3.051017426895160090e-01,-3.713132363666037886e-03,-6.661564548307616351e-03,-1.776746308501477023e-02,6.038327515125274658e-02
2.950461852744027391e-01,2.981344550905094537e-01,3.433945746572416580e-01,-1.804720421906359567e-03,1.913469673756952084e-04,-7.034962784912055346e-04,4.700166732072830200e-02
3.452244562308163789e-01,2.994066602825130596e-01,2.973482045337612067e-01,-2.113929732420231737e-03,-7.270054624443609854e-04,-7.111105306832919692e-03,4.862629622220993042e-02
3.383566854411320657e-01,2.875518785544514677e-01,2.856359743659961925e-01,-3.230027765267391889e-03,-1.247656646414220310e-03,-6.827271769799848206e-03,5.345970764756202698e-02
3.437746978326385316e-01,3.030489775695710541e-01,2.872398288152687718e-01,-3.222841530382978582e-03,-1.473869651314008633e-03,-5.204488430917308950e-03,5.168452113866806030e-02
3.269096570873024632e-01,2.731778237528666997e-01,2.508866600537129621e-01,9.443172921703931605e-03,5.415348561838040885e-03,-3.290231333714865869e-02,9.047063440084457397e-02
2.788728561811925633e-01,3.103145925851752973e-01,3.435957725363102955e-01,-1.272645707515547391e-02,-4.762908620659025635e-03,-9.521998109647013958e-03,6.299672275781631470e-02
3.441303914394739372e-01,3.066027606925191829e-01,2.755938483879266099e-01,1.297913310108368142e-05,-1.115158543191837204e-03,-1.683476947485319092e-02,6.623840332031250000e-02
3.568088108210630272e-01,3.130927670521485573e-01,2.825024245252951705e-01,9.693972075311526248e-04,1.370796794122231162e-03,-1.665707179148327721e-02,7.088709622621536255e-02
3.194638886828720103e-01,3.215182290221682004e-01,3.291144795226634834e-01,-4.433510209079151443e-03,9.900118595859357801e-03,1.210074754168038481e-02,2.949267625808715820e-02
3.067300164373396032e-01,3.212659523004102180e-01,3.053621919553968778e-01,-6.531243717515526105e-03,6.016861339649954080e-03,6.027025617270424969e-03,2.405413426458835602e-02
3.036991991238768840e-01,3.013108881946099382e-01,2.869871807325528046e-01,-1.254753075490531652e-02,1.584005144567192033e-02,1.683964759337618772e-02,4.817516356706619263e-02
3.370079230583605812e-01,3.377960310797678556e-01,3.380670084529454056e-01,-1.607325971439688139e-02,2.397176132320917238e-02,2.254627375283510538e-02,6.344207376241683960e-02
3.157506122932345893e-01,3.165986063580477072e-01,3.146091935148389584e-01,-2.196309137045045906e-02,1.687962149142115814e-02,1.701871656020676610e-02,5.633646249771118164e-02
3.013608745429048885e-01,2.957821351521051634e-01,3.446401534381868248e-01,-2.525847721183890719e-03,3.754228130624991480e-05,-3.840510706579446641e-04,4.653223231434822083e-02
3.276527752910927682e-01,3.137403230274357635e-01,3.162804778292351848e-01,3.868958565729302846e-03,-4.214565337674974765e-03,3.958636428292354459e-03,1.760328188538551331e-02
3.205078676792073589e-01,3.257799927953002883e-01,3.215403674235764453e-01,4.375912417004731991e-03,-4.172016118310290997e-03,5.383165094028963954e-03,1.483294554054737091e-02
2.928349997848859187e-01,2.724262532856034369e-01,2.928032274713829874e-01,-1.821709400881011201e-02,-1.810578805169062860e-02,-1.616547373101771476e-02,5.638158693909645081e-02
3.170522158785035738e-01,3.147496301901359095e-01,3.152209300291683447e-01,2.281584100747690701e-03,-1.683735369337502428e-03,1.686595410853071767e-03,6.090517155826091766e-03
3.187835876393197432e-01,3.215130966108906696e-01,3.149992683744233801e-01,2.547389786357089417e-03,-8.011876470301077403e-04,1.639196901460054923e-03,7.845687679946422577e-03
3.492273719248978892e-01,2.946122917777374006e-01,2.736543521391536782e-01,-7.222317139647404551e-03,3.901648988966457954e-03,3.826204623993672421e-02,9.571190178394317627e-02
3.439887895606689172e-01,3.186382133254719862e-01,3.072556210448442737e-01,-9.605616144757748304e-03,7.160317349349424633e-03,2.007419576340755546e-02,5.196445435285568237e-02
3.525905173127760195e-01,3.018463356143575860e-01,3.018673411928511907e-01,-1.143295331061674070e-03,9.406564133650574186e-03,1.817679986900607586e-02,6.192306801676750183e-02
3.593955830899534520e-01,3.020139478916830655e-01,3.251656762615913188e-01,-1.250149482231920073e-02,8.435703811682720293e-03,1.737421910214312359e-02,6.393830478191375732e-02
3.682845342216660156e-01,3.200344801056950184e-01,3.322741903311139944e-01,-8.994164917251784748e-04,9.832861517389927808e-03,2.301736907853242642e-02,6.139374524354934692e-02
3.385767199674983852e-01,3.013364059030579911e-01,3.160102193549696459e-01,-9.103666134776877000e-03,1.006941795499563704e-02,1.233855253847267013e-02,4.544484242796897888e-02
3.167360084494121319e-01,3.723600264806712357e-01,3.060823515206103629e-01,-2.043352574054694767e-02,-4.148967872962247561e-02,-2.428428265305952044e-02,1.094809472560882568e-01
3.516445210577456293e-01,3.110440915291345365e-01,3.054585114154774739e-01,-2.287354979656260208e-04,-5.350124199196746276e-04,5.522991717994840330e-03,4.470901936292648315e-02
3.405915049455192634e-01,2.938973349829554493e-01,2.890018725896764118e-01,-2.432825586943014270e-04,2.320680514248468773e-03,1.794459600982323613e-02,5.844023078680038452e-02
3.460860572752880171e-01,3.112447400547167509e-01,3.122479491553760700e-01,-1.769618172900248084e-03,3.153635669121951542e-03,6.973223215397823457e-03,3.694697842001914978e-02
2.803463005941773112e-01,2.289897479994009444e-01,3.282558915359988783e-01,4.774967727272631107e-02,1.007753690198745153e-02,-6.342317222385450426e-03,1.210732683539390564e-01
3.234486141018763083e-01,2.729753896328912521e-01,3.421568378545346567e-01,2.244504161644133439e-02,1.138858232887018929e-02,-9.781453537669036746e-03,7.764842361211776733e-02
3.383776646255746701e-01,2.647334960014686156e-01,3.683767742728336070e-01,1.328311727011306093e-02,1.684522032016210792e-03,-5.685803014557431340e-03,9.574701637029647827e-02
3.445496359839169687e-01,2.647700162106039756e-01,3.563400423712056453e-01,1.082967395562872692e-02,7.355344960405608978e-03,5.342344593781323328e-03,8.968950062990188599e-02
3.201117139101313791e-01,2.935929852777660054e-01,3.508760527359767734e-01,7.072188635257070990e-03,1.173931611856462000e-03,-1.594950964956657474e-03,5.125750973820686340e-02
3.365441706121747867e-01,3.096942787388237694e-01,3.660277673266770226e-01,1.747519544422457619e-02,-4.656528456147541670e-03,-3.233784811795453740e-03,5.826147645711898804e-02
3.180939324866912665e-01,2.888376147878181088e-01,3.452942043923426518e-01,5.215115117286188776e-03,1.991755533116454629e-03,-8.507355870171895288e-05,4.985059797763824463e-02
3.043688948585527299e-01,2.996423212847644790e-01,3.106667049622614529e-01,-7.292868126428837978e-03,-8.229311106663774605e-03,-6.904712467988813850e-03,2.444417215883731842e-02
3.629076781625067416e-01,2.802000836532924644e-01,3.566826253333845176e-01,2.521673976323333954e-02,1.663872021638276855e-02,-2.156553283006413385e-02,1.024590060114860535e-01
3.538436511237338933e-01,3.079667786739962443e-01,3.693194788104780524e-01,2.082751715610628440e-02,1.055766629920030196e-02,-1.237300789963561264e-02,7.175789028406143188e-02
3.708685347895080420e-01,2.560355968174803931e-01,3.267695121081761189e-01,5.485610338854822465e-02,1.094365916946333020e-02,-6.263853903135667422e-02,1.767057776451110840e-01
3.155339554037574490e-01,2.786607759156363717e-01,3.169937477493610656e-01,2.240683790648695384e-02,1.458644491481384670e-02,-1.548684972934880749e-02,6.541872024536132812e-02
2.788236396534991557e-01,2.670780030252982162e-01,3.047672369490551092e-01,5.205033211647531327e-02,3.833541729772942108e-02,-3.172269546547228786e-02,1.291172653436660767e-01
3.412334330768292956e-01,3.288162959980858724e-01,3.635759545555116712e-01,3.456320128656441282e-02,2.176708824117593380e-02,-1.624670462838110480e-02,8.202397823333740234e-02
2.821817063736244413e-01,3.144203343016131469e-01,3.513809917493092017e-01,2.105728693158135170e-02,-1.086742956895734614e-02,1.070277358302512000e-02,7.500106096267700195e-02
3.181381150999135765e-01,3.746275918996585519e-01,3.806684296441137927e-01,3.654446669923200330e-02,-2.916315244163608308e-02,2.656345875599088260e-02,1.106508523225784302e-01
3.205123600544568796e-01,3.735743779030416545e-01,3.744910840902318516e-01,3.551079527881872283e-02,-3.064770213008884484e-02,2.604385078993184596e-02,1.072417870163917542e-01
2.854281591495746451e-01,3.687778154634063221e-01,3.786740789160810139e-01,2.183713054156348476e-02,-1.899037401013047369e-02,1.801891298264932800e-02,1.065667793154716492e-01
3.276793546111228528e-01,3.293065465790671609e-01,3.381254479914609368e-01,3.652767605764341285e-02,-4.385768488087513073e-02,4.571909485215215618e-02,1.270384937524795532e-01
3.401602275797246944e-01,3.323804313790886256e-01,3.758473206320742666e-01,4.435412629127016837e-02,-1.442025843910853776e-02,2.907226443102006036e-02,1.033103018999099731e-01
2.694506913415838922e-01,2.819813815517849265e-01,3.471101160531946950e-01,6.537467428140086856e-02,-2.911078817385992501e-02,3.792471790999557557e-02,1.577770262956619263e-01
2.921325227315883510e-01,3.101086838199089701e-01,3.254858459400551407e-01,1.610937013807894891e-02,1.444748753979482360e-02,-1.335997699894831033e-02,5.268979072570800781e-02
3.288542597155958425e-01,3.194487045088792443e-01,3.018274698616750240e-01,1.474982516699889327e-02,1.367286757955776290e-02,-1.284618323765953328e-02,4.767910391092300415e-02
2.761417396331248830e-01,2.840370501712832785e-01,3.029972297528186198e-01,-3.997409165399674891e-02,-3.151611249596734943e-02,-3.655405370593879655e-02,1.111471876502037048e-01
3.244107017899623413e-01,2.566560689580035803e-01,3.220589730622606672e-01,-3.324355033546448623e-02,-2.229019580110666587e-02,-2.685622287957300375e-02,1.068017333745956421e-01
3.344309202176026230e-01,2.815551792804337206e-01,3.650788849766982702e-01,-3.260795802135641602e-02,-1.550724687269988862e-02,-1.833764613952398870e-02,1.013693436980247498e-01
2.811004761711852762e-01,2.570355850535384623e-01,3.245139915738975978e-01,-2.904275451221796644e-02,-1.670062342368324251e-02,-1.726630336739345961e-02,8.814843744039535522e-02
2.788792512104611432e-01,3.321206229424054635e-01,2.914222520481186129e-01,-7.269587326059401798e-03,-1.789358132839506677e-02,-6.196131430610923342e-03,5.965250730514526367e-02
2.877118015349574565e-01,3.358590396930367650e-01,2.879336684971499083e-01,5.446070747174030016e-03,-1.578839796405021728e-02,6.517758750393590379e-03,5.719935894012451172e-02
3.216303621054075190e-01,3.743399755393900796e-01,2.497868313793552841e-01,-1.054147116082485534e-02,-8.900725090817708518e-02,-7.515885571291623310e-04,1.892843842506408691e-01
3.157641209862633858e-01,3.591875388947060044e-01,3.132181056501009420e-01,1.034377185794006782e-02,-1.842667890398816399e-02,1.049933460981932604e-02,6.060485541820526123e-02
2.837566052930201588e-01,3.269479058648276926e-01,2.591210391377920530e-01,1.788149855680459810e-02,-4.237683292432640331e-02,2.004245653707595332e-02,1.053003966808319092e-01
2.951843862506307592e-01,3.468065007713962977e-01,3.021131164410164049e-01,5.119585051958891464e-03,-1.520265398821055158e-02,1.119891173367108979e-02,5.918963998556137085e-02
3.128945210567077306e-01,3.497483334815738032e-01,2.909738545320401104e-01,-1.811001372071687062e-03,-2.405825388977136589e-02,4.924000775408295290e-03,6.682480126619338989e-02
3.167761837230873567e-01,3.402516835124211880e-01,3.064308270232849463e-01,1.171735466878722279e-02,-1.743234607990500062e-02,1.383718648136096803e-02,5.290501192212104797e-02
2.659373084690445088e-01,3.617407766947969838e-01,2.864576968842844074e-01,6.864324912105989468e-03,-3.946295504233940377e-02,-2.105425061732246229e-04,1.115658134222030640e-01
2.678775501644292678e-01,3.197560805294789588e-01,3.431778187246408152e-01,-5.977859731272966957e-03,-5.321932056355008905e-03,-7.830637148622379695e-03,6.950665265321731567e-02
3.527808339750389544e-01,3.659253309964449752e-01,3.118397681038952984e-01,1.918768819425637276e-02,-1.654777853105227070e-02,1.804857116681051615e-02,7.273472845554351807e-02
3.019897843560410133e-01,2.970238871483225629e-01,3.271777926707349904e-01,-5.415333793765804427e-03,-4.731346061127340158e-03,-3.942487591846024174e-03,3.139969706535339355e-02
3.478411173543581869e-01,3.695335390751439686e-01,2.975050387787786521e-01,6.251335874720269532e-03,-2.468535288476312456e-02,1.166612746393957609e-02,8.031081408262252808e-02
2.882618090147536227e-01,3.653261225541136192e-01,5.563026349468449538e-01,-1.803648498293021762e-01,7.866841811182581634e-02,6.611898256466491874e-02,4.317454993724822998e-01
3.107876347698118602e-01,3.205376131424991781e-01,2.626886610730673199e-01,4.404197556325202545e-02,-6.009083196939402072e-02,2.750435692328833878e-02,1.476442217826843262e-01
3.824321396524344441e-01,4.429445451941059764e-01,3.306543372014623117e-01,1.523170191044060338e-02,-5.523553083571541844e-02,2.567761465421011802e-02,1.459548473358154297e-01
3.655389566538490564e-01,3.185996374895360694e-01,3.643564910575367022e-01,2.512289856943470540e-02,2.405893993742687365e-02,-4.824454057692811187e-02,1.129680424928665161e-01
3.232379279980654996e-01,2.567985941140003558e-01,2.279886107389932637e-01,1.884682273233858479e-02,2.095961543748455641e-02,-6.351141375681468304e-02,1.471153944730758667e-01
3.720345604442623633e-01,2.582942616665399038e-01,3.455392448189563703e-01,3.470217547969972616e-02,2.530161888844838225e-02,-3.230389570755182183e-02,1.388853341341018677e-01
3.366361851993326937e-01,2.658802046963529842e-01,2.992019965820759131e-01,8.693647327267841826e-03,9.381222431874544632e-03,-2.442244879311089925e-02,7.771205157041549683e-02
3.973307971280549133e-01,2.700466363631034428e-01,3.747166791775122241e-01,3.980715319305561106e-02,3.138175571126902014e-02,-6.494011944716224227e-02,1.849166452884674072e-01
2.552630753108974249e-01,3.416735618506425709e-01,3.593180615746284223e-01,-6.983620388255519507e-02,-6.311626235082445913e-02,-4.464457230858263209e-02,2.046080529689788818e-01
3.414085136804993481e-01,2.689442580891737711e-01,3.267836415587073717e-01,2.429945966805737573e-02,2.168692926340627658e-02,-3.158952008222098984e-02,1.028650924563407898e-01
2.321333424275265067e-01,3.124867622379148835e-01,3.453111017677245598e-01,-5.491674808117028711e-02,-2.660236289036833901e-02,-1.389818452696930939e-02,1.480599194765090942e-01
2.536930946367669248e-01,3.227487698473272548e-01,3.490742230564649606e-01,-7.473926398914138014e-02,-4.002565768245361366e-02,-1.605991002502686615e-02,1.720971614122390747e-01
1.870186742395578416e-01,3.073122817696234965e-01,3.473317515496263108e-01,-8.545002876028195971e-02,-8.640205210850123579e-03,-7.733436470098047077e-03,2.078333348035812378e-01
3.428369860711925066e-01,2.797541227846745970e-01,3.020332603985297903e-01,1.496846537881510626e-02,-1.273818986897844348e-02,2.966560123292756243e-02,8.288225531578063965e-02
3.380395852195865469e-01,3.147902116800658234e-01,2.538743300408112802e-01,1.461304044358576436e-02,-2.171510381819787006e-02,4.742999127987915231e-02,1.202979907393455505e-01
3.566623790462717380e-01,3.084107770919827241e-01,3.162848141308373107e-01,8.836683420683600493e-03,-6.584595213862004005e-03,2.236953475762688479e-02,6.225594505667686462e-02
3.463248220388235876e-01,3.118498415838667492e-01,3.129516904517186116e-01,6.331783085426336694e-03,-4.675852995410195549e-03,7.265632888766008005e-03,3.867797181010246277e-02
3.403454673110983264e-01,3.238346181021793391e-01,3.318146669948493499e-01,8.472509214243133246e-03,-6.537673445397481839e-03,1.105610177822439165e-02,3.024595603346824646e-02
3.483543948807505397e-01,3.170375126860024428e-01,2.820514070349051106e-01,1.547206640661794030e-02,-1.412005438632971989e-02,2.454829846823330941e-02,8.015341311693191528e-02
3.479311649404701057e-01,3.226965207438574623e-01,3.077680844226081680e-01,4.205880655748893068e-03,-1.024426985359904937e-02,1.370535901088796964e-02,4.655935242772102356e-02
3.408863802465478265e-01,3.295132075362396384e-01,3.264090825084992598e-01,1.241385015796027565e-02,-1.211786131314466705e-02,2.701591503845638190e-02,5.715510621666908264e-02
3.160577212521093471e-01,3.030920171235258476e-01,2.769082417181126243e-01,1.280619670990978606e-02,-1.162347034955571803e-02,2.113376983847310014e-02,5.856970697641372681e-02
2.507544179514729632e-01,3.161838885687021095e-01,3.359425167906758825e-01,-1.289034804220569493e-02,-7.476396089649027521e-03,-9.716216085453721965e-03,8.314807713031768799e-02
1.820214173704828853e-01,3.307288232418765794e-01,3.234124010638729785e-01,-3.219025028756306028e-02,-2.774730199466394695e-02,-3.122655709348006771e-03,1.628712564706802368e-01
2.136246538506211268e-01,2.519814436089942156e-01,3.089296421168121198e-01,-6.573761145844714271e-02,-3.728357441726358468e-02,-3.022504439672573859e-02,1.636271625757217407e-01
2.668112218240041300e-01,2.812964786981503873e-01,3.281040911575435204e-01,-2.650311430992949996e-02,-1.501652611874209134e-02,-1.507256877445972698e-02,8.089546114206314087e-02
2.585169614206731525e-01,3.248366409941350064e-01,3.159593043788818112e-01,-5.469117660633335959e-02,-5.340917358283627653e-02,-3.200553819022831925e-02,1.565005481243133545e-01
2.772890344514103433e-01,3.550546709431066095e-01,3.508506560923004836e-01,-2.208040647566210379e-02,-2.725687745261954828e-02,-1.400901508304775410e-02,1.000921726226806641e-01
2.807157771745675823e-01,3.032331170013626842e-01,3.236940707896210356e-01,-7.545775478072153271e-03,1.749474449535205712e-03,5.837193081629149689e-03,4.084879532456398010e-02
2.893848257916051270e-01,3.245181980906965968e-01,3.104141867193180859e-01,-5.054918277740039559e-03,8.219314494487938577e-03,9.922904931256845695e-03,3.889055922627449036e-02
3.234609757659301921e-01,3.145590602787615708e-01,2.902296066298630794e-01,1.547791075326957790e-02,-1.691404916442960926e-02,1.828525809715103589e-02,5.888760089874267578e-02
3.618508877695646997e-01,3.122690067612544640e-01,3.271348688710585262e-01,3.135805244243009254e-03,-8.455452060792817415e-03,1.750578030541497312e-02,5.572809278964996338e-02
3.558322867907516840e-01,3.201593636717255387e-01,2.869399136141099760e-01,2.240168410132224383e-02,-7.638197920589211848e-03,3.751569767528724342e-02,9.728278219699859619e-02
3.408646037255643191e-01,3.141153464778718707e-01,3.120060194754215033e-01,1.054978506440873431e-02,-7.110745913631717069e-03,8.710853586812982927e-03,3.859551623463630676e-02
3.508441755165886411e-01,3.333519938654464498e-01,3.233153929209510169e-01,1.046365608177831502e-02,-7.072168171042217920e-03,1.170703743763172079e-02,3.836596012115478516e-02
3.406610382591139796e-01,2.854165585077880207e-01,2.965203244156296436e-01,1.286223174280346111e-02,-1.363170292692125578e-02,2.514093095137339209e-02,7.424152642488479614e-02
3.499491770425773307e-01,3.232773514915996405e-01,3.311019977018854199e-01,9.947376238711686663e-03,-8.444152944215879003e-03,9.660022393270311161e-03,3.680521622300148010e-02
3.166896683172480964e-01,3.271212003313075378e-01,2.991754658759785968e-01,1.435787077777108019e-02,1.972924469982330689e-02,-1.126472463431402865e-02,5.258441716432571411e-02
3.349709829603074174e-01,3.424671630528941524e-01,3.015208748152709561e-01,2.350192497964525770e-02,2.291907098184994135e-02,-1.237625434962561465e-02,7.154186815023422241e-02
2.799151788180404554e-01,2.663612985076186379e-01,3.319321806940548347e-01,-3.288741820395157944e-02,1.021050577614790456e-02,1.136691338734190961e-02,8.683109283447265625e-02
3.231388220928393951e-01,3.232939958372893496e-01,3.902057088608578139e-01,-4.282672682569422379e-02,3.748242265046967166e-03,5.508374837260297460e-03,1.006138399243354797e-01
3.079458688576562353e-01,3.250913701024350511e-01,3.598010354147276324e-01,-1.237832341550115269e-02,6.920797309443742565e-03,9.305223524397861559e-03,5.437799543142318726e-02
2.010194994698599746e-01,2.731244277477190563e-01,4.433112685655884455e-01,-1.607552851372563429e-01,-1.900782187758622704e-02,2.740979390295445947e-02,3.567892313003540039e-01
1.346707466560482236e-01,2.874838719946496424e-01,2.943207294074635105e-01,-9.005903301608936262e-02,9.078109622460164840e-02,5.225205726713727516e-02,2.858141064643859863e-01
2.752822669990873661e-01,3.904795380988574927e-01,3.805618654310635174e-01,-1.433277040369862754e-01,4.231871386912139377e-02,2.686825245832149753e-02,2.852947711944580078e-01
3.703925122581192553e-01,3.120446429658542686e-01,4.373758051080622877e-01,-7.107767932936895350e-02,1.839449200426154785e-02,3.001635882255886123e-02,1.751390695571899414e-01
2.237814391561298855e-01,9.891020291888412419e-02,3.336037852605883702e-01,-1.385840714365161874e-01,-2.656836931939610211e-03,1.055934920207565048e-02,3.151820600032806396e-01
2.205666197543828255e-01,1.321723712743914092e-01,3.541363701089765836e-01,-1.331830886599055241e-01,-1.266370106101088501e-02,-5.635186769203979519e-03,3.020774722099304199e-01
3.062514826416208313e-01,3.820944786013629191e-01,4.721259654865391786e-01,-7.602433317366494303e-02,2.687237669635542114e-02,1.841916765866873085e-02,2.030008733272552490e-01
3.576429482594082332e-01,3.005307278273408045e-01,4.105417119742672538e-01,-7.106590324790817981e-02,1.538269957938033679e-02,2.162718001890426983e-02,1.623127460479736328e-01
3.419791205587687233e-01,3.142664461343300797e-01,3.050822910375285413e-01,-4.240617715615548067e-03,1.943193897787438102e-03,4.792893308381102231e-03,3.522854670882225037e-02
3.611068482433405502e-01,3.239254326408402274e-01,3.055733011216515971e-01,-2.946193171894133205e-03,1.030934473810540125e-02,1.681117536747862157e-02,5.995291098952293396e-02
3.322846479268765085e-01,3.219701262176969392e-01,3.014654395518750474e-01,-8.443185329998902089e-03,3.044542682046661244e-03,5.296768676875406728e-03,3.262153640389442444e-02
3.432033490785301177e-01,3.169150331253416386e-01,3.227620602870719946e-01,-7.064202042343718270e-03,7.636338936258410537e-03,9.104290755503591237e-03,3.383591398596763611e-02
3.185610127108091105e-01,2.789702630807627259e-01,2.979421686362582200e-01,-1.439645667855308023e-02,1.091854365140005473e-02,1.624122201258507148e-02,5.428626388311386108e-02
3.271951936345789402e-01,2.551707763215128044e-01,2.878508974376076113e-01,-2.195531170628139267e-02,1.943563528769401416e-02,3.366423546190172589e-02,9.940282255411148071e-02
3.480846162939286170e-01,3.165536313625405551e-01,3.154488765525891858e-01,-2.630232534312848883e-03,4.503437872925975319e-03,5.166844075309370149e-03,3.452453389763832092e-02
3.509578731675568330e-01,3.378986225894858308e-01,3.291496843502767500e-01,-6.485379111876391281e-03,9.137181454322122753e-03,8.566655952428035153e-03,3.095399774610996246e-02
3.633830964840109590e-01,3.306215231324757253e-01,3.189367733734562727e-01,-6.752186572380097611e-03,7.417269244136754855e-03,1.569070495775267554e-02,5.131357908248901367e-02
3.396470230084682740e-01,2.994070190568213774e-01,2.706462031236094856e-01,-1.005091929872375250e-02,9.747973839027975623e-03,2.862802511380818996e-02,8.155121654272079468e-02
3.555069512522235908e-01,3.080493037525031119e-01,3.051365577329687162e-01,-3.152158230465731958e-03,2.742668268580198635e-03,1.521790169840380250e-02,5.608986690640449524e-02
3.302000158728892187e-01,2.548050220572275482e-01,2.761853594234351950e-01,-6.292998280033572237e-04,3.536258919558258121e-03,4.707646278224167369e-02,1.059095710515975952e-01
3.487134117387214460e-01,2.757340364503679808e-01,3.419282345653928967e-01,1.469030100691647370e-02,-4.454437801487847771e-03,3.198644217286618352e-02,9.302251785993576050e-02
3.152983501595848503e-01,2.967555576339215850e-01,3.506241826218507995e-01,-1.942237938973313816e-02,2.034476478366982651e-03,3.588578569967807580e-03,5.856215953826904297e-02
3.601906303558674027e-01,2.353840824089010741e-01,3.660206661477252710e-01,7.399085154219486697e-04,8.821204247802361771e-04,1.360013061822757698e-02,1.299890726804733276e-01
3.852790061845302594e-01,2.614214868183569185e-01,3.631034548057529010e-01,3.716288895664043856e-02,-7.667382193226479452e-03,2.159075294808530943e-02,1.371273845434188843e-01
2.947946667577993618e-01,2.753483133548239037e-01,2.997013613765007189e-01,-1.828836024634840351e-02,1.537311783587897406e-02,1.670916328509904764e-02,5.520536750555038452e-02
3.658374121606255414e-01,2.811315345561492540e-01,3.670775298794003993e-01,1.439240941656049280e-02,-8.527966233614649866e-03,8.429178319845156281e-03,9.129307419061660767e-02
3.517625413802682455e-01,2.724252071132779451e-01,3.436195663055871541e-01,6.639672583221228365e-03,-1.377487394014784497e-03,1.421464400547887801e-02,8.036662638187408447e-02
3.647813029913201111e-01,2.964036537093271972e-01,3.622253121181127633e-01,1.510205850499929219e-02,-3.307293845677059842e-03,4.999311753341797136e-03,7.279611378908157349e-02
3.616856259176521871e-01,2.981306462338337848e-01,3.604170099037408148e-01,2.750130455987097843e-03,-1.370639308526960592e-03,2.199638946396750144e-02,7.375680655241012573e-02
3.245283296145675123e-01,2.916153395020759653e-01,2.914568976757140328e-01,-7.219427819442956681e-03,-7.884867248520204680e-03,-1.031218742056270316e-02,4.183780774474143982e-02
3.491928589330395294e-01,3.111981645794870688e-01,3.075344825751464284e-01,-4.433695014570308152e-03,-4.910377253104405114e-03,-7.285961262438546242e-03,4.343712702393531799e-02
2.828504502036282009e-01,2.617778283341456458e-01,3.317972777310559396e-01,-3.202459765110314549e-02,8.139930149424582165e-03,8.744110736006487777e-03,8.588459342718124390e-02
3.529004248746221983e-01,2.727689409044395941e-01,3.192947049231292800e-01,1.521352156249469213e-03,2.554218810630836355e-03,-9.230231257291193758e-03,7.169121503829956055e-02
3.167949288130877949e-01,3.056575102837523206e-01,3.417036749192192691e-01,-1.616562302330440751e-02,5.331009820090250317e-03,5.501160822952266827e-03,4.451894387602806091e-02
3.061796632992131451e-01,3.022864365645336893e-01,3.297713855072067490e-01,-1.059720528049570842e-02,9.306816599849752208e-03,8.530250680835318317e-03,3.845286369323730469e-02
2.974334449595902319e-01,2.829125605387247666e-01,3.389382089670949227e-01,-2.589705429210696283e-02,1.829696509118148434e-02,1.920153585069321253e-02,8.160020411014556885e-02
3.191008788708645239e-01,3.317155341018040438e-01,3.440615576092375116e-01,-9.568846380141732971e-03,9.409661078842296994e-03,1.051567435594448138e-02,3.659708425402641296e-02
2.944676811794043059e-01,3.128905010176451507e-01,3.300184015677208316e-01,-1.746846035675954714e-02,1.294092903151555264e-02,1.478857300584832633e-02,5.497508123517036438e-02
3.400330869696474023e-01,2.543567700894324712e-01,2.882152737874842385e-01,-1.003059437832730903e-02,-8.022545156697299951e-03,-3.386327649262882433e-02,9.757583588361740112e-02
3.425300607136484432e-01,2.846439026914149295e-01,2.868645199674260682e-01,-8.073480436112639991e-03,-1.472388928583950440e-03,-1.874447776796867721e-02,6.695751845836639404e-02
3.568494849828154347e-01,3.137266644763485601e-01,2.993727494861551097e-01,-2.320859899888833358e-03,-4.004804091787463743e-03,-2.119367676420566560e-02,6.400299817323684692e-02
3.188247831673199917e-01,2.829900155149350227e-01,2.417776389137061832e-01,-1.886451975368709510e-02,-2.353532834520054295e-02,-3.414137222217676626e-02,1.033715233206748962e-01
3.425713189860879471e-01,2.840401347061872750e-01,2.791554344235963048e-01,3.006864033818803725e-02,2.828778026902148759e-02,-4.592463169854840710e-02,1.231902912259101868e-01
3.348200422340136817e-01,2.601416180803958755e-01,1.822049256212707191e-01,6.339377820540182231e-04,2.426717149315127755e-04,-7.448223495044539733e-02,1.847034841775894165e-01
3.496564060624377523e-01,2.633662831000727067e-01,3.020554651145936353e-01,-2.565319365596124921e-03,-3.550179559921423558e-03,-5.112961791229723302e-02,1.162093430757522583e-01
3.561867943390027991e-01,3.309328062330020304e-01,2.608138395595940295e-01,1.625010457182692047e-02,2.039629539395904079e-02,-6.364126849726642332e-02,1.466835886240005493e-01
3.713983852877291714e-01,3.007555593565703900e-01,2.654601322993257462e-01,-7.912635046330731246e-04,2.018589462391421046e-03,-8.391660010270687864e-02,1.728283315896987915e-01
3.419412676918693883e-01,1.861469972827519415e-01,9.430572843058471211e-02,1.062626022158833991e-02,1.046562522816079852e-02,-1.628348297509797371e-01,3.566901981830596924e-01
3.242757823594500377e-01,1.649117643059982985e-01,9.210784397238019894e-02,-3.510546161173640212e-02,-4.879550835205918868e-02,-1.691918889552430916e-01,3.728505074977874756e-01
4.008623624506144068e-01,2.711737368943415438e-01,1.845246610908926610e-01,-6.764477288481218764e-02,-7.245315741124584707e-02,-1.303799745221682627e-01,3.406423926353454590e-01
3.771243822822404335e-01,2.239346315055096293e-01,2.545286607866741879e-01,-2.785568193404889745e-02,-2.649496860055492939e-02,-1.814178843045171075e-01,3.505531549453735352e-01
3.345263963933282070e-01,1.042438138579152435e-01,1.858874469793332929e-01,-2.587955384253219637e-02,-2.583360929119818059e-02,-1.580863534894788036e-01,3.462367951869964600e-01
3.235314672532590974e-01,3.324970662351767747e-01,3.667626594075849567e-01,2.266923233880512728e-02,-2.248604475656728816e-03,8.519013716376724193e-03,5.776067823171615601e-02
3.011239481167282128e-01,2.997534405184277828e-01,3.550188327565958479e-01,1.757307169974773459e-02,1.984029621202667432e-03,-2.975406450714234916e-03,6.281088292598724365e-02
2.912463265536899271e-01,2.893322826959363603e-01,3.394758872581001841e-01,1.689996490068350343e-02,-1.973506468788066234e-04,-9.665529579221704849e-04,5.728711560368537903e-02
2.482754537460130917e-01,2.779096245146021049e-01,3.324399690384860495e-01,4.215862315243393277e-02,4.680832192092949408e-03,-3.108646807207171830e-03,1.043765991926193237e-01
2.785751285951870715e-01,2.970685175853433613e-01,2.964188971279169138e-01,-1.741403655083201968e-02,1.725346027361423368e-02,1.737915524942775305e-02,5.512994155287742615e-02
2.490056601566254801e-01,3.286153010003959318e-01,2.870343822728913530e-01,-1.725433205461732004e-03,3.995950316932673357e-02,6.200686100477504313e-03,9.834118187427520752e-02
3.095727565078977839e-01,3.538572552964848739e-01,3.281084774318602792e-01,-1.024859820336537775e-03,1.976893145772317881e-02,-4.246668809424447924e-03,5.209155753254890442e-02
3.534419983703762091e-01,4.151645517316252532e-01,3.502796300773827198e-01,1.633302953166936326e-03,5.040673696116997060e-02,7.878642626468597421e-03,1.087731719017028809e-01
3.315777233960146009e-01,3.707546569933601877e-01,3.134537254516233107e-01,-1.268907764966212444e-03,1.730698614655761663e-02,1.100433618468410870e-03,5.899502336978912354e-02
3.264350127373308874e-01,3.540046687906864831e-01,3.057270634813609167e-01,-2.172416388645797766e-03,1.759664919096631114e-02,2.372252683677918139e-03,5.215154215693473816e-02
3.677438330040269654e-01,2.680633679426827620e-01,2.991461037088034014e-01,-5.920888894627755143e-04,-6.442216652402833754e-03,-3.590135969041456654e-02,1.086106374859809875e-01
3.420767701681182160e-01,2.908022862748714799e-01,2.583615141492117129e-01,1.897283989603425289e-03,1.549687717582020610e-03,-3.091535972962001014e-02,9.072013199329376221e-02
2.911171404066029145e-01,2.661842941317559830e-01,2.429841086394449179e-01,3.614689695854936269e-02,5.001819926574149755e-02,-5.361988860159196124e-02,1.476105451583862305e-01
3.417920783309627564e-01,3.042816901150932063e-01,2.201521536764224629e-01,3.466803366034037354e-03,4.457181521626048942e-03,-4.591648965548856404e-02,1.343918442726135254e-01
3.379372174130430007e-01,2.959849247009008200e-01,2.913224984734806289e-01,9.102529809231790781e-03,6.811322814429224444e-03,-1.722910685076874809e-02,5.705794692039489746e-02
3.967969244329306311e-01,3.265023381646119383e-01,2.718869841683176913e-01,-2.933745126241990575e-03,-1.804988558214040304e-03,-6.855322768190635907e-02,1.609271913766860962e-01
3.946907381592219544e-01,2.685860334564417751e-01,2.855982003977747263e-01,6.148400775493972903e-03,1.001838881468705526e-02,-8.692102940085871809e-02,1.926831752061843872e-01
3.461355155338279865e-01,3.021534452036706009e-01,2.231155552441942413e-01,5.690152464355079315e-04,-4.871949532815222808e-04,-4.738990215073922430e-02,1.356346309185028076e-01
3.254692614436777154e-01,3.222292117148284896e-01,3.639492108318979069e-01,5.484440359607268417e-02,-9.606012984739021807e-03,1.372673380773375106e-02,1.071527078747749329e-01
3.211229214476928329e-01,3.127071272522009560e-01,3.505268190366727099e-01,1.489031397262915134e-02,-4.471938623508710763e-03,6.357451757940607920e-03,4.504755884408950806e-02
3.366608498619005352e-01,2.670577929597132139e-01,3.468874684680132159e-01,3.326184259389355219e-02,1.561445741492376678e-03,1.232956385160446228e-02,9.717711806297302246e-02
3.518161970771095937e-01,3.063873101214226735e-01,3.628925026413459820e-01,2.068744054644323926e-02,-7.054950900333330395e-03,1.714946571846993895e-02,7.074738293886184692e-02
3.017095379739672123e-01,2.751315763767300804e-01,3.321217399389477798e-01,1.155769139761384998e-02,-5.257502651908742101e-03,3.727666859097355026e-03,5.445122346282005310e-02
3.548461658485967951e-01,2.769292413748916659e-01,3.750158680353739560e-01,1.693232087689669485e-02,1.648930937131346322e-04,-2.577220755166947279e-04,9.439182281494140625e-02
3.268392469161777725e-01,2.666801065006448312e-01,3.352251399660487463e-01,1.184387663195702461e-02,-1.095504970618090684e-02,7.514596185465288215e-03,7.172316312789916992e-02
3.353381344961403054e-01,2.874355037416890246e-01,3.585162993365006989e-01,7.070382223139042889e-03,4.163525416872970557e-04,4.362970829714557346e-03,6.441880017518997192e-02
3.856388939995860077e-01,3.845843229618850501e-01,2.349849477428938571e-01,-2.560498652308511921e-03,-5.015906725685331802e-03,2.718606295307565007e-02,1.576427668333053589e-01
3.520462165971254831e-01,3.634186633903120911e-01,1.041607503375020505e-01,-2.936777008479666412e-03,-7.537821024623772570e-02,-6.594628050105481344e-03,2.856528759002685547e-01
3.936415316235180595e-01,5.055543544791121224e-01,1.723951103425918618e-01,5.653603847445739378e-02,-7.740308016969281446e-02,2.947802744635090802e-02,3.411807715892791748e-01
2.850623439367839240e-01,2.882599896280724772e-01,4.067879574446445212e-02,3.379658346560820981e-02,-7.857820504263995920e-02,6.925562445369889963e-02,3.112141489982604980e-01
3.783688722922866066e-01,3.770648037180123202e-01,2.525311921803614634e-01,2.610338564387479354e-02,-1.197340480931002871e-02,4.803767971592742131e-02,1.583345383405685425e-01
4.771740336100439017e-01,4.263509966327004852e-01,1.476877228908237971e-01,2.526554782057639434e-02,-8.697300056292571468e-02,-1.142205708879612258e-02,3.455402255058288574e-01
2.948679777935735991e-01,3.276142838470813556e-01,3.131792630068543359e-01,-6.113022981121554733e-03,-1.260412131580296996e-02,-8.172455412962088481e-03,3.996326774358749390e-02
3.125769926432283019e-01,3.223042980293345794e-01,3.112824702771686547e-01,-3.665529502630534252e-03,-2.520321918133305774e-03,-4.667613925372553034e-03,1.528439484536647797e-02
2.953396260474047130e-01,2.957297386415448370e-01,2.904996255467690025e-01,-7.390917389472450270e-03,-1.009334576799374508e-02,-8.972489443673448833e-03,2.713828533887863159e-02
3.056242551784467687e-01,2.978020276706870861e-01,3.186479891437328238e-01,-1.224107636442945193e-02,-1.476992076056425282e-02,-9.744536514336321620e-03,4.149133712053298950e-02
3.038246425680249385e-01,3.051827668612269173e-01,3.019881517776291657e-01,-3.983285135342512842e-03,-4.085598772324271558e-03,-3.894881436114318481e-03,1.228404324501752853e-02
3.031955870215423676e-01,3.019403978053094018e-01,3.111312205630833994e-01,-8.587227625325651731e-03,-9.795230250892031365e-03,-9.200598254743057314e-03,2.894001640379428864e-02
3.672879818864639434e-01,3.988997663635064361e-01,2.509122613812702629e-01,-1.488428916357995013e-02,-6.787911769179243160e-02,-4.878592642916435712e-02,1.996221542358398438e-01
2.685408552871158538e-01,2.969785087556515712e-01,3.395749118592107929e-01,-1.014191659656159782e-02,-7.375403160259691362e-04,-3.968016919743251277e-04,6.438303738832473755e-02
3.355224375868194331e-01,3.553557594941592068e-01,9.880267458666003311e-02,-1.501796622281451575e-02,-8.650723587704986506e-02,-3.435797190794459555e-02,2.962989807128906250e-01
2.929365179530578067e-01,3.690775871982867606e-01,2.451993994858743253e-01,-3.706008522181658549e-02,-1.014455665440383847e-01,-4.448121722926928062e-02,2.294357120990753174e-01
2.992625602691689757e-01,3.629542903916561647e-01,1.456294947237373183e-01,-1.930564973800470013e-02,-1.060514789882911757e-01,-2.214357797646059056e-02,2.716151773929595947e-01
3.668078185723295803e-01,3.064014977536574924e-01,3.235943512262013377e-01,-5.919636103346817037e-03,2.353562289737970090e-02,5.293522904687750219e-02,1.143646761775016785e-01
3.446477508465238815e-01,2.930529670464565029e-01,3.116613726171066912e-01,-1.120970875707913428e-02,1.369739006499866643e-02,1.692486027300847684e-02,6.202724203467369080e-02
3.455574522005535054e-01,2.996288825640267550e-01,3.249843251414844536e-01,-1.614376777803865765e-02,1.925173682153239613e-02,1.665709883021539855e-02,6.568045169115066528e-02
3.462643836525947649e-01,3.061828794056585257e-01,3.488299165903054333e-01,-1.193544758272167480e-02,1.736432178431061152e-02,2.276583277906801123e-02,6.784329563379287720e-02
2.905079307355755702e-01,3.039098088362052752e-01,3.011769928975619459e-01,1.555720012191164590e-02,1.818230079287327938e-02,-1.546227864118414862e-02,5.084847658872604370e-02
2.928917442089731815e-01,3.144217499071824684e-01,2.846982772480838864e-01,1.258876135388556708e-02,1.541502434350402843e-02,-1.215371856126763045e-02,4.835822433233261108e-02
3.154056304951668444e-01,3.474953015514163912e-01,3.136017610738274231e-01,5.657438601940917300e-02,5.627165174524430963e-02,-2.381205619744539148e-02,1.479642093181610107e-01
3.140687937639976557e-01,3.266090316041310171e-01,2.743169701843012342e-01,2.829372586183978230e-02,4.635755959350366939e-02,-4.972894404844886707e-02,1.360277235507965088e-01
3.200194386438166561e-01,3.182893590221213542e-01,3.133864321806502651e-01,1.335901950693119296e-02,-1.138135752531146266e-02,1.663856318875358425e-02,4.230881482362747192e-02
3.097234722415629360e-01,3.150023137731832734e-01,3.376471741531905102e-01,2.834482534891128586e-02,-1.354086117307114027e-02,1.005313007213059530e-02,6.263978779315948486e-02
2.736757887608995410e-01,3.037686953412798707e-01,3.028694529601573815e-01,4.424629913242408147e-02,-2.823144841092600776e-02,3.500635512120642279e-02,1.132250651717185974e-01
3.035058331709854507e-01,3.260028183660350631e-01,3.756807403921931243e-01,4.735502584349405436e-02,-3.343368660354111011e-02,3.660521473867112824e-02,1.348790824413299561e-01
3.032835124397010307e-01,3.172568679828003946e-01,3.715479112644916038e-01,6.823365425454497313e-02,-5.105453387456827287e-03,3.067635802921250474e-02,1.441187262535095215e-01
2.582424634517565543e-01,3.273004602010318176e-01,3.311185011672546641e-01,2.346743801663634180e-02,-1.997934673680055312e-02,8.080078163256319140e-03,8.995997905731201172e-02
3.151178857161678892e-01,3.297940321325537605e-01,3.494139352327302328e-01,2.900367987783929180e-02,-1.267415562381672169e-02,1.512436756405829974e-02,6.767611950635910034e-02
3.447175746975695843e-01,3.478107953715494638e-01,3.646322634215654057e-01,6.268016894503287972e-02,-2.193905639792583309e-02,4.150392980533636200e-02,1.369038671255111694e-01
2.941092844964777187e-01,2.587764430837858343e-01,3.426130657683127412e-01,4.205161367274114215e-02,-4.069096360502604676e-03,1.765987798894300131e-02,1.077269911766052246e-01
2.899567981648002446e-01,3.064401692383196818e-01,3.430658219534605258e-01,1.817178839716705741e-02,-9.275534047309887120e-03,1.274441886567196161e-02,6.287179887294769287e-02
3.026160261472413127e-01,2.892530109383762427e-01,3.257354614585897812e-01,2.190435757011691131e-02,-1.427154423844480269e-02,1.633391341125676327e-02,6.223220750689506531e-02
3.808574275518198937e-01,3.375849625305369917e-01,3.601161075982278748e-01,3.626012225058823646e-02,-1.997006175561813479e-02,5.181094566665555429e-02,1.208267435431480408e-01
3.345944768859692720e-01,2.768194174118273065e-01,3.312062233110528164e-01,1.833459256237574345e-02,-2.648463662428117427e-02,4.068398610571947321e-02,1.059812307357788086e-01
1.732095019173752748e-01,3.305958730045140403e-01,3.410641723138487791e-01,-3.206486692563420560e-02,-1.105255432742055163e-02,2.370741103949750277e-03,1.731918752193450928e-01
3.334759737102531152e-01,3.312040376204634651e-01,3.369178598774797972e-01,-9.699550378239898962e-03,9.813210600291704527e-03,1.159162767817048002e-02,3.160801529884338379e-02
2.834017028495224855e-01,3.170869698174029194e-01,3.024066281796384259e-01,-1.717483472536291203e-02,1.945752878485955406e-02,1.949899240499046796e-02,6.338013708591461182e-02
3.114667977605131144e-01,3.387014320846497561e-01,3.141849105895230809e-01,-6.745790962631613083e-03,6.691196917204301174e-03,9.577840245474842501e-03,3.494460135698318481e-02
3.034006439619984508e-01,3.061952020655547835e-01,3.397753571375556336e-01,4.628551091819034860e-03,-9.569589237022511300e-04,2.847860738623177613e-03,3.634043037891387939e-02
2.996285105305183105e-01,3.399650732445659296e-01,3.044975723550445434e-01,-7.168843743532640235e-03,1.788717999063301617e-02,9.151205163024346556e-03,5.309998989105224609e-02
3.448848769331755437e-01,3.803500230567546381e-01,3.468121366327458488e-01,-9.574854122050453775e-03,2.627425621385768087e-02,1.755508218805029719e-02,6.681112200021743774e-02
3.137168259563078432e-01,2.688278425483648926e-01,3.195223704157084121e-01,-2.310102686056874494e-02,-1.876533419041999731e-02,-2.420838977464996947e-02,8.200521022081375122e-02
3.270969287148297044e-01,2.829964185987412506e-01,3.076762319412103541e-01,-1.623804419569337826e-02,-1.523407529142911318e-02,-1.611718821992237649e-02,6.109092012047767639e-02
3.117015863174242285e-01,3.213432800065714745e-01,3.155069496848840194e-01,-7.004421939334146315e-03,-8.120480216357004594e-03,-9.620382090278097736e-03,2.633287943899631500e-02
3.147440935208727919e-01,3.065416427051715909e-01,2.938417888132375810e-01,-1.175975996195602162e-02,-1.023122047710258928e-02,-1.118971461322951222e-02,3.791141137480735779e-02
3.017445681130501711e-01,3.437893099184885504e-01,2.956877037154910237e-01,-1.295833194319162573e-04,-2.027428794290533909e-03,3.669551899338899855e-04,4.551802948117256165e-02
3.060275121552806232e-01,3.179888167937201526e-01,2.845435420028207818e-01,-1.182211942878742990e-02,-6.075742890768811438e-03,-4.929853128642907624e-03,3.826946392655372620e-02
3.167370131430101154e-01,3.133223591001697006e-01,2.934556613430073235e-01,-1.372072295815889367e-02,-1.173046836865575780e-02,-1.106067766130610849e-02,4.264722391963005066e-02
2.936370759602372482e-01,3.107484427886387790e-01,3.082320771880897037e-01,-1.100845875091996037e-02,-1.415394780851069075e-02,-1.535263004378112361e-02,4.390607401728630066e-02
3.214825678901771511e-01,3.092811266467745401e-01,2.854592679670115429e-01,-1.378794718509873153e-02,-1.239227170688150109e-02,-1.543160186958788573e-02,5.246377736330032349e-02
3.160434765060006757e-01,3.018693330201092651e-01,2.766991058224683719e-01,-9.762472239402221474e-03,-6.357158381505037537e-03,-5.803833080044980622e-03,4.122407734394073486e-02
3.003166542241568759e-01,3.094603610825770734e-01,2.837397345081982269e-01,-1.545646234424285885e-02,-1.763535010265378233e-02,-1.644682807050657641e-02,5.450865998864173889e-02
3.396266835653540817e-01,2.895251568425729616e-01,2.913499591757488516e-01,2.030954471356745915e-03,7.346509639081557892e-05,1.863925670073810631e-02,5.896374955773353577e-02
3.618753846676904806e-01,3.132207245709111576e-01,3.361846680336381676e-01,5.131360933232031324e-03,-2.239499274499837621e-03,2.123515689100399437e-02,5.678160116076469421e-02
3.604102195544541254e-01,2.626053918944286636e-01,3.007198167454354643e-01,1.876098808199614526e-02,-1.091823774794812955e-02,4.153331247623175126e-02,1.178105026483535767e-01
3.726537278159516853e-01,3.368402044328094314e-01,3.210644401202070175e-01,7.155970585556234789e-03,5.308612447928998460e-03,5.494033143831792559e-02,1.067237406969070435e-01
3.754532669790552890e-01,3.200449849552998716e-01,3.431572553308895879e-01,4.694747078865389028e-03,-1.470628961760346576e-03,2.118112135313644437e-02,6.117330864071846008e-02
2.504218562613893528e-01,4.128602699779306828e-01,3.573737142106629960e-01,6.990632371824487962e-03,-4.629451817224186638e-02,2.621042401171048281e-02,1.705548614263534546e-01
2.886672251746303375e-01,3.740988337118873464e-01,3.381311344394142826e-01,-1.123810304606538343e-02,-2.980841456576256016e-02,-9.551693100885064180e-03,9.400888532400131226e-02
3.506732213107622842e-01,2.950972246755299566e-01,3.173888830344768763e-01,-1.521804767579595236e-02,1.540148534825065522e-02,2.289411348079453332e-02,7.297625392675399780e-02
3.050792245089328780e-01,4.200145416772257390e-01,3.675196842004498921e-01,-2.261366352429055107e-02,-7.668614650989175052e-02,-1.625275431724379493e-02,1.729196608066558838e-01
2.992808643679938929e-01,3.415291272120403177e-01,2.941015681484958066e-01,-9.385306619342337993e-04,-2.330323178912986452e-03,1.210933349096375940e-04,4.527178779244422913e-02
3.443248715890150913e-01,3.129382912130325711e-01,3.040362602384591995e-01,-9.636181177402638326e-03,2.847510821811732179e-02,2.111562507694839455e-02,7.343323528766632080e-02
3.373894696640264979e-01,3.627873542556592223e-01,3.355816969397477645e-01,-2.232707113461310927e-02,3.389195435613558127e-02,3.124793285931374773e-02,9.254740178585052490e-02
3.482821460874700459e-01,2.862980655569317134e-01,3.142232217601050315e-01,-1.595904527355787236e-02,2.650489453232037634e-02,3.920722967356066180e-02,1.018535569310188293e-01
3.145704822426900749e-01,2.965882099494505098e-01,3.235321771111574485e-01,-2.939838851326705832e-02,1.937836937626543493e-02,1.375538803070107396e-02,6.965498626232147217e-02
2.471477259044657093e-01,3.845484899733817019e-01,3.266211519869400282e-01,-3.279013097338236149e-02,-6.065174682093921882e-02,-6.332434169564710863e-03,1.692839860916137695e-01
3.244065676636974094e-01,3.429452448016601651e-01,3.345880740593416003e-01,-3.002690865811000545e-02,4.747464816921969505e-02,5.570334537136056169e-02,1.379621475934982300e-01
3.179291337172859278e-01,3.239026438320577461e-01,3.516603235550914142e-01,-2.727998662300596192e-02,1.792830671006404725e-02,1.673969568956682960e-02,7.077782601118087769e-02
3.246202931037461825e-01,3.298074200204660356e-01,3.449254097033334632e-01,-2.225912630898894962e-02,1.332296849418879332e-02,1.481746242418898428e-02,5.487677827477455139e-02
3.063081645062495362e-01,2.468194178253412530e-01,3.016848893418109800e-01,-3.260257612037537056e-02,3.154246182645677188e-02,4.170552858905089699e-02,1.211481392383575439e-01
3.542750172381480267e-01,2.735008374305903378e-01,3.244173067086002504e-01,-4.383166155937931463e-02,3.127107266500216837e-02,4.244516853988735544e-02,1.382254660129547119e-01
3.064902756921030202e-01,2.867229267010244498e-01,3.275606501776860968e-01,-1.908186435371908574e-02,1.561863552078427905e-02,1.634598760794623781e-02,6.226528808474540710e-02
3.266318842616603435e-01,2.859283856481783515e-01,3.086217556706616905e-01,-1.205927770197678418e-02,1.370980092680343897e-02,1.956521824765605766e-02,5.828046053647994995e-02
3.046205021761025922e-01,2.908287692545119540e-01,3.260902907526571082e-01,-1.903915908317093189e-02,1.335267027164474193e-02,1.465530688387513790e-02,5.669173970818519592e-02
1.319979684634695616e-01,3.230705265872617638e-01,2.393799586325020268e-01,-5.650081259644745141e-02,-1.296322532710702524e-01,-3.497240159624921685e-02,3.019630014896392822e-01
3.593688938955102996e-01,3.178986304800196505e-01,3.554502118368836339e-01,-1.629480391892526581e-02,1.830108727783059247e-02,2.220842105923372112e-02,6.966795027256011963e-02
2.802739032131771335e-01,3.163272820450060419e-01,2.989253273662939581e-01,-1.827363080638102349e-02,1.793074604793785248e-02,1.884155506899254373e-02,6.329770386219024658e-02
3.065419690411625986e-01,3.037437138751948873e-01,3.124420179735568626e-01,-1.732678693258665054e-02,1.593276752128509888e-02,1.804894207506857820e-02,5.194858461618423462e-02
2.948706974004103309e-01,2.982762110073323703e-01,3.387492888994907969e-01,-1.906891224440073048e-03,-2.136723049861638350e-03,-1.263421371751590047e-03,4.262503236532211304e-02
3.369119022695366006e-01,3.418406367820108760e-01,3.002420081194523416e-01,-8.943998179507962193e-03,2.254977041958850653e-02,1.155837911282752220e-02,6.095867231488227844e-02
3.467283914612222517e-01,3.631000556392100509e-01,3.435791564262939413e-01,-1.535995263157471924e-02,2.552185911545190936e-02,2.337280595852708753e-02,6.804595142602920532e-02
4.158180797732325962e-01,4.153196602907689439e-01,6.131406809981367889e-01,-1.529709712452016479e-01,3.598138788123377008e-02,2.089506049933543413e-02,3.382734954357147217e-01
3.299685315076599790e-01,3.154618855624782836e-01,3.308575452008571394e-01,-6.874115124693105754e-03,8.310293272941681256e-03,7.426055541435042616e-03,2.717557549476623535e-02
3.467252024542211708e-01,3.580715658079772767e-01,3.188253931523855056e-01,-1.184648422428396380e-02,1.914977284868408028e-02,1.749411345198603404e-02,6.052265316247940063e-02
3.695587987060319768e-01,3.443821252254630205e-01,3.527509619630998516e-01,-1.578730447931841682e-02,1.871929299755163700e-02,2.505814906962864144e-02,6.462111324071884155e-02
3.279685526226124304e-01,2.754107947172210191e-01,3.089913065347856813e-01,-2.630006181043668609e-02,-1.501862135051839492e-02,-3.056489324742786215e-02,8.763245493173599243e-02
3.287787155398253502e-01,3.273148147004854014e-01,2.895109016652867018e-01,-9.079303814341103604e-03,-1.483519348217445487e-02,-1.538181315043160233e-02,5.571329221129417419e-02
3.425110347864644966e-01,3.726678108110746401e-01,2.493957521036710423e-01,-3.158665531807769433e-02,-4.438643876464795635e-02,-3.262631207196638183e-02,1.564768105745315552e-01
2.983979161589215279e-01,3.382673811504532391e-01,2.185060254231297461e-01,-1.957983753748140932e-02,-5.342209695359029231e-02,-2.812549002303867812e-02,1.524550318717956543e-01
3.133679684420972444e-01,2.964745866144314901e-01,3.232443088317448199e-01,-1.088428778438182629e-02,-1.161854592067750741e-02,-9.398138087925216044e-03,3.968782350420951843e-02
2.905208532495694995e-01,3.102244959988494366e-01,3.048214123709324097e-01,-9.038717483791335050e-03,-5.753605818510337810e-03,-5.915237430515347603e-03,2.757433056831359863e-02
3.288628812731503315e-01,3.125042219297016199e-01,3.138329806595964722e-01,2.798594966912419223e-03,4.808078654994935378e-03,-4.261428611114078877e-03,1.987368054687976837e-02
3.063823333631173762e-01,2.684991095779391546e-01,2.970736191915130942e-01,-1.880512684750477309e-02,-1.551113403826320271e-02,-1.859667411405008935e-02,6.316122412681579590e-02
3.182510816593075442e-01,2.914767359309866634e-01,2.989016652592546563e-01,-1.111927514995576793e-02,-1.241418352828804576e-02,-1.067506356616297614e-02,4.181290790438652039e-02
3.046937905871061059e-01,3.239164290676282976e-01,2.856646070184293285e-01,-3.385574565155588522e-02,-3.765346872173926801e-02,-4.673598356395947812e-02,1.238634437322616577e-01
2.762411177164134646e-01,2.784310369590646261e-01,3.285146201293725476e-01,-2.122834602599438583e-02,-8.016345414490323382e-03,-7.769450933094778321e-03,6.594426929950714111e-02
2.966706156680591899e-01,2.899731971731172586e-01,3.485855819805368516e-01,-4.654019860702230532e-02,-1.340653062473152850e-02,-1.642425336611159220e-02,1.045665293931961060e-01
3.565120265884111905e-01,2.210496309340340415e-01,3.584248264582998722e-01,-3.443323543661300223e-02,-9.978695042117471936e-03,-2.846458700868612079e-02,1.577947884798049927e-01
3.316434243157093675e-01,2.746994910686390012e-01,3.769312619009329013e-01,-3.361964477165416826e-02,-1.074221640867642491e-02,-1.140486639047103880e-02,1.095431745052337646e-01
3.263481486063125603e-01,2.445619861321972899e-01,3.423026103499540174e-01,-3.621801528444575091e-02,-1.099476442807715421e-02,-2.039867749216392467e-02,1.174503415822982788e-01
2.515261751462022910e-01,3.378650699965274340e-01,3.719600211151582458e-01,-9.514216468546982108e-02,-8.949191127410456581e-02,-3.380658588095140915e-02,2.572386860847473145e-01
2.956214138019164772e-01,3.512370079206398876e-01,3.856047941529880396e-01,-4.751093834102853436e-02,-2.975310163444881348e-02,-2.097461468322307787e-02,1.301269978284835815e-01
2.338381108695180011e-01,2.279268536084553542e-01,3.470603802356341805e-01,-7.861080876447423815e-02,-7.199966583468359917e-03,-5.256177308695858703e-03,1.797244846820831299e-01
3.324029792138372130e-01,3.318714289222182701e-01,3.376138704532691270e-01,-2.499127305538740434e-02,-3.244906461196640779e-02,-2.791011155344364295e-02,8.602119237184524536e-02
2.530999495600009808e-01,3.127618660060553224e-01,3.400350449155473131e-01,-9.254472728160038908e-02,-4.061316967298157082e-02,-4.019653975015446273e-02,2.035182863473892212e-01
3.642527378823311457e-01,3.479844815382044376e-01,3.877346573898333704e-01,-6.835288031169078904e-02,-5.585598919835427223e-02,-5.472162208870027383e-02,1.831869482994079590e-01
3.066597817209154586e-01,3.284891180369305386e-01,3.044497297051220186e-01,-2.417319606801691251e-02,-2.721439944825817733e-02,-2.370568214959553957e-02,7.867927104234695435e-02
2.907426353964212562e-01,3.325768946010557725e-01,3.027176174172873102e-01,-1.722701142940749174e-03,-9.252868702483836539e-04,-7.310411828824853533e-03,3.955172374844551086e-02
2.681436447926900946e-01,3.225500484635228649e-01,2.904724299602892135e-01,-3.104510515244052714e-03,-1.014381099690485170e-02,-1.100331037221155550e-02,5.426440387964248657e-02
2.631509956094749692e-01,3.361305535720484627e-01,2.888098884699609181e-01,-2.003862538574333052e-03,-1.685942320097321562e-02,-5.302647718658850054e-03,7.114028930664062500e-02
2.991662179815925970e-01,3.338133184618521376e-01,2.954152405481378363e-01,-7.060003747143896689e-03,-8.276026097120225619e-03,-6.518290804389669825e-03,4.274254292249679565e-02
3.012920047193047290e-01,3.392328782630166795e-01,2.994576350974995638e-01,-3.649332473661129773e-03,-5.836629073536920773e-03,-4.982224026473285744e-03,4.158234968781471252e-02
3.135987767420844730e-01,3.176786389045104797e-01,3.128568544073648261e-01,-5.977061478912063311e-03,4.543243171331780121e-03,6.434609058568302974e-03,1.770689710974693298e-02
3.152124721253615203e-01,3.141091528869329741e-01,3.095932194013800709e-01,-7.751340510663582394e-03,5.701303692234051777e-03,4.733041703606005388e-03,1.927596889436244965e-02
3.267917622764499597e-01,3.211621752117743700e-01,3.147075758153076719e-01,-4.376059537115706798e-03,2.331453521715650540e-03,3.960905455269754863e-03,1.518268324434757233e-02
3.189578909541150864e-01,3.201131628480771707e-01,3.141787222291252402e-01,-3.130246154769974337e-03,8.153677474229726902e-04,2.304459528847823194e-03,8.775975555181503296e-03
3.216311447873577145e-01,3.209091789416793628e-01,3.190781948202302543e-01,-2.661374140322916686e-03,2.117758093057408100e-03,2.948763629995027145e-03,8.123097009956836700e-03
3.820188965576105655e-01,2.897082280297160195e-01,2.712785534032915447e-01,2.152254709863419407e-02,4.495618895269041029e-03,-6.354223325638130859e-02,1.553232371807098389e-01
4.367355930038502310e-01,3.014326736157972308e-01,3.433694786518605158e-01,1.426532042600247782e-02,-4.141293493189960977e-03,-7.394931662526665894e-02,1.773664504289627075e-01
3.402206475348945602e-01,2.731715997942917862e-01,3.022309253077505309e-01,1.108376436072596935e-02,9.457441153496386199e-03,-2.627390750714370116e-02,7.809899002313613892e-02
3.708715499986885433e-01,3.355922700121957702e-01,2.699118609569023941e-01,-1.985629723998641114e-02,-2.753803507583781757e-02,-8.058951812622763833e-02,1.755493134260177612e-01
3.612281368290119477e-01,3.284077042880649833e-01,2.704938187402640137e-01,-5.008887673881341415e-03,-4.702211262088054795e-03,-3.399598658277966368e-02,9.970325231552124023e-02
3.564392426884217535e-01,2.459662008823260138e-01,2.945104024378526475e-01,-2.383789698875245309e-03,-1.359137065776067077e-02,-8.065290866441944539e-02,1.711254119873046875e-01
2.945660016253318081e-01,2.945531245280051391e-01,2.772992082837174022e-01,-2.251822056327684035e-02,-2.209627872823164557e-02,-2.890438680143283048e-02,7.609374821186065674e-02
3.232586486252488900e-01,2.412581951937228242e-01,2.712835797390765191e-01,-1.225915039351632013e-02,-1.046897727450956869e-02,-3.378177553154530777e-02,9.678216278553009033e-02
3.456746421941292446e-01,3.370574430349592698e-01,2.768169659315590780e-01,-5.861431096741195196e-03,4.873842742762842309e-03,1.228184288904159496e-02,6.963575631380081177e-02
3.612644228156545734e-01,3.527585889068444169e-01,2.824821754552514497e-01,-1.407193670558066871e-02,-2.512333862837428516e-02,-2.545937908571319075e-02,1.002049297094345093e-01
2.601262591319452033e-01,2.801291962773806987e-01,2.687000581430536439e-01,-4.969084797606144327e-02,-5.395225163176411293e-02,-4.716725283292286242e-02,1.520409584045410156e-01
3.563968667933982704e-01,3.743093232659898684e-01,2.903211002685844866e-01,1.436906434474265757e-03,2.835584591233606885e-02,-1.678779405344141913e-04,9.104330092668533325e-02
3.156308974916509635e-01,3.210129917945186429e-01,3.249066329691690513e-01,1.430684858879097582e-07,7.827556062174109014e-04,-4.350905716238822447e-04,8.215190842747688293e-03
9.396728465335918434e-02,3.496493054046061477e-01,3.360979267009122640e-01,-5.203251796766951431e-02,-6.842473137231512570e-02,-1.172501042546545899e-02,2.909854054450988770e-01
3.464451957328652520e-01,3.756717917116266237e-01,2.714688274393304290e-01,2.708789587820681008e-02,2.884395657325599521e-02,-1.611055665079301827e-02,1.189234554767608643e-01
3.266949197214571443e-01,3.473615233110007861e-01,2.655463658511668656e-01,6.316029445838642828e-03,6.907763366193454824e-03,1.267590803442728876e-03,7.548268139362335205e-02
3.310492270449702512e-01,3.466514561667278227e-01,2.480508597631202738e-01,5.593127443545527384e-03,1.299374966941862532e-02,-1.710359797466566795e-03,9.505922347307205200e-02
1.639007375285502777e-01,3.861128930044968044e-01,3.978832547003033904e-01,-3.018661697784149126e-02,1.801074138789697868e-02,2.072476875671094496e-02,2.390140295028686523e-01
3.140856457964434911e-01,3.488730964083358588e-01,2.859817590953039890e-01,9.354602227525179309e-03,7.547873433154593005e-03,-5.478698304773386811e-03,5.917045846581459045e-02
3.043286986945954453e-01,3.284685010890517898e-01,1.385922577119561017e-02,8.423740611871698147e-03,8.827904361098883046e-02,2.065047294889048486e-03,3.399593532085418701e-01
3.052058801712964065e-01,3.065713005390584556e-01,3.179032628459021459e-01,-1.922029205647909911e-02,1.427560878638064329e-02,1.572839457214210424e-02,5.106403678655624390e-02
3.216336689884419786e-01,3.200567946118865192e-01,3.237184858123531850e-01,-8.084700718925532173e-03,7.054350891854022955e-03,5.944017119574951727e-03,2.148239500820636749e-02
3.242449470398731659e-01,3.163582869243408147e-01,3.352907345138910200e-01,-7.840908723345741543e-03,6.485089368468577135e-03,1.024481549610997688e-02,2.994662895798683167e-02
2.997984381437289736e-01,3.451804780566999908e-01,3.186279813278959927e-01,5.107602568370339657e-03,-1.440662895626867133e-02,8.432888053640244519e-03,4.973745718598365784e-02
3.116082808224003298e-01,3.255967997651073031e-01,3.326625616274014319e-01,-3.367342542845508293e-03,4.224218934128411845e-03,9.049798617244014104e-03,2.603245712816715240e-02
3.260996560076629969e-01,3.113493046371265116e-01,3.217098473041930529e-01,1.195250754666589595e-02,1.055552729767272879e-02,-9.067877015586355352e-03,3.437464311718940735e-02
3.056214696387725693e-01,3.338812416675207562e-01,3.187392341696398401e-01,1.497998944171618531e-02,1.805822515244131718e-02,-1.774683745976710775e-02,5.653613805770874023e-02
3.129108802559833480e-01,3.529858650029752964e-01,3.213455175533491692e-01,7.198226871654974171e-03,1.726243113944781610e-02,2.204522463651590095e-04,4.887425899505615234e-02
3.141955842461244819e-01,3.656789456802223004e-01,3.241551817154173509e-01,4.181633060132940866e-03,2.180279735581709677e-02,-3.316574988556711401e-03,6.122515350580215454e-02
3.013284456715326631e-01,3.447995035220188798e-01,3.076868838080183965e-01,6.257535362485732236e-03,1.255998409262807508e-02,-2.115921005893045374e-03,4.751753062009811401e-02
3.293015329201696706e-01,3.641846312928252449e-01,3.051176526731302352e-01,9.327816957706866127e-03,1.784216433806555188e-02,-1.120471719305618855e-02,6.509984284639358521e-02
3.179153752435051605e-01,3.306797724856171405e-01,2.980010322982306059e-01,1.877988788481138593e-02,1.529081317138788858e-02,-1.658676442363268833e-02,5.829706043004989624e-02
3.355939751064884180e-01,2.174667773424407424e-01,2.964286110257289830e-01,2.159175807219293475e-02,1.830157370285929314e-02,-5.469432686715796493e-02,1.491285711526870728e-01
3.751596541232647963e-01,3.352682188608089309e-01,2.813145315103176558e-01,4.391558463849144583e-04,-2.133670323662169711e-04,-3.008740280377926457e-02,9.680438041687011719e-02
3.562200530682623767e-01,2.593180962659712985e-01,2.879360206242540521e-01,-1.663375647892981202e-02,-3.679198900607363876e-02,-7.484344768062371756e-02,1.706794202327728271e-01
3.694171498491247707e-01,1.703181371769817987e-01,2.432726061605477441e-01,3.118367505884685198e-02,1.911465301532111818e-02,-1.180508335385008212e-01,2.761502861976623535e-01
3.503807329352774946e-01,2.377790325073144140e-01,2.794090598823759652e-01,-1.170435077919826546e-02,-1.003272408931213909e-02,-8.037173577859789420e-02,1.726742088794708252e-01
4.069060540043304419e-01,2.608336616291612176e-01,3.615365497872186085e-01,1.717307816196862215e-03,8.473468337475458662e-03,-3.873290818363435417e-02,1.466058194637298584e-01
3.098503188661064778e-01,3.505584058304683781e-01,2.038688550145939804e-01,-2.047243003116117413e-02,-5.935276967423187139e-02,-1.922506006603554030e-02,1.736028343439102173e-01
2.997793308433385207e-01,3.251485722050159177e-01,2.540069519404471454e-01,-1.765741256243357621e-02,-3.504785085914702281e-02,-2.200296733921797143e-02,9.986350685358047485e-02
2.516958973133117672e-01,3.369778937984707623e-01,2.457149800612673796e-01,-2.247479259700623649e-02,-8.303568969818682366e-02,-3.311813494588650847e-02,1.825086623430252075e-01
3.251596311927699712e-01,3.721412539902195227e-01,2.747673190200852211e-01,-3.253235228654875050e-02,-8.381243685733744120e-02,-3.059115354444574136e-02,1.848520040512084961e-01
3.083056441711229945e-01,3.233734986062509753e-01,3.142792600639494616e-01,-7.020292331597210653e-03,5.410894599282905712e-03,4.138084649822993365e-03,2.144231460988521576e-02
3.114700945389543563e-01,3.277152839257386208e-01,3.334581768775334298e-01,-8.017116342864862716e-03,6.476226171070914236e-03,8.579292360192055517e-03,3.049001656472682953e-02
3.110337696997673151e-01,3.299309566119750237e-01,3.122170167288016440e-01,1.422700033744155089e-03,9.251504078451862432e-04,-2.473881402108649152e-03,1.905633509159088135e-02
3.073589833771881996e-01,3.115041807237874938e-01,3.371785200752041578e-01,-6.265980036852944295e-03,4.686844191677468074e-03,3.341524086397483148e-03,3.162220492959022522e-02
3.018212983390342607e-01,2.924456595449629881e-01,3.266761051429860063e-01,-1.860130482794538492e-02,1.160289853089199394e-02,1.049989078037027665e-02,5.207056924700737000e-02
3.271684570031472283e-01,3.162129278408185029e-01,3.422568239522938427e-01,-7.941377908170409866e-03,8.836437542078183494e-03,8.856354397119022004e-03,3.423058241605758667e-02
3.098463758320709749e-01,3.218996578300697964e-01,3.320053774601945396e-01,-1.044910086289321804e-02,7.176488733102098089e-03,5.527273900468419529e-03,3.070706129074096680e-02
3.011983393950560806e-01,3.055171970404397808e-01,3.224317304491896019e-01,-7.017022133344427877e-03,4.977108615820693971e-03,4.362285423206779117e-03,2.563054114580154419e-02
3.234083343372981534e-01,3.563840388142019422e-01,3.073499680778372101e-01,1.787762799887167992e-02,-1.843943107685836608e-02,2.108196248757152058e-02,7.202095538377761841e-02
3.429156410868453020e-01,3.438922873731663499e-01,2.795413742160742232e-01,9.429731039678071816e-03,1.312234195165434998e-02,-5.340994934497806344e-03,7.034253329038619995e-02
3.020616862536035785e-01,3.462475800758908484e-01,2.737304068999464324e-01,5.209836254603496947e-03,-1.998613596368994244e-02,1.044916265535779463e-03,7.273195683956146240e-02
3.605224466592050758e-01,3.712930100468809225e-01,2.859093078304739688e-01,1.075332953001928958e-02,6.191127808665270425e-03,3.619095737679957825e-04,8.336088061332702637e-02
3.126983807303324037e-01,3.875140175177754776e-01,3.491206371841870104e-01,2.797498973593883290e-02,-3.734636173740397969e-02,2.208563556096670988e-02,1.104281842708587646e-01
3.681034741672942201e-01,3.358084319023304509e-01,2.573989385246414630e-01,3.539660722605129407e-03,-4.005206737587347840e-03,-1.864633354206286786e-02,1.041730567812919617e-01
2.563388569642371384e-01,4.069498111641893234e-01,3.840799830887288713e-01,3.738783129155372198e-02,-4.907524344474577249e-02,1.993838121587791085e-02,1.799264997243881226e-01
2.024995604459061682e-01,3.355692557247359487e-01,3.220266999885567638e-01,3.194918241419654470e-02,-3.257382837927665087e-02,9.081077123910126850e-03,1.502719223499298096e-01
2.166329959872169142e-01,3.681883404509255775e-01,2.961724285638220322e-01,3.364761320214591789e-02,-7.435012084904556173e-02,1.890756151209122340e-02,1.956877857446670532e-01
5.973779650813918485e-01,5.576286628481965657e-01,2.459612069803003287e-01,3.247129907515961672e-02,-1.837174546984658534e-03,-4.761641326867511320e-02,3.479661345481872559e-01
2.927473290958172436e-01,3.658635959336027921e-01,4.051936566051556055e-01,-6.221498793192973414e-02,5.151917282894410977e-02,3.492551717883243811e-02,1.816663891077041626e-01
2.684377876767659599e-01,3.315741789665558326e-01,2.848050834313718416e-01,-2.082336104184733666e-02,4.978072073509801770e-02,2.450726717298760612e-02,1.172933802008628845e-01
3.173813354840777090e-01,3.629148051728469659e-01,3.457080736883969552e-01,-1.557521443169310356e-02,6.691739346691152890e-02,2.935020364006375032e-02,1.353948414325714111e-01
3.097002037313137945e-01,3.600707522935271410e-01,2.982457183732769579e-01,-3.473252829355997356e-02,5.502003584426991278e-02,2.337508302458282672e-02,1.326092332601547241e-01
2.509954769563948473e-01,3.045610304951406055e-01,3.177904357572963190e-01,-4.953570976249108831e-02,1.951346000569872952e-02,2.044938722513043455e-02,1.162374466657638550e-01
3.351484396262680576e-01,2.861452009879462688e-01,3.328696043475707356e-01,6.981021678365302574e-02,6.582479710119129579e-02,-3.357163812039551387e-02,1.824694871902465820e-01
2.897798838693287915e-01,2.951115790658511151e-01,2.824456601436072245e-01,3.575363848022665436e-02,3.952573986040817944e-02,-3.252068665856276686e-02,1.087010875344276428e-01
2.791234238016546687e-01,2.133052663079428868e-01,2.447767565604649365e-01,5.807632838943557751e-02,4.819850470961174749e-02,-6.190843290216126865e-02,1.784290224313735962e-01
2.775710501046155243e-01,3.205905117734551557e-01,3.185825242306661309e-01,3.495510359429000735e-02,3.904152592484215478e-02,-1.559549795983716444e-02,1.036160364747047424e-01
2.678692299109049491e-01,3.175566484175117998e-01,2.985919552365101093e-01,3.439584702287100393e-02,3.498939346838358944e-02,-1.819574211482155590e-02,1.005059406161308289e-01
3.333542381869147309e-01,3.687557843475466890e-01,3.207887981557822066e-01,4.799278423948635103e-02,3.789575556457008831e-02,-3.252152628568359682e-02,1.274642348289489746e-01
2.960803606062628046e-01,3.230068698056533516e-01,2.942872162803464309e-01,2.869430717036363862e-02,3.947068954036980770e-02,-2.699118624419267684e-02,1.005286201834678650e-01
3.618466635974036394e-01,3.060276717963582027e-01,2.751767903657055259e-01,-5.338276706080665596e-02,-5.754934889311911356e-02,-8.263062074697488657e-02,2.115608751773834229e-01
3.613550945779662738e-01,2.966821962743026453e-01,3.015880373085371158e-01,-5.800919610682861785e-03,-1.556032652789556339e-02,-3.301181735347657326e-02,8.936464786529541016e-02
3.966114668695050471e-01,2.825686854879359555e-01,2.090162479678541740e-01,-1.112931250436600787e-02,-9.103804229624829630e-03,-9.367786221354160170e-02,2.318419516086578369e-01
3.842700856612717430e-01,3.423654318418402065e-01,2.797473628920852939e-01,-7.598152103644680889e-03,-1.330334114404951688e-02,-3.519952893605857169e-02,1.127925738692283630e-01
3.489598895373803855e-01,3.489202674137927285e-01,2.685356414772268052e-01,-2.053019961908679469e-02,-2.881572353648555532e-02,-2.255812179419668106e-02,1.083835139870643616e-01
3.358293233163733849e-01,3.056565962989564733e-01,2.743545981160855907e-01,-1.595967290357909463e-02,-1.429511095818550986e-02,-2.369770209355443261e-02,7.678934186697006226e-02
3.261616387670790984e-01,3.105143128172950240e-01,2.915759093810394997e-01,-9.571252081760968367e-03,-8.312018668498502225e-03,-1.347787735286458226e-02,4.389638081192970276e-02
3.333181281818041186e-01,2.954729578837923532e-01,3.127458408518818955e-01,-8.679432670045622231e-03,-8.269762301652053976e-03,-1.529770525251634115e-02,4.701210558414459229e-02
3.184201693030138114e-01,3.148588995584274408e-01,3.099684898783958698e-01,-3.512685516653421547e-02,-5.083814926428212311e-02,-3.631939969581699651e-02,1.243645921349525452e-01
3.334047802933627902e-01,2.789285520317730249e-01,3.150047576307520858e-01,-3.863073345458886004e-02,-2.603650441033460161e-02,-3.997019281438608101e-02,1.166507825255393982e-01
3.383746379152282602e-01,2.725846512203621286e-01,3.056478633901465458e-01,-2.308827142721165196e-02,-1.349402295913602369e-02,-4.350673703709277695e-02,1.052152514457702637e-01
3.206132731003479286e-01,2.821317657736465145e-01,3.034031185765896366e-01,-1.273662891082014310e-02,-1.519050982207107749e-02,-1.959496451455113725e-02,5.869881436228752136e-02
3.294450722373872820e-01,3.258188904418039544e-01,3.107675460393315992e-01,7.579384301853825563e-03,5.133922218397417303e-03,-9.376481039500828701e-03,2.845063991844654083e-02
3.300556962742464129e-01,2.968938778860899519e-01,3.199353003370038473e-01,3.347665887079580467e-03,1.001769098057383491e-02,-4.968527497843441311e-03,3.571077808737754822e-02
3.255300651846770310e-01,2.946012750196977947e-01,3.097412034882647824e-01,4.696692345815144456e-03,7.957173479172782726e-03,-3.741016689197958038e-03,3.186942264437675476e-02
3.354030486408396960e-01,3.012120673399655280e-01,3.058741132911085292e-01,2.764280498086306610e-03,5.995187081995367005e-03,-5.975269655383019622e-03,3.562611341476440430e-02
3.423182053564580718e-01,3.009869287731363752e-01,3.004890717399343880e-01,3.533588256099308694e-03,5.729878339713479450e-03,-6.967492451891353807e-03,4.484072327613830566e-02
2.955184787845058780e-01,2.929063881078218801e-01,3.435141537772715137e-01,-2.303469255101135704e-02,6.421462335467254846e-03,9.634294846296883111e-03,6.655623763799667358e-02
3.313437986415109227e-01,3.114761649770910745e-01,3.111824235746059042e-01,7.912899611906812694e-03,7.753789557990537970e-03,-5.916999593159321183e-03,2.956151962280273438e-02
3.291116414751564800e-01,3.082599382152056977e-01,3.395154882957214237e-01,1.463556149107675744e-02,-8.233674647145739628e-03,9.578762451948061654e-03,4.337290301918983459e-02
3.145340784371640774e-01,3.072647752690943479e-01,3.371235073250116177e-01,2.628894212226970915e-03,-5.781360464342411021e-03,3.306553571484090789e-03,2.968400157988071442e-02
3.180945354479665643e-01,2.952157822986428704e-01,3.338248016413107866e-01,7.562171844145029395e-03,-6.084143614914809366e-03,5.261136194752291141e-03,3.868353366851806641e-02
3.126782223466716970e-01,3.084182445325631128e-01,3.296341472748706702e-01,1.578164693401031210e-03,-4.480202931803862337e-03,2.368709704735493145e-03,2.150356955826282501e-02
3.166417475477236732e-01,3.136349428076737333e-01,3.326924842441155716e-01,3.912356279411530018e-03,-4.613362910693235425e-03,3.770427619215054905e-03,2.161818183958530426e-02
3.407212541263733296e-01,3.174211265413075522e-01,3.023330398397405805e-01,5.756323595340578740e-03,5.201758203739597144e-03,-1.642986679069097927e-02,4.596197232604026794e-02
3.228390322968756054e-01,3.084121615281434359e-01,3.226120921414692977e-01,2.240352918211490057e-03,-6.283607086632679410e-03,1.913141650769771118e-03,1.869227364659309387e-02
3.323589026493061760e-01,3.195753068147475506e-01,3.314320070299014431e-01,9.178018188194674715e-03,-7.096670367804918701e-03,6.437964764309443005e-03,2.608771435916423798e-02
3.169261309292129014e-01,2.959252919188775088e-01,3.024319683967500172e-01,3.593954705302772334e-02,-3.381580232603695335e-02,3.478148402367197550e-02,1.062142178416252136e-01
4.044100985725298525e-01,3.510581138347407260e-01,3.427677660490723865e-01,3.932743981131028854e-02,-9.582972724162521980e-03,6.345008936933227428e-02,1.426557153463363647e-01
3.413802230420147632e-01,3.043221853833960600e-01,3.071265384434546664e-01,5.400658765651033914e-03,-3.385999580428018796e-03,9.261713950997389755e-03,4.069979116320610046e-02
3.785189837886350772e-01,3.385484315048654658e-01,3.227780133956097974e-01,8.140330085611158228e-03,-3.069932713418395149e-03,1.808270816382127888e-02,6.070193275809288025e-02
3.378626283189706259e-01,2.810571655247274814e-01,2.974385541153644619e-01,-8.371230923600858959e-06,-2.883493461464863928e-04,1.349342534816925197e-02,5.577746406197547913e-02
3.648774712686588262e-01,2.559953169845650134e-01,2.889297592487899413e-01,9.833171314567561161e-03,4.436818956027698338e-03,8.494862795082301632e-02,1.770648658275604248e-01
3.086820402625207183e-01,2.855906500919507263e-01,2.841003510173202851e-01,2.976797336399897992e-02,-3.022675042651266561e-02,4.251445495354208570e-02,1.067316681146621704e-01
3.611422240040654819e-01,2.978282088074492573e-01,2.760635962750114247e-01,1.279310933134560589e-02,-3.658203107513589673e-03,3.616544326722709313e-02,1.015643849968910217e-01
3.388502421301464729e-01,2.992011084149967526e-01,3.441453585557061046e-01,1.713180588905631810e-02,-1.061643087396457741e-02,2.118727568227911362e-02,6.614652276039123535e-02
2.974924370270385920e-01,3.102912265673123393e-01,3.057131228730803896e-01,3.267590983987890552e-02,-3.450017482730761975e-02,2.804875724029682119e-02,9.623046964406967163e-02
3.153287544804391218e-01,3.332113926225678813e-01,3.641329630862398248e-01,3.226521878873733762e-02,-1.437748136170303656e-02,2.199034004571617101e-02,8.380265533924102783e-02
2.991092491270508913e-01,2.258756090092042257e-01,3.343359794887964531e-01,4.840116454318845601e-02,-2.584189964203034359e-02,3.531863489301684950e-02,1.481806933879852295e-01
2.824193294508254293e-01,3.107050605604783078e-01,3.345925837265283365e-01,8.204761654093929713e-03,-3.456736799351857025e-03,7.584204331226526881e-03,4.956545308232307434e-02
2.982051263224472781e-01,2.936107390107284831e-01,3.346836832902008729e-01,-5.549441220671819802e-03,4.507494986486748970e-03,1.942883198358293182e-03,4.103725031018257141e-02
3.026245775873778188e-01,3.035074456583234381e-01,3.310286458114777286e-01,7.377248883976834752e-03,-6.479379912274573980e-03,6.112342981951715028e-03,3.440631181001663208e-02
3.566194841698146489e-01,3.527234153141751705e-01,4.021119090233292170e-01,4.721497557515794141e-02,-1.836533897764297540e-02,2.205877637189115892e-02,1.068708077073097229e-01
2.990931103100530897e-01,2.598143822172739870e-01,3.385965144503603752e-01,3.323050547592063669e-02,-4.969089713265619629e-03,6.112157187924368781e-03,9.029912203550338745e-02
3.194390520478705975e-01,3.162653207180967097e-01,3.435916129364081639e-01,2.866682976260367249e-02,-1.891751681035106283e-02,1.470058246343425648e-02,6.969485431909561157e-02
2.879493871684450923e-01,3.485492206599737353e-01,3.162143390592268011e-01,1.006632645383553166e-03,1.075769422152987598e-02,-7.636748038176125082e-03,5.730252712965011597e-02
3.368163762051519239e-01,3.121877250693813610e-01,3.677916591614977526e-01,1.831060467160811056e-02,7.227967542789009991e-04,5.259589889079777444e-05,5.776095762848854065e-02
3.724684128421282270e-01,3.542151157953811191e-01,2.838730742715362965e-01,2.485059691968276915e-03,-8.550302782827640460e-03,1.845311883524635571e-02,8.845655620098114014e-02
3.652277905569726313e-01,3.603091384711594181e-01,2.324304550595188146e-01,6.292971981248418958e-03,9.052675723871327724e-04,1.101374002009426235e-02,1.322547197341918945e-01
3.218986076475630620e-01,3.294388086877287347e-01,1.827374418422108571e-01,1.307638054731097114e-02,-3.305269531119962856e-02,2.579391779089509895e-02,1.620443910360336304e-01
3.676771381329055899e-01,3.648341302496032057e-01,2.492807646162967239e-01,7.566503147546433869e-03,-1.068208576357582498e-02,6.878395122105070668e-03,1.197714284062385559e-01
3.768785420065364766e-01,3.611373642828845099e-01,2.835261410284521388e-01,5.378403155177249005e-03,-1.391778703388875903e-02,5.614258952185017040e-03,9.085942059755325317e-02
3.578617125641815333e-01,2.458571564186730063e-01,3.187602416555362916e-01,-1.166856313531811941e-02,-7.340856633241839811e-04,-3.460031481778488849e-02,1.170300394296646118e-01
3.434851579329968319e-01,2.847818873203551981e-01,2.829240469363242805e-01,-4.473631213754618655e-03,-5.639565642148053511e-03,-3.321024766184439009e-02,8.380216360092163086e-02
3.238942545581467991e-01,3.181591716624371791e-01,3.015502397679210023e-01,7.795491768272594726e-03,4.447394005934895284e-03,-4.905659361221384115e-03,2.679262682795524597e-02
3.280751689452705011e-01,3.234704652580926432e-01,2.843179556888594806e-01,-1.476935819500878495e-02,-1.949460240133483319e-02,-1.505919154916996947e-02,6.487885862588882446e-02
2.942993751655352819e-01,2.319044918071742900e-01,3.089094431565962973e-01,-5.494640575345501737e-02,-3.505388757608755151e-02,-5.520762238225215141e-02,1.640288382768630981e-01
3.403719106002717765e-01,2.833479686882641180e-01,3.362931100266490225e-01,-2.295867047187205578e-02,-1.782969403521789120e-02,-2.383881647519335220e-02,8.529736101627349854e-02
2.292356087956491928e-01,3.276576636866048720e-01,2.811824114229893867e-01,5.633621020006541330e-02,-7.568920556751068673e-02,3.400363115911840539e-02,1.935181468725204468e-01
2.163487040710840859e-01,2.966048652066870517e-01,3.196690584259130885e-01,2.985611321950601069e-02,-2.617533225800781904e-02,1.734096591471625051e-02,1.202322170138359070e-01
2.296935694507439840e-01,3.023298145080537402e-01,2.757384121047476988e-01,5.180839145157101894e-02,-7.174037410876468734e-02,4.595651599893842143e-02,1.840652078390121460e-01
2.912446310913043290e-01,3.049576609849465880e-01,3.192655884023210544e-01,1.737158578185502011e-02,-1.511890929959068194e-02,1.481168914686691908e-02,5.327464267611503601e-02
2.499016065331253755e-01,4.246641427252402234e-01,4.236387637997979239e-01,9.023064018282723336e-03,-2.503865384859374141e-02,1.551005292170391271e-02,1.822375655174255371e-01
2.407336600753266498e-01,4.202589338202459279e-01,4.125181313466404487e-01,-1.716203095317354183e-02,-3.797754454899818222e-02,1.172500089437448177e-02,1.911085844039916992e-01
2.410764191745354834e-01,4.167400738128091975e-01,4.173388793142043252e-01,-1.788090867244062493e-02,-3.834637423807966961e-02,7.056413795563000121e-03,1.910056471824645996e-01
1.293703554478120021e-01,3.934002754476443875e-01,3.719723380373132215e-01,-5.508432835048088574e-03,-4.657808996330618789e-02,2.305043675853869767e-02,2.696421444416046143e-01
2.789568428164992953e-01,4.475173857579323178e-01,4.244516863419928177e-01,2.119768738653806522e-02,-3.132455429177473383e-02,1.369391546082620106e-02,1.729479581117630005e-01
1.722550275656188346e-01,5.060653491107063306e-01,4.049424429494318800e-01,-2.323175788882200429e-02,-5.495076972952325084e-02,-5.866133265310089807e-04,3.139717280864715576e-01
3.120111732822569706e-01,2.942332691454676574e-01,3.334889452911932728e-01,-1.375492402679537145e-02,-8.209927739263231036e-03,-7.910067831515824738e-03,4.600748047232627869e-02
2.906356273132217338e-01,3.057371743964613087e-01,3.255719536431722072e-01,-1.381861113304691524e-02,-8.549839012753853579e-03,-8.285637830239427765e-03,4.380784928798675537e-02
2.913040138522668410e-01,2.631881934328139661e-01,3.111294881967215931e-01,-2.186092725133547549e-02,-2.544818222468542626e-02,-2.258529559462253006e-02,8.153389394283294678e-02
3.175774677161980475e-01,3.014644381426410114e-01,3.515016955834386891e-01,-1.678160744708036972e-02,-8.253407132823839532e-03,-8.156058620696977207e-03,5.662059783935546875e-02
3.066796927209107793e-01,2.784591611347927431e-01,3.183326896261635119e-01,-1.587195332945304238e-02,-1.533471962001408187e-02,-1.291186460304961404e-02,5.676628276705741882e-02
2.895098423782209163e-01,3.596890090556302821e-01,3.001088737175973131e-01,3.020957252587546694e-03,-2.545675690066515062e-02,6.169928399134120590e-03,7.987080514430999756e-02
2.525875812960778899e-01,3.718625183249426591e-01,2.644924845238458833e-01,-1.131389125361517353e-02,-9.000919769083257083e-02,-7.699388333137938828e-03,1.944610476493835449e-01
2.536811500080419779e-01,4.034249567612655518e-01,3.136940649444755480e-01,-2.125903277212618306e-02,-1.442323342608105019e-01,1.611836006728719836e-02,2.856262326240539551e-01
3.136377538182217872e-01,3.119799537769146203e-01,3.251017744286837097e-01,2.626841134319600132e-03,4.233916586020668518e-03,-1.691339595969559764e-03,1.537003740668296814e-02
2.990678239823952866e-01,3.526567337248912581e-01,3.209036802824599688e-01,5.356022831664963672e-04,-2.131187256273921887e-02,6.494406897972255024e-03,6.056728959083557129e-02
3.349950066163593365e-01,3.203473392657252283e-01,2.979970444416032427e-01,1.627022580047149045e-02,-1.352934262377927278e-02,1.815056006305418301e-02,5.807829275727272034e-02
3.153198939956334268e-01,3.182516965648158891e-01,3.146943221457143558e-01,1.746936474072966622e-02,-1.522157054018324560e-02,1.701094137915949711e-02,4.989551007747650146e-02
3.335381148922893502e-01,3.198894866464799258e-01,2.938410468331046910e-01,4.642153689262445981e-02,-6.201673162005087031e-02,3.682098871910661347e-02,1.526132076978683472e-01
3.476721336647267679e-01,3.154372908635585393e-01,3.432159804613174603e-01,2.801909695655940141e-02,-4.923199907034867678e-02,3.692948080109673126e-02,1.209679171442985535e-01
3.291475801953783753e-01,3.282825729516514190e-01,3.378205105595847302e-01,1.812904304675231823e-02,-2.063557081594040443e-02,1.732377657411674626e-02,5.698488280177116394e-02
2.995591273235832519e-01,3.382831087279054572e-01,2.681338577462364925e-01,2.344753796260310580e-02,-4.102336042410633515e-02,2.015699615145330817e-02,1.078008785843849182e-01
3.970510964120340658e-01,5.570530734570318110e-01,3.965280526942600581e-01,2.917568608082789228e-02,-1.276986601891370032e-01,3.112479680134334556e-02,2.829582393169403076e-01
3.586008930193266830e-01,3.083942620838578397e-01,2.890966775119875320e-01,1.344660376881003788e-02,1.496695842355843555e-02,-2.626713511536001716e-02,8.453590422868728638e-02
3.464662713371866598e-01,3.000558439039542336e-01,2.956395696927782146e-01,8.327825001930428545e-03,4.171655690289070503e-03,-1.276082137604976109e-02,5.592114478349685669e-02
3.422531184550798300e-01,2.826860395411464055e-01,3.111781546444047364e-01,1.645160646167694984e-03,8.212325185812285183e-03,-1.181254781186511643e-02,5.737508833408355713e-02
3.374824351106310294e-01,3.047161055983818034e-01,2.562673965727929049e-01,7.985952395754905564e-03,5.189100959706373709e-03,-2.594270341447133671e-02,8.543754369020462036e-02
3.198448449636939750e-01,3.296777182930463734e-01,3.229383328886952231e-01,4.343124218730047385e-03,3.932922975264579318e-03,-4.093294268246825719e-03,1.513585820794105530e-02
3.395771405492996053e-01,3.559462068412146962e-01,2.644277524651362232e-01,-2.081902061151193542e-03,1.524031436460378773e-02,1.569941921144138441e-03,8.867187052965164185e-02
3.787967464064591616e-01,3.590747907425090313e-01,2.890266522671920968e-01,2.041291489489314992e-02,4.285387877977581833e-02,-5.896647120144371534e-02,1.544918864965438843e-01
4.054910250661305504e-01,3.497639408379727977e-01,2.949501937753599146e-01,1.474307294333656974e-02,3.376969827464715301e-02,-6.441605186666654603e-02,1.602691560983657837e-01
3.752888833976861238e-01,3.135001261965536523e-01,2.994317509278208722e-01,3.688787233923510045e-02,3.773669953222159174e-02,-5.509357596006063396e-02,1.494833230972290039e-01
2.437487450205300943e-01,2.511948161631926135e-01,3.359934168541249266e-01,-6.381369783602425239e-02,-1.507190451009986221e-02,-1.970674053321253699e-02,1.481242030858993530e-01
3.391668124760321978e-01,3.123261882162584047e-01,2.427943143174959295e-01,-7.298964335732786857e-03,-4.418755383944128132e-03,-2.122084687814082202e-02,9.481958299875259399e-02
2.763537992647265851e-01,3.263787659182255108e-01,3.657143514542188223e-01,-3.399322224741285758e-02,1.281655116316734490e-02,1.235798559819983530e-02,1.021524146199226379e-01
2.539897584839689304e-01,2.851964353369405014e-01,3.402701135427282919e-01,-3.627528280794668769e-02,1.107600090000670362e-02,1.535740974383635040e-03,1.002418622374534607e-01
2.781950858226663881e-01,3.404212444002600590e-01,3.709448492566346789e-01,-7.166665438107100439e-02,1.012883493503293278e-02,2.243867072223288545e-02,1.546924114227294922e-01
2.407959184178315448e-01,2.769490006882394106e-01,3.278009193138377575e-01,-3.270532344094514987e-02,-8.597660354026415847e-03,-8.147541346767074588e-03,9.675349295139312744e-02
2.762403615269840573e-01,3.439816206653428798e-01,3.857645833477586494e-01,-2.926617652308131576e-02,-5.498198175803653900e-03,3.217603129440692409e-05,1.087444052100181580e-01
2.177411028691426664e-01,3.154556021506024766e-01,3.600405193457584252e-01,-5.398100582671314096e-02,-7.026436475473859557e-03,-7.095440340787570639e-03,1.579035371541976929e-01
2.550441000896112032e-01,3.307782453200212025e-01,2.139542600064948397e-01,7.052184679501994138e-03,-7.789386766791085714e-02,5.196166734216625324e-03,1.702013611793518066e-01
3.351030596531188732e-01,3.513152260602072641e-01,2.962720513851971327e-01,2.469405803779883835e-02,-4.138328824532941375e-02,2.232698800315565876e-02,1.042248457670211792e-01
3.606858277060124851e-01,3.309074474261934906e-01,3.156327504529528594e-01,3.796065221778785470e-02,-2.099762894150143666e-02,4.313391877695167687e-02,1.131470873951911926e-01
3.708231909488248212e-01,3.275488045818596983e-01,3.097656890041081135e-01,4.527553702002595770e-02,-3.628029421534421928e-02,4.781152126716309986e-02,1.411194205284118652e-01
3.147413756596582624e-01,3.244487252597689220e-01,3.169702548616342153e-01,6.004073442209845743e-04,-2.910702982241701817e-05,-1.099467412728001321e-03,9.070530533790588379e-03
1.693307906342232938e-01,3.150046224657219174e-01,3.305279410660084127e-01,-4.811719518235713783e-02,-3.531132295755786549e-02,-1.087376238995700455e-02,1.864520311355590820e-01
2.205046194672499738e-01,3.682410791797063321e-01,3.705132396870417510e-01,-6.313959626803836156e-02,-2.522580341301968593e-02,-2.162927565642804376e-02,1.934922039508819580e-01
2.673092153073830524e-01,3.620878640970839335e-01,3.825294295194096028e-01,-3.479639287069391518e-02,-1.750669446870706247e-02,-1.389847145656082812e-02,1.283339262008666992e-01
2.667423605042759105e-01,3.550942339941729475e-01,3.321447655932317500e-01,-2.804190564873964772e-02,-3.153866405445229781e-02,-1.649287104782101374e-02,1.116434261202812195e-01
2.333467659412706285e-01,2.979794128318261626e-01,3.397620887895036468e-01,-7.117562739758162560e-02,-6.410342657985400316e-02,-4.266430623986566806e-02,2.039854973554611206e-01
2.338790152585008275e-01,3.082242300096864063e-01,3.267621344681237994e-01,-3.861431649416033340e-02,-2.362075689257654015e-02,-1.633990762842116654e-02,1.191514357924461365e-01
2.465519440033713261e-01,3.244017070175808648e-01,3.572745901767482857e-01,-4.082666506517951266e-02,-2.184221745081617316e-02,-2.370310702790800333e-02,1.334824562072753906e-01
2.883307029913744213e-01,3.301430509772563249e-01,3.384594155087877199e-01,1.631718962760206337e-02,1.756740146311232958e-02,-1.114154455311792968e-02,6.528519093990325928e-02
3.258425012122501685e-01,3.429151293911130161e-01,3.353732874579815615e-01,7.218162857185807767e-03,9.286549918993056846e-03,-8.374886953959794628e-03,2.906951680779457092e-02
3.122162034629938909e-01,3.157995530513921789e-01,3.204448884839092848e-01,6.983367581400320122e-03,5.359914168746616851e-03,-7.751199495954528597e-03,2.153594605624675751e-02
3.220948777357012238e-01,3.142509230304063039e-01,3.269579597578308738e-01,7.278606916557447959e-03,7.986095103572992543e-03,-5.983594208221932817e-03,2.410395629703998566e-02
3.290488423217629577e-01,3.329235752409295257e-01,3.185642587628108036e-01,8.022034495036522994e-03,7.226752914594757916e-03,-6.414581242665036431e-03,2.527335658669471741e-02
3.138594413211492351e-01,2.953748506699392928e-01,3.290650919697089005e-01,1.459324316796931260e-02,1.476717327511906271e-02,-1.470248496602149027e-02,5.287294089794158936e-02
2.962681455088014837e-01,3.340036823231814500e-01,3.160430270628033500e-01,1.052940342162150475e-02,1.349271802243225127e-02,-8.121946567990815519e-03,4.631915688514709473e-02
3.156185042833501431e-01,3.490455123344150534e-01,3.693614254858722523e-01,-2.257525506535756205e-02,1.590346458329888052e-02,1.208662986137444897e-02,7.025060802698135376e-02
2.982332854668156008e-01,2.984661080397626454e-01,3.432022401827835578e-01,-1.058717517905428430e-02,9.533446775844736654e-03,5.663377470309411028e-03,5.212425068020820618e-02
2.689547682819443120e-01,2.842814583872639300e-01,3.139532438813363857e-01,-7.256930426616330088e-02,4.729494388514862702e-02,3.263714661015544583e-02,1.651514172554016113e-01
3.422341191275342642e-01,2.681483176280105574e-01,3.577198648965815853e-01,-3.420586851128191302e-02,2.055962581761889424e-02,1.888484309378218179e-02,1.128003522753715515e-01
2.402921464574773736e-01,2.718164788173344504e-01,3.323345796246649497e-01,-3.828935170313380043e-02,-2.541364531099443019e-03,-2.501001118452258511e-03,1.048827022314071655e-01
3.184578440424866708e-01,2.641308293497719450e-01,3.514825272765227382e-01,-3.482630931241818828e-02,-6.704252428226067408e-03,-5.526056604333516066e-03,9.849494695663452148e-02
3.267785740417730178e-01,2.516385215674648568e-01,4.136181973099738451e-01,-5.927720602773556280e-02,-1.837889918906723818e-02,-5.763859598425816362e-03,1.771063506603240967e-01
2.429671380421259963e-01,2.338734485101345295e-01,3.367648506825589028e-01,-7.328097880944489662e-02,5.450425477544968908e-03,7.259964650507044759e-03,1.615277677774429321e-01
3.386973180861165833e-01,2.883907350274704795e-01,3.838502887944118536e-01,-3.553564531789744213e-02,3.799260958095529179e-03,2.894116880579611362e-03,1.034302264451980591e-01
2.706265616766637128e-01,2.613969889145800196e-01,4.103324965827732651e-01,-7.678670766874269582e-02,3.874883464814598676e-03,-5.620322553415236025e-03,1.967759281396865845e-01
3.621640177827338825e-01,3.509385962123324210e-01,2.429683074603456727e-01,2.873551710276551346e-03,1.068092916270980269e-02,1.419748641365176783e-02,1.181834563612937927e-01
3.123994243889230416e-01,3.259009745475858200e-01,3.218083071830387665e-01,1.294651994837020938e-04,1.865419033715805643e-03,-5.258077127114183652e-03,1.540182437747716904e-02
3.637614035811165270e-01,3.626223865600531893e-01,2.341786503324400637e-01,6.803196183570670019e-03,-6.475094781326604793e-03,1.052099480462410745e-02,1.313091665506362915e-01
3.289798765458227803e-01,3.240775549251324605e-01,1.522821449228849155e-01,-4.636438375625478309e-03,2.142913594519951781e-02,1.315964055367752940e-02,1.798375248908996582e-01
3.398947313772077705e-01,3.221949844661817219e-01,2.124522118829769990e-01,-6.188370237299960610e-04,-8.383919764551514206e-03,3.045626792854256443e-02,1.315064579248428345e-01
3.593627883415648205e-01,3.486704449765481995e-01,2.427637540559369755e-01,1.483486811103523761e-03,-1.118720104508087038e-02,3.778241174190665689e-03,1.135245859622955322e-01
2.735017977451188464e-01,3.327978899387036282e-01,2.766854038263356630e-01,1.310921855037156143e-02,3.611356068840219924e-02,-1.269124288372127859e-02,9.082242101430892944e-02
2.993276325925629533e-01,3.542225027717856856e-01,3.042860716955615441e-01,1.291851922059415476e-03,2.542688568162921117e-02,9.258716264421221198e-03,7.048118859529495239e-02
3.004659394767577041e-01,3.373735688959846879e-01,2.754924930219870838e-01,1.445674367093326964e-03,1.355873114273721883e-02,-1.135709197741237818e-03,5.890003219246864319e-02
3.288823478813172607e-01,3.530967424946594435e-01,3.134567513634990421e-01,6.136236628473545549e-03,1.547466243842259524e-02,-6.789997636613339174e-03,4.655615240335464478e-02
3.201177488520440817e-01,3.530899681094454290e-01,3.030657426238997365e-01,1.727542840172253263e-02,3.883667348985743450e-02,-2.776148438123731896e-02,9.834868460893630981e-02
2.961145821266315536e-01,3.368655984158379635e-01,2.965104659840412937e-01,7.759742787516802666e-03,1.287915510206151005e-02,-6.470579858623296335e-03,4.948265850543975830e-02
3.077875536425944136e-01,3.038102942842065834e-01,3.033379624327371960e-01,1.985251702013773878e-02,2.240374820249215609e-02,-2.084017312307984843e-02,6.331674009561538696e-02
3.054577783722767226e-01,4.036900670148402814e-01,3.342219970674688567e-01,1.027106862202774307e-02,5.678596136871931488e-02,5.424044656740769667e-03,1.331543028354644775e-01
2.994204689792019369e-01,3.433813080752443070e-01,2.953608743603478581e-01,1.402376058596709399e-03,1.785702100390992864e-02,-1.178172739490265363e-03,5.562537908554077148e-02
3.063728882608680593e-01,3.548408822275336827e-01,3.069034775185066621e-01,2.310526231544654790e-03,1.842370709550826199e-02,-7.433373746617439812e-03,5.936152860522270203e-02
3.197730593700933710e-01,3.109541444073815053e-01,3.072288525309206375e-01,-3.311232994040496942e-03,-3.945503990525105892e-03,-3.087744383775522985e-03,1.525451987981796265e-02
3.109305569735922314e-01,3.099781497644562567e-01,3.069890608317720759e-01,-1.511025034127275917e-03,-1.716966155123687658e-03,-2.260809429609292060e-03,6.611796095967292786e-03
3.029698609152686739e-01,3.076114748610612182e-01,2.859341808824620856e-01,-8.090022227420043399e-03,-3.662910568063075436e-03,-4.479398671073863900e-03,2.622256986796855927e-02
5.622900655156585215e-01,5.874634331051038494e-01,3.161777775683142777e-01,5.804319126331487083e-02,1.161713457224360230e-01,-1.543090764443377436e-02,3.445419371128082275e-01
3.122583968038968871e-01,3.128650249563103558e-01,3.360316537418784888e-01,7.580880691767885073e-03,4.790662725877155477e-03,-3.394110977793652565e-03,2.875647321343421936e-02
3.065828044021375876e-01,3.057428725762644239e-01,3.040247372873705611e-01,-2.953259635171234364e-03,-2.734744186514381954e-03,-3.228003808485140937e-03,9.217500686645507812e-03
3.061686406555890749e-01,3.126135839008945538e-01,2.955709866253766194e-01,-4.154692920548546872e-03,-2.375270503605829420e-03,-3.121832922013037265e-03,1.789124123752117157e-02
3.011393883833063390e-01,3.408623256651565625e-01,3.174010243298801548e-01,2.016421335020761145e-03,-4.593000232072499966e-03,3.708008848931823760e-03,3.623707219958305359e-02
3.077241543927052292e-01,3.118235082517074597e-01,2.936715484364069151e-01,-5.513826480103760017e-03,-1.447223754797974426e-03,-2.032595461376104744e-03,1.953897625207901001e-02
3.817530948703655724e-01,4.239333535756645843e-01,3.481818161777029408e-01,-1.650813221604801456e-02,6.018736191381245798e-02,3.138137711264953056e-02,1.377016156911849976e-01
3.193106170906365171e-01,3.242079808281947972e-01,3.104890730661141740e-01,4.957931893945546550e-03,1.398186386680878987e-03,-1.031012703223967760e-03,1.509314868599176407e-02
3.624247551812720403e-01,4.066408964474182985e-01,3.695580418379776910e-01,8.693224839254215866e-03,7.414242779662902350e-02,4.153974361830593126e-02,1.535747796297073364e-01
3.504863261747390712e-01,3.883566768078443032e-01,2.930268140342926486e-01,-1.552016457797107327e-03,4.436031838525780063e-02,5.231665052126051665e-03,1.135985106229782104e-01
3.135757459635147293e-01,3.356131746189943699e-01,3.165309368614405705e-01,-7.009435628682897032e-03,4.540982960406397470e-03,8.395362207252881487e-03,2.915409207344055176e-02
3.018614351261277862e-01,3.241675222821381874e-01,2.812368009579578332e-01,-1.096445425766846837e-02,1.873933904008222989e-02,1.134065811717248004e-02,5.641781538724899292e-02
3.315341005634218630e-01,3.471332797541062387e-01,3.198351373439037859e-01,-8.312987525480819428e-03,7.812410809257672693e-03,8.022192939001988182e-03,3.385527431964874268e-02
3.136993619390268107e-01,3.361301696928029603e-01,3.227188747539978531e-01,-8.302606243168945618e-03,1.042738647257874206e-02,9.611009224300954765e-03,3.452945500612258911e-02
2.934587970062353945e-01,2.945589830710889090e-01,3.275364111771765230e-01,-3.999706824085161663e-03,-5.493519733128017155e-03,-5.060328750785034191e-03,3.661082312464714050e-02
3.321736747352091457e-01,3.523070346047036394e-01,3.178445189736995857e-01,-6.979929310934414668e-03,1.473897445105349854e-02,7.637288866416072457e-03,4.326691478490829468e-02
3.145215294388638005e-01,3.234202410928232463e-01,3.197440127690074907e-01,1.340124961975010329e-03,9.391016840201532557e-04,-3.105906743589857081e-03,9.846905246376991272e-03
3.137671206229503129e-01,3.170431603034429280e-01,3.172780952016166500e-01,7.831646136111175766e-04,1.002986930932888701e-03,-3.714825319960976275e-03,7.603621110320091248e-03
3.138600550680331058e-01,3.267186430691284005e-01,3.199361532922952445e-01,1.415241681712416794e-03,2.018421052296175480e-03,-4.110913758227105128e-03,1.389466971158981323e-02
3.172927115019681943e-01,3.287870429416564488e-01,3.182209633252969239e-01,3.546299206620454406e-03,2.385365440414071066e-03,-4.315671267014516491e-03,1.526385731995105743e-02
1.507339244537644618e-01,2.165449897340482321e-01,3.288071719299210383e-01,-1.472001711347830089e-01,-6.833508002182223096e-02,-6.024972596072598885e-02,3.379715979099273682e-01
1.843144649231882870e-01,2.972524075285124523e-01,3.373418461444706029e-01,-6.277800498449487288e-02,-2.616588143421464535e-02,-1.743498694993073778e-02,1.835180968046188354e-01
2.054545669358049942e-01,2.779982116508356027e-01,3.457733249599975744e-01,-5.766275573943347582e-02,-6.750222637155620965e-03,-6.248596960242719899e-03,1.581186652183532715e-01
1.583569847160215538e-01,3.262066921058865421e-01,4.027888628055712461e-01,-8.747039933842634674e-02,1.124336665454706355e-02,1.798248605535680833e-02,2.668243050575256348e-01
1.949916636541382531e-01,3.660138737003359455e-01,4.539344246739688282e-01,-1.407883340254313387e-01,-2.402256976550624923e-02,4.011944993370529511e-02,3.435680568218231201e-01
1.867251903052257467e-01,3.032825788031314751e-01,3.336628263796332927e-01,-1.577508748192448518e-01,-7.416590440040576881e-02,-1.606339550111421377e-02,3.316345512866973877e-01
3.176487913197642010e-01,3.239739524321655906e-01,3.178557634116736530e-01,1.416972516559705884e-03,1.084341738610797339e-04,-7.725451308349143243e-04,6.825727410614490509e-03
3.203070774322203107e-01,2.939170516975883607e-01,3.554960391461745584e-01,1.356060986387025262e-02,-8.134057909274969539e-05,-5.377671792687194197e-03,5.917586013674736023e-02
3.496711857453420058e-01,2.968866511619173143e-01,3.573079020236984982e-01,1.783573088424948369e-02,9.691143123723364172e-03,-1.785343772699881509e-02,7.375606894493103027e-02
2.958899621379405542e-01,2.176112789011974968e-01,3.102715589309657518e-01,3.790977652521676511e-02,1.933729932508850696e-02,-3.175220163534272361e-02,1.261665970087051392e-01
3.334174477652165902e-01,2.600418368595157625e-01,3.401049950703646241e-01,2.050732818420494818e-02,1.283517141869575280e-02,-9.736171891492079872e-04,8.762492239475250244e-02
3.529154466919196542e-01,3.105304203631163440e-01,3.826835582278388381e-01,5.262287526882340055e-02,2.092809081157513164e-03,-7.435282366287355137e-03,1.114936918020248413e-01
3.198625338301259724e-01,3.043252022586474537e-01,3.560288152355792768e-01,5.932466123258861579e-02,1.674700567926435193e-02,-4.109717137423234135e-02,1.363007724285125732e-01
3.051758879999340035e-01,3.023080113248666212e-01,3.499439693855738165e-01,2.803206767860690063e-02,1.263797643041988245e-02,-1.119287163254446132e-02,7.316544651985168457e-02
3.641300420834434060e-01,3.409020634270271133e-01,4.064004678345483068e-01,6.447447731033507934e-02,3.220740204302999232e-02,-2.787946980267158939e-02,1.456804871559143066e-01
3.624168005929167546e-01,3.079180831028681675e-01,4.066494801111996682e-01,6.421380590962291746e-02,1.616645610416965473e-02,-5.491087147078430562e-03,1.434643566608428955e-01
2.998365831523095437e-01,2.107258815218021608e-01,3.250217881553227883e-01,3.797539367574569169e-02,2.034550444885721218e-02,-2.138840521947722381e-02,1.332662105560302734e-01
2.500103642152440298e-01,3.888920448870479829e-01,3.368900044328611010e-01,-3.118643762778574788e-02,-5.419686468868886026e-02,-2.990939556619702337e-03,1.628702580928802490e-01
2.702930562404054493e-01,3.474397297659858053e-01,3.167860872438342801e-01,-3.201013051104643903e-03,-7.554293543257895385e-03,-2.763688439252850060e-03,6.892956048250198364e-02
2.979079865407147643e-01,3.403963497904815005e-01,2.944943021731132871e-01,-6.936684573241244656e-04,-3.330756469282518482e-03,-3.934298391640645614e-04,4.468943923711776733e-02
2.740713738401982513e-01,3.858069493349036705e-01,3.410333713972994452e-01,-2.628660111540334805e-03,-3.388897823066579218e-02,2.760518834238266574e-03,1.139108836650848389e-01
2.967592942968361736e-01,4.323790529819342421e-01,3.679364006764025419e-01,2.344740740664975204e-03,-7.675052658870179512e-02,6.629941851800993111e-04,1.774700582027435303e-01
2.000768903994671610e-01,3.031870481282871177e-01,2.997073352067378682e-01,-4.996442775904443717e-02,-4.799343310187008382e-02,-3.041268850493530213e-02,1.657083481550216675e-01
3.356639542491514638e-01,5.165601880302588267e-01,3.654735821725603184e-01,-3.390006755358287993e-02,-1.433588424787121118e-01,-3.256876568214031598e-02,3.106520473957061768e-01
3.312811595417101684e-01,3.546548514636065907e-01,2.492864902416319639e-01,2.040575782137401921e-03,-1.372895062425258036e-02,-9.474687546896684272e-04,9.882616251707077026e-02
3.359732851631254125e-01,3.836821529250397100e-01,2.786630810670495118e-01,2.566428768030574190e-04,-3.234759492848368612e-02,-3.720489282398705983e-03,1.071243435144424438e-01
3.068952819339938465e-01,3.624198086052205503e-01,3.140530018021497338e-01,-9.624267316865383476e-03,-2.094877899916691710e-02,-9.629319112287015522e-03,6.789243221282958984e-02
2.881324865819342995e-01,3.409173052507639134e-01,3.046018944645275672e-01,-1.474260886427567439e-02,-2.604290735060441411e-02,-1.855730479873593519e-02,7.686349749565124512e-02
4.292750567990836763e-01,3.216665766937615856e-01,2.827989960087761157e-01,-8.523008402689845331e-03,-1.323074614164407303e-02,-1.009906486847908097e-01,2.204839438199996948e-01
3.227010127557044528e-01,3.291758666540609002e-01,3.139746917233997014e-01,1.267488916553368219e-02,2.197188108888040864e-02,-2.423074615334061196e-02,6.217885762453079224e-02
3.174074180643948750e-01,3.140388061252855634e-01,1.776582135366310267e-01,-7.580677574628329370e-03,-3.796011916033503741e-02,-4.054559822886974474e-02,1.688122451305389404e-01
3.533194780433752125e-01,3.291846634567699437e-01,2.675853916893092821e-01,-6.588286543083989727e-03,-6.755549985966937017e-03,-3.404465484183406832e-02,9.801985323429107666e-02
2.946007539142623810e-01,3.443440274388821498e-01,3.006438234900528639e-01,-3.550616591230952904e-04,-2.075620962474467122e-03,-5.830094959930458981e-04,4.716600850224494934e-02
4.325907587186827996e-01,3.509092717335289824e-01,2.408130312672272511e-01,6.252801430044141462e-03,2.440782297469293836e-03,-6.426897061633307651e-02,2.007798254489898682e-01
3.843471427882056424e-01,3.320308186359806069e-01,2.181900366381661627e-01,6.699662125705717862e-03,-1.176375904089371240e-02,-6.007105512421254123e-02,1.817356944084167480e-01
2.802679233804254433e-01,3.225722058061857855e-01,2.540384001355779908e-01,-4.209978539123365726e-02,-7.309581132559872518e-02,-5.332467817903333712e-02,1.829316616058349609e-01
3.065865975019198553e-01,3.198370951904119797e-01,3.037558646178056820e-01,-5.650033553197244401e-02,-6.087087079045967741e-02,-8.123535845837129288e-02,2.017704099416732788e-01
3.425371116042658093e-01,3.342814327370504657e-01,3.426274290489677021e-01,-4.173151326275879175e-02,-3.982085820525990000e-02,-4.170059891177545219e-02,1.235612779855728149e-01
2.769256963505754565e-01,3.441105947600215376e-01,3.358316163448418767e-01,-6.140124434979072482e-02,-4.795194015070702864e-02,-4.241691839185518509e-02,1.662294119596481323e-01
2.930083996995105355e-01,2.751216792897643870e-01,3.192917231195533390e-01,-6.830924333519891589e-02,-6.379583109202782709e-02,-5.455017342781893347e-02,1.913536489009857178e-01
3.030240689857386371e-01,3.416674524978970395e-01,2.702659654798036382e-01,-6.574904125779166067e-03,-9.878644692054232290e-03,-2.765059658244722451e-03,6.540394574403762817e-02
2.796424065120520219e-01,3.443037949579623169e-01,3.001112909173489496e-01,-4.028218650311889137e-02,-6.146893719628777897e-02,-3.858248107633459323e-02,1.547436714172363281e-01
2.717373720331492937e-01,3.510575045457780541e-01,2.916189564993268424e-01,-1.223931448069035671e-02,-3.044938698957721027e-02,-1.728618457630415675e-02,9.611079841852188110e-02
2.773284734129112805e-01,3.380241325428637866e-01,2.779870385919286924e-01,-3.711298280291307119e-03,-1.840850894010227778e-02,1.445254930356299795e-03,6.861946731805801392e-02
4.160707861490205994e-01,4.085972458349937941e-01,2.750989382638860947e-01,1.935416497029515334e-02,-1.357296195607951214e-02,3.433704468229816648e-02,1.552059352397918701e-01
3.802754614202623618e-01,3.585848605930520572e-01,1.540903604727594522e-01,-8.316304417613764807e-03,-9.695969027270143203e-03,-1.056095567836172130e-02,2.180555164813995361e-01
3.434346634912504026e-01,3.413483252381036559e-01,4.352053541546777038e-02,-1.117506598187896017e-03,-3.490220796905504907e-02,-6.091766424371784089e-02,3.226735889911651611e-01
4.481739175446847745e-01,4.956921908584652758e-01,1.413789261227890171e-01,4.175774036165815634e-02,-2.977677638222638729e-02,-4.911586349204594831e-02,3.550883233547210693e-01
3.644966534502628308e-01,3.597258526374880194e-01,1.752500639697460727e-01,1.851885716228778489e-03,-5.434024673131228333e-02,-1.138164128834550856e-02,2.102181613445281982e-01
3.228513767164759574e-01,3.337593952575069189e-01,3.543184567406860719e-01,-1.087256117218013060e-02,3.661836979442326633e-03,7.574587123031648050e-03,3.650899231433868408e-02
2.459374780732127286e-01,2.805374174336390802e-01,3.342615925167036206e-01,-3.588958940169756362e-02,6.337450724945448838e-03,2.346528635061894633e-03,9.971705824136734009e-02
2.090081382155097312e-01,3.623241932792006237e-01,3.957226828202959901e-01,-2.698241734537797434e-02,-6.897521028023897213e-04,1.179798748274831985e-02,1.798470318317413330e-01
2.465287409682334896e-01,2.812969414188634110e-01,3.588355422863806488e-01,-1.011620176444953390e-01,-1.331448449668315654e-03,-8.820637776933780427e-03,2.021309733390808105e-01
2.668245008380458194e-01,2.422474146362166292e-01,3.334189502451096465e-01,-4.102257688834907989e-02,-5.221998690568266030e-03,-8.569128455407203776e-03,1.096640527248382568e-01
2.814446785588461397e-01,3.030517262063798789e-01,3.288634269681268707e-01,-2.172626960677752003e-02,8.951110944723502522e-03,1.137982952577424808e-02,6.112106144428253174e-02
3.694583530810959804e-01,2.958481892005131453e-01,3.182431560148467065e-01,1.534467022071856965e-02,-1.120792846120584850e-02,4.256736270260211286e-02,1.038781255483627319e-01
3.061512465801469740e-01,3.196909456277554629e-01,3.691879210618522755e-01,-1.633768664390680692e-02,2.872867981166168580e-03,-6.863916376144338621e-04,6.426804512739181519e-02
3.518854744868581963e-01,2.383482435438650238e-01,3.372992178762012072e-01,7.826879303312297281e-03,1.140622677153273201e-02,-1.201493329097767272e-02,1.115999147295951843e-01
4.052508720273123588e-01,2.734112403566179572e-01,3.779299209194826314e-01,4.092114910583284637e-02,2.227261337154991250e-02,-2.486169419352482479e-02,1.513019502162933350e-01
3.341435029512708765e-01,3.090822316978731332e-01,3.058106742841450454e-01,3.184200604656630199e-03,2.657384410255358813e-03,-1.770509096483291380e-03,2.796008624136447906e-02
3.621468694195600357e-01,2.588501279676480582e-01,3.776807931147989628e-01,3.950058183837910908e-02,1.339933381133602032e-02,-2.961550889500302181e-02,1.427125483751296997e-01
3.015364862369960264e-01,3.464797449934702289e-01,3.330588897935685688e-01,3.157601111341488270e-02,2.892411760728480150e-02,-1.333692092423436476e-02,8.735792338848114014e-02
3.741552965786547058e-01,1.763519794908811333e-01,2.460781742065279998e-01,4.626687748446518811e-02,3.700635252381569151e-02,-1.161778884826561303e-01,2.849877476692199707e-01
3.601735623020128063e-01,2.933404871844171868e-01,3.399864012882739539e-01,9.220941048247967980e-03,7.834021378669755314e-03,-2.160724001714033754e-02,7.324495166540145874e-02
3.526253365849844057e-01,2.673388456011269732e-01,3.309380688556358696e-01,1.939371126493438097e-02,5.505666079982069784e-03,-3.208008285474495125e-02,1.010008528828620911e-01
2.816972741668199998e-01,3.306409443859136821e-01,2.788739028642729378e-01,-6.804421806295346195e-03,-1.444481241755106969e-02,-5.010008581527981841e-03,5.815323814749717712e-02
3.395045497304267079e-01,2.053739167013839406e-01,3.277284905483189292e-01,2.147336671045390125e-02,9.454876591322103341e-03,-3.936989799480307417e-02,1.511675864458084106e-01
3.109366911672210576e-01,3.327787549867679551e-01,2.967288429848677911e-01,-7.757027887869284710e-03,-1.180566676489113072e-02,-8.010671269396665156e-03,4.219497367739677429e-02
3.692345235185570673e-01,2.689200289850091630e-01,3.370778749569163790e-01,6.277922232785935509e-03,1.211978583663042910e-02,-3.466695188061755944e-02,1.097067296504974365e-01
3.470495262922476121e-01,3.463787713372096233e-01,1.892835145173471512e-01,-5.507056254554769381e-03,-8.344114830429068957e-03,-1.813023334238655221e-02,1.614642739295959473e-01
3.470465832856620692e-01,3.536410826274144492e-01,2.149267793944558413e-01,-2.645318963595913800e-03,-1.739073595168090514e-02,-1.225373697691571791e-02,1.405317187309265137e-01
3.732318333275662647e-01,4.092266375127971978e-01,2.266083419909033503e-01,7.036317532879757947e-03,-2.081332155364482017e-02,-3.517952606924711761e-02,1.822982877492904663e-01
4.049706033393230542e-01,4.215032694063682861e-01,2.537209768676529364e-01,5.759183321756557346e-03,-3.728418808520495009e-02,-2.017880661376226029e-02,1.764701902866363525e-01
3.519358551724209305e-01,3.349482494735451787e-01,4.657993818716332779e-02,9.498677887127743302e-03,1.368994315840299557e-03,-5.916567605544949954e-02,3.148357868194580078e-01
3.771888885659740454e-01,3.611515671061297228e-01,2.113736560514540008e-01,2.236200706978198893e-03,3.220259421318207374e-03,-9.547348775246981833e-03,1.594121158123016357e-01
2.611368272365032772e-01,5.006564012454277623e-01,4.532506851233597533e-01,-7.170376378734569234e-02,-1.082839509718077631e-01,-3.360863174890723476e-02,3.197678625583648682e-01
4.007017021674473267e-01,4.143047619139201831e-01,2.114651047105522430e-01,-9.917948940346888896e-05,4.508116608559814033e-03,-7.366348611434749179e-03,1.969607025384902954e-01
3.234155285489053733e-01,3.038290084780049805e-01,3.146281526565307129e-01,-1.917687907432771843e-02,-1.530878723970119197e-02,-2.222779546127050948e-02,5.981049314141273499e-02
3.106290785428431067e-01,3.452410220949960751e-01,2.995488188186636869e-01,3.134167167418848085e-03,-3.521375954311007587e-03,-1.515444960101865754e-04,4.208332672715187073e-02
3.714707014850411326e-01,3.769808367632048740e-01,2.923923893955934217e-01,-1.319705182921915819e-02,-3.269586476992289437e-02,-2.948379215517363261e-02,1.142667979001998901e-01
2.817059785969717733e-01,3.464920916408592566e-01,3.053205341651155647e-01,-2.789389001307620783e-02,-4.057397614436894506e-02,-3.818323718383341558e-02,1.219500750303268433e-01
2.685882302911089536e-01,2.470524260168945607e-01,2.605810253087460504e-01,-6.438376573935541969e-02,-5.997184599196683091e-02,-6.820287912943356901e-02,1.937422007322311401e-01
3.598148257371127645e-01,2.989326308657070941e-01,2.747538047455739818e-01,-5.254927940819075632e-02,-5.938264933349362423e-02,-7.995551337560460881e-02,2.092967927455902100e-01
2.422647301236941497e-01,4.054872067602801611e-01,3.476028648402401666e-01,1.493218165977930854e-02,-3.175045836420076206e-02,2.208586027102640847e-02,1.603143513202667236e-01
2.717072548652781361e-01,3.402855819752481081e-01,2.363125043182144891e-01,-8.905108715765615301e-03,-4.511278060232552789e-02,-1.858992961333166133e-02,1.255517303943634033e-01
2.786224889424410156e-01,3.248212985839079581e-01,2.458714989402841222e-01,-1.637779424049994048e-02,-2.965080217864396114e-02,-1.950743208312501198e-02,9.645641595125198364e-02
2.543613886548555247e-01,3.263548010348223949e-01,2.604697279818063427e-01,-8.975309301166363440e-03,-3.614273800648257207e-02,-9.496572072832481365e-03,9.597770124673843384e-02
3.533077936844167266e-01,2.526650093608985292e-01,3.697240646273023401e-01,1.033835340046706380e-02,-3.935846582425398389e-04,-1.496893552311862399e-02,1.142101585865020752e-01
3.582708581031283646e-01,2.327339079956296797e-01,3.090896696871620053e-01,1.076031076828147526e-02,1.369620515621988027e-02,-5.084898343752345534e-02,1.437749117612838745e-01
3.709635395416320813e-01,3.048147866396863082e-01,4.096286821623266738e-01,4.253516544690760792e-02,1.555558818345152174e-02,-2.615220262172270049e-02,1.289719492197036743e-01
2.768984358917691013e-01,3.483558965298119703e-01,3.266562560847047214e-01,-1.681478680543047402e-02,-2.782776380832316376e-02,-8.003203782806736499e-03,8.596488088369369507e-02
4.172162621584306064e-01,4.317781935147165795e-01,2.598250789128306315e-01,-9.295671134568086851e-04,-3.375079675174427751e-02,-2.496772412291576107e-02,1.804606765508651733e-01
3.337117541005640287e-01,3.509118746450722859e-01,2.742781472599610249e-01,-8.589213311178674898e-03,1.027345594590079944e-02,5.708073231485541812e-03,7.406865060329437256e-02
2.918868360942853402e-01,4.470714375430914767e-02,2.707888994700602403e-01,7.110468867609390231e-02,5.014874426980842070e-02,-9.984000741263629464e-02,3.300671875476837158e-01
3.662774761514315247e-01,2.502059841437643817e-01,3.759006902264767080e-01,2.530155411783035352e-02,1.444710267306164100e-02,-1.665223078923914329e-02,1.343902200460433960e-01
3.859940493819017937e-01,2.255175978255438696e-01,3.826004602551933420e-01,2.897423681711449803e-02,3.000663386017720508e-02,-2.531008502990755860e-02,1.798920035362243652e-01
3.298047162552292244e-01,2.305556379893935470e-01,3.275103489474821550e-01,1.117953449798346488e-02,9.019911960067444195e-03,-1.415204099068834327e-02,1.041527390480041504e-01
4.059120291738574915e-01,2.007349618075655595e-01,3.906723780054644490e-01,5.120420611579950404e-03,3.098390875467236377e-03,-3.631838355559124931e-02,2.080086022615432739e-01
3.464186717421006145e-01,3.215530654550131651e-01,2.602036529914920626e-01,8.982240022385264491e-03,3.711594121907350018e-03,-1.409715848823320759e-02,8.238384872674942017e-02
3.111402074031061615e-01,2.986183595633382648e-01,3.615911490799862960e-01,4.695721086847025327e-02,-4.476651753314115842e-03,1.324149408999533359e-02,1.026396825909614563e-01
3.045637577851118549e-01,3.170666856889091112e-01,3.343711468761990102e-01,1.610024107512460917e-02,-1.345503907059688968e-02,9.362520748819125674e-03,4.749591648578643799e-02
3.311205792093084299e-01,3.291482621367164407e-01,3.212286296191583235e-01,9.479104461238722912e-03,-5.935929266312174948e-03,7.914113060715984721e-03,2.540464885532855988e-02
2.569048862214189377e-01,3.286745319329510417e-01,3.109263430576980625e-01,2.191442198510572606e-02,-2.704178130965737004e-02,1.778628081792487520e-02,9.367845952510833740e-02
3.127785058406754581e-01,3.111296931086279804e-01,3.210977362961318082e-01,5.477230572021999679e-03,-5.969195938056762532e-03,5.226090365020051587e-03,1.909123174846172333e-02
3.099038469126143003e-01,3.204820619655434633e-01,3.155888150349294707e-01,8.296600882274358935e-03,-8.023779082218979869e-03,9.636881612975805450e-03,2.761037833988666534e-02
3.142574787270571712e-01,2.940660405457651283e-01,3.211188029411605749e-01,1.473153271448600365e-02,-1.442690336702113878e-02,1.084695889000866428e-02,4.713536053895950317e-02
3.172053861503232874e-01,3.254968898465211424e-01,3.294018527570378163e-01,8.241887453353684279e-03,-9.097674363700994707e-03,8.707513338320403001e-03,2.821218408644199371e-02
2.517162719048967601e-01,3.306029024154141238e-01,3.442203085216193892e-01,4.649625245480393243e-02,-3.204588612723833357e-02,2.528795465111357416e-02,1.377233713865280151e-01
3.093979371954400093e-01,3.099452416339223415e-01,3.378892790884875375e-01,-6.348822359650194667e-04,-1.022722404201767757e-03,6.780120220754924480e-04,2.832293882966041565e-02
3.138999963869297805e-01,3.111614666700809884e-01,3.246121073789577927e-01,5.107557996072511347e-03,-5.348094120838765494e-03,5.734236775532267939e-03,2.035427466034889221e-02
3.254498169080757841e-01,3.212156971116248427e-01,3.461898410248122615e-01,1.352644122567248780e-02,-6.706667388533082801e-03,7.715093663300702682e-03,3.739374503493309021e-02
3.149659982417478687e-01,3.436316865218810856e-01,3.038472958996218942e-01,7.951063685154791810e-03,-1.281256576125201774e-02,2.590415399093211161e-03,4.434351250529289246e-02
3.433308984847265322e-01,2.987575534999326599e-01,3.040326987681608029e-01,-1.379551570260507888e-04,2.182374050767642640e-03,-2.320869675016369767e-03,4.254390671849250793e-02
2.545324516553871819e-01,3.190818821249075676e-01,3.134600893023747892e-01,2.192201478977941209e-02,-2.710183447283598043e-02,1.800536940699020913e-02,9.194119274616241455e-02
3.087580731694850034e-01,3.082518688941982554e-01,3.328816524502600793e-01,9.065809605683424616e-03,-8.222736381734003369e-03,6.737459645999976932e-03,3.435115516185760498e-02
2.577148670444714407e-01,3.826433533699308276e-01,3.059171267353594792e-01,1.036822615869267133e-02,-7.746439663381893270e-02,3.341294025397851392e-02,1.832558959722518921e-01
2.877257715504087376e-01,3.430040487770762425e-01,3.733897108184901503e-01,4.482286540348640047e-02,-4.446156795794020677e-02,2.457503882602136980e-02,1.393850892782211304e-01
3.026275393898767430e-01,3.365461109904089865e-01,3.542332062779113833e-01,1.661117574736843336e-02,-7.198042211996861020e-03,9.781533396412377124e-03,5.773636698722839355e-02
2.730481022214685805e-01,3.557983544265424514e-01,3.258927521590101462e-01,1.672859135470963765e-02,-2.582549797328716548e-02,1.381736514441114956e-02,9.316876530647277832e-02
2.452124179473181287e-01,3.931395998271957071e-01,3.831297780813147646e-01,2.008657530971270921e-02,-3.011724757745127753e-02,3.490198291276049025e-02,1.675945222377777100e-01
2.761058363203339194e-01,4.006459604282044396e-01,3.781838618877640390e-01,4.694282773340729964e-02,-3.718952459703844804e-02,4.192048820142872667e-02,1.710245758295059204e-01
2.395078385338869353e-01,3.195263376521045862e-01,3.554106632587044623e-01,6.621667831718461295e-02,-3.779539959045065400e-02,5.538246770903025584e-03,1.676111370325088501e-01
2.158160753653881603e-01,3.174603507969431249e-01,2.262121147991721370e-01,-2.094740765231140750e-02,-7.555834259005764220e-02,-2.235763923939425996e-02,1.712486594915390015e-01
2.960774017509686939e-01,3.799809710591639522e-01,3.742632806584068050e-01,1.753361200105187090e-02,-2.668908465797776089e-02,8.474833166001234652e-03,9.933498501777648926e-02
2.976755455217770518e-01,4.500624058179130693e-01,4.332546843086346744e-01,3.637728776725986102e-02,-3.940630014204848930e-02,1.923765810943597193e-02,1.751620173454284668e-01
3.700729147637603078e-01,3.582896812015535781e-01,2.333322327318570477e-01,4.874322722836837291e-02,5.128811735222280066e-02,-9.152416767572975342e-02,2.395302653312683105e-01
3.873148202652157424e-01,3.732135762194784268e-01,2.937067696693473340e-01,4.132352842432018836e-02,8.954314542240333907e-02,-8.042593738909646628e-02,2.371142059564590454e-01
3.441086640663344465e-01,3.590847341151622296e-01,2.765570904620017201e-01,1.537805564516437490e-02,1.840207639380954385e-02,-5.951860765391187719e-03,8.735440671443939209e-02
4.422905565920323134e-01,2.655079129553256090e-01,1.865075077733774900e-01,4.197283146541871957e-02,6.410264660454778607e-02,-1.183040653250060081e-01,3.332554996013641357e-01
5.347065434867089850e-01,3.904386099765941864e-01,2.541719870621472754e-01,7.843653069765979535e-02,6.101446783191102896e-02,-1.166961115467092802e-01,3.598886430263519287e-01
3.500316811560565400e-01,3.607246648878669193e-01,2.835720699340952833e-01,3.347491596962880785e-03,2.766647296370933901e-02,-1.246505879164292764e-02,8.965446054935455322e-02
5.362925068995194611e-01,3.640510303198001840e-01,3.699975925363503948e-01,3.781919738613884197e-02,8.079903915466166153e-02,-1.176514893745002482e-01,3.067249357700347900e-01
6.520898543896518351e-01,4.235304425972817866e-01,3.955904097243136963e-01,1.620868010834130082e-02,6.652813204179758300e-02,-1.011303823137016666e-01,3.227293193340301514e-01
3.013942321941728841e-01,3.275832710994083796e-01,3.018863012242519739e-01,-9.120886984417847509e-03,-1.077409045116605769e-02,-6.803918424288978896e-03,3.754884377121925354e-02
3.114636331315989715e-01,3.203558994044980457e-01,3.171174741326996949e-01,-5.428579391650233295e-03,-9.609444562364226339e-03,-9.791031564920973235e-03,2.671681903302669525e-02
3.493248326981031049e-01,3.169260411585709258e-01,2.708451020030677725e-01,-2.230539965005504457e-03,-4.273736727096523816e-03,-8.465930927601684683e-03,7.036218792200088501e-02
2.685062596152298919e-01,2.221327920088937424e-01,2.708167107275388230e-01,-5.947680731236096308e-02,-4.101409705442021769e-02,-5.534652423711384356e-02,1.646561026573181152e-01
3.015795129820384446e-01,3.076406454269016155e-01,3.068179769734267759e-01,-3.093597066766321999e-02,-2.250358749015690663e-02,-2.147529178204328135e-02,7.619927823543548584e-02
3.007504950285124767e-01,3.294281520615246484e-01,2.958751893840327885e-01,-7.268150741385329128e-03,-1.558422179837722944e-02,-1.083702661151749250e-02,4.717408493161201477e-02
2.753857580212312195e-01,3.744538325190903127e-01,4.523952570251194016e-01,-1.432413396023006491e-01,-7.299016933950883135e-02,-5.102609204942671478e-02,3.300890624523162842e-01
3.113445495553597842e-01,3.621819193842332196e-01,3.440333154965635187e-01,9.136106193345649995e-03,-1.317642279038401705e-02,1.084925822222481545e-02,5.581721663475036621e-02
3.217102837293681072e-01,3.479083633155151678e-01,3.100449162779598256e-01,-1.696629625504118138e-02,-1.796683511428874558e-02,-6.407987103872813534e-03,5.552661046385765076e-02
3.149287707599354169e-01,3.323721795564137937e-01,3.091930944940430859e-01,-3.765731541544907468e-02,5.783396327755995631e-02,3.126930496427372114e-02,1.328873634338378906e-01
2.922823675261719822e-01,3.357720954316472106e-01,3.531637197832849795e-01,-2.506263564696202539e-02,8.551495508286207498e-03,1.166008626066439118e-02,7.390430569648742676e-02
2.539063214733709994e-01,3.298921243789148527e-01,3.243550371135031085e-01,-3.117279540116200953e-02,3.794669004700623738e-02,2.053139354912125042e-02,1.178280934691429138e-01
2.351946870171088833e-01,3.128115543812186039e-01,2.891867294788035836e-01,-3.211099638785001875e-02,3.317602039136584996e-02,1.760327344682221726e-02,1.098805889487266541e-01
2.326649005583207031e-01,3.210513021753864105e-01,3.590475334828576726e-01,-8.166120945174080992e-02,5.730556310193856556e-02,4.245125374066503754e-02,2.188103944063186646e-01
2.896971972231172643e-01,3.750013649872849242e-01,3.922373420654619580e-01,-3.363611512643929075e-02,3.113744865615045848e-02,3.638845362558471019e-02,1.389939785003662109e-01
2.696821280125654696e-01,3.018422353494362165e-01,3.236014894722966106e-01,-2.592278755651468078e-02,-1.881209756452590504e-02,-2.386290840331704854e-02,8.362708985805511475e-02
2.742891811368938226e-01,3.249891064608769753e-01,3.395716246987474651e-01,-2.282035035417408209e-02,-1.856131555804938979e-02,-1.514293799227871967e-02,8.250007778406143188e-02
3.370650494084987958e-01,3.642247004848336300e-01,3.187036322755580908e-01,9.782629766797135487e-03,1.898558114129325625e-02,-9.226891880859188627e-03,5.654503405094146729e-02
2.849751460696912653e-01,3.296913484317952614e-01,2.806487585473128599e-01,7.032133801510284665e-03,-2.072825552598634227e-02,7.226324185382214035e-03,6.169043481349945068e-02
3.116906930005348131e-01,3.281595617098131412e-01,2.834026011612132412e-01,9.243820857657819579e-03,-1.045474646053786913e-02,1.146590167974342704e-02,5.015937611460685730e-02
3.176646595619280200e-01,3.489345930876850410e-01,2.904705322087298147e-01,1.676029050045474379e-03,-2.170170085737629928e-02,7.792095624507141931e-03,6.458449363708496094e-02
3.136738789262983329e-01,3.405959071103276115e-01,2.656502515607609416e-01,7.220902287779864571e-03,-6.921591667519546090e-03,8.498690119894698053e-03,6.957579404115676880e-02
3.159644596118725834e-01,3.343051394421003297e-01,2.973571199590845371e-01,7.945242336368139868e-03,-3.988128735170294939e-03,7.772963486688704883e-03,3.797680884599685669e-02
2.918362221338409168e-01,2.906390025073977701e-01,3.373919821658895035e-01,1.796075233594396359e-02,-1.096407791513872220e-04,1.330895515270444655e-04,5.567006394267082214e-02
2.845955423031933940e-01,3.084007652720835435e-01,3.717844460496186887e-01,3.874780892233056079e-02,2.889337418752660827e-02,-7.996968883499669389e-03,1.152976825833320618e-01
3.203944375977347825e-01,3.346414677985675157e-01,3.445988342854966469e-01,2.319330357103163709e-02,1.229446891756543966e-02,-2.048053432476072341e-02,6.139704212546348572e-02
2.882950615006164563e-01,2.646645048003819500e-01,3.337196180691600622e-01,3.731597665353324905e-02,-1.074214245933842113e-02,1.313579666128359552e-02,9.346911311149597168e-02
3.291690269846592187e-01,3.027698314819400882e-01,3.602140653977469187e-01,4.672058149477503752e-02,1.376744454296239227e-02,-2.893543405383335737e-02,1.100414469838142395e-01
3.345141343943228707e-01,3.257591582337289737e-01,3.098557077850887520e-01,-3.795706754662212315e-03,2.689023919633490040e-03,3.665289006344241932e-03,2.395874448120594025e-02
2.970773946150107592e-01,2.760074152557669969e-01,3.289623819198012056e-01,4.019687706693449158e-02,2.369224902370018621e-02,-2.191232183152597157e-02,1.005196347832679749e-01
2.986039506894542228e-01,3.364576239211016784e-01,3.023641476342711631e-01,-1.292963548306406193e-03,-9.571749823851697205e-04,-3.666188367850754110e-03,3.678027912974357605e-02
3.136895154468007929e-01,3.339080488120669821e-01,3.679893525233254858e-01,2.051745000774973446e-02,5.036209242168387598e-03,-1.994173757880680214e-03,6.008590385317802429e-02
4.227603682713271804e-01,3.678016106165604704e-01,3.512928581251993365e-01,-8.858567297526670492e-02,-1.023495848737507874e-01,-1.452211441694489791e-01,3.499091565608978271e-01
3.008591308391142527e-01,3.554546025831391565e-01,3.736887219221221579e-01,2.456497917583176649e-02,-7.322349822733671687e-03,6.200907614457157324e-03,7.996979355812072754e-02
2.872775057497524154e-01,3.175868201869683216e-01,3.379099961690060216e-01,1.278451719645815748e-02,-1.037576204767762592e-02,4.847819970633784892e-03,5.321158468723297119e-02
2.836413269859000552e-01,3.203341389882763957e-01,3.463195380792626898e-01,1.702559882702167626e-02,-2.258219301729127472e-03,3.820331386751744072e-03,6.248021498322486877e-02
3.099547087280558610e-01,2.892130653128511808e-01,3.544374495704042394e-01,4.968189086511354963e-02,-1.383984871409975857e-02,3.190169740514788889e-03,1.064969599246978760e-01
3.381799705575483928e-01,3.098252359420284319e-01,3.756520073698305651e-01,1.833357535644003500e-02,7.797942487215821054e-03,-1.492870362957577496e-03,6.684402376413345337e-02
3.193708894729959114e-01,2.885237425703157665e-01,3.465963181397545001e-01,1.514702978122585593e-02,-8.244825755370988746e-03,-3.402428498484123863e-04,5.852498114109039307e-02
3.228188101800926191e-01,2.831625231102660178e-01,3.512396270347908356e-01,1.022202135602200308e-02,-1.055025419891031466e-03,1.605530541501203230e-03,6.190290302038192749e-02
3.320292377455561494e-01,2.965506259275773604e-01,3.649907473782439959e-01,1.505822745653524232e-02,1.041077849921805999e-02,2.735115675581245229e-03,6.739783287048339844e-02
3.356978343625256489e-01,3.248817676756043382e-01,2.774478880064185082e-01,1.140860023125042470e-02,1.433315136866590046e-02,-1.234898475624201554e-02,6.591120362281799316e-02
3.650608706244016233e-01,3.678581284342570812e-01,2.777511035171926213e-01,2.122243195966623790e-03,1.795918018210632128e-02,3.077912041083425646e-03,9.425803273916244507e-02
3.147809586459254239e-01,3.244956739360049802e-01,3.170728863363302952e-01,1.023145036795374083e-03,-3.185169547963747077e-06,-7.030432302382336272e-04,9.054640308022499084e-03
3.462361075589933668e-01,3.709593239811202481e-01,2.507189241593952844e-01,-3.638132350680666014e-03,2.934987790029630270e-02,1.605031554155861989e-02,1.244710981845855713e-01
3.933518044849169670e-01,4.287753449322815325e-01,3.239715945077840664e-01,6.398779182775615878e-04,5.009097146519761456e-02,-2.199038624961430211e-03,1.267642974853515625e-01
2.832443139759482920e-01,3.318368324561833393e-01,1.373995653494259894e-01,6.901352041518842538e-03,8.686116701026473652e-02,-1.829362425824050675e-02,2.334530651569366455e-01
3.574944913466228669e-01,3.882217068628712742e-01,2.314759912741897740e-01,9.905610907073982355e-03,3.445081388579900039e-02,1.352025196980905647e-02,1.584309041500091553e-01
3.148595769696994617e-01,3.394432311857209505e-01,6.994235613721255795e-02,-4.988493692583111615e-03,4.754448320123458305e-02,-1.080369879132184012e-03,2.710523009300231934e-01
3.652844120148211471e-01,3.871865625056010174e-01,3.439197101540893420e-01,-5.564067668782310405e-02,-6.382615842579930643e-02,-5.700414004944902996e-02,1.807249188423156738e-01
3.212063553232480939e-01,2.999184623826602336e-01,2.985679122292762555e-01,-4.576097183673177859e-02,-6.639343707686430618e-02,-5.138745310608817951e-02,1.670695245265960693e-01
2.923941674958692172e-01,3.165433668605180384e-01,2.801630736885997175e-01,-1.136575620415317123e-02,-6.815751471527772658e-03,-6.231593341567386035e-03,4.088468477129936218e-02
3.377959251161341547e-01,3.568168356500509564e-01,2.596254671572622574e-01,4.542594360142369544e-03,1.295732810271711492e-02,4.152792029677132915e-03,9.260997921228408813e-02
3.076751127079117021e-01,3.196018676577381257e-01,2.886088585434345433e-01,-8.720044775640280882e-03,-3.254867380594792491e-03,-3.810024359110750214e-03,3.219653666019439697e-02
3.039240329045861944e-01,3.325443946847652654e-01,2.898322774883186903e-01,-7.246656323000077830e-03,-5.532310151763526578e-03,-4.092810995838251815e-03,4.148045927286148071e-02
2.817281500233841385e-01,3.230750260637841320e-01,2.744725897921529989e-01,-8.637963885405181702e-03,-1.418563027766989171e-02,-1.022602183799867573e-02,5.659908428788185120e-02
2.857049184572764133e-01,3.442682029316277426e-01,2.973212461915731852e-01,-3.531474010676729624e-03,-1.442961044550838089e-02,-2.412847786186899084e-03,5.969779938459396362e-02
3.170304561506142038e-01,3.593248713720910703e-01,2.933328808282881783e-01,-7.425316844322575778e-03,-1.640419964339366946e-02,-5.352763647414781473e-03,6.641779094934463501e-02
2.956269849247554760e-01,3.461304389425369221e-01,2.877931257581546887e-01,-1.339735105060494563e-02,-4.507178776511205909e-02,-1.914619620643582404e-02,1.036349385976791382e-01
2.717320695247940066e-01,2.909599055241288146e-01,2.923441662933730090e-01,-1.872782970311526185e-02,-2.263922935070622131e-02,-2.014427976248327895e-02,6.484919041395187378e-02
3.046950942314171074e-01,3.371999906855909224e-01,2.874285528719711658e-01,-7.725016081985218441e-03,-5.221713847644544187e-03,-4.680024324704306488e-03,4.735486581921577454e-02
3.269067172629588902e-01,2.988567187807847358e-01,3.166454460426840756e-01,-1.106088410192640654e-02,-1.029163845885958800e-02,-1.188519406532527294e-02,4.138627648353576660e-02
3.146101085316558299e-01,3.304656054633547391e-01,3.199568241053113993e-01,-1.496004583663518468e-02,-1.550385776961345739e-02,-1.644123403606811626e-02,4.897621273994445801e-02
3.238825964555780978e-01,2.819323812408834895e-01,3.288370019672374189e-01,-2.127756714447974484e-02,-1.238834254569680209e-02,-2.197328438030715647e-02,7.252102345228195190e-02
2.884318433784884284e-01,2.870185982197632213e-01,3.049997737576827794e-01,-9.348306755249547600e-03,-9.302444369478215375e-03,-1.137516245612270847e-02,3.478318452835083008e-02
2.921967290159381281e-01,3.149511728101752062e-01,2.937885911890585344e-01,-5.320807761258713325e-02,-9.372784767165648345e-02,-5.932331126651214925e-02,2.142192125320434570e-01
2.212141994054276917e-01,2.825360236956353521e-01,3.623510834965516514e-01,1.271818328284362587e-01,2.701846947128978133e-02,-5.296060823109897953e-02,2.723147869110107422e-01
3.170338969805823748e-01,3.304824774905028573e-01,2.989364608329794226e-01,-9.251416341881802535e-03,-9.822932334322818926e-03,-7.814057095651149448e-03,3.848611190915107727e-02
4.286487084231495603e-01,2.321757910552368909e-01,3.335398754253088294e-01,1.153622893098297519e-01,5.053861103124315107e-02,-1.194094397613262581e-01,3.454340100288391113e-01
3.407619293949738504e-01,4.319500781880088458e-01,3.514512444596208374e-01,2.745113101852525786e-02,-7.119779059600575555e-02,3.283413319249814388e-02,1.678008139133453369e-01
2.841736922402176568e-01,3.858790856667780322e-01,2.711946794148475393e-01,5.388492300215947522e-03,-7.273911615086597893e-02,-2.214519576147639182e-02,1.710665076971054077e-01
2.963245458827187262e-01,3.596039356253897812e-01,2.703591040103033860e-01,-5.742448498847090195e-03,-3.260720021446904260e-02,3.199628829946754051e-03,9.818804264068603516e-02
2.906952356064883003e-01,3.450023955832797196e-01,2.919508792381758089e-01,2.109241759554076300e-03,-1.412365321916185870e-02,3.598179586073445811e-03,5.944135040044784546e-02
3.640981543827415678e-01,2.792068698932491100e-01,3.782635361996093404e-01,3.565274577490425058e-03,2.628289214255272177e-03,-1.002324708292399308e-02,9.470987319946289062e-02
2.642913449245707369e-01,3.188520555396500145e-01,3.150302481310195413e-01,-2.227538255396895039e-02,-2.179356223231530137e-02,-1.362140605809858233e-02,7.907617092132568359e-02
2.684540624248518137e-01,3.500281454203494347e-01,3.281386119301304971e-01,-2.607217790419733353e-02,-2.806871050948011106e-02,-9.364966595934030164e-03,1.000690013170242310e-01
3.063321894442027626e-01,3.112162868435056629e-01,3.444693088860606989e-01,1.402396251779807791e-02,6.552516476717702189e-03,-1.226661680548812687e-02,4.962116107344627380e-02
3.129838298200789959e-01,3.000036176728034243e-01,3.510640289023667093e-01,-1.979702648311410310e-02,-4.364748663083855076e-03,-5.009939305561674633e-03,5.849012732505798340e-02
2.530519068378022651e-01,3.202779600812095118e-01,3.484130091693320996e-01,-3.169769843390628228e-02,-2.252708471988115052e-02,-1.441106496757640909e-02,1.111845672130584717e-01
3.075425506159745748e-01,3.203394070983433539e-01,3.386924075384152300e-01,-3.118381516656659747e-02,-2.422739743943632534e-02,-2.367697994403582945e-02,8.423444628715515137e-02
2.988577141860690456e-01,2.602340171009632219e-01,2.608186915819853957e-01,2.187813667560611214e-02,2.739015806486867419e-02,-4.626554968837209847e-02,1.075996011495590210e-01
3.491940081295156206e-01,3.136953689115119515e-01,3.521495694130356013e-01,2.080068360096733182e-02,1.418844317337042589e-02,-1.471498511472253690e-02,6.265253573656082153e-02
4.002567715036526863e-01,3.488451295510164307e-01,4.105983188390823213e-01,5.606124494653547813e-02,3.431229093615636994e-02,-2.933018004980808904e-02,1.371974796056747437e-01
3.251761492313113289e-01,3.340440473189479897e-01,2.954499429090218787e-01,1.663255191391814491e-02,1.545297213027636320e-02,-1.385249430143586230e-02,5.786085873842239380e-02
3.291685339952941103e-01,2.889006053877470892e-01,3.073890247050866109e-01,1.309553432240400175e-02,1.300070571177015452e-02,-1.832466900033838386e-02,5.698905140161514282e-02
3.090448616017374417e-01,3.528016889122729260e-01,2.773403833344038616e-01,6.538241157926488051e-04,-1.091896304151053140e-02,1.904375553001347874e-03,6.838826835155487061e-02
2.558712899518011952e-01,3.293530761568835286e-01,2.659866676154292175e-01,1.042145575223369985e-03,-3.588456613826021546e-02,2.263526295374957645e-03,9.295339137315750122e-02
3.215257236844598077e-01,3.563129205543218991e-01,2.740416542843930880e-01,3.434562044976299106e-03,-6.835341058792844711e-03,1.397637670116548807e-03,7.278831303119659424e-02
3.153514525057481976e-01,3.470182742623799665e-01,2.490955627021564089e-01,-1.579416972260373330e-04,-2.073622612710168678e-02,8.953044300142878279e-04,9.371870756149291992e-02
3.363322807046661977e-01,3.657668437850601917e-01,2.662438517076847200e-01,5.907469017040505553e-03,-1.627374898442010553e-02,4.760217593000171284e-03,9.385617822408676147e-02
2.817953184131467004e-01,3.483608002033028450e-01,2.040156917333034170e-01,-8.167172074497817957e-03,-6.442815201773749445e-02,-4.060135566748050706e-03,1.684060394763946533e-01
3.447987305365684541e-01,3.079209230590157498e-01,3.131881200944180432e-01,9.992270033055963493e-04,-2.865696198722064887e-04,1.333711454132073537e-03,3.467061370611190796e-02
3.138527486273500755e-01,3.744221701700462535e-01,2.728179352906497379e-01,2.186150603123101360e-03,-4.053335097885171767e-02,-1.823429708248755542e-03,1.130979061126708984e-01
3.800468992898300424e-01,3.376518196515740922e-01,2.897523763239522876e-01,-8.037324884238097877e-03,-1.231670121365012645e-02,-3.254322799394923638e-02,9.974209219217300415e-02
3.299427320173202172e-01,2.953795236028886606e-01,2.868658376303658830e-01,-4.337038461783911114e-03,-2.414486350613745478e-03,-3.601037337007329669e-03,4.091674461960792542e-02
2.976302129680570840e-01,3.330355853998980264e-01,3.018419860846199287e-01,-1.142825326961577695e-03,-1.887722390538534118e-03,-1.118305930848768285e-03,3.377159312367439270e-02
2.694145447049889341e-01,3.308776626303180368e-01,2.521045812360886984e-01,-4.841289206468808726e-02,-9.152979268753674846e-02,-3.533841959484632089e-02,2.026134729385375977e-01
3.359480219891298192e-01,2.649429360161126290e-01,2.509380232852488346e-01,-2.580219113775697980e-03,-3.979288867217905222e-03,-3.963889061437635142e-02,1.049451380968093872e-01
3.908918965257695555e-01,3.215220623351902063e-01,2.105423759997667732e-01,-1.328586319579568367e-02,-3.215820669356192485e-02,-7.432449006471916753e-02,2.122067213058471680e-01
4.050948664054433435e-01,2.713728176656685642e-01,3.137278190728542970e-01,-2.754883176633552908e-02,-8.734297017436665200e-03,-9.321199986860473352e-02,2.063561081886291504e-01
3.569531929298241368e-01,2.937655900021881039e-01,3.282315296955874984e-01,3.556255095398696674e-03,2.619463299184835153e-03,-1.495893476043758802e-02,6.109491735696792603e-02
3.451747298444475254e-01,3.342351404651818236e-01,3.084303504462956314e-01,-2.697611343513283202e-02,-3.542403404247015941e-02,-3.875077175084395975e-02,1.073333173990249634e-01
3.426491701385198652e-01,2.773934281819804282e-01,3.071568282959567520e-01,-2.351710313618051579e-03,-1.107387114260716642e-02,-1.185304444487328933e-02,6.330803036689758301e-02
3.554394868900644933e-01,2.960615743290994639e-01,3.160091174554545135e-01,-7.781236518074495165e-03,-6.470001393258351628e-03,-1.649947902665069993e-02,6.215401366353034973e-02
3.396472638549133949e-01,2.967246041021117109e-01,2.942761800477056156e-01,-7.718255681197821495e-03,-6.356478623901296553e-03,-1.496908070111030963e-02,5.408873781561851501e-02
3.067990178826219827e-01,3.632753951982530261e-01,3.656470270081094709e-01,3.668472638715292861e-02,4.701648914631167964e-02,-1.773295568715653817e-02,1.222353428602218628e-01
3.219064167707046398e-01,3.102915898292724628e-01,3.186523432232716280e-01,-5.767503044574616346e-04,4.111579718148695647e-03,6.262008643789509447e-04,1.267230324447154999e-02
3.467026540293904335e-01,3.207377902693903104e-01,2.711414128734777607e-01,-7.385256557930905234e-03,-1.660147274900415290e-02,-3.259606793639330258e-02,9.273457527160644531e-02
3.124461869937452674e-01,3.394788439219612597e-01,3.159344387719482117e-01,-1.512171403648614014e-02,3.870944716508141481e-02,2.750384783066061462e-02,8.999601751565933228e-02
3.261442407504141494e-01,3.424502293295005884e-01,3.151997154101372489e-01,-1.063932141168852721e-02,1.357199965111803401e-02,8.097861242972497625e-03,4.065757244825363159e-02
3.188631117045027108e-01,3.442666701276925201e-01,3.157594416789821778e-01,-1.126206113664478779e-02,1.090682162816111397e-02,1.088174108750676085e-02,4.273678734898567200e-02
3.393061080459681134e-01,3.186772769326282062e-01,3.242478612880035360e-01,-8.183480260581004612e-03,8.038739680760235984e-03,1.031415527697688087e-02,3.248973563313484192e-02
3.122487893430987427e-01,3.078189388029797802e-01,3.086989402426023044e-01,-1.374444041736645229e-02,1.940832940776722471e-02,1.379270148891081904e-02,4.779115319252014160e-02
3.038447786765209879e-01,2.896599065089910385e-01,3.172218127246935193e-01,-2.101168112093856552e-02,1.790780371026180762e-02,1.648528050496348221e-02,6.059489399194717407e-02
3.074837536556415674e-01,2.731839170060632038e-01,2.962440407838459189e-01,-1.915743713617205218e-02,1.631780476847673189e-02,2.317738067511821917e-02,6.654845923185348511e-02
3.290019960581355152e-01,2.914056366077369953e-01,3.163590500277894124e-01,-5.918869041121997514e-03,1.025381104829736073e-02,7.548720278111544293e-03,4.110318794846534729e-02
3.155205244922462127e-01,3.249067741063049741e-01,2.919403425172178990e-01,-8.750594537833247116e-03,1.122042269101169304e-02,3.457011231810131272e-03,3.884226083755493164e-02
3.108717261257864517e-01,3.352357974677503960e-01,2.985225487287752610e-01,-5.553816561330573651e-03,1.023301254295832727e-02,8.408374860720950819e-03,4.081380739808082581e-02
3.269642844809283466e-01,3.125446980078842030e-01,3.231564770658818531e-01,-8.080204722757352784e-03,5.939678285091072596e-03,6.681650036573165419e-03,2.455928921699523926e-02
3.246238054785073879e-01,3.380112212750662759e-01,3.148919157287268233e-01,-7.701120906970077701e-03,9.626910412777158615e-03,9.581708901154617486e-03,3.369864821434020996e-02
3.189572895678526310e-01,3.412007435804652045e-01,3.187981345604339878e-01,-5.999381842182939517e-03,7.051100417548097042e-03,5.149128182398907821e-03,2.889652363955974579e-02
3.208902463094719937e-01,2.959573972206633874e-01,4.235843590647745960e-01,-8.468139413077152566e-02,1.044519289025955602e-02,1.742953204434097639e-02,1.909965276718139648e-01
3.676376875681266476e-01,2.588961356138211878e-01,3.961368072616805458e-01,-2.354755369813944788e-02,1.260405049562429020e-02,1.944960868008487054e-02,1.378799229860305786e-01
3.383491374358842951e-01,2.647694811937538750e-01,3.881627429445816957e-01,-6.759362250535695671e-02,1.228537254834129872e-02,2.982582655116109566e-02,1.684899181127548218e-01
3.247779293066247464e-01,3.898390142494525534e-01,3.103177445733422690e-01,-3.998357543731187805e-03,-3.973086699166818170e-02,-1.116757248423311775e-02,1.026672646403312683e-01
3.041082891018686007e-01,3.498018659372448269e-01,3.166970287802438611e-01,-8.518541110026582597e-03,-1.489624955286704411e-02,-8.036132435904209947e-03,5.242408439517021179e-02
3.372975848101213425e-01,3.189663122520103311e-01,2.626131291097479892e-01,-2.470144805129495871e-02,-3.400552254773843430e-02,-3.315367075058467394e-02,1.146379113197326660e-01
2.566611191920954438e-01,3.373949362984516309e-01,2.884947370074321671e-01,-3.007270755298840914e-02,-6.749291264685880476e-02,-3.069869655069670453e-02,1.554589718580245972e-01
3.320299238304255107e-01,3.302561828524138710e-01,1.984153339077604494e-01,-1.002818747190094631e-02,-4.073528909586771052e-02,-2.520179633487260734e-02,1.574934422969818115e-01
2.897769472018945081e-01,3.372013539705110419e-01,2.543214625901021875e-01,4.968341781600018681e-04,-1.460331973381950692e-02,2.629196147586118767e-04,7.634356617927551270e-02
2.759517539762500471e-01,3.242774603343511197e-01,2.735168524386921152e-01,-2.498775435843031759e-02,-3.955641629536998244e-02,-2.305399466836872968e-02,1.030569002032279968e-01
3.138703029870641981e-01,3.474373568629523512e-01,2.991328013690217058e-01,-9.187986321480400009e-03,-1.407419268368150997e-02,-8.782789700032034991e-03,5.401438474655151367e-02
3.364125229215233492e-01,3.285683917063405568e-01,3.174630863041870144e-01,-1.091628683892349218e-02,-1.232249919844962890e-02,-1.284794277615587503e-02,3.975181281566619873e-02
3.707795208274523580e-01,3.734178103644938407e-01,2.943069914821783151e-01,-4.677452163522952816e-02,-7.108460214512768438e-02,-7.238621976967489491e-02,2.085633873939514160e-01
3.276640864042382750e-01,3.316761038413278406e-01,2.558010905281988268e-01,-1.302080177262213666e-02,-3.359488783082402452e-02,-1.668317368161507941e-02,1.009859442710876465e-01
3.293032187179343317e-01,3.266291433758066742e-01,2.296127458305914359e-01,-2.177753789038718024e-02,-4.612357187314662654e-02,-4.123533786298385490e-02,1.502822488546371460e-01
2.697349974479359980e-01,2.457479278014883251e-01,3.406929286706512627e-01,-4.060643548591308383e-02,-5.399701055320001858e-03,-7.239978669166056112e-03,1.118206158280372620e-01
2.573291962440621972e-01,2.835866419269925665e-01,3.426939730915277149e-01,-3.312124600160704091e-02,-1.361491841443047881e-03,-6.780846913121511658e-03,9.575849026441574097e-02
3.474638616368392330e-01,3.468023534883113435e-01,4.366007510329796282e-01,-8.095705199311112321e-02,-2.753995241155188234e-02,-2.922533598895366361e-02,1.802904009819030762e-01
2.714478008033234802e-01,2.961800478548732296e-01,3.558342695921712928e-01,-2.688065598303882725e-02,-2.359091416761117943e-02,-1.006196287662264495e-02,9.892787784337997437e-02
3.395401927243261730e-01,3.398216368546784771e-01,3.491772000588805880e-01,2.872406150895114377e-02,1.691091021020940319e-02,-1.379450925198746729e-02,6.320012360811233521e-02
3.465434683352595080e-01,3.628870339687125246e-01,3.432224684002360693e-01,1.999580518106135185e-02,2.640217567376754865e-02,-1.425280376580624273e-02,6.505817919969558716e-02
3.192699366313765386e-01,3.039087911179584323e-01,3.016191973259423342e-01,6.148602816639365046e-03,5.877568363893281508e-03,-7.913912769642296452e-03,2.610213123261928558e-02
3.552628672945201682e-01,3.199047327118967332e-01,2.990300325659156488e-01,8.081234659927116065e-03,8.984676479952744682e-03,-1.969891075520454823e-02,6.345293670892715454e-02
3.813022258584287671e-01,3.553153223357033430e-01,3.286327638899180781e-01,-3.794894981888054242e-02,4.373540072919783472e-02,4.476168077782270716e-02,1.347227692604064941e-01
3.192938437298478704e-01,3.336386785221145401e-01,3.133379635552061560e-01,-1.112747553179111327e-03,2.661379412494340076e-03,3.549453439066004197e-04,1.876231096684932709e-02
3.149764974433039710e-01,3.269095196962235050e-01,3.137251121312769619e-01,-1.462458263521789490e-03,9.954684878179802417e-04,2.979584732525672464e-03,1.396133191883563995e-02
4.323991205101671564e-01,2.645816257537163541e-01,3.772872049729767419e-01,9.099709991089900349e-03,1.930815002222037099e-02,-7.324851265583839921e-02,1.985299736261367798e-01
2.856233327672015876e-01,2.981494198523120254e-01,3.377324192434206784e-01,5.849915344802815442e-02,4.833496221754837036e-02,-2.022776409310004728e-02,1.439523696899414062e-01
3.532626836358259137e-01,3.369007393764398839e-01,3.384564719709121094e-01,4.507931095434138113e-02,7.031448081019331386e-02,-2.560345860048806460e-02,1.521187126636505127e-01
3.159730158935236122e-01,2.793268181258705130e-01,2.951577985654584291e-01,1.666044815070947399e-02,-1.596747880314137308e-02,2.559450340515235373e-02,6.764796376228332520e-02
3.805357648513633118e-01,3.595764633945617850e-01,3.555573813921874549e-01,4.432499159556245460e-02,-3.922913629501381672e-02,6.064639820541568166e-02,1.486086398363113403e-01
3.255747435682596058e-01,3.142072940985345397e-01,3.257179677038704591e-01,1.120550192316502325e-02,-6.698249791353173832e-03,1.140488041807105613e-02,3.213052824139595032e-02
3.807106330991392174e-01,3.793268748270187118e-01,3.710190644970290386e-01,5.519402612980256473e-02,-2.121501488133405514e-02,5.269247168292379851e-02,1.374819725751876831e-01
2.350813395397957639e-01,2.524504292655994631e-01,3.491162941595150060e-01,-9.847466940274671177e-02,-5.026261639052855001e-02,-4.808621531281375566e-02,2.343770414590835571e-01
2.602030182449419637e-01,3.238306169350900210e-01,3.725256945945629172e-01,-3.873238494081003569e-02,-4.873295909779125877e-03,-5.793460580942081176e-03,1.191241592168807983e-01
2.418904374664226087e-01,2.931281333117800592e-01,3.582178043254382604e-01,-6.832681435314540142e-02,-1.904077004440731663e-02,-8.086419523114517921e-03,1.596449017524719238e-01
2.716245701620525477e-01,3.408818212166513373e-01,3.962624020313157969e-01,-7.543655305153257329e-02,-2.270411603150929158e-02,7.852919742365713912e-03,1.746497601270675659e-01
2.059956308917561540e-01,3.202767308310480177e-01,2.726767689460821154e-01,-2.717618268341184112e-02,-5.824077800284407913e-02,-2.777607404294384075e-02,1.568192541599273682e-01
2.616521141012028151e-01,3.077543187451540763e-01,2.845760628165734940e-01,-3.419458702067025568e-02,-4.019114049567187874e-02,-3.321832891069995131e-02,1.151444315910339355e-01
2.823164694336470215e-01,3.283257810014116318e-01,3.289952161500849792e-01,-1.508542421992844704e-02,-1.434554084734854934e-02,-1.095409621659856371e-02,6.171041727066040039e-02
2.670425691557062886e-01,3.307511811168759586e-01,2.890986160993392895e-01,-1.446065835116654499e-02,-2.653461771004754499e-02,-1.561079124601744833e-02,8.130668103694915771e-02
3.155364475167894978e-01,3.176074841453063180e-01,3.541041741888991679e-01,-3.932442066539169889e-02,-1.735502341807131782e-02,-1.267981967675695446e-02,8.623826503753662109e-02
3.324472947546442403e-01,3.107664717925745501e-01,3.070165806663560648e-01,9.143757534068649301e-03,5.630462339819989129e-03,-8.825325907120368588e-03,3.383800759911537170e-02
2.833195115229802941e-01,3.593182833520396913e-01,3.250802578477267057e-01,1.087424368940639787e-03,-6.179057427207697122e-03,4.102079123201222781e-04,6.681767851114273071e-02
2.655970976220434765e-01,3.359607358888691553e-01,2.279633711290801890e-01,4.623643728467294496e-03,-4.773510901911889870e-02,9.438242319614809778e-03,1.272111684083938599e-01
3.015172518841324756e-01,3.388267270106368745e-01,2.554554358165413430e-01,-2.352600691899594046e-02,-3.747537850351213146e-02,-3.160289246492258008e-02,1.187522187829017639e-01
3.297442487584848481e-01,4.086261369750159300e-01,3.346379048477394202e-01,-8.444807068508966216e-03,-5.324505714973362669e-02,7.876201564373625300e-03,1.215131059288978577e-01
3.395009316886789530e-01,3.024851262568660770e-01,3.071003427765158222e-01,1.137029891323856640e-03,-1.903389031584540227e-03,4.455230241939679356e-03,3.598511591553688049e-02
2.496010908993028798e-01,3.106551174658316872e-01,2.746646175515688459e-01,-7.340462799498939650e-02,-8.372509741270675598e-02,-4.514370282439253423e-02,2.147878110408782959e-01
3.565174155726479333e-01,2.370338080709743223e-01,3.378629233258081399e-01,-1.214984881708824991e-03,1.957537017021138050e-03,-9.079515562643875742e-03,1.125106811523437500e-01
3.597817456407669812e-01,3.202488639348718413e-01,3.209966819121428672e-01,-3.827985854250001794e-03,9.856053919557039925e-03,2.550726993719970234e-02,6.181498989462852478e-02
2.556272664314428456e-01,3.138583972045299042e-01,3.089013366308065445e-01,-2.285272117649458229e-02,-3.412182217693734976e-02,-2.164802926845123612e-02,9.794044494628906250e-02
2.756740666219826830e-01,3.466830310456096575e-01,3.291508002022605073e-01,-1.994053123181944304e-02,-2.510264988439385100e-02,-8.517238918135763490e-03,8.605603128671646118e-02
3.132015807336616109e-01,3.268283556446267557e-01,3.498087993387197225e-01,1.284877908845688706e-02,-5.586946816260467824e-03,7.385479212686161567e-03,4.218400642275810242e-02
3.196126288206120325e-01,3.297391726178336424e-01,3.386279481150743509e-01,8.467059078236499614e-03,-6.407307330268802864e-03,9.553219197586724706e-03,2.972533926367759705e-02
3.076491947975887320e-01,3.073317577576481496e-01,3.190080357604407335e-01,8.320434830321934289e-03,-5.719768935035297527e-03,6.628538424558669262e-03,2.388259768486022949e-02
3.272864897973923326e-01,2.987420904120926535e-01,3.018774554672218335e-01,5.834827791662430818e-03,-5.756689822172691637e-03,1.057374880290615562e-02,3.566626831889152527e-02
3.229877384570415400e-01,3.287607895909356315e-01,3.180475927235036915e-01,6.766312889749478976e-03,-7.538062977038896724e-03,7.604058746613123233e-03,2.382297441363334656e-02
3.882260718963684853e-01,3.526032131231160438e-01,3.368097060321962322e-01,1.636176303192123788e-02,-1.658707056248013428e-02,5.036385229738596370e-02,1.063912585377693176e-01
3.188983232666415812e-01,3.254237265739170493e-01,3.248155604012200048e-01,5.596405587527553994e-03,-6.259789108781558392e-03,7.421998059672848223e-03,2.039005979895591736e-02
3.234364570605183786e-01,3.289331571093115913e-01,3.127519239127058981e-01,1.085970797662094700e-02,-1.100156826683789356e-02,9.018236270949270619e-03,3.411732241511344910e-02
2.732362544831521967e-01,3.479456088358788279e-01,3.503294520234317977e-01,2.583559967613632130e-02,-2.562031790906141304e-02,2.689475409958581170e-02,1.091186776757240295e-01
3.415803576430771482e-01,2.907108058731579514e-01,2.724887146915389580e-01,1.637816367218218952e-02,-1.032662111380514003e-02,3.500152974347656154e-02,9.298750758171081543e-02
3.805287855121463059e-01,3.721874655744469296e-01,3.711121349180975804e-01,5.088188348229858576e-02,-4.036981201004359587e-02,4.677016532782563019e-02,1.389176398515701294e-01
2.649940597596662228e-01,1.902330706850504094e-01,3.241659196815676602e-01,-6.339154634547886080e-02,6.162723316597745575e-03,1.125285025658555663e-02,1.614420711994171143e-01
3.376215641159123204e-01,3.008727086447182675e-01,3.576542195029359106e-01,-2.645986182743323770e-02,1.826222773026370955e-02,1.867822268939267616e-02,8.145852386951446533e-02
3.132514038697424286e-01,2.483916018820253035e-01,3.359528060277639505e-01,-3.866805251345529354e-02,1.786563589140001754e-02,1.511935667276860344e-02,1.110114306211471558e-01
3.145851433039780209e-01,2.782697916251807846e-01,3.719132385208923086e-01,-8.636993842099015273e-02,4.420841608246297086e-03,7.383979993063064656e-03,1.711394339799880981e-01
3.193997175127247234e-01,3.074714516012132526e-01,3.137504457336710573e-01,6.654266243493816083e-03,-7.825206419775222744e-03,6.666695499552860275e-03,2.359418570995330811e-02
1.612117955718643802e-01,3.477653967742256325e-01,2.237187400156021577e-01,-2.475645440720168275e-02,-1.324905207746683855e-01,-1.999173811747197160e-02,2.876583635807037354e-01
2.211300941916851670e-01,4.107640444486927445e-01,3.478279873405364375e-01,-3.195176782701004276e-02,-1.239413176047392540e-01,-5.465718509495907929e-02,2.934220433235168457e-01
1.457841762590760259e-01,3.358322147081809206e-01,2.828427057145930790e-01,-5.705845575849370632e-02,-1.051607608928391419e-01,-3.267449669470659512e-02,2.738645970821380615e-01
2.653371751373500564e-01,3.699604243049138819e-01,3.346745802502039124e-01,-7.457462747258854392e-03,-3.864908728961073681e-02,-8.255739154060955619e-04,1.146714314818382263e-01
2.344297558220795330e-01,3.474643884409907013e-01,3.359487702077150750e-01,2.346037747176954620e-04,-8.736572106395713161e-03,3.224150624397086832e-03,1.089408472180366516e-01
1.340733960670036917e-01,3.426369117991507895e-01,2.772809633240244098e-01,-3.793696621688243814e-02,-1.065888989668126730e-01,-1.934597018101433599e-02,2.714098393917083740e-01
2.044105128994862519e-01,3.429579243699326097e-01,3.114783573702931130e-01,-1.452243174924445698e-02,-5.320496391203907716e-02,-7.435895844591112851e-03,1.584797203540802002e-01
2.958246232500491568e-01,2.974058012611435764e-01,3.421076529386835041e-01,-1.157975932808349984e-02,-4.491834629172661124e-03,-5.240208760654696887e-03,5.115289613604545593e-02
2.760995143910643934e-01,3.022322179666647179e-01,3.497462885164112079e-01,-2.466948649377700628e-02,-7.785079567938838624e-03,-1.381481331971900518e-02,8.223318308591842651e-02
3.253394096654243506e-01,3.348729500628364053e-01,3.147419853169719506e-01,-7.688057143246890789e-03,8.481757713349550795e-03,6.750565285966726031e-03,2.888034842908382416e-02
3.113361957565418114e-01,3.197621406017077117e-01,3.428117760706036465e-01,-1.271989797950727821e-02,-8.663639974551887862e-03,-1.085594546595423232e-02,4.313484951853752136e-02
2.932842543358323284e-01,2.952962845549837456e-01,3.241156347341521693e-01,-7.162420758394126216e-03,-8.864160991888719865e-03,-8.045173651962212596e-03,3.842374309897422791e-02
2.960423069588539180e-01,2.954513790480732260e-01,3.288954831261512446e-01,-8.280828129059173565e-03,-1.053955159509908229e-02,-6.952673698315620099e-03,4.222648590803146362e-02
3.117009697863933337e-01,3.036787772705661914e-01,3.092017734538738405e-01,-7.065730759267517536e-02,-3.875556847607437155e-02,-5.700614825849077694e-02,1.711227744817733765e-01
3.047654604645611554e-01,3.340439361924079087e-01,3.520095463263752666e-01,2.832024546819220806e-02,3.139896503849326503e-02,-3.089331447516544676e-02,9.966435283422470093e-02
3.574891928732522595e-01,2.663956215328039390e-01,3.430224241351165215e-01,2.597106333478706175e-02,7.956936362352170361e-03,-2.708663014923495468e-02,1.077217683196067810e-01
4.565552730335085130e-01,3.995141525043707231e-01,2.680139839312669081e-01,7.522572628249400359e-03,2.106352086720989468e-03,-7.078488266601419554e-02,2.079939395189285278e-01
3.699799548050232145e-01,2.674115136132078074e-01,1.650050887377335629e-02,2.033330118864363004e-02,-3.048219305139472646e-02,-1.558766582257367084e-01,4.196815192699432373e-01
3.546647912191475127e-01,3.333666778748234916e-01,2.880810935590193966e-01,-3.652115021994996585e-03,4.725487787402107495e-03,5.742049192176794381e-03,6.062020361423492432e-02
5.861690819131697427e-01,4.728975165409454728e-01,2.651541491843977250e-01,3.843142057371227993e-02,2.519491679647588994e-02,-1.481680473300793222e-01,3.895070552825927734e-01
3.801670164570616350e-01,3.536767379655937904e-01,2.173678686856783115e-01,1.961596822566062312e-02,1.520867496231389018e-02,-7.843755254395196053e-02,2.078420519828796387e-01
3.918445665367564779e-01,3.713840325695970668e-01,2.387694161124151171e-01,5.452613721417706727e-02,4.567599703112337067e-02,-7.989833034429813519e-02,2.346232235431671143e-01
5.452024749055517372e-01,3.873353651507258633e-01,2.616990324506688337e-01,1.665977759016798454e-02,4.170236789493821095e-02,-1.381647926984881924e-01,3.519357740879058838e-01
2.938383440008969782e-01,3.075890448548606604e-01,3.451357419643249491e-01,-1.675107347143734576e-02,4.626797955817149588e-03,9.140370426413312792e-05,5.496518686413764954e-02
2.955386159393160739e-01,3.188059260067477307e-01,2.890438994946665230e-01,-1.445596239814606401e-02,-2.572889888209766579e-02,-2.186485923669594100e-02,6.915007531642913818e-02
3.778959988718501584e-01,2.675666745404391422e-01,4.048267465099574802e-01,-7.650234094743348090e-02,-2.368255060854623090e-02,-4.992557319416863343e-02,2.063666135072708130e-01
3.377315043565974895e-01,3.039450129256479061e-01,2.835383443302256223e-01,-1.862590500234212812e-02,-2.472996145987289840e-02,-3.864416171662372196e-02,9.799504280090332031e-02
3.272528270025069630e-01,2.801338067468186477e-01,3.472084523437047876e-01,-2.991378748541339422e-02,-1.012881701651247024e-02,-1.782109636953349563e-02,8.662433922290802002e-02
3.278005424596305839e-01,2.557106596532282006e-01,3.230077895484604333e-01,-2.701661369251926598e-02,-2.361234947563642037e-02,-3.301352536850440944e-02,1.095737740397453308e-01
4.140816128710553823e-01,3.580537733083631879e-01,2.998996604622471973e-01,-2.093598341182662317e-02,-4.044896624669219731e-02,-7.926511206161135359e-02,1.866854131221771240e-01
3.445624794128280821e-01,3.159025063792058607e-01,3.185611596102949084e-01,-7.391596010997641443e-03,8.097451166940241446e-03,1.347858232806413425e-02,4.071725904941558838e-02
3.388180971672035691e-01,3.232510307149228934e-01,3.105007255949930323e-01,-6.853985953182747948e-03,7.868272201708130173e-03,1.356857646425283122e-02,3.850153088569641113e-02
3.258436439201260471e-01,3.340964844556165714e-01,3.170715903642016276e-01,-7.984814290706132578e-03,8.836978546950365748e-03,6.907378727297481397e-03,2.803812921047210693e-02
3.609924432090571011e-01,3.170241939091753558e-01,2.978994388555901152e-01,-2.087779535538412945e-02,2.266709701458743259e-02,3.639003226837604632e-02,9.980775415897369385e-02
2.448619409879672637e-01,2.419767383790940307e-01,2.897659476861027539e-01,-5.931701184657597881e-02,3.767413877345390794e-02,4.316348949889353692e-02,1.501900702714920044e-01
3.176054798789421096e-01,3.329276025418834717e-01,3.171211182052307009e-01,2.427777884242617382e-03,3.800268589266087081e-04,-9.852717044353395074e-04,1.623118482530117035e-02
3.390508384979130652e-01,2.726788888466128435e-01,3.342459796416185625e-01,-5.952748801189890367e-03,8.851303233696043021e-03,6.874419840840918262e-03,6.776820868253707886e-02
3.298137533592828685e-01,2.822309842969705773e-01,3.344057922092313895e-01,-1.646309591257031496e-02,1.115896590516226444e-02,1.559485040036101382e-02,6.648289412260055542e-02
3.266917891854675404e-01,3.694612787092287909e-01,3.003674443699402286e-01,-2.324422879229520820e-03,2.193599760422670908e-02,5.477824341797474933e-03,7.209626585245132446e-02
3.402871246919341175e-01,3.528227756294418094e-01,3.026885655428508959e-01,-2.493334247975136780e-02,1.867648961131170016e-02,3.852066482392649260e-02,9.697984158992767334e-02
2.095487016388927204e-01,2.949975047515610016e-01,3.313352120429745584e-01,-4.974952382901763615e-02,8.411130351807617062e-03,1.337595509862330757e-02,1.410708129405975342e-01
3.006062455568185854e-01,3.493069565569015822e-01,3.028800978078521888e-01,-2.031420208846561500e-03,1.529347731528830391e-02,7.016297539282881704e-03,5.592788383364677429e-02
2.920685538124164760e-01,3.928637545058528691e-01,3.400009108009940384e-01,-7.839270772890687827e-03,4.031689007420589943e-02,2.956586191822559856e-02,1.237294226884841919e-01
3.229452659635216882e-01,3.521561284642462653e-01,2.905551452627131437e-01,-2.231133090175119703e-03,1.924136196544112484e-02,1.164368448467414073e-02,6.618827581405639648e-02
3.569653814785476165e-01,3.168349850600323814e-01,3.069967689967217916e-01,5.044655510014175309e-03,5.556315855341454821e-03,-1.774691121014159226e-02,5.670866742730140686e-02
3.424067825219648808e-01,2.748398670881594397e-01,3.322338648574589826e-01,1.264106687734604939e-02,1.236685458740219463e-02,-2.111289353587058465e-02,7.910052686929702759e-02
3.444555168879809837e-01,2.689025870224007186e-01,3.446615005218268690e-01,1.272507195130184905e-02,1.152160390105234217e-02,-2.544564226463533890e-02,9.246792644262313843e-02
3.473197054781684834e-01,2.168369669172374170e-01,3.146607276909289541e-01,-1.776217701024476042e-02,-8.546543336984391975e-03,-4.686010689914073268e-02,1.469154357910156250e-01
3.906052289942164024e-01,2.239262566104439078e-01,3.210263478262504466e-01,-5.468161728179278189e-03,1.548586089952876978e-02,-6.712026121244860088e-02,1.880167275667190552e-01
4.501538816945548360e-01,3.436650795616445486e-01,3.174539861787452621e-01,1.865233027074705754e-03,-1.391440947484955983e-02,-8.303368108937812797e-02,1.899818927049636841e-01
4.341924837608355237e-01,3.359911708940780950e-01,3.092368910769860424e-01,-3.547789568204065807e-04,1.598819791187844341e-02,-8.146866013645162607e-02,1.834809780120849609e-01
3.632807365543912481e-01,2.669741334880951777e-01,2.923278893297950876e-01,-1.725460759786833333e-03,-5.520382991164684942e-03,-2.836619953914217354e-02,9.995158761739730835e-02
2.968673704382758793e-01,3.192513056592218290e-01,3.599765523601761719e-01,-1.555426235283730203e-02,-4.050760938321610119e-03,-4.497024589969414107e-03,6.250502914190292358e-02
2.572900487887592180e-01,3.239107346000388299e-01,3.507192447272964309e-01,-1.515532367053765497e-02,3.067835647361744165e-03,-6.153453013460118354e-04,8.752962946891784668e-02
2.650369482142565514e-01,2.946643371315303961e-01,3.360817512699978971e-01,-9.982481159594675663e-03,8.598135063447177439e-04,-7.220756255723125667e-04,6.421063840389251709e-02
2.721451322541624807e-01,3.041869662793476037e-01,3.481526906750795902e-01,-8.112898878969345556e-03,-9.980623294932947087e-04,-4.495065807676633385e-03,6.804019957780838013e-02
3.097937214122621907e-01,2.162082213514185947e-01,2.961753649253868192e-01,-9.358067844228246113e-02,-6.334974265740726806e-02,-1.047954234930215806e-01,2.809396088123321533e-01
3.016394092056210452e-01,3.195608380974674922e-01,3.606695254849970889e-01,-1.706961098794855872e-02,5.225789137056882118e-03,5.217453168345478551e-03,6.152670085430145264e-02
2.501732913796860802e-01,3.231156927090749753e-01,3.480901750306300002e-01,-2.983124093954840975e-02,3.085002102000510352e-03,3.191211775388478906e-04,1.022965461015701294e-01
2.829872582399871050e-01,3.154777723639864417e-01,4.256549453292934881e-01,-9.598237670012749190e-02,7.657995076148249938e-03,-3.237336572016348731e-03,2.112334817647933960e-01
3.189464566299211601e-01,3.340597042751858869e-01,3.305339112193533824e-01,-5.795255762444228437e-03,6.869084342383649337e-03,9.123608931938153449e-03,2.606883086264133453e-02
3.068276004607265461e-01,3.196143966217649401e-01,3.202184306014720372e-01,-9.767068711537608625e-03,5.013616398453642729e-03,6.432409678120585769e-03,2.563814073801040649e-02
3.006527954987806561e-01,3.002215069096887401e-01,3.175479469549358780e-01,-9.999154934224412788e-03,6.169831484098858843e-03,6.300117923377595783e-03,2.874270454049110413e-02
2.776599260729135099e-01,3.096355135231955713e-01,2.646588740536175433e-01,-2.536461866304986698e-02,4.951629584655409949e-02,3.605996915070910219e-02,1.216298788785934448e-01
3.120942941233807444e-01,3.444059689327221285e-01,3.164383958911788364e-01,-6.543678314102916241e-03,9.391020500423209738e-03,3.268990990236466873e-03,3.671024739742279053e-02
2.831276450562778546e-01,2.880526558458267328e-01,3.030391277343296719e-01,-3.368466354337136537e-02,3.562027340596170266e-02,3.210351572582968022e-02,1.030773818492889404e-01
2.886183090663750894e-01,3.447785977431034321e-01,2.589797872382125221e-01,-9.181439441096478360e-03,-2.872731124454817528e-02,-1.043011228750837481e-02,9.355191886425018311e-02
3.328342209137505892e-01,2.925710752925027025e-01,2.704956859108320066e-01,-1.759788670632980029e-02,2.369366832799945158e-02,3.664794839673041899e-02,9.818203002214431763e-02
3.177915521870785520e-01,3.026561204354256684e-01,3.057597555703095993e-01,-6.846493539893917270e-03,7.290861698872853729e-03,7.067330310235227404e-03,2.533128298819065094e-02
3.299132169212777299e-01,2.966195294178029518e-01,3.098324329584951076e-01,1.386716867279975778e-02,-1.307483269239555906e-02,1.745796802087398736e-02,5.335948616266250610e-02
1.986066815814102604e-01,3.103923085856841735e-01,2.573063220475225177e-01,3.193196887113572413e-02,-6.888315831071330220e-02,1.876362270727134629e-02,1.665224879980087280e-01
3.041056871074867551e-01,3.101125473159846990e-01,3.143574763609706668e-01,3.103474943034319894e-02,-5.177370628298971766e-02,3.222702797094803562e-02,1.188543736934661865e-01
3.244338338206955719e-01,3.526003211876166388e-01,3.258404008612691971e-01,3.705978197403406171e-02,-5.361365499977356619e-02,2.418072296040625971e-02,1.235046088695526123e-01
2.851664833053723092e-01,3.210470143959895384e-01,3.474981992481484538e-01,1.681882634126627418e-02,-9.189368289773829773e-03,9.393735434850562088e-03,6.559602916240692139e-02
3.339781737987251864e-01,3.552619911534980468e-01,2.837920022758352312e-01,1.931139674883523491e-02,3.224217336065517830e-02,-2.971173156251547681e-02,1.045257374644279480e-01
3.130688997718130695e-01,3.299320879933804740e-01,3.548160646007377794e-01,1.097621358583559040e-02,7.554517554021012403e-03,-1.140482328011585295e-03,4.312480241060256958e-02
3.342890894844087191e-01,3.351548733636233179e-01,3.382759329708502349e-01,1.146718902978753618e-02,7.295669645448325281e-03,-9.603022836082778652e-03,2.905196323990821838e-02
7.280068853680382590e-02,2.001494215605587601e-01,2.538625367942659583e-01,1.378447056416262084e-01,5.912080002455725319e-02,-3.134190431314002462e-02,3.104502260684967041e-01
3.973962659419295607e-01,3.605086694462538710e-01,4.306373469414893629e-01,1.276154787096344112e-01,1.115736729721391873e-01,-2.506337774393350634e-02,3.029513955116271973e-01
3.195608797978974347e-01,3.369033750312984687e-01,3.119750185828299438e-01,4.853866465013947570e-03,5.940300724558529415e-03,-6.282804322562489212e-03,2.801477536559104919e-02
3.001733825345783147e-01,3.146004194832416334e-01,3.276831310987928236e-01,1.683921922452299297e-02,1.647135271391863415e-02,-1.595796139044131090e-02,5.474125966429710388e-02
2.183163088554974096e-01,1.534783869399389267e-01,2.360796615349296246e-01,8.790178066808364277e-02,7.438195778623832299e-02,-9.557618247260216138e-02,2.699145078659057617e-01
3.249700708435027119e-01,3.933249287748049050e-01,3.814968478409442310e-01,4.957991845339615455e-02,3.953595768052711040e-02,-2.109170839228953487e-02,1.319171935319900513e-01
3.069208101627958762e-01,3.192579327507409914e-01,3.041293439426469569e-01,6.159814846770329637e-03,8.622691916946010476e-03,-4.735825180405316484e-03,2.446634508669376373e-02
3.157391001926710961e-01,3.013937487539175564e-01,2.997386330730303361e-01,6.613998850272025803e-03,6.378202035661743007e-03,-8.936843067825338965e-03,2.692865580320358276e-02
3.310820079298214536e-01,3.300285148540831326e-01,3.240211946531000864e-01,2.566157176543788776e-02,2.135855299747949770e-02,-1.308794584769192026e-02,6.246216222643852234e-02
3.225023697752764651e-01,3.314220654533460708e-01,3.320602013144012821e-01,7.359663818557748288e-03,8.070161407064325998e-03,-8.708979466381713136e-03,2.590512670576572418e-02
3.159105174357609291e-01,3.225682145840435555e-01,3.280338587818290574e-01,4.784590798404332254e-03,6.972939909911188977e-03,-1.054613671763754770e-02,2.566695213317871094e-02
3.193981003534666629e-01,3.122797610351212283e-01,3.238064053639172490e-01,7.670019706212932026e-03,7.043549489883328858e-03,-5.519598882283118652e-03,2.276409417390823364e-02
2.668299339700013761e-01,3.616459888750123142e-01,3.066422476070787551e-01,-3.209129191123785696e-02,-7.412585695521899110e-02,-4.624590046316531811e-02,1.810795068740844727e-01
2.900027483108166271e-01,2.910763123332946178e-01,3.404790053718959597e-01,-1.714528415764314528e-02,-6.546833742619485169e-03,-4.074892480322070409e-03,5.962461978197097778e-02
3.692163521016730288e-01,3.494366660617946319e-01,3.565537418781220547e-01,-5.460002934663311241e-02,-5.145888390362845372e-02,-6.450652258170201658e-02,1.722554117441177368e-01
3.161654212590919166e-01,3.298418265643706104e-01,3.025379436593053084e-01,-9.864795107757656084e-03,-9.185598825535053191e-03,-8.987189365508813782e-03,3.669474273920059204e-02
2.898009184222281598e-01,2.876202170477176745e-01,3.377644451809102555e-01,-1.484483227537733256e-02,-1.048066949463225157e-02,-7.779085600939415236e-03,5.985008180141448975e-02
2.853052971828256568e-01,2.608835905706685665e-01,3.340687421166506632e-01,-3.465575188282987718e-02,-1.656186397041319036e-02,-1.273232422830775958e-02,9.527573734521865845e-02
2.921852398781507598e-01,2.984783428135427408e-01,3.263481984697611527e-01,-2.579619693121500135e-02,-1.267446841134240582e-02,-1.793827183586135798e-02,6.659821420907974243e-02
2.697794673938371801e-01,2.838486714628012941e-01,3.283169055300507733e-01,-3.766065764482445788e-02,-4.382506167317548607e-02,-2.966899858898297201e-02,1.243327409029006958e-01
2.922888368988590946e-01,2.638950497907059378e-01,3.334446334576747217e-01,-1.174108987749962821e-02,-7.516234319861861933e-03,-6.765987692664545078e-04,6.521495431661605835e-02
2.647979206653527928e-01,3.336456808246771044e-01,3.594137678356100762e-01,-3.244480359737882125e-02,-2.379823557377652374e-03,1.748308114530265492e-04,1.017504855990409851e-01
2.829586187146430065e-01,2.831670570175949808e-01,3.368455366909167137e-01,-1.645258035929070967e-02,-1.636769396204430316e-03,3.555655440379628610e-04,6.093512848019599915e-02
2.914194499465118660e-01,2.916615212246464472e-01,3.544391809579955921e-01,-2.101232290607287292e-02,-2.287486527996635162e-03,-6.300086435706472518e-03,7.359085232019424438e-02
2.671818138003702048e-01,2.932116553871320086e-01,3.364515755758281101e-01,-2.613064734497634947e-02,9.770605548970490509e-03,1.302110521434965418e-02,8.072326332330703735e-02
3.481518226982802666e-01,3.108437131309781942e-01,4.496907430521956406e-01,-8.902840088909266814e-02,4.090430442449986305e-03,-5.412168761928957614e-03,1.985107362270355225e-01
2.551157486651369766e-01,2.766648958637082378e-01,3.375655808052510642e-01,-3.928475497153012530e-02,-1.787947517009919746e-02,-1.700119965732749261e-02,1.092778220772743225e-01
2.879287845720705508e-01,2.488672277935431443e-01,3.373425413605408707e-01,-3.287373282112640571e-02,-4.641707456061723233e-03,-6.244767707613688157e-03,9.654728323221206665e-02
2.934496861750355290e-01,2.123191333715385154e-01,3.407737693920432354e-01,-5.905716381893298672e-02,-1.279214096388264603e-02,-1.446302262378130511e-02,1.557012051343917847e-01
3.284783162054705774e-01,3.161972836885678095e-01,3.201129810785123819e-01,-1.236699119247952183e-03,4.502462515423062347e-03,3.076703950843957466e-03,1.455578021705150604e-02
2.952782924588269187e-01,3.377433218172510854e-01,2.858777199250159828e-01,-3.678167661752857354e-03,-6.070694089948109468e-03,-1.213019678096909429e-03,4.946115612983703613e-02
3.228168155841217302e-01,3.332884156588729607e-01,3.150496180094501386e-01,5.748936717618565763e-03,-2.223111290859420587e-03,4.083210609751938489e-03,2.037925645709037781e-02
3.173370152865139793e-01,3.098964835694542064e-01,3.208578636630532999e-01,2.942040246349939946e-03,-4.236536188121709998e-03,2.497404224322648508e-03,1.387362461537122726e-02
3.175117796657015434e-01,3.249854800165124513e-01,3.383520666969017654e-01,2.450542824570313069e-03,4.149121844786826836e-03,-5.989107430870167260e-03,2.262054383754730225e-02
2.997543886508007294e-01,3.232640730089323400e-01,3.316865289633993408e-01,3.932161590423951907e-03,2.732017835915720536e-03,-5.547394835046401580e-03,3.134885057806968689e-02
2.889820090962413879e-01,3.114360285073682899e-01,3.253574978174360033e-01,-6.246892840060732331e-03,3.919260427850694908e-03,8.290011307058673534e-03,3.714712709188461304e-02
2.964852276448143309e-01,2.888214175399477224e-01,3.431443698606506665e-01,-5.577588785214067021e-03,1.888400903806086327e-03,-2.099998687009492211e-04,5.193799361586570740e-02
2.629559514523372998e-01,3.011965837329929618e-01,2.202313421763044676e-01,-4.469775144832362213e-02,-7.004631824284500430e-02,-4.539055032165989489e-02,1.783692389726638794e-01
3.131403049425826590e-01,2.406203464209691334e-01,3.413663427647337101e-01,-1.721946287237732104e-02,-6.267525195399603101e-03,-2.863760438979023187e-03,9.557606279850006104e-02
2.990112145317322390e-01,3.403669112567306310e-01,2.978153396528243069e-01,-2.630273470253986605e-03,-1.233240618496604223e-03,-8.160666293509787235e-04,4.229060932993888855e-02
2.892507397083452503e-01,3.375084874009569580e-01,2.971482551599169408e-01,-3.284841039268474039e-03,-4.347056457926516335e-03,-4.219273255937299946e-03,4.639539495110511780e-02
3.001271481208766523e-01,3.272746720533435405e-01,2.990755619576511148e-01,-2.313301835148005685e-03,-8.707162248294087825e-04,-7.219409990745916279e-04,2.804521284997463226e-02
2.926510031092210418e-01,3.279136771262606831e-01,2.884601431239222635e-01,-4.239808920443148207e-03,-4.858955657681136853e-03,-2.183341249548801863e-03,3.934282064437866211e-02
3.008014621634567676e-01,2.979112119540436865e-01,3.455588440939412198e-01,-8.290726677664356919e-03,-2.958850333864291530e-03,-2.659679905758279873e-03,4.893497005105018616e-02
3.008199171793973781e-01,2.975886540024716975e-01,3.412268793240149090e-01,-1.435629463351383419e-03,-2.528258024441851996e-03,-1.121410310094354910e-03,4.246011376380920410e-02
2.988939336659872659e-01,2.970956855847340927e-01,3.444699907477866141e-01,-1.111422923134282922e-03,-6.164134479904211626e-05,3.385349294105110445e-04,4.654490947723388672e-02
2.846133742708762959e-01,2.908872351159330072e-01,3.379708789639596089e-01,-7.220858356335285201e-03,-1.172825150122643869e-03,-1.633316895623178593e-03,5.215533822774887085e-02
3.088002815185262317e-01,3.352044995824630114e-01,3.063048450097711761e-01,2.305341879655255569e-03,-7.646394724668870201e-04,1.351050527990619882e-03,2.815091237425804138e-02
3.064206048172117836e-01,3.370952634620223431e-01,3.001427083054945544e-01,3.486398830198404308e-03,-2.321492530507062411e-03,1.524221435626638794e-03,3.510728850960731506e-02
3.130023020280957580e-01,3.490250021228344934e-01,3.127294276672314410e-01,4.570494597866854580e-03,-5.702576838854212654e-03,3.538042312394995646e-03,3.879843652248382568e-02
3.041028003797259238e-01,3.399305815367024142e-01,2.950442115351566974e-01,4.997819970509331453e-03,-5.206211027565465187e-03,8.672009985151038708e-04,4.299699515104293823e-02
3.512115347925314768e-01,3.285788687847979728e-01,2.574469872175639273e-01,-2.299417014782058604e-03,2.415298593153580257e-03,1.567431620565039319e-02,8.917567878961563110e-02
3.645012134492235933e-01,3.472607235074096632e-01,2.674596830937550629e-01,2.843058041894561041e-03,1.950414451932045530e-03,1.481340185878007518e-02,9.346240758895874023e-02
3.450169117636516236e-01,3.325142434745161357e-01,1.897922147477403843e-01,-3.746267219677398407e-03,1.534259525827802277e-02,1.337516123079000689e-02,1.536075323820114136e-01
3.285713187981740835e-01,3.075464285194059455e-01,2.054096319095402301e-01,-3.286860160825769758e-03,-3.691357275700415767e-03,2.481257563642664046e-02,1.222361102700233459e-01
4.156489979988562955e-01,3.856815523351355135e-01,2.862056801614631940e-01,1.713475942630468801e-03,1.517170560944608101e-02,4.666630125839914267e-02,1.449383199214935303e-01
2.928435166571325965e-01,2.989104694166216381e-01,3.435030694344079483e-01,-5.677328004376001880e-03,-1.830991493401247071e-03,-4.748998860697829782e-03,4.970172792673110962e-02
2.923706893748748148e-01,2.977734354900342106e-01,3.397769247934153136e-01,-1.996412866111780312e-03,-1.132577455543860726e-03,-1.127760201633819671e-03,4.516677558422088623e-02
2.954306535032924508e-01,3.390379415675300323e-01,2.871704227778910656e-01,9.265501978516197962e-04,-5.595894218681799794e-03,9.677525178346988409e-04,4.928854107856750488e-02
2.915483910638819176e-01,2.956552280226963925e-01,3.394515447664684382e-01,-1.809187566921101938e-03,-1.065019490694555466e-03,-7.063948349356676416e-04,4.614723101258277893e-02
2.956475905088413181e-01,2.117237807893146417e-01,1.961932832283406758e-01,-7.333274566402486760e-02,-9.008845839531764987e-02,-1.207431834871127291e-01,3.046397864818572998e-01
3.861311617117938466e-01,2.799424440324297381e-01,3.009147775797345603e-01,-2.617025898950194746e-02,-5.931649509402021209e-03,-8.497962056669484954e-02,1.825203150510787964e-01
3.729646127621193408e-01,3.351030221368368478e-01,2.789060027132063135e-01,-4.119273255627005359e-03,-1.977394993672134532e-03,-3.161491225982850095e-02,9.889619052410125732e-02
3.658316130204636307e-01,2.270912632746645010e-01,2.228650017910921155e-01,1.334830068754104537e-02,9.099415950019373520e-03,-9.630874145908738249e-02,2.201412022113800049e-01
3.537584946998205693e-01,3.300014876803919472e-01,2.333518613738656822e-01,1.269808571972062686e-03,4.247868218521036465e-03,-4.458780748922210047e-02,1.349994093179702759e-01
3.663402907462557923e-01,3.475589499025188989e-01,2.402359283177446514e-01,-2.895719562779273601e-02,-3.386972153610083580e-02,-5.384923317684834482e-02,1.689464151859283447e-01
3.327365606012132049e-01,3.589679119261068863e-01,3.087475120474215684e-01,4.105312914453854156e-02,-6.369765889530881742e-02,4.272932537363215849e-02,1.568389683961868286e-01
1.901413015534457740e-01,2.815016686147679970e-01,1.647365032650728311e-01,7.075768234356925868e-02,-1.245392648823803738e-01,6.409190592847924250e-02,2.918671965599060059e-01
1.961250326021940493e-01,4.346040132920138133e-01,3.549357363743292360e-01,5.038495530175420012e-02,-1.189574689924648848e-01,-3.290805758814583162e-03,3.071174025535583496e-01
1.322922733310566146e-01,3.472377660426135826e-01,2.516494264511756063e-01,3.837091736908496836e-02,-1.060919408337128861e-01,3.489393940608447042e-02,2.768188118934631348e-01
2.842435148218839247e-01,2.204434078126791263e-01,3.361224180069480316e-01,-5.942050690710318911e-02,-1.471424014955747574e-02,-2.584625637179771909e-02,1.527015268802642822e-01
1.828546367025684072e-01,3.940883317959871790e-01,2.987307740342587947e-01,7.230971076991271618e-02,-8.754921655440472961e-02,5.480749337314148179e-02,2.850653827190399170e-01
2.754880630724330648e-01,4.146696949415333289e-01,3.867874715449078904e-01,5.519203724299408947e-02,-4.244418093075109921e-02,1.464943075248436449e-02,1.773557960987091064e-01
3.011973010557850716e-01,3.440391265943519294e-01,3.008928869923945260e-01,-4.094561815883133657e-03,-7.237724226766628979e-03,-2.462439020725872701e-03,4.554335772991180420e-02
2.841958391626764335e-01,3.383670807759032173e-01,2.934415619243978535e-01,-1.286827421633014029e-03,-4.814062529741607380e-03,-1.105349453474416700e-03,5.096384137868881226e-02
3.167250789294756563e-01,3.195505336160957000e-01,3.133398090761359556e-01,9.888636457383512268e-04,-5.540825524876441879e-04,2.545354252511311012e-03,7.231820840388536453e-03
3.352530032758562761e-01,2.895700097251706073e-01,3.081657206593965137e-01,-2.015407503838811693e-03,-5.604512547459047575e-03,-4.770974913624361803e-03,4.192770645022392273e-02
3.006341751572633725e-01,3.398644118160435990e-01,2.993217291155987891e-01,-5.065356964288106854e-03,-7.188562961762735327e-03,-2.521222463383104503e-03,4.293356463313102722e-02
3.352408043920964142e-01,2.582361015044300490e-01,3.526934801863420010e-01,7.292704421382971598e-03,4.364358303945027606e-03,9.695312413361225658e-04,8.830498903989791870e-02
3.594469333165285496e-01,2.429481417644196173e-01,3.711193542475231255e-01,1.275873189041484487e-02,6.129558123023986192e-03,6.366326164494932167e-05,1.251763552427291870e-01
3.601714124071617729e-01,2.874539697253419290e-01,3.724898013773810801e-01,3.685525769468982193e-02,-6.197376790270544417e-03,6.847478263149444667e-03,1.032770425081253052e-01
3.516198965092242057e-01,2.665615837915381592e-01,3.756848093499464691e-01,-1.620158401941008963e-02,3.106843244924560534e-04,1.275522668833166222e-03,1.032162904739379883e-01
3.156663626402432810e-01,2.079412972904028378e-01,3.413274243742264180e-01,3.557768941741023400e-02,5.245589704621356208e-03,-6.937996501429257584e-03,1.380282193422317505e-01
3.303004293004269676e-01,2.556869970489533683e-01,3.616110370864928925e-01,5.313590600032865735e-02,4.360584324608504821e-03,-1.252003936007947162e-02,1.337209045886993408e-01
3.470988027848965207e-01,2.396881805160102075e-01,3.603409936307570560e-01,5.470951030309555152e-03,-1.268980378837615856e-03,-1.379098513730261065e-03,1.150438189506530762e-01
3.176375108293437721e-01,2.725206944979157719e-01,3.418452092958733091e-01,-5.916164477526034138e-03,-8.659580411957546256e-03,-5.623161760258748101e-03,6.433150172233581543e-02
3.039838753516963532e-01,3.421655655639716520e-01,2.700012868903132746e-01,8.956003873985835667e-04,-1.046410961524255057e-02,-1.051284721008551460e-03,6.514894217252731323e-02
3.455768673469785668e-01,2.692550578357116309e-01,3.579975084692764709e-01,1.209906429666221875e-02,1.876086471298840349e-03,9.159992974616051756e-04,8.590398728847503662e-02
3.387154321179441374e-01,2.934866320968569364e-01,2.624917632897532105e-01,4.084969407684531026e-03,-9.086009807321408652e-04,3.460361903477045947e-02,8.973826467990875244e-02
4.100918283494270900e-01,3.616117568356220779e-01,3.195173781788892553e-01,4.986186310097145968e-03,2.214164109475068656e-02,5.786360304365121415e-02,1.332401037216186523e-01
3.050610937354942265e-01,3.245289206814974681e-01,3.007390305521455698e-01,4.361398602266047635e-03,-5.838481065715613906e-03,1.973321602374868838e-03,2.555051259696483612e-02
3.548755533843467314e-01,3.383947770858885540e-01,2.712165982627195993e-01,5.767380442543148730e-03,-5.497746317491404230e-03,2.752484447011765978e-02,9.140561521053314209e-02
3.211657360712837361e-01,3.147585843528361571e-01,3.246741878974345741e-01,1.383788620399496695e-03,-2.462430826048564447e-03,1.110005323348995428e-03,1.017210166901350021e-02
3.468501514743178027e-01,3.321377252462472951e-01,2.423395671264987061e-01,1.781665039057162437e-03,-2.248273657413851767e-02,4.002616577025809586e-02,1.262281239032745361e-01
3.436474443996049288e-01,2.754590509670891141e-01,3.337803932275648089e-01,4.601409067062365091e-03,-8.175252358800334102e-03,9.898767812504316588e-03,6.806010007858276367e-02
3.180624382885339774e-01,2.976331870783631706e-01,1.188803335956440665e-01,2.438191036830145153e-02,-5.216372956379568271e-02,6.560652482763726367e-02,2.426540106534957886e-01
5.367862209672392693e-01,4.713817269616307759e-01,3.399995728851638033e-01,6.131641020685960064e-02,1.293230894752105641e-02,9.379149952691601122e-02,2.613491415977478027e-01
2.418732543687137082e-01,3.130814959240019735e-01,3.353082155136600795e-01,6.158276087383042496e-03,-4.555432045323366472e-03,1.635492146366336694e-03,8.562371134757995605e-02
4.170183141746277022e-01,3.839683577178318319e-01,3.579310648701591879e-01,1.209154049806239906e-03,1.308886051208023836e-02,6.702816433488431591e-02,1.289474219083786011e-01
3.547855387778088843e-01,2.253054456995085275e-01,2.247004058907388913e-01,2.936073987954914560e-02,-1.454910397767240904e-02,1.052156821597278191e-01,2.308159619569778442e-01
3.461436623860212336e-01,3.085506833751517908e-01,3.225106946413380249e-01,8.213034772503056882e-04,-3.929626189869615122e-03,3.925734258273579774e-03,3.432053700089454651e-02
2.241351991482817829e-01,3.042326097667703011e-01,3.091460433300125543e-01,-8.781571972498522505e-02,-7.695008627235827570e-02,-4.857102634271251440e-02,2.341142296791076660e-01
3.017677734224458730e-01,3.190560598383561097e-01,3.110516673201294546e-01,-4.110533568966285092e-03,-1.700340840701101671e-03,-4.885225825259967986e-03,1.885556057095527649e-02
3.304226159113570205e-01,2.303343017617801580e-01,3.219420328457388014e-01,-2.362484906713632760e-02,-1.690630184683566267e-02,-3.405750996432461986e-02,1.235005855560302734e-01
2.659639584935211132e-01,2.983684741302365939e-01,2.289678508013144875e-01,-6.578295697549593757e-02,-9.798531003158302000e-02,-1.032439101898731670e-01,2.781745493412017822e-01
2.458626361195880017e-01,3.414042430057662725e-01,2.468760105180301534e-01,-1.107249541791927860e-01,-1.251124942247026639e-01,-1.374063331018047229e-01,3.865402340888977051e-01
3.327929548148987338e-01,3.172280055462505244e-01,3.117299063248733515e-01,3.081447021884953664e-03,1.537430621633577733e-03,-3.887705798332322972e-04,1.985207386314868927e-02
3.001543462261845874e-01,2.946821337014991493e-01,3.421206863725771430e-01,-1.934888013990678250e-03,-7.390689214873022135e-04,6.314485517836061139e-05,4.509600251913070679e-02
3.175637597165770765e-01,3.196182710867432331e-01,3.195798064830503993e-01,2.962146345885125365e-04,-6.218966971223497927e-06,1.795106684558693999e-04,2.122142352163791656e-03
3.371625588876857593e-01,3.005208030369986294e-01,3.546122958632499378e-01,5.257904835513275629e-03,-6.193733263781412389e-03,3.778203942615995618e-03,5.027274414896965027e-02
2.441119763744975524e-01,3.283378854560995430e-01,3.133620144475235403e-01,-9.443220979577168078e-03,-1.229924548212517690e-02,-1.272144705669404907e-02,8.522773534059524536e-02
3.786856745185063211e-01,2.818672100343621589e-01,3.736850960287756984e-01,-8.873823244853477530e-05,1.681465855372601568e-03,2.145492341807148790e-02,1.015092059969902039e-01
4.227492793049461017e-01,2.856279792773890325e-01,3.972151930657242258e-01,1.521466906124349650e-02,5.932221375487860965e-03,4.894499488617332777e-02,1.547250598669052124e-01
2.767578401260986087e-01,3.306386004309244120e-01,3.497224245771650697e-01,-2.433706745749775191e-02,-1.725804785492431742e-02,-1.032273225289014051e-02,8.535604923963546753e-02
3.697027219785478658e-01,2.219237884978106368e-01,3.503074365438102467e-01,-1.057728216623091827e-02,-3.959605780009215793e-03,3.630895997474473114e-02,1.539034396409988403e-01
3.398459287642635052e-01,3.079578191435594636e-01,3.105312016640204842e-01,1.389687498452544558e-03,-1.935819757969375280e-03,1.956056427391696106e-03,3.114366531372070312e-02
3.564619040747183387e-01,2.426233239276832099e-01,3.128984693096243386e-01,1.847103878190737149e-04,4.195526804755308169e-03,-2.071665838862906187e-02,1.060105860233306885e-01
4.240816028366656831e-01,1.361111473562025831e-01,3.389065743086963067e-01,-5.153297716831704844e-02,3.090054313088994031e-02,9.066690933459978230e-02,3.180358707904815674e-01
4.071259786461387531e-01,2.968449782313630214e-01,3.389865450455331608e-01,1.397424478045221699e-02,8.613639326104840371e-03,4.858266484120023210e-02,1.310711503028869629e-01
3.277294404422512186e-01,3.058848737347339974e-01,2.773625319506693998e-01,2.054009521416851405e-02,-2.480945712054185431e-02,2.505433181746707580e-02,8.312123268842697144e-02
3.796798912197973386e-01,2.877368841320576132e-01,3.173760904996631993e-01,-1.557017882708181152e-02,3.652878270992396953e-03,4.666863875017453200e-02,1.179325580596923828e-01
3.479510143017408019e-01,3.059837372021098068e-01,2.918888074987047720e-01,-2.600167820210249996e-03,5.736088112693387363e-05,-4.642822148353698691e-03,5.134593695402145386e-02
5.542055709635160810e-01,3.048793249290015495e-01,3.285901674189787292e-01,7.329139116302360590e-02,5.293826821919933590e-02,-1.137302006650298125e-01,3.466121554374694824e-01
3.615381357484068747e-01,2.777524911743428637e-01,2.886477633800446085e-01,2.584865337677966571e-02,4.193543697789098301e-02,-6.049410814569929767e-02,1.564758270978927612e-01
3.730140915281134895e-01,3.740406357043525309e-01,2.557655721392134707e-01,-7.172071867846802583e-05,5.285883398375592994e-05,-1.264637709790260821e-02,1.197850033640861511e-01
3.505281845185367895e-01,3.568344999678060847e-01,1.760956573650939438e-01,-1.283532544208048189e-03,-6.899410698679376425e-03,-1.746007615210889985e-02,1.806344687938690186e-01
3.107190304959314142e-01,3.301895855192277240e-01,3.144713263820851923e-01,2.111687276987058402e-03,2.081637739252019739e-03,-4.496894484977512554e-03,2.017836645245552063e-02
3.426819798308218257e-01,3.439144252773806976e-01,1.637283853022870606e-01,1.219386254723986299e-03,1.995920880350910559e-02,1.056873906129344662e-02,1.837964206933975220e-01
3.531206624441038389e-01,3.529507520425614331e-01,1.832639399575802241e-01,-2.030193869866576733e-04,6.066995204781934839e-03,1.005560597524821596e-02,1.709864586591720581e-01
3.016249941931135048e-01,3.356584923876988480e-01,3.008467990199137354e-01,4.310478673265925940e-04,-2.363555343735875523e-03,2.468851430860540160e-03,3.494240343570709229e-02
3.991862208614689878e-01,3.927963973584128743e-01,2.434003301503930294e-01,-8.974701770755693503e-03,-1.286737445088347725e-02,3.023195211730739240e-02,1.636914312839508057e-01
3.368082775600894641e-01,3.273713867913231601e-01,3.174273352879018462e-01,-7.391657958645696073e-03,9.493302285849301164e-03,1.059362961149279414e-02,3.244584798812866211e-02
3.215734114889294837e-01,3.445926877961346668e-01,3.192576903655093279e-01,-3.942497660436907088e-03,4.067951165625742493e-03,3.977868536558451171e-03,2.706105634570121765e-02
3.378225816883381194e-01,2.358992528008281575e-01,3.335958507170982967e-01,3.566291720412705264e-03,-2.449417769582755769e-03,6.130508808431879390e-03,1.007190719246864319e-01
3.092594573773750910e-01,3.379435461415841169e-01,3.116804816793781741e-01,-7.771447092578204555e-03,1.290366232821780340e-02,1.095999418431547676e-02,4.242944344878196716e-02
3.150380706832690558e-01,3.330199857217332471e-01,3.162125021364317057e-01,-4.521177722111470801e-03,6.767695471622788353e-03,4.386719907631298106e-03,2.366575971245765686e-02
3.469717533547541644e-01,3.126715253898201818e-01,3.467494430543680561e-01,1.782374181273135849e-02,1.079887558692204340e-02,-1.553683473004731537e-02,5.653329938650131226e-02
3.370384570285563930e-01,3.012761446462977055e-01,3.012229292608317177e-01,4.323985895622721193e-04,1.216019252648488543e-03,-1.330814344726110546e-03,3.593270108103752136e-02
3.256252835579956373e-01,3.545794383040815068e-01,3.041210658627035990e-01,-1.163906509851003138e-03,4.793270419492162010e-03,6.006592730394158617e-04,4.469321668148040771e-02
3.091877178120212566e-01,3.254276907906489824e-01,3.108070598280440189e-01,-4.414104869257444094e-03,3.705655057374947214e-03,5.049584864700709663e-03,2.040108852088451385e-02
2.987969279151826418e-01,3.204476540502706472e-01,3.470594596403027698e-01,3.229296042823277032e-03,-7.390766845539725044e-04,2.415967447098443972e-03,4.246812313795089722e-02
3.139163405163161724e-01,3.321725114949171109e-01,3.156765957947083034e-01,1.503043233452725815e-03,3.599375921777307947e-04,-6.318315163204583007e-04,1.768090762197971344e-02
3.115361183492672548e-01,3.244252607788363774e-01,3.155719823426750836e-01,-2.243656655297620109e-03,3.262595526570993484e-03,4.326430518807084999e-03,1.528361719101667404e-02
3.110942304800047298e-01,3.396008682274290202e-01,3.163951874427839428e-01,-1.092719068051582840e-03,2.287439887044216778e-03,3.722057420228438388e-03,2.739446051418781281e-02
3.086437700204243684e-01,3.328471836853946764e-01,3.183426058455907093e-01,-2.528643112828911702e-03,2.763067908432395407e-03,4.147019784681955749e-03,2.321221120655536652e-02
3.825481079182322941e-01,3.262077788232304876e-01,3.796365161479173800e-01,-5.328242827987723224e-02,1.219030798361720735e-01,1.251708065891970756e-01,3.211230337619781494e-01
2.993489864904724240e-01,3.092822028952678104e-01,3.227677321515815545e-01,-1.785041749715677358e-03,-1.139621042524091837e-03,-7.468549357399868922e-03,2.439827844500541687e-02
2.619880252154770939e-01,2.648853988470218912e-01,2.014030771547646315e-01,-5.231278564104552276e-02,9.841519394322643943e-02,9.072226995753096546e-02,2.565396428108215332e-01
3.186164886410944308e-01,3.201770920834192680e-01,3.156391163896595797e-01,-9.316062534426508156e-05,-2.539239035932088027e-04,6.766407579459754592e-04,4.188045393675565720e-03
3.146597638848359080e-01,3.447340070672655910e-01,3.243213151841162767e-01,-9.045602152728252814e-04,3.813754462853933495e-03,6.100051569415029448e-03,2.941024675965309143e-02
3.118770328584085649e-01,3.238261063039667431e-01,3.216957619202444052e-01,-7.266133436775994853e-04,1.706815508358870172e-03,3.895652206014200373e-03,1.333097741007804871e-02
2.709545961496949151e-01,2.183417031099196270e-01,1.939694741279587020e-01,-7.101547450001743922e-02,8.525067108082189093e-02,9.535144736977566038e-02,2.623980343341827393e-01
2.794469520892196579e-01,3.222553694455814743e-01,2.995518135615635735e-01,-5.457585466851933888e-03,6.644005600560410132e-03,5.097861037891017987e-03,4.093723744153976440e-02
3.033553987486236059e-01,3.926164688603485664e-01,3.821483920400998158e-01,-4.864549710672052413e-02,5.961734529130229693e-02,3.537043131425275655e-02,1.692860424518585205e-01
3.540109622456918959e-01,3.756923792197954803e-01,2.925003426232554160e-01,-3.714558810867018245e-03,1.643200621592400684e-02,1.341325798202075079e-02,8.353711664676666260e-02
4.252457412402694259e-01,3.958259318666098592e-01,3.883692244313380892e-01,-3.226814628623106418e-02,5.551191401175002704e-02,5.199117902141429243e-02,1.470311880111694336e-01
3.130931548287598787e-01,2.999788581110084951e-01,2.953972342263999074e-01,-5.660963943962525960e-03,-2.892417440778369524e-03,-4.225910825644090679e-03,2.068510465323925018e-02
3.087062689131239157e-01,3.072856480899017750e-01,3.055898802805409598e-01,-1.714494965476885289e-03,-1.233831676554313778e-03,-5.022350562016930035e-04,4.630880896002054214e-03
3.022402134845744714e-01,3.281883137086082369e-01,2.396435152823904735e-01,-1.394132117582243084e-02,-1.928935152190296154e-02,-8.927406836932209877e-03,9.030132740736007690e-02
2.870161871461331393e-01,3.192368094220339736e-01,3.219729339278994962e-01,-3.837448469453244321e-03,-3.946638972602733303e-03,-9.515201595401437396e-03,3.868252411484718323e-02
3.161898567783721914e-01,3.021998523944441351e-01,3.031830488785097200e-01,-1.217728563578307889e-03,-3.048503990104615199e-03,-8.988590383992126369e-04,1.475413609296083450e-02
3.117303291473121907e-01,3.081042040010826266e-01,3.034152269734676777e-01,-2.609982253320527155e-03,-1.385143404846408705e-03,-1.081729195681774411e-03,9.046568535268306732e-03
2.857346819431865748e-01,3.475592300945903323e-01,3.233884443658622265e-01,6.765623927311364104e-03,-1.129989113321337030e-02,4.906511292941690555e-03,5.920100584626197815e-02
3.603843731972492526e-01,3.315698414484298806e-01,3.202355869876925554e-01,8.399986841759451983e-03,-8.052650007511784336e-03,1.514156464399462991e-02,4.877857863903045654e-02
3.013104882427345976e-01,3.306161159102343206e-01,3.194275993023140692e-01,2.185661962722899431e-03,2.800531108254183596e-03,-5.746490930054338163e-03,2.816101908683776855e-02
3.322556966083700103e-01,3.194530415055086836e-01,2.455089839452656575e-01,1.284763424198573888e-02,-1.855229406305291401e-02,2.712029108735363597e-02,1.015509217977523804e-01
3.457795622550703385e-01,3.115393391720224781e-01,2.820709290990972007e-01,-7.399013460254460920e-04,-2.197344132099746019e-03,1.532287575776547853e-02,6.140263751149177551e-02
3.495587434503037438e-01,1.876056186021142214e-01,3.168316968234187181e-01,-1.030743270314527643e-02,2.588838743763095373e-04,-4.465585188605203371e-02,1.682289838790893555e-01
4.310751501535858288e-01,6.049790072905392169e-01,5.402715044136235933e-01,9.032706724356162620e-02,-1.175147256277865870e-01,8.716778215439541233e-02,3.344808816909790039e-01
3.324806382014174333e-01,2.987784346855348883e-01,2.727503236687134902e-01,3.695501363745727890e-03,-8.219902023291280431e-04,1.413430572600321566e-02,5.773074552416801453e-02
3.615928777247847115e-01,3.251795647279602242e-01,3.005307180673875700e-01,3.566017597943568675e-03,5.597865617302651316e-03,2.094614651614366829e-02,6.541728973388671875e-02
3.560246905865019906e-01,3.102559990737712159e-01,3.054947937472718422e-01,7.451520949343010125e-03,3.145297642971198442e-03,1.813864471423964897e-02,5.931814014911651611e-02
3.891367087224189558e-01,3.302166552507743713e-01,2.947205856366786891e-01,1.079758944694572328e-02,8.677871417447174246e-03,7.731704565029409726e-02,1.591616570949554443e-01
4.140228743898253239e-01,5.708558908758497585e-01,6.143862749917181620e-01,1.322765216805150135e-01,-4.446217645076493141e-02,5.776305740909867814e-02,3.189828991889953613e-01
3.112596074021380943e-01,3.159224622938893168e-01,3.492516938493825385e-01,1.333070750216187352e-03,9.006455276941992575e-04,-1.484697424975923042e-03,3.608832135796546936e-02
2.995598854264516775e-01,2.939732030412587349e-01,3.414763173218693937e-01,-3.070122302315754677e-03,-5.654720250800270541e-04,-1.222826895385848139e-03,4.534417390823364258e-02
3.072157732789874141e-01,3.486653763902253789e-01,3.070515204462334058e-01,1.068960004812906459e-03,2.637587673546792403e-06,1.742658938457842047e-03,4.168265312910079956e-02
3.168293558154460232e-01,3.284079619008430373e-01,3.157139399170914018e-01,-9.063414671677036795e-04,4.854005913014767300e-04,2.088591043176660916e-03,1.282501779496669769e-02
3.222019621166053449e-01,3.227184277384633204e-01,3.211427019898271396e-01,-1.769464051924340801e-03,1.700463753885576076e-03,2.717409375842767122e-03,6.492805201560258865e-03
3.197014497833443603e-01,3.242274436915306146e-01,3.139868090648064158e-01,-2.649082459410768628e-03,1.096452996466133279e-03,7.984011328899432054e-04,1.027511805295944214e-02
3.153944663698011741e-01,3.191369778980908678e-01,3.194827329749173050e-01,6.352270863666004304e-04,5.366250860356816099e-04,-1.143559222600121434e-03,4.627910442650318146e-03
2.542220176373997109e-01,3.553213334161078318e-01,3.410930528868504896e-01,-1.272104568328885719e-03,-6.938529691192285402e-03,2.301392687787894541e-03,9.565678238868713379e-02
3.164589922871968719e-01,3.432439927874070262e-01,3.146576433810235329e-01,3.124012708605800135e-03,6.762181052679061772e-04,-1.040687803460403887e-03,2.833424694836139679e-02
3.403297509917783126e-01,3.201847849265114787e-01,2.828718503936578088e-01,5.302574127244073787e-03,1.835802216402162559e-03,-5.399619833537944863e-03,5.226540565490722656e-02
3.192756588508135485e-01,3.228386994424800038e-01,3.174041411450115868e-01,-4.018539229242455214e-04,1.314414408854371443e-04,1.485294364244939616e-03,5.479116458445787430e-03
4.018079675890846580e-01,1.702348213673363642e-01,4.994953175944485402e-01,8.699874695063339325e-02,-3.851038723646781591e-03,6.698546234578529879e-02,3.492888510227203369e-01
2.751455437201907328e-01,3.008198716974120890e-01,3.196263801742037503e-01,-7.055686085727392448e-03,-8.827519222665119666e-03,-1.108600341695344452e-02,4.740804061293601990e-02
3.117517768651517085e-01,3.037623094415206060e-01,3.018030362277778211e-01,-1.071030203553164067e-03,-3.377091097992233719e-03,-1.774947968814070878e-03,1.142062898725271225e-02
3.157044090925688051e-01,3.249100639227521237e-01,3.130099683817006984e-01,2.427910284573095261e-03,-1.123139080295302086e-03,1.694223413815288803e-03,1.211973279714584351e-02
3.142806950583100223e-01,3.406609187985302212e-01,3.161654483850479536e-01,6.011588058938331647e-03,-3.911667814123410795e-03,5.584102773148716566e-03,2.996023930609226227e-02
3.245401423751834713e-01,2.860778269191500134e-01,3.049307600006468388e-01,3.598064390119475563e-03,-7.328802736667820207e-03,8.621260260254802466e-03,3.914851322770118713e-02
2.975159320083352044e-01,3.293203469500954883e-01,3.009384064257032421e-01,1.261272815005994898e-03,-5.399852962403818221e-03,3.691882420696573127e-03,3.236544504761695862e-02
3.702231160960544609e-01,3.595848339359466461e-01,3.962681395098338055e-01,-4.586576169970749128e-02,3.782786761097377271e-02,4.242012418685636721e-02,1.306554228067398071e-01
3.185329313949281649e-01,3.187384024600611876e-01,3.168237854814026644e-01,-5.631570264761486818e-05,-2.883526140286306414e-04,6.340886261424331406e-04,2.186261583119630814e-03
2.952505481483626570e-01,2.973234438123537604e-01,3.395786989460760075e-01,6.339585990100253593e-06,1.163296724607460701e-03,-6.900534718130022296e-04,4.339219629764556885e-02
3.119459912796603285e-01,3.284618314470022504e-01,3.119887203477247906e-01,4.698540693928002915e-03,-2.751172175698344408e-03,4.103255319855872787e-03,2.028582990169525146e-02
3.053211518419576831e-01,3.279894434137252124e-01,3.092348357412571525e-01,1.964576301528540847e-03,-3.522724412720719227e-03,4.201026432050796247e-03,2.328529953956604004e-02
3.353208649779161887e-01,2.685362269491525233e-01,3.506019057109010517e-01,1.280640823740324119e-02,-9.745317893241928209e-03,7.401626312799617496e-03,8.158133924007415771e-02
4.280691269617422079e-01,3.373157007640374960e-01,4.165085906735807031e-01,3.479565159664704810e-02,-6.414839025709863363e-03,4.645543133513256595e-02,1.324788928031921387e-01
3.134693490825758988e-01,3.300260552139612225e-01,3.120972080466435372e-01,-4.004477448879014898e-03,4.309626557873865588e-03,3.613216219571346172e-03,2.101707831025123596e-02
3.185867915567874853e-01,2.282858550254353580e-01,3.278446135552043339e-01,3.199192448674938183e-02,-1.140616621087033218e-02,2.197135382869747772e-02,1.182578951120376587e-01
3.682112625437625741e-01,2.943007538823285141e-01,3.462542864990373337e-01,3.305324048980760876e-02,-2.796921844624747008e-02,4.270104755762104548e-02,1.241633668541908264e-01
3.208364060483981928e-01,3.460548435480723106e-01,3.023439149684573612e-01,-3.202258784746846425e-03,2.877396332222875025e-03,1.304947185012216146e-03,3.879437968134880066e-02
3.367311493590089966e-01,3.256748629827370678e-01,3.185815076121396028e-01,9.778571100970058494e-03,-8.734915554598075144e-03,1.088993696765461205e-02,3.350392729043960571e-02
2.462188822397731736e-01,3.436107914326871904e-01,3.582634609784567381e-01,-7.700739269243833673e-03,-8.472766310176283377e-05,1.825586901284932673e-03,1.063713282346725464e-01
3.278630464242191511e-01,2.726871982428373253e-01,3.251834156567159906e-01,1.069729618609072119e-02,-1.125542844195915292e-02,1.017333941945231315e-02,6.274985522031784058e-02
3.223434445116510338e-01,3.176369074382323632e-01,3.191036902241799478e-01,1.019379997484293893e-03,-1.134564721772110329e-04,5.682631506735607088e-04,4.639425314962863922e-03
3.258246535965548252e-01,3.145862253007851717e-01,3.150483290635497369e-01,1.985726038588824568e-03,-6.577875261283103615e-04,7.669736732038372976e-04,1.167110167443752289e-02
3.240206063589441410e-01,3.146468958889419576e-01,3.186449752974063743e-01,1.726142847599368684e-03,-2.854212540676637645e-03,8.228921821143090742e-04,1.008880510926246643e-02
3.385290743037477346e-01,3.023850769158800689e-01,3.095571175045236378e-01,-3.690916369471982338e-03,3.107854244259486073e-03,2.830552640040509375e-03,3.453232347965240479e-02
3.356738220321510702e-01,3.094578547742397601e-01,3.078757742780788842e-01,-4.838905328517916112e-03,1.964649873114372204e-03,1.263659590607804292e-03,2.859843894839286804e-02
3.156382777646379312e-01,3.196746174686012631e-01,3.225437439960747166e-01,-1.100282189440435839e-04,4.744138385173641854e-04,1.989582629920490058e-03,6.977932062000036240e-03
3.362308604801892975e-01,3.089595432021824406e-01,3.063355358044978494e-01,-3.232149724214027856e-03,1.817439646196525446e-03,2.871330984549576911e-03,2.980190515518188477e-02
3.522991963444235264e-01,2.178757720912798679e-01,3.590027656456311611e-01,8.977698920699476179e-04,1.541135006895752967e-03,-1.984686763862622723e-03,1.379748880863189697e-01
3.365708616041097057e-01,3.156633105182619636e-01,3.130255515454893889e-01,-1.633182300927892580e-03,-1.995513980213575050e-05,4.975745803111659591e-04,2.253837510943412781e-02
2.981227178787449472e-01,2.683166539944306095e-01,3.343171739145341381e-01,-7.923159805867699759e-03,-9.286524173333247922e-03,-5.827626159951156300e-03,6.185617297887802124e-02
3.099139044137634857e-01,2.559032431418825637e-01,3.249076631003776083e-01,-1.637167178805180173e-02,-1.185613390289356160e-02,-6.131266702050753269e-03,7.273488491773605347e-02
2.852470478792358266e-01,3.186055950995717589e-01,2.089209794804335607e-01,4.826948238430740779e-02,1.083889394893461089e-01,-4.905095945674854685e-02,2.427692115306854248e-01
3.065862037873827717e-01,2.568380759283700465e-01,3.078814721245737296e-01,-1.360825327317725757e-02,-1.671854493672270819e-02,-1.395804876952518210e-02,6.722763925790786743e-02
3.190250477053397371e-01,2.676686728453582242e-01,3.181725158014362398e-01,-9.191822605111348715e-03,-1.233802743759889430e-02,-7.454662536826431318e-03,5.891762673854827881e-02
3.022103067194147341e-01,2.805864362725352112e-01,3.261252314231649629e-01,-6.481594542653394686e-03,-8.698023258290468046e-03,-4.492499448412531557e-03,4.438689351081848145e-02
3.213641174371729692e-01,3.272290158288906903e-01,3.153519722126769675e-01,-7.219669702143029872e-04,1.352846972941905423e-03,1.399730614995760552e-03,1.089658588171005249e-02
1.407524324667729920e-01,3.916161527762887506e-01,3.792570194020878915e-01,3.305721622074407617e-02,2.088976046570323319e-02,-6.402012662445132063e-03,2.543527781963348389e-01
1.953580625732118103e-01,3.596687568802046653e-01,3.587620486651308949e-01,-2.579708183170477745e-02,6.738072606759207446e-03,1.055143072334139773e-02,1.712206602096557617e-01
2.222698648350004968e-01,3.912169995635029762e-01,3.976320287763830397e-01,8.190526218673055414e-03,1.337193312550578189e-02,1.356662105288380243e-02,1.759486496448516846e-01
2.296681089178274349e-01,3.668011047880838094e-01,3.623749029489857776e-01,2.982875930838343754e-03,8.126292952557408189e-03,-2.195116669200290228e-03,1.358577609062194824e-01
3.071142698353416245e-01,3.098204603487987319e-01,3.055636186002099186e-01,-1.132550403681429610e-03,-4.384157977310303178e-04,-1.038239724367147690e-03,4.645729903131723404e-03
3.114816937426770349e-01,3.106021038012679591e-01,3.104506389068517613e-01,-2.779246301286815782e-03,-1.804073262292070230e-03,-2.195605091197766132e-03,6.951874587684869766e-03
3.049595282017866782e-01,3.054295268818125186e-01,3.063219857208805408e-01,-2.510258540639689505e-04,-1.440318157455941842e-03,-1.101109254321979130e-03,3.389211138710379601e-03
4.672473931042542272e-01,5.732647680269739032e-01,4.052869302855535150e-01,7.479337720349638063e-02,-1.122475977136776631e-01,9.431464266483396974e-02,3.208023309707641602e-01
3.050650201615023871e-01,3.071194113844105122e-01,3.069381855006511062e-01,-5.341332738914793786e-04,-1.050896850585526657e-03,-1.520147743775026499e-03,3.870743094012141228e-03
3.102555549013264469e-01,3.458444534412073446e-01,3.143906831510857036e-01,9.453527468911933134e-04,7.643668807256592248e-04,-1.316223774506447737e-03,3.385462239384651184e-02
3.201590597021736762e-01,3.519675998287251084e-01,3.185861448569256016e-01,5.805376706735410758e-03,5.142740219815487672e-03,-4.488010836535062317e-03,3.612709045410156250e-02
3.046240259538650630e-01,3.382416582373736214e-01,3.077957766148417540e-01,1.292668240978996378e-03,5.138389712832060890e-03,-2.731459595977523292e-03,3.376659750938415527e-02
3.107567981866249940e-01,3.340527805573632603e-01,3.146313172201635755e-01,8.747218514402263371e-04,1.145949519276609615e-03,-2.706685475150506955e-03,2.226359024643898010e-02
3.156340914934522290e-01,3.169537045447306522e-01,3.159406012565177391e-01,-2.443654210444983887e-03,3.085849760562035544e-03,1.783502579352858183e-03,7.579923607409000397e-03
3.046274162766093307e-01,3.095234053092493776e-01,3.435113242999486838e-01,5.349254102441906855e-03,1.179000989740106855e-03,-8.787275748882233343e-04,3.791943937540054321e-02
2.962237352947690305e-01,3.185605128869216096e-01,3.397717245247666162e-01,-6.308391867900970708e-03,2.887697267517436855e-03,8.621439464925665513e-03,4.230872914195060730e-02
3.224939161339987481e-01,3.109749921615596602e-01,3.080022132455503270e-01,-4.081924803029785692e-03,2.304554931571654343e-03,2.498001288057334623e-03,1.613708585500717163e-02
3.130506707353871154e-01,3.315363447044196721e-01,3.131861683963143017e-01,-4.951158238626884303e-04,7.624423487514679198e-04,1.158540861220626068e-03,1.859407871961593628e-02
3.246682659025635354e-01,3.214357176371921976e-01,3.156557369999923868e-01,-2.329190180438120688e-03,1.115081895293744711e-03,1.495245487804990276e-03,9.447459131479263306e-03
3.294927147891029140e-01,3.180522800176118214e-01,3.170432096047461901e-01,-3.207790532969339095e-04,2.031668834789971886e-03,4.287870871371401950e-04,1.251755934208631516e-02
3.551646770301718492e-01,2.960746888841511715e-01,3.199892162268743734e-01,-3.213296857752125871e-03,-7.447854264890578502e-03,1.670635124107365879e-02,6.070515885949134827e-02
2.769337825574538781e-01,3.301043517468039146e-01,3.003647688189483578e-01,-6.682960469158576514e-03,1.593034703453853618e-02,6.338081642028957526e-03,5.609018728137016296e-02
3.433967391676646108e-01,3.019469401326797531e-01,3.080352598584124579e-01,1.039560319089446842e-03,-7.846451336116089118e-04,6.324402615750038432e-03,4.034695774316787720e-02
3.316094240972087270e-01,2.782340590599878261e-01,3.029500596069260587e-01,2.245251794426374702e-03,-3.705623568381057401e-03,1.046093223616812590e-02,5.025133118033409119e-02
3.485610740661727602e-01,3.130584230486363473e-01,3.204175611774889854e-01,5.493795923522894545e-03,-2.864960610870326708e-03,1.273406400840101059e-02,4.068125784397125244e-02
3.788262115895785764e-01,2.530462061473568447e-01,3.719321656305541457e-01,1.541523525768889909e-02,-7.856253287693196197e-03,5.253152216132767754e-02,1.554919183254241943e-01
3.086029303255841127e-01,3.019213675770940353e-01,3.422875374627851741e-01,4.133604828355975751e-03,2.040009788578461825e-03,-7.416261608627953918e-06,3.831588476896286011e-02
3.524647410711432283e-01,2.280232438654932192e-01,3.556804984360881772e-01,2.435127678203671819e-02,1.833809812232149207e-03,4.278923876445908658e-02,1.522432267665863037e-01
3.685101767597512290e-01,2.690293966544756721e-01,3.374684070452357854e-01,2.122513030983994367e-03,4.241448913854282271e-03,1.448691306978557893e-02,9.202746301889419556e-02
3.797481022557618879e-01,2.495785057168278809e-01,3.765083254679687519e-01,-4.168701837270779968e-03,4.416264831620297839e-04,1.343614200584574390e-02,1.308709681034088135e-01
3.737786563501840909e-01,2.382170153583880734e-01,3.695584224951682373e-01,-1.014109908574994598e-02,3.566125840251520556e-03,5.022691164659975893e-02,1.604293435811996460e-01
3.361307771184036675e-01,1.548737606987844462e-01,3.287139773389451958e-01,-1.640774406975128649e-02,1.836035269778263281e-03,2.790291808370497922e-02,1.863283216953277588e-01
3.079956782422598738e-01,3.476650196035097062e-01,3.198835028503246858e-01,-5.939153884436225179e-04,3.849101029103557843e-03,7.171856088305315208e-04,3.592273592948913574e-02
2.554908869694931806e-01,3.250579896942352720e-01,3.472743433301452298e-01,-3.110166161715787261e-02,-1.083069945485949995e-02,-2.385363776563250056e-03,1.007452085614204407e-01
3.171249978765251498e-01,3.205768751330162480e-01,3.198926121796267785e-01,-1.802653166893505344e-04,5.466553367976545203e-05,-3.977489105503893342e-04,3.256185678765177727e-03
3.162918271259793079e-01,3.194770855794851205e-01,3.206058228628985152e-01,3.958618470308227703e-04,4.654989700073143338e-04,-1.547125163357215231e-03,4.828686825931072235e-03
1.985249600207975307e-01,3.505480187728828301e-01,3.512291483795903502e-01,-5.895077940022292948e-03,-1.333064705886216096e-02,-1.213495069613215998e-03,1.544565111398696899e-01
3.114194701318018232e-01,3.555254253296541989e-01,3.221424488888115500e-01,-1.770727424576395027e-03,4.141133943681424637e-03,2.383664086452521973e-03,4.080771282315254211e-02
1.567965192879293979e-01,3.265427119145848933e-01,3.062555418250874628e-01,-1.993131726424969899e-02,-4.298546773942692883e-02,-5.507833570572945835e-03,1.805760264396667480e-01
3.079089340169636202e-01,3.448268430693237629e-01,3.145628426152732304e-01,8.972141618972895392e-04,1.588490406502341464e-03,4.989246468785501787e-05,3.422791883349418640e-02
2.356341337650745549e-01,3.687415812109735569e-01,3.609789792761495808e-01,-2.083596333594718748e-03,-1.374240607040573027e-02,-4.648112594216646841e-04,1.316237896680831909e-01
2.167187307986460365e-01,3.418008519491055330e-01,3.502042615828914185e-01,-2.070835374372016063e-02,-8.715646323390221356e-03,-1.141707660890163567e-02,1.366481482982635498e-01
2.245518604321201372e-01,3.290246357402261124e-01,3.310870701967389973e-01,-1.388573202697244817e-02,-1.241599652482395025e-02,-1.106630523446368308e-02,1.119936779141426086e-01
3.518987368339583366e-01,1.558811814748339852e-01,2.012304677539991371e-01,2.594909090327506690e-02,2.442461304523242671e-02,-1.468615273831044843e-01,3.163935244083404541e-01
3.049123756175542987e-01,3.355000591009666966e-01,3.110999621400708515e-01,-3.967429939608534822e-03,7.886179170835283525e-03,5.119127235372429238e-03,3.312162309885025024e-02
3.127860257138025402e-01,3.438040237768503760e-01,3.110216052316570612e-01,-5.638045664686843492e-04,1.446637222155615268e-03,4.054767667396827501e-04,3.205750137567520142e-02
3.104498634759265130e-01,3.436664525992918495e-01,3.104041880998022473e-01,-9.254814755436117837e-04,6.123929608789274379e-04,5.572885849536638164e-04,3.330896794795989990e-02
3.172736745158157845e-01,3.400754177697886682e-01,3.134683786055346699e-01,-2.486352782449450551e-03,7.870097259829765069e-04,7.853357292343806327e-04,2.536575309932231903e-02
3.200755789763581327e-01,3.167448295731578600e-01,3.215188609734523917e-01,-2.469154244274000213e-04,2.518604550194920681e-03,8.889631456659322171e-04,6.290305405855178833e-03
3.095016138258926408e-01,3.373326363821639307e-01,3.026463319029901178e-01,-3.640573694687618874e-03,4.778446553357858229e-03,1.387054196233415996e-03,3.356164321303367615e-02
3.020773010930648539e-01,3.347879434728641690e-01,3.103579985188257284e-01,1.726941483651951888e-03,-5.122128898035959929e-03,5.898352456283961071e-03,3.255328536033630371e-02
3.196530366247791188e-01,3.217473677121021058e-01,3.197828807330869716e-01,4.646424634648323171e-03,-4.200437470134581880e-03,5.870818022975501579e-03,1.500764675438404083e-02
3.208326171541397431e-01,3.295214872926218730e-01,2.978376897467108764e-01,6.229624647095545129e-03,-3.269973497347916994e-03,3.311250076435684996e-03,3.139202296733856201e-02
3.233876990379759286e-01,3.293934819941813918e-01,3.083464358499402036e-01,8.065042485905600175e-03,-6.990592893808293337e-03,6.519610315199298421e-03,2.866878919303417206e-02
3.104121502314138303e-01,3.380484459009955867e-01,3.105852425308702758e-01,1.333776741048104016e-03,-6.679702980578094886e-06,8.480465813879121018e-05,2.764723822474479675e-02
3.054448159512377914e-01,3.432913810983542757e-01,3.249983513977011129e-01,1.680876640541648136e-03,3.763479240290744030e-03,-3.248963275728087175e-03,3.401916846632957458e-02
3.051313213263383561e-01,3.070479544648066494e-01,3.278644181731479867e-01,4.250750360754246976e-03,-1.553305326698555412e-03,3.596051405472994438e-03,2.402365207672119141e-02
3.221704458800180304e-01,3.322063335266262629e-01,3.159307650971011072e-01,5.052292128577197394e-03,2.447424259187184863e-03,-5.290418286080771776e-04,1.725281588733196259e-02
2.987532980194234078e-01,3.332157348099430982e-01,2.743976591412931043e-01,3.131748734973055243e-03,-7.267133429769463346e-03,2.437105774852901634e-03,5.315907299518585205e-02
2.447065615647819325e-01,3.184792021000009687e-01,2.687258442152175020e-01,1.161238507205615902e-02,-4.068323532407767257e-02,1.482507375138779337e-02,1.013737171888351440e-01
3.161552608417240173e-01,3.189911657003444145e-01,3.208487566979345562e-01,1.311445432338830919e-04,3.412256515936633707e-04,-4.388026476661511968e-04,4.211828112602233887e-03
3.064659977332802598e-01,3.326572530479687262e-01,2.831317266710434710e-01,3.613934599164160197e-03,-1.156628276049915388e-02,7.950575190230953909e-04,4.779161512851715088e-02
3.601930267610025660e-01,4.415842352316772801e-01,3.510245093858988530e-01,3.376165824044884828e-02,-5.923101456452713187e-02,3.415156402913707007e-02,1.577919572591781616e-01
2.000209337402465426e-01,3.409784940311627599e-01,2.321532892576088081e-01,6.217870517587431589e-02,-1.157228889929212134e-01,6.664948048273169889e-02,2.854340970516204834e-01
2.708943298795629118e-01,3.722265705649495660e-01,3.046741051080708029e-01,5.343785725557369942e-02,-5.697267358303926416e-02,2.613983441259583665e-02,1.683468371629714966e-01
2.964134832390572516e-01,3.444245323205507026e-01,3.270340023917350791e-01,1.402884168374064246e-02,-3.297558550180096359e-02,1.593212214232445773e-02,7.991648465394973755e-02
3.209636709624641981e-01,3.495046707260583418e-01,3.204335978507228955e-01,5.065596411242395507e-03,5.212298294367328014e-03,-8.036349552323464394e-05,3.144046291708946228e-02
3.874373686006760686e-01,1.650329472206408243e-01,2.687384083448277616e-01,1.598775897546777028e-02,2.603650742090071052e-02,-1.330222844925847969e-01,3.050234615802764893e-01
3.931904037269520757e-01,3.676066978577550715e-01,3.758220859367180089e-01,3.705218133314322482e-02,-2.187319828745547950e-02,5.870451112612332101e-02,1.280796676874160767e-01
3.154322041401003696e-01,3.773188624150336512e-01,3.461336005722188136e-01,2.069574271382924879e-02,-3.470163699472346430e-02,1.126646043499138217e-02,9.028221666812896729e-02
3.460365684267448505e-01,3.124046281864996666e-01,3.117605633039054469e-01,2.241396793989021766e-03,-7.095902353364487750e-05,1.225620874773378265e-03,3.424582630395889282e-02
3.446808892631170185e-01,3.025627802738564132e-01,3.088595297887442026e-01,6.711893957801558144e-04,-1.593422615158644447e-03,4.248092707371689189e-03,4.014329612255096436e-02
3.501776478920669566e-01,3.117034224824214994e-01,3.162670739202318448e-01,-4.919014656185984654e-04,-4.073956279868786020e-04,1.445160835104273081e-03,3.651026263833045959e-02
3.157161720848803421e-01,3.184345204038543931e-01,3.196092779855499999e-01,1.272334778452500017e-04,5.934358182873551111e-05,-4.166131274814901847e-04,3.541567828506231308e-03
3.533026721713566354e-01,3.194418521717883874e-01,3.032448328101280954e-01,1.437187861395750011e-03,-7.388309475180161951e-04,2.653988011016203061e-03,4.456801712512969971e-02
3.086912142434536932e-01,3.118749355074290075e-01,3.431377786462398438e-01,1.077739679204461638e-03,-2.095107498936319909e-03,1.669370989531664606e-03,3.334736824035644531e-02
3.170383659087264716e-01,3.144095666423458724e-01,3.378677921189369160e-01,8.791216641340438356e-04,-2.095963911594089443e-03,7.499540024805388281e-04,2.264325506985187531e-02
3.107080178392887526e-01,3.057649873594264767e-01,3.368593055670006109e-01,4.072491429922934190e-03,-3.666099822685767087e-03,8.554671786819058061e-04,3.049363754689693451e-02
3.205584509342368493e-01,3.375026196217491559e-01,3.211133136337991911e-01,4.268553860777931155e-03,2.588486149245525746e-03,-5.408142620320357044e-03,2.098850905895233154e-02
3.000879823894215814e-01,3.475426202907155870e-01,3.352343525346342945e-01,3.176470843921825465e-03,7.498913671606204957e-03,-4.637223756638468239e-03,4.563808068633079529e-02
3.157322137379307003e-01,3.380941291404470084e-01,3.189226008776605004e-01,4.342559941478090976e-03,4.172199299170879609e-03,-4.765489962097356133e-03,2.481563203036785126e-02
3.136720071766381235e-01,3.337909356241119396e-01,3.681067668748639887e-01,2.135388870151601337e-02,2.641778616073789214e-03,4.797297194295840547e-03,6.107937544584274292e-02
3.139277950950813967e-01,3.255090072981611238e-01,3.121534990440124613e-01,3.260315223885293292e-03,2.767223727136489553e-03,-2.057066322245441458e-03,1.501256879419088364e-02
3.155623144469080210e-01,3.306595382070282030e-01,3.122817839060202938e-01,3.419546848221390999e-03,2.387503957208419753e-03,-1.586628035019359674e-03,1.865335181355476379e-02
3.327279241896570205e-01,2.743516014397273106e-01,2.937790966179757990e-01,2.631637714154007671e-03,4.116783121293795047e-03,-1.138559512818574510e-02,5.578200891613960266e-02
3.235018588270822670e-01,3.542664287547952484e-01,3.231417252868900025e-01,3.392122772308192678e-03,6.855588063685654973e-03,-1.303815433309562979e-03,3.373847156763076782e-02
3.209823896994913328e-01,3.080937239194556643e-01,3.179133303037233738e-01,2.812373773610999869e-03,5.532543643246887188e-03,-1.515481699698179334e-03,1.607564277946949005e-02
3.036596792835580816e-01,3.379198444359473585e-01,3.103213064823615586e-01,2.074391168443301056e-03,5.087018422276369696e-03,-2.494226661385406073e-03,3.315288573503494263e-02
3.127929803278849397e-01,3.434130135440178755e-01,3.123365740971695281e-01,2.889243231888884069e-03,1.098279174168353099e-03,7.182616582575771218e-04,3.133654966950416565e-02
3.210728968043630172e-01,2.979511238286413066e-01,3.346355709247070820e-01,1.949333554981621044e-02,1.977684638382579477e-02,-1.422304996590750131e-02,6.286797672510147095e-02
3.459050653071332193e-01,3.066473808309029825e-01,3.418671497874283260e-01,1.313795548075326336e-02,1.060532909874097908e-02,-2.028822491750271323e-02,5.906796082854270935e-02
3.054976095852435791e-01,3.341437157706574901e-01,3.368801077135680222e-01,4.898657273665929165e-03,3.117371497490814027e-03,-5.087115563941254498e-03,3.294320777058601379e-02
3.648074076878464744e-01,2.616024032328601034e-01,2.992577655632123190e-01,4.243630341097339581e-03,1.148355913830871947e-02,-3.271424938129541965e-02,1.088268607854843140e-01
3.504608604734962829e-01,2.856573784026266716e-01,3.061330825247673415e-01,6.354026450564217478e-03,-2.962312768923596167e-04,-1.282737885875697391e-02,6.250486522912979126e-02
3.249211261579256216e-01,2.675372840058955481e-01,3.169024464208286540e-01,9.351961413283486207e-03,1.220398284019039506e-02,-1.185421369685576293e-02,6.346509605646133423e-02
3.051139670954626792e-01,3.167609781084998466e-01,3.310331869811759531e-01,2.716912444882626544e-03,-6.545830300494671775e-05,6.514248073951279389e-03,2.559377625584602356e-02
3.331043826310342015e-01,2.560071227715512432e-01,3.176943577964421173e-01,3.352255034776186870e-03,7.658243691460575771e-03,-1.725266553729652014e-02,7.807693630456924438e-02
3.441327583353668285e-01,3.174467674672938888e-01,3.264154549680463591e-01,1.154842009957520940e-02,1.392819682869613981e-02,-2.611947149001445784e-02,5.984984338283538818e-02
3.491410705707450601e-01,2.782576599566089492e-01,3.198988201784742635e-01,2.307363532610071273e-03,5.068026883965874238e-03,-7.011064616446258634e-03,6.361814588308334351e-02
3.214092922921988338e-01,2.800042895356297246e-01,3.237766424073016402e-01,-3.786711160916606672e-02,2.643859354759986804e-02,3.399748464670082626e-02,1.080936491489410400e-01
3.409069246417470445e-01,3.006813827862010458e-01,3.527346039969315172e-01,-3.542804714872290622e-02,2.679171193918002472e-02,6.070578759895071952e-02,1.385935395956039429e-01
3.170760986793237923e-01,3.178159534043417667e-01,3.202237432707486509e-01,1.024718039306020227e-03,2.478685211806149011e-03,-1.338014094699352960e-03,5.922742653638124466e-03
3.893400779879082618e-01,3.404181796554129336e-01,3.425057723811475996e-01,-2.880860027151156168e-03,1.284992117514653816e-02,5.553838240247804814e-02,1.098607107996940613e-01
3.981274898349127511e-01,3.760463012408177264e-01,3.533682185457659997e-01,-2.257460345765113785e-02,4.684655114636204071e-02,6.218597897775579586e-02,1.456590443849563599e-01
3.157663638357664504e-01,3.193274781420221697e-01,3.188667682392899438e-01,3.573996549471665941e-04,-1.592783461144066685e-04,-4.004742545205953563e-04,3.491933457553386688e-03
3.353088728405109187e-01,-6.608558180000168036e-04,3.204695430314992155e-01,-1.998210166573513580e-02,1.352541256803168647e-02,-8.666485146160182729e-02,3.638534843921661377e-01
3.386434852410369345e-01,2.673554915420980893e-01,3.338105691240915718e-01,-7.538352441480701722e-03,1.221220694485878472e-02,1.233420700296698411e-02,7.638781517744064331e-02
3.270257489713375709e-01,2.872125024430296492e-01,3.074313921220059309e-01,-2.482878333469701933e-03,7.447348294916400664e-03,9.383325689967979971e-03,4.047149419784545898e-02
3.228941250705130162e-01,2.614701774337834239e-01,3.216853358555181730e-01,-1.164371613311902462e-02,1.788299032164263752e-02,1.443193651160187309e-02,7.543930411338806152e-02
3.121626124738657304e-01,3.181697377541350402e-01,3.323970651778998531e-01,-2.184627604768515181e-04,9.825871129394943889e-04,3.361216929990474157e-03,1.899738609790802002e-02
3.165249597707774920e-01,3.238492939484644006e-01,3.194856242113139899e-01,1.628035657310280323e-03,3.179636133654775406e-04,-9.025908049125131501e-04,7.171145174652338028e-03
3.066155253715947548e-01,3.409886184740251180e-01,3.078905313400663868e-01,-2.581379958504265073e-04,4.341470549088146530e-03,1.167574321436189080e-03,3.464309498667716980e-02
3.114401440408356425e-01,3.408417269725899090e-01,3.048037710058516536e-01,-3.049803368973350807e-03,4.335875607442626033e-03,1.118688480125454429e-03,3.452060371637344360e-02
3.128242638674986753e-01,3.455570886829273380e-01,3.157723001013637565e-01,-2.427824063487602304e-04,1.825195126955226005e-03,1.305136431258587144e-03,3.160557150840759277e-02
3.121582868589409809e-01,3.431762756983151030e-01,3.097906615054589752e-01,-1.311166343900015564e-03,8.160153194592723079e-04,4.199533337011324640e-05,3.237777948379516602e-02
3.921761357017054528e-01,2.648435363351715477e-01,3.943915712614610158e-01,-1.220165882224357040e-01,-7.595782090324222635e-02,-1.069374995608738804e-01,3.358279168605804443e-01
3.117007292043452726e-01,3.484466016574530034e-01,3.124441996372697705e-01,-3.612982482676960292e-04,7.547763198760382803e-04,1.455791383658089735e-04,3.640956804156303406e-02
3.131932452255013488e-01,3.398931347800742686e-01,3.158253493732016137e-01,-3.011673197935776144e-03,2.426476060031748996e-03,4.774176139249321910e-03,2.761860564351081848e-02
3.146898572714029174e-01,3.256456641796061091e-01,3.118541146704436606e-01,-4.768973700935152937e-03,3.557554942461269281e-03,4.461907017093261901e-03,1.802949607372283936e-02
2.347360380217100029e-01,4.571069658628040822e-01,3.494791121583441518e-01,-5.587089972924112746e-02,1.019310984464921743e-01,8.684342256226441903e-02,3.166372478008270264e-01
3.059414216483687388e-01,3.288214367074779876e-01,3.087460412270917609e-01,-2.692366958247611325e-03,3.079893286458872462e-03,3.802766865660963877e-03,2.368075400590896606e-02
3.447584574974552618e-01,3.106369633532590768e-01,3.103458840730177748e-01,5.699407699774532241e-04,-7.371818938315339090e-04,1.442864327021691276e-03,3.439685329794883728e-02
3.155829614235857727e-01,3.272308234770250901e-01,3.122710239597877302e-01,-4.334413724884875717e-03,1.730475685843718171e-03,1.664384479328066910e-03,1.608956791460514069e-02
3.158395234704294841e-01,3.306411054729631593e-01,3.112618626337601557e-01,-3.849705853008984768e-03,8.285252489771203739e-04,1.671632783958271065e-03,1.904472522437572479e-02
2.601960872352266363e-01,3.392156574758036225e-01,2.866836686631968334e-01,1.410362251981319738e-02,4.332982623012555240e-02,-8.966831113456367325e-03,1.064096689224243164e-01
3.777328328679427916e-01,3.937534510320093162e-01,2.815513733742907587e-01,1.834754663641103428e-02,5.090191946543364682e-02,-2.309214279784221890e-02,1.463935673236846924e-01
3.264093837423945876e-01,3.140859419709704503e-01,3.360186216380700031e-01,3.079735791666678504e-03,-3.761422569513666637e-03,2.777910629835686398e-03,2.136991173028945923e-02
3.667341543605631138e-01,3.483342175656140571e-01,2.971570265788031073e-01,3.642319571100778586e-02,4.886225680081031364e-02,-5.106038582191237130e-02,1.512062102556228638e-01
3.591697137316415267e-01,3.330188130857645867e-01,2.596588481752988842e-01,2.425923445135349382e-02,3.272938796090897606e-02,-3.585366329863028112e-02,1.296904385089874268e-01
3.322026504155423110e-01,2.592258705333043145e-01,3.115794059595411447e-01,-3.550118571701219895e-03,-8.880649688957747631e-03,-8.794140673189870805e-03,6.893713772296905518e-02
3.530980852924865965e-01,3.583976255794186772e-01,2.176187323585732636e-01,3.174707040637294014e-03,-6.664498076338639006e-03,6.934806103129295424e-04,1.388007402420043945e-01
3.069581131534762086e-01,3.488063074530834973e-01,3.233669920015969645e-01,-1.434908113465773491e-04,2.723946374721090621e-03,-2.074420665949982655e-03,3.700096905231475830e-02
3.427888789583998230e-01,3.716528136835380858e-01,3.104436970651773819e-01,3.975337279666198154e-02,5.793587278099270738e-02,-3.529500177700624353e-02,1.461535096168518066e-01
3.156756757549628589e-01,3.231619503226720869e-01,3.332239180016281499e-01,2.512901395420854157e-03,-2.830713536442327409e-04,6.019462545646121765e-03,1.898684725165367126e-02
3.471692145540185015e-01,2.731368534113378099e-01,3.252484707179301715e-01,8.631373228505174328e-03,9.083785585036365309e-03,-2.407944748887941994e-02,8.092571794986724854e-02
3.575011990132269668e-01,3.377593869731981835e-01,2.520173522325999116e-01,1.854200260745806142e-02,3.604479435489488237e-02,-3.106662396110334429e-02,1.313721537590026855e-01
3.638287602331210513e-01,2.558681233226949292e-01,3.655275876592029016e-01,3.141277576496803725e-02,3.619549241049309363e-02,-4.291049255968606979e-02,1.557445079088211060e-01
2.709486858972526835e-01,3.163175839934208033e-01,3.456647974294443371e-01,-6.076085291328121515e-03,-1.890351037598302043e-03,-5.023685252835132994e-03,6.669509410858154297e-02
3.062745638816662952e-01,3.541038269877028188e-01,3.407333156138087626e-01,-3.248689020541469484e-03,5.014841148416204590e-03,8.786608689810352507e-03,4.653631523251533508e-02
3.391710286772579019e-01,2.186284669841494499e-01,3.502411852460285968e-01,3.227067151159750211e-03,2.636976083452001029e-03,-3.975019743630309015e-03,1.268344968557357788e-01
3.115180659661999640e-01,3.321856827440253790e-01,3.185944110564591369e-01,1.907348344899359839e-03,1.041300604108501282e-03,-3.241232451668388595e-03,1.940766535699367523e-02
3.515997078653816388e-01,2.450038383498252259e-01,3.602378954474954598e-01,1.220065775505389978e-02,3.236999650566018977e-03,-1.204970293534004741e-02,1.152027845382690430e-01
2.414581471551801584e-01,3.455429485927616895e-01,3.479479823206121369e-01,-3.908987029220966844e-03,3.121851679033544377e-03,1.109339167528477620e-03,1.056812554597854614e-01
3.344912486681527741e-01,3.431926128065621584e-01,2.930239248227483051e-01,6.512481138838417845e-03,4.503896147975841070e-03,-4.130125046449771228e-03,4.894222319126129150e-02
3.061253538728799795e-01,3.080930721500036440e-01,3.469653177132052679e-01,9.128873397169182113e-03,5.771159211922155703e-03,-1.489739602586176177e-03,4.413614049553871155e-02
3.207126969092249924e-01,3.537663847768756087e-01,3.049049317674722981e-01,-1.941683122767751297e-03,3.831859675656148177e-03,-5.689363537139740471e-04,4.383226484060287476e-02
3.196009297752976930e-01,3.365214929986054537e-01,3.107530153146566554e-01,4.844562591721350911e-03,2.371387751892341765e-03,-8.369098798307370675e-04,2.456997707486152649e-02
3.067066823868962455e-01,3.030712891408462450e-01,3.323770133253835524e-01,4.095861999711311249e-03,-3.689217820821612780e-03,1.874318827238807003e-03,2.944829687476158142e-02
3.088030444473378044e-01,3.262225487502851684e-01,3.244501617843018604e-01,2.417940271493329487e-03,1.936445242355309179e-03,-2.855082857360214180e-03,1.813696883618831635e-02
3.622745591691431954e-01,2.550139969306705612e-01,3.503994898129916269e-01,1.379344591325582306e-02,9.752195920030244658e-03,-2.379200645236083031e-02,1.136942878365516663e-01
3.445708865244487829e-01,2.740723374450665384e-01,3.609972398065251498e-01,2.025094640385666223e-02,1.098076315474841649e-02,-1.060004425076491522e-02,9.125251322984695435e-02
3.250341492733604398e-01,3.198320201322398804e-01,3.096725737449040894e-01,5.649270708836597564e-03,1.382376210167804431e-03,-2.465446747598356962e-03,1.740224659442901611e-02
3.585943019273742371e-01,2.692615928029469252e-01,3.748597050014386145e-01,1.488281576924629750e-02,3.062126481940801153e-03,-5.071702517967078064e-03,1.023118719458580017e-01
3.258861259887510520e-01,3.153008126990040627e-01,3.155165965720481691e-01,-1.256890011936250147e-04,2.235842815977169117e-03,-8.799602219944905506e-04,1.127735059708356857e-02
4.158992213464897114e-01,4.840054916632042237e-01,4.359360671579097235e-01,1.145403559730732296e-01,1.440343354359609473e-01,-5.994175771071354186e-02,3.406618535518646240e-01
2.315425939055516524e-01,3.002091220571129204e-01,3.294487245840521106e-01,3.508078441837578221e-02,-5.998786996334401142e-03,1.262271880233665350e-02,1.088841930031776428e-01
3.037426328957428256e-01,3.191875342570166252e-01,3.425623952449208254e-01,6.326075815977511702e-03,3.305748542326669530e-03,-4.853032704015290688e-03,3.700606524944305420e-02
1.076226174870149044e-01,2.938713464455111612e-01,2.886679153181812563e-01,8.798091992410470019e-02,-1.123990266589019599e-01,4.017522562305998746e-02,3.157708346843719482e-01
2.372386356268623708e-01,4.237037460184143178e-01,4.978203766742860248e-01,9.337204063869236625e-02,-2.132639012373265149e-03,6.549468333470218062e-02,3.051556944847106934e-01
3.176633724210523035e-01,3.228128068710191534e-01,3.226169971078017840e-01,1.038194680986232778e-03,7.848774449142048842e-04,6.505930808892819516e-07,5.534288473427295685e-03
1.816278066788762635e-01,3.057693067046200475e-01,3.513350575816572285e-01,1.020750181955759062e-01,1.343291617396347691e-02,1.135267372647489649e-02,2.352229952812194824e-01
2.818473493806987196e-01,3.272992158206647906e-01,3.379877296678747700e-01,5.911150702169329189e-03,2.139342987755828759e-03,-7.885291396570508204e-03,5.450704693794250488e-02
4.389957335369804592e-01,5.027581119705228918e-01,5.871464058329092239e-01,1.369583952077874089e-01,-4.557042591550169996e-02,5.841282986452996095e-02,2.988424301147460938e-01
3.328326375706144313e-01,4.129839265718721064e-01,4.355576108221626552e-01,5.465161491062334870e-02,8.094228701658077313e-03,1.167420783410164607e-02,1.353104561567306519e-01
2.414028080210032789e-01,3.852629553756617975e-01,3.910968649086319360e-01,2.822218406337433788e-02,-3.276585160284144205e-02,1.721573573697675330e-02,1.675364673137664795e-01
2.164051092400825216e-01,3.493641486826616349e-01,3.509259240067541530e-01,3.086522834596451895e-02,-3.339235475310248918e-02,3.248263653203420365e-02,1.650960296392440796e-01
3.111351818673123715e-01,3.206419423755342835e-01,3.329431671750415767e-01,9.021434962410427227e-04,-7.022377369635508185e-04,6.461040525617155195e-03,2.208618447184562683e-02
2.850168633056168743e-01,3.488671633959689045e-01,3.076675281267438056e-01,3.946834281636160414e-05,9.496497036064250122e-03,7.553058014582779509e-04,5.844594165682792664e-02
2.580688968777747894e-01,2.842368602212221873e-01,3.061263362526767673e-01,-2.374347824529119549e-02,-2.092820758555774888e-02,-1.754238696971397587e-02,7.526718080043792725e-02
2.367879753428780154e-01,3.324705090361149695e-01,3.208869986174665567e-01,-1.765916123180470351e-02,2.711494114643886802e-02,5.888805390206382391e-03,1.068934872746467590e-01
3.061667181975926688e-01,3.533541543392225703e-01,3.257438595456633168e-01,-1.647513813256920763e-03,1.605199442877809288e-02,3.151139306652812801e-04,4.967457801103591919e-02
3.253389402384526674e-01,4.156297637933128453e-01,3.644101384162933277e-01,-8.413374847367659920e-03,5.774321053534800519e-02,2.176139724612834864e-02,1.333682388067245483e-01
3.012406762352694556e-01,2.872058688920519631e-01,3.247035645577322494e-01,-8.427697292612484209e-03,8.431720720936515534e-03,4.841818978294660028e-03,3.966698423027992249e-02
3.116449409663235026e-01,3.656119450181644082e-01,3.183917433095834193e-01,4.751483617800885892e-03,2.334295273480734706e-02,-8.216697560405940640e-03,6.707312911748886108e-02
3.218577669600297675e-01,3.027090654497744393e-01,3.296665506127730016e-01,6.765159107446481156e-03,-6.829660352533221783e-03,3.410708423119033009e-03,2.982132881879806519e-02
3.061867672369897320e-01,3.557155951354699086e-01,3.266049815966858283e-01,-4.093173888982454788e-03,1.612035487434731323e-02,1.304136361499753753e-03,5.190067365765571594e-02
2.540068664795993580e-01,3.401131126010927819e-01,3.290528293738790855e-01,-1.882906384224342176e-03,1.483917156002887566e-02,6.010340325281158212e-03,8.581297844648361206e-02
3.372734714236746978e-01,3.073720871287598522e-01,3.032211764508793150e-01,-7.392483006880172687e-03,6.034538700549795139e-03,9.633789583242860499e-03,3.983797132968902588e-02
3.300618895520750495e-01,2.888183926815685587e-01,3.077164278452915180e-01,-6.486900026221570359e-03,8.482562865229853824e-03,8.721481591786888268e-03,4.300040379166603088e-02
3.453504239681784993e-01,3.142895913861161183e-01,3.249619777597926307e-01,-6.394753762094566255e-04,6.540617688701246511e-03,1.977540408041196171e-03,2.980737760663032532e-02
3.441810958648304775e-01,3.139080872087769980e-01,3.180190397306459915e-01,-1.430166837223212492e-03,7.861079150369883195e-03,8.112635170988858474e-03,3.461032360792160034e-02
3.046657942318332091e-01,3.389452777999642508e-01,3.605766297584507840e-01,-4.456035884463959221e-03,1.362461466666735777e-03,1.086962453090269121e-02,5.295369401574134827e-02
3.407301250384390801e-01,3.232189841990584789e-01,3.267621332070177465e-01,2.439143607583367512e-02,-1.855675731536000558e-02,1.256443773561032214e-02,5.957038700580596924e-02
3.357281388828387003e-01,2.723426527036528211e-01,3.201345863627800270e-01,-7.752967146060613622e-03,7.890340984686565820e-03,8.263878256584119078e-03,6.200360506772994995e-02
3.724659866247534423e-01,3.196708054825923573e-01,3.714867947200879983e-01,-1.949503439061028853e-02,2.611939979874457196e-02,5.321023703034787750e-02,1.200725585222244263e-01
3.257121055766237228e-01,2.739299313215261544e-01,3.299740412412164314e-01,-9.278317174208426665e-03,1.133200234509536102e-02,6.290366418368260534e-03,6.068328022956848145e-02
3.478841245305753227e-01,3.479422829655579030e-01,2.640152270293437686e-01,-2.608195847356376256e-03,5.276357891058435119e-03,5.139005357999443767e-03,8.498252183198928833e-02
2.929412781044073433e-01,3.346445355410168632e-01,3.102156367952829119e-01,-1.562833909258356385e-02,2.594800100908491863e-02,2.101984310099023687e-02,7.345271110534667969e-02
3.149819091578456853e-01,3.170728295630074745e-01,3.076295783593701039e-01,5.182153245879431505e-03,-2.184911287717208883e-03,2.193506860152723802e-03,1.353225484490394592e-02
3.367448263998913394e-01,2.312916644428988089e-01,3.388312382839119286e-01,-9.508748763682834879e-03,-8.976513007568090452e-03,-8.525183956600644597e-03,1.098897606134414673e-01
3.293679747696404703e-01,3.143237914553131951e-01,2.905117718267752891e-01,9.624295344930339224e-03,-5.807833814193736829e-03,7.129407759825417794e-03,4.102598503232002258e-02
3.298082966386540194e-01,3.149407900071283239e-01,3.183572264680817887e-01,3.297041056217861650e-03,-3.310092518968825101e-03,2.917372787989740840e-03,1.652076467871665955e-02
3.094630235646484429e-01,3.125784797792481307e-01,3.469308231657301511e-01,1.037016133437968467e-02,-5.191933684542291913e-03,4.614363997883093663e-03,4.200213402509689331e-02
3.013399352783362461e-01,3.089298094252643234e-01,3.397789772818343157e-01,5.284282236725329832e-03,-2.549451393574894351e-03,2.664470415502711610e-03,3.698630630970001221e-02
2.993907631546376957e-01,3.100743836326478875e-01,3.438926219191914546e-01,5.339607532822564402e-03,-1.202722456265840033e-03,1.486907236411432950e-03,4.142005369067192078e-02
2.815451693311039061e-01,3.538330609734587351e-01,3.325099795044093587e-01,-1.594139686787283787e-03,6.035263437910593984e-03,3.775158064572005107e-03,6.556268036365509033e-02
2.582967055580026039e-01,3.413760424770923563e-01,3.506480282905622969e-01,-8.152708816852431012e-03,4.171029210540013951e-03,7.783345538275680646e-03,9.050850570201873779e-02
3.089654445925132387e-01,3.133741910694791133e-01,3.499974195869894888e-01,1.321393374515322100e-03,6.022543923099333294e-04,-7.283275881887172091e-05,3.909607231616973877e-02
2.825789529839213277e-01,3.626160922450640811e-01,3.252786586392945600e-01,1.207010208376440262e-02,4.678031588158795134e-02,-1.641527579811939003e-02,1.123489439487457275e-01
3.224121857587194939e-01,3.201360683999383561e-01,3.301653162187980217e-01,3.533576376491271830e-03,-2.915875374284766439e-03,4.122790094800699717e-03,1.403197925537824631e-02
3.222743119304213866e-01,3.164312121581840942e-01,3.201052526714566193e-01,-4.692987294017782261e-05,-1.179960738524954596e-03,5.343584632635396941e-04,5.586836952716112137e-03
3.204796582542804306e-01,3.165199536824151449e-01,3.195392210650164766e-01,5.653688801704660370e-05,-4.089965370035567060e-04,-9.715565589527727316e-05,3.657809458673000336e-03
2.937166345299869752e-01,3.537436392594285883e-01,3.339266970471162499e-01,1.725503145814453803e-03,6.392413670489894076e-03,-3.639274154351263175e-03,5.456789210438728333e-02
3.130000692028475640e-01,3.420440602421773724e-01,2.616630424439360669e-01,-7.659331394532136253e-03,-7.919290068123183146e-03,-1.919020244461812569e-03,7.311131805181503296e-02
2.187766779407337714e-01,3.504975478895741570e-01,3.524982232098910484e-01,-5.115212357466183447e-03,-2.444513655068244269e-04,-1.027402459236764461e-03,1.330404579639434814e-01
3.187361565015060516e-01,3.167860460364427810e-01,3.203217101527385258e-01,4.010713620044313913e-04,-2.095512216383476625e-04,9.961039890904032496e-04,3.605536650866270065e-03
3.081846314691296107e-01,3.164227159201132289e-01,3.405365737636942836e-01,2.298975375124870379e-03,-1.327239882131216187e-03,4.300998416069895872e-03,3.040776960551738739e-02
3.209527597548588740e-01,3.190409619387683526e-01,3.220834496092874755e-01,5.539361789333443684e-04,-4.718041837524142019e-04,-2.080306982893986877e-07,2.946763299405574799e-03
3.140621270279960742e-01,3.443832464957523043e-01,2.827616253755750875e-01,-3.398233564329669002e-03,1.193495307631569496e-02,4.224897729944131750e-04,5.753839388489723206e-02
3.185233354156217778e-01,3.173547172034334451e-01,3.177855409741542903e-01,7.202980675726222692e-04,-1.613024002295133442e-04,7.856265026774015376e-04,2.129314234480261803e-03
4.001803021474767963e-01,4.294456201583418675e-01,2.717317847764638694e-01,1.141244211227536443e-02,-4.810869095954058150e-02,2.114884455022493503e-02,1.725991219282150269e-01
3.386649152426948195e-01,3.377494563633152147e-01,1.750931611760911666e-01,3.401662045290748757e-03,-2.470514703721279209e-02,1.249919908074783280e-02,1.701212823390960693e-01
5.925344989673820839e-01,6.057712051251853413e-01,2.924829676363459585e-01,4.426493811664743150e-02,-7.062440874209184594e-02,2.404919350385741061e-02,3.416935503482818604e-01
2.644517355503919753e-01,3.517955714463520955e-01,1.256710477721380836e-01,1.882131699806581515e-02,-1.177068771187963075e-01,1.308546689545308540e-02,2.866213619709014893e-01
4.456967963860225534e-01,4.386305512781087379e-01,2.214530805367478927e-01,3.813339996114371161e-02,-1.010271011972789373e-01,1.202507435565465174e-02,2.901143133640289307e-01
3.677002150511997636e-01,3.767030463693247233e-01,1.657499151060685683e-01,1.896642020458500378e-03,-4.995259900083352800e-02,-3.254230130819461830e-02,2.309906482696533203e-01
3.339320984816888660e-01,3.228118686869900777e-01,1.249026235851982691e-01,-9.196559704630366192e-03,-4.530410061941064770e-02,-1.873898842325025585e-02,2.212624847888946533e-01
3.384404933131563431e-01,2.107386503508392184e-01,3.309351428141300566e-01,-1.228137407855096896e-01,-7.542749045322094670e-02,-7.280229105443672410e-02,3.059799373149871826e-01
3.699313628632627804e-01,4.011977481676043400e-01,2.129914949302536276e-01,1.201993996134015363e-02,-2.814558252362344554e-02,1.942590449648739148e-03,1.825813055038452148e-01
3.446481219565087906e-01,3.289470392566831713e-01,3.147448139414146806e-01,9.355515087632753496e-03,9.318593311079370611e-03,-1.222122117694235052e-02,4.052625969052314758e-02
3.629964399701793298e-01,3.632293760940072946e-01,2.086881039896360535e-01,-3.538687151971964262e-02,-8.102136549823524270e-02,-1.301319802342754683e-01,3.132094144821166992e-01
3.453173792572775125e-01,2.363502964603320933e-01,3.463916611590694972e-01,-2.630708646975516915e-02,-5.842161869966084643e-03,-2.155219535766779437e-02,1.247562170028686523e-01
3.369767850710006507e-01,3.418819702834907659e-01,2.209096806755804498e-01,-4.683608805545377146e-02,-6.906956413609657841e-02,-7.195677475039444215e-02,2.247019559144973755e-01
4.177029408839161850e-01,3.059706745341042033e-01,3.430519688874655304e-01,-2.706655703296333843e-02,-1.751187346818513027e-02,-8.056748917461141468e-02,1.797417551279067993e-01
3.763594699749954198e-01,2.876574382063428192e-01,3.444588474112171284e-01,1.196276205015889965e-02,1.315401850458312871e-02,-3.736297589950908493e-02,1.057942956686019897e-01
3.615647281205057184e-01,2.906483613066617733e-01,1.989062175437111002e-01,-2.222352246233722135e-03,-1.155374012895286039e-02,-6.158828688036962345e-02,1.781752109527587891e-01
3.042228491282573666e-01,2.138315834983920694e-01,1.961673688961635964e-01,-8.521953394948704463e-02,-6.983723440311812025e-02,-1.308830688431406875e-01,3.128725886344909668e-01
3.027664579991845573e-01,3.385312994685528154e-01,2.994020992729064523e-01,3.328739807065202692e-03,7.718243402996074511e-03,-1.332832444074714658e-04,4.028370976448059082e-02
3.101160570421354623e-01,3.471836700259037789e-01,3.144477641795344613e-01,-6.500667354449355621e-04,1.549762350182593744e-03,-8.563770651026371113e-04,3.525448590517044067e-02
3.176395036087538148e-01,3.583302135151705814e-01,3.230582843454312680e-01,1.090597701637188895e-03,9.908275540493689110e-03,-9.854497330341401191e-04,4.201911762356758118e-02
3.340366654036101002e-01,3.155925839808962907e-01,3.183298526879650980e-01,1.289433992525434872e-03,3.656003543401321020e-03,5.383574108424752161e-04,1.852422393858432770e-02
3.348505570048831981e-01,2.944458341527229073e-01,2.898622595827759496e-01,-3.256444571336064662e-03,-7.355630162541190948e-04,-1.934907452360153709e-03,4.339835047721862793e-02
3.054896141854433478e-01,3.115494712362168461e-01,3.412323429314183532e-01,-1.120077299521941676e-03,1.343150088303526370e-03,3.138082330577588678e-03,3.371034190058708191e-02
3.262501305430673959e-01,3.217474640655118567e-01,3.185543470050798964e-01,-7.311574769443781631e-04,1.423416504282853370e-03,1.192221926382668745e-03,7.536168675869703293e-03
3.046721572831670999e-01,3.453132717468114232e-01,3.143739868679926164e-01,-3.020591848052381996e-04,3.686581010008136219e-03,-2.048156819210422404e-04,3.731895983219146729e-02
3.180765488719309309e-01,3.147547786487598365e-01,3.296257704178932602e-01,6.830401711385898373e-04,-1.890626868864567168e-03,7.633001695210860386e-04,1.402331795543432236e-02
3.155571545805427314e-01,3.139917403168110410e-01,3.199743755201401862e-01,2.571117740426161289e-03,-2.022656883449135308e-03,3.097484338005965405e-03,9.474477730691432953e-03
3.600292849561506081e-01,2.502727840565120987e-01,3.469696571221180248e-01,-2.524633502097229330e-03,2.924517254993675656e-03,5.677419097947528082e-03,1.045234128832817078e-01
3.219073695087263376e-01,3.171504940561539754e-01,3.222830037132349279e-01,3.726877206164460037e-03,-1.766628798927792317e-03,3.526346191033289529e-03,1.062510907649993896e-02
3.126994921085494705e-01,3.139652526901635654e-01,3.225393364084233605e-01,2.613368723006311532e-03,-1.557913730171844391e-03,3.482106407363180518e-03,1.225215755403041840e-02
2.870330363058045120e-01,3.048098505474143849e-01,3.419694874121387840e-01,-3.345994356986816982e-03,6.417621048324536302e-04,-2.825411763380588238e-04,4.891314730048179626e-02
3.178613955540780522e-01,3.182646518566399907e-01,3.588503173778220812e-01,7.631882273547557424e-03,3.496451371188801730e-03,-1.851749346565228745e-03,4.342147707939147949e-02
2.925378634983559212e-01,3.238311441951152170e-01,3.403016850428112750e-01,-3.242472726903774735e-03,4.677090745470416366e-03,4.986256815141518195e-03,4.401954263448715210e-02
2.829318076917972102e-01,2.797885585105450712e-01,3.363271557666147604e-01,-1.528417056466939948e-02,2.336708801190791503e-03,1.823967143353683647e-03,6.128586083650588989e-02
3.000145066974413410e-01,3.051763397839292735e-01,3.444238227210454362e-01,5.394922244539541306e-03,5.218027967077328022e-04,7.477419124641554037e-05,4.310159757733345032e-02
3.004989611863315147e-01,3.051808804703149414e-01,3.422520542881984928e-01,6.016271918594770680e-03,2.235160030410245644e-04,-1.643985659768558162e-05,4.096942394971847534e-02
3.109131061284030051e-01,3.143644428196370466e-01,3.449331359661083618e-01,1.635228967388318829e-03,8.729447278015643047e-04,-1.039573516279355871e-03,3.264061361551284790e-02
2.954038094546191928e-01,3.217913555386619495e-01,3.047080707035354497e-01,-1.569590567288180021e-03,-2.398056453211212455e-03,-7.591279901382428155e-03,2.710868231952190399e-02
3.582876594022907368e-01,3.178430216409776077e-01,3.210419963119791054e-01,3.485040968747569914e-04,1.604442727284995443e-03,8.793847775766486241e-03,4.191304370760917664e-02
3.490792644759860286e-01,3.120912345422612866e-01,3.127942144527040558e-01,-2.066240462605841224e-03,4.797242883665372819e-03,1.005917011418371726e-02,4.156941175460815430e-02
5.180557666770744252e-01,5.288028715384440748e-01,5.283563772583961260e-01,1.251368607378289532e-01,-6.111476687463694019e-02,1.242642702412092293e-01,3.234477937221527100e-01
2.984989203734628727e-01,2.983378773488558622e-01,3.231198606986072086e-01,-2.800599795296561186e-07,-1.340529864875695393e-03,-9.031416201218622720e-04,2.486000210046768188e-02
3.484979183414791959e-01,3.179991904613087561e-01,3.173230677502518748e-01,-3.126007633183278036e-03,3.264484611766647545e-03,6.274881024363153370e-03,3.362527489662170410e-02
2.663487844561120976e-01,3.371242517033614106e-01,3.167189467657267610e-01,1.264889693090809168e-02,-4.036984287917957936e-02,2.021554866048385496e-02,1.028421595692634583e-01
3.480285807589889591e-01,2.422065515384922707e-01,3.523006099025788873e-01,-1.056635447232662228e-02,7.229804272741428665e-03,6.636342468084276136e-03,1.108715608716011047e-01
2.912126074570420831e-01,2.864653959453559162e-01,3.289687333540640135e-01,-4.731053170911719494e-03,-4.717850763960999491e-03,-3.261307132525319459e-03,4.234534874558448792e-02
3.426215679236621625e-01,3.058656801238802680e-01,3.006985371263411477e-01,-1.213725849504047752e-03,7.749172688684436436e-04,6.983754096966894587e-03,4.147477447986602783e-02
3.297517167867840548e-01,2.914922920845520182e-01,2.912712067791914938e-01,-6.868514875407667405e-03,8.397043026639877672e-03,1.567487558581311807e-02,5.062071606516838074e-02
3.577575809216386737e-01,3.310193744898482504e-01,2.813490804949415613e-01,8.661414576425622604e-04,5.323027032559152563e-03,6.147211595127074005e-03,6.863515079021453857e-02
2.455855592873771864e-01,3.636030106514179239e-01,3.549381212110649386e-01,-2.857638282900092476e-04,3.399700648880280528e-03,2.282417076480343886e-03,1.141540110111236572e-01
3.500602740064018836e-01,3.299167997868995283e-01,2.623103882371340401e-01,-1.865190662258318791e-03,1.280012416131314163e-03,1.511240193592692203e-02,8.389708399772644043e-02
2.773365878531323103e-01,4.034108141848616880e-01,4.344452914466769844e-01,4.510070509100030933e-02,3.186654216520210317e-03,9.082762056966640907e-03,1.647746115922927856e-01
3.936238767630431123e-01,3.060857524422238019e-01,4.148882168773967427e-01,-1.174454430006294514e-01,-8.003672518802927571e-02,-1.196773547273993904e-01,3.369606435298919678e-01
3.426863171420026499e-01,3.091942139947863044e-01,2.850770374938585983e-01,-2.055047082627064862e-03,1.061971985401587246e-03,9.854507520798604092e-03,5.308936908841133118e-02
3.445177630589311701e-01,3.095812471740893579e-01,2.852332770699251285e-01,-3.006512855664718147e-04,8.472192777640973884e-04,8.425534688734800243e-03,5.366013944149017334e-02
3.626765337854997440e-01,3.340447763528027747e-01,3.352583372942825046e-01,-2.773648401215217038e-02,1.678292225811987143e-02,4.891881646157957009e-02,1.054447367787361145e-01
3.541167682782569992e-01,3.208628122679718642e-01,3.032418828709873004e-01,6.176169951534369543e-04,-1.044325797667084295e-04,2.900669082794564858e-03,4.504116997122764587e-02
2.746518943092813303e-01,3.450641912028890590e-01,3.588971410447739929e-01,1.762248033278484768e-02,1.586161930957043437e-03,-1.476814750421272769e-03,8.407733589410781860e-02
3.731343917146155986e-01,3.650159673459876797e-01,2.614533245425049168e-01,-3.740810106248201004e-03,1.267129806814810272e-02,1.015856857158998691e-02,1.116474419832229614e-01
3.603100865259846186e-01,1.348934751004269850e-01,2.382612911123813682e-01,1.722399894950017718e-02,1.158958965699865770e-02,-1.423421988027009921e-01,3.166600465774536133e-01
3.208147020054751830e-01,3.060355639188204191e-01,3.416720206607932742e-01,2.454175249952249716e-03,3.410983102329925160e-03,-2.105173274594917231e-03,3.206200897693634033e-02
3.141879020857926696e-01,2.972018576709893889e-01,3.108148800914229404e-01,4.803755915437985663e-03,7.255177620995144003e-03,-4.582101957335988143e-03,2.308108843863010406e-02
3.067566319226781024e-01,9.274881256284162045e-02,1.985025491448302037e-01,-6.025477573714792950e-02,-3.125860930352363648e-02,-1.485013995203930681e-01,3.381305634975433350e-01
3.769536388969431107e-01,3.496820456258465382e-01,3.045337453780456172e-01,1.273843978534314192e-02,1.431627822244655596e-02,-2.544044812220563195e-02,8.400413393974304199e-02
3.250669199624416916e-01,2.971040150384025025e-01,3.525414070298112934e-01,4.458043961451128856e-02,3.939653554019977022e-02,-1.501551104502094579e-02,1.166187897324562073e-01
3.029206330392537616e-01,3.073200544074943252e-01,3.258142992702251495e-01,-3.831149991516389231e-03,1.126502735858466104e-03,3.656246163273421407e-03,2.303693816065788269e-02
3.132469203423854931e-01,3.162557964227467044e-01,3.412595689296313850e-01,1.555544512669531894e-03,1.612016058406093950e-03,-2.394971899370662116e-04,2.692029438912868500e-02
4.205180595007277367e-01,3.195555463465107326e-01,2.211794445730822511e-01,2.099540536579948269e-02,3.395354256984989272e-02,-6.160975150742303147e-02,2.144103944301605225e-01
3.070113300131625533e-01,3.231295804074119093e-01,3.491729882381494621e-01,4.421543433580086765e-03,-1.952501100295653659e-03,-4.260513669079020547e-04,3.779501095414161682e-02
3.739282715574685501e-01,3.295026688813696980e-01,3.105120958239899753e-01,-3.147744093374995472e-02,4.268023498429493467e-02,3.242599981706778545e-02,1.215301379561424255e-01
4.829888129988469947e-01,4.480871502111855587e-01,3.032498305119228910e-01,1.818918907387599704e-02,2.797422162845345298e-02,-3.532304233084467004e-02,1.852954477071762085e-01
3.440608394757999067e-01,3.173578729032545676e-01,2.226125120643541178e-01,-1.041590867365091433e-02,-1.478660024191787332e-02,-5.072274716045306608e-02,1.446357816457748413e-01
3.563252975673418810e-01,2.924394096443430069e-01,1.964788066479184470e-01,2.005558900117718896e-02,3.030678344742113867e-02,-6.096669591526882037e-02,1.858315616846084595e-01
2.738853340638328082e-01,3.372538991676740094e-01,3.246527003822965440e-01,6.037361282214360157e-03,1.487709840858719712e-02,-8.000081965641493015e-03,6.588765233755111694e-02
2.778571800361386290e-01,3.208465088905350093e-01,3.374038986106170368e-01,3.273259668429665675e-02,1.585028929431570033e-02,-2.080985578930888424e-02,9.000629931688308716e-02
2.728985855511091851e-01,3.239072801377573807e-01,3.338363052043377688e-01,1.445683169015984579e-02,8.774107627141525950e-03,-1.590751282963807911e-02,6.945531815290451050e-02
3.058094338057461004e-01,3.354601390292903940e-01,3.400325906511355578e-01,1.159416383840630727e-02,7.315611883032355212e-03,-6.300680118696253039e-04,4.000834375619888306e-02
3.388019408407592636e-01,3.627526541507527513e-01,3.039806548926753393e-01,8.513244557382844413e-03,1.372678835260313437e-02,-5.764287407948912381e-03,5.918221548199653625e-02
3.084086564363481275e-01,2.474024868448597425e-01,3.112036588064198139e-01,3.973668803966078078e-02,2.063845922860331125e-02,-2.669955443036204148e-02,1.097885519266128540e-01
2.597823777566648507e-01,3.412265832818283662e-01,3.367749251414015599e-01,7.787400675838511822e-05,1.835428305777690033e-02,-2.760022797328999695e-03,8.557993173599243164e-02
3.772156932175163568e-01,3.046989567256885856e-01,5.759017525776249924e-02,2.992541721931685477e-03,-7.272359361332309501e-04,-8.817257236783557217e-02,3.280131220817565918e-01
2.751868651744745486e-01,3.233345544730312771e-01,3.566551642801364386e-01,-6.918771799343332619e-03,7.717138562102397953e-04,1.351365859170180084e-03,7.199754565954208374e-02
3.422963859547030752e-01,2.723502850526642316e-01,3.490140664880508892e-01,-7.672837539800174238e-03,6.098235036579180250e-03,3.958065974908948903e-03,7.578022032976150513e-02
3.137946699354438040e-01,3.544293997625548309e-01,3.370309643087349150e-01,1.745331975551909012e-02,2.470140662900193948e-02,-8.449167144833123408e-03,6.484909355640411377e-02
3.074000899288284461e-01,3.420823518675830122e-01,3.014729685727360886e-01,-1.557158390232348281e-03,6.702217790151295852e-03,1.074666824467886595e-04,3.981989622116088867e-02
3.128585521875861253e-01,3.472518107681651922e-01,3.117815247756005048e-01,-3.003174838572576777e-03,1.121175519304310267e-02,3.363614981710916566e-03,4.073337838053703308e-02
3.169584685530146273e-01,3.471889358716028773e-01,3.143991501748218398e-01,-3.545228729942736124e-03,9.133196636360894211e-03,2.575663803285983475e-03,3.613384068012237549e-02
3.067691022653430410e-01,3.414582070855537999e-01,3.000157723588985914e-01,-2.288461142037254668e-03,7.049212724098976104e-03,8.573979813456118456e-04,4.062264412641525269e-02
3.248872121890706843e-01,3.229444084252190983e-01,3.171456452171781404e-01,-3.156693991914000502e-03,1.537793205201702608e-03,2.403972373091221859e-03,1.014848891645669937e-02
2.955087722105411707e-01,2.988718380386508611e-01,3.439973258124503497e-01,-1.788419734875085773e-03,-6.671355531974150835e-04,-5.285349826575981872e-04,4.702284932136535645e-02
3.157912614649348582e-01,2.542402527066368600e-01,3.437780610776059453e-01,-1.076314681219213247e-02,4.264704105054919862e-03,-9.677549938685047794e-04,8.184932917356491089e-02
5.963251334347677290e-02,3.252790772456533031e-01,3.512976729910570750e-01,-7.297559294377302386e-02,-2.471820174652116994e-02,6.839888992716827709e-03,3.100104033946990967e-01
2.910701453066399935e-01,2.793129199596452450e-01,2.574503199817332333e-01,-2.065005030849247081e-02,-1.771357173415916142e-02,-2.227132427929652547e-02,6.768951565027236938e-02
3.128423363381783173e-01,3.134841121459026603e-01,3.517143309580347821e-01,-6.870898390821205542e-03,3.814145539862706744e-03,5.054303012012022894e-03,4.181393980979919434e-02
2.701129543635347185e-01,3.183827040105975947e-01,3.468078582902388018e-01,-6.957032124384468150e-03,-3.767691726203171803e-04,-1.197036910919479884e-03,6.826388835906982422e-02
3.016831596347878675e-01,3.027693479880738670e-01,3.436253368046690571e-01,-9.982608325757788819e-04,8.166908224167896335e-04,2.513334136003239801e-03,4.169784113764762878e-02
3.108776761937891431e-01,3.097171154115078706e-01,3.365785033094171319e-01,-9.970897051103087307e-04,2.006364430649338303e-03,1.459271502197716621e-03,2.670494839549064636e-02
3.004727497255222368e-01,2.964579576741875888e-01,3.344599386845648059e-01,-5.614335232571962368e-03,1.423604325011379977e-03,6.690261544600652633e-04,3.754575923085212708e-02
3.376044123785814088e-01,3.068008552481373830e-01,3.032126261201656403e-01,3.791628097462942243e-03,2.332428184618023231e-03,-2.983336374442664002e-03,3.403550386428833008e-02
3.508112585716680609e-01,3.126108561969096478e-01,3.114479995536285628e-01,4.103091163267334231e-03,4.440953941262661651e-03,-5.060063340500237442e-03,4.112821072340011597e-02
3.591079466010060894e-01,2.275982408343782404e-01,3.642454075879195674e-01,-4.082199744252230922e-03,1.500458813610109276e-03,-6.435516070010249834e-04,1.343681961297988892e-01
3.356492759326305531e-01,3.029788989700636370e-01,2.978876776661286696e-01,2.855875684568828180e-03,9.677740874154049057e-04,-4.614076445452069269e-03,3.675259277224540710e-02
3.130265107502030464e-01,3.240935538556700135e-01,3.329337733152667456e-01,-2.679745291969542597e-03,1.797696832798334737e-03,5.208055276441577591e-03,2.027495391666889191e-02
1.927557892275668094e-01,3.381803544393490735e-01,3.381867523789798824e-01,2.174627850748581809e-02,-6.446628972460803977e-03,2.835406405433745121e-03,1.507207155227661133e-01
3.044309599581027648e-01,3.811306082883052504e-01,2.975963274191347208e-01,-1.294727009087962566e-01,-1.471881070621609278e-01,-1.239115080761609561e-01,4.096321463584899902e-01
3.333470399536728190e-01,3.101771222659466254e-01,3.050808330405932467e-01,2.338708539148770006e-03,1.281427725716324188e-03,-1.557813426754700494e-03,2.663668617606163025e-02
4.432192596505299398e-02,3.337912044631942132e-01,2.865968608580595767e-01,-2.981257641502865763e-02,-1.066515074568605559e-01,-1.340894003974533837e-02,3.311915695667266846e-01
4.825087028126150979e-01,5.144025042188593577e-01,5.204328191023326333e-01,1.323330185284252447e-01,-6.269827351226295309e-02,1.200291443805043962e-01,3.298426866531372070e-01
3.662949922258301738e-01,3.637043243991999741e-01,2.402984641871781513e-01,7.601893841694146864e-03,1.988744552945195896e-03,-5.544490854147442888e-03,1.258287578821182251e-01
3.604305523463630090e-01,3.833408122535750251e-01,2.830010794216866743e-01,2.936413653099801801e-03,1.403452816645958147e-02,6.111027974626795714e-03,9.498915076255798340e-02
3.539539000550779857e-01,3.699400171528641756e-01,2.502479198128431115e-01,2.214655008060937603e-03,4.023872871000880314e-03,3.261417345669427939e-03,1.129758432507514954e-01
3.619278262686864700e-01,3.615054639120487412e-01,2.227763706925242337e-01,6.045840987509897881e-03,2.066326265349663349e-02,-7.931141555455777786e-03,1.445123255252838135e-01
3.375833275816831902e-01,3.352877675606306118e-01,2.086103198514530632e-01,8.035447767663076585e-03,1.525666854806866091e-02,-3.189536083472455791e-02,1.424330919981002808e-01
3.608271703812029330e-01,3.687321627062181695e-01,2.385003954657559100e-01,7.147357591327462706e-03,1.037798117173957188e-02,9.582578657897505587e-04,1.283449977636337280e-01
1.160823617765878446e-01,3.503167908008882891e-01,3.292269977839946682e-01,-1.111608799922849181e-02,6.621457438630984349e-02,1.309835390357872234e-02,2.537894845008850098e-01
3.148252635026760893e-01,3.465057708148421289e-01,2.549824876755603653e-01,-3.649117684407543125e-03,-8.000663330809933138e-03,-6.248142795225453128e-03,8.264236152172088623e-02
3.414910066518155318e-01,3.599007871282166038e-01,2.699431668557847885e-01,-1.050423792367951616e-02,-3.263302205872691680e-02,-1.498146601980804640e-02,1.047582253813743591e-01
2.558283973001090339e-01,3.537937433006604904e-01,3.601469766248296400e-01,8.329311843561358619e-03,-5.807516669206671395e-04,6.161645013962372373e-03,1.028737649321556091e-01
1.980978866690500384e-01,3.042672746380783444e-01,2.479544154808194789e-01,6.130629097673120226e-02,-1.256574867705433363e-01,5.376784824214449199e-02,2.752855122089385986e-01
2.990087839225233357e-01,3.432869636585578199e-01,2.597801800623045776e-01,-4.917015289083162197e-03,-1.231439059335838124e-02,-5.101521968744275257e-03,7.643266022205352783e-02
2.964390175524829751e-01,3.318095082216175884e-01,2.677758562353731997e-01,-7.789185954091655192e-03,-8.999300616446976805e-03,-3.040290349177489186e-03,5.949104949831962585e-02
3.221621780930656320e-01,3.068715982174511359e-01,3.433810837978472641e-01,3.849839811319936446e-03,-3.981302823020068694e-03,1.551688778352390205e-03,3.328261524438858032e-02
3.028505990972992779e-01,3.482613851768069368e-01,2.893250344748222735e-01,-9.671487125385486161e-03,-3.761047903545085280e-02,-5.763608802731039552e-03,8.650550246238708496e-02
3.130218912251205299e-01,3.265080203460937192e-01,2.485745026594464446e-01,-1.205659575456989596e-02,-1.390895074334816579e-02,-1.139375062080528328e-02,8.130437135696411133e-02
3.191178550297069094e-01,3.195276351218884758e-01,3.211021667231980237e-01,5.044754889096199259e-05,1.131172495553494240e-03,-9.513801661655681098e-04,3.139098873361945152e-03
3.144904154878632729e-01,3.166764370784844740e-01,3.145356825046897176e-01,2.233419742401751562e-03,1.678454621220120931e-03,-1.813215239393314382e-03,6.161262281239032745e-03
3.183892368913940896e-01,3.201633285971766663e-01,3.187627493133464718e-01,7.030531187897542163e-04,4.071549052083174949e-04,-5.641892607533291817e-04,2.357832156121730804e-03
2.953392083337511576e-01,3.402131471285709807e-01,3.642479146644748145e-01,6.557734026926910313e-03,-3.848828299006523961e-04,2.090487990421724049e-03,6.174497306346893311e-02
3.266612054579773328e-01,3.174065379260262998e-01,3.143509373747026547e-01,1.778446082017939248e-03,6.718035648724990415e-04,-7.554563044699884452e-04,1.165413390845060349e-02
3.034975277855342934e-01,3.014386577414397417e-01,3.435555173605944201e-01,-1.602629155400373939e-03,2.544855954545271101e-05,1.930599377055960963e-04,4.122104495763778687e-02
2.977851094522555586e-01,3.126698276929492093e-01,3.383481605020949301e-01,1.235276880726400822e-04,2.702825841569474544e-03,4.718427594070496653e-03,3.676817566156387329e-02
3.194063423728528139e-01,3.043550821987642263e-01,3.689964233203201216e-01,-2.101305582908605946e-02,1.508659816390941480e-04,-2.160450812572617927e-04,6.897074729204177856e-02
2.038967679685116940e-01,3.591236144668065178e-01,2.653152999284172919e-01,-2.902660469270221602e-02,9.994269049211181033e-02,4.559555156532217601e-02,2.388805598020553589e-01
3.087892017349708751e-01,3.032506655079243996e-01,3.440916871633369345e-01,5.048698397502851716e-03,-2.784351123744849342e-04,-1.049370584069066322e-04,3.935986012220382690e-02
2.932263415668864281e-01,3.092066823169987710e-01,3.360149710556696312e-01,-2.110053231689348885e-03,-1.727356910972250963e-03,-5.930215176427632885e-03,3.911868855357170105e-02
1.809990183582631529e-01,3.344739146717644607e-01,3.429098333233120410e-01,-2.448236103831486973e-02,7.103984210617185838e-03,3.749706969404671339e-03,1.640492230653762817e-01
2.941471673629841299e-01,3.321743997020439876e-01,2.849070556774179752e-01,-3.667084941144831915e-03,-4.614594582032983949e-03,-2.895254756512574690e-03,4.485754668712615967e-02
3.257219792725040142e-01,2.552213170266094400e-01,3.426677534363111732e-01,-1.508305801268999650e-02,-7.556272768686063748e-03,-7.109870159330342228e-03,8.635756373405456543e-02
3.955712334414584475e-01,3.855433034607734788e-01,2.699608172824110586e-01,-1.018071861749973630e-03,3.650258058422765212e-02,4.333104574897005817e-02,1.557308137416839600e-01
2.766079667638599027e-01,3.232562291043588609e-01,3.552201406994237032e-01,-5.850511104162996884e-03,-1.315275626664996669e-03,-2.169192108749393513e-03,6.935996562242507935e-02
3.222569455590943988e-01,2.891982277176957661e-01,3.229858723843134216e-01,-3.029757641437509988e-03,-8.550499702705837562e-03,-3.603322262409117821e-03,3.746105730533599854e-02
3.546970046927119813e-01,3.488365700031426653e-01,2.738100452378828820e-01,-2.256885899000194914e-02,2.045629023482076203e-02,2.425035138940686077e-02,1.032021790742874146e-01
3.017168052441974169e-01,3.426811885117926337e-01,2.724144913989417494e-01,-1.228205815730182109e-02,3.305886310371108916e-02,1.258621926551625747e-02,8.912636339664459229e-02
2.943168438636919459e-01,2.973666650412509771e-01,3.419375959561023470e-01,-1.741615545228707628e-03,-5.288182066159885508e-04,-1.140351102272433963e-03,4.632107913494110107e-02
3.151554771085956497e-01,3.829754714379147162e-01,2.727170472191580153e-01,-8.153564097810658958e-04,4.227110007337667175e-02,1.670148953968104630e-02,1.244110018014907837e-01
3.368345973323203513e-01,3.196747782267012061e-01,2.748206131658337270e-01,-1.671365656439329633e-02,2.319254779546083695e-02,2.451370261536504891e-02,8.561852574348449707e-02
3.659067643183914753e-01,4.251785187071451810e-01,3.428521094677067227e-01,4.170488995829461400e-03,7.144164245679632264e-02,2.861639075713198060e-02,1.524196416139602661e-01
3.486560091123419580e-01,3.879467225818296616e-01,2.574733028309095784e-01,-3.202680452843957712e-04,3.604744259181365262e-02,1.982047925061514171e-02,1.360801011323928833e-01
2.256483860901170313e-01,3.529830309263584653e-01,3.593183712766257476e-01,-1.368877533163989635e-02,-2.618305293301412262e-03,-9.247081746867528529e-05,1.328295767307281494e-01
3.339232833752338592e-01,2.375286064834537525e-01,3.552312419977276536e-01,-9.586895667273370031e-03,-3.754226530803949670e-03,-6.443119977603895161e-03,1.106457710266113281e-01
2.990505467217427493e-01,3.025915759239763414e-01,3.346580036651500278e-01,-1.895034674083570514e-03,-1.219820092028848883e-03,-1.564537000407293732e-03,3.430631756782531738e-02
2.441318515129697331e-01,3.279363904321256351e-01,3.315361262252094487e-01,-1.360439943896847408e-02,-1.367999473052760283e-02,-1.194392684149460891e-02,9.424686431884765625e-02
3.088232913977568272e-01,2.434602631445499377e-01,3.508828843479474546e-01,-1.881421490503278060e-02,-6.649682721956914899e-03,-4.034856565891454215e-03,1.001693382859230042e-01
2.578885026583443429e-01,3.410892074428027443e-01,3.404947592445048410e-01,-9.046199155418774632e-03,-1.474184096603183350e-02,-1.303907118063707404e-02,9.099873900413513184e-02
3.951532219781295208e-01,4.079142739136265017e-01,3.208941834798122450e-01,-8.913328400749008507e-02,-1.298419084685166203e-01,-1.280745102188578233e-01,3.608948588371276855e-01
2.497837385701237867e-01,3.482974159574044881e-01,3.658401508648966294e-01,-7.226655254545157753e-03,-1.675290461325004091e-03,-1.762757432682103141e-04,1.091149747371673584e-01
1.676472902880071780e-01,3.251087283166728126e-01,3.326437021260016946e-01,-3.839617739664644841e-02,-1.697654932316571691e-02,-1.424834832413824541e-04,1.769881844520568848e-01
2.716189052910514823e-01,3.295779109518909844e-01,3.681970617918075006e-01,-3.048771850131339750e-02,-1.465386217271268977e-02,-1.012314365078500686e-02,1.040632352232933044e-01
2.291372624346541265e-01,3.321711878604752810e-01,3.288489618815403359e-01,-7.522149017580749032e-03,-5.276259985912522786e-03,-7.892916675108430785e-03,1.035610139369964600e-01
2.450937404478375770e-01,3.062735976309615693e-01,3.276209593506916873e-01,-3.296698639266992803e-02,-2.295376551920431940e-02,-1.499248448229817919e-02,1.049768030643463135e-01
2.430512363673578147e-01,3.064517603540933277e-01,3.258654658905593138e-01,-1.561929107660496585e-02,-1.082593318648925745e-02,-1.544061989922995357e-02,8.617473393678665161e-02
3.216326849189495296e-01,3.182264532076409802e-01,3.102081652315790694e-01,-3.924581614053179734e-03,2.530701569798228349e-03,3.096971538006148758e-03,1.404996681958436966e-02
2.538588289606187320e-01,3.654724024895460444e-01,3.661856895056319061e-01,3.061287820070317418e-03,-3.982957272615174869e-03,2.497492966487334203e-03,1.123927459120750427e-01
3.423754535549697331e-01,2.991053593665149446e-01,2.949265103680298594e-01,-7.079029096698949116e-04,-5.158263578758736203e-04,-1.846492556061734560e-03,4.564113542437553406e-02
3.282691257669986817e-01,3.156948075051416169e-01,3.198558148459827444e-01,-3.886905385752024902e-03,4.453447580829840956e-03,2.736080273799285003e-03,1.582364365458488464e-02
3.422686821126489920e-01,3.182415196699281967e-01,3.175946414585865130e-01,-5.564584377130582862e-03,4.719286327280386439e-03,-1.156305679710118968e-03,2.751336991786956787e-02
3.346128718123392298e-01,3.088353109113355921e-01,3.093262032316544952e-01,-2.247442161783012003e-03,5.888872254895734584e-03,3.028535009012628919e-03,2.826260961592197418e-02
3.388708799725635434e-01,2.039017707764773646e-01,3.557094394729975462e-01,-4.319707118102543431e-02,-7.326115179089092095e-04,-1.499845055720768448e-02,1.644606739282608032e-01
3.800391804279434349e-01,3.132870433782359854e-01,4.597458645147471934e-01,-8.122210601252147222e-02,-6.907919513730823718e-03,-1.844095483464823146e-02,1.925721913576126099e-01
3.286232014212194241e-01,3.098584166311413868e-01,3.121502225756254689e-01,-1.845336108008467342e-03,3.487110295874146660e-03,2.051122330696379843e-03,1.933083496987819672e-02
3.458491242929037646e-01,3.478748810850833539e-01,3.358443526253734879e-01,6.648065643555424453e-02,-4.865040926507437080e-02,6.222872320906771421e-02,1.791684329509735107e-01
2.625987404274975900e-01,3.508338897582498062e-01,3.572159294953836661e-01,5.545079292919996919e-03,-3.431720250652907367e-03,2.913933925281571042e-03,9.242477267980575562e-02
3.082172270110948853e-01,3.338134649239721807e-01,3.059507163514404438e-01,2.729345693049991303e-03,-1.185614229310801883e-03,1.174385912562773190e-03,2.736825123429298401e-02
3.140307596527120437e-01,3.262087605293390591e-01,3.146520580129802958e-01,5.050742093198802183e-04,-3.653900274015210443e-04,2.355092162602956743e-03,1.260669436305761337e-02
3.064626237100455119e-01,3.249259466830700105e-01,3.031912881125070625e-01,4.281044261136858139e-03,-3.002413290426625241e-03,1.049937757325546377e-03,2.230085805058479309e-02
3.347389339519715734e-01,3.338547521925253614e-01,2.993651890454677167e-01,-7.709358314355424860e-03,1.314144472961326429e-02,1.534553507967071143e-02,5.122166126966476440e-02
3.346962257009727937e-01,3.231419080407799682e-01,3.130289926740945083e-01,-7.113556226090089404e-03,9.484811731350396152e-03,8.906285726218054338e-03,3.181634843349456787e-02
5.027876088324165771e-01,3.884424100176024908e-01,2.373467910396188929e-01,8.466173047472712321e-02,3.320383998610397513e-02,-1.477656478160800091e-01,3.788088560104370117e-01
2.616485915183440758e-01,3.252763946572179710e-01,2.862073070693252341e-01,-6.514326274568090457e-03,-1.533313570550412681e-02,-9.733645921734958295e-03,6.485265493392944336e-02
3.303134274584244578e-01,3.296064007550297270e-01,2.900727595952579119e-01,-8.041974365740084396e-03,4.369816575154714111e-03,4.937789268157322456e-03,4.376998171210289001e-02
3.211307679683507166e-01,3.186875233507026062e-01,2.688901133642369601e-01,-7.992226371087556361e-03,1.136022069554365466e-02,1.245842461776329978e-02,6.043051183223724365e-02
3.063350290130938403e-01,2.870781555701172882e-01,3.161265188988698904e-01,-4.402499059530598155e-03,-9.876759893326890472e-03,-4.087403473175982641e-03,3.249879553914070129e-02
2.930916665855889391e-01,2.948921793193092222e-01,3.185681310337207806e-01,-1.101722984785137409e-03,-3.429807378298175766e-03,-2.618648910214749822e-03,2.580553106963634491e-02
2.991418342888949033e-01,2.994696558197147418e-01,3.145644743047728564e-01,-2.166468058890788466e-03,-2.262008749172064476e-03,-4.622391328366351471e-03,1.806764304637908936e-02
2.678771501837488578e-01,3.355718744178949331e-01,3.164097187309294901e-01,1.642296810813035322e-03,-8.123819275347721192e-03,5.723095088855561022e-03,6.290412694215774536e-02
3.065788691523722576e-01,3.324795120020780925e-01,3.238138889509466489e-01,2.265450157367489715e-03,-3.280196397746252147e-03,5.625385884902189826e-03,2.577017433941364288e-02
2.585087153750171285e-01,2.924861431406895473e-01,3.293638919881840543e-01,-2.484156190106358644e-02,-1.522492747865873339e-02,-1.266584433634787218e-02,8.243434131145477295e-02
3.044809891300386817e-01,3.054784191328258069e-01,3.170981533978888267e-01,-2.474971549743702672e-03,-4.428209719171250121e-03,-4.003034858131271703e-03,1.651906222105026245e-02
2.991812784815312543e-01,3.112827520547492566e-01,3.184707518948914351e-01,-1.122193381900083581e-02,-7.223578215821051599e-03,-9.725865592587857461e-03,3.321462497115135193e-02
3.241860372779547528e-01,3.688030676598492708e-01,3.163458901442007254e-01,8.493870915784502637e-03,1.679870455062385665e-02,-6.977100152838052946e-03,6.009174883365631104e-02
3.158108356025267627e-01,3.127643419100228361e-01,3.188222969971776788e-01,1.720750879836989563e-03,-2.242840271464887746e-03,9.574432783801512751e-04,7.365355733782052994e-03
3.164550341084803042e-01,3.162839792068252720e-01,3.145941641420219592e-01,1.730018080873325014e-03,-1.617253039132168996e-03,1.138817273750763895e-03,4.887730348855257034e-03
3.351572787395090680e-01,3.059626276596409400e-01,2.874948453782964486e-01,-5.874862629520294192e-03,-1.583319823440660842e-03,-2.883347283825788906e-03,4.322673752903938293e-02
3.099613521426650697e-01,3.151025905172838426e-01,3.302633515562926614e-01,4.463127015437971974e-03,2.751474291340609904e-03,-3.497875791010264784e-03,2.129323408007621765e-02
3.202301072107908153e-01,3.138099296245693837e-01,3.175786610923483910e-01,1.376565744152253874e-03,-2.726290574472412052e-03,1.320756750799807928e-03,8.027581498026847839e-03
3.228149242016016274e-01,3.304421684715537211e-01,3.198975470400507448e-01,5.196547292826592113e-03,-1.600756950686370176e-03,4.818675808868178728e-03,1.572564803063869476e-02
2.917472036448666706e-01,3.051838659561897926e-01,3.356662534917528862e-01,-2.755399028865910486e-03,-1.460290984161083079e-03,-6.685666847016110727e-03,4.101914167404174805e-02
3.196271315983419403e-01,3.272178488650208106e-01,3.133658307624872519e-01,5.278831971455037395e-03,-2.767568794493933081e-03,1.470307410796548161e-03,1.604408212006092072e-02
2.815510141123663823e-01,3.244781395510956123e-01,3.385426971331733648e-01,-4.907322733523082972e-03,-2.935919520240943149e-03,-8.838125060665873861e-03,5.455953255295753479e-02
3.210566126098515216e-01,3.232120134831778513e-01,3.195466764404306659e-01,2.084419170521675455e-03,5.607349069627108953e-04,9.358533326678674822e-04,5.175454076379537582e-03
3.210748460153933781e-01,3.241811461193035981e-01,3.217851915430648413e-01,9.999990564105269708e-04,-7.625121074801764721e-04,3.470000195183548463e-04,3.612843807786703110e-03
3.159157985085132569e-01,3.268513624796539618e-01,3.145649297290046831e-01,2.500361183967688729e-03,-5.995789440586397727e-04,4.754049546659053736e-04,1.251782104372978210e-02
3.145012729183814248e-01,3.100559119476143932e-01,3.199796713562167993e-01,-3.614347448656517713e-03,-5.893077560900113719e-03,-3.776068027755823727e-03,1.613317243754863739e-02
3.085178530295646926e-01,3.112827362995874703e-01,3.161521110730434181e-01,-1.015740402714784265e-03,-1.658000667294781466e-03,-5.788512406331384336e-04,7.560815662145614624e-03
3.174168705839846560e-01,3.046689196164031332e-01,3.036507148392855182e-01,-2.854017100170525879e-03,2.106384140799473308e-04,-9.372192447582715791e-04,1.427345443516969681e-02
3.176728467118158927e-01,2.989450228161155132e-01,2.938897088502480104e-01,-4.705903968813819095e-03,-2.190547028216746801e-03,-4.313069157688685998e-03,2.464959211647510529e-02
3.063155766666454394e-01,3.065211833839117106e-01,3.087845330760258800e-01,-3.346075247645275167e-04,-2.483364551910402854e-04,-7.704091357070046641e-04,2.816358581185340881e-03
3.057430674457062847e-01,3.043581982179083822e-01,3.092982742708558774e-01,-1.420618111500929811e-03,-3.666567212484228046e-03,-2.416318454079953090e-03,9.131388738751411438e-03
2.518826420655360110e-01,3.604823204300879325e-01,3.419396883328994496e-01,-4.199806190296227065e-03,-8.021253447843414153e-03,-1.452210539416159312e-03,1.018639206886291504e-01
3.086311958515406961e-01,2.988385604152841157e-01,3.105786654074865205e-01,-1.020216637897476165e-03,-4.950766313088938997e-03,-5.871784943214811495e-04,1.401593163609504700e-02
3.084497588528506418e-01,3.059417762745434977e-01,3.039484386747552391e-01,-1.289431304973798990e-03,-5.333506909150849179e-06,-6.771846876268568759e-04,4.650413990020751953e-03
3.057225918597019643e-01,3.074561334805249180e-01,3.057736685664159682e-01,-1.066427573483179131e-03,-6.782870616838173076e-04,-1.182632080633677987e-03,3.450668184086680412e-03
3.443860988907552767e-01,2.593803190145313464e-01,3.368496548510226951e-01,-1.926466356098407301e-02,-1.072233404874830057e-02,-2.363222114878818503e-02,9.887301176786422729e-02
3.090148240261549883e-01,3.073484424815820515e-01,3.086019250124068525e-01,-2.192804218501023502e-04,-2.047873794708514187e-05,-6.702580022689108271e-04,1.937140361405909061e-03
3.422734963255701368e-01,2.693496074992599576e-01,3.280992489604048767e-01,1.947025133536931961e-03,1.000474827078316406e-02,-8.971921773100861863e-03,7.098101824522018433e-02
3.528158264730754112e-01,2.131600685369943737e-01,3.516595187362938080e-01,-5.684554769817758667e-03,-7.813331494916277847e-04,-5.559143386948038612e-03,1.397679150104522705e-01
3.108446661111139986e-01,3.093507228546756305e-01,3.077705374964484486e-01,3.544887732547993582e-07,-4.873741753597623551e-04,-9.172615915850288468e-04,3.213451011106371880e-03
3.079838690752033648e-01,2.858581091613967562e-01,3.180530754649056324e-01,-3.634375206158588049e-03,-8.273573568061690781e-03,-3.512121302752478462e-03,3.310157358646392822e-02
3.198163760766054020e-01,3.433509180050339227e-01,2.978681962204854372e-01,6.566748223880878969e-03,-7.024333042694002639e-03,5.157933239667969461e-03,4.369600489735603333e-02
2.180661081191404560e-01,3.320532953557890354e-01,2.896720041244657540e-01,-1.310633032953027050e-02,-5.188046498779750465e-02,8.018667864070085603e-04,1.361996084451675415e-01
2.536759290012030599e-01,3.566433032428993899e-01,3.382567153332868282e-01,-5.246297577396060677e-04,-7.907409829703022225e-03,2.042473653435345274e-03,9.616678208112716675e-02
3.128760166292368083e-01,3.569654616060596863e-01,2.939126517940352512e-01,2.313914139588757468e-03,-1.456304902164197272e-02,7.422996222472445912e-04,6.159168109297752380e-02
2.866568763357812410e-01,3.670255104008958158e-01,3.353489962459172968e-01,-2.464392100263256176e-03,-2.988156245153974003e-02,2.809671342690514117e-03,8.739191293716430664e-02
2.948893068292032238e-01,3.376450567370261613e-01,2.993103640559914846e-01,1.744042593537556895e-03,-2.125030650537459813e-03,2.522454176747651166e-03,4.123511910438537598e-02
3.423618409414385111e-01,3.567323479459528768e-01,2.456373313912891265e-01,3.640722638874772845e-03,6.541917839583601818e-03,-3.958710304211585443e-03,1.056754067540168762e-01
2.903063720279394633e-01,3.412484599677227393e-01,3.015484782595749813e-01,2.657003377169246151e-03,-1.504831612972612649e-02,2.256056708897901091e-03,5.352185294032096863e-02
3.523264676719623512e-01,3.224069102347366100e-01,2.738572680961271488e-01,-3.794868797299739104e-03,-2.502716420399464688e-03,-6.975494309319787284e-03,7.009135186672210693e-02
2.802938759244576472e-01,3.372944175265936706e-01,3.227287834104652364e-01,-3.725138641028383820e-03,-5.439625995134376828e-03,-8.163348609506345527e-03,5.441773310303688049e-02
2.871974574386526036e-01,3.257293186330429413e-01,3.251849796860038500e-01,-3.243729322412335862e-03,-3.188034625162611529e-03,-7.764932577535921428e-03,4.131542891263961792e-02
2.921219464819312384e-01,3.271876655791341459e-01,2.968574880654727965e-01,7.166966064163628712e-03,-1.087292063341464658e-02,6.687761990603980321e-03,4.158017411828041077e-02
2.897523998961145653e-01,3.296339199006622644e-01,3.066426019473076914e-01,5.332378388590876955e-03,-7.992691291868031164e-03,1.033841362234957928e-02,4.242414608597755432e-02
3.020822379453205198e-01,3.347216327505757039e-01,2.949035565355488386e-01,-1.083924890493637161e-03,-2.293534968626514351e-03,-1.477022824421386554e-03,3.710824251174926758e-02
2.706526361474455022e-01,3.313851076446797106e-01,3.003494675911067002e-01,1.854238525703232054e-03,-1.512571468623295952e-02,5.241383597630719718e-03,5.954717099666595459e-02
3.015294641853584201e-01,3.026166252079505181e-01,3.015274744556410425e-01,-1.488786387386880575e-03,-2.298677451290552509e-03,-5.089976596631315929e-03,1.007019728422164917e-02
3.027165537899416670e-01,2.956736351014264685e-01,3.415881317435513487e-01,-5.308458855369025883e-03,2.221364274827530069e-03,1.632989508135403167e-03,4.406488686800003052e-02
3.009258737456074750e-01,3.025477876780332531e-01,3.485184154521946964e-01,-9.967667546804538647e-03,-2.762267766957617748e-03,-6.931572114288026519e-04,5.012867972254753113e-02
2.900284204246489361e-01,2.967385692465593916e-01,3.413419243155510485e-01,-4.818841319399809475e-03,-1.633275000968971652e-04,-1.500711202696364092e-03,4.909460991621017456e-02
2.939616055482575652e-01,3.316031888314409093e-01,2.933037778398142614e-01,-1.304435582819279873e-03,-8.613528967153737375e-04,-1.277133589857478140e-03,3.813537582755088806e-02
2.943535857189804039e-01,2.862674286673962398e-01,3.393311195908802480e-01,-7.694020716541265757e-03,-7.785508939037937915e-04,-1.025907043771903584e-03,5.132864415645599365e-02
4.414135029214092398e-01,3.524278204188043273e-01,2.702430992670445398e-01,1.732851772424441605e-02,3.380004098082767250e-02,-7.450780152727712324e-02,2.072883099317550659e-01
2.865307825183061041e-01,3.424662100307893642e-01,3.108819286114216651e-01,4.246308725287091523e-03,-5.125643306534281504e-03,3.107608329924222909e-03,5.021494254469871521e-02
3.165633247184447829e-01,3.109726700135599375e-01,3.415593747765363064e-01,1.667163385972805301e-03,-1.208627155107937006e-03,7.582643467942641255e-04,2.846485190093517303e-02
3.528136089950870691e-01,3.224067496144769063e-01,2.900395121399467202e-01,-9.140421196355436387e-03,1.407058578464501740e-02,5.500546030797509589e-02,1.134803444147109985e-01
3.007023232511669697e-01,3.307788157397238971e-01,3.011957103207428821e-01,-5.919437685517962540e-04,-1.503267377294108904e-03,-3.133781801566049626e-03,3.045146726071834564e-02
3.442604727405735865e-01,3.313600613268164463e-01,2.803430716920181087e-01,-1.113479019456713051e-03,8.780102954500330903e-03,1.265932429276088629e-02,6.436660140752792358e-02
4.331774923345257378e-01,4.113396806259143057e-01,3.626275508848327833e-01,-9.119550664162107828e-03,4.594092500441033372e-02,4.413502643993025276e-02,1.278218775987625122e-01
3.854623062833961722e-01,3.256932704317445637e-01,2.692814180106357647e-01,5.312585678859222185e-03,8.916389798712728160e-03,2.875844334985301967e-02,1.137129589915275574e-01
3.123568126718335169e-01,3.098222739377275436e-01,3.257875532133503449e-01,2.491670850997135256e-03,-4.845710858799649051e-03,2.308015779722623340e-03,1.805265247821807861e-02
4.170278332465058302e-01,2.552077371055513355e-01,1.908553483381760507e-01,-4.025599610860852717e-02,2.862262784316189912e-02,1.338683646121729687e-01,3.190957605838775635e-01
3.124894059497296817e-01,3.101794726748207665e-01,3.314107230532963300e-01,7.235525869973813938e-05,-1.304826995661379548e-03,1.053914411368880345e-03,2.038417570292949677e-02
2.103458743933501185e-01,3.501349564351201593e-01,3.471537287298834262e-01,-4.251934515938892920e-03,-4.670722317262624573e-03,-6.863652980314452045e-04,1.387596130371093750e-01
4.102563385000236318e-01,2.560332290313097614e-01,4.289845691414695406e-01,2.725053579618999522e-02,2.070032687933187274e-03,3.528668824338880572e-02,1.816588044166564941e-01
3.884086759420503077e-01,3.572765636055229010e-01,2.721028880025612717e-01,7.193740313052784767e-03,1.736332615680837022e-02,3.689758536968395369e-02,1.265677660703659058e-01
3.884195685909059281e-01,3.094877206076517839e-01,1.033253960148585726e-01,3.082437983738021622e-02,1.300266997386935741e-01,-1.041720115941739272e-01,3.887577652931213379e-01
2.624973321474390886e-01,2.760295240803675165e-01,2.258475426354638604e-01,-5.898449764657382605e-02,1.127055716761325571e-01,8.301571052180091448e-02,2.669124603271484375e-01
3.191201351186481183e-01,3.168208301403177551e-01,3.188331633436788937e-01,2.127142798925773896e-03,-3.322384523969546411e-03,2.842865062496629375e-03,8.697349578142166138e-03
3.193836618178848008e-01,3.163800683257953494e-01,3.226745634675633467e-01,3.721916306869039212e-04,-1.046004442293917321e-03,1.198610317015945306e-03,6.143622100353240967e-03
3.034545572923676438e-01,3.187685188212864840e-01,3.182693491105886285e-01,2.678308979546737030e-03,-3.214330173748620144e-03,5.792766806740501200e-03,1.950144954025745392e-02
3.290479288375072198e-01,3.189961909176896038e-01,3.310808038086316962e-01,1.234295964084972282e-02,-7.856940713404375262e-03,9.716241917633540795e-03,3.242006525397300720e-02
2.746982392414366592e-01,2.966921069656306975e-01,3.348517200468341115e-01,1.292271457552615285e-02,-6.126210946036656120e-03,1.014870583205461363e-02,6.084187328815460205e-02
3.009628353089007224e-01,3.057311529234473801e-01,3.251307636355748043e-01,-2.035782865119100359e-03,-1.524377598957699130e-03,-1.107547803376774569e-03,2.268633246421813965e-02
3.042143364308530495e-01,3.459507335654045113e-01,3.435936150494856012e-01,1.817059358379501804e-02,-1.127395714626699963e-02,1.233171899174576903e-02,5.896725133061408997e-02
3.093616098274484805e-01,3.099331527423281885e-01,3.288710763763821876e-01,6.603830662389656783e-03,-7.147008745566800839e-03,7.499479048544358505e-03,2.868088148534297943e-02
3.077657112525002958e-01,3.102684139637537641e-01,3.091246593660137432e-01,-2.260000690152204773e-03,-1.681926079571614959e-03,-2.338284185753464195e-03,6.702340673655271530e-03
3.124883746632379222e-01,3.114102602112922002e-01,3.305589779422628549e-01,2.556749284155598878e-03,-2.311740026234078774e-03,3.865233432499727909e-03,2.067981287837028503e-02
2.937464668117972244e-01,3.155624648594906878e-01,3.253711897604254499e-01,5.139705021893386030e-03,-4.175842310782109171e-03,1.014202069279153060e-02,3.501828759908676147e-02
2.548332034833776794e-01,3.463012232137325785e-01,3.111633167117520693e-01,3.501048001369593769e-03,-1.684372107876073998e-02,-1.132330892327931132e-03,8.531604707241058350e-02
2.964660600336774809e-01,3.347949232848532186e-01,3.023873900551296567e-01,8.259722184674404399e-04,-5.197432769298645713e-03,3.973305598536447727e-03,3.751871734857559204e-02
3.073290085219781420e-01,3.338665572170688156e-01,3.058113764749652574e-01,5.110734877640681073e-03,-5.968110328444887168e-03,3.330808233802788100e-03,3.106952831149101257e-02
2.916487158690446169e-01,3.423295746026271957e-01,2.929041109175332114e-01,-1.813539202582461303e-03,-3.472763894580707059e-03,-2.019828917089611271e-03,5.064372718334197998e-02
3.161748412338389325e-01,3.071197493515384069e-01,2.804941804457797283e-01,-9.956135217721749989e-03,-4.799125731285523895e-03,-7.563235905662356491e-03,3.962434828281402588e-02
2.790906334003704359e-01,3.394239643840695209e-01,3.171162333713846704e-01,-2.992048163873468804e-03,-6.455086893493858398e-03,-8.770354337783125426e-03,5.634238943457603455e-02
3.043981392900171334e-01,3.361141093406808111e-01,3.010147908844782449e-01,5.971579072403717650e-04,-6.862123700769945031e-04,5.571525761084675666e-04,3.358674794435501099e-02
2.924759860993392246e-01,3.417516286521302682e-01,2.970038632614960261e-01,1.010051600727184667e-03,-6.116924126865442776e-03,-2.752413968657638037e-03,4.861599206924438477e-02
3.054892200729408258e-01,3.523332350185639505e-01,2.825294950107469782e-01,7.395506623199725807e-03,-2.856225497089376689e-02,9.733295489948369517e-03,8.180914074182510376e-02
2.986534194274162446e-01,3.203817039675559974e-01,2.980227166517647741e-01,-1.351843598010932365e-03,-1.341272385952260292e-03,-3.111131288737870471e-03,2.293767966330051422e-02
3.345466894128759083e-01,2.598471828307854503e-01,3.339378736598329067e-01,-6.935918724604942139e-03,-8.306060596733243206e-03,-6.966630782861830615e-03,7.766468822956085205e-02
3.415555917868692837e-01,3.104937476712130717e-01,3.163339442939466228e-01,1.268393166377411452e-03,-6.702507266949148026e-04,2.453797078039825653e-03,2.901338227093219757e-02
2.938909790286345358e-01,3.369265913963481740e-01,2.863545571210670548e-01,-4.392790617556890757e-03,-5.986531390099454272e-03,-1.492028278830315234e-03,4.904365539550781250e-02
3.013600983458624705e-01,3.474436012510618843e-01,2.681502176076788202e-01,5.981234752434524612e-03,-3.984075470601974173e-02,8.436497605227476909e-03,9.919536113739013672e-02
3.382468171313817162e-01,2.643305148644259361e-01,2.964049502536648673e-01,-6.968884569243454733e-04,-8.911510291179365433e-04,-1.168091796261810575e-02,6.734044849872589111e-02
2.962329445221948965e-01,3.444610189725321181e-01,2.797318147030877777e-01,8.894858143420517060e-03,-8.055544280183955450e-03,-1.908521109539212815e-03,6.194360554218292236e-02
3.064576220391057038e-01,3.460252749276352957e-01,2.935248934936262044e-01,7.104927314317217900e-04,-7.197275075724218936e-03,-1.343807458621589304e-03,4.906023293733596802e-02
3.289166185064683057e-01,3.420802435709628941e-01,2.288252040592821390e-01,6.190854880131136523e-02,1.189881779789963290e-01,-1.338443444042949904e-01,3.452892005443572998e-01
3.149750098059567738e-01,3.443207610950257402e-01,3.119407506962454391e-01,-3.073343731056600320e-03,5.676883361904666581e-03,1.182341077494051705e-03,3.299444913864135742e-02
3.203786522161733430e-01,3.420419902972477444e-01,3.077057489236887378e-01,-9.538998734087058423e-03,1.667576602494432597e-02,7.049709753342266530e-03,4.648393765091896057e-02
2.917780239115397856e-01,3.397598187695356486e-01,3.090784391821652100e-01,-6.948583298447465889e-04,6.763523047099523518e-03,4.889468439471290201e-03,4.451805353164672852e-02
3.149098272961987077e-01,3.504879808048783629e-01,3.216312974444749395e-01,-1.456139798940019785e-03,2.200310579053262831e-03,4.324751491545070214e-03,3.389456123113632202e-02
3.139921422542867324e-01,3.345467006564128432e-01,3.097645621669059546e-01,-1.958788879713456964e-03,1.284394779460156476e-03,9.831181117330809599e-04,2.337985113263130188e-02
3.135917981356953765e-01,3.366573447594070623e-01,3.150734144654858682e-01,-9.908991201463266448e-04,1.486551227544533798e-03,2.587398742048802915e-03,2.301519922912120819e-02
3.849518743960848033e-01,3.801938905353862141e-01,1.909974051761861857e-01,-8.924784688591546472e-03,3.391441374242879989e-03,-1.287090492347323437e-02,1.936196833848953247e-01
4.333200833114885797e-01,4.453141633910085995e-01,2.461174280341473508e-01,1.461781306462344582e-02,2.331692190930253344e-02,1.659243310257224233e-04,1.992640793323516846e-01
2.742252183724288028e-01,3.445183266781013387e-01,3.260487534141572330e-01,2.349558870978104164e-03,-7.220136489509163501e-03,8.917708385075835686e-03,6.629849970340728760e-02
4.203592816005757848e-01,3.706638304659324312e-01,1.712276978295023122e-01,2.183051772539987279e-02,7.357397333361946450e-03,-1.320742665314723202e-02,2.329611480236053467e-01
3.932119492535522953e-01,4.111727242393795057e-01,1.139597358462540733e-01,7.667942801327443277e-03,-1.825982058640171577e-03,-1.171509479031643784e-02,2.896862030029296875e-01
2.956924128093821325e-01,3.673465717275933295e-01,3.360288479538019457e-01,3.901667304388148089e-03,-4.192355169675119481e-03,5.042626281675066657e-03,6.360623985528945923e-02
3.014453337663131616e-01,2.792225709859347260e-01,3.295275900522828816e-01,-5.067500877598026324e-03,-8.893524655512664856e-03,-3.439567828325541116e-03,4.750099405646324158e-02
4.800442388996399301e-01,4.259710668321700644e-01,1.262986787706641967e-01,-1.164644761004328746e-02,6.121276901062842196e-02,-5.283710406968921726e-03,3.473663330078125000e-01
3.174203189059169317e-01,3.198294417755400132e-01,3.212282518206913129e-01,2.130143783579442358e-03,2.250203902249790604e-03,-1.825935720569088656e-03,7.066495716571807861e-03
3.171794323046786546e-01,3.251845142804496991e-01,3.268941065197971119e-01,2.361815850691661826e-03,1.656239438633255691e-03,-3.062735203576579662e-03,1.156695373356342316e-02
3.158759247925528313e-01,3.232172714140377212e-01,3.184617344236094216e-01,3.348189643867773013e-03,3.324674639620348558e-03,-2.449054517785078256e-03,1.124204415827989578e-02
3.155412065156261159e-01,3.210261232223137196e-01,3.193547604352524605e-01,6.045741926216372571e-04,-1.545472872385419212e-04,-4.080305877339642341e-04,5.037670955061912537e-03
3.165695897466357933e-01,3.244677973027564333e-01,3.216408839400993758e-01,8.584156320901193543e-04,7.526248791982928597e-04,-1.584100419164660408e-03,7.712564896792173386e-03
2.948792172949606938e-01,3.297707661547740199e-01,2.881847311983496973e-01,-3.998313528205301413e-03,-3.470079130515114386e-03,-2.089009255752536515e-03,3.991231694817543030e-02
3.105972139606623661e-01,3.201280193376419003e-01,3.210625939721100663e-01,8.497398500175700744e-04,-1.172305433266720466e-03,3.443260730295700719e-03,1.193625293672084808e-02
2.936294954062491080e-01,3.019217819489641852e-01,3.258836238742351954e-01,-3.294840006924193258e-03,-3.046053416105707137e-03,-5.779188283244340515e-03,3.165802732110023499e-02
2.816580508918774539e-01,3.563043643467772026e-01,3.455293490102269716e-01,2.682211508013312290e-03,-6.462203902963598555e-03,5.940552481800220365e-03,7.167001813650131226e-02
2.969195370800319922e-01,3.028137077692797385e-01,3.216390500800073160e-01,-1.567127985109658750e-03,-2.328020970454247867e-03,-5.665822133981075412e-03,2.490031905472278595e-02
3.015099715200613151e-01,2.994911177595869223e-01,3.295549037982842266e-01,-1.087697910981200080e-03,-2.565070948884765056e-03,-1.303947988064424295e-03,2.959056384861469269e-02
2.056687441807236449e-01,3.302747925344136082e-01,2.085919086383331567e-01,5.767510055900745836e-02,1.509521436658486926e-01,-2.325993509629519645e-02,3.084362745285034180e-01
3.191864021913748406e-01,3.100289188772596960e-01,3.312083864459614002e-01,3.168606988129649311e-03,-5.785380445695603377e-03,2.808388072463799054e-03,2.219621464610099792e-02
3.081641446069391388e-01,3.356498058520695493e-01,1.913723581057063250e-01,6.314962040409276972e-03,3.242601220503965598e-02,-7.454285901320295907e-03,1.450743079185485840e-01
3.167162393018010391e-01,3.187105819421012787e-01,3.354937082383582792e-01,-1.175911291947004356e-04,-1.297039085874705181e-03,3.164470053176495282e-03,1.882158406078815460e-02
4.133171199959353448e-01,4.033112196130055338e-01,2.291832696341922215e-01,1.522041216667333746e-02,5.305406249979057777e-03,-3.766361564478969137e-02,1.928679198026657104e-01
3.226041980257485786e-01,3.175483540479794309e-01,3.269804273938445305e-01,1.550182057141183053e-03,-4.041298140729576239e-04,1.191528499617619270e-03,8.876758627593517303e-03
5.289781049810498015e-01,5.027764465677956318e-01,2.478162121986233202e-01,2.565277052180363337e-02,-4.456443854065202104e-02,-3.279952702058491765e-02,2.890176773071289062e-01
3.594592602510963686e-01,3.680576946218388490e-01,2.322457523758281461e-01,1.023825808871356522e-03,1.489951030240202912e-03,-1.102304485546713644e-03,1.317744106054306030e-01
3.709801524792112892e-01,3.671647103153246605e-01,2.224615352608291796e-01,-8.800961328846996883e-04,2.853207990778502175e-03,2.178264870923670056e-03,1.467877775430679321e-01
3.648163159488573282e-01,3.648912924744860398e-01,2.533165583350721617e-01,-1.471797369939539454e-03,5.527949082846796147e-03,1.841944178935071277e-03,1.120219305157661438e-01
3.641606222887330269e-01,3.638788588646643118e-01,2.306992869041901151e-01,5.928972508641120777e-03,2.616162552828669996e-04,-4.448034394206560639e-03,1.339381188154220581e-01
3.090246267282167891e-01,3.168354252427393325e-01,3.107721889795582171e-01,-1.347636844510441759e-03,-2.219764221695053746e-03,-6.002773723885432592e-04,8.469009771943092346e-03
3.805250266035384854e-01,3.861982517256650760e-01,2.485733338728794151e-01,2.249767857798353789e-03,1.678799552657416622e-02,-8.666987444785521043e-05,1.380316764116287231e-01
3.038544023122389248e-01,3.145387996523623109e-01,3.142617133566289467e-01,-1.953005856870324974e-03,-2.871820663289084870e-03,-4.204634253253472509e-03,1.415959838777780533e-02
3.804808449633610423e-01,2.914622257901788860e-01,4.158657915202663147e-01,-8.569346097693275599e-03,6.575729494823058519e-02,1.736853594626787400e-01,3.406148850917816162e-01
3.437701224932555588e-01,2.616883669755004083e-01,4.059700413533727237e-01,-4.854393754349232981e-02,2.520512915721073721e-02,1.806218602750667146e-02,1.602057665586471558e-01
3.139182059039367645e-01,2.027284935561361745e-01,2.949007014117478453e-01,-2.094678617220558162e-02,8.070701374878603424e-03,3.172037315370970778e-02,1.230468377470970154e-01
3.058427245622849511e-01,3.072534599826856616e-01,3.065696536638439773e-01,-3.810528931596300194e-04,-4.741343105814455690e-04,-1.189116314751760073e-03,2.616314683109521866e-03
3.179883174873921470e-01,2.678536881548418958e-01,3.439760499714956121e-01,-7.180332812781512440e-03,-3.061124227989277767e-03,-2.304569086815833837e-03,6.848682463169097900e-02
4.064370496382097020e-01,2.757630958908584007e-01,3.580516085654422143e-01,6.958299737589873114e-03,1.591169639574099501e-02,3.900020094289188832e-02,1.362423002719879150e-01
3.345736537634533270e-01,2.218274171781657311e-01,3.477801978890380785e-01,-3.136904951005528575e-02,4.409417971279961518e-03,9.926416148533085543e-03,1.329702883958816528e-01
3.291905955679448326e-01,3.136064200319772510e-01,3.264621201294168329e-01,1.178845514091052434e-02,1.356654806511675866e-02,-1.175397376318407759e-02,3.989128395915031433e-02
3.196191461769051223e-01,3.144883421925756539e-01,3.210581436176454528e-01,7.587680398490237628e-04,-1.419160145995534928e-03,-3.157160057058641657e-06,6.599116604775190353e-03
3.806493857491747290e-01,1.988008116695932637e-01,3.959090477862257096e-01,-5.851393969625283409e-02,3.143175554464712647e-03,-4.643066649553703740e-03,2.155055999755859375e-01
3.205994725908792864e-01,2.053389702077115797e-01,3.003709918045364136e-01,-2.422067144077202916e-02,1.224601599356440161e-02,3.120260860824885726e-02,1.284260749816894531e-01
3.252863103904250486e-01,3.150270418226346902e-01,3.222320701411652277e-01,1.358542304013972760e-03,-2.616094107556715502e-03,1.006822185175917234e-03,1.059983670711517334e-02
3.242578490142905001e-01,3.162534526082990127e-01,3.232111889750658440e-01,1.672602445439436017e-03,-3.229241702462471320e-03,2.140549731453442357e-03,1.049812510609626770e-02
2.989472730398791134e-01,3.250353871958687191e-01,3.120753930237245566e-01,-1.631639417391527640e-03,-1.244750034519261778e-03,-5.755957537692217921e-03,2.494949847459793091e-02
3.195480898251995550e-01,3.182345766573049239e-01,3.177071656196858163e-01,1.084714604914717353e-03,-4.601185398479402510e-04,7.502890226215003884e-04,2.924036001786589622e-03
3.187811829286799625e-01,3.155965725732508553e-01,3.178909413131396633e-01,3.209115474031264126e-04,3.333579589908707230e-05,3.779452322848885631e-04,2.973216352984309196e-03
3.212028206028029742e-01,3.149979604834724500e-01,3.212223633930999522e-01,1.035959313330653449e-03,7.504463944242610108e-07,9.075214332746049965e-04,6.656752433627843857e-03
3.160938157008811311e-01,3.172784063170295821e-01,3.178811293004746297e-01,1.801930920974238043e-03,-2.333499077948507187e-03,2.270309540615705283e-03,6.634752731770277023e-03
3.303849183294632619e-01,3.359994548122357538e-01,3.545632653569181780e-01,2.893019987526316075e-02,4.888719801537252940e-02,-4.560443760912896022e-02,1.280640661716461182e-01
3.411839587856101974e-01,3.205828011258986532e-01,2.783955599019305449e-01,5.823336578659896179e-03,2.238440651404640692e-03,-5.745951491992340107e-03,5.735059455037117004e-02
3.131612586025196432e-01,3.099952956276946225e-01,3.114300997799331339e-01,1.694952409600212345e-02,1.309667245797807751e-02,-1.740479825848614825e-02,4.788265004754066467e-02
3.118073039987274697e-01,3.102299857259896987e-01,3.370072984782565007e-01,-6.865162305709186438e-03,3.629025884695994981e-03,4.107849559145745552e-03,3.014631383121013641e-02
2.853727145889670136e-01,3.421526434328183708e-01,3.041623460305040161e-01,-5.160312468271404523e-04,-3.774041788110177060e-03,-2.633418516727429291e-03,5.073923990130424500e-02
3.116796005406323178e-01,3.140380244160190237e-01,3.260173277313935247e-01,-5.907842322154716920e-03,4.881506270263671551e-03,4.802634931767290130e-03,2.055989205837249756e-02
3.150602072895142269e-01,3.152357527847231000e-01,3.261062487221559336e-01,-6.514821242085527256e-04,2.627968659395244627e-03,1.568178436942885886e-03,1.222604885697364807e-02
3.085955629695286695e-01,3.146567016753779589e-01,3.305851887711659942e-01,-1.839103198183168362e-03,1.697795634760480062e-03,4.492691539454869709e-03,2.159504964947700500e-02
2.900295110641817886e-01,3.248053491273726334e-01,3.073576082828045619e-01,4.640821996491096418e-02,5.914164059963578773e-02,-2.306126213311129880e-02,1.394878476858139038e-01
1.947701249361691866e-01,3.601688299649282166e-01,3.565422776146903172e-01,-1.655855879852394198e-03,-4.305030874572701727e-02,-2.380241579318259550e-03,1.798757016658782959e-01
3.034622869363672870e-01,3.306329674404440699e-01,2.994110886426117890e-01,4.924687713685017842e-03,-3.326615212634042532e-03,3.099046203261402767e-03,3.161488473415374756e-02
1.041404148619706760e-01,3.632965395777759121e-01,3.174368362336740246e-01,5.015101568236395718e-02,-7.152452903372287507e-02,2.364867288945316989e-02,2.862701714038848877e-01
2.740545476547998627e-01,3.387890009954571124e-01,3.014172504581240641e-01,6.493506764664599236e-04,-5.626449542226566111e-03,-3.549091517433535593e-05,5.713314935564994812e-02
3.571595193808367874e-01,3.233554078960287903e-01,2.712450637351577765e-01,3.546271216146491042e-03,2.030106910785553259e-04,-7.483452361229991044e-03,7.632566988468170166e-02
1.551331283974426434e-01,4.206188026176272965e-01,4.061169750940055723e-01,4.443058411148579495e-02,-6.403509408875010522e-02,-1.130939330898901671e-03,2.916684150695800781e-01
3.101715370184457976e-01,3.045027654887331181e-01,3.415953699001910704e-01,3.557035953440938238e-03,-3.365718053723560071e-03,1.103072462751478276e-03,3.568359091877937317e-02
2.808750973215580204e-01,3.345887619146034608e-01,3.365353255773632646e-01,2.211832753446894839e-02,-1.867727147828262754e-02,1.332978545588839499e-02,7.772216945886611938e-02
2.925341241443253915e-01,3.229976481576511960e-01,2.877223971709231276e-01,-4.973539458226258932e-03,-4.074210816913798744e-03,-1.819211701100063687e-03,3.509552031755447388e-02
6.094064019869968596e-02,2.908578143711345598e-01,2.835273640195150602e-01,6.639047991249177882e-02,-7.617950324491926106e-02,3.260939760257892950e-02,2.916391789913177490e-01
3.126758207618534069e-01,3.326419201870500220e-01,3.160729538322872845e-01,1.345817168503089106e-03,-3.506400677546160898e-04,2.953691104843292510e-03,1.934770122170448303e-02
3.015178508203006369e-01,3.689053623564754747e-01,2.751438986945168863e-01,-2.180332413547233020e-03,-6.131925577001537397e-02,2.399454220107340163e-02,1.415470391511917114e-01
3.611748202913370176e-01,2.914536546434402520e-01,3.321984702500105913e-01,-2.763926908101755351e-04,9.790123610535108982e-04,9.400131426823115852e-03,6.283786147832870483e-02
2.650592425554894049e-01,4.010822167583880660e-01,3.825311029693280185e-01,1.482320692798634425e-02,-4.522719782734598015e-02,2.594539891731247397e-02,1.585502624511718750e-01
3.077768904862984711e-01,3.125243685631916568e-01,3.378488172738840500e-01,7.351173281854412114e-03,-6.556691149742820482e-03,8.674213842324200036e-03,3.606811910867691040e-02
2.930704835888925941e-01,3.429456031431343255e-01,2.996681803652149201e-01,1.515303726453242467e-04,-2.707714493338285976e-03,1.076136388221815560e-04,4.716031253337860107e-02
2.826154561713023483e-01,2.827014892761250398e-01,3.204146081939691637e-01,-1.354761626735185090e-02,-7.994239268703070417e-03,-8.187811773367924956e-03,4.867226630449295044e-02
3.198261227482511737e-01,3.138441192978607130e-01,3.199060828250802624e-01,2.085936387350856291e-03,-2.027467566670961702e-03,7.409237415108264760e-04,7.956208661198616028e-03
3.219280048618886614e-01,3.148313095524472027e-01,3.146238918220660152e-01,3.003427381441795604e-03,-1.820251953692872014e-03,3.044028334462876503e-03,1.080176327377557755e-02
3.106758034528739887e-01,3.104512335288453495e-01,3.367417138271806554e-01,4.655497637861149944e-03,-3.546267265582356103e-03,4.368603244649949154e-03,2.907471172511577606e-02
3.556346982633557530e-01,3.383101504341182730e-01,2.367743258497165826e-01,2.817802058660350776e-03,1.255557826943481167e-03,-8.611600245074062243e-03,1.123376786708831787e-01
3.192860112448865917e-01,3.133407494195217802e-01,3.346831310234976709e-01,1.940237085473242454e-03,-7.378137042524082669e-04,1.679688086525032509e-03,1.963028497993946075e-02
3.170565734384435119e-01,3.168971397576452187e-01,3.297127191103466082e-01,8.881350182345368934e-04,-4.406965717804440879e-04,2.141197381804731993e-03,1.337626390159130096e-02
2.833398516224787667e-01,3.095771427902798689e-01,3.523171213108546862e-01,-1.011109276223980287e-02,8.586418997609115500e-04,5.107101481542845704e-03,6.343220174312591553e-02
3.200552007597152748e-01,3.161181446514331195e-01,3.212145924772075167e-01,3.096719392885648658e-04,6.303920203707086105e-05,1.022738616667453462e-03,4.984654951840639114e-03
2.852539089151887586e-01,3.097952693450611861e-01,3.412860796398067831e-01,-1.974321814935043468e-02,8.642807846695185064e-03,7.141009286265504602e-03,6.255587190389633179e-02
3.172987936412868248e-01,3.164107256199019114e-01,3.248577520110787487e-01,1.982918901446531533e-04,-5.850881375194945909e-04,1.414862225578112850e-03,8.472887799143791199e-03
2.912848008479309025e-01,2.955554835354133325e-01,3.376195969121174034e-01,-5.001579358248137673e-03,1.052606452413369338e-03,4.359526777266447997e-04,4.523507878184318542e-02
3.041883348278434651e-01,3.070453981107417740e-01,3.390074695153895146e-01,-5.748410694002607790e-03,4.376549378556995190e-03,3.630951539268819153e-03,3.629326447844505310e-02
2.943998854497172357e-01,3.089381606069119268e-01,3.450357480951135036e-01,-2.928818411203655027e-03,1.299291430087388607e-03,2.570576613269883424e-03,4.571450501680374146e-02
3.132360195016706816e-01,3.095670056095169986e-01,3.441960490921532334e-01,1.184391605209445843e-03,-1.619859096454195511e-03,2.272108146822906377e-04,3.313326090574264526e-02
2.857729661178983194e-01,3.134895115165984292e-01,3.358627147715666506e-01,-4.978756592150127523e-03,3.788935994898437725e-03,8.114509661828108594e-03,4.694510623812675476e-02
3.252704589420755132e-01,2.778095219991873477e-01,3.037929477881430862e-01,-3.990051771378502407e-03,-8.105334337867694389e-03,-6.698371277367405792e-03,4.554049298167228699e-02
2.785009695574349187e-01,2.910133451190198284e-01,2.339097554701567439e-01,-2.865653719699941954e-02,-3.842366154209966855e-02,-3.416156507817209170e-02,1.144405528903007507e-01
3.406512027356046191e-01,2.987057427703839196e-01,3.018059990535849613e-01,-3.310099388878980607e-03,-4.828046213907510528e-03,-7.233994286052300438e-03,4.357503727078437805e-02
3.409095782401592167e-01,3.101503213257726932e-01,2.873146545550542830e-01,-7.009761673153339263e-03,-5.871298064955062651e-03,-2.037667696662378430e-02,6.055131182074546814e-02
3.500183535225665499e-01,2.969395174008668259e-01,3.158196769849128116e-01,-9.752204232121766680e-03,-1.060131739491246977e-02,-1.823580712418796518e-02,6.157759949564933777e-02
3.308004174728628732e-01,2.905546595138295274e-01,2.960857518452423842e-01,-2.101413721652381408e-03,-4.656157848145636366e-03,-5.199893218804239187e-03,3.983861207962036133e-02
3.391071320872388051e-01,2.871476290419111566e-01,3.309808140893582551e-01,-2.349815159370318568e-02,-1.209053750616803820e-02,-3.513573014210648326e-02,9.023401886224746704e-02
2.197915745276148858e-01,5.265432953883097955e-01,5.031090188651947681e-01,5.633662287203698715e-02,6.488601259937021304e-02,6.073980857586117749e-02,3.473863601684570312e-01
3.260623643435153762e-01,2.553687587382390545e-01,3.407173683881390414e-01,-3.752745071877319760e-02,-1.789137627699841776e-02,-2.388241276591741846e-02,1.146503910422325134e-01
2.683211224928135352e-01,3.100033683778043447e-01,2.266899879009221797e-01,-7.153922276660265589e-02,-1.182879055084136849e-01,-8.757174092612046712e-02,2.924755215644836426e-01
2.981301941626903207e-01,2.996946093275795198e-01,3.483431903989027134e-01,-8.880432519469252939e-03,-9.496979515103898999e-04,-3.503799492489971798e-06,5.181245505809783936e-02
2.574230212943894314e-01,2.516893642610775195e-01,3.168435473158698890e-01,-1.238323514841546402e-01,-1.160006097873018394e-01,-1.214341499999813528e-01,3.667627274990081787e-01
2.664339900750581913e-01,3.420828352268452388e-01,4.003993895767812283e-01,-7.749889638861798269e-02,-3.539878638068322259e-02,-1.893289089756942239e-02,1.907563060522079468e-01
3.452449257958837281e-01,1.430083973146277221e-01,3.616984348746582478e-01,-2.186524291909429374e-02,-1.158544738413131922e-02,-2.972637929136867641e-02,2.213272154331207275e-01
3.912962742623409818e-01,2.632235220159655498e-01,3.913299250730443712e-01,8.807071666892585943e-03,5.205711371748033092e-05,1.681608432633261482e-03,1.290276199579238892e-01
3.670739526203507519e-01,2.271965015412579780e-01,3.744768288937173617e-01,-9.455757123062209909e-04,-3.379761502124334523e-03,-1.173339589917352446e-02,1.452789306640625000e-01
2.946636637234060774e-01,3.455291337089722026e-01,3.018344570952521400e-01,-9.161961402411943707e-05,-2.839842940379921910e-03,9.205250650044857893e-04,4.796594753861427307e-02
4.002304094390428113e-01,2.702851828072008189e-01,3.993640656392035693e-01,3.134544762261944496e-03,4.598096035261043518e-03,1.090967391396463482e-02,1.312398612499237061e-01
3.074061529166959295e-01,3.259843553467467459e-01,2.913469033224251326e-01,-6.713839861455132146e-03,-2.458062530119105304e-03,-1.606991503687279490e-03,3.259603679180145264e-02
4.391379764057287138e-01,2.584070403924573212e-01,4.427672978353568434e-01,-3.400879421305851719e-02,8.933375188435536615e-03,1.730258813757195452e-02,1.947822421789169312e-01
3.546023158101759276e-01,2.080306733811711495e-01,3.585136254555453816e-01,-1.651224882815912785e-03,-2.262835466903796375e-03,4.078284775169793534e-03,1.488128751516342163e-01
2.933413940242554641e-01,3.403311313596119048e-01,2.988544117952951495e-01,-3.496145577440016358e-04,-1.486029492517625247e-03,-9.056317390156595976e-04,4.459625110030174255e-02
3.827421281234986150e-01,2.437359231096186130e-01,3.836017580800478721e-01,-1.040280284184537558e-02,2.839006784613201054e-03,-2.879943448034701613e-03,1.407717168331146240e-01
3.080124658760198808e-01,3.415334189207521187e-01,3.115963951595313031e-01,4.452613631839731482e-04,-1.003513940861861225e-03,3.399935335134235664e-03,3.247547894716262817e-02
3.051353713601617224e-01,3.103259337838902843e-01,3.418675494004398407e-01,4.040692063223681740e-03,-1.478670570394000116e-03,3.695280503279036507e-03,3.580559417605400085e-02
3.834276982262880829e-01,2.394638906900467545e-01,3.797904295922680529e-01,-5.256355647523899832e-03,2.111784626702422826e-03,-8.611084625908219103e-03,1.432965099811553955e-01
3.495096107364579763e-01,2.992731010871144126e-01,3.229451930895640976e-01,2.673674185328395007e-03,1.592041777982395722e-03,3.193107946619866844e-03,4.420982673764228821e-02
3.221205201210601832e-01,3.101266903162696598e-01,3.105816615728875241e-01,-1.457959378119063178e-03,5.488236088307899690e-03,2.941179756485908566e-03,1.616455614566802979e-02
3.300136801212696924e-01,3.053932472686528565e-01,3.002078646160543651e-01,-7.240711121349544498e-03,7.523398880884431955e-03,1.037556138254370347e-02,3.756015747785568237e-02
3.462335231332033803e-01,3.175768446006990708e-01,3.179822684485534290e-01,-4.172475067587530333e-03,3.037318034997803055e-03,5.227297077882044236e-03,3.117097914218902588e-02
3.233998722619549904e-01,3.142148505279067638e-01,3.169954270564460108e-01,7.352833299853577106e-04,-8.945877630789656485e-04,2.563823068131287304e-07,8.401152677834033966e-03
3.260457240946129098e-01,3.010820269721800613e-01,3.222837218875461707e-01,-2.412562552097664067e-03,8.211699673777946018e-03,3.310179050611331431e-03,2.821443974971771240e-02
3.410461115796074583e-01,3.164073486961233028e-01,3.173149528082935822e-01,-4.505439177147569155e-03,3.898274591026837897e-03,6.222053614053744443e-03,2.842812985181808472e-02
2.739590340329954854e-01,2.982859631298134806e-01,3.341005356309019181e-01,-2.131341640315734254e-02,-7.651576252623928064e-03,-8.747227830282533478e-03,6.718414276838302612e-02
3.183720742059382158e-01,3.131830011149529525e-01,3.185993408047531616e-01,4.365805669296859742e-04,-9.188974007389592771e-04,4.299505954116806410e-04,5.640649702399969101e-03
3.113178932386700404e-01,3.109279063625883244e-01,3.398282077726655359e-01,8.977481507100033668e-04,-8.810105190691201477e-04,1.074790080563632535e-03,2.884996868669986725e-02
3.053087591208933915e-01,3.008370761561132145e-01,3.249826233833714162e-01,-2.066525543680289637e-03,-5.509320615212709611e-03,-1.962399270037235716e-03,2.470738068222999573e-02
3.121414706484016421e-01,3.075751438316362552e-01,3.133160814394248539e-01,-2.804065707841555885e-03,-2.223425990435506407e-03,-3.218392540512295119e-03,9.853328578174114227e-03
3.250039067979780261e-01,3.116671994327872008e-01,3.364999721304808844e-01,-1.003388759747246908e-02,-1.200609290286523863e-02,-1.030856015696123007e-02,3.894382715225219727e-02
3.086754876958218152e-01,3.290728991364481604e-01,3.076805781698846998e-01,1.270832195597943392e-03,5.848587390041898228e-04,9.407060787394516200e-04,2.111548744142055511e-02
3.464756767551264716e-01,3.346852511193421087e-01,2.938445592824769914e-01,7.178976400907132252e-03,-2.783805010866419183e-03,5.434609276397536770e-03,5.054673179984092712e-02
2.900480378871704290e-01,3.055096076025391461e-01,3.447023667607235220e-01,-3.389465653104507467e-03,-1.613592230278683773e-03,-4.843686660914569425e-03,4.993770644068717957e-02
2.874614027890537438e-01,2.932031688433442973e-01,3.302246916698289292e-01,-6.244034807312507512e-03,-3.173506306755061439e-03,-4.613768992882853054e-03,4.274538531899452209e-02
2.748676454308636163e-01,3.025128062802217577e-01,3.232802448581747479e-01,-1.076625304581785986e-02,-2.989655207036684154e-03,-1.221345264986731412e-02,5.090890452265739441e-02
3.150631118017654941e-01,3.198440142150463794e-01,3.126205178132801521e-01,9.546772145422840247e-04,8.948920773878269374e-04,7.605979973566686161e-04,6.882829591631889343e-03
3.134840545687369584e-01,3.258064676476521426e-01,2.973162869765532679e-01,-4.680448542597845374e-03,-1.831565496048697186e-03,-1.752799258108740090e-03,2.640956453979015350e-02
2.865997306364744257e-01,3.752384411170506806e-01,3.800665191602136117e-01,1.059804721913071117e-02,2.382680372068167809e-03,-3.957444494656790963e-04,9.307278692722320557e-02
2.528176039730866131e-01,3.521447155550500030e-01,3.555438080437899884e-01,3.769248446775117552e-03,-2.630002095360643635e-03,3.413638875987425915e-03,1.015548259019851685e-01
2.144334003261859634e-01,3.956477616845112677e-01,3.967820719229728788e-01,1.492566050064046169e-02,3.010165530480219884e-02,2.052019774885585970e-02,1.941529661417007446e-01
3.188373009689672855e-01,3.156883435197527232e-01,3.181109571848487749e-01,2.931414120333748850e-04,3.402078568666366088e-05,4.313257525233918344e-04,2.995943184942007065e-03
2.206863845064843677e-01,3.757522932266229021e-01,3.774371008236825920e-01,4.499549521119406483e-05,1.496969601669223462e-03,6.615221540405423657e-03,1.563570946455001831e-01
2.374536742642556764e-01,3.627439821369267126e-01,3.699813234494669922e-01,2.693125981945337965e-04,2.365703829220689326e-03,-2.969116807552961076e-03,1.292295008897781372e-01
2.393024526803414487e-01,3.715736842560276587e-01,3.662471929944264293e-01,-3.482241055406992865e-04,2.741463654521116965e-03,-1.513908975902661207e-03,1.298048347234725952e-01
3.199996378323456403e-01,3.154651836231410211e-01,3.151599805340201121e-01,4.371654602337684604e-04,9.466896404853735207e-04,3.471912190451974028e-04,5.065765697509050369e-03
2.556508820756522304e-01,3.557721436416931837e-01,3.638379215186930971e-01,1.780001477160567374e-03,9.709284158494164291e-03,8.609294086592087641e-04,1.057895049452781677e-01
3.324742938918258672e-01,2.789750338001495966e-01,3.264404527870196637e-01,1.579363073800956266e-02,1.360346998875109313e-02,-2.175361486836330585e-02,7.279361784458160400e-02
3.618162253889393165e-01,2.059604610600594687e-01,2.097173371184048729e-01,2.635463808756887197e-03,2.133558621884567089e-03,-1.478007926483881351e-01,2.988131940364837646e-01
3.179522337565229284e-01,3.225164711612085178e-01,3.256552086916861266e-01,8.793120960523509444e-03,6.739822443303840165e-03,-6.177952701170380881e-03,2.297267317771911621e-02
3.428210992784092026e-01,2.971444584882274587e-01,3.011170374109969350e-01,6.281918554534820891e-04,-5.963899787875266267e-04,-2.004210674681141009e-03,4.398845508694648743e-02
3.538374193156734182e-01,2.615216054707310556e-01,3.009570027715679497e-01,1.358685878913704244e-02,9.283720173088455541e-03,-3.090708173208369866e-02,1.005731746554374695e-01
2.996479276825014804e-01,3.381203595720565502e-01,3.113039767524813373e-01,-1.549164573136645358e-04,-3.896222972461485436e-03,-8.662669263071125225e-03,3.792484849691390991e-02
3.486429882790136880e-01,2.164750519014632946e-01,3.190134362533570966e-01,-1.152897824909645749e-02,-2.040582173055094112e-03,-4.529260995217623820e-02,1.448989361524581909e-01
3.059456183923668915e-01,3.097559170859774391e-01,2.355922294538451423e-01,2.776641438353914457e-02,4.128721036089331997e-02,-3.283223258052705984e-02,1.260669380426406860e-01
3.579171910428042280e-01,2.279345078190637974e-01,3.466152565066996649e-01,-1.520670306492805535e-03,-4.569622797758782933e-04,-1.392274540945847780e-02,1.270561665296554565e-01
3.016423766439064180e-01,3.428884227802820317e-01,2.969245520607901589e-01,-2.141974039900663984e-03,-1.405222932435983701e-03,-2.203378024744707996e-04,4.402180761098861694e-02
3.371594703864768117e-01,3.137703192347774950e-01,3.073516638608258522e-01,3.459007437294845787e-03,3.299073200462771405e-03,-5.196997438182887619e-03,2.979850023984909058e-02
3.206719606957660895e-01,3.177683058338990896e-01,3.196431491101547340e-01,1.498503389398784689e-03,3.174698258441439359e-03,-8.546191030192268139e-05,6.595219951122999191e-03
3.681061216035169670e-01,3.473981331464451316e-01,2.676917048791800369e-01,1.900690194387008591e-02,3.886901573792318071e-02,-4.978332517279055597e-02,1.465736031532287598e-01
2.269952997096422453e-01,3.478021263439878830e-01,3.523796498415658340e-01,-3.301485344332578953e-02,9.886998055579790043e-03,9.018867408995271534e-03,1.377514451742172241e-01
3.355528946382249078e-01,2.996108080001880780e-01,2.990263142857397805e-01,-1.396823614689686466e-03,-1.791658583884694076e-03,-2.164150326846045989e-03,3.664310649037361145e-02
3.121610136263998636e-01,3.373376077202010492e-01,2.944586214396623935e-01,-4.654735090251009046e-03,-3.536645237223128013e-03,-1.801712963938838924e-03,3.879669308662414551e-02
3.316437176405162557e-01,3.028068326633453489e-01,3.317288106213467924e-01,3.133866803264368991e-03,7.125854301457323556e-03,-3.192198492011290040e-03,3.234801441431045532e-02
3.475161599393760681e-01,3.027531361910782426e-01,3.201006902703922852e-01,2.073140215790913142e-03,4.739268241783414076e-03,-3.668524335184379214e-03,4.060525819659233093e-02
1.904712718934238602e-01,2.963655886827105679e-01,5.097478319763136811e-01,-1.294474489964855812e-01,7.940071494207336100e-02,6.409478231133593218e-02,4.010602533817291260e-01
3.178998087704950626e-01,3.177298694738174278e-01,3.148086315906468702e-01,-2.046472344289519772e-03,8.799713404978487833e-04,6.576966064373750750e-04,5.024324171245098114e-03
3.093865212729183245e-01,3.212480035971135295e-01,3.449778130869964876e-01,-3.295548362879453623e-03,1.380026977283471288e-04,5.633389744983823694e-03,3.336335718631744385e-02
3.130457973969725249e-01,3.146955866131460611e-01,3.479506609660207861e-01,1.171258335793884560e-03,6.617975789849574100e-04,1.955232088074047349e-04,3.419107943773269653e-02
3.062708703998609505e-01,3.223754750526287571e-01,3.345777509826656781e-01,-1.240893474840916010e-03,2.116835346229891182e-03,6.307686842142210849e-03,2.724316157400608063e-02
3.231512957486504800e-01,3.101996495511102347e-01,3.111688865711688678e-01,4.161779210398065289e-03,2.996738800296727852e-03,-2.454495441098937438e-03,1.590935327112674713e-02
3.095047547342036909e-01,3.306169508325972339e-01,3.221570167909394988e-01,2.217846359624518846e-03,1.668167375596741340e-03,-4.936240256031837817e-03,2.085405960679054260e-02
2.341683386746989115e-01,3.100082023160261602e-01,3.342199106359545202e-01,-6.491693344524564202e-02,5.412856315825283204e-02,9.571621547649466349e-03,1.728620231151580811e-01
2.415193712237437840e-01,4.488108967816758499e-01,4.883208052340437533e-01,1.077239772350605251e-01,6.217163823436627768e-02,4.799677164611738239e-02,3.256397545337677002e-01
2.384978907306509743e-01,2.644648166980169690e-01,2.991537085215039138e-01,-5.780401378059851769e-02,-4.905014047328976057e-02,-4.250126556289184065e-02,1.594963818788528442e-01
1.294201281927842007e-01,1.616615364041202874e-01,3.386285058829907602e-01,-1.665992929020318480e-01,-1.513511611789820216e-02,-1.581511485728732264e-02,3.503798246383666992e-01
3.023435172758846545e-01,2.990790955937282503e-01,3.290696790537466776e-01,-1.157703571499791098e-02,6.549180089570940874e-03,6.589082609365670348e-03,3.838223963975906372e-02
3.344531735873530476e-01,3.642362902422739968e-01,5.014821179904144222e-01,-1.574132849511941934e-01,-7.504975193788102072e-02,-8.571734831058885895e-02,3.702535331249237061e-01
2.716213029631986409e-01,3.014805603877235285e-01,3.715046407785863591e-01,-3.428314910617857175e-02,-3.114514628267251676e-03,6.539072701028733484e-05,1.069622859358787537e-01
3.421902283299352310e-01,3.085979106839392694e-01,3.106432089580291600e-01,8.496408072201359256e-04,2.458277469259756084e-03,-1.085363651176701749e-03,3.298105299472808838e-02
3.167367201634850304e-01,3.206038706792302406e-01,3.184821182972478182e-01,1.106117828918498289e-03,3.664831179368249325e-04,-6.781641670619185328e-04,4.087137058377265930e-03
2.819031949071795773e-01,3.491419012600860960e-01,3.711627418999682293e-01,1.361196362891325604e-02,7.650774733251473371e-03,-2.493274427648492324e-03,8.506893366575241089e-02
3.172364593135029720e-01,3.174527771950711452e-01,3.187669372277255331e-01,3.718458368231307865e-03,2.268486395073573796e-03,-3.525020225273775131e-03,9.810926392674446106e-03
3.212172076688179501e-01,3.202400265084364150e-01,3.147202234383410513e-01,3.627345564182224077e-03,1.169827362715958850e-03,-4.613377289545241618e-04,9.001879952847957611e-03
3.226676211580253861e-01,3.213315584326084107e-01,3.179999146459403514e-01,1.869087702372769283e-03,9.323642714190236288e-04,5.721182553440586549e-04,5.604153033345937729e-03
3.451894999638446260e-01,2.848506249218213937e-01,3.261431204842442644e-01,2.436085060919588111e-03,6.215194693942473203e-03,-6.143955690774650577e-03,5.568879097700119019e-02
3.021255617225487300e-01,3.210714872159987632e-01,3.479615900396140771e-01,4.154003389217094180e-03,1.097285863108498011e-03,-3.341049554779317986e-04,4.058568552136421204e-02
3.189193810230367965e-01,3.213057501123238735e-01,3.219643430269978346e-01,2.901719011464214647e-04,-1.108117270265368959e-07,-4.798727562120203602e-04,2.939996775239706039e-03
3.251869808121891081e-01,3.201388209199432233e-01,3.214158133116247207e-01,3.445835536161319726e-03,3.407558773554684485e-03,-2.799353647497154068e-03,1.070668175816535950e-02
3.251599588715995415e-01,3.131350403108124625e-01,3.150441952628196263e-01,9.253419796787201897e-04,2.275945932001575012e-03,-7.240770703660519064e-04,1.204024627804756165e-02
3.216967099643187611e-01,3.153222290273667294e-01,3.191466846789273726e-01,9.954327016251001206e-04,2.267660157802425542e-03,-1.358335976935210907e-03,7.403802126646041870e-03
2.999085001837279441e-01,2.400341699027185305e-01,3.548166141417078978e-01,-5.101824351459879198e-02,-2.461036139075442608e-02,-3.170345257233699032e-02,1.500944495201110840e-01
2.922250084807515025e-01,3.058696881803084078e-01,3.268394351893250671e-01,-1.630943975946296150e-03,-2.655378875322251218e-03,-6.921375861598250655e-03,3.293755277991294861e-02
2.766836217752727811e-01,2.791511251887817679e-01,3.272773153888044462e-01,-1.671252707083541525e-02,-6.523265470911746543e-03,-6.632056104512111527e-03,5.948535352945327759e-02
2.477693251440842015e-01,3.221665597964384897e-01,3.434238011746155728e-01,7.090249422568619710e-03,-3.819707215417949414e-03,4.693927915794583045e-03,8.848153799772262573e-02
3.484792968686053483e-01,3.124494658767445476e-01,3.103781928229740750e-01,5.751148965541428258e-04,4.413693773241682706e-04,1.218731894265659595e-03,3.719004243612289429e-02
3.391382824082602720e-01,2.861267540921362262e-01,2.962085962245373794e-01,-1.335489678814542804e-03,-3.946340947834690947e-04,-4.418777077510436038e-03,4.941463842988014221e-02
3.569125744864059535e-01,3.191573313835555648e-01,3.181662656953659352e-01,2.104904842132320798e-03,-2.510520310470051170e-04,8.908285257084657544e-03,4.141753539443016052e-02
3.372289911233828930e-01,3.043348249092687197e-01,3.028995208040987097e-01,1.019631532474023000e-03,3.140175989734249351e-04,-3.576148864380436498e-04,3.369121253490447998e-02
3.005174063002949980e-01,3.492677286965744643e-01,3.347681793380937743e-01,2.961937322622292153e-03,7.642446496616398834e-03,-4.427576487560330558e-03,4.626363143324851990e-02
3.468412458096270523e-01,3.145574202750200943e-01,3.116705038906021907e-01,1.345450313293112795e-03,-6.541474976346104092e-05,1.651955320412448617e-03,3.402074053883552551e-02
3.270693716084981384e-01,3.248567022788678704e-01,3.108763230448872705e-01,6.800690281539609194e-03,6.259233958261408055e-03,-9.867169244642579051e-03,2.792214415967464447e-02
4.058440285432687311e-01,2.134283915245770435e-01,4.359154195220857897e-01,-4.300598512705468279e-02,-2.830362912372300088e-02,-1.224216701597387186e-01,3.108493089675903320e-01
3.443945975024833017e-01,3.094397429059833615e-01,3.023624947108218830e-01,2.178260094805274313e-03,-2.426576471067201689e-04,5.920972530890390717e-03,4.048331081867218018e-02
3.167273546850698507e-01,3.256528432515929383e-01,3.301623392255797484e-01,3.042786972549870513e-03,2.602516819937723651e-03,-3.803289728492723672e-03,1.522298716008663177e-02
3.427841277819309584e-01,2.957049324224671483e-01,3.028236637430201106e-01,-3.116031032401075755e-04,3.915939350810962428e-04,-3.233183201019006713e-03,4.431810602545738220e-02
3.282142337024891998e-01,3.228107500350548831e-01,3.243423722970237288e-01,4.358725130348180092e-03,4.297836458724500416e-03,-2.986752111653254421e-03,1.274516060948371887e-02
3.066188548288408811e-01,3.038358886001700232e-01,3.164596732156818581e-01,4.457989591204660623e-03,4.848233495682833724e-03,-6.268758711887909008e-03,1.949365064501762390e-02
3.194296117791901590e-01,3.149505558653165616e-01,3.252085930160509841e-01,1.224047337462905085e-03,4.846120027676963787e-03,-2.077329799853535556e-03,1.293206680566072464e-02
3.166661400794799630e-01,3.184531478628587764e-01,3.232241447648510624e-01,1.685470429485004095e-03,3.324437908464230890e-03,-1.062651085840505020e-03,8.918934501707553864e-03
3.467670907302081162e-01,3.189003266444355722e-01,3.038323468397909899e-01,6.477708681446118708e-03,1.559253581887879705e-03,-2.332502464255260290e-03,3.966099023818969727e-02
3.121882101239124574e-01,3.348160035646116084e-01,3.259123214159718174e-01,1.645997567830289905e-03,1.264345819549536360e-03,-3.598778837207456966e-03,2.101426199078559875e-02
3.113578262706570010e-01,3.020904324960951848e-01,3.533840783860475732e-01,6.170266521777309499e-02,5.423743289333839146e-02,-3.246072458813858974e-02,1.601543426513671875e-01
3.640171718216685393e-01,4.549538453186875442e-01,3.204039814664114694e-01,-7.784509358778467225e-03,-8.309007865978260132e-02,-1.619040203240685108e-02,1.892556250095367432e-01
3.450221430962823743e-01,3.808088881933971992e-01,2.913003896480980681e-01,9.984850654555565974e-03,-3.327916022257507156e-02,1.510227317959088149e-02,1.019562631845474243e-01
3.208483644627017073e-01,3.638042701771891929e-01,2.701700289924621190e-01,1.421702177945294299e-02,-2.693066330368168101e-02,1.195516631211554666e-02,9.900186210870742798e-02
3.227600308946981245e-01,3.561276832570757223e-01,2.647408703276839526e-01,-3.912642837292527659e-04,-3.358680577402408524e-02,-7.917144006758629338e-03,9.994152933359146118e-02
3.155882016088218944e-01,3.474068818449943530e-01,2.271905101870369259e-01,8.021013218568934233e-03,-5.047275040122580630e-02,6.650723150113484021e-03,1.400267183780670166e-01
3.376914679980916878e-01,3.904095961580870688e-01,3.255884205641105811e-01,6.408620407546182854e-03,-3.590863489481749271e-02,1.163629911481989590e-02,8.922693878412246704e-02
3.176209258226529997e-01,3.741088994974391957e-01,2.502725572137007304e-01,2.388112294082705978e-02,-7.279773393696006845e-02,6.668495779556402048e-03,1.710962504148483276e-01
2.789654760334240313e-01,3.347341173558238125e-01,2.424884134914258582e-01,-6.514942692310394905e-03,-3.368351613820261270e-02,-7.839787356360039539e-03,1.009477674961090088e-01
3.426520039361693470e-01,3.434499040016675275e-01,1.784383810013190352e-02,1.856904710685840232e-02,5.525632583663383363e-02,-1.576613305126798453e-02,3.416139185428619385e-01
4.356017324726092488e-01,4.460748127666364637e-01,2.791196939610309791e-01,5.716308186394333801e-03,4.755639035466947828e-02,1.415103311077091884e-02,1.836267262697219849e-01
4.009628517779968426e-01,4.100525284053407882e-01,2.632548964536413072e-01,2.779447735896885263e-02,4.474777290710954536e-02,6.459862099802234428e-03,1.695514768362045288e-01
3.475372256228844714e-01,2.264018632357733818e-01,3.263490749122389123e-01,-6.265123102467145058e-03,-3.368029293484496502e-03,-1.055909941866622209e-02,1.142031028866767883e-01
3.898148148931958046e-01,4.055515384550411051e-01,2.793188462327985677e-01,2.531980593617727884e-02,3.589253988006689544e-02,-3.255787701814177870e-02,1.521972268819808960e-01
3.346104313864938229e-01,3.846856440495762808e-01,2.154348618730681508e-01,1.205743013099559204e-02,1.134378418889619988e-01,1.451375685399167344e-02,2.497010380029678345e-01
3.381420552432732318e-01,2.883977440080763843e-01,2.961201165496827881e-01,-3.195609694358195804e-03,-4.977349177018787485e-03,-6.011834430513506543e-03,4.861452057957649231e-02
5.361837782246606787e-01,5.292631383351291685e-01,2.849079953006524724e-01,6.565907667177123264e-02,1.415242962905534085e-01,-4.654606081114666394e-02,3.754580616950988770e-01
3.437050687899150248e-01,2.955821379550372385e-01,2.912177405679238773e-01,-7.145487639335761912e-04,-1.142522820972207299e-03,-3.268563112044476065e-03,5.081722512841224670e-02
3.412328580566467706e-01,2.913350347173780941e-01,3.074777280280319713e-01,-1.981372104629583984e-03,-4.689810038101153294e-03,-4.783635004082815306e-03,4.573077708482742310e-02
3.656023352575071828e-01,3.873026998023670897e-01,2.423809521265529454e-01,1.350235042949058002e-02,2.403355105287774407e-02,-4.135521923567862801e-02,1.604334861040115356e-01
4.510739092744595058e-01,4.238516673883988006e-01,2.859513891272480457e-01,9.527262591080446624e-03,1.943345250111373074e-02,-4.263835753545147655e-02,1.742723882198333740e-01
3.514019399274350697e-01,9.446006556794311892e-03,3.400284321806754662e-01,-2.441256338793328096e-02,4.947009578211162585e-03,-8.050737400655305631e-02,3.667146563529968262e-01
3.121789089259161543e-01,3.089075739208925198e-01,3.357957312530159832e-01,-4.835779997972538061e-03,4.898254652587171257e-03,5.692084789832230034e-03,2.974973805248737335e-02
3.425291773502690540e-01,1.866847652587321493e-01,3.225207361984570031e-01,2.038095734428630595e-02,1.390744448031621533e-02,-3.837734982592347355e-02,1.667767316102981567e-01
3.771427832894921339e-01,1.108966934337020094e-01,3.628756254480421939e-01,4.915776938469040847e-02,1.249100024695329672e-02,-7.711298511124706212e-02,3.047108948230743408e-01
3.341018217661219647e-01,-3.038573221407642189e-02,3.194379463532018293e-01,8.687798812668684478e-02,3.770007491354145784e-02,-3.506683368961133196e-02,3.978915512561798096e-01
1.270148546800784484e-01,3.402768560742420179e-01,4.176021043559284829e-01,-1.348390390175467357e-01,1.435468981504557824e-02,-2.264166837321278380e-02,3.530597984790802002e-01
3.075239540762294554e-01,2.868450417095319005e-01,3.514619471871993639e-01,-2.045705588280105278e-02,-8.556921103364115763e-04,6.112223633112064472e-03,6.809186935424804688e-02
2.989303674229104035e-01,2.935952650598219749e-01,3.456501654091456155e-01,-3.717333474911516805e-02,3.446681148850893901e-03,1.139024639715291790e-02,8.385034650564193726e-02
2.994483305809200746e-01,2.937499426485115084e-01,3.409167582566904331e-01,-3.085111568964027124e-03,-6.807938436783005738e-04,-1.178408190315183681e-03,4.497238621115684509e-02
2.473751320781594765e-01,3.187538215883612414e-01,3.450941140332058898e-01,-1.403064709222412096e-02,-2.378202758352983542e-03,-1.305746850719299683e-03,9.100287407636642456e-02
3.191189893642591979e-01,2.982547582237511929e-01,2.973443890975834281e-01,-1.409158136185294360e-03,-3.036600148594489554e-03,-8.249377295643902167e-04,2.215402014553546906e-02
2.610431664973782429e-01,3.393690784235511848e-01,3.631666305348065782e-01,-2.965966858702544576e-02,2.873829439638404294e-03,6.005199642058495907e-03,1.064767017960548401e-01
3.081448324004403827e-01,3.104965822550923016e-01,3.385847683922704743e-01,3.223534966401942099e-03,-1.777031543914491234e-03,3.416767927834106662e-03,3.059743903577327728e-02
2.429527827629199555e-01,3.074792900984991140e-01,3.283112126644147644e-01,-1.692715390000418610e-02,6.726097012148935829e-03,1.249847724581410434e-02,8.605691790580749512e-02
3.164963957649941095e-01,3.225191778541116050e-01,4.015666315898754890e-01,-4.930515311856729921e-02,1.955261618437665466e-02,2.095448710275826798e-02,1.285225301980972290e-01
2.447301639994129141e-01,3.178918035334296621e-01,3.451253351919299495e-01,-1.453334925078323542e-02,-5.220217389440323826e-04,-1.383702866373201263e-04,9.338773787021636963e-02
3.522738147820300147e-01,3.481742928336329923e-01,2.419506842205252917e-01,3.713086049681096901e-03,-2.132410158480165571e-03,5.776051717110380554e-03,1.090450286865234375e-01
3.078368210409548889e-01,3.077686589399765693e-01,2.980365599221980188e-01,-5.900449828234336468e-03,-1.822408798949452357e-03,-1.740405502585418368e-03,1.479453407227993011e-02
3.643970540429365967e-01,3.627989344631962765e-01,2.378045881054303423e-01,7.515518373936504702e-03,-1.118355489868431106e-02,2.396915961790276051e-02,1.345143914222717285e-01
3.254911349629589501e-01,3.082148407943450241e-01,3.063039432845025001e-01,-1.170151944446760298e-03,-1.324747131180953504e-03,-2.426446355394715031e-03,1.903078146278858185e-02
4.140746749269305638e-01,3.808972271630413076e-01,3.108312676083245796e-01,-8.118540230327449259e-02,-1.093532702118832495e-01,-1.215052131431997862e-01,3.290482759475708008e-01
3.217459665738641728e-01,3.274829257055538179e-01,1.109621397717479307e-01,2.380910321955331116e-02,-5.690162583078757497e-02,5.743436683067960902e-02,2.588090300559997559e-01
3.062596314968648592e-01,3.206137653944541310e-01,2.931689266093195356e-01,-6.829944858076736521e-03,-2.575997052408482077e-03,-2.026998776422751954e-03,2.715679258108139038e-02
4.058768835494540039e-01,3.731848503220460689e-01,2.442502901807410143e-01,1.498552670609304242e-02,-9.329875273270853489e-03,1.704408148583361898e-02,1.539946794509887695e-01
3.092215154183996506e-01,3.035525689893192602e-01,3.122236511011965976e-01,-5.723962348904432229e-04,-4.075346749883196860e-03,-2.689452163224748116e-03,1.143138017505407333e-02
3.163365081118725275e-01,3.083005577227599936e-01,3.109764284667793643e-01,-1.068501901726702768e-03,-1.011121716800791707e-03,-1.953935402146641034e-03,8.257081732153892517e-03
3.150867113739224123e-01,3.012467376211461212e-01,3.020626696781391618e-01,-1.213116599940760893e-03,-1.531349442619985794e-03,-9.904071375935867853e-05,1.387074682861566544e-02
4.228319349240065028e-01,4.165546428942338841e-01,2.075129501889995953e-01,1.308853399902380060e-02,-2.593331005316069568e-02,2.127674073713053948e-02,2.212231606245040894e-01
3.951213714759284623e-01,4.278314929158475444e-01,2.230733934817950015e-01,1.349131957847505420e-02,-2.142100632258285738e-03,-7.203351570984290429e-03,1.923893094062805176e-01
3.607889505702691624e-01,3.798555108636918476e-01,2.394791094900302342e-01,2.975927432462640741e-04,-1.129938177939053198e-02,-2.867711491085329738e-03,1.334186494350433350e-01
3.339084812272992697e-01,3.073269293420919368e-01,3.135957582426960322e-01,2.902666742841814029e-03,-4.706906267406937155e-03,3.569666035599518110e-03,2.663101255893707275e-02
3.326650960297146131e-01,3.278593150703681403e-01,3.167206459220758274e-01,6.283171530659503908e-03,-6.343648093670837922e-03,1.058241249089696828e-02,2.785351313650608063e-02
3.041326784155966023e-01,3.077463809326486666e-01,3.132606290206986221e-01,-7.181144227491501964e-04,-1.250408538623996695e-03,-5.252343873554851314e-03,1.234469935297966003e-02
3.248212955347239972e-01,3.143701122798834291e-01,3.216930602085018021e-01,2.683994650581367734e-03,-3.175960899461784809e-03,3.449291693132343350e-03,1.318650227040052414e-02
3.384702925243026073e-01,3.154943499582875677e-01,3.146259234469099830e-01,2.972146498788543183e-03,-1.609933536148113343e-03,1.096652327348649966e-03,2.421746402978897095e-02
3.273553600750309656e-01,3.112991769748730264e-01,3.095161127166216053e-01,3.616441570306247293e-03,-1.797379019066702418e-03,2.830279368323952716e-03,1.904123462736606598e-02
3.057284177037860595e-01,3.440314119809207427e-01,2.880345210047755011e-01,1.998150259361923455e-04,-4.003071911415335971e-03,-1.108481040426117885e-03,5.009792745113372803e-02
3.190706084939393117e-01,3.204630446287612955e-01,-7.064203964161222538e-02,1.201874960390230188e-02,4.012863899418673413e-03,2.235975405554418982e-02,3.929402828216552734e-01
3.108168014388356104e-01,3.077202955824230868e-01,3.093160910483203629e-01,-4.252976262522912805e-04,2.312828891335501378e-07,-6.858150670478043668e-04,3.024430945515632629e-03
2.715745718012633758e-01,3.095137885238029574e-01,3.112548431482817235e-02,-1.493789813850408647e-02,-1.117601816151445465e-01,-5.871980758045161619e-02,3.418509662151336670e-01
3.135533845620501192e-01,3.127466388540409703e-01,3.380429393516777847e-01,7.701953925759330187e-04,-1.696095301179003289e-03,2.406603791994324504e-03,2.545448951423168182e-02
4.088065176072452900e-01,4.219135311677071898e-01,2.508988674208482150e-01,-2.926906616224755203e-03,-4.350361789861735551e-02,-3.495059505226845442e-02,1.911657452583312988e-01
3.603987948797479635e-01,3.681943506971028790e-01,2.885712933989806328e-01,3.233709781672406466e-03,6.887705265820074328e-03,-1.465048616707020912e-02,8.122498542070388794e-02
5.130560110930683093e-01,2.695737885801433587e-01,4.179545877069704152e-01,-5.474780979973926237e-02,-2.497812575028458132e-02,-1.272986835994657784e-01,3.234979510307312012e-01
3.706037176348584983e-01,3.626218073455244606e-01,1.867264184372687819e-01,1.739889313866387760e-02,-1.257532457233418235e-02,-3.887031238648447351e-02,1.957604736089706421e-01
3.167596435820178580e-01,3.110005937306316026e-01,3.306452936426689804e-01,-2.769798916111807473e-03,5.554958234201490264e-03,1.620611380766119906e-03,2.072228863835334778e-02
3.323190997065930130e-01,3.082452849874446899e-01,3.097657853417596363e-01,-4.573687068310005113e-03,-3.691365499442495011e-03,-4.824609342297685524e-03,2.680897526443004608e-02
4.131483495894541225e-01,3.951201212464812151e-01,2.293420433071522990e-01,7.533619142558106024e-03,3.899073140188952756e-03,-4.462328242351911584e-02,1.923165619373321533e-01
3.135303183986243858e-01,3.147188535533915199e-01,3.222222765553780510e-01,3.883508627092753626e-04,1.473121873825805096e-03,-2.134706152715941559e-03,9.341609664261341095e-03
2.615088208359268585e-01,3.346218042620424105e-01,3.199449147583335318e-01,-4.523330042956472466e-03,-1.043866041381569590e-02,-1.061924144941039927e-02,7.221101969480514526e-02
3.099855615008461074e-01,3.095505767501199323e-01,3.230077063198659726e-01,-1.703353444232684130e-02,-1.543342887595850962e-02,-1.711511426296363075e-02,5.137321725487709045e-02
2.680636907531789848e-01,3.326873121867609528e-01,2.992477666724726038e-01,-5.501705880461152734e-03,-9.606952747714050597e-03,-9.762730391034651553e-03,6.153901666402816772e-02
2.776639087978198250e-01,3.184487150508482634e-01,3.238207178025624411e-01,-4.067893890200428506e-03,-3.865227602280477820e-03,-1.092059054504625898e-02,4.861683025956153870e-02
3.540827387023285366e-01,2.096277161521792887e-01,1.596082838203063403e-01,-1.825307968290117849e-02,4.130660362868318614e-02,1.249886227520913690e-01,2.891011238098144531e-01
3.394163797204960420e-01,2.976458487526855712e-01,3.130964107427146592e-01,2.079694339807734021e-03,2.198732382323917000e-03,-3.683004944799720369e-03,3.750054910778999329e-02
3.117803339927626705e-01,3.247088061389020175e-01,3.616375741240092090e-01,4.376763618057440824e-03,-1.851048224012856978e-03,1.877928026907614654e-03,4.567974433302879333e-02
3.256098689893753839e-01,3.098943921084759689e-01,3.482614745961614688e-01,2.448033768987413310e-03,5.299526455094799235e-03,-2.098773182660389376e-03,3.509273752570152283e-02
3.090941202302877056e-01,3.019628645747176598e-01,3.436668727856923011e-01,5.500164193318612949e-03,-1.274112776357306989e-03,6.150416220738143171e-04,3.986775130033493042e-02
3.685343740318048344e-01,3.340144475356185971e-01,3.175286437016449637e-01,-9.259929877639329777e-04,3.128214103997293237e-03,1.764851949366754574e-02,5.476162955164909363e-02
3.598802226706431240e-01,3.010415221828101062e-01,3.134670915983420736e-01,3.237867174215741661e-02,-1.254452425619557998e-02,2.247326010572494800e-02,8.954136073589324951e-02
3.508709805864178577e-01,3.105891243553692838e-01,3.037885350896489256e-01,2.494193558897600960e-03,1.325820543099543868e-04,4.784815567020471797e-03,4.505791142582893372e-02
3.000135247816648199e-01,3.119380620677432159e-01,3.263700196186788416e-01,-2.628986274250475885e-03,1.450412227454330643e-03,3.166661352831393744e-03,2.407694794237613678e-02
3.539911459667056670e-01,3.093531443328703667e-01,3.163798322751847913e-01,4.437980418881853255e-04,1.538741333993547166e-03,5.359417512995904437e-03,4.268644377589225769e-02
3.510296151249733265e-01,2.938095637023182549e-01,3.156342096034456812e-01,3.988267473962301031e-04,2.577560832028875492e-03,-4.828969040270360627e-03,5.091176182031631470e-02
3.823674167388825818e-01,2.976471557743670671e-01,3.612550497384306447e-01,8.505475146669560366e-03,-1.048041592411602836e-03,3.021914238544248787e-02,9.377912431955337524e-02
3.337276318532756969e-01,2.694767256742638395e-01,2.716431325232970262e-01,-4.258336015933214536e-03,1.074911851397018954e-02,4.333322726419903265e-02,1.001399755477905273e-01
3.379770279123310295e-01,3.090417178928429598e-01,2.816048074739021523e-01,-1.791861170446355442e-03,1.648485866972178174e-03,1.076695366203613176e-02,5.243565887212753296e-02
3.445412488010818897e-01,2.888033078278275378e-01,3.073732074913791412e-01,4.180926508310177760e-04,6.965833541809063052e-05,-4.808282628648165302e-03,4.986390471458435059e-02
3.115095271455773918e-01,3.084755346111481833e-01,3.279777202174552486e-01,-5.148633078968246337e-04,4.134313079465778279e-03,1.479639491298879008e-03,1.972337998449802399e-02
2.990585829383126115e-01,3.185694682298680913e-01,3.262506356470764035e-01,6.888780447278954056e-03,-3.543638862211281101e-03,9.805696221917646616e-03,3.252743929624557495e-02
3.319599924252292777e-01,3.083910402228022818e-01,3.216387903611373500e-01,1.166550152835790603e-03,6.555114484460878438e-03,-1.004034597762389069e-03,2.355372905731201172e-02
3.528931963111296422e-01,3.252710062868668373e-01,3.112218044979090936e-01,-3.324351611842215910e-03,3.162272236410560225e-03,3.094694699408650183e-03,3.795155510306358337e-02
3.154532269360085239e-01,3.145657930647570155e-01,2.623947116027106063e-01,-9.183101505644195722e-03,-6.483988021049338912e-03,-8.293306019515004485e-03,5.791682749986648560e-02
3.300484138730599981e-01,2.939938864463886303e-01,3.444667450332479786e-01,4.927877752025062660e-03,7.015135681802169877e-03,-2.833744973507467367e-03,4.766803979873657227e-02
3.454234616780456069e-01,2.926667326270047109e-01,3.092961532811570602e-01,-1.542433183432311613e-03,-1.691981799803003077e-03,-3.848755761925694557e-03,4.735673964023590088e-02
3.577303973617364519e-01,3.489370403448709412e-01,3.273355924049420329e-01,-2.128089456163830689e-02,2.956564560530567515e-02,4.099410479101457672e-02,9.877477586269378662e-02
3.191825983224436114e-01,2.966727032740129610e-01,3.052643916857334383e-01,-2.978928759390128949e-03,-8.251553467788514534e-03,-3.539169185948523935e-03,2.560425922274589539e-02
3.536695456570512208e-01,2.567336199435107380e-01,3.382174434501807325e-01,4.161958346013201922e-03,-5.033428020996529115e-04,-6.182817200752377569e-03,9.113114327192306519e-02
2.839671528912759979e-01,3.174755464217975942e-01,3.042541962806163958e-01,-3.819372187602101953e-03,-4.998436576666247071e-03,-9.745996824524486707e-03,3.547195345163345337e-02
3.510866648782540178e-01,2.954081718436376014e-01,3.117501396163405714e-01,-3.184860277865290859e-04,-3.134833230788263672e-04,-3.943563917261696042e-03,5.004510655999183655e-02
2.867574439848263324e-01,3.572250336067115950e-01,3.044201603132266065e-01,-3.968335618549410394e-03,-2.547997323271233155e-02,-4.983116531506073636e-03,7.811804115772247314e-02
2.955761101375043443e-01,3.216386394458947695e-01,2.921367493340789601e-01,-8.408321746919553835e-03,-1.037068879394289697e-02,-8.713236402310409884e-03,3.928406536579132080e-02
3.108835134240010567e-01,3.319941828891054270e-01,3.063313642119008806e-01,-4.617363982617172721e-03,-5.547833926088390280e-03,-5.503305515681677917e-03,2.845410257577896118e-02
2.881503219984954400e-01,3.297196162600286029e-01,2.918194444143342170e-01,-1.801016411445846045e-03,-5.373668350659150869e-03,-4.690740773129906116e-03,4.184871539473533630e-02
2.725113454295993165e-01,3.245968890036018961e-01,2.963412629194247527e-01,-2.902892121204824188e-03,-1.224417897970314813e-02,-1.204930771781329533e-02,5.431548878550529480e-02
3.177557705276166100e-01,3.193317461952581149e-01,3.193889170462336224e-01,-5.071590077444141330e-04,6.030399919775467467e-04,1.543059821696579756e-03,3.403346985578536987e-03
4.692320222530467766e-01,4.875291470639356861e-01,2.490439882159955487e-01,-2.174737823780008295e-02,-9.745063562754102682e-02,-1.005164537727762375e-01,3.362525105476379395e-01
2.244301414544841999e-01,3.267156135537880868e-01,3.445105974759124501e-01,-9.851350725548060905e-03,-1.392497321318953915e-02,-5.581905795884497049e-03,1.164709553122520447e-01
3.163908613852814966e-01,3.028055400280424969e-01,3.279358525086750742e-01,-1.961061860544750096e-03,-5.149108526828663490e-03,-2.665184574413943623e-03,2.422967366874217987e-02
3.626822157964827986e-01,3.037267804902983870e-01,4.112527049267653556e-01,5.241367939021958355e-02,3.710940007990305711e-03,5.263971053550043841e-03,1.306305974721908569e-01
3.652241902064078394e-01,2.433914565890540616e-01,4.033636122634126631e-01,9.846392006183489476e-02,-3.039577389561888294e-03,3.457981183782445761e-02,2.316136807203292847e-01
3.119107226353710627e-01,2.517696677412746276e-01,3.196533269190688920e-01,4.033374655076907289e-02,1.965447497244976124e-02,-2.820674115527331202e-02,1.121103540062904358e-01
4.215384971278151038e-01,2.112361670171167272e-01,4.000674750100127186e-01,3.255764620896625661e-02,1.286963972200528931e-02,-3.455001576090255266e-02,2.177858203649520874e-01
3.777847144490263931e-01,2.021886793467559951e-01,3.708601781274901699e-01,3.565749596381040387e-02,-6.990741239851308055e-03,-4.785890659284719809e-03,1.835638582706451416e-01
3.461731055412768931e-01,2.240299760649483996e-01,3.566872935390111299e-01,3.197411216958319369e-02,9.986949978267097711e-03,-8.513007992421927142e-03,1.410581171512603760e-01
3.458555507370588700e-01,3.301722223083434216e-01,2.630124134895208132e-01,-8.391550078480563418e-03,1.117211411231276708e-02,2.773448514698007364e-02,9.328988939523696899e-02
3.450562818617696204e-01,3.151693356870629570e-01,3.134509854730098133e-01,-1.898543270528602273e-03,4.583910518150972798e-05,8.072062742941332877e-04,3.098891675472259521e-02
4.750381825154410542e-01,2.660415329170091603e-01,5.501272306543680823e-01,1.718404275381709145e-01,5.659788590047980933e-02,1.148862168885741303e-02,4.044807255268096924e-01
3.089366420511312494e-01,3.085302781801465555e-01,3.071821157986046047e-01,-3.217301442370540474e-04,-1.297388951330656084e-04,-6.294876898457256540e-04,2.019977662712335587e-03
2.189602635787911145e-01,3.965933613700100002e-01,3.527636891755039916e-01,9.440028538851549800e-03,1.686171307259396596e-02,-8.632980604185280099e-03,1.644166558980941772e-01
1.121100223470091750e-01,3.258406762991762351e-01,3.322519012776251057e-01,-1.432609640631237261e-02,7.187974274504366039e-03,5.080137751422718513e-03,2.189527451992034912e-01
3.616812225405712788e-01,3.088385602810372332e-01,2.059921132470916016e-01,-2.903221172241028658e-02,-2.786349645668919142e-02,-6.166320689178621250e-02,1.872677356004714966e-01
1.949826206312799126e-01,3.657437146701322805e-01,3.836849426871573043e-01,-1.509663286675673975e-02,2.971380906781376577e-02,5.778564892028580265e-03,1.896774470806121826e-01
1.893436913991699000e-01,3.527354901954962707e-01,3.454729889401104148e-01,-1.181781090994637497e-02,1.880506379885046181e-02,8.608157897588425422e-03,1.651216745376586914e-01
3.838079397171070273e-01,3.942586547654790552e-01,3.613102824702894011e-01,-2.915415675673671894e-02,4.885717573373096756e-02,5.349760455622857430e-02,1.383742243051528931e-01
3.750679305198049152e-01,3.533564633305216196e-01,2.744024456626611430e-01,-1.346039327315179043e-02,8.479169624406302647e-03,4.255040570212275525e-02,1.208725720643997192e-01
3.377554224360826973e-01,2.993277799486006030e-01,1.499222102402217871e-01,-7.372395112606794018e-03,4.888163044652630435e-02,8.482502360701713040e-02,2.417791634798049927e-01
4.179299334315873526e-01,4.399674947782827861e-01,3.243230833376762323e-01,6.811096806309521745e-03,5.216589679682877290e-02,7.217890890290032911e-03,1.406060904264450073e-01
3.352495065963508325e-01,3.681429826755176493e-01,2.688031335155519619e-01,-1.858083739025594150e-02,5.939585432481617883e-02,1.367609676224486141e-02,1.409368813037872314e-01
3.225727290646882017e-01,3.158383817573088836e-01,3.331066875611506384e-01,1.400941397538087467e-03,4.573728716812091449e-03,-1.190455103642466556e-03,1.732488162815570831e-02
3.221956680971939102e-01,3.156251817476150578e-01,3.328492811716754485e-01,1.401202693103434068e-03,4.468225712465058452e-03,-1.190600951648893577e-03,1.722521334886550903e-02
3.313177227939747005e-01,3.011031704320966118e-01,3.270170880507482503e-01,3.096393349020610392e-03,6.295330312100854732e-03,-3.112248222059536742e-03,3.127599135041236877e-02
3.079963407694328303e-01,3.088866475593473049e-01,3.354469420802760338e-01,3.272104614721513781e-03,-2.618977670188275299e-03,4.387842970374342816e-03,2.898870967328548431e-02
2.898689102302109966e-01,3.040810813273983060e-01,4.035249385469477645e-01,-1.526227812515782989e-01,-6.879919922848742875e-02,-3.899477649455171391e-02,3.164605498313903809e-01
5.303412567818042156e-01,3.298480086091747920e-01,3.539093144706499383e-01,-8.551359828497358956e-03,-5.883137946217535837e-03,-1.382784028566533263e-01,3.060037791728973389e-01
2.350139304319648625e-01,2.826612464641627409e-01,1.981338796325063933e-01,9.284090841360163882e-02,-1.006791863451352298e-01,9.306376673291526236e-02,2.960362136363983154e-01
3.389949428887682470e-01,2.796428783649286265e-01,3.170590004929614292e-01,2.521672055406732563e-03,3.614888667466863593e-03,-5.904030952722134906e-03,5.352346226572990417e-02
3.426708276054363234e-01,2.680242189532764385e-01,3.156024624946746626e-01,2.614254278948645316e-04,1.492792289345885089e-04,-9.062028286211691250e-03,6.731183826923370361e-02
5.294677768630579040e-01,3.332514206856198591e-01,5.588391868179478639e-01,1.314101148758388682e-01,6.669178680342963128e-02,-5.157939059044410607e-02,3.438854813575744629e-01
3.094893933038224687e-01,3.767233516147900918e-01,4.454146756618588832e-01,-7.910922120843175143e-02,-3.895776911673184961e-02,-1.093788282031458656e-02,1.937630921602249146e-01
2.249020874184488317e-01,1.965578968469303967e-01,2.916047397781776906e-01,-1.232802549330304503e-01,-8.900410132587287249e-02,-1.020212892301165658e-01,3.282187581062316895e-01
3.125146693331286030e-01,3.133651914361283985e-01,3.409472048204073014e-01,1.187651806071706850e-03,-8.929264515029608279e-04,1.670774492695195493e-03,2.828335016965866089e-02
2.631784332953002736e-01,2.554613677164483398e-01,3.544287208273118051e-01,-1.437272364263459945e-01,-6.919785839812407635e-02,-1.259450549260304197e-01,3.647114038467407227e-01
4.329737513152743800e-01,2.151745571630517828e-01,3.817021785936161593e-01,4.894207287027037799e-03,1.844087485820112421e-02,4.866804981650540984e-02,2.170164734125137329e-01
3.396363492651206517e-01,2.612929988189539587e-01,3.101975062896448199e-01,-3.481334188809868339e-03,-5.414874238223961467e-03,-6.846836049000658807e-03,7.044818997383117676e-02
3.353246847792232255e-01,2.567531824782844363e-01,3.401484770894418475e-01,-4.810671680991145290e-03,5.457393782009883551e-03,2.500592064715878755e-03,8.217845857143402100e-02
3.393988017253514178e-01,2.527390066320598372e-01,3.410670737308219569e-01,3.994878018068901727e-03,5.910418424943290373e-03,-8.149339040370642828e-03,8.949405699968338013e-02
3.483718462224597023e-01,1.977626383365034823e-01,3.456001964166750540e-01,8.477449102192601352e-03,-2.010282075435000648e-03,1.807721385432432132e-02,1.532366126775741577e-01
3.498481787537969234e-01,2.344160899930980702e-01,3.411897119302704229e-01,6.898774481734577455e-03,3.791850534104561615e-03,3.300205863875708880e-03,1.123328059911727905e-01
3.721048077154825440e-01,2.710583782664996999e-01,3.643056244885918282e-01,-1.116800153341703905e-04,1.143523514248581674e-03,1.193687619522573219e-02,9.957186132669448853e-02
3.299674208591814040e-01,2.851830618473021883e-01,3.477789084800413932e-01,4.643142757787811076e-03,2.248099764555228953e-03,-1.640197998047470112e-04,5.657280981540679932e-02
3.396726298616756234e-01,3.146738087263096784e-01,3.148631270169985341e-01,-7.663849076692097039e-04,1.005773993423199342e-03,6.290929403700146454e-04,2.502455189824104309e-02
3.313296954786358328e-01,2.570993217641084350e-01,3.061698927636494760e-01,-3.925778787570612452e-03,-1.000236660332751160e-02,-7.739983831569353066e-03,6.929387897253036499e-02
3.753555774077243501e-01,2.337543056293666377e-01,3.739687745594697521e-01,-8.087750009405514015e-03,4.424005713060532446e-03,-7.696871991508394580e-03,1.424399763345718384e-01
2.652671918015335195e-01,3.412800962532909210e-01,3.536708419527710423e-01,1.731568358378299949e-02,3.852691374711168446e-03,-1.876134531268025454e-03,8.847562968730926514e-02
3.402838921372729475e-01,3.172729468469175362e-01,3.141249059719700698e-01,-1.028794595436902017e-03,7.211637671115434835e-04,1.068140902144382176e-03,2.490002848207950592e-02
3.209556004950711028e-01,1.263882474855715921e-01,3.423585070314035250e-01,-9.186903944850949300e-02,-1.952725768211761165e-02,-7.549307494311931210e-02,2.933260202407836914e-01
2.798959509932303913e-01,-4.299352686223342768e-02,3.092300204541296726e-01,1.195540761521000639e-01,2.015788024993092967e-02,-7.939465191652049850e-04,3.983593881130218506e-01
3.227221676659736138e-01,2.904182546764607631e-01,3.225072654101092118e-01,-3.502341288079128222e-03,-8.850782786725481383e-03,-4.540520313690505141e-03,3.701761737465858459e-02
4.322997873784258926e-01,2.135142475402332929e-01,4.256734978414977166e-01,3.401808918383797398e-02,2.039261566967390249e-02,-1.244452968294360549e-02,2.272556871175765991e-01
3.570544825878990136e-01,2.886224756798295710e-01,3.795227661484757986e-01,2.072876022439314181e-02,3.024826113709962877e-03,-5.380861840019388054e-03,9.015912562608718872e-02
3.398913208262174246e-01,2.460799862659338866e-01,3.485849276069278857e-01,-5.856609274638083576e-03,-4.457653230482628431e-03,-4.225105111301667368e-03,9.953778237104415894e-02
3.803347206560052651e-01,1.802227829576453499e-01,4.010823675004305811e-01,6.159528341930197749e-03,1.836944124197743486e-02,-8.511268151742860250e-03,2.144074589014053345e-01
3.029419924827741473e-01,2.892491728654350003e-01,3.349384193690840283e-01,-4.475616330706890661e-03,-6.734756717807962971e-03,-2.834376987882841932e-03,4.323946312069892883e-02
3.308567513955497086e-01,3.396733798275962668e-01,4.316473424940922010e-01,-1.538141709471149143e-01,-8.022826751200948237e-02,-9.464230372180937323e-02,3.556760549545288086e-01
3.390006378804366061e-01,2.534176225672821747e-01,3.380441275426261938e-01,-6.656107073887004670e-03,-8.140889001808484030e-03,-6.410614698860368256e-03,8.774125576019287109e-02
3.393723983213172146e-01,1.540018211070053045e-01,3.394153060915187092e-01,1.529595725898883624e-02,-5.835572809027740875e-04,6.594503581246896791e-03,1.876261979341506958e-01
3.660569557107097860e-01,2.178111094019619109e-01,3.592188857167497584e-01,4.152178004565531405e-03,-2.142248937524418150e-03,-2.090226937891642538e-03,1.452187001705169678e-01
3.544032450723636485e-01,2.167553753722234189e-01,3.544229591716125949e-01,-8.988121819755602983e-04,7.293924842231397712e-03,-3.264460234265840078e-03,1.383605748414993286e-01
3.606594721467141218e-01,2.461660491598464118e-01,3.676934090395108656e-01,9.168088229173679618e-03,5.908376196615033188e-03,-9.374336875125104801e-03,1.207645758986473083e-01
3.062740989689632376e-01,2.983958544013883829e-01,3.470374894807533028e-01,-2.300594533992016827e-03,1.142466077936061218e-03,-1.395381374941592918e-04,4.543915763497352600e-02
3.856307141280500006e-01,2.644034751872208489e-01,3.810663632784526689e-01,1.446521258969568104e-02,4.998891743604355273e-03,-9.859810245449570493e-03,1.231174021959304810e-01
2.657212116375026190e-01,3.171583257187725602e-01,3.205334627819624860e-01,-2.176822197283556637e-02,-2.085491502544101552e-02,-1.384810777254397510e-02,7.830986380577087402e-02
2.983738851787047786e-01,2.990648236347163702e-01,3.324155236317644646e-01,-2.138284673937969511e-03,-2.930916797923459067e-03,-3.890080930975701231e-03,3.493816778063774109e-02
2.759698525718262130e-01,3.415136268792147156e-01,3.260434621851631132e-01,-2.044790871625550011e-02,-2.168424260406467963e-02,-1.369906198959701393e-02,8.215413987636566162e-02
2.328912129242258211e-01,3.233594269626597351e-01,3.030348921894867043e-01,-1.478853629104301404e-02,-1.814213906791888042e-02,-1.438964216224234739e-02,9.499242156744003296e-02
2.639004581372924596e-01,3.187384907139340084e-01,3.216992318580609300e-01,-1.035258674809885759e-02,-1.004582295100985012e-02,-1.278410234501002433e-02,6.552038341760635376e-02
3.538642026932917184e-01,3.330921241400061628e-01,2.306849175231345250e-01,2.905938055373858981e-03,5.040340757269856989e-03,3.211243685696672789e-02,1.274405717849731445e-01
3.593486139122489265e-01,3.666960866515663886e-01,2.490441261496972314e-01,6.796336601470802895e-03,-4.583071453630370440e-03,8.557909661887953129e-03,1.159863024950027466e-01
2.876460406010220017e-01,3.061939521476725878e-01,3.351371589629665859e-01,-3.760916192243396981e-03,-2.571295075434745607e-03,-7.681048329364595709e-03,4.424741864204406738e-02
3.004601250765865927e-01,3.189232778114882705e-01,3.452030186104018683e-01,4.102354514131972135e-03,9.695224616040440564e-04,-1.159896090977881366e-03,3.967447206377983093e-02
3.073500525430731822e-01,3.286864286689344938e-01,3.436215505980768081e-01,5.158271451809860221e-03,3.760900489581284114e-03,-3.070861524215777374e-03,3.387487679719924927e-02
4.384648740719262472e-01,5.385222756326691895e-01,1.974805569806886152e-01,6.034678683129113957e-02,-7.130446179757098102e-02,3.167864356616482274e-02,3.484049141407012939e-01
4.089950222391607881e-01,3.947280029680180213e-01,2.603312808602433748e-01,-1.043891300133132846e-02,1.555397391900472520e-02,5.075778568905961463e-02,1.701917052268981934e-01
3.291240256053540869e-01,2.783851238087313162e-01,3.488808132471536982e-01,4.171337841808794335e-03,-2.747753992844775058e-03,1.302004615030076615e-03,6.361714005470275879e-02
3.250147388117245462e-01,3.069962903780322772e-01,3.533573324763961132e-01,1.954563258147520161e-03,3.684906142974661569e-03,-9.174251612624062394e-04,4.115067794919013977e-02
3.130876546901011359e-01,3.151664539514513197e-01,3.493140773052563763e-01,1.278942751245506701e-03,9.062665025018440358e-04,-3.626544721758618466e-05,3.533755242824554443e-02
3.953709429688514465e-01,3.660923851405881169e-01,2.525932151655086999e-01,1.919129034738634859e-02,-1.194079075638057943e-02,4.580714547487006738e-02,1.577654480934143066e-01
3.427456989030159829e-01,2.412804423382634844e-01,3.509999270038229313e-01,2.667236295428513163e-03,3.249465914410820926e-03,-5.053947967027527539e-04,1.060878559947013855e-01
3.179421615761869324e-01,3.269289324482080317e-01,2.072054982738144868e-01,3.965810205724484144e-02,-5.296908794124071534e-02,9.098595855760033269e-02,2.265156507492065430e-01
3.335561112656716398e-01,3.451015201007328059e-01,2.017552672949648740e-01,5.805273349075153015e-03,-2.877955081635273984e-02,7.053499121930453981e-03,1.475181430578231812e-01
3.366581366382156992e-01,3.160361875124982345e-01,2.788687527851915204e-01,-8.166739383404897357e-03,-4.536282178414778599e-03,-6.130123617743187675e-03,5.429275706410408020e-02
3.326196224698539927e-01,2.828548620303263372e-01,3.583587802921865961e-01,4.008717747458992453e-03,-5.417964114103057671e-04,2.245475046765054751e-03,6.696383655071258545e-02
2.554074275112784287e-01,3.640439631054532277e-01,3.862771333095729176e-01,1.374225890336167391e-02,1.941059006711382678e-02,-7.482568660813040777e-03,1.287492662668228149e-01
2.946600117959121690e-01,3.326160774712703661e-01,3.383615002655638304e-01,3.345488894612833226e-03,-6.115407301842873400e-03,7.734280902160068499e-03,4.491074755787849426e-02
2.420354884636321535e-01,4.071480783147765070e-01,3.951985488771222466e-01,2.300508948782393343e-02,1.994362099151185744e-02,-7.852695267523067749e-03,1.685167104005813599e-01
3.443108290354909284e-01,2.269519732677968138e-01,3.311201717726056093e-01,-6.208904040745545291e-03,-3.102019480521692879e-03,-1.060635314036350099e-02,1.134947463870048523e-01
2.888611747470472557e-01,3.291909905200378628e-01,3.481809391181610036e-01,-5.184919892323064036e-03,4.308563836919502107e-05,6.747832486960965090e-03,5.449980497360229492e-02
2.813779348190703633e-01,3.606871621286947271e-01,3.737382405700683252e-01,1.090079686196201471e-02,2.805830204059302051e-03,-1.773725121330547094e-04,8.874429017305374146e-02
2.813786612481528060e-01,3.747773521944258168e-01,3.765835233600353660e-01,4.486478977375601973e-02,-4.438461215540335028e-03,-9.168967631911422583e-03,1.234711706638336182e-01
3.236004240521112019e-01,2.845525758645892078e-01,3.059695348357936995e-01,-3.303659976658436439e-03,-1.010097283533941889e-02,-4.241082419853941729e-03,3.924189507961273193e-02
3.434497951128796522e-01,2.410553516913024330e-01,3.496460371262991584e-01,2.247747653214862001e-03,3.139939353926482317e-03,1.683139144009933048e-05,1.058405041694641113e-01
3.595174729864363816e-01,2.259718228001987572e-01,3.511812679848341223e-01,1.119035318862680829e-03,1.917001014599760411e-03,-5.905432990489865863e-03,1.300387382507324219e-01
3.730716043538883087e-01,2.704045747709624137e-01,3.576362007661636477e-01,2.099795846829525560e-03,6.086035914450051328e-03,-8.093088745247060262e-03,9.754437208175659180e-02
2.880451098274493527e-01,3.315614283205945423e-01,3.502776858193697440e-01,6.388750868991138927e-03,6.809758870846137346e-03,-6.815086890453355729e-03,5.881610140204429626e-02
3.614032423846434972e-01,2.673087232941866453e-01,3.414182014972195756e-01,-8.306171825364704747e-03,1.006310173024680711e-02,1.268220584961398008e-02,9.146577864885330200e-02
2.611063082239221678e-01,3.362689288633449181e-01,3.430906585713628387e-01,1.453797989081898404e-02,7.502781305471857044e-03,-8.760897414175600195e-03,8.509928733110427856e-02
3.449075099064551897e-01,2.048523226134724429e-01,3.490597668213485938e-01,-5.232588524005151592e-03,-9.345082224449991794e-04,-3.007499401582046112e-03,1.425697654485702515e-01
3.396309060407548541e-01,2.495226984945735915e-01,3.586921182415641063e-01,-6.563137487696156167e-03,-2.733716813114861650e-03,-2.778857768796676956e-03,1.018587276339530945e-01
3.176945744337106303e-01,3.973987507689101806e-01,4.049449260653437133e-01,4.710314371812900081e-02,1.748878977260912709e-02,-3.250085913236432436e-03,1.208988949656486511e-01
2.979936618845511198e-01,2.925087801555218969e-01,3.428824243061834864e-01,-4.074063781042181615e-03,-3.065935032982695669e-03,-1.743374425709580226e-03,4.876890778541564941e-02
3.401192072917745834e-01,2.537097477831301573e-01,3.377656577232466817e-01,-6.455411618537527929e-03,-7.993350859450980631e-03,-6.538902240804410348e-03,8.782786875963211060e-02
3.142307677763506724e-01,3.225733757094629284e-01,2.862470892125461575e-01,-9.291036303051124906e-03,-9.494881098224161597e-03,-7.876349353571846651e-03,4.244621470570564270e-02
3.620828175425153672e-01,2.278973363857751677e-01,3.615751957700713559e-01,-6.365147048790947663e-03,2.999707662300365920e-03,-4.647454731175895627e-04,1.344881951808929443e-01
2.917144228945384721e-01,3.129567517473579863e-01,3.457091822207495335e-01,-1.487186830442003768e-02,-7.785192286807018913e-03,-8.092212882819114356e-03,5.710948258638381958e-02
3.039507168359242839e-01,3.049281728521948676e-01,3.474236144595428399e-01,-7.751576199105479972e-03,-3.655761769948905841e-03,-3.790268358806181230e-03,4.595441743731498718e-02
2.895862864992830299e-01,3.071588267743876055e-01,3.484231274354475105e-01,-1.605641947503843453e-02,-3.579737419606352639e-03,-3.084093437168340147e-04,5.957188829779624939e-02
3.369616425325173137e-01,2.441711699552796544e-01,3.556782043212075584e-01,-9.366116396233411384e-03,2.899406904732098472e-03,-1.083749059523685630e-03,1.048285067081451416e-01
2.339300064627134745e-01,2.378723901271434793e-01,3.271635986677690622e-01,-6.747504793849698479e-02,-1.096330623603673435e-02,-1.316886325840110200e-02,1.512612551450729370e-01
3.097168852353194279e-01,2.910676093581555657e-01,3.475602349946695924e-01,-2.032085524704755133e-02,-6.707613719217488807e-03,-4.571463920494359123e-03,6.262705475091934204e-02
3.177859324420005960e-01,2.712640142515491681e-01,3.437105524919146782e-01,-6.675353943795866302e-03,-4.143903051648977626e-03,-2.938991497388161647e-03,6.521923094987869263e-02
2.883195098240505794e-01,2.949983180330100763e-01,3.406312365281156662e-01,-4.762881235948104863e-03,-6.413394447520104954e-04,8.305292129250310034e-04,5.003100633621215820e-02
3.036381514682210403e-01,3.022530239936252472e-01,3.431499989378227200e-01,-9.452362269971808324e-04,1.101342609146174854e-03,5.781033050172715900e-04,4.031321778893470764e-02
2.868818555328795372e-01,2.944940003747487656e-01,3.386312000661008681e-01,-4.885778784636792514e-03,6.095094324053767582e-05,8.796136305961670902e-04,4.915242269635200500e-02
2.678744446565511916e-01,3.551301093648011054e-01,3.522643059219566219e-01,5.805460513075804199e-03,9.743455511753791945e-03,-4.754354079522961699e-03,8.846147358417510986e-02
3.076200678502860608e-01,2.765978482094983426e-01,3.343150066988933022e-01,-8.904219477477191141e-03,4.200714431491080203e-03,1.285469851506311446e-03,5.290448665618896484e-02
2.612297065025207532e-01,3.833054972531318438e-01,3.853801340615219950e-01,1.277481586843302180e-02,-1.724158817377022777e-03,7.246810298441181721e-03,1.257621645927429199e-01
2.776682189668227552e-01,3.678252042759734275e-01,3.603889567712059705e-01,-6.291621757204007674e-03,1.433693290241752627e-02,7.288397973166392367e-03,9.169465303421020508e-02
2.517066385173952758e-01,3.557529154675700411e-01,3.664319447359105641e-01,5.397339182152637721e-03,6.907058020475345152e-03,-8.648852705691166152e-04,1.108311489224433899e-01
3.170231395841221489e-01,2.958642673733603012e-01,3.471874963326159191e-01,1.425792093715119030e-02,1.751374476591439910e-03,8.100710711069027993e-04,5.115531012415885925e-02
4.207469568967196483e-01,3.615661084246646895e-01,5.960270132887730554e-01,-1.470345496323871015e-01,3.242370827487599944e-02,1.302008759583590108e-02,3.363311290740966797e-01
2.313204833828403917e-01,3.917202229034769667e-01,3.674909928098417655e-01,2.427626413328511784e-02,2.473483175618251470e-02,8.916073175483550054e-04,1.613524109125137329e-01
2.400727324679075847e-01,3.403316284555819582e-01,3.051700003545319562e-01,-2.991584955308436780e-03,-1.541244990919124133e-02,1.357513991628137105e-03,9.223843365907669067e-02
3.185424316664547395e-01,3.010611445650816509e-01,3.464394837040654651e-01,3.314996269278657707e-03,-2.351439324902154532e-03,8.377150082925385020e-05,4.026280716061592102e-02
3.207611746746641956e-01,3.118073976184243534e-01,3.212750554883581633e-01,1.578265110255493674e-03,-5.069495438312613886e-03,1.131697820610211161e-03,1.317003089934587479e-02
2.245564538151144651e-01,3.500126650839615050e-01,4.157983203092691094e-01,8.366949407382837101e-02,2.922101992249104274e-02,8.616094812416300389e-03,2.282680422067642212e-01
2.106274651744393378e-01,3.216569223138158184e-01,3.396340155133048544e-01,2.530727401863935508e-02,5.666872046610323121e-03,2.326440017573946353e-04,1.290913671255111694e-01
2.691115585578481850e-01,3.626789207933582282e-01,3.521105193473344497e-01,1.633189929760487866e-02,-2.645521869463882819e-02,9.763415751283787899e-03,1.051831096410751343e-01
1.864063558486952210e-01,3.321114436690453808e-01,3.414831137399596539e-01,1.639920072087393266e-02,-1.286820272392049866e-02,1.530979121965688220e-03,1.548996567726135254e-01
3.104676618115784770e-01,3.241777964257628875e-01,3.121636556433571297e-01,1.618647682189545273e-03,1.945504854446826470e-03,-3.601194215342782938e-03,1.502373814582824707e-02
3.611863140977636388e-01,2.304016588545949873e-01,3.619501942399704353e-01,1.660627335705089185e-03,4.065970433128522979e-03,-7.395291127246812930e-03,1.320115625858306885e-01
3.176660411289434771e-01,3.274781917089133465e-01,3.250790565575725211e-01,6.157990000936483868e-03,8.821144295038234676e-03,-6.892164875919822888e-03,2.383693680167198181e-02
3.221872224099142645e-01,3.379136027943849263e-01,2.838431296084024114e-01,5.590464440094591696e-03,-6.684155360537748745e-03,6.535263510036377259e-05,5.048176646232604980e-02
3.158322110663071003e-01,3.275756263878688013e-01,2.949517379040179077e-01,7.866710979697589395e-03,4.478923797412439137e-03,-4.032782871172200731e-03,3.337271139025688171e-02
3.630616812180415542e-01,3.875994248088787675e-01,2.525492792163908651e-01,-2.240410462335531289e-02,-7.942757481509263306e-02,-5.320249985061712567e-02,2.108325958251953125e-01
2.987016249306451710e-01,2.949176735515771086e-01,3.465096490384558803e-01,1.341835112697473999e-02,-3.093593571068423836e-03,5.490265082329468145e-03,5.603681877255439758e-02
3.204315187806075493e-01,3.341438708974036609e-01,2.970416759661544948e-01,5.672979124482545668e-03,5.992005728245139440e-03,-5.644379493120787843e-03,3.681956976652145386e-02
3.205869061686133503e-01,3.053109613885243157e-01,3.482797874138568450e-01,2.915945961873519284e-03,-2.764526301724291174e-03,1.146615662975023972e-03,3.841438889503479004e-02
3.182486036947552721e-01,3.313672151754855077e-01,3.045635562776347061e-01,5.919415811293153237e-03,2.312087068874958684e-03,-2.271052901402520301e-03,2.599107660353183746e-02
3.147874065790470244e-01,3.043144445905676676e-01,3.087943151987142532e-01,7.632034829484794433e-03,7.643875575762638583e-03,-7.788012628056078038e-03,2.479565329849720001e-02
3.126769314318757487e-01,3.160029079094275883e-01,2.976126765903924221e-01,6.978746460192929851e-03,4.885434420883180001e-03,-3.913657103043069810e-03,2.348954044282436371e-02
3.072654380109381966e-01,3.502437995506265667e-01,3.201140881964827933e-01,1.129618806015864280e-03,2.284337542034224362e-03,-2.404826756463824893e-04,3.846647590398788452e-02
2.807925908884685851e-01,3.531409101729199307e-01,3.462000537637731079e-01,2.682984916288435120e-03,-6.460066420815669189e-03,5.512882571551752306e-03,7.083970308303833008e-02
3.511452160665453626e-01,2.493395496608940831e-01,3.654350938089813150e-01,3.057525881510068239e-03,7.133304069012872707e-04,-1.374862473602671536e-03,1.098117828369140625e-01
3.191890688242252638e-01,3.514545132132310679e-01,2.854075343869335590e-01,8.972025969429725523e-03,1.523168328161472913e-02,-1.503830128808579091e-03,6.493470817804336548e-02
3.529120298059330030e-01,2.183322547674523828e-01,3.526310353003920262e-01,-5.823159661066100792e-03,-3.316110201359665204e-03,-5.401085401146437162e-03,1.352634876966476440e-01
4.234908192967631324e-01,3.020582078410151139e-01,4.044029772412759960e-01,2.890865109354939788e-02,-3.977405414961396671e-03,4.987030646852936427e-02,1.510234028100967407e-01
9.446713030698963842e-02,1.910297266063250288e-01,3.174424513345171506e-01,-1.579153447894958429e-01,-3.600280610127048336e-02,-2.317858073825659199e-02,3.432540893554687500e-01
2.780977933736932250e-01,3.345858204479215114e-01,3.004434958379370579e-01,1.832668335206503584e-03,1.065963677107316723e-02,-1.197643211759605482e-03,5.275628343224525452e-02
3.464568621238537927e-01,2.912556406249548480e-01,3.338867403043631055e-01,-2.840365393907149164e-03,6.751660067847706226e-03,6.923892911902881399e-03,5.306670814752578735e-02
3.193739886315561383e-01,2.744048282906668135e-01,3.513329726463947367e-01,-6.992175332235889620e-03,-2.541870337200702150e-03,-1.866045409491394989e-03,6.824421137571334839e-02
3.223363682614712178e-01,3.498760707278131266e-01,3.106427316490510404e-01,-2.079649808228289237e-03,1.813118353901804758e-02,4.833603058251399916e-03,4.781737178564071655e-02
3.062994766692458404e-01,3.464928882858453463e-01,3.161667527541946465e-01,-6.469722180531121318e-04,4.280300427842425454e-03,-8.168645560671724962e-04,3.707417473196983337e-02
2.883306670303736885e-01,3.445692271233715687e-01,3.162047372616887397e-01,2.519052994142270490e-04,6.487085009376934198e-03,1.810197547872191722e-04,4.998677223920822144e-02
2.944696902168870700e-01,2.824156521946672438e-01,3.370692377547397922e-01,-7.666461353684413636e-03,-5.774147657470104708e-03,-4.456885672854312905e-03,5.300429835915565491e-02
3.503789891780097476e-01,2.553411081415689621e-01,3.459483184868587524e-01,-1.024137937897441966e-02,6.963120071283677472e-03,4.696163904435959012e-03,9.569233655929565430e-02
3.488582010337461514e-01,2.236215018401956078e-01,3.240519378131162531e-01,-1.230022379532610260e-01,-9.375562109803900479e-02,-1.010868056202755272e-01,3.400111198425292969e-01
1.844985999747178751e-01,1.535268988477951069e-01,2.562683397416406494e-01,-1.317346673407637225e-01,-9.831482849044576033e-02,-1.090905059187383674e-01,3.536872565746307373e-01
2.469803869497709525e-01,1.803272993347932729e-01,3.512315857606944647e-01,-1.153426512139096305e-01,-3.351641646442254929e-02,-4.592695069692025178e-02,2.680844962596893311e-01
3.480948169814563342e-01,2.171879816706326627e-01,4.058026186166165949e-01,-1.154469396583300694e-01,-6.127094865578378707e-02,-3.449294762196438574e-02,2.878138422966003418e-01
3.718691472751665117e-01,3.082588561553212259e-01,3.820271543106109058e-01,-6.664683785109215552e-02,-4.467004508027154486e-02,-7.200584692448816493e-02,1.991526484489440918e-01
3.418024904254055030e-01,3.162902510941112966e-01,2.944464475401331049e-01,-8.473723507872028132e-03,-8.167642642511943954e-03,-1.727167915973236434e-02,5.473377555608749390e-02
3.286167260036200743e-01,2.596581219369542004e-01,2.303191205449747758e-01,-2.850015403175957737e-02,-2.805717499189239184e-02,-6.426489716215225134e-02,1.575676500797271729e-01
3.279183647646424782e-01,3.265384752824544434e-01,2.973364417580235397e-01,-8.709457105805833155e-03,-9.317866919493825867e-03,-4.629559848344590861e-03,3.804324939846992493e-02
3.316008760735841276e-01,3.178463339191996417e-01,2.586188943660028272e-01,-1.313468583674799739e-02,-7.370472958857470294e-03,-9.926181900068064418e-03,7.407996803522109985e-02
3.270916382838369718e-01,2.997465259097953916e-01,2.662937276354978566e-01,-9.644799948494254399e-03,-6.005047989206260643e-03,-7.682623516133233778e-03,5.784403160214424133e-02
2.988305307569488756e-01,2.944515636093006927e-01,3.387847074849521523e-01,-1.975907517664400766e-03,-2.157003658084897559e-03,-1.413228006537862579e-03,4.268643632531166077e-02
3.185670398077171117e-01,3.233679627549305713e-01,2.760453938557594911e-01,-1.031966885390403314e-02,-5.426355954596106049e-03,-3.187201353373577545e-03,4.973509535193443298e-02
3.474042555175772540e-01,3.518964959727822750e-01,2.278125536815833463e-01,-2.297769243793980950e-03,2.185093190204324270e-02,2.797439275023812233e-02,1.365852057933807373e-01
3.706105151455119651e-01,3.623277725468749821e-01,2.790431585316985319e-01,-1.336311975965683886e-03,2.805560019821810771e-03,4.218963164719443867e-03,8.818801492452621460e-02
3.425705429996069862e-01,3.312943325573580733e-01,2.588337384666223873e-01,-3.391421508631724778e-03,1.563542760972857354e-02,3.541044432232387518e-02,1.035585626959800720e-01
3.857696076739315361e-01,3.848940077067031784e-01,2.100214230359407352e-01,1.076007704651149068e-02,3.395066967903072764e-03,5.518452803345202939e-03,1.766566783189773560e-01
3.781867119684393375e-01,3.783118500807116646e-01,2.567968378836939514e-01,6.751617162445631287e-03,-6.880342724795634546e-04,2.080350814297275350e-02,1.272290796041488647e-01
3.663231293155506108e-01,3.637830732639084630e-01,2.199003954237820357e-01,-1.649588260552779101e-02,-6.986158126396344037e-03,2.571659529286317303e-02,1.549869030714035034e-01
3.219380751127990936e-01,3.052452975630084442e-01,3.553701658677697606e-01,3.312106489151367839e-03,-2.875288113171878051e-04,4.016973163812560051e-05,4.458240792155265808e-02
2.590962138117189340e-01,3.544173671555899685e-01,3.290604948833659171e-01,3.397309428047116681e-03,-2.912523719348498671e-02,-3.099630352998301516e-03,9.960087388753890991e-02
3.114710955046762209e-01,4.502924360674111504e-01,3.873131057477444128e-01,7.061037231748782533e-03,-7.281392873042046021e-02,6.822486816321091455e-03,1.751847714185714722e-01
3.119711169458399547e-01,3.091628271546603690e-01,3.408022934843734641e-01,1.642088407997271482e-03,-2.107751101277041596e-03,7.702167783306554600e-04,3.071296773850917816e-02
2.685847384491822365e-01,3.642632470048666748e-01,3.560045182730479651e-01,7.588992685969735141e-03,-1.331378481642480488e-02,8.294418153322921650e-03,9.666096419095993042e-02
5.145666570709069854e-01,5.452354031178461291e-01,1.869254610054356947e-01,2.327329335574816402e-02,-5.860722259995294198e-02,-5.399555570193227683e-02,3.728452622890472412e-01
2.287527586571102001e-01,3.740383131494007252e-01,3.450617676783506171e-01,2.287255971551443307e-02,-5.846281618984003337e-02,-4.495903513994455383e-03,1.721088737249374390e-01
3.354236491524537622e-01,2.956402116993112617e-01,3.504150210949593114e-01,4.558634034448387495e-03,-4.620860630869491267e-03,1.571256453348666158e-03,5.037537589669227600e-02
3.399280391976085558e-01,3.050131285271897030e-01,2.995794451279298332e-01,-2.079687543951959199e-03,2.037661727392445124e-04,7.054168526979104868e-03,4.000845178961753845e-02
6.673056744915761840e-01,4.337580252446820994e-01,5.163301996304543451e-01,6.000586551949902564e-02,8.130340369527885858e-02,-1.282540848005939427e-01,3.493684232234954834e-01
1.944152926356497724e-01,3.419406871402415615e-01,2.795326033383272457e-01,-7.842472617148345954e-03,-5.915082258335654236e-02,-2.453983679195473593e-03,1.647749096155166626e-01
2.287475847659267980e-01,3.629814215911412179e-01,3.695660089587072816e-01,-4.419397069480896986e-03,1.802888545869365871e-03,-9.425908576673548743e-04,1.379020065069198608e-01
3.025157921484997736e-01,3.355598198299789559e-01,3.011827224263881608e-01,5.274737223399032608e-04,-3.526327833299313231e-04,6.304956598341268040e-04,3.376588597893714905e-02
3.496468862050919335e-01,2.785074776742473834e-01,3.493296450019881538e-01,5.195581568623281604e-03,-5.638690106345456768e-03,4.293746119156235420e-03,7.259492576122283936e-02
3.517147227125529962e-01,5.622309593066786571e-01,3.389589950661495710e-01,4.641649440042151797e-02,-1.572136741479501776e-01,4.170881501769477251e-02,3.646859526634216309e-01
2.380482534618466595e-01,3.631000560053437298e-01,3.742324555925694018e-01,1.180427822931682657e-04,-1.670855293145499364e-03,-1.132597446115605555e-03,1.310201287269592285e-01
3.030152816557028506e-01,3.295032766061188334e-01,3.161877119157099902e-01,2.211090818861293633e-03,-2.839281037157107609e-03,3.849386662712497940e-03,2.468846179544925690e-02
2.531511946634526500e-01,3.682225030073736916e-01,3.730698356218893896e-01,-5.023381613156227554e-03,7.802676455360676826e-03,-9.741365144585135624e-04,1.186755523085594177e-01
7.584721842514438594e-02,3.438407531217602675e-01,2.804465830972804885e-01,-5.819872381982895207e-03,-1.042526356736879350e-01,2.582966495432126221e-03,3.026179075241088867e-01
3.444229142861465198e-01,2.922072502337725308e-01,3.337914480675469031e-01,2.264065215599108880e-03,-5.694927277284798223e-03,5.414198013576490033e-03,4.984967038035392761e-02
3.205617478094678341e-01,3.576572312847357549e-01,2.698830868935772065e-01,3.123254728491030741e-03,-7.129661044836082574e-03,8.594170152888481106e-04,7.751339673995971680e-02
2.692312086051729669e-01,3.258797628389427659e-01,3.258570515059397432e-01,9.805425772786095090e-03,-1.126836534557916665e-02,1.182957073190089511e-02,6.555116921663284302e-02
5.945773399563367700e-01,4.584950945151466950e-01,2.573931701685058249e-01,2.579951283657333852e-02,5.307997899161998392e-03,-8.565235432129503224e-02,3.322907090187072754e-01
1.457241801581314056e-01,1.847106252110767011e-01,3.101972675845421357e-01,1.270732618988544838e-01,9.732392114879098721e-03,8.762373103573670857e-03,2.666766941547393799e-01
2.390550415351796743e-01,3.607763322084229229e-01,3.703697647329696752e-01,-7.912662004533273924e-03,3.426816684951194351e-03,1.622682962521183707e-03,1.276980489492416382e-01
2.518598102274126060e-01,3.717702935128704977e-01,3.689227479331830262e-01,-1.373912097577341222e-02,1.360494095097314424e-03,-2.067331615176355979e-03,1.209539026021957397e-01
1.502351022018835747e-01,4.978881353038749347e-01,4.636563965990426750e-01,-5.421586352787065993e-02,-1.087067238073638753e-01,-9.631647303584064262e-04,3.929452896118164062e-01
3.163517175787662339e-01,2.693231710365677212e-01,3.471693733963147621e-01,-7.372334156713150621e-03,5.067552602072455167e-04,4.542438202659762440e-04,6.910257041454315186e-02
1.651303151862550112e-01,4.525634626180316533e-01,4.821509788471287639e-01,-5.078374179304891850e-02,-3.332391206726082952e-03,5.205733000025137419e-02,3.284780681133270264e-01
2.660505265335940672e-01,4.412813487188657624e-01,4.303913107998340037e-01,2.129992514414410371e-02,9.009071031882070341e-03,7.792555321239882406e-03,1.752223968505859375e-01
3.560128285648859192e-01,2.257183170192337274e-01,3.615590862855372345e-01,-6.111326623141765009e-03,1.943177568455517175e-03,-5.995435915873085619e-04,1.336207985877990723e-01
3.364677416231335316e-01,3.096323088013253066e-01,3.080700228319571132e-01,-5.157406339025978961e-03,5.277858663556848212e-03,5.846354303204293057e-03,3.209998831152915955e-02
3.500210631777830872e-01,2.470308804883112885e-01,3.454092391235324966e-01,-3.363324394798392764e-03,3.245796292072617405e-03,4.785274665234595659e-03,1.014273762702941895e-01
3.076055664178835025e-01,3.370057911663007499e-01,2.986786451718633217e-01,1.769473252670960249e-03,-1.686241464321997299e-03,2.642961220282895318e-03,3.529016301035881042e-02
2.204223042463438198e-01,4.044126065505514456e-01,3.901382778841332444e-01,-1.872516099489913988e-02,4.480189267562344549e-03,-2.613696874338934575e-03,1.804507076740264893e-01
2.582691321729727041e-01,4.255716437626762549e-01,4.267422920713869194e-01,1.973997078921266302e-02,9.452093325537940308e-03,1.188367517692678725e-02,1.733437180519104004e-01
3.083593563838932239e-01,3.304961251528151234e-01,3.045698223733916965e-01,4.288529065596582979e-03,4.726297597650629470e-03,-1.617795911116821309e-03,2.680158615112304688e-02
2.014176290246842971e-01,3.680941325244941886e-01,3.819958980109493529e-01,-4.121420037062581074e-03,-3.298774252933156514e-02,4.464956112810413748e-03,1.834850162267684937e-01
2.000309084951530370e-01,3.842015190598969676e-01,3.605251997850935086e-01,1.553487565228869709e-02,-9.376881989415762966e-03,6.265125298494478995e-03,1.767043620347976685e-01
3.232794858574848385e-01,4.227762456603072483e-01,2.860107266631048972e-01,-1.369051419423623732e-02,-6.499667715397954015e-02,-2.401990725399598056e-02,1.730998307466506958e-01
3.599274051360944471e-01,3.343887801683564365e-01,2.034242566564973542e-01,-1.800547769426263933e-02,-3.926937591441496955e-02,-3.109333029347001801e-02,1.721853911876678467e-01
3.271514447271436365e-01,2.787718071305425593e-01,3.638513419366133372e-01,-6.979863415400729652e-03,5.205914084181752569e-03,2.029946204953507645e-03,7.551702857017517090e-02
3.341348084967520893e-01,3.509302923877235525e-01,2.329940137716220716e-01,-1.214614376193313104e-02,-9.069727094684898461e-03,-1.223585658871338515e-02,1.155368834733963013e-01
3.584343326368485405e-01,3.316637912933996235e-01,2.348561446740564385e-01,-1.267024210157933518e-02,-1.152140270311840381e-02,-1.021217377559896847e-02,1.177823171019554138e-01
3.667759253532840713e-01,3.471205408504554613e-01,2.360958240162121524e-01,-9.428815769924404943e-04,1.009929286998340146e-03,-7.582024859804681154e-03,1.227731406688690186e-01
3.181689424089857443e-01,3.045039314903112415e-01,1.643133378074029816e-01,-7.901831845505450161e-03,-2.570689784440024703e-02,-3.858903506376158699e-02,1.685023158788681030e-01
3.049834486848525539e-01,2.854090453514448456e-01,3.424417989545598395e-01,-4.897997188741378717e-03,-9.326994434143813257e-04,-9.630834751107424097e-04,5.095952749252319336e-02
3.260470469456223097e-01,3.098769837100893154e-01,3.415715340170315528e-01,-1.189208090172736744e-02,1.006243607524106437e-02,1.066754700304983761e-02,4.269572347402572632e-02
3.193495766150146742e-01,3.310124224913879032e-01,3.436057260671550040e-01,8.480631338176457951e-03,-8.626592658810616071e-03,7.885856754278740277e-03,3.266596049070358276e-02
2.859452568871965750e-01,3.085337057183413778e-01,3.169775414667265756e-01,1.759325945761049809e-02,-1.208487377247237197e-02,1.376992841823091070e-02,5.203655734658241272e-02
3.187609633942147802e-01,3.019850687970852543e-01,3.271419203417681998e-01,4.154958066773934734e-03,-7.971577219851391088e-03,2.888589415406677373e-03,2.756320312619209290e-02
2.870527488204444033e-01,3.229981128928468559e-01,3.183243338161137470e-01,-3.884943174499591503e-03,-4.005657808965844974e-03,-9.535740221517454568e-03,3.888596221804618835e-02
3.071271233719620741e-01,2.879203965894897577e-01,3.288937985200248715e-01,9.444618935082946948e-03,-7.679436814796991584e-03,3.834843856669267314e-03,4.182576760649681091e-02
3.197055672253784064e-01,3.064033582071274409e-01,3.444816201048500615e-01,4.189953215397373282e-03,-4.210166610233693867e-03,1.291323415545381345e-03,3.508879989385604858e-02
3.261213087348771578e-01,2.768475092918735170e-01,3.381934239138167930e-01,-9.437190024343258127e-03,1.258678274205813491e-02,6.212904962380076668e-03,6.345664709806442261e-02
3.547623866811857596e-01,7.485153570635660891e-02,3.239650348789723244e-01,-6.214844800619098719e-02,-1.200534251313606360e-02,-9.530143283283516731e-02,3.315792679786682129e-01
3.977773004303578608e-01,2.309379772179671053e-01,3.640605850953877454e-01,-1.371889938033933674e-04,1.017952504948349025e-02,-2.655009292051938377e-02,1.605383157730102539e-01
3.337539070028923138e-01,3.369614048008243712e-01,3.415792109927898723e-01,1.945914443664193208e-02,-2.011644408625053171e-02,2.066204028017352978e-02,6.063969433307647705e-02
3.610356763450018880e-01,2.850684265220251312e-01,3.566386523259384989e-01,4.084853413011627771e-03,-2.499386728532122359e-03,4.042107050669313008e-03,7.466017454862594604e-02
4.029587094893948285e-01,1.831605499844565221e-01,3.720159708858236103e-01,-1.313623246487013833e-02,-2.040170437462836793e-03,-1.905426543863333877e-02,2.099687904119491577e-01
3.424745477555724005e-01,1.491772730423523985e-01,3.431867919599634331e-01,-7.988921071078073505e-03,3.549744714263789250e-03,-2.034238211945058397e-02,1.974151134490966797e-01
3.327040083224581113e-01,3.438774229506039171e-02,3.396248644075750556e-01,-4.935934583088248673e-02,5.259175312347621339e-03,-1.657928180264639853e-02,3.151535093784332275e-01
3.332937802809751160e-01,3.026007804866687190e-01,3.336058357095129101e-01,3.571001305652393883e-03,-6.874630063696546799e-03,3.405228958808591277e-03,3.415494039654731750e-02
3.802061412336744106e-01,2.325071412209060995e-01,3.771961630893084783e-01,1.828332784542959465e-04,-8.311257534695696636e-04,-5.340384133598129190e-03,1.465169489383697510e-01
2.933423313884157002e-01,3.366474581495811358e-01,3.112515982043470575e-01,2.256055004095476428e-03,-4.341061968668100818e-03,2.010223515375293875e-03,3.878710418939590454e-02
3.650290738204929331e-01,2.610217361089844923e-01,3.547834074116353875e-01,-8.800745770754388707e-04,3.010863713224678877e-03,3.915977102827808941e-03,9.966142475605010986e-02
3.786697439374870910e-01,1.842819540328277661e-01,3.522092502800096558e-01,9.688529408718379865e-03,-8.252389035195720202e-03,-4.019623935593134856e-02,1.966629028320312500e-01
3.181377108243402252e-01,3.160150233534669839e-01,3.405234737731399064e-01,2.548507913533217158e-03,-5.122248098097465299e-03,5.206175385424367287e-03,2.706761658191680908e-02
2.305270792884446807e-01,3.337186324956600281e-01,3.310771517876638370e-01,2.704843963945119042e-02,-2.849789957157596032e-02,1.756514258808545420e-02,1.262526959180831909e-01
3.729576056073714563e-01,2.430637400385963764e-01,3.623311560021773015e-01,-2.398470287084517039e-02,-7.813463278676272689e-03,-2.776930169697696196e-02,1.408097296953201294e-01
3.663205811979128868e-01,2.264102282961088508e-01,3.707701055319069239e-01,-9.109547031174610159e-04,1.968894052557049537e-03,-5.970946404501645266e-03,1.426124721765518188e-01
3.187699483586841631e-01,3.105614988245486430e-01,3.098392691408881072e-01,2.262621239214009962e-03,-2.876600302682275935e-03,1.559319264896754254e-03,1.101389713585376740e-02
3.744047520740836910e-01,2.368299165532812278e-01,3.670240617405028938e-01,3.519754032885634692e-03,5.941413805514896528e-03,-4.265125472850161623e-03,1.347722262144088745e-01
3.464612694150256411e-01,3.104530920493882018e-01,3.133919245435222156e-01,-6.594013630041999389e-04,1.099868396775012525e-03,1.732110375963788560e-03,3.483299911022186279e-02
3.616911101902418602e-01,2.530515049316955367e-01,3.508526231687988939e-01,-3.934520583380062518e-03,6.175778295819629900e-03,4.785265212720790119e-03,1.047478243708610535e-01
3.756529822987127454e-01,3.621782229125205532e-01,2.798670093186831354e-01,1.124572561268978171e-01,-1.168065897770816791e-01,8.002331675813167955e-02,3.258040249347686768e-01
3.736348736469822240e-01,2.376076866499340079e-01,3.575327914046911304e-01,-5.660000372572941349e-04,-5.654880757867720986e-03,-1.448476764251804827e-02,1.315244138240814209e-01
3.798439769423980761e-01,2.546959490933648484e-01,3.697581220670559388e-01,6.558552640307196632e-03,7.869150170879796527e-03,-9.418547281879244976e-03,1.228107064962387085e-01
3.647902947000130069e-01,3.299750702286258219e-01,3.153000828650929233e-01,5.006867086094740193e-04,2.942675972283965210e-03,1.849427556019099528e-02,5.469198152422904968e-02
2.864351533604468925e-01,3.342021529873752117e-01,3.564899530555206697e-01,2.070816298951906956e-02,-8.256434620218095627e-03,1.167569402962433459e-02,7.578264176845550537e-02
3.258170123867810131e-01,3.537803368081660071e-01,2.793056602701806668e-01,6.786859624593940057e-03,-7.111888533348108103e-03,7.034162062416040272e-03,6.844139844179153442e-02
3.749103760807562802e-01,3.671919838064308661e-01,2.754412770254028864e-01,-5.006211476958330247e-04,2.282203262950509032e-03,1.370146004273957961e-02,9.882055222988128662e-02
3.518007673625653253e-01,3.299741230475509157e-01,2.462672651401870139e-01,5.702084565356260563e-03,-1.248461090656164015e-02,2.823097731385099812e-02,1.107537001371383667e-01
3.742912592123757154e-01,3.500318976930915649e-01,2.665208903744736291e-01,-2.526848114794890982e-03,-2.065293195693439915e-02,3.223241930500937713e-02,1.183389276266098022e-01
3.514745895842880663e-01,2.519194337141307249e-01,3.425211982949368239e-01,2.892473131763774810e-04,-1.412369634161850544e-03,4.810263912377400579e-03,9.578980505466461182e-02
2.965344805226275415e-01,3.429455830112981829e-01,2.938059767280242762e-01,3.251902398467458122e-04,-2.214965340693061599e-03,-6.710285664546142802e-04,4.800473153591156006e-02
3.129076463362217564e-01,3.441852592114660325e-01,3.183625711732928631e-01,-6.617337360043380572e-03,1.212259443967708510e-02,7.912458871776547470e-03,3.996859490871429443e-02
2.938027391272796107e-01,3.558458175965343862e-01,3.109476635259936783e-01,-3.102620993703918140e-03,-1.888204048525193857e-02,-4.002879530236813643e-03,6.500854343175888062e-02
2.946719854822955065e-01,3.489574131294275183e-01,3.050956780779126021e-01,-8.149925723291246912e-04,-7.772991925510610786e-03,6.004568874377214788e-04,5.171110853552818298e-02
3.486478789878130757e-01,3.016394793592834800e-01,3.230537606814586349e-01,-1.196390732052730801e-03,-4.131269522295449859e-04,4.391283335830097403e-03,4.152548685669898987e-02
3.636982122061778178e-01,3.321202945730836742e-01,2.918422826953780413e-01,1.520888223134894864e-02,-2.736972576783674050e-03,3.621133812156901444e-02,9.242058545351028442e-02
2.839705258932186394e-01,2.839607510128169254e-01,3.329128496883001498e-01,-1.680318465319857041e-02,3.295281638532526064e-03,4.553546603588615183e-03,5.777241289615631104e-02
2.630266814421103883e-01,3.370741547044542874e-01,2.910624995333908616e-01,-3.031116492735653860e-03,-1.211251827228868039e-02,-3.398015412243200403e-03,6.852295994758605957e-02
2.984183572524373718e-01,3.028241623613729394e-01,3.368241216846794561e-01,-1.582895650247075113e-03,-1.856091964082264359e-03,-2.135080801717490710e-03,3.683385998010635376e-02
2.609238610832113059e-01,3.251524140661990470e-01,2.862182812195508408e-01,-4.473264399545151537e-03,-1.105835604597915980e-02,-6.465402614078272908e-03,6.076830625534057617e-02
3.370488224394723731e-01,3.124704646779004613e-01,3.576837500134326109e-01,2.210068731024229446e-02,7.643697377509644716e-03,-1.669411067052450209e-02,6.335414946079254150e-02
2.438269215209098728e-01,3.634774851608633672e-01,3.379129686560845558e-01,6.635892133123164061e-02,-1.074483428661257844e-01,7.617666205707512850e-02,2.777869701385498047e-01
3.020737842567050579e-01,3.005511962340802756e-01,3.365233129597374195e-01,-1.347305924269998024e-03,5.173874776412009085e-04,3.022438168408460909e-03,3.570987284183502197e-02
4.254275666983997062e-01,2.035496185712408201e-01,4.332430613227228333e-01,1.886708595396434096e-01,6.057073356797509911e-02,3.903644160360196513e-02,4.164049029350280762e-01
3.310165992665214385e-01,2.884787680780971364e-01,3.491728814623652477e-01,-6.273028892121146859e-03,7.436299582675046614e-03,1.347486156377585096e-03,5.657598376274108887e-02
3.083274313289786628e-01,2.695589449235218371e-01,3.828747636370032903e-01,3.904674074279160245e-02,5.875115716814882606e-04,2.360620360164446783e-03,1.205905675888061523e-01
3.419771953705097456e-01,2.772335430453691241e-01,3.622616236505371567e-01,4.182540872046186520e-02,3.020974817636711690e-02,-2.419085025576288989e-02,1.251321732997894287e-01
3.206981645722996599e-01,3.099465809151532580e-01,3.595345756024886374e-01,1.857298127027987716e-02,-5.829334823417357120e-03,3.807537387842044665e-03,5.676018446683883667e-02
2.969138646160182637e-01,2.548070188471797670e-01,3.620478915930612218e-01,1.045027588228909926e-01,4.838587708009829680e-02,-2.343403239916803590e-02,2.240346819162368774e-01
2.675997993810441122e-01,4.341277965884511314e-01,4.088168925373301121e-01,2.021593132757887323e-02,-3.271899847318215926e-02,8.898726356640282442e-03,1.698012202978134155e-01
2.818288718941448501e-01,3.404672756503717701e-01,3.503610754038822273e-01,1.839518806225245301e-02,-1.252053503556714055e-02,1.024991939495190248e-02,7.692287862300872803e-02
2.296685153222663422e-01,3.361127417243938154e-01,4.333999537251472245e-01,-1.188949234389168885e-01,6.316977441379537095e-02,9.229254788919441510e-02,3.332924246788024902e-01
2.223039036838550531e-01,4.473741039511744400e-01,3.316171159889146347e-01,1.281380137404680153e-01,-1.993525284741836864e-02,-1.874426226471207629e-02,2.991774678230285645e-01
2.269607739196491392e-01,4.138728957350038540e-01,3.845493202405514954e-01,-1.376787934897961974e-02,-4.926393581762988222e-02,6.738105154735923169e-03,1.957057863473892212e-01
2.934451014500232824e-01,3.220009273362649527e-01,3.087993339910484747e-01,-2.246764487319213681e-03,-2.137903649665597386e-03,-7.846969806964941563e-03,2.874570339918136597e-02
2.820497720832108035e-01,4.001347738494895334e-01,4.231260343009599079e-01,4.924068199713739491e-02,1.285989293944989932e-02,7.212748526301889819e-03,1.584731042385101318e-01
2.509436935119603307e-01,3.763559509264001735e-01,4.071783418023178780e-01,2.274680503792864822e-02,1.528303681215719030e-02,2.508723420175091364e-03,1.510483622550964355e-01
3.485907947525128114e-01,3.112426083286349288e-01,3.146732211504867371e-01,4.985634195494520818e-04,3.847912123760075095e-04,1.735287328313016818e-03,3.589919954538345337e-02
3.047363181836933443e-01,3.045789714679981719e-01,3.356962792236474202e-01,4.941036077788645380e-06,-3.197266842822480467e-03,-3.929417311020880210e-03,3.225529193878173828e-02
2.933256858184138394e-01,2.903559011509302956e-01,3.216715386931847109e-01,-6.215267592123831751e-03,-5.681726957630317716e-03,-8.112795633598453987e-03,3.614796325564384460e-02
3.120343775024067012e-01,3.092364913953076222e-01,3.296863814141067217e-01,1.097999903946789493e-03,-2.802925943393189470e-03,1.430289803017585105e-03,2.005325071513652802e-02
4.161981231325036501e-01,3.433960366885975835e-01,2.278554254864213480e-01,-1.371390754602893648e-02,1.902471181456476127e-03,1.015174968446187070e-01,2.419790327548980713e-01
1.567913635768993785e-01,3.428205010242053041e-01,3.357368123278900995e-01,6.442009907063278931e-04,-1.261613659841850921e-02,3.976983922780051063e-03,1.840256601572036743e-01
2.526995247218073448e-01,3.300427208554496117e-01,3.490818477932637331e-01,1.617245847997690264e-02,-3.943762471686946408e-03,7.963092640055867422e-03,9.401352703571319580e-02
3.560570353617023009e-01,3.739570135847903321e-01,3.495807650059867822e-01,6.936386292934790254e-02,-4.651856360849409427e-02,5.361513183931330279e-02,1.732858568429946899e-01
3.262361439596042634e-01,3.241569364877922577e-01,3.262034595816927229e-01,8.676385699292410436e-03,-1.108662475055798187e-02,6.517598982722319634e-03,2.694943919777870178e-02
3.363380996665335521e-01,2.931408822778130974e-01,3.645145389540299652e-01,4.780675718414192574e-03,6.092230057053782399e-03,-1.252430467830939042e-03,6.373124569654464722e-02
3.219144208048409506e-01,3.185992962252868765e-01,3.257617176924316182e-01,3.453934272903457729e-03,-4.085620627204404609e-03,4.365452322109194920e-03,1.347528863698244095e-02
3.221029042072168780e-01,3.096468867838777506e-01,3.403999581226703763e-01,2.997831173000552098e-03,-5.540384012313411335e-03,3.330754585562706403e-03,2.949870005249977112e-02
2.604111030188913656e-01,3.450653105690723588e-01,3.557851341464075001e-01,1.498815924926283523e-02,-2.714175169498645249e-03,3.035639137670373498e-03,9.440554678440093994e-02
3.387411289655625213e-01,3.930091615250018711e-01,1.843627199578358189e-01,-1.008256775039797701e-02,8.235097492522275298e-02,4.634772465174587242e-02,2.494992613792419434e-01
2.820859935195635382e-01,3.139376327899270902e-01,3.542368245197541343e-01,2.243627913989636527e-02,-6.753525277298377642e-03,3.176483958448086432e-03,7.482919096946716309e-02
4.776469990201531179e-01,2.729924661070288749e-01,4.612330465676029445e-01,3.160283161095931576e-03,1.888206793725136223e-02,2.449622534179583463e-02,2.041897624731063843e-01
2.964172168590493150e-01,2.931635401200483049e-01,3.327630675757199952e-01,-1.813602024697816154e-03,-1.899357920883068974e-03,-1.738679127493107570e-03,3.846588358283042908e-02
3.431887675106029545e-01,2.419549334714285183e-01,3.229474885728024214e-01,-2.569263662795591430e-03,1.883523441721161396e-03,3.292207803460594356e-02,1.090455502271652222e-01
3.442788412312239865e-01,3.083361863519159529e-01,3.237232404514970296e-01,1.233774886328944248e-03,-4.037095020003617779e-03,3.567937367311548556e-03,3.266857564449310303e-02
3.348012375372090843e-01,3.345914057783898610e-01,2.452928287297027610e-01,-5.698511053033918257e-03,-7.814953315453367771e-03,-6.191375395174702687e-03,9.158960729837417603e-02
3.418796957632337374e-01,2.074282463309310431e-01,3.418232276411962145e-01,1.410660672517810230e-02,-7.031365170497812407e-03,2.383477950914284285e-02,1.432452499866485596e-01
3.542431048282691508e-01,2.373709550477733077e-01,3.490336904131722262e-01,1.179641061625943781e-02,-5.538644655594618209e-03,1.166668340059553305e-02,1.183014437556266785e-01
1.741623472624100888e-01,3.644133510283709132e-01,3.059844753569722076e-01,1.204582748369352752e-01,1.049871437706589306e-01,-7.164272367454610491e-02,3.471148908138275146e-01
3.183438542256603609e-01,3.223455114887656126e-01,3.199893345890854612e-01,1.022470824537393373e-03,5.168530815096590006e-04,2.416920408470401953e-03,5.796419922262430191e-03
3.219697286966503036e-01,2.673278910218704341e-02,2.629666084370531620e-01,8.662126721875941862e-03,7.424709394266545449e-03,1.009686598122228190e-01,3.228015005588531494e-01
3.348788402927871943e-01,3.154351976104636246e-01,3.271636821889730151e-01,2.086571584081572776e-03,-4.868437044378294207e-03,1.882829508467165867e-03,1.955427415668964386e-02
3.172480308393316739e-01,1.656311021156329499e-01,1.716503665005630341e-01,-3.159499698051584926e-02,3.232688805227264955e-02,1.416745227817474140e-01,2.974157631397247314e-01
3.695793590873732715e-01,2.607670054930940062e-01,3.831278608092570925e-01,1.281698423680146040e-02,-1.767062362736925799e-03,4.970706772589680161e-02,1.463301181793212891e-01
3.581433225446573054e-01,2.655534098891928485e-01,3.428028707353752425e-01,1.548238687067648393e-03,-2.794100444903287487e-04,1.709683668944881468e-02,9.095153212547302246e-02
3.325048868223360321e-01,3.214395443121138563e-01,1.813913958059006071e-01,-3.699114623867828366e-03,-2.322578790490705675e-02,-3.723471760107324724e-02,1.646336615085601807e-01
2.929520494406998021e-01,3.156588418168092547e-01,3.322351088224196891e-01,7.665536323700289367e-03,-5.866954897684043164e-03,8.994302981815020803e-03,4.109747335314750671e-02
3.413931701960740694e-01,2.888336915985589837e-01,3.318654417416530555e-01,-2.349869989031723363e-03,5.569932510877898674e-03,6.874008759380621780e-03,5.102840438485145569e-02
3.221916804608355722e-01,3.178326430238400668e-01,-6.889397191827792422e-02,1.364838022777650761e-02,-2.104415491268123856e-02,1.031333046177848167e-03,3.913474380970001221e-01
3.386664966144743993e-01,3.285202738238961473e-01,1.802425237338534658e-01,6.974593341522901391e-03,3.871117553414463001e-03,-3.413381142797587697e-02,1.651663929224014282e-01
3.501995959454310414e-01,2.879116615489692999e-01,3.328201545552640916e-01,1.358689692198185653e-03,-7.405188769101137642e-04,8.531415447490545145e-03,5.766143277287483215e-02
3.686641431012867565e-01,3.584132774593191684e-01,2.395690422036392264e-01,1.330248748912460496e-03,-1.183651864440252860e-03,-1.290171365038355819e-02,1.263177096843719482e-01
3.298202951581603593e-01,4.090701895732730686e-01,1.208973874791786085e-01,1.125346810465237789e-02,-7.919972211676368223e-02,-3.574583505735692140e-02,2.991946637630462646e-01
2.186580957313516982e-01,3.513449194485416816e-01,3.311942636849267707e-01,-6.169926596743281581e-03,-1.722094626956528762e-02,-3.117464922455319941e-03,1.279498338699340820e-01
6.112537326839754259e-01,6.010507050524656059e-01,2.780376820575106711e-01,3.131809285201704596e-02,3.170135280467854810e-02,-3.506134293312621053e-02,3.426113128662109375e-01
3.413062859081047451e-01,2.998466098849325578e-01,2.976874368922567404e-01,3.695248492909274964e-03,3.629449181781790011e-03,-7.932701007452414022e-03,4.563279449939727783e-02
3.926608311534427465e-01,4.301638258993889519e-01,2.156284965317112612e-01,8.014873089686840035e-03,-5.445287913392344442e-02,2.587360417644638845e-03,2.202142328023910522e-01
3.669533926793280276e-01,3.564588009584141459e-01,2.807397316990519198e-01,8.254251385660915305e-03,-4.302098797332693653e-03,1.162009050671112230e-02,8.545850962400436401e-02
3.688493049497693077e-01,3.523434414988622643e-01,2.595750612197051943e-01,3.483710337065300689e-03,8.032771373953240951e-03,1.421898334194585979e-02,1.060479208827018738e-01
3.569849846340032995e-01,3.464579950475467074e-01,2.699118260203043351e-01,5.753093631038962326e-03,-8.390824931620026635e-04,1.453621439497101292e-02,8.666744083166122437e-02
3.205339695168377134e-01,3.183429195074618523e-01,3.290162938217317534e-01,-4.778801657647433962e-03,3.246793987802137384e-03,4.342920260344041578e-03,1.587622240185737610e-02
3.701017172481460005e-01,3.754529322454321916e-01,2.340454452224434156e-01,5.121216398578903872e-03,1.578277699272659634e-03,-2.058912361618271388e-04,1.391196995973587036e-01
3.101517175979213170e-01,3.338868426942798173e-01,3.220486057546729786e-01,-2.205298837609082855e-03,2.671850824537060944e-03,5.100849554141294664e-03,2.316420525312423706e-02
2.465212108092151577e-01,3.575035967572471329e-01,3.485108291471026298e-01,2.645944568171717040e-03,-7.437806401028263480e-03,5.291996689928314332e-03,1.080319508910179138e-01
2.150209986113005289e-01,1.659880645706435232e-01,3.304373851439694754e-01,1.268974386697358514e-01,1.734858237226585831e-02,4.819423932972590439e-03,2.658304870128631592e-01
2.881924209549693860e-01,3.667694854660213943e-01,3.841258300619457833e-01,3.623437499199468059e-02,2.180120114126833653e-02,5.496342183767892811e-03,1.153026670217514038e-01
3.135901158655200471e-01,3.071071877460807009e-01,3.679302227326926022e-01,1.186572672818621797e-02,6.576101886019028106e-03,-4.995225826376435870e-03,6.304075568914413452e-02
2.891315252472589359e-01,3.086846985870299598e-01,3.467754577103200342e-01,-3.624416376480244645e-03,-1.835090307245168051e-03,-9.011448527512969748e-04,5.128328874707221985e-02
1.827234476985688250e-01,3.067156289055443796e-01,3.408145047840773767e-01,8.901325816579880312e-02,3.594849412842594794e-02,-5.367229125322045546e-03,2.202230095863342285e-01
3.266071713182905900e-01,3.271225544756817261e-01,3.158219207116353400e-01,-2.802905726001767017e-03,8.668951784194151066e-04,7.232522124582905099e-04,1.222859043627977371e-02
3.300101801484142117e-01,3.019332587541093682e-01,3.324203297037238714e-01,-2.821507922412903012e-03,7.062538811693171159e-03,2.218718988157071959e-03,3.240495547652244568e-02
2.290559926253659118e-01,3.067136163503930701e-01,3.844367646402588878e-01,1.171273703347483486e-01,-1.168827654740490010e-02,3.063074072628959449e-02,2.499768584966659546e-01
3.316753199991425705e-01,3.204624793528002558e-01,3.935170152273484989e-01,5.055059577700155710e-02,-1.479224022654440814e-02,6.776522766045190924e-03,1.144719496369361877e-01
3.225655784045666219e-01,3.595754321374319273e-01,3.065992652749877090e-01,-3.238350523084026697e-03,-2.058428133017960876e-02,-4.167378247717663450e-03,5.975167825818061829e-02
3.175730083975744078e-01,3.153168663324807386e-01,3.335761448646288319e-01,-5.300522693049941440e-04,2.807260499697978966e-03,1.434404429632315852e-03,1.810948550701141357e-02
1.854353633307381510e-01,2.903385070429792547e-01,3.196874126285066953e-01,5.107048168182222458e-02,-2.403357829413164254e-02,1.849665324764063201e-02,1.597767770290374756e-01
3.381210791245196079e-01,4.207498333797337620e-01,3.895980661643889120e-01,-1.599664113772075041e-02,6.307019427169044401e-02,2.786369261675972556e-02,1.423175781965255737e-01
2.974738520842895584e-01,3.647380261709424198e-01,3.258312721861407746e-01,2.977651554565283014e-03,1.115206724411303002e-02,4.331716943665095063e-03,6.226692721247673035e-02
2.656194595805999592e-01,3.525367791150952335e-01,3.470563110051098077e-01,-3.542697020546105215e-03,1.671236159068068342e-02,3.071600788761375943e-03,8.951074630022048950e-02
3.540953735502014865e-01,3.060706383229662708e-01,3.263579211925436985e-01,2.706469742405880210e-05,5.173628819082891784e-04,3.731987107953299489e-03,4.226400330662727356e-02
3.030357730356626478e-01,3.446910380062696566e-01,3.185764309692138418e-01,-9.215357245667060021e-03,2.281365345767254887e-02,5.184314946112893521e-03,5.679886415600776672e-02
2.769896159040100558e-01,3.994251158702205595e-01,3.709241279242379008e-01,7.169697691976242848e-03,4.306332598815590385e-02,2.377222965099423310e-02,1.404497921466827393e-01
3.542553765770173335e-01,3.524188813399659614e-01,2.162820092303397446e-01,-9.462746444658605775e-07,-4.411519219598805316e-03,7.612386117491500535e-04,1.372834891080856323e-01
3.304883846817931459e-01,3.125990183549455792e-01,3.139267002818434404e-01,1.176293578603781120e-03,-9.141415356602890620e-04,1.423063571508878869e-04,1.745736226439476013e-02
3.208488862851295864e-01,3.776559864438109870e-01,3.378105616096546138e-01,-4.565570061943153104e-04,2.064947345885862623e-02,5.625830274614319632e-04,6.190297752618789673e-02
2.588506980007882485e-01,3.428566179358252253e-01,3.321248423012272410e-01,-7.867210447371549009e-03,1.716508123537529781e-02,1.713713591133490810e-02,9.067125618457794189e-02
2.582309998835463083e-01,3.492660799292761631e-01,3.423154713001221316e-01,-2.173317767824503761e-03,1.452165067497871928e-02,4.743214442905839545e-03,9.174555540084838867e-02
2.428941231891285635e-01,3.461136249631880379e-01,3.142558492416572813e-01,-1.508084552201596545e-03,-1.815293016119840300e-02,-5.073443398117551476e-03,9.722895175218582153e-02
3.470308135105220626e-01,2.707364213054375135e-01,3.205997368695059357e-01,-1.836505622635907888e-03,4.246884769058315002e-04,7.662985874473266130e-03,6.848150491714477539e-02
1.400284682366633726e-01,3.176594348574434679e-01,3.227175517421078110e-01,9.111642494595379935e-03,-1.840860477837520312e-02,7.195332180327989116e-03,1.841136515140533447e-01
2.513451393052104077e-01,3.695742874169294367e-01,3.774530998336954046e-01,7.312822566795265308e-03,-3.290994234228176562e-03,6.016679586575552491e-03,1.235849410295486450e-01
3.444008196193927285e-01,3.078884810247625170e-01,3.217683863073555472e-01,-1.910726907048535851e-03,6.016793975187881283e-03,3.508386575197310411e-03,3.428555279970169067e-02
2.526079714907905061e-01,3.734456132167160991e-01,3.650645760020268527e-01,1.146077064020128641e-02,-5.675986630626494653e-03,4.917320257075113998e-03,1.192580014467239380e-01
3.775806570630040326e-01,3.908773071421439704e-01,2.296747935580977229e-01,-7.966751758145734774e-03,2.155065215443714363e-02,9.465305526841504696e-03,1.608479768037796021e-01
3.306559642329719995e-01,3.409930976840186423e-01,2.264514715765990616e-01,-3.709723430522809517e-03,-8.252799963163248709e-03,-4.673589639653103617e-03,1.111474186182022095e-01
2.819544634313783660e-01,4.435193503849942931e-01,4.294893968914383353e-01,2.453285349976014676e-02,-3.549316573920298368e-02,1.793251469954773233e-02,1.748796850442886353e-01
1.878296556858119470e-01,3.145288886542700335e-01,2.859262012651676010e-01,2.788749944506489775e-02,-6.372100381835768546e-02,1.783684320966128639e-02,1.694566756486892700e-01
2.901722138722473421e-01,3.483505420310087364e-01,3.574037116736111797e-01,2.973517878564358591e-02,-1.056546835514172306e-02,1.426491203644964303e-02,8.712788671255111694e-02
2.430064210309740569e-01,3.456330210595259245e-01,3.597391394512508556e-01,8.623472247452596635e-05,-2.530657695592158050e-03,1.463510575388437401e-02,1.133166328072547913e-01
2.598629696265497557e-01,3.576051701435490338e-01,3.399680114269686415e-01,1.154517377293900679e-02,-1.719435568288845556e-02,1.637465169050141781e-03,9.713684767484664917e-02
3.443108355952455568e-01,2.885093830860737674e-01,2.888905383257525106e-01,-7.591037217331559998e-03,-5.899041850476880594e-03,-1.927981855943527653e-02,6.697074323892593384e-02
3.443210335772171615e-01,3.078350218953221917e-01,3.120926579816377666e-01,-6.619491319077817904e-04,3.400306670767179289e-04,1.648412849093548434e-03,3.469618782401084900e-02
3.518064219828784256e-01,3.147984973422277566e-01,3.009650512550096635e-01,4.094936047263743675e-03,1.056560136496819497e-03,-3.682404274498815404e-03,4.655354470014572144e-02
3.374046567762872262e-01,3.116737832210140224e-01,3.161788071472840245e-01,-1.390590516433884297e-03,4.934401739961223957e-03,1.928551368072496013e-03,2.562145516276359558e-02
3.396691461993101568e-01,3.020766570079603808e-01,2.737213697224179509e-01,-1.109501518239595225e-02,-3.602454976668043041e-03,-9.142177718014855500e-03,6.278640776872634888e-02
3.135218457092515121e-01,3.159111510666290923e-01,3.208011915984920748e-01,5.682867274460848012e-04,6.351383925248401492e-04,9.220490863471381875e-04,6.784884259104728699e-03
3.314434179190094421e-01,2.880023383709031104e-01,2.639806523318494191e-01,3.715312049680745757e-03,6.456519066385386744e-04,-1.457449256151556113e-02,6.471171230077743530e-02
3.258111672168488293e-01,3.256504114992513355e-01,3.164223697853644768e-01,-7.908337059008053310e-03,8.233832801305658936e-03,8.437388413656623370e-03,2.629159577190876007e-02
3.437742086435105482e-01,2.888244842903010534e-01,2.904421304482217581e-01,-8.587100560356791855e-04,-1.989602658348589603e-04,-1.260850115422814353e-02,5.841621011495590210e-02
3.314051857285699731e-01,3.129440584383948454e-01,3.226771798382488954e-01,-8.506775692229144505e-04,5.729843669501623500e-03,1.131119060569690414e-03,1.898328401148319244e-02
3.476825765802929458e-01,3.035981271622188449e-01,2.993820681336163969e-01,2.136381214818039789e-03,2.046087339480469162e-03,-4.669346252304281200e-03,4.731528833508491516e-02
3.498042499409703132e-01,3.056688207164945936e-01,3.039012379057524083e-01,2.149899678023606264e-03,2.603436112297017810e-03,-7.054703225285991960e-03,4.703806713223457336e-02
3.031788102047933697e-01,3.295643261543818592e-01,3.320658808828952924e-01,-2.205287546456464066e-03,3.204638779599532604e-03,7.503412832916360117e-03,3.134901449084281921e-02
3.489616961138918283e-01,3.019872733464430969e-01,3.024556672906855148e-01,9.902948659505579664e-05,1.639321711746978202e-03,-7.457429615469224858e-03,4.857720062136650085e-02
5.096121473308203864e-01,1.541097407529202767e-01,3.955856667812629457e-01,5.325122159522514831e-02,2.041751709459202480e-02,-6.402294805897942864e-02,3.477093875408172607e-01
4.014779829495664920e-01,1.307760463195053457e-01,4.789634811467520237e-01,-1.666602624114187775e-02,-2.372256566918234250e-02,-5.857179610638196809e-02,3.362625837326049805e-01
3.964577215203725080e-01,2.611987839074437212e-01,3.997003058443128198e-01,1.889703960913621805e-02,1.711566293306535091e-02,3.529157224957872596e-02,1.563032269477844238e-01
3.404516996470204893e-01,1.680236487799968148e-01,3.448559569143179737e-01,1.124524710203340591e-02,3.365233045003160946e-03,6.236466855221987383e-03,1.761824935674667358e-01
4.154731278220120116e-01,2.264197443085626815e-01,4.192150206899928344e-01,2.450886137587228106e-02,1.178972227208727533e-02,-1.323998601363885180e-03,1.966898739337921143e-01
3.501489461712022910e-01,1.575939196144743315e-01,3.430945419240786221e-01,-2.089351499317345512e-02,3.216159960693355281e-03,-1.640477342891113327e-02,1.947224736213684082e-01
3.529886863115367923e-01,1.616857106653333820e-01,3.495618998512118325e-01,-2.024693207211162443e-02,2.386477090520974093e-03,-1.784622797295531624e-02,1.953340172767639160e-01
4.287336040808957249e-01,2.784236060768998100e-01,4.304285408969771853e-01,3.795619807641481547e-02,4.226185790848303869e-03,2.401964654046996259e-02,1.701680570840835571e-01
3.628523278167740673e-01,2.222454422171666055e-01,3.639418629308333042e-01,-1.133157786652070828e-03,5.868339376830828888e-03,-3.013512905898439904e-03,1.416301131248474121e-01
3.233085929583562890e-01,3.142876603916906486e-01,3.169914335874829403e-01,7.644360564917273768e-04,-1.692585209753421369e-03,1.086087870216004194e-03,8.842140436172485352e-03
3.806314765859709626e-01,2.642386216856698056e-01,3.742582523089687530e-01,1.571990451350721574e-02,6.552989355818530405e-03,3.877569674123886902e-03,1.173089742660522461e-01
3.363032664906236979e-01,1.563785474001746501e-01,3.275827773398954923e-01,-3.484672726923401971e-03,2.698519881473071102e-03,1.725191455971029214e-02,1.784126758575439453e-01
3.250935968926698671e-01,2.847063437708127198e-01,3.263963969335403892e-01,-1.649683986380232059e-02,-1.256830883489013298e-02,-1.411174135067328264e-02,5.977618321776390076e-02
3.606338531500118405e-01,2.492444709318765161e-01,3.466268584840708211e-01,-4.245893447372309920e-03,-6.385082503306039898e-04,5.914684175119604495e-03,1.058480814099311829e-01
3.132028398776530720e-01,3.287147324075469501e-01,3.170735886918876201e-01,9.321363598606793085e-04,3.255137545553748730e-04,-1.735583023215490038e-03,1.440555881708860397e-02
3.110049694455968572e-01,3.292486958717471546e-01,3.123068742650309537e-01,3.049180301002693116e-03,2.034456590540594315e-03,-1.467288885310357761e-03,1.890886761248111725e-02
3.161308613364919307e-01,3.386978269026709731e-01,3.157884928983071271e-01,2.074203508370000767e-03,8.852478960632127010e-04,2.147943345084782937e-04,2.307612821459770203e-02
4.255388643836887641e-01,2.774523387712696798e-01,4.525122791674106026e-01,4.425095603044067877e-02,2.953380545913677699e-02,1.697764653782282973e-01,3.487332761287689209e-01
3.156241584595697036e-01,3.370494407788586777e-01,3.163922854868755907e-01,2.655300189711655434e-03,5.495063558630851330e-03,-4.285266357092411445e-03,2.469827793538570404e-02
3.331873474791678946e-01,3.520518295529639907e-01,2.340540942981655936e-01,3.660219054107439161e-03,-8.668486224469650753e-03,-2.807212490743080623e-03,1.110973879694938660e-01
3.445310315040567284e-01,3.103953663082667513e-01,3.082079597735871701e-01,2.901836157659734312e-04,-3.045929370881169697e-04,1.026291004666351429e-03,3.533253073692321777e-02
2.944898980399948685e-01,3.273151558053264965e-01,3.192998235174440702e-01,4.996587310854673850e-03,4.214000907917974173e-03,-8.482920630976425319e-03,3.496696427464485168e-02
4.716374350178879071e-01,6.557016126927656119e-02,3.784641646167864470e-01,-4.986389352298471744e-02,1.823193266010638509e-03,1.253411418890942181e-02,3.790485262870788574e-01
4.840297491399435659e-01,1.901926660206859632e-01,4.890891462778710341e-01,6.448129723012371861e-02,6.057787929395216237e-02,6.877141724263807765e-02,3.542930185794830322e-01
3.482678073584506429e-01,3.097182420405741321e-01,3.137441107431774845e-01,-3.370351912105093006e-04,1.275501388606592934e-03,1.611640122642066112e-03,3.687946125864982605e-02
3.874476622836989237e-01,2.148124384097974682e-01,3.691733392106252842e-01,1.760745959843716679e-02,2.002907504134835218e-02,4.360512520381810975e-02,1.866008043289184570e-01
3.707767063977833732e-01,2.841305149451894829e-01,3.536029037928936636e-01,7.822929117107219055e-03,-1.758925378770811749e-03,1.544838043399612490e-02,8.498994261026382446e-02
3.623731373153689650e-01,1.770730008660063581e-01,3.643327332851153399e-01,9.151105755412086706e-02,-1.494560946106759589e-02,7.272687504143841852e-02,2.763396799564361572e-01
4.548627985575840471e-01,2.928438587010570582e-01,4.352967343952232060e-01,4.930071785373665166e-02,2.454253874126599653e-03,2.263215060193067216e-02,1.797478497028350830e-01
4.085423494530779354e-01,2.834991087856392200e-01,3.547129867087850941e-01,1.291539302043235096e-02,3.924230693367358226e-03,3.546911209454992053e-02,1.269772052764892578e-01
3.638511657643163089e-01,3.730552843147611486e-01,2.903329809853757437e-01,7.343766142639290839e-03,5.576721472903890114e-02,-1.226833101463206677e-02,1.269235312938690186e-01
3.415339136555755606e-01,3.104646113311075317e-01,3.152144356892632726e-01,-8.242739087220133688e-04,2.626110195757108516e-03,1.956301098361398587e-03,2.957190573215484619e-02
3.947976203978205145e-01,4.428248856717559301e-01,3.332923349641072064e-01,6.593505122478476518e-03,4.433524706938010707e-02,1.582969860400321865e-02,1.257873326539993286e-01
3.142017613466011605e-01,3.316050354468227379e-01,1.486361838245802147e-01,2.803176511638672680e-02,7.300285751107346566e-02,-4.115442558523983718e-02,2.324282079935073853e-01
4.213622827367790036e-01,4.395510320972124685e-01,2.390366428448419400e-01,1.595218825516601935e-02,2.205543923222016284e-02,7.487357659954282669e-04,1.977730244398117065e-01
3.376708940299043560e-01,3.278608781167066666e-01,3.150456809183782569e-01,-4.154059768566898368e-03,2.102165315448791243e-03,2.239118340722635880e-03,2.159282006323337555e-02
3.818756382907177449e-01,2.726962876615854903e-01,3.143457508038933756e-01,-1.446900287591662039e-02,2.526884927329494865e-02,7.722272371185592843e-02,1.718755215406417847e-01
3.682195776498713435e-01,3.750634500444824382e-01,2.417626397169887753e-01,5.621436558098544430e-03,1.305332627577933738e-02,-1.978683468769492845e-02,1.366900801658630371e-01
3.451338772795722876e-01,3.761461470697020637e-01,2.337807362041664505e-01,1.803826505434986960e-02,3.369527127778206010e-02,-2.110000004547975261e-02,1.501082181930541992e-01
3.392553063416390846e-01,3.079937042469317876e-01,3.101597502960735109e-01,-8.202814855261952734e-04,1.394832692775044725e-03,1.876474227525691150e-03,3.053987771272659302e-02
3.318123612882751261e-01,3.194840183384785592e-01,3.102357957379287545e-01,-6.544551344054381353e-03,2.447688971565996005e-03,3.324787678223801394e-03,2.304696477949619293e-02
3.130281180853178302e-01,3.160775684234802263e-01,3.276194248243440299e-01,2.812068423278325617e-03,-1.848448146959638617e-03,4.450066522723801661e-03,1.646489091217517853e-02
3.194412117852152289e-01,3.193158143718416442e-01,3.163176271879326595e-01,-1.447065352054279809e-03,5.872050216494412861e-04,3.173376068334839628e-04,4.123026505112648010e-03
3.152438859396957671e-01,3.135342815280133810e-01,3.223135198532838253e-01,1.048927449778588785e-03,-2.427491923006406919e-03,1.093682828725655708e-03,9.463407099246978760e-03
3.441714583937656169e-01,2.818199598333903100e-01,3.452838619399758446e-01,-3.689764720160919505e-03,-8.210272953070306065e-03,-2.362723002650260820e-03,6.494707614183425903e-02
3.165100485232332228e-01,3.148345879119727742e-01,3.240650490381909998e-01,1.126143629394612975e-04,-5.863135390254937095e-04,1.017091502069027761e-03,8.758771233260631561e-03
3.122565963954282431e-01,3.010178563523274731e-01,3.271347402752572409e-01,-2.421565943227128002e-03,4.286876816728109850e-03,1.351584802181465643e-03,2.435332164168357849e-02
3.202812808940082578e-01,3.030539981637534463e-01,3.038379669740062239e-01,6.149138455144195076e-03,-6.424849067058367377e-03,7.950925897740237364e-03,2.666105143725872040e-02
3.313277834995935200e-01,3.115666081818095901e-01,3.186636393527106370e-01,-1.144361038337142695e-03,5.042869635025419572e-03,1.743785792535542051e-03,1.974762976169586182e-02
3.131680954634408209e-01,3.454733542818818059e-01,3.126214167385765741e-01,7.331274285874179726e-05,1.920322328524957153e-03,-5.052797110952821297e-04,3.276330605149269104e-02
3.194720442024392981e-01,3.411338732077653924e-01,3.052263848987578077e-01,4.466980444191540056e-03,2.230553284804921536e-03,-2.059998956866215120e-03,3.268454223871231079e-02
3.020922981155788611e-01,3.245782865901495340e-01,2.788800461885113657e-01,-7.778318039709411318e-03,-8.873840451725532874e-03,-5.224965782793681256e-03,4.545350745320320129e-02
3.240078779155742827e-01,3.475722719495845658e-01,2.431250821672544804e-01,-8.178267673320280956e-03,-1.518989614134436637e-02,-5.861804589124721201e-03,9.999597072601318359e-02
3.161971538876174326e-01,3.589830860213672481e-01,2.911622026758858284e-01,-4.205514945759744432e-03,-1.705542916913659057e-02,-6.797178297934478378e-03,6.777060776948928833e-02
3.086622049221982578e-01,3.107597749918445951e-01,3.288591984837027637e-01,1.428526717661288148e-04,5.206054741456374053e-04,1.473255146003457075e-03,1.942522823810577393e-02
2.930287007108123287e-01,3.304835525638424309e-01,2.967636708002724943e-01,-2.440910268053683111e-03,-2.634119437297128934e-03,-4.865526505414572399e-03,3.723752126097679138e-02
2.957575049451328653e-01,3.427747831494667441e-01,3.064731268720299884e-01,-6.894508944795936511e-03,-1.763315746049298055e-02,-5.725861094940026819e-03,5.473000556230545044e-02
3.117545682205955515e-01,3.343794601665013300e-01,2.957875099312893274e-01,-5.329628578002149064e-03,-3.546209415567503839e-03,-2.405097037784759834e-03,3.561433404684066772e-02
3.040651086212237675e-01,3.447713635524607412e-01,3.044126044855114399e-01,-5.801171683820150610e-03,-6.412377550610027545e-03,-4.191633030563888390e-03,4.381781071424484253e-02
3.187963344401328336e-01,3.197607586742086672e-01,3.175189538687853141e-01,2.590310804109172442e-04,3.829459032256590204e-04,-1.870133174976281842e-04,2.130705863237380981e-03
3.163561202396798500e-01,4.020426653961274299e-01,3.362586311290547414e-01,-5.973200360265602631e-03,5.524122824305906232e-02,1.352580118580673334e-02,1.258712708950042725e-01
2.882775381500372047e-01,3.601110455611769567e-01,2.423181317653966549e-01,5.654639117354132161e-02,1.135942620617430981e-01,-2.632283615079338696e-02,2.468924373388290405e-01
2.444655681985667961e-01,3.155056094791599541e-01,3.198145407070832613e-01,1.986429119030128781e-02,-1.665947075125745469e-02,1.082088483661758013e-02,8.797170221805572510e-02
3.185392792265185902e-01,3.095063450734387711e-01,3.196629207007780082e-01,-9.838360752822032998e-04,3.717412432557914634e-03,9.070069374686476555e-04,1.182520575821399689e-02
3.260662051336334910e-01,2.758229372412242530e-01,2.743861194459246144e-01,-6.860301799292340720e-03,-6.472501101674413976e-03,-1.766127600694163829e-02,6.165447086095809937e-02
3.368397236323062427e-01,3.036929823700597053e-01,3.075908169202926645e-01,-1.611869476318363373e-03,4.523394357774638067e-03,4.904195548100403687e-03,3.355637192726135254e-02
3.380801474959836406e-01,3.122190374704478799e-01,3.161803890865282907e-01,-5.786799248438029286e-03,9.280884882824264742e-03,7.125221102444114982e-03,3.306382149457931519e-02
3.415934046477899222e-01,3.220075219029877034e-01,3.080534124070440360e-01,-9.979484726337342539e-04,1.379648095600315236e-03,3.416537462800805797e-03,2.992229349911212921e-02
3.484507846538714704e-01,3.081576346180885939e-01,3.118232678189329921e-01,-2.786809471304332701e-03,1.670224242729287942e-03,5.444234291334197270e-03,4.012308269739151001e-02
3.509453244939008121e-01,3.134791283313244636e-01,3.141615456562962816e-01,-2.980435330443961719e-03,1.674680916279192716e-03,8.463569267751061553e-03,4.035557806491851807e-02
3.278896158468915245e-01,3.112877176225143372e-01,3.027191127118462055e-01,4.749723226240648577e-03,1.562183810934442835e-03,-2.213119894171095611e-03,2.410381101071834564e-02
3.171281240804000867e-01,3.205260364723576672e-01,3.197362442712480823e-01,3.753291961949137604e-04,2.609124389875786405e-05,1.384736925878143161e-04,3.157232888042926788e-03
3.340211720540039453e-01,3.089757385665926614e-01,3.079726900108999410e-01,-5.285775565709036408e-03,6.368673510938604836e-03,6.396995560209981641e-03,3.133152797818183899e-02
3.424143649856720151e-01,3.199845181352181100e-01,2.214321510058147591e-01,1.122398357737683806e-03,8.365925706988442366e-04,2.948223246469716327e-02,1.226363182067871094e-01
3.516481168351718867e-01,3.124796835760485503e-01,3.093447090218346962e-01,-1.721468922971971724e-02,2.433286686782857797e-02,3.940865075520005867e-02,9.482201188802719116e-02
3.731564584192892942e-01,3.234368475521653963e-01,3.375942250804132572e-01,-1.721471532671538143e-04,4.805520209380391254e-03,2.312935196544345373e-02,6.035594642162322998e-02
2.812763853919590384e-01,3.295980142977804062e-01,3.269759782303144346e-01,1.215671580917104984e-02,5.384456935202487637e-03,-1.113520707928681783e-02,5.583427846431732178e-02
3.439742990664207412e-01,2.743540427498794565e-01,3.072728022573802953e-01,-1.866643621682038826e-03,3.276663930620113277e-04,1.307665947351125367e-02,6.451809406280517578e-02
3.158911376531832738e-01,3.241825166641726930e-01,3.206789298418696865e-01,7.276127702425242609e-04,2.027782064457986366e-04,-1.677069289850578650e-03,7.881740108132362366e-03
3.416235858265821990e-01,2.950453445322491208e-01,2.952648981440622600e-01,1.062784031803586018e-03,9.993674943142875564e-04,1.699138427345965943e-02,5.506233125925064087e-02
3.380459288589405809e-01,3.416030117512355302e-01,2.497553902901119005e-01,6.563835238293065470e-03,-6.862222384648872069e-03,2.314262624583225941e-03,9.169797599315643311e-02
3.399244228328249795e-01,2.810935350077256589e-01,3.076650443135215407e-01,1.340485453712272380e-03,-7.975897972075370957e-04,1.102991108250454648e-02,5.455427616834640503e-02
3.305083242627798734e-01,3.317763193557304868e-01,3.017779834116232074e-01,8.083898371073754141e-03,3.052647752005301258e-03,-2.190178188325848929e-03,3.319435194134712219e-02
3.509115026081219835e-01,3.068720433929293390e-01,3.208013108708237526e-01,-5.195384613520006439e-03,2.335460380183199732e-03,1.769682977370200944e-02,5.056612938642501831e-02
2.938642946414597446e-01,2.911043663547187577e-01,3.362611782174723118e-01,1.750699299467112224e-02,4.163807510963954579e-03,-3.322812584837716091e-03,5.409939959645271301e-02
2.941570397980253770e-01,3.253373376005941342e-01,3.467330526686631664e-01,6.918719175623581907e-03,2.625498378785288273e-03,-2.509489262279244928e-03,4.775239154696464539e-02
3.201508222892047728e-01,3.191253933076730331e-01,3.128513473096176667e-01,3.502190543075233298e-03,1.128076270447922729e-03,-1.163797049404080488e-03,9.566906839609146118e-03
3.149539678296919276e-01,3.220075462816481826e-01,3.520233977091110078e-01,7.292580406560844782e-03,1.585971768423946474e-03,-2.245157426064803459e-03,3.666928783059120178e-02
3.207080205387726757e-01,3.147666212406441399e-01,3.163791729102965467e-01,6.063398157807436397e-04,5.921603776195948771e-04,4.869692946132034815e-04,5.584447644650936127e-03
2.816500286871810865e-01,3.064623349142034936e-01,3.420391045860615709e-01,1.299831382821818246e-02,-8.402416047783309652e-04,5.554884274065228578e-04,5.721897259354591370e-02
3.126353786878019458e-01,3.138201607119432968e-01,3.475809877819536209e-01,7.368157620988733704e-03,3.200216837671715931e-03,1.143775097027288417e-03,3.713104501366615295e-02
3.062584155222585758e-01,3.014683752720787036e-01,3.376008278098965865e-01,3.666088996359162782e-03,8.350699052977225527e-04,-1.748798333037415980e-03,3.474205359816551208e-02
3.183843188241102240e-01,3.181301955440212215e-01,3.549700496907128300e-01,8.407055764743969622e-03,1.117646280681051235e-03,-8.422994637119934121e-04,3.957005217671394348e-02
3.348759083570025386e-01,2.439876806378197538e-01,3.298893676276008491e-01,-1.298692938460732638e-02,-1.101987823453641317e-02,-4.752210621830068107e-03,9.365021437406539917e-02
3.203183288865644740e-01,3.203012010310092306e-01,3.516022739813623454e-01,7.452915952049471437e-03,3.301008571674478830e-03,-3.518887739232604440e-03,3.486684337258338928e-02
3.196410265339044710e-01,3.032713232314835916e-01,3.504912254352129386e-01,2.453235200990499208e-03,1.418441043557824334e-03,3.699183359429811745e-04,4.182358458638191223e-02
3.282763645967318733e-01,3.076654227341685255e-01,3.667254564807690409e-01,1.322733661740062121e-02,4.007870451200910150e-03,-3.144808914555249045e-03,5.743136256933212280e-02
3.221084941750043673e-01,2.913583489705990903e-01,3.550733803721692339e-01,7.285543257000079431e-03,-5.358880496113068055e-04,-1.492779286681390066e-03,5.668080970644950867e-02
3.798927533635359510e-01,3.797082656622763897e-01,2.407771263202137801e-01,-3.502073107011784386e-04,-8.014060713474546955e-04,2.979001378713565067e-03,1.391274333000183105e-01
3.643627385921584527e-01,3.347070061174872713e-01,3.159393562134916733e-01,-4.425369425954442035e-03,6.354828881723170036e-03,1.727080807461955914e-02,5.350701883435249329e-02
3.602531676766563828e-01,3.466781820613950016e-01,2.768505637277416387e-01,-4.602913046413946614e-03,3.556045509554843498e-03,8.336399751474685843e-03,7.948628067970275879e-02
3.251696814443522654e-01,2.644234386270229442e-01,3.654882409878382754e-01,-3.762197847160360376e-02,5.570542461736599851e-03,9.815979355654490951e-03,1.113251373171806335e-01
2.394603864843929120e-01,3.417317053910291502e-01,3.489487755492515775e-01,-8.084520207366354544e-03,-5.896543121285021706e-03,-3.092692022210600730e-03,1.076043173670768738e-01
3.317060358586831903e-01,3.291728422064296167e-01,3.013018424186307831e-01,7.856348689696790108e-03,3.098727429610267838e-03,-2.253308567934024335e-03,3.290923312306404114e-02
2.951495785219804269e-01,3.310426691224198081e-01,2.964059918983739106e-01,-1.228886388989041279e-03,-1.306348834487947638e-03,-2.399997236828735076e-03,3.566126897931098938e-02
3.419757774026283004e-01,3.265014193174381463e-01,3.036452535606557479e-01,1.118331700816188601e-02,1.366780918632247432e-02,-1.305908528362774781e-02,5.062400922179222107e-02
3.022289586213393608e-01,3.236487752816910590e-01,3.055403475525391155e-01,-1.338779029098120625e-03,-1.468314769056586720e-03,-1.250209862551643564e-03,2.038083411753177643e-02
3.027178370283543085e-01,2.780376071672898131e-01,3.341542683905394107e-01,-9.805038326764867196e-03,4.821146438030410666e-03,1.318747148942712001e-03,5.231238156557083130e-02
3.031429262876197406e-01,3.013940506300689104e-01,3.097298336518951589e-01,-7.681372016139954720e-04,-1.605804661984730659e-03,-3.385589949233104492e-03,1.009248197078704834e-02
2.657912112187422737e-01,2.927910706497395266e-01,3.632092472550041973e-01,-3.418454872444488812e-02,1.309340127795134180e-02,9.014514034315121438e-03,1.088707447052001953e-01
3.037593873000874467e-01,2.747558431395799583e-01,3.425757232871513569e-01,-1.124161401707352362e-02,4.972186681265651498e-03,2.107642301043034967e-03,6.277213245630264282e-02
2.937341782125202916e-01,3.040360591378007959e-01,3.424618495283779374e-01,-6.058424533133698400e-03,2.179540961879515050e-03,5.025232410367069455e-03,4.667602851986885071e-02
3.522987367132006664e-01,3.381128905944325025e-01,3.131176704296523283e-01,1.586290756714436867e-02,-3.303695364454317662e-02,4.358290076751972913e-02,1.044423356652259827e-01
2.953468193548303145e-01,3.443062451097153587e-01,3.008812210185113356e-01,-1.687446824845965834e-04,-1.481045117212458333e-03,1.228260579721312520e-04,4.651241749525070190e-02
3.599314453502738265e-01,3.207406035416683343e-01,3.333573490332197298e-01,6.330712299774722898e-03,-7.029397334795172217e-03,1.200643766424082902e-02,4.360708966851234436e-02
3.028133953430957592e-01,3.166780262296029491e-01,3.034407359354370781e-01,-2.105867757662139011e-04,-7.083210083601463800e-04,-2.014001763512468166e-03,1.406166795641183853e-02
3.382493310277551180e-01,2.983206355786735542e-01,3.079375240254801360e-01,1.895636138934498043e-03,2.787939454452170686e-04,-4.284096700951589565e-03,3.699823468923568726e-02
3.397296763862164282e-01,3.105013178758797010e-01,2.795356401955141901e-01,8.917154193876491303e-03,-4.185752570958026567e-03,1.204344841652390044e-02,5.868976563215255737e-02
3.406296022424175618e-01,3.008976795404613713e-01,3.062720344012793139e-01,8.671538263211300748e-04,-1.640905314740941003e-03,5.989530050924125014e-03,3.888358175754547119e-02
3.419866175746789638e-01,3.024883420129928502e-01,3.108167371511070809e-01,2.250480089863744933e-03,-2.445522135881072773e-03,4.456957127457693811e-03,3.732623532414436340e-02
3.423748287136157420e-01,3.247254270158598799e-01,3.151688424645224251e-01,8.204619132284637906e-03,-4.989619550754752393e-03,1.376944503833784153e-02,3.764208778738975525e-02
3.402563656178674290e-01,3.043091436473742695e-01,2.909370773555133849e-01,2.872681793316839930e-03,-3.030116524670679965e-03,1.367747852249064262e-02,5.064805597066879272e-02
3.194504999438004811e-01,3.183846595884070041e-01,2.629759537947617964e-01,-1.821211154538265181e-02,-2.134647674651864863e-02,-2.574710449272566912e-02,8.649344742298126221e-02
2.959786019381817068e-01,2.965172593734473061e-01,3.192964703215538380e-01,-1.157179759772976888e-03,-1.335932872628191239e-03,-3.710734895058635536e-03,2.412742748856544495e-02
3.368058912001980487e-01,2.882360037857306656e-01,3.142324451348915693e-01,2.353077904853076441e-03,-5.500286542511182743e-03,8.705674802830118408e-03,4.590143263339996338e-02
3.421149531213095174e-01,2.614964293474806856e-01,3.130654279092881520e-01,-2.626728312492216614e-03,-2.427646553280809506e-03,-7.130186458683934747e-03,7.205685228109359741e-02
3.359163562879034504e-01,3.097878837873090929e-01,3.103901096926743874e-01,5.392020922069235174e-03,-4.375362376379589649e-03,6.024656197038891041e-03,3.034579008817672729e-02
2.970949110468407151e-01,3.360391761529665788e-01,3.099451123188617374e-01,-2.288752288368124319e-03,-3.042046144036106032e-03,-5.120760494032567701e-03,3.610381856560707092e-02
3.426208743484174257e-01,2.843180793001174878e-01,2.877485218422804469e-01,-1.329321112784729968e-03,-4.537405569558873586e-03,-1.506084854037532429e-02,6.291686743497848511e-02
3.597092257249505098e-01,3.552656955392576865e-01,2.450007379243524797e-01,6.983241381265644981e-04,-1.328509489818999884e-02,-1.713878356629700006e-02,1.186601445078849792e-01
2.924117714133609991e-01,3.373102155405879876e-01,2.886425545920763280e-01,-4.166515273611968995e-03,-3.772116407919825359e-03,-2.296176147105205654e-03,4.806134104728698730e-02
2.915319692978160515e-01,3.527083192795595346e-01,3.118165229350455259e-01,5.365693127801455121e-04,-3.397069729295500683e-03,4.861600050649012104e-04,5.430715531110763550e-02
3.395379380469695785e-01,3.187871453921042875e-01,3.192555847074378117e-01,4.831005273287189081e-03,-4.750980062414634358e-03,4.265086199962088084e-03,2.476688288152217865e-02
3.251374912255822203e-01,2.850001721376382302e-01,3.090211533248611864e-01,3.350687792687946295e-03,-7.115771597557127813e-03,8.497040503071307677e-03,4.032439738512039185e-02
3.038633328958213475e-01,3.222342399227842713e-01,3.523009432685320075e-01,3.672605187455559982e-03,1.221517153595066008e-03,2.833204070428750696e-03,4.316098988056182861e-02
3.045884877078393060e-01,3.132470616462497692e-01,3.496632629628228517e-01,5.853811918174849950e-03,7.411187672193734555e-04,2.057995208080584844e-03,4.282030090689659119e-02
2.970643355959803333e-01,2.928017958349151129e-01,3.366019360944871308e-01,1.540568407963647558e-02,-6.261854678774550313e-03,5.714811477448032695e-03,5.174491927027702332e-02
2.868620555995810562e-01,3.163155276506152691e-01,3.391874558343253576e-01,6.421313749734041017e-03,-4.744082171111323187e-03,4.617446071635385868e-03,4.816088825464248657e-02
2.922041778771107268e-01,3.212975354279810625e-01,3.488216911343602900e-01,6.578111985659587137e-03,-1.247753919909236993e-04,5.125540331043912379e-03,5.112189054489135742e-02
3.296935474046080450e-01,3.007072591678099927e-01,2.756386237556441854e-01,-8.696731180010245504e-03,-3.928484083625987527e-03,-6.407215990030998981e-03,5.090818926692008972e-02
3.532091218443085823e-01,3.160766493475765659e-01,2.990934501070526830e-01,-1.022820983746786615e-02,-9.027557195362780063e-03,-1.577480933623888124e-02,6.002292037010192871e-02
3.360300615846010808e-01,3.099985728964314569e-01,2.927653927435106551e-01,-4.327252758601455272e-03,-2.614281221291417465e-03,-2.748977960326872381e-03,3.902019560337066650e-02
3.437744613237175284e-01,3.074195908528051246e-01,2.909841202045195252e-01,-3.070161664063814425e-03,-6.600711098047476813e-04,-4.133139037909873241e-03,4.764602705836296082e-02
3.409394296100932142e-01,2.985928932095038846e-01,2.942772545336255208e-01,-1.042575796671469691e-03,-4.020204164707475943e-04,-1.866530720430053213e-03,4.481967911124229431e-02
3.274934820101351729e-01,3.059376135616627135e-01,3.141499449069575234e-01,2.425127500924967316e-03,7.221832400869203361e-03,-3.050545374089696279e-03,2.360296063125133514e-02
2.815616021933023405e-01,3.174542368563522121e-01,3.167462508129938459e-01,-3.877606023199530860e-03,-3.857192036867893026e-03,-1.068358022348817916e-02,4.117679968476295471e-02
3.367271893487716050e-01,3.539830649355211190e-01,2.331045773525125819e-01,-2.949008938544646873e-04,-8.190676483832709173e-03,-5.880907091242136564e-03,1.145809218287467957e-01
3.300468010915541539e-01,3.082969203372014633e-01,2.930784369409780710e-01,-6.123437161670082507e-03,-3.179705699830983646e-03,-2.481225695805514431e-03,3.459696844220161438e-02
3.079837909707391908e-01,3.078252989698138653e-01,3.070089764808286437e-01,8.334979792701502051e-05,-7.567392327903828698e-04,-9.074588256184984450e-06,1.599979354068636894e-03
3.569924469773034792e-01,3.433673756990606729e-01,2.466658376974315281e-01,-1.728912773246573959e-03,-4.567688525574192110e-03,-8.427001699302189008e-03,1.055414453148841858e-01
3.159746749602823646e-01,3.032144556113612888e-01,3.023465612833858840e-01,-4.768900845001375691e-03,-5.627762167887037301e-03,-5.424207739920191423e-03,2.064362913370132446e-02
3.063247064473342829e-01,3.092549102775971059e-01,2.932881091078451408e-01,-1.191502903512080096e-02,-9.083757656459665736e-03,-1.168174407610989354e-02,3.604963421821594238e-02
3.132159236298119875e-01,3.180827066382136414e-01,3.061059871658308729e-01,-7.716397840876917415e-03,-6.111569391759002698e-03,-7.060692230091777585e-03,2.343249134719371796e-02
3.082951529772348653e-01,2.917297243404232687e-01,2.865700576877756589e-01,-9.679854438673331923e-03,-1.097977084409578960e-02,-9.754874348925898775e-03,3.625941649079322815e-02
3.161189330693110477e-01,3.274469917235383609e-01,3.812137468670900864e-01,-3.656927605709100332e-02,-1.337062281792916925e-02,-1.549100359087601797e-02,9.432090073823928833e-02
3.254528736295072555e-01,3.205969154654708109e-01,2.679565357519419488e-01,-1.195361548849068790e-02,-8.775461461070048486e-03,-5.981397909040281693e-03,6.178376451134681702e-02
3.015458629787838296e-01,2.956591043870006597e-01,3.351004497290857587e-01,-2.240876987233202458e-03,-6.101561557627202580e-04,-1.720551282353563992e-03,3.719078376889228821e-02
3.150055814297885726e-01,3.373893835124918139e-01,3.137752292677940535e-01,3.549691527189782064e-03,7.111979806036386118e-03,-3.756558037731973481e-03,2.760371752083301544e-02
2.918466742174338213e-01,3.374463604314039133e-01,3.124325786946283157e-01,2.856374414603514780e-03,8.276545312668760410e-03,-5.603322461310037035e-03,4.345770180225372314e-02
3.199448756334622446e-01,3.071512033751606641e-01,3.094689420648630840e-01,-5.447865569419247517e-03,-4.588836186365208639e-03,-5.523474924858707419e-03,1.957380585372447968e-02
3.318097152002077999e-01,2.959898404866581623e-01,2.964556263093546806e-01,-1.450942181741074217e-03,-1.165210722534359457e-03,-3.333847078259530067e-04,3.573958948254585266e-02
3.071137548053466393e-01,3.492533561525389962e-01,3.235685174502291317e-01,-1.300221022322111774e-04,2.761448339771966319e-03,-1.997389313518242206e-03,3.725592792034149170e-02
2.951833782813569340e-01,2.966063570543009398e-01,3.333615043740641992e-01,-1.390579664776203780e-03,-1.880747008297038291e-03,-4.753594687153608628e-04,3.771416470408439636e-02
3.249785249753781580e-01,3.409816947072016324e-01,3.188782757305707038e-01,7.448185865078943771e-03,1.085875840905074427e-02,-5.486751185795172431e-03,3.164514899253845215e-02
2.997399593763545034e-01,3.406406403761180757e-01,3.338053083760930129e-01,1.134415110722961778e-02,2.128775771404196188e-02,-1.115183483052160744e-02,5.965469777584075928e-02
3.105639504884437074e-01,3.325424078910081405e-01,3.076899530349281875e-01,2.844904935772856001e-03,2.108896401374026758e-03,-1.837107093393558878e-03,2.454029582440853119e-02
2.999793727053645664e-01,3.445090688388931510e-01,3.185587659036575037e-01,8.356721144701328291e-03,1.437288371520941722e-02,-3.651261496945605589e-03,4.868256300687789917e-02
3.290126527684067992e-01,2.998580728119362715e-01,3.009405027747710237e-01,-1.072486123122076869e-03,-2.729689784005444320e-03,-9.292051995821972365e-04,2.912040427327156067e-02
2.978182529641763554e-01,3.368821517678334820e-01,2.971950847029174447e-01,7.543210974681849833e-03,1.537842179878043739e-02,-5.236055318559959537e-03,5.013139173388481140e-02
2.479438012153400706e-01,3.223116965907228404e-01,3.023243729818512193e-01,2.594741908282187717e-02,-2.741870988122234801e-02,2.049647997329104646e-02,9.989565610885620117e-02
2.823483920475592379e-01,3.021329535732845128e-01,2.625690486815361879e-01,-1.603569115419907140e-02,-2.104122126236020879e-02,-1.507250314100817140e-02,6.288996338844299316e-02
3.075805945542328113e-01,3.083572607743497729e-01,2.937219838409497186e-01,-5.334123392070526729e-03,-4.284920405928250436e-03,-2.622328353392388428e-03,1.909182779490947723e-02
3.045202167436372176e-01,3.402220191593624543e-01,2.972947380842482223e-01,3.739990502369129263e-03,-3.766981128384740748e-03,5.315705027044178958e-04,4.086770862340927124e-02
3.209204712831432715e-01,3.335888472342286026e-01,2.734237416449285529e-01,1.243706404795282341e-02,-1.246345718277890556e-02,7.725148284689324456e-03,6.424345821142196655e-02
3.061997303632360001e-01,3.065970189131414503e-01,3.059970852093598093e-01,-1.221664152992179165e-03,-4.832467620633209768e-04,-2.736437759745439613e-04,2.383700339123606682e-03
3.268995105839131443e-01,3.409598026146432592e-01,2.746211493721072427e-01,9.332368869439167103e-03,-8.996606961717223960e-03,2.507274106507984164e-03,6.472034752368927002e-02
3.053341045814958465e-01,3.386243072278820598e-01,2.848457570197038824e-01,3.025643355214081842e-03,-1.519581056532565838e-02,2.684451084311023465e-03,5.433131381869316101e-02
2.913149060806157764e-01,3.376631328873349047e-01,3.014607600052882086e-01,1.821292723820259118e-03,-4.523087604666605269e-03,3.839951637196967367e-03,4.354786127805709839e-02
3.266323299947282432e-01,3.597039016786753307e-01,2.986450631251172938e-01,4.859823678557878383e-03,-2.061258305728685264e-02,5.233726030490616285e-03,6.504047662019729614e-02
3.258334619456095260e-01,3.451093152479940418e-01,2.546879225699640314e-01,7.504368921658620059e-03,-1.381962996810615595e-02,3.081601341134363164e-03,8.703458309173583984e-02
2.578372941101064741e-01,3.607477739820884044e-01,3.670003758895318824e-01,1.892642176603739901e-02,2.172373677558761540e-02,-6.331654458937876996e-04,1.173231154680252075e-01
2.390691688005215365e-01,3.519163442987296442e-01,3.388702803780403450e-01,2.015369547382202427e-03,-5.598278803991853930e-03,8.785679670471951627e-03,1.084907576441764832e-01
3.186924756041302209e-01,2.941470248921293495e-01,2.974050776888080283e-01,-2.347796739520357362e-03,-5.186694031333410199e-03,-4.868333925041849405e-03,2.648523263633251190e-02
3.088514498479207337e-01,3.056565126532974630e-01,3.077691818781639332e-01,-9.851286238208175304e-04,-1.969042856590468536e-03,-1.172160257701881101e-03,5.156147293746471405e-03
2.281950695933784856e-01,3.566372020434125378e-01,3.515404650176055523e-01,3.524096102959841390e-04,-1.555386970860347072e-02,1.297706869591505174e-03,1.288406550884246826e-01
1.572297720190443393e-01,3.262976270589120764e-01,3.083592547340889833e-01,-2.039725955783380784e-02,-4.266168874677505468e-02,-5.801254436088036821e-03,1.807818859815597534e-01
2.329013245913406083e-01,3.715643895334485025e-01,3.930834495775521464e-01,-4.915235189729758036e-02,-5.902477156468473318e-02,-1.744931252967887175e-02,2.031932175159454346e-01
1.986789036333367620e-01,3.529360269496535363e-01,3.496633561434769888e-01,-5.927228015022569657e-03,-1.289100696253190834e-02,-1.484430243838347208e-03,1.546340137720108032e-01
3.024659241419376809e-01,3.108215503077023656e-01,3.016043035975970454e-01,-2.538497038379274821e-03,-7.445161163574320158e-04,-1.068762753953441573e-03,1.010840386152267456e-02
2.124043885410746846e-01,3.495271874646784793e-01,3.378170339284372603e-01,8.759929303556663813e-03,-3.103844102440403777e-02,2.529276501030034742e-03,1.430860459804534912e-01
3.077209476473226069e-01,3.259284164655563143e-01,2.819690364116793635e-01,-9.382531358547812478e-03,-5.861625520787938463e-03,-8.849920045512093061e-03,4.544980451464653015e-02
2.707746398984618441e-01,3.006681108441874861e-01,3.342298116438463529e-01,-6.622968518858957446e-03,-3.461568870140265767e-03,-9.132841121298602288e-03,5.866044759750366211e-02
3.060833270609571444e-01,3.059363770608742317e-01,3.452378766925248144e-01,-7.036024989758069871e-03,-5.574456699096296680e-03,-5.676726248652372124e-03,4.332748055458068848e-02
2.967620532521596521e-01,2.939427038359926359e-01,3.290331913217289239e-01,-4.238304136060234290e-03,-4.652570697785518572e-03,-2.822636331417817130e-03,3.582023829221725464e-02
2.759904480964719409e-01,3.007003162957272990e-01,3.291771926044114172e-01,-6.220147767202871200e-03,-3.160280665147985422e-03,-8.438370193482733900e-03,4.984797909855842590e-02
2.855227022682766402e-01,3.038400404827963364e-01,3.379323400866910410e-01,-2.706682712802052377e-03,-2.147240145492457404e-03,-6.655844675971321622e-03,4.786440357565879822e-02
2.681761566639788152e-01,2.969185269661677729e-01,3.301927453496426579e-01,-6.874520528504846073e-03,-3.227676932477626867e-03,-7.771495721135196488e-03,5.695521458983421326e-02
2.914282219654908412e-01,2.881940519273748502e-01,3.543971276226961509e-01,-1.579012243936449289e-02,2.751531210585521012e-03,-9.062097508048146382e-04,7.037297636270523071e-02
3.159891188604559975e-01,2.973355454656574359e-01,3.494558372358556597e-01,-1.590425584664102374e-02,-8.424105196085903899e-03,-9.518702652749202325e-03,5.775639042258262634e-02
3.001189533058876702e-01,3.011679445486634132e-01,3.323091513116113171e-01,-7.414106380902549254e-03,-4.745202743756805723e-03,-4.841626933686983547e-03,3.614310175180435181e-02
3.143764512365556096e-01,3.102267737721517427e-01,3.402953374632652905e-01,1.745320262359883676e-03,1.255641195592419697e-03,-5.841377073892925226e-04,2.848605811595916748e-02
3.287840307756037528e-01,1.919021424364044659e-01,3.586562307109316672e-01,-5.691001475353522215e-02,-3.308001122544497463e-02,-3.173388043771188660e-02,1.993443965911865234e-01
3.683806423474503822e-01,2.523104607982403769e-01,3.414651232613854503e-01,3.089342094599837642e-03,-4.174206655547081646e-03,-1.102640353284355806e-02,1.073233038187026978e-01
3.751060962970907964e-01,2.342179256251633035e-01,3.659968484436751379e-01,-7.201424774329714604e-03,-1.519052429294226372e-03,-1.147387767129881726e-02,1.385876089334487915e-01
3.404359904525596781e-01,2.500146692309516139e-01,3.238596452014368965e-01,-8.391281013042010614e-03,-1.028505550936740370e-02,-1.546623030709262311e-02,9.054356068372726440e-02
3.392307194179342011e-01,3.507527926962030196e-01,3.350208396899584939e-01,3.289344104909038696e-02,5.266694765006120493e-02,-2.140578716047956617e-02,1.146340668201446533e-01
3.135846215855044861e-01,3.445735357602284221e-01,3.216911463575115038e-01,1.807090445510290463e-03,2.121374510889500499e-03,-7.065440259474731720e-03,3.078757785260677338e-02
3.163002658272819900e-01,3.434592955206211551e-01,3.156029336550368880e-01,5.378507409372020043e-03,5.389907304995847359e-03,-4.232320448316374828e-03,3.138015419244766235e-02
3.210110862052842906e-01,3.323226726064904546e-01,3.118805326857641003e-01,4.831870558946652246e-03,1.242335972114987693e-03,-8.798602579453870505e-04,1.978872530162334442e-02
3.152114486364495649e-01,3.876782100633883177e-01,2.880619069143730004e-01,1.230543621104351198e-02,3.021797056670613366e-02,1.506412721309753188e-03,1.056239753961563110e-01
3.492292170541083096e-01,3.189837862285873626e-01,3.046078827281126222e-01,6.656440989738756676e-03,1.595052770178673456e-03,-2.932503495571872534e-03,4.150438681244850159e-02
2.796464667933350468e-01,3.405826588101426022e-01,3.027213459007083718e-01,1.820359690546502268e-03,1.009592628110240337e-02,-3.776840561099668089e-04,5.617585405707359314e-02
4.009106256781936328e-01,3.844948962707218643e-01,2.385448539709805194e-01,-4.061299499318439879e-03,4.546577999095413603e-03,-3.472929353448800383e-02,1.664230674505233765e-01
3.123721546210351252e-01,3.443661492254492806e-01,3.031604504451452797e-01,5.793328490146095952e-03,5.437667018124631331e-03,-1.846933035885040420e-03,4.003519192337989807e-02
3.205936105916785683e-01,2.538752057944862472e-01,2.870632146105113192e-01,-1.933753589119192873e-02,-1.782880178325881720e-02,-2.596360903620940561e-02,8.623389899730682373e-02
3.212893202014706628e-01,3.212466430996021582e-01,3.412296071150047183e-01,4.366427455025320356e-03,4.786939861512535394e-03,-4.686997401712566028e-03,2.429636009037494659e-02
2.596357902952128871e-01,3.567386704605023939e-01,3.560486268210386607e-01,3.559516564758619626e-03,5.611712853864704240e-03,2.189602431573835391e-03,9.751567989587783813e-02
3.453983497844148598e-01,3.008818356722142706e-01,2.851099131099175676e-01,1.113749274014546545e-03,-7.104731230024359133e-04,-7.771959065216391474e-03,5.584827810525894165e-02
3.379030555140121739e-01,3.226058151384600947e-01,2.844965522504517841e-01,-8.824007570011671575e-03,-3.861073185432242066e-03,-5.184467112854256217e-03,5.126633495092391968e-02
3.271136657086832211e-01,3.168417221396301331e-01,3.001476446048495506e-01,-4.776064291261587769e-03,-3.013246762798245382e-03,-2.788240534788089670e-03,2.597459964454174042e-02
3.151934947645900209e-01,3.133540220080712202e-01,3.445059717563362378e-01,4.582514801776803141e-03,3.785990038887472597e-03,-2.369937422410007058e-03,3.223932161927223206e-02
3.097097352200865461e-01,3.025950634209641499e-01,3.391323138869921094e-01,5.467454914201445512e-03,3.753122987853487608e-03,-1.483646083905716282e-03,3.555529937148094177e-02
3.089197980343552086e-01,3.049923058020667654e-01,3.321586613203252325e-01,4.720604378856697522e-03,3.847357465623993389e-03,-1.775590304365214523e-03,2.770302072167396545e-02
3.124843896745861938e-01,2.916660647388388261e-01,3.286414332206498701e-01,5.869603946130794517e-03,7.691278998763434113e-03,-4.318632922043967419e-03,3.698095679283142090e-02
2.612588878866440312e-01,3.267781315459250546e-01,3.410363585128095565e-01,3.154784391771492391e-02,1.491360106760510063e-02,-9.242692739128550300e-03,9.664152562618255615e-02
3.313959902469456043e-01,3.026005274535810696e-01,2.887193992009676746e-01,-6.410313876952429026e-03,-2.769641302395788734e-03,-3.447620423822862420e-03,4.004404321312904358e-02
3.311483543983224087e-01,3.023626175205783029e-01,3.325505492258841178e-01,-2.861488075266127237e-03,7.272936581276798207e-03,2.235362047925275146e-03,3.269846737384796143e-02
3.066858807434877376e-01,3.084458667363466078e-01,3.343359387215760758e-01,2.448016859898936685e-03,1.181568135099197482e-03,-4.428501014757432741e-03,2.828358300030231476e-02
2.683295571933205226e-01,2.932735911591912159e-01,3.295522272304335365e-01,1.667363309916311542e-02,8.160243097815366234e-04,-1.941077235542670691e-03,6.075039878487586975e-02
3.097349049101554286e-01,3.105354967563456192e-01,3.485797780865109163e-01,5.144045132814170120e-03,3.155978550237068837e-03,-3.443903841191054208e-04,3.985080122947692871e-02
3.422738247408386725e-01,3.466355664518578905e-01,2.430607238467749343e-01,-3.957053815394384264e-03,4.995507095477655021e-03,1.787814805983204260e-04,1.020634248852729797e-01
3.483259915157554398e-01,1.980904450958374530e-01,3.341089207889000878e-01,-1.120599967472963102e-02,1.966698930094904971e-03,-3.091206606765810674e-02,1.545701473951339722e-01
3.307410153706430989e-01,3.082986671861603356e-01,3.058940723265772821e-01,-5.771584051915904477e-03,-5.190242423380994619e-03,-5.665311942742911645e-03,2.899038605391979218e-02
3.386219058294351880e-01,3.274311363684599963e-01,2.863978181589612038e-01,-7.869190652221975946e-03,-4.345526858322739869e-03,-3.846169270741834744e-03,5.054664611816406250e-02
3.555686994841498194e-01,1.773487049060519793e-01,3.503190472473987072e-01,1.958065890791666278e-03,5.677015844977546799e-03,-8.260361518380059716e-04,1.759675145149230957e-01
4.332930126076048882e-01,2.479259905691192367e-01,4.176749902895923738e-01,-2.049193664633044282e-02,-6.287930206391853863e-03,-5.368505589945325035e-02,2.042900323867797852e-01
3.205791872671573950e-01,2.824068852362284776e-01,3.409378093989711145e-01,-5.526691010349318867e-03,-8.149670560878511522e-03,-3.674357227091337112e-03,5.459048226475715637e-02
3.607180150281689146e-01,2.260682889367713888e-01,3.711156796105131717e-01,-4.400775693793362170e-03,1.886983974080478884e-03,-1.139760772981160712e-03,1.403972357511520386e-01
3.198766996372060523e-01,2.984849057788905302e-01,3.135765149350351333e-01,-7.905305766320914335e-03,-8.396271096996843139e-03,-1.062465010718079833e-02,3.316854313015937805e-02
3.557373434679168556e-01,2.426717014225506786e-01,3.531993944822714449e-01,-1.445095822150036999e-02,-4.609712599912606755e-03,-1.311549879997047328e-02,1.170880571007728577e-01
3.172718915495480463e-01,3.158517160149871827e-01,2.752609812227743147e-01,-9.441661052388531511e-03,-5.062946719361624548e-03,-3.810794725805659658e-03,4.577305167913436890e-02
3.093248927880928312e-01,3.105835257933561300e-01,3.083335856302679701e-01,3.638740425491994208e-07,-6.761082415684105916e-04,-6.789401281138646247e-04,2.562964102253317833e-03
3.046427220350279019e-01,3.072518417179468386e-01,3.027440888279425701e-01,-2.349260041967476953e-03,-1.322846433216318639e-03,-1.930767787486787918e-03,6.953883916139602661e-03
3.374709694162109641e-01,2.957290201158855325e-01,2.885351123913305615e-01,-6.044777594600076950e-03,-3.218368694548208106e-03,-6.440028956562511044e-03,4.857513681054115295e-02
2.984121889434542263e-01,3.210280155708445382e-01,3.000776468597761149e-01,-3.599150505699149835e-03,-2.082448714328232614e-03,-1.408014884085825348e-03,2.311714924871921539e-02
3.090517946017475315e-01,2.935236753923334829e-01,3.476290824503999177e-01,-3.109188182685634991e-03,-6.144197231154822393e-03,-6.107802129474110102e-04,4.971655830740928650e-02
3.111858653553556397e-01,3.127523592375301420e-01,3.035691797733018338e-01,-4.280424183846515823e-03,-1.485325607777181244e-03,-1.729526504696031605e-03,1.195649430155754089e-02
3.112833306679467227e-01,3.230859148395102132e-01,2.935787645462668571e-01,-4.673757510901982784e-03,-4.786129732260478026e-03,-3.551335601240603393e-03,2.887561917304992676e-02
3.052502062452872589e-01,2.983304186416639303e-01,3.136966111648653577e-01,-3.309974281760884405e-03,-5.330578789493223280e-03,-2.684700419741870969e-03,1.781595870852470398e-02
3.081195341352799821e-01,3.107382810474417223e-01,3.100102654613424158e-01,-6.822951163883534623e-04,-7.639048100952037373e-04,4.133355383279729384e-07,2.937445417046546936e-03
3.290362762302870281e-01,3.207079375601570304e-01,3.190142188975734205e-01,4.148916905797542763e-03,4.628387447397883797e-03,-3.056118608122578798e-03,1.517437957227230072e-02
3.024718777924164659e-01,3.038837176864358502e-01,3.179951728166574565e-01,-3.604966201493286170e-04,-8.749682499155961952e-04,-2.922506422934525571e-03,1.579111441969871521e-02
3.015582118373383858e-01,3.048086325915762562e-01,3.117548491215144657e-01,1.282826149812236766e-03,-1.327323269685348750e-03,-9.208693020495487252e-04,9.703585878014564514e-03
3.101946362144900604e-01,3.152712454941746789e-01,3.446122075191534462e-01,6.253765124197230296e-03,5.681319339905018407e-04,-4.633909495107426703e-03,3.490462899208068848e-02
3.241837213693626318e-01,3.455106957491498321e-01,3.083049679483480521e-01,5.979167268879087907e-03,2.258187675543346564e-03,-2.028607248524797076e-03,3.435863554477691650e-02
3.041899906444180401e-01,3.096240719747222481e-01,3.363513773202216894e-01,5.241330626996337436e-03,2.422513758280498124e-03,-2.878554943203051435e-03,3.184328973293304443e-02
2.646596938923910791e-01,3.682608088701017635e-01,3.587095478848636443e-01,3.695355067296915864e-03,5.646094158753261344e-03,-2.263313799991715863e-04,9.985815733671188354e-02
3.020588053408114204e-01,3.136833638272277236e-01,3.048692759132893837e-01,-1.742458366657561849e-03,-2.477350680125757487e-03,-4.503966743670952816e-03,1.409737765789031982e-02
3.110746748255458494e-01,3.133123121145017786e-01,3.346175621633890596e-01,2.668416176448107054e-04,8.048851244469863286e-04,-2.034212129517975857e-03,2.282904461026191711e-02
3.134308083893619923e-01,3.064533260807275061e-01,3.447828643583063513e-01,4.302487856478776594e-03,3.303620851973859684e-03,-1.158266855070208892e-03,3.664281219244003296e-02
3.111370911572433617e-01,3.062281563195394241e-01,3.385774605271602011e-01,4.201554347616915860e-03,4.069475532473426811e-03,-1.781254025630305948e-03,3.199896961450576782e-02
3.597805068457761157e-01,3.754423227842956790e-01,4.015240099197773804e-01,-4.561023554332083174e-02,1.402012658498155706e-01,1.052467555024787504e-01,3.158713877201080322e-01
3.306178861161555016e-01,3.303855360253111773e-01,2.886884061474418450e-01,-7.366153655038802130e-03,2.968397660393211259e-03,3.940713437813117559e-03,4.454430937767028809e-02
1.291144892794748866e-01,1.773905414176074613e-01,3.458819508827429834e-01,-1.549266251836143859e-01,-9.733684371098323337e-03,-4.179785673112937881e-03,3.334628343582153320e-01
2.753111764733681133e-01,3.000836669767839582e-01,3.075189019017467440e-01,-1.714738675096032228e-02,1.482200869101263536e-02,1.344944698260711925e-02,5.419396236538887024e-02
2.788484497758499381e-01,3.520382936710929611e-01,3.545544781447120264e-01,5.583810072290043558e-03,-4.587274397928463310e-03,6.601067318358748610e-03,7.638476043939590454e-02
3.429705143032900638e-01,3.202418806982604282e-01,3.303173717392707820e-01,-8.435637206354549070e-03,1.027956497606032082e-02,1.150425979386721434e-02,3.628548607230186462e-02
3.223641092870213054e-01,3.469678405346118266e-01,3.368029086145672424e-01,-2.189323641310815180e-03,1.339675904986010850e-02,1.072260476588898087e-02,3.682792186737060547e-02
3.280222768217664897e-01,3.396708453141707995e-01,2.867926367015902200e-01,7.142334634734239310e-03,3.722734308031407351e-03,-1.795753502075887785e-03,5.020087584853172302e-02
3.195059454468115456e-01,3.389655625905908520e-01,2.985355562362754234e-01,-7.297138094919414231e-03,9.813175753934273021e-03,7.719794143102979428e-03,4.305734857916831970e-02
2.997042901701095774e-01,3.412375669463412753e-01,3.080837247808788093e-01,-1.451964270527647625e-03,6.831765512430672607e-03,9.988547598083845867e-04,3.995671868324279785e-02
2.852561370989609157e-01,3.323516097346952969e-01,3.596141981819292455e-01,6.562778224323206726e-03,-2.675528098593457985e-03,4.201538003584446429e-03,6.669948250055313110e-02
2.174330176208072452e-01,5.708134641402210496e-01,5.715654965241854235e-01,5.844660389106731690e-02,5.530694325089030583e-02,3.216752174613335402e-02,3.842823207378387451e-01
3.153546001653101394e-01,3.391356542143301733e-01,3.101747862029095582e-01,-4.612340650233030109e-03,2.092451755368727150e-03,2.807371205451220618e-03,2.856834977865219116e-02
3.174400353011669340e-01,3.301219560872907799e-01,3.074821315505757990e-01,-6.270747437083870959e-03,3.064219024701443552e-03,3.025362723369200667e-03,2.366157062351703644e-02
3.204067910143018616e-01,3.432453721713442096e-01,3.125193840630602349e-01,-2.939757017254407846e-03,1.789122791443637167e-03,2.481874452034203704e-03,2.859995886683464050e-02
3.010488862979790459e-01,3.385847347964775489e-01,3.101296701254857013e-01,-4.023063897491912719e-03,4.303172558954015958e-03,3.536359010422265685e-03,3.594676777720451355e-02
3.199311405950473475e-01,3.033479352645589433e-01,2.777941311252720147e-01,-9.045715496071166095e-03,-6.183406901833859125e-03,-5.018183072083567259e-03,4.227869957685470581e-02
3.285477530334825480e-01,3.554321523647712699e-01,2.831598286652781127e-01,-1.826129268933541897e-04,6.903160826583455527e-03,1.600941267979838446e-03,6.445007026195526123e-02
3.253397529005708222e-01,3.174009660167933511e-01,2.963560178415111657e-01,-1.141597593960832352e-02,-7.969056621672562790e-03,-1.000225282666417602e-02,3.942856565117835999e-02
3.474910092353491464e-01,3.018887683315045201e-01,3.207052121697067659e-01,6.678823779554250543e-04,-1.529123053197271962e-03,4.128240570515639973e-03,4.043551534414291382e-02
3.241756936086424012e-01,3.357555270962262473e-01,2.809759374479098848e-01,-9.170016415313349267e-03,-5.877549246186563464e-03,-3.634714171533356356e-03,5.381537973880767822e-02
3.547606084363720824e-01,3.401291595750934871e-01,2.424439355928683093e-01,1.819477488572453661e-03,-1.045057490631509439e-03,-9.683046930333493243e-03,1.071459352970123291e-01
3.208317990081303583e-01,3.016022899686601200e-01,2.960419843045694610e-01,-5.862214831718040066e-03,-2.507726383075285954e-03,-2.978265468762703039e-03,2.561612613499164581e-02
3.154408344575855838e-01,3.165861196316634429e-01,3.062515034441531947e-01,-2.892244299814695184e-03,-1.224189104263692825e-03,-1.535634122541970625e-03,1.153020188212394714e-02
3.256633574529566033e-01,3.059767722991771910e-01,2.908652738267679672e-01,-5.835128744257549877e-03,-2.885917726547899097e-03,-1.948151849715016194e-03,3.243347629904747009e-02
2.956991904729356357e-01,3.173086381175907467e-01,2.912440356544073183e-01,-5.397521421553632889e-03,-4.231455745438914007e-03,-3.103839501148766746e-03,2.744279243052005768e-02
3.174188731279934395e-01,3.033812125084679456e-01,3.015295901960219904e-01,-6.081137997450252082e-03,-5.832053990750241633e-03,-6.675539146895866430e-03,2.394043840467929840e-02
2.550902759882485160e-01,3.262115324298663355e-01,3.598612670451523110e-01,-1.579139960452518449e-02,-4.965464519980800767e-04,-5.222301107914337562e-03,9.702789038419723511e-02
3.104664847376284453e-01,3.346512011054907365e-01,2.916608883415057196e-01,-5.149149975923871664e-03,-3.725256061878043628e-03,-1.717142448658923225e-03,3.903048112988471985e-02
3.204127180509944717e-01,3.049677171763526817e-01,3.604501545852596411e-01,-1.866335781780242148e-02,-1.820370709677958951e-03,-1.361587787157127714e-03,5.933286249637603760e-02
3.042778503325621053e-01,2.914168679215199953e-01,3.212526716110492009e-01,-2.443169809847456700e-03,-5.589126545736885186e-03,-2.375269621974486836e-03,2.829152345657348633e-02
2.946324104973740976e-01,3.172484116580259750e-01,3.632875661137383028e-01,-1.930563759802297885e-02,-2.152226250463885882e-03,-3.230764945068910401e-03,6.953877955675125122e-02
3.070677834419135999e-01,2.945718250181765807e-01,3.420629972163173327e-01,-2.539744571817095439e-03,-2.817566468802638283e-03,-8.976447215895982544e-04,4.317055642604827881e-02
2.935416249422208579e-01,3.427707280534456613e-01,3.030273854043420978e-01,2.461576302234705187e-03,-5.164171342085924210e-03,2.664887535245738688e-03,4.654027894139289856e-02
2.737333874038425097e-01,3.026057683017980282e-01,3.402729137525263847e-01,-7.699289393209574062e-03,-2.858029005317134748e-04,1.153025032016314526e-03,5.934676900506019592e-02
2.670895334461754200e-01,2.984072804420161429e-01,3.405120126834953465e-01,-1.121580325087068349e-02,-3.044333161645152754e-03,-3.952779574783394506e-03,6.726288050413131714e-02
2.808686820913794402e-01,2.516630535453805995e-01,3.332997640183018584e-01,-3.408854184245073415e-02,4.347881142763462131e-03,6.605933482204282177e-03,9.384553134441375732e-02
3.156651396401254916e-01,2.922296126883006107e-01,3.603731097993534416e-01,-2.212161311187607615e-02,-3.178510809473048763e-03,-5.535614451535728411e-03,7.201469689607620239e-02
3.145400926454667845e-01,2.851865809008713448e-01,3.446590992630610417e-01,-1.141290621932489202e-02,9.676989293418140903e-03,-1.924110172588091531e-03,5.775538086891174316e-02
6.211794408679628399e-01,6.319283198377393385e-01,3.193657177497237210e-01,1.347723787135578742e-02,7.122393231798460067e-02,4.151158586626088609e-02,3.396826684474945068e-01
2.784007918118340807e-01,2.793115772190803980e-01,3.361511544461034395e-01,-1.599910821494877899e-02,-2.796604244824717634e-03,-2.399405105875707361e-03,6.396862119436264038e-02
2.885462478389357877e-01,2.974303710229555531e-01,3.368547347177882623e-01,-5.532794327917955543e-03,-2.670754996228188929e-03,-5.604129601007121035e-03,4.680718109011650085e-02
2.950704093230859804e-01,3.288798854713441133e-01,2.944434346294329541e-01,-5.055866643719526474e-03,-3.943009323569966751e-03,-3.456957915330579646e-03,3.638475760817527771e-02
3.244603637010605723e-01,3.260868970725904203e-01,2.853726972930408223e-01,-1.106473938283349459e-02,-1.348080770832204775e-02,-1.287000236517181831e-02,5.480384454131126404e-02
3.031965647156881216e-01,3.156089831069496254e-01,2.884054087881985362e-01,-7.392144401963588948e-03,-4.490327909973610906e-03,-3.311738544672925087e-03,2.852654643356800079e-02
3.486378938905769220e-01,3.329054527028206811e-01,2.935286859647199820e-01,-4.295028842133244429e-03,2.952314594029503258e-03,5.923274187260621146e-03,5.103212594985961914e-02
3.092569821899079918e-01,2.917712281100544036e-01,3.480891640658017594e-01,-6.851299320093135088e-03,2.296117016306345026e-03,1.709098168602340897e-04,5.147256329655647278e-02
2.753031258602315900e-01,2.982710589741599527e-01,3.365339419266045740e-01,-9.690690348817740385e-03,2.625431126163313097e-04,5.024091903969941510e-06,5.614560469985008240e-02
3.496941226656842816e-01,3.212408294267041775e-01,2.818140381039700437e-01,-7.858906990385196301e-03,-2.588554300030718007e-03,-5.842898505045159355e-03,6.159294769167900085e-02
2.698510637928178690e-01,3.010230500378388574e-01,3.404967596268932972e-01,-8.372700908792895386e-03,-2.238901645486028082e-03,-4.281500497341243425e-03,6.356633454561233521e-02
4.034208849701543809e-01,2.152008757129305894e-01,3.812153686365665761e-01,-1.156965164533761345e-02,-4.395337832324777705e-03,3.678099380413233244e-03,1.795562505722045898e-01
3.042310155884596634e-01,3.281396450645627239e-01,3.075605070059513335e-01,-4.275295573928222792e-03,-4.868347133281006323e-03,-5.163283947946626859e-03,2.662742696702480316e-02
3.028011459472245148e-01,3.308812436005107438e-01,3.006049714939184603e-01,-4.470046472761553084e-03,-4.597404832844400463e-03,-4.883618011465844927e-03,3.240193426609039307e-02
3.048687895684618621e-01,3.170929095018323873e-01,3.026555949864470629e-01,-2.482131457650746994e-03,-6.941397079598611748e-04,-8.596979210415676455e-05,1.418916042894124985e-02
3.094655339241451641e-01,3.398297254293259906e-01,3.111518719841936398e-01,1.385660243557594162e-03,-1.955306783931841776e-04,-1.038530099733335921e-03,2.971084043383598328e-02
2.955807969807652258e-01,3.203708316907274978e-01,3.010554842090963912e-01,-2.326254013434819919e-03,-1.534883891488436798e-03,-4.153707022181285860e-03,2.416324056684970856e-02
3.005783439100452314e-01,3.201986317402470972e-01,3.033194039264895392e-01,-4.454957098646711300e-03,-4.899417603679153202e-03,-6.303480512362263054e-03,2.427844889461994171e-02
3.494736177024860835e-01,3.801561436031563046e-01,2.184993146098876682e-01,-1.971222673663506481e-02,-3.366978112265839318e-02,-2.775772428046436799e-02,1.702717244625091553e-01
3.041726921271855066e-01,3.517963236780016767e-01,3.225148537811153293e-01,8.388272368549209816e-04,2.442357770379831143e-03,-4.403161589268708535e-04,4.185107722878456116e-02
3.368950441999025158e-01,3.085890119070293647e-01,2.358637113452559941e-01,-6.953029826231296381e-03,-6.759588191705077562e-03,-1.954856359999450344e-02,9.786375612020492554e-02
2.934207203316669954e-01,3.397121226685859696e-01,2.966131507652683963e-01,-8.628620917781042543e-06,-1.855258337156506093e-03,-8.616987911806738617e-04,4.492056369781494141e-02
2.976662410989397434e-01,3.417495638954465842e-01,2.978951017784677302e-01,-5.672975329531946241e-04,-1.048903284133075042e-03,-1.623227856507179073e-03,4.410752281546592712e-02
3.589539355803987308e-01,3.553624459601044117e-01,2.451516958726893125e-01,-2.035183630821881581e-03,-1.733855749749102157e-02,-1.757106513859475055e-02,1.199819073081016541e-01
3.292479091228440735e-01,3.538478063185970801e-01,2.918789147119068561e-01,-6.601838629696916635e-03,-1.527318312137293695e-02,-7.234405211359594932e-03,6.251754611730575562e-02
3.127147377675545403e-01,3.305931724706630548e-01,3.259726492768104666e-01,1.009541381378536995e-02,-8.160345625697121991e-03,1.263730206079127782e-02,3.525634855031967163e-02
2.439152324982806486e-01,2.952099651892707843e-01,9.196044150843711573e-02,3.856846650482731453e-02,-9.991089941285627440e-02,8.108366738019186226e-02,2.960552573204040527e-01
3.328652396966886862e-01,3.331422061208372809e-01,2.420877823000462947e-01,-1.238690733402590671e-02,-1.246047220354601186e-02,-9.485811397106247433e-03,9.727180749177932739e-02
3.364800188699444972e-01,3.412008038976601099e-01,2.243302568695016430e-01,1.054462299918971103e-03,3.016695712362649131e-03,-5.764557797076524590e-03,1.151504144072532654e-01
2.951311199979784194e-01,3.684518870399492441e-01,3.638299088844615947e-01,1.602576219507642619e-02,-1.271689560941366773e-02,8.398586868904029876e-03,8.078151196241378784e-02
3.018898821430541779e-01,4.454014600577929639e-01,2.324190614975438496e-01,1.501880212348867191e-02,-1.169002251319160302e-01,7.268249965258004319e-02,3.048172593116760254e-01
3.325837200478388156e-01,3.461297905437769051e-01,2.731659958530361365e-01,9.079506243989177161e-03,-5.820565142642529499e-02,4.694398203334104042e-02,1.467687189579010010e-01
4.700075326609749471e-01,5.740510125685774900e-01,3.528555174443454012e-01,6.572938236759535979e-02,-1.271547588788755068e-01,5.451959903230837318e-02,3.272945880889892578e-01
3.088851195439588082e-01,3.019227489887205129e-01,3.076600721879473865e-01,1.596881397112355494e-02,-1.467318816122072274e-02,1.495776216597339767e-02,4.608217254281044006e-02
3.129236824321630084e-01,3.245050200654145955e-01,3.464634143538003475e-01,2.657473767854149661e-03,-1.183494159487964714e-03,6.627604654701673564e-03,3.205884993076324463e-02
3.079788458419370767e-01,3.272613634551184147e-01,2.638967407116903363e-01,7.197998484903963927e-03,-1.616771498116433697e-02,1.038023580861666129e-02,6.654267758131027222e-02
3.201891296270886755e-01,3.348936786347677108e-01,2.793179290554888561e-01,-1.001484622281405973e-02,-6.440149420518930488e-03,-3.473653794682092424e-03,5.430642887949943542e-02
3.193754728164345802e-01,3.429607951681444833e-01,2.690239540045678002e-01,-5.371894614159428497e-03,-6.957048495980320581e-03,-2.298372243931104397e-03,6.728091090917587280e-02
3.368512578766236221e-01,2.674362422126964622e-01,2.976996551408113145e-01,-4.320080122149310537e-04,1.722712508296456299e-03,-1.256399839562052576e-02,6.416080147027969360e-02
2.307013001636033511e-01,3.302933595123933030e-01,3.338445738021586506e-01,-3.948155554699771946e-02,-3.940975705107320481e-02,-1.165924488517856676e-02,1.415218859910964966e-01
2.142123867821219552e-01,3.692928548853975368e-01,3.615612522441251642e-01,-1.392820232439997453e-02,-1.686585558535876050e-02,1.230342628432661099e-03,1.560468077659606934e-01
3.292311277918543722e-01,2.928259432097889414e-01,3.140409050257184087e-01,3.463272693218116035e-03,8.012039694079896301e-03,-3.399908413357305946e-03,3.558534383773803711e-02
3.267476317897670124e-01,3.163455255792035903e-01,2.968629726261888258e-01,7.435871050653465077e-03,2.328781896319207043e-03,-3.495375469079022804e-03,3.015348128974437714e-02
2.768136513663702614e-01,3.411621616277039082e-01,3.072101288431058896e-01,7.113970962952947692e-04,-6.329498076338607553e-03,1.383622891840623420e-03,5.688723549246788025e-02
3.284445727281548599e-01,3.109566944420499301e-01,3.121310580938350121e-01,1.577164767281080942e-03,-2.728151105843481822e-03,8.346888127170198641e-04,1.784793473780155182e-02
2.870881200009608447e-01,3.142161188202212130e-01,3.281168894486748422e-01,1.415298415329852878e-02,-1.172006928214544726e-02,9.158706742735549244e-03,5.070410668849945068e-02
2.281688187875928475e-01,3.534311624349497638e-01,3.539843821554112813e-01,-4.420475064051354814e-04,-6.151006362556058621e-03,-2.233373974577265546e-03,1.260528117418289185e-01
2.063282289465126484e-01,3.587902700295378944e-01,3.396322697140092828e-01,-2.034155001554630721e-02,-2.723304583493587477e-02,-3.195815065889822532e-03,1.555240452289581299e-01
2.947506918806587772e-01,3.305913087915500759e-01,2.947240198108717624e-01,-2.591188711499244415e-03,-1.214517784634575872e-03,-1.425072783164185947e-03,3.627901524305343628e-02
2.207439559499339010e-01,3.454483551274493136e-01,3.427742217059278063e-01,-6.561967704358879529e-03,-1.819318780217374018e-02,-5.050274983920842800e-03,1.281543374061584473e-01
3.926002249479782491e-01,3.781228507813554907e-01,3.944562990391061175e-01,4.745822365945791266e-02,-3.612985615878263473e-02,5.146497931580198970e-02,1.373273134231567383e-01
3.136476213784939460e-01,3.199295919412259437e-01,3.173957499985718966e-01,1.350304039273551079e-03,-1.261230731568137786e-03,2.915862264465559229e-03,8.106467314064502716e-03
3.067304498153864967e-01,3.427961784870278694e-01,2.915721732188680804e-01,-6.114716992865164291e-03,-3.038704519769943376e-03,-1.300005052888122611e-03,4.713963344693183899e-02
3.011842613763338061e-01,3.303864287712134362e-01,2.871082122618575094e-01,-7.504280748589101623e-03,-3.701121344221559167e-03,-1.727869970857925453e-03,4.099935293197631836e-02
3.056688064276524286e-01,3.433808663287607477e-01,2.877844746378988017e-01,-3.922041774146875319e-03,-5.438197027711304254e-03,-9.621669423241329799e-04,5.053860321640968323e-02
2.980420320790611588e-01,3.284132937906205640e-01,3.199964942300701498e-01,3.231404909402628943e-03,-6.276282059236669604e-03,6.997722222524165384e-03,3.215637803077697754e-02
3.306335382081151408e-01,2.981398021771770601e-01,3.129902997835533052e-01,2.228103971009314128e-03,6.771831248357070877e-03,-2.686146706097367141e-03,3.111180849373340607e-02
2.940690488708708750e-01,3.436383335243408110e-01,3.121934245525305185e-01,9.168952453167544467e-03,-1.365389685760088657e-02,5.368049568753176237e-03,5.277441069483757019e-02
3.290092639642851480e-01,3.349989158442082116e-01,3.284578933206316331e-01,1.185900942319050543e-02,-1.250173891952476891e-02,1.139147464562755528e-02,3.632586076855659485e-02
3.162461557491563768e-01,3.404724264340135420e-01,3.100225038219964757e-01,-1.121673492488619878e-03,2.068406112502319590e-03,1.626465669891689544e-04,2.816222049295902252e-02
2.808018413293132398e-01,3.265860925445791541e-01,3.637512715175072464e-01,-8.912191556702976983e-03,-1.906407702415637961e-03,1.009125512743777164e-03,7.369713485240936279e-02
3.080746447041766145e-01,3.357691762383947509e-01,3.097021039245878571e-01,5.277696584240910548e-04,-1.292671613143339497e-03,2.983033378016509973e-03,2.751559764146804810e-02
3.076081315237213509e-01,3.290881732937153137e-01,3.087946319668643524e-01,8.300373786177038613e-04,5.086249429895592150e-04,1.354739034449227962e-03,2.111072838306427002e-02
3.188542420193583582e-01,3.333908965398525437e-01,3.139994805806767264e-01,3.439389583419728488e-03,-5.159121155095161126e-04,1.489264109751125848e-03,1.866535469889640808e-02
3.653353730011185130e-01,3.861132852706061769e-01,2.696153667477186322e-01,2.534604360332677261e-02,-2.169813043032837313e-02,3.655414561983268140e-02,1.375907361507415771e-01
3.435318650430343457e-01,3.305453238666228311e-01,2.645659347804650841e-01,1.256184036587561226e-02,-3.361534379612702173e-03,1.475938371493203116e-02,8.086773753166198730e-02
2.789885436312553590e-01,2.699291831546739573e-01,1.126286806509443905e-02,3.010029725580206164e-02,-5.017635414572915731e-02,9.070018081361394535e-02,3.229308426380157471e-01
3.442668309903980095e-01,2.491501267370286599e-01,2.383057183025987236e-01,6.201557779475801863e-02,-4.229552314440919447e-02,9.357791477395960289e-02,2.310222536325454712e-01
4.090863921984409513e-01,3.444765810165721365e-01,3.128369962615172861e-01,1.548935999296841524e-02,2.926082561813966431e-03,7.347127620728723107e-02,1.554324626922607422e-01
3.269279553061305021e-01,3.227136039892344321e-01,3.190520143072674841e-01,-5.877098851060272690e-04,1.212067425359902514e-03,8.177773605067625720e-04,7.351804524660110474e-03
3.491704065229743748e-01,3.589967848104299031e-01,2.350686363692519876e-01,6.436099681859971076e-03,3.402234497504607030e-03,-4.581155383713749960e-03,1.202453151345252991e-01
3.352542078740029519e-01,3.263466486069039885e-01,2.663272996484782329e-01,1.142580719141523919e-02,1.960248177461804131e-02,-2.601540665106545289e-02,8.826729655265808105e-02
3.305066327400611459e-01,3.093048901853496235e-01,2.974280393078029272e-01,2.636796579710473654e-02,3.764583659525057996e-02,-3.557713096749913484e-02,1.047712564468383789e-01
3.565706774819416558e-01,3.601175431907434610e-01,2.889728882033102964e-01,4.113780860191802724e-02,5.471623695710849805e-02,-1.853669008951956340e-02,1.411070078611373901e-01
3.235324080236486322e-01,3.697133325425460137e-01,3.373835876371432674e-01,6.876755272717732966e-03,1.785858895167432431e-02,-5.516379016917446684e-03,5.361735448241233826e-02
3.592029343368798311e-01,3.053081943688010225e-01,3.233457049618534973e-01,-2.920757952864208931e-03,1.367299007840192242e-03,5.219337251667057961e-03,4.869079217314720154e-02
3.265973314843477193e-01,3.498504092652074404e-01,2.827986358892644603e-01,5.290962129306414933e-04,6.094735240650916291e-03,-2.821256331731732646e-03,6.011357158422470093e-02
3.080068729863107979e-01,3.243600028398178070e-01,3.475350289595198761e-01,1.333406107062939938e-02,-3.925180962566846010e-03,7.491069027450303688e-03,4.394828528165817261e-02
3.153279986724960571e-01,3.111005746912624548e-01,3.377247422944452127e-01,9.438411075743718872e-04,-2.538410445785168820e-03,1.293148896061746544e-03,2.532164193689823151e-02
2.996256949823432603e-01,3.026121744082708176e-01,3.374585707727298378e-01,9.701627108021150178e-03,-6.061428725141819636e-03,5.903624762611302777e-03,4.271304607391357422e-02
3.089106428171619068e-01,3.039807318115559931e-01,3.381159056325171997e-01,4.029013322104054926e-03,-3.802213254236981328e-03,1.660671473820374928e-03,3.348990157246589661e-02
3.192628569860544996e-01,2.926350403691792001e-01,3.398239143045806987e-01,7.363165620520166141e-03,-5.587990509344408809e-03,2.486474344087660944e-03,4.420595988631248474e-02
3.540668313834136605e-01,3.574577442998658205e-01,2.258001149969494081e-01,2.791640446603713827e-03,1.642666622311234103e-03,-4.463128938999628287e-03,1.303457915782928467e-01
3.785519376229306565e-01,3.705422787483989566e-01,2.957569766939834310e-01,2.303770740725299797e-03,1.989811010974160133e-02,5.059139214885023661e-03,8.681308478116989136e-02
6.034845476939073583e-01,4.470112479333485100e-01,3.652482759564454895e-01,4.776389322151428779e-02,2.210994333234615403e-02,1.990624812843095337e-01,4.137041568756103516e-01
3.530669849039344554e-01,3.406327296042022668e-01,2.420306842344440157e-01,1.611171117780559612e-03,-1.312012154320801351e-03,-9.502384577431478505e-03,1.067092046141624451e-01
3.111643859151669855e-01,3.166802380620312163e-01,3.262103036443620985e-01,-2.745626778985417113e-03,1.545463162487485664e-03,4.648676034021231168e-03,1.638366654515266418e-02
3.146071225729206167e-01,3.144269613084843540e-01,3.268903863823945377e-01,-5.948156086984953111e-04,2.043267874093562374e-03,1.064831604471437772e-03,1.304269302636384964e-02
3.088604618066733698e-01,3.027711563134976025e-01,3.329426890958293583e-01,-3.453936178868656764e-03,5.146461356168557065e-03,2.893546008620407652e-03,3.006729856133460999e-02
3.102644797320104897e-01,3.078457138447751040e-01,3.358602184261250123e-01,-1.157698451434634873e-03,2.968712574750325545e-03,1.469637736452007216e-03,2.756523899734020233e-02
3.145482444445147907e-01,3.104975683964750766e-01,3.306661854292689551e-01,-2.069414119173728934e-03,5.630761799838090260e-04,1.041117431368913070e-03,1.893501915037631989e-02
3.366235922111774359e-01,2.458652713265161438e-01,3.186750363340795089e-01,-1.759575866187365611e-02,-7.820108054018578767e-03,-2.916920346795010693e-02,1.029323264956474304e-01
3.593287620534543758e-01,3.327598857817573585e-01,2.782553375347422975e-01,6.751032759461181136e-03,-2.420186771431280786e-03,6.443691959289012464e-03,7.350945472717285156e-02
3.471171438128271003e-01,3.437275431203773990e-01,2.333322012322531780e-01,1.357794344871678365e-03,7.452363580042720929e-04,3.180452196681129561e-03,1.122958585619926453e-01
3.238481090916824345e-01,3.543718098352512391e-01,2.744667809739516073e-01,-2.620004882708027762e-03,-7.082168001220732513e-03,-1.042690834265203124e-03,7.107628881931304932e-02
3.453780613040874359e-01,3.032687047087916921e-01,3.204652259313083840e-01,1.830569611608668214e-03,-3.273602270023274162e-03,3.266379159053978132e-03,3.766953572630882263e-02
2.912011642764627539e-01,3.378065135346993153e-01,2.847492196124196129e-01,-1.943730416997223494e-03,-6.221911898952206185e-03,-1.926942052876268966e-03,5.150719732046127319e-02
3.571748619384651491e-01,2.289345470773968827e-01,3.492147695883457414e-01,-4.026076028704739934e-03,-3.671727779232780361e-03,-1.319183003056562803e-02,1.268829405307769775e-01
3.360892357263388641e-01,2.497466570785236983e-01,3.231717276386038562e-01,-5.268931238685349398e-03,-8.641353414334588395e-03,-1.219959608830848211e-02,8.520778268575668335e-02
3.325911035684666617e-01,2.903282274857403866e-01,3.176310114760672043e-01,6.444732477515011798e-03,-9.878410253756943205e-03,5.392684819448129163e-03,4.338541626930236816e-02
3.255369085287022624e-01,2.201294263612079138e-01,3.306715020039825426e-01,-2.897892202634008360e-02,-1.282387124461179667e-02,-2.658081019680018364e-02,1.296558231115341187e-01
3.212968809052894059e-01,2.817932498608360370e-01,3.384051196744601864e-01,-5.221208258671524924e-03,-8.466040430558605459e-03,-4.131425227050547835e-03,5.363839119672775269e-02
2.958901235114250183e-01,3.158241068934389273e-01,3.486525852087890009e-01,1.959753682525075882e-02,-8.945464234181282198e-03,6.949012771929329556e-03,6.055242195725440979e-02
2.991952121757650573e-01,3.315215000205650742e-01,3.122953742928397114e-01,1.493179895615096356e-02,1.975273524529055219e-02,-1.769760037270096814e-02,5.976726859807968140e-02
3.243242178389270092e-01,3.240773984548027675e-01,3.193469096364630611e-01,1.174157508352462707e-02,7.811632051383620226e-03,-4.071207209817712114e-03,2.588414028286933899e-02
2.969247114849130620e-01,3.428985371036377128e-01,2.949902647935805922e-01,-4.342922845207495934e-04,-3.167677775109349354e-03,-6.150276653623585037e-04,4.730826243758201599e-02
2.927088908871362527e-01,3.305752530645842402e-01,3.117489466212335913e-01,4.037956358288293662e-03,6.001426807958981646e-03,-9.200531121893843617e-03,3.855286538600921631e-02
3.468460047185464301e-01,3.331971578688263658e-01,8.926860557282495501e-02,-3.947801896959729495e-03,-2.859754110370841054e-02,-7.108801286131266606e-02,2.840378582477569580e-01
3.000686540947835601e-01,3.398906596431517935e-01,3.327012776822484419e-01,4.104506221542745040e-03,5.568869124006226023e-03,-8.187320252971242579e-03,4.118080064654350281e-02
2.664186290663318468e-01,3.228672198445841079e-01,3.139551457187262362e-01,7.894190618252291958e-03,1.548316775962321409e-02,-1.262149359038549322e-02,6.439597159624099731e-02
3.073566630068292338e-01,3.478314322017982962e-01,2.982525361575488199e-01,3.483569464660686826e-03,-3.882259465983165132e-03,-2.260739264652786285e-04,4.659779369831085205e-02
3.195116396588000840e-01,3.186302675168412590e-01,3.367399087631555710e-01,9.548819648421948136e-03,5.880519868257937620e-03,-7.198392751345392658e-03,2.907759509980678558e-02
3.157236156587532316e-01,3.007048697760388856e-01,3.142884019830292086e-01,7.079882359090702501e-03,-8.627027092915112022e-03,5.605849159182196492e-03,2.596141584217548370e-02
3.086186705064095093e-01,3.291835010896819180e-01,3.515802041305248760e-01,1.020222935431654501e-02,1.019667382823701181e-02,-1.998485136547389213e-03,4.495846480131149292e-02
3.062388037572712496e-01,3.450877192490268142e-01,2.885498199025058885e-01,-3.528318483242662371e-03,-5.426097305493935222e-03,-1.008841679953562543e-03,5.136208981275558472e-02
2.951693406575688905e-01,3.350921470412105974e-01,2.890045380543935782e-01,-4.453002038522066788e-03,-4.623577890101956793e-03,-2.834897728285119128e-03,4.500757157802581787e-02
3.025317875557123060e-01,3.147983810427549267e-01,3.051681307985810165e-01,-6.336520948608723690e-03,-4.257996407740664152e-03,-5.900430131711622422e-03,2.010900340974330902e-02
3.712731057701468274e-01,3.440242626052252284e-01,3.416340135718551330e-01,-1.261215513068088614e-02,1.263575454803237547e-02,2.493018449940423431e-02,6.028326973319053650e-02
3.195087939007226208e-01,3.033920585928422953e-01,3.375740040026387612e-01,2.935541920531634791e-02,3.786859171249155886e-02,-4.483331276195690052e-02,1.174506023526191711e-01
3.243198171123642948e-01,3.184468808190831779e-01,3.154521487074037900e-01,-8.059746983735952735e-04,9.990389065534430440e-04,-4.917356675100633713e-04,8.167992345988750458e-03
3.145476161939213533e-01,3.121629898868674147e-01,3.329810255936752617e-01,4.506552005583423087e-03,4.896757964655558404e-03,-7.496101582537015827e-03,2.628440968692302704e-02
3.134504766485915472e-01,3.163740345454965630e-01,3.374703185267606265e-01,1.293048061930477874e-03,1.107466825339515140e-03,-2.617512553356039599e-03,2.333508245646953583e-02
3.047613442975815601e-01,3.316042772053748866e-01,3.346853357683851615e-01,-2.099384770346231395e-03,2.975946515811821354e-03,6.715931528542867963e-03,3.142996877431869507e-02
3.157882976554208798e-01,3.130690814171219194e-01,3.310055134573945401e-01,2.229336539061388574e-03,4.206641661693674358e-03,-1.771691429993515554e-03,1.891429908573627472e-02
3.116211342970382492e-01,3.406509907197277642e-01,3.036540560566342029e-01,5.125722833463231681e-03,-5.351265214420706899e-03,9.089673723700241381e-04,3.612057492136955261e-02
3.191996248476082765e-01,3.019765406748032288e-01,3.472129696523004183e-01,-2.981164083437585956e-03,4.838397698409343736e-03,1.376177350187261480e-03,4.082195833325386047e-02
3.548301634268913318e-01,3.587326467043484568e-01,5.570933623199081364e-01,-1.542263069320429780e-01,1.089207815866706681e-02,2.502998605162849027e-02,3.372372686862945557e-01
3.024269329568642917e-01,3.323440147181018212e-01,3.099977615890905924e-01,6.476858890802889186e-03,-6.261124518749980328e-03,4.907328514349838626e-03,3.227308392524719238e-02
3.204822776067894896e-01,3.048265589757579441e-01,3.302593885502299043e-01,-1.303673089923092394e-03,6.200606933388111593e-03,1.198242153281588130e-03,2.486985549330711365e-02
2.866742351377819520e-01,2.945817495631802840e-01,3.369355208124048540e-01,-5.082077026459254007e-03,-1.492537344331116081e-03,-1.922460805230505722e-03,4.781774803996086121e-02
3.109212498084023557e-01,2.959547983051108444e-01,3.376655032777561294e-01,-3.578031843750066956e-03,1.833821878793170197e-03,4.560207639499441181e-04,3.726440295577049255e-02
3.079366704841757785e-01,3.615524532557858328e-01,3.280946582135881306e-01,6.048317563240022433e-03,-1.442398446762326210e-02,5.492805842337406333e-03,5.499657616019248962e-02
3.527828468490332159e-01,3.554229928717174136e-01,2.224153737339079617e-01,-2.444882509826642059e-03,-4.703327619479375984e-03,-6.291890750738977564e-03,1.324760317802429199e-01
2.870991905829437529e-01,3.355577301684576907e-01,3.095742690097588734e-01,2.214346543670982215e-03,-6.837453906071809008e-03,5.481009715820319914e-03,4.482562094926834106e-02
3.337807595321026777e-01,3.510656961555499445e-01,2.990331577787680994e-01,-3.010187181036558680e-03,7.661735536932405902e-03,-4.904318412591460521e-04,4.807064309716224670e-02
2.962975467298188392e-01,3.378937902097952084e-01,3.147559970563099108e-01,7.386258315231114362e-03,-9.990727332230575977e-03,4.840996182485488714e-03,4.285533353686332703e-02
3.592844225155310545e-01,3.551431364302958249e-01,2.190458193533465769e-01,1.372633996550465252e-03,-5.136863111027754891e-03,6.961868452813463337e-04,1.385262310504913330e-01
4.957103578496469543e-01,4.121219197721971983e-01,1.818699513161135539e-01,2.679611864451895281e-02,2.852536921572022127e-02,7.121257699655075823e-02,3.147352635860443115e-01
3.182205959457727884e-01,3.176217918795948836e-01,3.220315253930625676e-01,-3.378778201831753383e-03,3.689766887689393919e-03,4.202349394388580142e-03,1.205132901668548584e-02
3.598694875487897793e-01,3.382899070102086125e-01,2.985476189718159201e-01,-4.117426563937740674e-03,2.003618076969583463e-03,5.812616099015933957e-03,5.538061261177062988e-02
3.254582191523168744e-01,3.462679994992614585e-01,2.789554285492344965e-01,-2.267334626711371790e-03,7.088007486785338936e-03,7.407621111519248564e-04,6.108238175511360168e-02
3.163153565046626370e-01,3.192636536692799454e-01,3.287675692960352336e-01,-3.231829194771443630e-03,4.380071424467666882e-03,4.600691143833830765e-03,1.671602763235569000e-02
3.122418690088454851e-01,3.133320832743035078e-01,3.155427034223324267e-01,-2.887442104102993633e-03,1.450448822562903006e-03,3.423158881357124365e-03,8.658110164105892181e-03
3.207356802200903578e-01,3.175497912125551658e-01,3.197489294677389182e-01,-3.073352576287804484e-03,2.526693948477897779e-03,3.397730738425823807e-03,9.492240846157073975e-03
3.508636083884774659e-01,3.596379192682611081e-01,2.506575331355123115e-01,-1.927187738383736768e-04,5.212885527644248174e-03,1.137596515350274657e-03,1.052758395671844482e-01
3.099931413680617753e-01,3.137013435382818849e-01,3.187092383807487161e-01,-2.568266406280337102e-03,1.354756657187242488e-03,3.944460513400877694e-03,1.137411314994096756e-02
3.070936958850056797e-01,3.183886114798196720e-01,3.211011554197157891e-01,-8.388796054891426053e-04,2.065488361599756087e-03,5.309208422359821752e-03,1.628017053008079529e-02
3.102056335343119642e-01,3.440880916193315708e-01,3.237592284317131752e-01,6.966700598016383091e-03,1.810532148136710651e-02,-7.888176092984366949e-03,4.677792638540267944e-02
3.471412273105144997e-01,3.470964662107948739e-01,3.033955442529399082e-01,2.108385227635310721e-02,2.731695311491282030e-02,-1.245518374496147260e-02,7.713208347558975220e-02
3.288250878780606401e-01,4.229843444614778125e-01,3.731776617546773700e-01,1.303515039528003149e-02,5.043932314599008232e-02,-1.970853977053965353e-03,1.216991618275642395e-01
3.301681425192231067e-01,3.193238635727111974e-01,3.100502089819525686e-01,4.810874396643667270e-03,-1.197938383419515059e-03,1.805544019271897302e-03,1.968968845903873444e-02
2.489945916248595403e-01,3.373167950923190439e-01,2.161706429523825301e-01,4.899847412206680131e-02,1.031956412987313637e-01,-3.056537199560513396e-02,2.317986339330673218e-01
3.112825544406178091e-01,3.419811415247658859e-01,2.484722845955596449e-01,1.726554179140847491e-03,-9.323827944925157027e-03,-4.656894522586849084e-04,8.417906612157821655e-02
3.874282624693816679e-01,2.441959635601836376e-01,3.065833079621181345e-01,5.442959255487911374e-02,-6.620012255109020138e-02,1.342550309635056616e-01,3.026221096515655518e-01
2.385760420845484120e-01,3.390339410707320922e-01,3.046681419617242037e-01,-1.202953523193049526e-03,-1.498075938448661069e-02,1.764688687637726858e-03,9.223575890064239502e-02
2.381819188112478114e-01,2.278648348932948986e-01,1.287026586602967315e-01,7.394233356686125136e-02,1.200183792098669100e-01,-1.056238836361676342e-01,3.225639462471008301e-01
4.103484817641321336e-01,3.837306314681807606e-01,1.712733394965970657e-01,2.756512531832399845e-02,8.857320987615478758e-02,-1.253297101984177098e-01,3.527598679065704346e-01
3.138696164311338688e-01,3.114920497918499120e-01,1.752219600556650658e-01,3.457203123143849643e-02,7.601068895327264818e-02,-5.651437667590902825e-02,2.222596555948257446e-01
3.686542001292263948e-01,3.358993610270319952e-01,3.341513667132451348e-01,1.028880159029082197e-01,1.556670328304215478e-01,-6.345189466009984458e-02,3.430249691009521484e-01
2.953528988009352374e-01,3.412209392303104938e-01,2.919892251932376115e-01,3.098337073087882804e-04,-2.201412956528025003e-03,-6.287601759353730316e-05,4.779450967907905579e-02
2.629737321688221385e-01,3.734177508491122177e-01,3.497617296715793689e-01,-3.677053544043663857e-04,-6.572714951560208567e-03,2.280074663307460597e-04,1.013656035065650940e-01
2.761485881180316126e-01,4.253360102243995411e-01,3.142326569558662741e-01,5.552162150117062600e-02,1.084978716112018765e-01,-7.749232344878194401e-02,2.839086353778839111e-01
3.342411393797291574e-01,3.103055740212273816e-01,3.032392287660668484e-01,4.008167988029830674e-03,1.921404430287470622e-03,-2.681369661610107265e-03,2.954356744885444641e-02
3.283812302418732121e-01,3.019596298743813523e-01,2.795327387558914634e-01,6.767500174782665849e-03,2.251939208529393083e-03,-1.041499232807295908e-02,4.766180738806724548e-02
3.461459568859906466e-01,3.067408688151663787e-01,3.063570298759728527e-01,-5.359172797940471231e-03,-4.972042401704014972e-03,-6.818223155117091906e-03,4.321832582354545593e-02
3.310366567885034694e-01,3.000664843564993522e-01,2.998746075381311105e-01,-5.523144889938706725e-03,-4.853546773346689019e-03,-7.331251171119097625e-03,3.589649870991706848e-02
3.321603355237111588e-01,2.983371906483355263e-01,2.923800656894226524e-01,-4.887206765727104829e-03,-2.322408214093445861e-03,-3.998716701984880197e-03,3.894593194127082825e-02
3.132237334251203875e-01,3.576033074861276750e-01,2.951532103730812318e-01,3.774586304344747668e-03,-3.660774722008950776e-03,3.535417650774111582e-03,5.673179402947425842e-02
3.400515101051283517e-01,2.977521874106182631e-01,2.997655809101314461e-01,-8.756699774619413918e-04,-2.406477637522211419e-03,-1.178266846903150769e-03,4.161682352423667908e-02
3.459558407562641769e-01,3.288405604508665148e-01,2.636459413299203081e-01,-2.586293721555015315e-03,5.604950304621861626e-03,1.585390592380559599e-02,8.079262077808380127e-02
2.717242806519065135e-01,3.372874401221794827e-01,3.013119174973961645e-01,2.477430983513884133e-03,-1.404918954326756821e-02,5.550310632010994893e-03,6.274605542421340942e-02
3.205913178172121736e-01,3.156828508969833358e-01,3.186898952517478456e-01,5.864625133889405685e-04,-4.756464481041966313e-04,6.857003760313111485e-04,4.636428784579038620e-03
3.734269233994864656e-01,2.309790178133899197e-01,3.766677580874876474e-01,-2.206351850961638453e-03,2.298877968097711756e-03,-1.011107786456423661e-03,1.442119479179382324e-01
3.247868549894826762e-01,3.121860353895459239e-01,3.116617239664315475e-01,-1.695406533964462052e-03,3.682364102229072466e-03,2.252778500052266073e-03,1.517201308161020279e-02
3.472230895716154064e-01,1.710194398698692275e-01,3.468119619118588681e-01,-5.355821002830923189e-02,-1.040403630122112982e-02,-1.369010247369278899e-02,2.011663168668746948e-01
3.422536414700541596e-01,2.249907183907861319e-01,3.508460790811916419e-01,-3.398637518753419573e-02,-1.562960297301514700e-02,-2.099313538626147724e-02,1.426611691713333130e-01
4.043461380897533930e-01,2.192637789461386877e-01,4.210503419296991456e-01,-1.163328428437901928e-02,1.932566773555864648e-02,9.458997765233628004e-04,1.978769600391387939e-01
3.590809489239389363e-01,2.352295326337827674e-01,3.598169127734766048e-01,-3.785505127994158881e-03,4.387462702214523468e-03,7.160653424144410896e-03,1.252414882183074951e-01
3.527552760299410561e-01,2.321798888914501091e-01,3.707844458538402388e-01,-1.087400137438025369e-02,9.039153659551920749e-04,-3.467919520204938450e-04,1.318897008895874023e-01
2.745566263227054438e-01,3.193724350563694747e-01,3.009440279482838432e-01,-8.627039189827094556e-03,-7.413363050537479654e-03,-1.293559197399654116e-02,4.911536350846290588e-02
4.113454682608883584e-01,2.689258911280359987e-01,4.209661830066462884e-01,-3.344783794330856430e-02,2.154792282035937478e-02,4.409544565169476807e-03,1.629528105258941650e-01
3.543050077237827611e-01,2.455817510488600142e-01,3.617060536484792976e-01,-1.173950737148794950e-02,3.957836684233396671e-03,7.091444547680660071e-03,1.152887493371963501e-01
1.852752047802655178e-01,2.966690908955509909e-01,5.032397754450218530e-01,-1.005550618898751053e-01,2.546210116554003741e-02,-2.599739962287202916e-02,3.352570235729217529e-01
3.168604169342481569e-01,3.874540299991132697e-01,4.413137504935420452e-01,-8.497410879019529073e-02,-3.208793033173791553e-02,-1.433535098016323374e-02,1.924933493137359619e-01
2.696469978167765902e-01,4.251974178020658801e-01,4.557441282104346403e-01,-5.482212185992989956e-02,-1.084457790234794744e-02,-1.708861979235505504e-03,1.981377303600311279e-01
2.165626339968842462e-01,3.548569983568459207e-01,3.856206432629518677e-01,-5.373648902215341638e-02,-1.483939886712760253e-02,2.331923572227194777e-02,1.878323405981063843e-01
3.341294370631150423e-01,3.542751333930680424e-01,2.969565179904943841e-01,-2.666036028620558281e-03,7.367435582322163883e-03,-1.202267013939125787e-04,5.216084048151969910e-02
3.100866662543608765e-01,3.354365247705482500e-01,3.058165711117104002e-01,-3.797823399804420557e-03,8.076311471655724106e-03,4.745322151831942586e-03,3.279634565114974976e-02
3.221842770997893624e-01,3.324338176738660944e-01,3.630633908788782338e-01,-2.742074179308589751e-02,1.769729689919271112e-02,2.030299277614334985e-02,7.608594745397567749e-02
3.245644639897941608e-01,3.454243191095975885e-01,3.064645942234022202e-01,-2.225624090885642593e-03,3.303828354982486955e-03,1.372079506884307321e-03,3.454784303903579712e-02
2.421180793933861986e-01,3.166516964344268659e-01,3.963960466528266280e-01,-6.125510312836508070e-02,7.787250061560250722e-03,2.517257612271887532e-02,1.766281872987747192e-01
3.333161536605573350e-01,3.438662645039273213e-01,2.931143166499637909e-01,-4.553339567888453274e-03,6.839721443923764063e-03,1.120323108804640103e-03,4.855858162045478821e-02
2.581395142975192458e-01,3.302375018327493583e-01,2.872396899469449316e-01,-5.538630862613923983e-03,4.090553870236858514e-02,8.511823402305055547e-03,9.631223976612091064e-02
2.755204877672072228e-01,3.560294057332567541e-01,3.467852688142707418e-01,-2.010962743059930245e-03,3.072985658335538467e-02,7.496863403178032070e-03,9.400328248739242554e-02
3.112858848927673172e-01,3.489450323148914346e-01,3.047628941104523204e-01,-2.287535371975896528e-03,5.749285081298294298e-03,9.385603652334774264e-04,4.270731657743453979e-02
3.097147511447267410e-01,3.416369362194677239e-01,2.432263548667835673e-01,-1.018021088622261469e-02,-1.827004913301522038e-02,-4.909630868032753212e-03,9.458749741315841675e-02
3.564473680572465275e-01,2.783479760670465319e-01,3.332453682753724333e-01,-1.850494229885588484e-03,4.200947723285643198e-03,7.573919623483165407e-03,7.114137709140777588e-02
3.120587497370838626e-01,3.380037715698705481e-01,3.015079344571279241e-01,-4.900288957333258713e-03,3.953229424310446966e-03,3.990641868314419999e-03,3.499861806631088257e-02
3.120625649869666618e-01,3.491558543167519457e-01,3.199197767391659397e-01,-2.765066638011816173e-03,1.252179835260936076e-02,5.271372354336419444e-03,4.150762781500816345e-02
3.424537502919401399e-01,2.624784364841820095e-01,2.786057375939037795e-01,1.898288357374887381e-02,-1.495970526405431336e-02,5.227715333664304659e-02,1.237638294696807861e-01
3.086728472627383035e-01,3.494936961488403493e-01,3.153889360779243978e-01,-4.931933419781691502e-04,3.963964500549090400e-03,-4.501352279848718657e-04,3.854565694928169250e-02
3.603839616410628999e-01,3.126492448272855662e-01,3.324856723235632416e-01,3.011021072463607607e-03,3.433336180650471085e-03,2.391960955520834944e-02,5.919633433222770691e-02
3.426408420906529306e-01,2.699221999968525187e-01,3.339225759751242029e-01,-5.995733663574828384e-03,1.277808099396124039e-02,1.051823964599245265e-02,7.523039728403091431e-02
3.425832321838814254e-01,3.055038799861314880e-01,2.998319883157433141e-01,-3.843606303917803746e-04,1.242490775395690972e-03,6.547342690434077364e-03,4.184538871049880981e-02
3.385071690565273350e-01,2.740744809718283492e-01,3.040356289773942233e-01,-1.165633181597773398e-03,2.019267395750099295e-03,1.169980659558812058e-02,5.954602733254432678e-02
2.049891937252912300e-01,3.297642268085576589e-01,3.371101138102396977e-01,2.755312343305290831e-02,-3.386314309508214881e-02,1.846500735862625225e-02,1.525774747133255005e-01
3.495531042750829598e-01,3.111522907785074232e-01,3.149638020866386001e-01,5.560321907833361017e-04,4.231201208256233520e-04,1.708667533107247451e-03,3.678325936198234558e-02
3.431178393948271510e-01,3.317708471321158537e-01,2.912489264019746393e-01,-5.420527485688338143e-03,3.096274566881603713e-03,5.888732575348307012e-03,4.951283335685729980e-02
3.402977756402509879e-01,2.754410316892538790e-01,3.064671124975637539e-01,-1.117768762495614712e-03,3.009077568546419772e-03,1.202517025835765294e-02,6.017882004380226135e-02
3.489144927987719025e-01,3.120071609151457981e-01,3.123361423439109941e-01,-2.055992427143559648e-03,3.811725271333217362e-03,6.011376889568497556e-03,3.892038762569427490e-02
3.278022734160205842e-01,3.466269356527308942e-01,2.697006845509427042e-01,1.004937621559973127e-02,6.549281845639630915e-03,-1.491300617740073074e-02,7.695939391851425171e-02
3.569849439894359211e-01,3.303420395237961493e-01,1.252683269296752389e-01,-5.753074695081778975e-03,-2.573251580682908018e-02,-8.385487440051606067e-02,2.672256231307983398e-01
3.186854541473806979e-01,3.265437669617252125e-01,3.133561497489220637e-01,3.085107757509053007e-03,-4.180099654178133159e-03,3.922067032935142028e-03,1.609829440712928772e-02
3.419625042794290359e-01,3.314560635782818898e-01,2.911947483384878521e-01,5.887290053921679506e-03,-2.502196530619124094e-03,5.541479686279607991e-03,4.867493733763694763e-02
3.492127635398899477e-01,3.128254208793923019e-01,3.124061644132927751e-01,1.652733860157275898e-04,3.512287597190490423e-04,1.038689807578459376e-03,3.664913028478622437e-02
3.705339672041281229e-01,2.938122674802255418e-01,2.167289677633942868e-01,-1.792523519900895979e-02,-2.824324574241535851e-02,-8.061715606631195130e-02,2.014854252338409424e-01
3.129481262153093191e-01,3.153726310915336284e-01,3.174966039275037288e-01,4.773872228735145593e-03,-7.099540861840473657e-03,7.638451193993948604e-03,2.025233022868633270e-02
3.162956648676645832e-01,2.711980363947634198e-01,3.392311912818543607e-01,-5.942336011996144848e-03,-8.731803660431598085e-03,-7.192962917281755554e-03,6.390661746263504028e-02
3.115519147193244742e-01,3.056301375258769215e-01,3.006540691545532828e-01,-3.302969152955287542e-03,-1.575913071787531398e-03,-7.034523774699578784e-04,1.144376397132873535e-02
4.150945933856962089e-01,3.895155806086183503e-01,2.518326910153871334e-01,-6.685834729306477930e-03,-1.989770588466541201e-02,-4.900631906862701337e-02,1.779308021068572998e-01
3.504388679997412770e-01,2.947417588967156110e-01,3.351584795966405794e-01,1.253207721898084819e-03,-4.452959380249950708e-03,5.713189787979924827e-03,5.144613236188888550e-02
3.092032100267921857e-01,3.391297347910507409e-01,3.036384223061898702e-01,1.924601372926378973e-03,-1.037983374753286264e-03,4.825576160313893061e-04,3.328876197338104248e-02
3.903049477635823772e-01,3.475898580368844137e-01,2.071150336082972498e-01,-1.469814563893570569e-02,-1.307762805855241725e-02,-3.526269449903250003e-02,1.801380068063735962e-01
3.597148243551845370e-01,3.509923123093612318e-01,3.220273730578321891e-01,-1.638739068439009836e-02,2.888536917542370089e-02,2.180670633204824516e-02,7.683116197586059570e-02
3.727223909055356055e-01,4.247932600868485897e-01,3.209965904395196690e-01,1.695731415042537119e-02,-5.533372851159883837e-02,2.630638589866540755e-02,1.421426534652709961e-01
3.224470440170297825e-01,3.454548789213552906e-01,3.065403626358226830e-01,5.674002192667960617e-03,-3.747765952165138092e-03,2.394447477240596502e-03,3.611483797430992126e-02
3.154452067966880824e-01,3.279124178891058006e-01,2.982789386448929658e-01,5.005959493567200061e-03,-3.375777864637426271e-03,2.371444110718036631e-03,2.811343781650066376e-02
2.933118292519017456e-01,2.716300716564528095e-01,3.161646887616329504e-01,-8.428307083721693974e-03,-1.062899229137620298e-02,-4.419889739125089020e-03,4.580920934677124023e-02
3.264341058920419703e-01,3.363328690768306872e-01,2.778900446762467835e-01,1.363600776459434651e-02,-2.343228455764357482e-02,8.831770829090073577e-03,7.330808788537979126e-02
3.156423073733736762e-01,3.227732541722602155e-01,3.136420014341979035e-01,-2.219949435868756593e-03,5.631911899505498593e-04,5.923442476160377737e-04,9.268462657928466797e-03
2.817564440970221629e-01,3.920583238213401489e-01,1.722702406707474487e-01,-5.448070721778212888e-02,1.556762867060076383e-01,3.960208177934498863e-02,3.500642776489257812e-01
3.616912574389765656e-01,3.303240959754834005e-01,5.534211877890635733e-01,-1.609064332807026432e-01,4.710688401312790319e-02,5.436905623342382782e-02,3.700757920742034912e-01
3.162891173304051562e-01,3.429794226220381770e-01,3.036222733962907760e-01,-9.572831341080733497e-03,2.192306346148975918e-02,1.239032829614734876e-02,5.820861831307411194e-02
3.286846927182737188e-01,3.911712828962897737e-01,2.888942674859526494e-01,-5.236548106296464410e-03,4.861480287479755941e-02,3.730862826517360783e-03,1.232413873076438904e-01
3.187714725450521147e-01,3.325572490529175029e-01,3.132824971901539413e-01,-1.017917924600601504e-03,1.801712230829682860e-03,1.222937559224953567e-03,1.769689098000526428e-02
1.360284082939987038e-01,3.068466190584631659e-01,1.715637634812800238e-01,1.115378289037371323e-02,1.307219087382548162e-01,-7.618977866540204910e-03,2.760137021541595459e-01
3.007284284112659023e-01,2.962623331791566783e-01,3.331185497648642690e-01,-9.370380428449034266e-03,6.055048687971705153e-03,5.824982143260831399e-03,4.109644144773483276e-02
3.073877086329993014e-01,3.347236251963180975e-01,3.122547043598621341e-01,-5.683614528150001191e-03,2.708185953425928244e-02,1.652730540509877999e-02,6.127433106303215027e-02
2.595121914185525847e-01,2.456138204491196408e-01,3.977538242805315760e-01,-1.675886631183552966e-01,7.738631388375378888e-03,-9.443651260823622204e-03,3.254694044589996338e-01
2.165638773601186451e-01,2.037367099004415982e-01,3.151629995462588152e-01,-1.423013189015574498e-01,-5.666718574101704126e-02,-7.757266888160774254e-02,3.155727088451385498e-01
2.652466410536150621e-01,2.900626534680082469e-01,3.526082165912635680e-01,-5.062200238671039215e-02,-3.025757347015917836e-02,-1.182986299605214009e-02,1.301309913396835327e-01
5.389903376424771686e-01,5.364807302741902983e-01,5.424853211072707682e-01,-6.887637527384748992e-02,1.366912509061228298e-01,1.100543471500158993e-01,3.265708386898040771e-01
3.265447413154214940e-01,3.357824052827981243e-01,3.161348732902269365e-01,-4.121037134681553374e-03,1.847455257135974856e-03,1.524645918718393282e-03,1.892153359949588776e-02
3.189838762060865363e-01,3.354112188340020451e-01,2.949614457622242725e-01,-8.820569309098672331e-03,6.128632955682578390e-03,3.772214081619455848e-03,4.037741944193840027e-02
2.980682419748866829e-01,3.007321600463955802e-01,3.213383904158020332e-01,-3.286589790286068274e-03,-2.496487394919018853e-03,-4.627428575440678017e-03,2.453463152050971985e-02
3.212570093228662715e-01,3.333437747247230409e-01,3.135256517197637094e-01,-5.414925999450971757e-03,2.507801300584782799e-03,1.496666456305427049e-03,2.031901478767395020e-02
3.333349272873655789e-01,3.761509523003395139e-01,4.684242188299077569e-01,-7.886442248752202622e-02,1.958427264619803064e-03,6.485920247838406968e-03,1.819198727607727051e-01
2.009673967892059432e-01,2.782813082253594028e-01,3.209600295899961986e-01,-7.878070914928839152e-02,-4.914666000583262778e-02,-3.469662478681026507e-02,2.014336735010147095e-01
2.552751822904535395e-01,3.319634099701980201e-01,3.614441659226397263e-01,-3.327939860469271427e-02,-1.761680819113703445e-02,-4.416503666930035946e-03,1.154259666800498962e-01
3.033383871075602256e-01,2.830630963230871822e-01,3.698186682887513177e-01,-3.899131129336135676e-02,-1.518363804563156380e-02,-1.473880166071672715e-02,1.099223122000694275e-01
2.150506305744981916e-01,3.467334294975323861e-01,3.370512245767509629e-01,-3.942948309947175156e-02,-3.012188133516335159e-02,-1.312707329083288160e-02,1.551197022199630737e-01
3.125393576204330559e-01,2.497683021659782843e-01,3.404798035269049894e-01,-3.147675670976149420e-02,-8.175997665297099481e-03,-1.745012311350657708e-02,1.027674302458763123e-01
3.439071403622658285e-01,3.186506997263548469e-01,3.231027848375788158e-01,2.474558196018729339e-02,3.074453348273516184e-02,-1.828964490762888251e-02,7.887654006481170654e-02
3.543128828708173583e-01,3.352606369194696678e-01,2.949825429810782884e-01,-2.545248433519719210e-03,9.395032065945216077e-04,6.482046536059909124e-03,5.385939776897430420e-02
2.601881521299341249e-01,2.846691137146187267e-01,3.600885108328480966e-01,-4.071820722278615690e-02,-9.375067265602471389e-03,-1.208447716717019234e-02,1.175135672092437744e-01
3.279491541046187786e-01,1.923828817518259682e-01,2.408789371457783213e-01,7.160797185103645601e-02,-3.884851660955251224e-02,1.094017138314445498e-01,2.645233273506164551e-01
3.455142207675816479e-01,3.165005999966298833e-01,2.987665897652679869e-01,7.078735555434060136e-04,-1.012869224793811612e-03,2.945074030477657073e-03,4.124820604920387268e-02
3.155051859622378663e-01,3.170602236366928395e-01,3.233524483491926338e-01,4.191417663221392101e-03,4.292006634699076402e-03,-4.446700227897221538e-03,1.480142585933208466e-02
3.236498833113196083e-01,3.110216951954302700e-01,3.219691124318602715e-01,1.413786809868092069e-03,-5.548039826443777398e-03,1.560878288266909393e-03,1.570728048682212830e-02
3.201566729959780533e-01,3.212328807875637904e-01,3.263024981611912234e-01,2.735991807395777090e-03,3.009520673711137562e-03,-3.277063581240128275e-03,1.068462617695331573e-02
3.168758150280062136e-01,3.151350202112755405e-01,3.179890052305440196e-01,1.203761565482766322e-03,1.771558788740983884e-03,-2.113909433729491746e-03,5.777163896709680557e-03
3.163742735508986437e-01,3.154191489577413132e-01,3.195067402252448896e-01,2.028880713535971027e-03,1.938299315491771695e-03,-1.297750934205869205e-03,6.510688457638025284e-03
3.151481723272893110e-01,3.111493761869298380e-01,3.213669346546668137e-01,2.515422048918750791e-03,3.039860782292735496e-03,-2.161129602260792801e-03,1.184257958084344864e-02
3.207250501066180592e-01,3.241244570552371251e-01,3.237774593734749629e-01,2.740771848686314287e-03,1.943992168278007270e-03,-1.901253507834556843e-03,7.430605124682188034e-03
3.367764719561376352e-01,3.518129955465965075e-01,2.352275105775380182e-01,4.247016929525046502e-03,-9.152476780820997804e-03,-2.539925454732782847e-03,1.113103777170181274e-01
3.382543814313136998e-01,3.130961902216832238e-01,3.161102289240089180e-01,1.920994982133624731e-03,-2.762062863767543626e-03,8.477579573388212622e-04,2.454190328717231750e-02
3.352435694565912838e-01,3.091970794698997160e-01,3.089011351516952608e-01,5.363516089088285824e-03,-2.865153052850070731e-03,3.663615213872830310e-03,2.893805503845214844e-02
3.310627879116296857e-01,3.318508993650026162e-01,3.005002863039372696e-01,7.214400415738973782e-03,-2.640526839284913080e-03,3.289499595769734743e-03,3.418035432696342468e-02
3.172608554536008318e-01,3.188233936898442478e-01,3.190422567601204351e-01,3.188355973079136287e-03,2.413373652665084211e-03,-3.688992777858700074e-03,9.572219103574752808e-03
3.137375101861729632e-01,3.239257411221708738e-01,3.104056826690510529e-01,4.006226732730227072e-03,-2.304346128365296342e-03,2.544310853899301676e-03,1.524292305111885071e-02
3.176124385020560048e-01,3.156196615764736979e-01,3.235700916376864078e-01,1.618656226246732504e-03,2.207875049565184190e-03,-9.956799390127533695e-04,8.763303048908710480e-03
3.523816358345468469e-01,2.570144722061176168e-01,3.711661544297766846e-01,4.176521561833354546e-02,-1.102433421140943011e-02,2.996132671105545403e-02,1.397491693496704102e-01
2.715531326927547173e-01,2.966298691336433646e-01,3.440371696589809569e-01,3.738545131574842750e-02,-3.259711544395457305e-03,7.659250925606299332e-03,9.201087057590484619e-02
2.627652268023231708e-01,3.200133528458476428e-01,3.171509555987198636e-01,-1.031687974238731237e-02,-1.033886388050899753e-02,-1.246630431869043612e-02,6.502223759889602661e-02
3.253015331097511842e-01,3.283602673151936324e-01,2.731861653685389024e-01,1.199700274439638274e-02,-1.032736189834438170e-02,9.712997241611710797e-03,6.260629743337631226e-02
2.948605712159201309e-01,3.126083377276090980e-01,3.195643602648636783e-01,1.485883642026383095e-02,-1.501603575476444068e-02,1.759419798981320601e-02,5.248132720589637756e-02
3.162796113293434019e-01,3.152972462821496125e-01,3.613032521517854923e-01,2.181182697510220328e-02,-5.638542429371671758e-03,6.451427780583890957e-03,6.099043041467666626e-02
3.200147419981504981e-01,3.122689584671072827e-01,3.078213713509829752e-01,3.487827246982105889e-02,-3.605176720144798175e-02,3.237939440226547672e-02,1.039623767137527466e-01
2.860863391828118441e-01,3.415213562322304552e-01,3.253949548324595598e-01,3.490282949761668030e-02,-3.654967440337239526e-02,1.809865692139301513e-02,1.052809432148933411e-01
3.171951555544679224e-01,3.198538334248713921e-01,3.115754212930917366e-01,3.086658341678370863e-03,-1.812521570566841765e-06,1.078668596334770267e-03,9.255485609173774719e-03
3.058216695420764020e-01,3.184313116873079275e-01,3.141714629991232410e-01,3.397059966761497261e-03,-3.562864834280523359e-03,5.531415363817978811e-03,1.696838065981864929e-02
3.208601880840994958e-01,3.204054757170061163e-01,3.173989307008169281e-01,2.644831722720433461e-04,7.084866435894434907e-04,-1.901021526563938637e-04,3.526658518239855766e-03
4.121516991159524523e-01,3.691733595512364241e-01,4.483274885677773214e-01,6.552216766719483332e-02,-6.576602871939334072e-03,3.241307493398562500e-02,1.444702148437500000e-01
4.367114198241862089e-01,3.147740538512820430e-01,4.227801607558397401e-01,6.741928999805367473e-02,-3.993247284027404143e-02,6.972608284661674372e-02,2.153349220752716064e-01
2.305666908794432313e-01,2.447107782343673765e-01,3.486008146118901863e-01,9.747835218620068409e-02,-3.876145450736697556e-02,5.582247340450148532e-02,2.341463416814804077e-01
3.336957257013169476e-01,3.193896538888654768e-01,3.152934377884969441e-01,-8.484777280116632568e-04,1.108881277765013176e-03,1.219682359890180085e-03,1.703980378806591034e-02
3.004487765334564187e-01,3.048188014529946699e-01,3.314845180491010068e-01,-4.477737658374468521e-03,1.170870447875515174e-03,4.067776916895735929e-03,3.099340386688709259e-02
3.185699681408157846e-01,3.187725026138119588e-01,3.158167705019843674e-01,-1.952518452686151298e-04,-3.605024572695016269e-05,1.162228569378954968e-03,3.514161333441734314e-03
3.203373621199278043e-01,3.233868547307293118e-01,3.175840994999921674e-01,-1.503835396063249279e-03,3.121411451754955860e-04,3.860921709755478905e-04,5.727126263082027435e-03
3.263530319120678813e-01,3.352000935829904105e-01,2.913686532311791089e-01,9.637447394848935173e-03,-1.442157760938303675e-02,1.178080051491695555e-02,5.413533747196197510e-02
3.145637082530594597e-01,3.256999905250073657e-01,2.955379374486484245e-01,7.720990602115725826e-03,-5.581986501352135741e-03,2.707219076298337732e-03,3.149884194135665894e-02
3.052105387985702412e-01,3.179382317464228280e-01,3.018849939430292562e-01,7.118749043911984896e-03,-7.498416082058582087e-03,6.910194770891816239e-03,2.606416679918766022e-02
3.055660975463274087e-01,3.418921797263229645e-01,2.827008066455345414e-01,1.397890059468027101e-02,-1.809428314284620976e-02,9.999870097822946904e-03,6.739022582769393921e-02
3.224570773922498801e-01,3.433850958911729423e-01,3.307293095754419432e-01,7.363937776057451895e-03,-8.454217827743026881e-03,6.230386100366107870e-03,2.875495888292789459e-02
3.226583397466418757e-01,3.157201523641255947e-01,3.152926021445665583e-01,-2.478928283394965515e-03,1.187730803262232460e-03,6.476973624484456352e-04,8.672575466334819794e-03
3.322176122667304665e-01,3.157627051450898614e-01,3.171828648350348279e-01,-6.133604887720531815e-04,2.228041267290938997e-03,2.152109043150601396e-04,1.629638858139514923e-02
3.152886466618508576e-01,3.417225025836269081e-01,3.119576145965172742e-01,1.443193745535862813e-03,-6.913743645658511870e-03,6.471418803154110541e-03,3.275946155190467834e-02
3.316809401480122488e-01,3.597714335992483470e-01,2.979915580335742442e-01,7.645924399179956574e-03,-1.616251822269390570e-02,8.972943364492527024e-03,6.380442529916763306e-02
3.311361272044498483e-01,3.139767343556824630e-01,3.129346593264048515e-01,-5.920953655682446772e-04,1.334487466443554007e-03,1.363833186729770974e-04,1.788469031453132629e-02
3.093089663378189580e-01,3.340592546145406683e-01,3.042885910505835345e-01,3.926910732395786849e-03,-4.349151807408645903e-03,3.707755488036241272e-03,3.010458871722221375e-02
3.021343715461247692e-01,3.088213628959113888e-01,3.185445103288780389e-01,-2.237791970200491386e-03,-1.147551348370959810e-03,-6.984875172034334459e-03,1.922532916069030762e-02
3.767765641342019078e-01,4.116872660867977318e-01,4.137855189103495368e-01,-3.527553471151027853e-02,4.974904433179721391e-02,3.833743629067072611e-02,1.298602372407913208e-01
3.075982292876590640e-01,3.284964966698506461e-01,2.940908136985059818e-01,-1.049196524872571604e-02,1.948019719708832947e-02,1.287779203328752800e-02,5.355053767561912537e-02
3.464017216191935811e-01,3.213075374826501185e-01,3.115451843643549656e-01,-3.623181076507841353e-03,8.316890390217369445e-04,1.949292895346984092e-03,3.198212757706642151e-02
3.402178720872414686e-01,3.048098123018445627e-01,3.168515790323854775e-01,-1.619585606807099785e-03,4.498686053570393785e-03,3.985189566584345505e-03,3.299375995993614197e-02
2.187873414058330024e-01,2.006287690234883903e-01,2.525877793043400654e-01,-9.422741422041649995e-02,8.071200984627702191e-02,1.007269414335751762e-01,2.805413007736206055e-01
3.551807725142736571e-01,3.055377086301129252e-01,3.265416346603300379e-01,-6.230791728174181335e-05,-2.302769756353681375e-04,4.469580634397439869e-03,4.385204240679740906e-02
2.543650113119733658e-01,2.990274209884321022e-01,3.608475705421194668e-01,-6.107556860358001605e-02,5.577822685755590149e-02,1.839120446942287684e-02,1.735410988330841064e-01
2.839732554864327629e-01,2.781151378930930562e-01,1.952917636448213423e-01,-4.246102740427320360e-02,8.951825657228107413e-02,1.098989026221581927e-01,2.702996432781219482e-01
3.448923433320885690e-01,3.092373511468664016e-01,3.025849061379332627e-01,1.684729411883844567e-03,-5.648470617384845178e-05,5.647138262791518912e-03,4.070530086755752563e-02
1.366204224936942990e-01,2.660447119764284274e-01,2.118560915285051249e-01,-7.275840230185709467e-02,1.337650581121662963e-01,7.122276432781329825e-02,3.121736645698547363e-01
3.516156327006277893e-01,3.196693161658360482e-01,3.021398858327892234e-01,-1.190923189728919189e-03,3.780174855636663921e-04,4.410405666201671140e-03,4.416885226964950562e-02
3.512844754073325415e-01,3.162191431746437797e-01,3.152124005498791459e-01,1.779152545224186753e-03,1.472618397993599856e-03,9.018647782114084729e-03,3.906280547380447388e-02
3.492762009142512114e-01,3.152991525284126184e-01,3.114645308489137898e-01,1.902924418769667879e-03,-1.237025453264040988e-04,1.214225529066675436e-03,3.625969588756561279e-02
3.186001601700042540e-01,3.131734327529684392e-01,2.084745707687833960e-01,-1.494886223172048334e-02,-4.186352113330113478e-02,-4.956066126440959729e-02,1.576588749885559082e-01
3.025558305293061245e-01,3.116303796342256294e-01,3.001026768294168812e-01,-1.013985107223083944e-02,-9.660338247611532925e-03,-1.315566223081430890e-02,3.490354120731353760e-02
3.003167794976331906e-01,3.115637390488347758e-01,2.986453336533552716e-01,-4.968999254783414837e-03,-4.888515825382245585e-03,-3.645660393741345304e-03,1.826813258230686188e-02
3.599519624078121316e-01,3.264476717126213456e-01,3.070685901250317373e-01,4.766114192140867567e-03,-2.484914903038809922e-03,2.522126935355826615e-03,4.746708273887634277e-02
3.434369558961031244e-01,3.220212617842423963e-01,3.049753411349871435e-01,5.365520094808192905e-03,-1.528293141977371062e-03,4.157010187006782501e-03,3.548888862133026123e-02
3.012939275719454524e-01,3.109500943653894511e-01,3.185510870204700806e-01,-1.050591884143028780e-03,-4.438305649661340377e-03,-6.282429284384515034e-03,2.013024501502513885e-02
4.033762930179174977e-01,3.971656860739788408e-01,2.767351590316406984e-01,2.053147626615273863e-02,-2.085023796940586871e-02,5.191150676662482921e-02,1.610691398382186890e-01
3.318636695614897714e-01,3.228851567032494096e-01,3.118168601161110942e-01,5.691178668561482079e-03,-1.185931345679223621e-03,1.351088756537481821e-03,2.023269422352313995e-02
2.733584545307528590e-01,3.135362985250551571e-01,2.941359000109698418e-01,-4.706831285938292003e-03,-6.880474251589057018e-03,-1.122116064366211752e-02,4.239572212100028992e-02
3.397728736378879399e-01,3.182032098721004343e-01,3.024426471285918128e-01,4.114542684886361712e-03,-1.231725279333416561e-03,4.495400390125761647e-03,3.419885039329528809e-02
3.276687359824566048e-01,2.994220198553841916e-01,3.179329057839868633e-01,3.275121485820735399e-03,-7.457415988620687275e-03,5.602798869644990548e-03,3.018030151724815369e-02
3.242807687992182997e-01,3.193473708530882305e-01,3.233096983590557638e-01,2.819772297579910703e-03,-1.489848068333016109e-03,3.129373689456515280e-03,8.965597487986087799e-03
2.927501395475216595e-01,3.236370918198056001e-01,3.044295658429566065e-01,-1.664334088808368814e-03,-1.991049049338633817e-03,-7.198526000730031717e-03,3.008870407938957214e-02
2.362322052359874802e-01,2.772410203364675252e-01,3.244126376032251402e-01,4.262461477700590223e-02,1.071449795936874755e-02,-6.446844149597499504e-03,1.084481254220008850e-01
3.307845413623681230e-01,3.160670189758810200e-01,3.151880172570028504e-01,1.808488521003996045e-03,-9.415938170560226748e-04,2.072279540326712902e-04,1.558574195951223373e-02
3.668665240344874401e-01,3.606674595327910571e-01,4.342823135650518696e-01,5.392398281621937212e-02,4.234460379728272918e-03,1.083865115250054467e-02,1.188732162117958069e-01
3.308552331186546125e-01,3.238473484415531067e-01,3.156836125797918280e-01,5.180144316810559799e-03,-1.660781710182800217e-03,1.859019705398651332e-03,1.649580895900726318e-02
2.788801386223229706e-01,3.257153087212043552e-01,3.165178219055335695e-01,-7.867627590556595246e-03,-5.413538777479433989e-03,-1.196263498923348136e-02,5.050042271614074707e-02
3.241240236956357545e-01,3.153791906313450633e-01,3.197603427856332559e-01,7.056702915179682237e-04,-6.466695182643135160e-04,-4.165870927154310911e-05,7.752923294901847839e-03
2.517433085884389632e-01,3.401406323731461234e-01,3.498574197671264208e-01,4.652300621884653854e-03,1.388401311184793256e-03,-1.904213671304891969e-03,9.406930208206176758e-02
4.171255159579530525e-01,2.888278410183053313e-01,4.156996753283005996e-01,3.970825575107649053e-02,2.895270234094087999e-02,-3.807302839085296986e-02,1.669523119926452637e-01
3.197762293868859351e-01,3.195739580583569217e-01,3.195424805560085346e-01,9.521473648915419795e-04,-3.311941851288488698e-04,1.502062756376864325e-03,3.140966640785336494e-03
3.181473766057391073e-01,2.848446932548592825e-01,3.474780513805301174e-01,7.523503669565658088e-03,-2.046783795835593108e-03,1.743972635234281292e-03,5.601472035050392151e-02
3.221862132476417395e-01,3.123554333346807432e-01,3.213796895802729092e-01,7.135403607373048789e-03,-7.837090367517899475e-03,8.906536086679444492e-03,2.577492967247962952e-02
3.211489657001106446e-01,3.176722719176745535e-01,3.204031738358459891e-01,6.193436193846491022e-04,1.542053719668206582e-04,2.407436835682758177e-04,3.383294912055134773e-03
3.138048118115255303e-01,2.965499993409905222e-01,3.549686179906105243e-01,3.772169796133316433e-02,-4.022745185536694829e-03,1.265374579671893485e-02,8.660335093736648560e-02
3.185311080413628648e-01,2.898120883790562541e-01,3.456189376258438917e-01,5.870013082203182075e-03,2.651403960293128529e-03,1.331460601776885723e-04,4.960829392075538635e-02
3.528291808281591724e-01,2.342223638014492848e-01,3.762434882939479919e-01,4.827045230944357335e-02,8.871461901230972419e-03,3.070262729822373360e-03,1.569949090480804443e-01
3.863104231811044786e-01,2.910794972492521948e-01,3.128836517763604608e-01,-1.244452776529409062e-02,2.764426051044227908e-02,7.415001745616453532e-02,1.634619534015655518e-01
3.489748804966097961e-01,3.127718009951999667e-01,3.108256510740975420e-01,-7.097753593059953842e-04,2.866345459395204997e-04,2.220573487759817770e-03,3.743604943156242371e-02
3.461953847830473441e-01,3.140831329274250128e-01,3.095946730099372601e-01,-1.694435669811330744e-03,-2.544747009631132678e-04,1.983156722262754620e-03,3.487239405512809753e-02
3.457779178716154922e-01,3.141612149154288103e-01,3.102274628633339693e-01,-1.010778818147726153e-03,-1.334295432272845520e-05,2.449240202957659023e-03,3.406647220253944397e-02
3.441562534503699866e-01,3.070391901164588599e-01,3.017666372967693911e-01,-2.072410099409404544e-03,9.037710192207010305e-04,6.930102898025351614e-03,4.195940867066383362e-02
3.430573878733926829e-01,3.002795839306897085e-01,3.071789664237143946e-01,-3.434254608959790012e-04,1.303116338663979235e-03,6.313251935740216841e-03,4.132095351815223694e-02
3.477376692565774530e-01,3.254635335714729516e-01,3.343549218464112460e-01,9.480736208497320128e-03,-9.119676253210341754e-03,8.754451015219016918e-03,3.355928510427474976e-02
2.914173094088923222e-01,3.340852035158194400e-01,3.585821442430413564e-01,5.691372467133319103e-03,-1.391141361494649571e-03,3.179288012352195388e-03,5.999322235584259033e-02
3.050870208598799871e-01,3.094653552613645386e-01,3.325786739638829093e-01,4.953250317949999849e-03,-1.939648997694959397e-03,4.834979533384105646e-03,2.845373377203941345e-02
3.348929909295855212e-01,3.164429402024758753e-01,3.207618711189158534e-01,1.351102109688031086e-03,-2.399701267327357043e-03,3.893312522826725391e-04,1.739482395350933075e-02
3.211846579615859620e-01,3.265420685215774665e-01,3.289234332262396254e-01,7.492724447452808398e-03,-5.713521855899820687e-03,6.501633823615957271e-03,2.098333090543746948e-02
3.189969021511045999e-01,3.184434915356322837e-01,3.200275992849307416e-01,1.675551388688810471e-03,-2.043487189430447971e-03,4.281426146036827881e-04,4.841369111090898514e-03
3.192345198309984866e-01,2.997355621666494829e-01,3.140332195210875921e-01,3.006133925169497678e-03,-6.094000275201627570e-03,4.845238469046012943e-03,2.268905006349086761e-02
3.208058534979995047e-01,3.161258731523590160e-01,3.334172953381863147e-01,5.011299537570671446e-04,-2.522406537273890782e-03,1.218978038819638161e-03,1.625640504062175751e-02
3.254064307996448746e-01,3.119128587975492639e-01,3.206169634386432099e-01,1.766780246583203855e-03,-4.832058028488756679e-03,1.671770493448087019e-03,1.510575413703918457e-02
3.165968632155792828e-01,3.173319139987821336e-01,3.203134975075545565e-01,1.348848811334823691e-03,-7.720982609203155518e-04,2.218527641236966389e-03,5.799477454274892807e-03
3.303338638438623742e-01,3.212491784282668350e-01,3.139848853823815622e-01,5.348779243792129399e-03,-2.336413213434997398e-03,1.437472374347934130e-03,1.759826950728893280e-02
2.704491762035012847e-01,3.367184537539275602e-01,3.217699928934973919e-01,3.940670976942875492e-02,-3.473084111875869573e-02,1.778929826947896892e-02,1.133630797266960144e-01
3.075876685836391733e-01,3.224852268032012415e-01,3.107626140831440953e-01,1.765646978536038279e-03,-3.313691002306463299e-03,4.503688449603312528e-03,1.696650683879852295e-02
3.070675921479657511e-01,3.194922527069349316e-01,3.143631902532146305e-01,3.180631447558187729e-03,-2.134696846333820897e-03,3.442666205343319647e-03,1.401886250823736191e-02
3.143397944408852229e-01,3.153231318384174808e-01,3.155161967380192278e-01,1.062017404801609611e-04,-2.020187479080904833e-03,1.074275703661177906e-03,4.115044139325618744e-03
3.252004674979861454e-01,3.182911225924193177e-01,3.182150014481742173e-01,1.688279729049181914e-03,-4.443417382766431684e-04,-1.008993559059924867e-04,7.579215802252292633e-03
3.531556299259244747e-01,3.798495046270752296e-01,1.672452101841824246e-01,-1.208060919509660420e-03,1.040103496489278717e-01,5.268575400250757879e-02,2.846473455429077148e-01
3.224597639613576705e-01,3.269556044379261506e-01,3.220341835763478322e-01,4.437640635517417845e-03,-2.871079422348599575e-03,3.375064921999870217e-03,1.184430159628391266e-02
3.224357617439297941e-01,3.145509994409322330e-01,3.135808276675041140e-01,3.041070776323852309e-03,-1.793243306751843031e-03,1.303261546230090676e-03,1.064176950603723526e-02
3.245677975332921239e-01,3.098575285754031072e-01,2.900075807050306320e-01,1.322703167894266271e-02,-1.506077564099798406e-02,2.071712998491714516e-02,5.826965719461441040e-02
3.235026498190116673e-01,3.075793898050838693e-01,3.087049489750408049e-01,5.477494069685050551e-03,-6.847252490615536764e-03,6.544547870574216400e-03,2.441416122019290924e-02
3.203460279775751096e-01,3.260868299418890892e-01,3.109243846028494351e-01,5.990813230684018977e-03,-1.972702050968207742e-03,5.714274555286975562e-04,1.720859482884407043e-02
3.255201749815986312e-01,3.158533091352420663e-01,3.219671125026483116e-01,1.087881889085334612e-03,-4.126698032389134602e-03,9.732825684252940403e-04,1.136691588908433914e-02
3.252184611444602913e-01,3.153694094087893807e-01,3.171840239687792051e-01,6.108258039967837073e-04,-9.489725140343647364e-04,-2.280514489784302490e-05,9.286923334002494812e-03
3.290132490709972712e-01,3.232538301771473721e-01,3.299194678737071840e-01,4.113009376505020673e-03,4.830856696593494384e-03,-4.320617198070935208e-03,1.469614543020725250e-02
3.120587830758053127e-01,3.256702359194246221e-01,3.320992056730298625e-01,1.042010436658439773e-02,7.407089744658530532e-03,-6.389737131972650190e-03,3.044548816978931427e-02
3.251940057136114559e-01,3.290046817429714832e-01,3.166389171489519816e-01,8.865002830000814904e-03,8.427829665774259904e-03,-6.666338221860753678e-03,2.650436572730541229e-02
3.197612205074717440e-01,3.282255289703846501e-01,3.183458730511393719e-01,3.946820673896043324e-03,3.366829652583248726e-03,-5.115581302981496783e-03,1.564845070242881775e-02
3.149766132998780832e-01,2.914830475729716652e-01,3.360299562685662988e-01,6.506382616589629839e-03,6.005065840291711615e-03,-2.674808264013732624e-03,4.179060086607933044e-02
3.149849064659182019e-01,3.173547123421026073e-01,3.382505996167013973e-01,5.856767426502339224e-03,3.891215953825551046e-03,-3.944236089457186720e-03,2.620637603104114532e-02
3.244515232795060489e-01,2.705545059130300967e-01,3.208789066420144609e-01,6.714586095003084211e-03,-9.821359395362865702e-03,1.429321381609444108e-02,6.134020537137985229e-02
3.190091860285259595e-01,2.940150240496738343e-01,3.289662380899757155e-01,5.078737716901328067e-03,8.780349971773571127e-03,-5.009335413525379047e-03,3.683291748166084290e-02
3.147777408158005108e-01,3.175579949139014646e-01,3.270994794216548485e-01,6.434678899625897314e-04,8.113450456925901111e-04,-1.928297816188679183e-03,1.181818451732397079e-02
3.375193174489264369e-01,3.179699722556761365e-01,2.973383607567675058e-01,9.104792156463764261e-03,-3.851043730125891778e-03,6.751965691786672615e-03,4.051080346107482910e-02
3.321089364525821042e-01,3.126718544007549561e-01,3.153212045809559161e-01,1.246768617435109212e-03,-1.112013533843554452e-03,-4.063661508504587167e-04,1.849843189120292664e-02
3.190745781904792966e-01,3.005104740675870745e-01,3.266601811176690906e-01,4.119404389965846194e-03,6.137022215106328372e-03,-2.811374299250211147e-03,2.702954597771167755e-02
3.120886717369900643e-01,3.242150980673387251e-01,3.418486233965894461e-01,1.182779914098113297e-02,5.411575578859818651e-03,-6.088084919889722238e-03,3.592441231012344360e-02
3.105865693271444017e-01,3.043290193974852453e-01,3.435612503988200728e-01,4.869545344265660547e-03,1.549464285097031232e-03,-6.176907562183645700e-04,3.758073598146438599e-02
2.964230995876099284e-01,3.149097087894601743e-01,3.359952799885109753e-01,7.355404414582261165e-03,2.254309382551273992e-03,-6.375989555875740712e-03,3.841442614793777466e-02
2.999307534942471931e-01,3.174682193428112753e-01,3.298708125189865892e-01,4.474057058810297811e-03,3.137075087366389750e-03,-6.425857592687926612e-03,2.987218275666236877e-02
3.167507157878027835e-01,3.208273239298086166e-01,3.349370549511890838e-01,2.934000470578621944e-04,1.384883531207855428e-03,-2.443482470088317524e-03,1.723794825375080109e-02
3.413289006760668598e-01,3.093365874340150423e-01,3.166342753436632296e-01,8.729604311303329218e-04,-2.392166715796301829e-03,3.250875901082092914e-03,2.990739978849887848e-02
3.399568383408305694e-01,3.094591460145851292e-01,3.090490806937680746e-01,1.466633934682777312e-03,-7.917374061834802279e-04,7.789116949860025278e-04,3.086967952549457550e-02
3.178161977953576911e-01,3.297099748866205160e-01,3.266188079574953718e-01,5.588722836441142872e-03,1.194546906052802379e-02,-9.283535569953966712e-03,2.990966103971004486e-02
3.362598834983465124e-01,3.215885459484761899e-01,3.424986692319940129e-01,1.201427056452506435e-02,8.873370980095066085e-03,-6.779673567205140444e-03,3.395337983965873718e-02
3.132203627554275838e-01,3.141652118297300622e-01,3.310742211803252011e-01,-1.921467698842808925e-04,1.447118172894197282e-03,-6.853423500216403869e-04,1.762345246970653534e-02
3.507680981587703584e-01,3.134702642133166961e-01,3.153299541125417216e-01,-4.622184479468712448e-04,-1.256522325713488016e-03,7.476522247307322393e-03,3.870784118771553040e-02
3.142257774192227515e-01,3.070811089212863165e-01,3.342430967771343742e-01,3.774196648127176989e-03,4.769148197343201639e-03,-2.635984403952840432e-03,2.695495635271072388e-02
2.460064625621292411e-01,3.826500688840777653e-01,3.733217589318611473e-01,-3.399769174537034533e-02,2.431906545492075120e-02,7.708348118834495478e-03,1.513402611017227173e-01
2.565442282780082683e-01,4.356264880311279675e-01,4.305512729073508460e-01,-3.303219585778596756e-02,2.175530635196551085e-02,1.536294409246828641e-02,1.912816017866134644e-01
1.119911462730762974e-01,3.182412790791556700e-01,3.172137816749438510e-01,-5.811047746632620747e-02,6.135683222648471991e-02,2.140233898210679164e-02,2.551997303962707520e-01
3.565231152907387679e-01,2.772815027985424674e-01,3.313419961481930409e-01,1.840790814571352128e-03,-2.371562388694278822e-03,5.141867379622816307e-03,7.088218629360198975e-02
3.121721446857605997e-01,3.114524159276639281e-01,3.250121194938170865e-01,-1.928580271999374247e-03,4.583806781333420871e-03,2.312885273017492062e-03,1.627466455101966858e-02
3.067287682589061037e-01,3.072646437817410647e-01,3.270491153561645437e-01,-2.187009950190137468e-04,9.862882979398224313e-04,6.229999597647332401e-04,2.016285434365272522e-02
2.351212982324837886e-01,3.726542865627215373e-01,3.705144330890501325e-01,-3.356990870690946399e-02,7.540726145557735682e-02,3.343262847332482968e-02,2.059572935104370117e-01
2.368129084674549245e-01,3.673631781861689816e-01,3.702536081333924756e-01,-4.892534222703009278e-03,5.810578984733427016e-02,1.130074655705257808e-02,1.673704087734222412e-01
1.765540011644150808e-01,3.369491223412010017e-01,3.282396890124595901e-01,-6.944771946375929636e-03,2.475889265828434133e-02,2.804563866556003537e-03,1.625201255083084106e-01
2.539148623098969604e-01,3.567278055326600916e-01,3.498430976958716299e-01,1.585902412265578765e-02,4.857020068658499980e-03,-7.865815176122320030e-04,1.036205440759658813e-01
1.321866919629846593e-02,3.247707102651335997e-01,2.785561739837827400e-01,8.837024425309175646e-03,9.937005523223418901e-02,1.009030030129752335e-02,3.390651345252990723e-01
3.437532712755130837e-01,3.308469509753190763e-01,3.197821724326706527e-01,8.986183427339325402e-03,-8.463875862245666404e-03,1.183185720523545481e-02,3.617944940924644470e-02
3.397747035592545428e-01,3.381222392438127944e-01,2.577802819933680545e-01,-5.723102928626912222e-03,4.981188270546652030e-03,4.595546143924440774e-03,8.262190222740173340e-02
2.998815283709845292e-01,3.009246602613234733e-01,3.351448757251572208e-01,-6.311962349276946946e-04,1.409216857217480837e-03,3.063261761753989705e-04,3.486032038927078247e-02
3.323888430187141863e-01,3.522897914396469488e-01,2.837761399382934258e-01,-4.564964613570740570e-03,5.871306866899627351e-03,4.098924369045499339e-03,6.279345601797103882e-02
3.066693999934147485e-01,3.473444853526396758e-01,3.367102155899102112e-01,1.473084518591547508e-02,-1.265966784319847924e-02,1.054364057870656700e-02,5.291786417365074158e-02
3.165699212801394991e-01,3.235180387119014900e-01,3.160678857712271306e-01,-6.247238416757227046e-04,3.275937292094932909e-04,1.776806022199087318e-03,7.936025038361549377e-03
3.489367011603826674e-01,3.259256911029348447e-01,3.377144710913262959e-01,9.240859095286012292e-03,-9.080565850026207919e-03,1.130677180418980694e-02,3.583699092268943787e-02
3.259978890838305388e-01,3.120265354797843727e-01,3.130329346324542406e-01,3.923817199809524411e-03,-2.166775093741401485e-03,2.512817168642155451e-03,1.616685837507247925e-02
1.014631898823286638e-01,3.722060048303084678e-01,3.517035024266297327e-01,1.569473148591972456e-02,3.212976772559628102e-02,4.960403923027461269e-03,2.684788107872009277e-01
3.295071604260169096e-01,3.148036102162792282e-01,3.148322008788786985e-01,2.506816652370870251e-03,-1.934925915638966007e-03,1.912824496047539668e-03,1.602609455585479736e-02
3.411135239418491283e-01,3.034808165560199389e-01,3.095509598636355664e-01,-2.294932419015735699e-03,3.442636573773191072e-03,4.086771883208275072e-03,3.641554340720176697e-02
3.463542246573075856e-01,3.151645640115643965e-01,3.121517112955745632e-01,-5.692919065878856901e-04,-9.880788088862262921e-06,2.073502129555450206e-03,3.301079943776130676e-02
3.374347701774689789e-01,3.153528541937358765e-01,3.114374086052991153e-01,4.411822565503371700e-03,-2.240898473596143053e-03,3.110520776499267094e-03,2.630371972918510437e-02
1.604404136384071089e-01,1.237376266830408078e-01,2.850380013740142493e-01,-1.540502366801560774e-01,-6.463646125131791709e-02,-7.959716612256304002e-02,3.523916900157928467e-01
3.412388491940175905e-01,3.143714608400167143e-01,3.124239811348902274e-01,-8.818570055416281341e-04,1.152958902256792217e-03,4.961616806155775238e-04,2.801842987537384033e-02
3.371601354337393497e-01,3.090264837087842720e-01,3.218949390141351286e-01,5.531620151608096850e-03,-6.789262911276087477e-03,1.211039290301261541e-02,3.556861728429794312e-02
3.160646636118139563e-01,3.306902775063863542e-01,3.111961626269754144e-01,3.077008985524746880e-03,-6.164545445568018361e-05,3.462848194008531387e-04,1.837364397943019867e-02
3.334062173752102565e-01,3.115459071490861431e-01,2.846418812535078113e-01,6.304879009363931718e-03,-2.416222956970965133e-03,9.336772827256045043e-03,4.677739739418029785e-02
2.884644464897518357e-01,3.263846016490717927e-01,3.256899727174041304e-01,-3.029228566837001077e-03,2.612350369438189938e-03,8.980072406987102407e-03,4.125538840889930725e-02
3.353341943153235194e-01,3.054925969136548791e-01,3.014964231049410692e-01,3.612210645215162795e-03,-1.485858017616672935e-03,6.093488557191695763e-03,3.439334034919738770e-02
2.886984568403344609e-01,3.071853010951949847e-01,3.475136239962449136e-01,-3.297596949232692309e-03,6.733605723939644922e-04,-3.628417764491838424e-04,5.242192372679710388e-02
3.655181412653707995e-01,3.692567388492175584e-01,2.855624606107101116e-01,-4.847192251359893483e-02,-7.261279674730386491e-02,-6.354656204078257264e-02,2.041733115911483765e-01
3.754318707532176003e-01,3.884802356239222543e-01,2.587932829278192237e-01,-3.337841000592069174e-02,-7.388588423587584553e-02,-5.339008514476517586e-02,2.087294757366180420e-01
2.989365877642269909e-01,3.019727921245144997e-01,3.459689443350085769e-01,-7.744907915394947870e-03,-8.001741822974957428e-04,5.446097675946853399e-04,4.755231365561485291e-02
4.106054500498471649e-01,4.217874762914980979e-01,2.524058633273543739e-01,-1.909853637792422593e-03,-4.030763096277608509e-02,-3.604093797920833453e-02,1.889524906873703003e-01
2.434872458106159820e-01,3.419256789815144915e-01,3.521651283521226028e-01,-7.543738349485862478e-03,-7.976191661563850456e-04,4.710626447373790016e-04,1.047674790024757385e-01
3.183638548449773675e-01,3.159353150982522340e-01,1.847682714553051386e-01,-1.490348350577968065e-02,-3.398031637235496283e-02,-3.147404721438383512e-02,1.569439768791198730e-01
3.978100127942549302e-01,3.996364788523315559e-01,2.636160584902280668e-01,-1.789844064737034293e-02,-3.872870567783778806e-02,-5.095242471911682475e-02,1.774984598159790039e-01
2.910539498808712988e-01,3.573382986745349266e-01,3.624957828731974474e-01,5.750759781850907186e-03,6.375284212891965500e-03,-2.669551457732016395e-03,7.074320316314697266e-02
2.965082274622520275e-01,2.931450804735105664e-01,3.412877667967875728e-01,-1.453821468092233267e-03,-5.619519600800150418e-04,-1.105971783865301091e-03,4.666985943913459778e-02
3.092918515196499962e-01,3.248563349844073578e-01,3.211782300445431004e-01,-9.699844452651473596e-04,2.488276082763045318e-03,4.675505248116362464e-03,1.689710095524787903e-02
3.644100275596439675e-01,2.715579174414674002e-01,3.600255057883964827e-01,-1.113685096569430426e-02,4.192547666892454047e-03,8.264500414844340448e-03,9.414537996053695679e-02
3.333201144154649964e-01,3.089463751413685788e-01,3.211657187114815293e-01,-2.915269646005584810e-03,5.346221411565899376e-03,2.672832724444007373e-03,2.404652163386344910e-02
3.435365088004438405e-01,2.265100316543327275e-01,3.217794468276701236e-01,-1.568905020193175903e-02,8.745063533035848935e-03,3.247432404017371044e-02,1.255150437355041504e-01
3.445441029564445534e-01,3.289505280332002957e-01,3.271546631999159294e-01,-1.589580106436944834e-02,1.003470372559469095e-02,2.461441475501038867e-02,5.614367499947547913e-02
3.328764728650696059e-01,3.225967589032244787e-01,3.508060666506280234e-01,-6.701479926137773879e-02,-3.617244598048127702e-02,-4.885647253074535540e-02,1.586524695158004761e-01
3.399279371872298561e-01,3.123489132747918617e-01,3.217828970297890723e-01,-1.911975385724104786e-03,6.845220401469746287e-03,2.693468401422452647e-03,2.761747501790523529e-02
4.252840635816080850e-01,3.445244562271912447e-01,3.934825122562348731e-01,-3.270363042673465892e-02,2.972528913912302409e-02,5.800175334514193204e-02,1.446276009082794189e-01
3.276314314202994349e-01,3.248053101658808228e-01,3.322069786785085688e-01,-1.145934772733426914e-02,2.193396045809484565e-02,2.360837903053796330e-02,5.959166213870048523e-02
3.330498065737792501e-01,3.190467453400226416e-01,3.135429761395567283e-01,-1.211171767584638681e-03,9.357004335138944086e-04,1.617510400744603038e-03,1.784161664545536041e-02
3.239921287340141176e-01,3.158275838570099303e-01,3.176597043475276050e-01,-1.069238795369821787e-03,1.205308418247470282e-03,1.050308266045772015e-03,8.133608847856521606e-03
3.172914671330147596e-01,3.179593645497596488e-01,3.161437105616787813e-01,-2.998358939919675632e-04,1.213031615804051680e-03,3.602154348628720500e-04,2.757412381470203400e-03
3.283395797947357697e-01,2.997017549136660741e-01,3.307047867383603457e-01,-3.664116176895232651e-03,6.139196060192323758e-03,2.096404583673664584e-03,3.255740553140640259e-02
3.547407274122473253e-01,2.787457342854515185e-01,2.949731661947975203e-01,-1.402252680879126617e-03,1.457079403817965191e-02,4.007275743555203940e-02,1.013196185231208801e-01
3.229898158221758964e-01,2.091859852792075647e-01,3.176040929042868166e-01,-2.930591575727957768e-02,1.094057600017469059e-02,2.492767549187704587e-02,1.310235410928726196e-01
3.013303643622565198e-01,3.895992261477256302e-01,3.065239892776259190e-01,6.298635738485784154e-03,3.535569629445843576e-02,-3.531318724539552791e-03,1.061434671282768250e-01
3.133999668004374684e-01,3.517089283362158647e-01,3.180129883140302982e-01,3.360931475848397739e-03,8.754532859567653799e-03,7.051527041262638197e-04,3.971701487898826599e-02
3.109474733452294304e-01,3.130129282534451773e-01,3.172685518268582028e-01,-8.514894175840865371e-04,2.479410126359556966e-03,8.692782538731221986e-04,7.351917680352926254e-03
3.097401318541539994e-01,3.188128210824766051e-01,3.203082084424247467e-01,-1.412640042876328952e-03,1.881676870713930956e-03,2.820111026099667711e-03,1.177220977842807770e-02
3.274744715985096200e-01,3.106716844627412377e-01,3.573982027737125922e-01,-1.417983209428062830e-02,6.163447045812058857e-03,5.759831265415638231e-03,4.997258633375167847e-02
3.218035888145491241e-01,3.513282850894912102e-01,2.965937250142437476e-01,1.696152582412213759e-03,1.397820175275141935e-02,5.086682939476934971e-03,5.407386273145675659e-02
2.345835852518793618e-01,3.469622389602425860e-01,3.404523630709944126e-01,7.826307875163086543e-04,4.137485663348336104e-03,-3.156614827014467186e-03,1.096487864851951599e-01
3.260412500078844200e-01,3.498819024135919054e-01,3.064509197206881641e-01,-3.640016260203855249e-03,4.033737111221780830e-03,2.034357158473804484e-03,3.898951411247253418e-02
3.018128336437557735e-01,2.963412528518155620e-01,3.455073335617678820e-01,-1.694225840923393577e-03,-2.191335499433117243e-03,-9.735710621472853715e-04,4.694769531488418579e-02
3.331448148700769663e-01,3.260875815572733538e-01,3.196111748502719618e-01,8.077851708857379520e-03,-6.004620320911988399e-03,9.673610676015815396e-03,2.687213383615016937e-02
3.185305173966572201e-01,3.558694896740310920e-01,3.207503744755398900e-01,-1.679841218114855433e-05,9.812385604913756096e-03,-5.174220817605740264e-04,4.007358476519584656e-02
3.247550709940837943e-01,3.495522399668699598e-01,2.813439831163840887e-01,-4.126262149042200789e-03,2.138444399402251311e-02,6.792183116913074088e-03,7.167465984821319580e-02
3.182567914100359885e-01,3.149133321638185046e-01,3.224507789913831357e-01,5.845391736522135076e-04,-6.681123949747383569e-04,2.158559306826900257e-03,7.689798250794410706e-03
3.004579196870000302e-01,3.156768617573737501e-01,3.248698735291239426e-01,5.272258948503775675e-03,4.208550438313748282e-03,-7.503714457643389200e-03,2.759490162134170532e-02
3.146124530530975405e-01,3.233268825875693087e-01,3.324747253428779747e-01,1.479844426239978333e-03,1.785117307912412058e-03,-5.128730716252818955e-03,1.828616671264171600e-02
3.183522186920060837e-01,3.195503598494461861e-01,3.185837852798799053e-01,1.446265404309030880e-03,5.525885013336429095e-04,-4.819134601536442385e-04,3.016546135768294334e-03
3.167310163228855280e-01,3.279638454447492135e-01,3.441121088614433332e-01,1.036848571547156067e-02,6.801501100425859196e-03,-7.097727098541570592e-03,3.436225280165672302e-02
3.167627474167161172e-01,3.186508947884270637e-01,3.206347428536456268e-01,2.596464327773201526e-04,1.145526952166370498e-03,-9.623674774645615913e-04,4.261918365955352783e-03
3.160865825427588982e-01,3.171895820961104229e-01,3.246743344835181788e-01,-2.658878299766218511e-04,7.352054241574374231e-04,-8.784009040660314483e-04,8.345192298293113708e-03
3.218710901582161332e-01,3.155183247837182181e-01,3.246130226455890000e-01,1.089594646017947189e-03,-3.959045931310765931e-03,9.722307604455447845e-04,1.089560240507125854e-02
2.990795882862916644e-01,3.100099248996928125e-01,4.363521550104511038e-01,1.098666350207093967e-01,1.998328764996157650e-02,-4.510759809003470761e-02,2.469350248575210571e-01
3.331424627006949191e-01,3.123957615082628148e-01,3.194981092319134630e-01,1.844884580529519832e-03,-4.464220441050573314e-03,1.241686586066107411e-03,2.020253986120223999e-02
3.152810935512387336e-01,3.158863360926918440e-01,3.267648573500492870e-01,4.424007287973216111e-04,2.032652755701420087e-03,-7.169748732903375018e-04,1.182442530989646912e-02
3.388563076386286732e-01,3.179891556672285180e-01,3.182037830382806187e-01,4.444565637754427541e-03,5.379957863460795367e-03,-4.193001573238313608e-03,2.509668469429016113e-02
3.606354293696037994e-01,3.542384884826561553e-01,2.707038595250507718e-01,-3.687692255516446336e-03,4.128366329796280196e-03,5.490842501379425075e-03,8.795280754566192627e-02
3.439430374253701905e-01,3.213417985847565328e-01,3.252968667959306170e-01,9.372692268190339904e-03,-5.678441607829093699e-03,1.380751490238815889e-02,3.700388595461845398e-02
3.525588153326691954e-01,3.350164870325293420e-01,3.068878102386007334e-01,7.655677882482967399e-03,-3.244653038552512865e-03,4.442393844229704583e-03,4.311629012227058411e-02
3.230565493807141531e-01,3.086726215267673878e-01,3.466073966419480068e-01,1.983321468356215051e-03,-5.534894088790967906e-03,1.704755852448774185e-03,3.482409939169883728e-02
3.540369500506763689e-01,2.999466588427914804e-01,3.348527563600876555e-01,3.498524890524617407e-03,-5.094557941506886768e-03,6.479765044226305955e-03,4.996657744050025940e-02
3.391390028591653172e-01,3.085479038845675426e-01,3.061972331487960441e-01,3.748677469847660950e-03,3.434163268727768396e-03,-5.605312008184371898e-03,3.442451730370521545e-02
3.206084762752061668e-01,3.054159397455278313e-01,3.095186642097885743e-01,1.178699124633606670e-03,3.538128794656102399e-03,-3.578435303467425704e-03,1.629273965954780579e-02
3.461603875677989883e-01,2.971924849915269506e-01,3.346768414044114515e-01,3.270082131975018697e-03,-3.767355930556331653e-03,6.368236671647268393e-03,4.651585593819618225e-02
3.225584767491473381e-01,3.172038608624612732e-01,3.123074591660900956e-01,4.062808969117542510e-03,1.623972378126672987e-03,-2.271628461529884985e-03,1.231978088617324829e-02
3.486289261700612485e-01,3.045316752168607533e-01,3.190387645397225191e-01,1.571323799053723699e-03,2.231333253042332642e-04,3.650478042803842905e-03,3.953270614147186279e-02
3.286635382911398673e-01,3.063409068727693252e-01,3.112296952570581254e-01,1.675781015473550061e-03,4.053269503910788933e-03,-2.195364040043200522e-03,2.202816493809223175e-02
3.297065507018995811e-01,2.990990542514825878e-01,3.091626912910729330e-01,2.733577971315133415e-03,5.766133980538170299e-03,-3.884893481711620619e-03,2.995851077139377594e-02
3.351436198729478844e-01,3.011739746220243874e-01,3.156332799171994163e-01,9.402374887856683808e-03,9.160039310818986896e-03,-1.465393345282755069e-02,4.508854821324348450e-02
3.332347269970023507e-01,2.983236274573213276e-01,3.209041187193354405e-01,4.994967225103718114e-03,7.713521697986403143e-03,-1.145635566687297838e-02,3.984272107481956482e-02
3.207657927627288741e-01,3.371189723679959838e-01,3.083403944521086459e-01,-4.976253863101022870e-03,2.065879112163028931e-03,1.821823096680126770e-03,2.687120623886585236e-02
3.357892016840595684e-01,2.801945038186707815e-01,3.120630849079077396e-01,-3.374402567628818385e-03,3.772185656470439588e-03,5.022400931706614419e-03,4.987157881259918213e-02
3.260428765972649967e-01,3.278514821576357652e-01,3.157262144056985353e-01,-2.546209154541059869e-03,1.942721372284880342e-03,1.727848796256657108e-03,1.296502072364091873e-02
3.129758625902509528e-01,3.752847629361114046e-01,2.929369483715458244e-01,-1.029757040688114925e-02,3.611161687882218085e-02,8.202664991725571592e-03,9.982322901487350464e-02
2.997966610911330099e-01,3.044788366550045811e-01,3.459749776239288144e-01,-6.410306236456504280e-04,6.677726193241114881e-04,1.622105684904260030e-03,4.414305090904235840e-02
3.246791833955720574e-01,3.534423169338638537e-01,3.143146641859753676e-01,-7.109923060449221781e-03,1.248684799785387822e-02,7.250705656792302486e-03,4.483294114470481873e-02
3.363226893679771567e-01,2.678228425023218007e-01,3.601791121078392055e-01,-6.105310372061432955e-02,1.873888384374608473e-02,3.499155733304144117e-02,1.510120183229446411e-01
2.995736022797318432e-01,3.384690329602770276e-01,3.052328005379111309e-01,-1.932727065703422923e-03,6.383664001935054379e-03,2.726804634229371485e-03,3.847765922546386719e-02
3.192133723671441436e-01,3.370287742676889575e-01,3.094795338407796415e-01,-5.361852515198399852e-03,1.099086486855118186e-02,6.049675977094112235e-03,3.382292017340660095e-02
3.126830051511466646e-01,3.356001684635639970e-01,2.882320531736421998e-01,-2.784199698526374552e-03,8.442330603990966242e-03,1.897623663944367775e-03,4.394620656967163086e-02
3.213915827684590831e-01,3.539280210964955153e-01,3.069880895229037399e-01,-1.266967202992532425e-02,2.133460158579366522e-02,9.396991233818046893e-03,6.202166154980659485e-02
3.082823924318184305e-01,3.465350890625462088e-01,3.104032897425335613e-01,3.779079097455219968e-04,7.778426656165797655e-03,1.231569196071866708e-03,3.966267034411430359e-02
3.162431598077531936e-01,3.464770956304723537e-01,3.131331825307328565e-01,-4.379392239705428430e-03,8.273275630161305155e-03,2.268342495296064160e-03,3.600144758820533752e-02
3.072881216837564100e-01,3.409177377436259926e-01,3.148795024581527713e-01,-1.817371467523968675e-03,7.446823087855362726e-03,8.241541713831903107e-03,3.623986616730690002e-02
2.839364420191988758e-01,3.047008971652538367e-01,3.421468871878629026e-01,-4.530840416647812993e-03,-5.170765483670893611e-04,-2.959754462204364830e-03,5.195746570825576782e-02
3.150619036205952739e-01,3.387480167272369780e-01,3.087895256554525902e-01,-8.069824992186887735e-04,2.268907656519722395e-03,1.145403032631277587e-03,2.775385044515132904e-02
3.267314815517371462e-01,3.190248100243927576e-01,3.244870489531193058e-01,-8.438415520792928856e-04,3.015101337006689114e-03,5.714606565869889687e-04,8.804633282124996185e-03
3.749835179471054936e-01,4.467052493573823724e-01,3.522703300333226428e-01,3.252819769705273673e-02,-6.045776375277751857e-02,3.294583519937055449e-02,1.571142375469207764e-01
2.958141178961127271e-01,2.660573014669071479e-01,3.364467851683100585e-01,-1.228164836212819640e-02,-6.329688747605696948e-03,-1.030674298262605456e-03,6.573795527219772339e-02
2.919706375078504612e-01,3.101645989338564502e-01,3.512568610949831638e-01,-3.236699801117442783e-03,1.557520168341637460e-03,2.220267749636135879e-03,5.311045423150062561e-02
3.263056953710637420e-01,3.911623268844047208e-01,3.195767585430055457e-01,-2.486510279051264236e-03,-4.038069611242656176e-02,-7.928670879195173771e-03,9.892936050891876221e-02
2.747426631736252234e-02,3.150561505935893236e-01,2.823728474409867295e-01,6.528963319410804877e-02,-9.170026177138786150e-02,3.128985201315939713e-02,3.395947515964508057e-01
3.199937297254275004e-01,2.696102095161630463e-01,3.411652282939472980e-01,-6.775413388531949764e-03,4.418373813158047586e-03,3.428173838141628871e-04,6.519251316785812378e-02
3.080229909062004445e-01,4.395441996969564613e-01,4.288104667130184788e-01,4.990007667590130869e-02,-4.027102231768148188e-02,2.741671974043900090e-02,1.749047636985778809e-01
4.647631216537125298e-01,2.551291353202052581e-01,3.626741133817121265e-01,1.863614446262027574e-02,6.981845728196850454e-02,-1.402280848535773783e-01,3.280621469020843506e-01
2.629438651754882339e-01,3.459825651228072285e-01,3.172662862798729111e-01,2.606224164702626404e-04,-6.805179652681986324e-03,2.868543635627837131e-03,7.415732741355895996e-02
3.219035393136221446e-01,3.039559160024039031e-01,3.487626362325549900e-01,3.257444230037781756e-03,-6.544019446519378641e-03,3.817802437422078941e-03,4.158867150545120239e-02
2.070689776848876895e-01,3.937394459578662520e-01,3.612713657313381121e-01,1.226230153349782831e-01,-1.067423863862369121e-01,2.705024744713834667e-02,3.336545825004577637e-01
2.306713428267414268e-01,4.651024065784208350e-01,2.525569257858402139e-01,8.426473581220747522e-02,-1.458560784126625709e-01,3.089463824119291491e-02,3.718780875205993652e-01
3.405853098259619127e-01,2.697268578631339397e-01,3.551838935273176623e-01,1.466338538973241054e-02,-7.304020110183551129e-03,8.117648186653156350e-03,8.527163416147232056e-02
3.371820494231123067e-01,3.611022628772617704e-01,2.988749751235085794e-01,7.418569513902994669e-03,-1.537200458663252368e-02,9.770192800888422013e-03,6.415834277868270874e-02
3.185530220562711179e-01,3.145139813187818323e-01,3.422987660550239064e-01,7.653211186053250647e-05,-3.289311674020608915e-03,6.856962983084032232e-04,2.664528228342533112e-02
3.142457298249329845e-01,3.130613596264936183e-01,3.308412162680735014e-01,1.204292111942506543e-04,-9.950352727640730637e-04,1.172470084301022219e-03,1.742429286241531372e-02
2.039317846483145180e-01,3.429912604335897952e-01,3.172652751875817967e-01,1.349057904657705032e-02,-3.518431142188176153e-02,7.865681766699385638e-03,1.444552689790725708e-01
6.872518116710485403e-02,3.197108028152945702e-01,1.879104879441488019e-01,7.537251915930393183e-03,-1.575701641575510958e-01,7.581862047425956368e-03,3.494468033313751221e-01
2.783021560806916983e-01,3.252695839503813025e-01,3.228702132453010187e-01,-1.967945872292965748e-02,-1.906897410691585359e-02,-1.229131422849553783e-02,6.931777298450469971e-02
2.462288523222839198e-01,3.425512369858507711e-01,3.464302862158533114e-01,4.237110774794196344e-03,-2.287040725385766377e-03,9.622032631404247444e-03,1.000699251890182495e-01
3.006872256990947290e-01,2.831654402005884807e-01,3.951287894968702474e-01,-6.267739334315014510e-02,-3.443718263827441617e-02,-1.568678862079410374e-02,1.642021834850311279e-01
3.123365153414074946e-01,3.236001252552367369e-01,3.342093710038501198e-01,8.176952430998875613e-04,-1.462638337358782232e-03,4.838222460668212439e-03,2.091823145747184753e-02
3.209924326195327526e-01,2.954384673255661120e-01,3.546713327400023430e-01,7.230887186597557796e-03,-1.895769129588461980e-03,2.319571781401592175e-03,5.321356281638145447e-02
3.078358248988411483e-01,3.233175417851459899e-01,3.600963638910421039e-01,4.848389965365351717e-03,2.411718314426809003e-03,-1.516227376472078321e-03,4.750401154160499573e-02
2.966527309353862996e-01,3.300115327559340894e-01,2.972085420609912321e-01,-5.066384930907545658e-03,-6.327158220669559276e-03,-5.483360940543928821e-03,3.717368468642234802e-02
2.918393570285048866e-01,3.243650040519761024e-01,2.946545753387116440e-01,-1.891225837950302746e-03,-3.144872996427330349e-03,-5.258721219120465751e-03,3.313064575195312500e-02
2.934357562791921059e-01,3.226046422844330297e-01,3.013293527783650338e-01,-2.265999028258899872e-03,-2.998793163266346654e-03,-5.693658653628207861e-03,2.867962978780269623e-02
3.131241262579250173e-01,2.816926821527424574e-01,2.796737541017240702e-01,-9.035617152336685928e-03,-8.482574403406569971e-03,-1.469358111024532919e-02,4.651841521263122559e-02
3.312675201415526405e-01,3.049640083711995242e-01,3.322237779398368174e-01,2.712359101596975748e-03,-7.252659479597792745e-03,3.148589713947072717e-03,3.045581839978694916e-02
2.952756493360569334e-01,2.956391090935313049e-01,2.792207921325585707e-01,-1.385256224016075989e-02,-7.717750573476006050e-03,-5.457961493466471567e-03,3.327860310673713684e-02
3.497001909931122809e-01,3.105984062115674793e-01,3.162222783727917652e-01,6.866517328607895602e-04,-1.611015539797503067e-03,1.381375586910732912e-03,3.681846335530281067e-02
3.049895910260136955e-01,3.149145289948257487e-01,2.844548058145402458e-01,-9.239830256093567451e-03,-6.014645461367701743e-03,-4.554367011967083712e-03,3.392441943287849426e-02
3.413932936620389103e-01,2.871160957095111876e-01,3.268694171664149883e-01,-3.429354910567305494e-03,6.548171429261544045e-03,7.169935467396343527e-03,5.183418467640876770e-02
2.924885242956720699e-01,3.072299327233485311e-01,2.880294175952412550e-01,-8.278736685678658030e-03,-7.987036572683625657e-03,-9.048308815611416644e-03,3.074951469898223877e-02
3.509237973062648286e-01,2.536261073508699337e-01,3.282681931870001790e-01,1.591245780224440423e-02,-4.623033888427814306e-03,3.631733961637247099e-02,1.120551750063896179e-01
3.121446161949723574e-01,2.994860392961024020e-01,3.153815759562374477e-01,-2.190696710445817069e-02,-1.749630595882054052e-02,-2.175902649483631851e-02,6.316776573657989502e-02
2.954442160358655145e-01,2.944688443988790483e-01,3.319918163274507839e-01,-1.204876721743874208e-03,-1.353548526684008029e-03,-3.425555131295490805e-03,3.764811530709266663e-02
3.087225717519004875e-01,3.062905828258137841e-01,3.067474090591081337e-01,-9.836411394723413876e-04,-1.920550635572975794e-03,-5.739202251919428999e-04,4.468625411391258240e-03
3.461294800354389190e-01,2.909599688242940352e-01,3.333148996981166734e-01,-3.115392055270193618e-03,4.647908603186465260e-03,6.367667766438983058e-03,5.211988091468811035e-02
3.500124353995087700e-01,3.604532258136605716e-01,2.268772340225415629e-01,3.443198168491651365e-03,-1.260521850879978319e-02,5.614320650895647611e-04,1.306526064872741699e-01
2.951824270806213679e-01,3.125587641203038669e-01,2.995384317738483126e-01,-2.017110862917829116e-03,-2.891919600115617096e-03,-3.923856778019117753e-03,1.813025772571563721e-02
2.907886483826518931e-01,3.041278611125713960e-01,3.340614980680470802e-01,-3.140273451875305686e-03,2.559337927573824894e-04,3.206393982178436328e-03,3.916467353701591492e-02
3.138516295011751778e-01,3.115295619456812659e-01,3.450295367989317796e-01,5.315121317797225076e-03,-3.318936474421467584e-03,2.758505428760453862e-03,3.450328484177589417e-02
3.258193319209325978e-01,2.983037703317026890e-01,3.290965606981423042e-01,-3.817266602315325802e-03,6.843897336886469937e-03,2.130714488916725380e-03,3.249419108033180237e-02
3.112061013867750137e-01,3.384451166725160332e-01,3.148660179556199701e-01,-4.824930227869180942e-04,2.041476417280647503e-03,1.909838292128421787e-03,2.607316896319389343e-02
3.115968937755790868e-01,3.062091727898002547e-01,3.457234269756319645e-01,4.729659185995756764e-03,-1.764694825490883143e-03,1.810251171443246453e-03,3.825956955552101135e-02
3.101801017176711861e-01,3.251205521620957883e-01,3.573704127471047376e-01,1.983186601753972322e-02,1.504594368276783358e-04,9.392576497221107306e-04,5.410842224955558777e-02
3.123355339368065198e-01,3.395573114546592830e-01,3.171098547132624179e-01,-1.104314088048086737e-03,1.832001955769841945e-03,3.581175262014746948e-03,2.619266137480735779e-02
3.151622286895903735e-01,3.171989443938771913e-01,3.556805825243343211e-01,7.771734678386673853e-03,7.651153480408362994e-04,-1.389279760353930634e-03,4.185817763209342957e-02
2.907651065294722947e-01,3.165021102204085279e-01,3.554530596145027976e-01,1.510666955418893918e-02,2.051662207021299512e-03,4.011379729306372918e-03,6.267046183347702026e-02
3.061677447243822958e-01,3.059485722145000586e-01,3.254048036759942253e-01,-1.119544672617489144e-03,2.881514875203707634e-03,8.524457369447387004e-04,2.012903988361358643e-02
2.795182269382745499e-01,3.083911689051430094e-01,3.458540564507368020e-01,1.293630845868253866e-02,-1.459203292937640787e-03,1.502406344392241471e-03,6.191916018724441528e-02
3.061993882087372665e-01,3.093881430989330328e-01,3.452974314701294234e-01,4.376246386392267443e-03,1.666882966171397455e-04,1.599519730543751128e-03,3.846250474452972412e-02
3.942290683920943173e-01,2.459428048699470459e-01,3.593971402797079828e-01,-1.940455858361095701e-02,5.665951177667820360e-02,1.165776875043797595e-01,2.637585401535034180e-01
3.104667504652117715e-01,3.385005323371971797e-01,3.126220179407885325e-01,-4.317849296719056458e-04,1.945699202305594755e-03,1.541408058975850433e-03,2.737082727253437042e-02
2.874492397250718589e-01,2.925823037278070804e-01,3.091510778451000419e-01,4.077061266985722299e-02,-3.417309527263382579e-02,2.102820721070012416e-02,1.010079607367515564e-01
3.153888261895054224e-01,3.415294364925309800e-01,3.484265621459890494e-01,2.147831175526501712e-02,1.894963622018794661e-02,-8.072205272649086299e-03,5.973188579082489014e-02
3.090044085753549385e-01,3.048407898419198125e-01,3.241738237683073343e-01,-5.846630299975302640e-03,5.257919659450544306e-03,5.606221293047516582e-03,2.429777942597866058e-02
3.012780909044271982e-01,3.040209945638232547e-01,3.430790129947413059e-01,-1.118650343651161460e-03,9.368636150986305771e-04,1.015534866092264975e-03,4.061608016490936279e-02
3.487516664372530273e-01,3.017599441293272178e-01,3.027759212816416579e-01,-2.953132508820101310e-03,-3.075475800516530491e-03,-7.067921356728310532e-03,4.864069074392318726e-02
3.298887352291333674e-01,2.958567626372765602e-01,2.676848423282497946e-01,-7.883526848822871441e-03,-3.077680189648464640e-03,-8.843745406786885505e-03,5.796619877219200134e-02
3.265636216355028432e-01,2.430803810344876748e-01,2.404295474328292381e-01,-2.404958095182712849e-02,-2.217993054294910976e-02,-6.967774001426957353e-02,1.580308079719543457e-01
1.842494831073091255e-01,4.350967558549693193e-01,2.593325001175809108e-01,-3.679900937129675087e-02,-1.460508088932489235e-01,5.190908257624197303e-03,3.433122336864471436e-01
3.129097453624322678e-01,3.687061611502377989e-01,2.748161694160618507e-01,7.622400070720696322e-03,-2.976448905168657330e-02,1.648374555106962847e-02,1.016713529825210571e-01
2.661465701095143133e-01,4.353360726307732853e-01,3.852244921107766396e-01,1.104762562333335731e-02,-6.567634836257751907e-02,1.024436668124269895e-02,1.904705911874771118e-01
3.147798563447382625e-01,3.119360317717967401e-01,3.519829870243579850e-01,2.238557005378190041e-03,-1.682510485675320182e-03,1.000424577392665338e-03,3.904469311237335205e-02
3.046719441631894898e-01,3.423165885476484038e-01,3.007444147097372289e-01,1.659320370418841369e-03,8.464060562919071412e-03,-1.975815357891687058e-04,4.246991127729415894e-02
2.897807659054315033e-01,3.587383837442876255e-01,3.146247403672369214e-01,5.390912309578358048e-03,5.574432804654538137e-02,9.415816603424853951e-03,1.154757291078567505e-01
3.130972122916897971e-01,3.120475831551092205e-01,3.383026563993373759e-01,3.565817976037612483e-03,-3.245167124073176836e-03,2.723134863589241235e-03,2.747466787695884705e-02
2.928052493004276169e-01,3.963425861071492862e-01,3.349002617604756593e-01,-4.632281092567020267e-03,4.265802870943570524e-02,2.233849708335014853e-02,1.231019347906112671e-01
3.205429943367075762e-01,3.238425286539469705e-01,3.145548411773493314e-01,4.356142752909879755e-03,8.026527255557623338e-04,-4.080874846322317092e-04,1.121888216584920883e-02
3.049491990607506864e-01,3.106424926834441269e-01,3.458871158763742182e-01,1.806846771253768288e-03,-7.791467415997895907e-04,5.461351329676044850e-04,3.857155889272689819e-02
3.254524861075179798e-01,3.544614955939633938e-01,3.037393993300592787e-01,-5.985823854106214498e-04,4.517349453234779932e-03,8.038133723514507894e-04,4.480054229497909546e-02
3.229322581368269107e-01,3.328999632961436861e-01,3.127211574247116821e-01,5.249287410600636875e-03,1.241163404265399357e-03,-8.796320995735757136e-04,1.987487636506557465e-02
3.371622106601185886e-01,3.631803563377276611e-01,2.910466374842799464e-01,4.540315758584999133e-03,6.667173070630959611e-03,-1.517431392119759697e-03,6.485010683536529541e-02
3.017807827148528688e-01,3.441480648864645997e-01,2.603201606984061334e-01,6.951527623415509199e-03,2.963325947687800443e-02,-1.090036593255169252e-02,9.168619662523269653e-02
3.101270860150449615e-01,3.197990124932929001e-01,3.314531343406367792e-01,1.222564882354131802e-03,-1.611214329289353516e-03,5.942911649817178739e-03,2.145481668412685394e-02
2.654441748097008391e-01,3.394984486850470828e-01,2.939624414780065420e-01,-4.669766646540143850e-05,-1.274900213501954822e-02,1.315637813051990460e-03,6.839764863252639771e-02
4.033670159465516658e-01,2.035637798558397882e-01,5.143763983422047215e-01,-1.380578466695256135e-01,3.451042529924917140e-02,2.017396046733559850e-02,3.693213164806365967e-01
3.916040287266273623e-01,2.834256701059803540e-01,4.491190114457312976e-01,-5.462036003589639671e-02,-3.345042119091819199e-03,-3.016861203196227661e-04,1.738286465406417847e-01
3.413044114471696644e-01,3.599824893433942186e-01,3.018142157612034859e-01,8.597746486134028726e-03,-1.831004182135860525e-02,5.968938210902979997e-03,6.309016048908233643e-02
2.866805696185865115e-01,4.462114625149894431e-01,4.235963969826777031e-01,4.366247564806097908e-03,-4.477041576076083718e-02,1.143912789544710221e-02,1.697547286748886108e-01
3.172625176185357443e-01,3.609371519247877025e-01,2.912486104868789449e-01,-3.323433448981579115e-03,-1.885284230688820395e-02,-4.250771067146467616e-03,6.981386989355087280e-02
2.756367824206353845e-01,3.597309571249986404e-01,3.244729080552959388e-01,1.484801475097465061e-03,-7.290237514092493161e-03,-7.704846109437739690e-04,7.428190112113952637e-02
2.799843968704383568e-01,3.560781711772840752e-01,3.537448659156202102e-01,4.670702697323114716e-03,-5.162738515144088026e-03,6.070695428858878182e-03,7.664284110069274902e-02
2.937621339919620489e-01,3.343501988979022954e-01,2.947031885566011034e-01,-6.745298450772907115e-03,-1.857596591982054596e-02,-1.314785810828044202e-02,5.744890123605728149e-02
2.704801042817616685e-01,3.629441016977918433e-01,2.903489821647644020e-01,2.413717742885977246e-03,-3.805404481913282622e-02,-8.760000449109383788e-03,1.081629768013954163e-01
1.897506555903812342e-01,3.228319306815625733e-01,1.330910702703290149e-01,3.997876522719800985e-02,-1.360210949255431512e-01,4.313159263051187520e-02,3.071520626544952393e-01
3.496638847011925288e-01,3.042236392358991237e-01,3.109071069834875023e-01,-3.775425270582018222e-05,-1.747788063385121815e-04,6.413461321033492833e-03,4.392356425523757935e-02
3.585459069412146316e-01,3.814323303343292171e-01,2.418596116653511374e-01,1.199659288540595031e-02,-2.325530338496380883e-02,3.013672510619827549e-02,1.469314843416213989e-01
1.747201412876607796e-01,2.770244888252343940e-01,3.233227395977282814e-01,-6.746076101251094470e-02,-1.767098531718004628e-02,-7.259653810022280614e-03,1.791479289531707764e-01
3.055430018494366684e-01,4.092317052780315989e-01,4.707320830427260683e-01,-5.898308951386591059e-02,1.317376108999982268e-02,1.475786098913813363e-02,1.803373992443084717e-01
2.597027864363472549e-01,3.318915311707220650e-01,3.686080553593622522e-01,-3.848443751841788829e-02,-7.709117904257697940e-03,-3.089758318244692926e-03,1.177281811833381653e-01
2.407472400813379931e-01,3.062238683923546034e-01,3.435670669340347150e-01,-1.734923769552378092e-02,-2.810336149542357314e-05,-2.874337251885025887e-04,9.502656757831573486e-02
3.444297051950828692e-01,2.735134282946001805e-01,3.502107128456365404e-01,-7.428054666982722432e-03,5.526850708929478308e-03,3.930548349449152629e-03,7.600013166666030884e-02
3.692149245549087300e-01,2.712501498256734145e-01,3.567314524015411381e-01,2.171401437578588268e-03,-8.244580065823960049e-04,5.744279806458494307e-03,9.297939389944076538e-02
3.351312454388093443e-01,2.789849738776685184e-01,3.531960657001855797e-01,-2.902093081428866461e-02,8.299019868495349783e-03,6.785133722159444707e-03,8.581604063510894775e-02
2.352739674253081781e-01,3.366366873943286153e-01,3.649661770362176427e-01,-9.758045002472003418e-03,5.335048064729616853e-03,1.418393259687996798e-03,1.196895837783813477e-01
2.280324840074729742e-01,3.525676204225595134e-01,3.674281836658552236e-01,-1.913834525664733985e-02,7.967638036175659667e-04,3.897129202717103565e-03,1.368458867073059082e-01
1.764384908997613244e-01,3.410696215395587760e-01,3.499794539156669826e-01,-3.862838949576485881e-02,1.109918208160399176e-03,-2.826936646667162906e-03,1.820817291736602783e-01
3.240545327563709721e-01,2.846176228041888967e-01,3.316694978875022737e-01,-5.550277975835146357e-03,1.057883856417754509e-02,7.169815470547681938e-03,4.995937645435333252e-02
3.877025418396552459e-01,2.790467660702934949e-01,4.244190610896364513e-01,-5.007326886918516545e-02,1.510066507174087289e-02,2.358457050561195423e-02,1.643728166818618774e-01
2.359437351471523336e-01,3.669614315233132862e-01,3.717849040724573451e-01,-1.640039425407420481e-02,-4.768615704256977741e-03,-2.860113552110650666e-03,1.368230283260345459e-01
3.168516224817947702e-01,3.566226149486179109e-01,3.095998745498855786e-01,-1.531830485122586891e-02,6.467120981627130782e-02,2.074944215071090545e-02,1.283175498247146606e-01
3.135118048277038549e-01,2.972991819847365380e-01,3.429114455692535146e-01,-4.323352048675951215e-03,4.763660117800976729e-03,1.861841932502296014e-03,4.169393330812454224e-02
3.093431180490543997e-01,3.250955752328110737e-01,3.042210429382941062e-01,-4.138809865022217288e-03,2.627851400090240076e-03,2.901179016296183844e-03,2.127010561525821686e-02
3.017864708005941754e-01,3.289765847008244148e-01,3.126903434229520995e-01,3.208188024553419466e-03,3.713616329828783522e-03,-4.591155088775000781e-03,2.640465088188648224e-02
3.083026229108409288e-01,3.468608461020484257e-01,3.150288968319567284e-01,9.525273307257816095e-05,4.873020918198116974e-03,-1.619133008004694160e-03,3.676624968647956848e-02
2.897864872056153396e-01,3.432085992688127529e-01,3.099781566371739849e-01,4.456516303128869871e-03,9.894447975041142235e-03,-3.852784474310218862e-03,5.080115795135498047e-02
3.054254361105578353e-01,3.409796238106139743e-01,3.123663924622387400e-01,1.344999013990988207e-03,3.643194954092912954e-03,-1.861854636523406763e-04,3.332936763763427734e-02
3.496109153824681903e-01,2.834150533298709362e-01,3.327147539720017866e-01,-6.513769468929057026e-03,5.699056989280029510e-03,6.911940337311517357e-03,6.258567422628402710e-02
2.965924870438370609e-01,3.044012644129635015e-01,3.442649607431698122e-01,-4.221962828496100828e-03,1.535030211398436461e-03,2.849857378055074570e-03,4.523590207099914551e-02
3.159908596896257027e-01,2.977558408945968904e-01,3.417563280041724938e-01,-4.258799369613121971e-03,4.533106801317570746e-03,1.908403758614793952e-03,3.991483896970748901e-02
4.481447234177257100e-01,2.244985033558229981e-01,4.446566892552657468e-01,-7.314815428547664054e-03,4.159328102643484321e-03,-1.835066915818913758e-03,2.224235534667968750e-01
3.481881863436631086e-01,1.296238982964466047e-01,3.318499297548848093e-01,-4.015556492357227891e-02,1.136480902987142133e-02,7.738277570838532349e-02,2.601066827774047852e-01
3.130005684221736084e-01,3.284148546874348096e-01,3.051045758002294273e-01,-7.243843758005049163e-03,2.321423332324869856e-03,2.782647674807372379e-03,2.486914210021495819e-02
2.995361504678536457e-01,3.000396625603549139e-01,3.433861485133167801e-01,-1.915348515577785203e-03,7.323850095575022527e-04,5.212478935867374607e-05,4.374494031071662903e-02
2.797811867764961047e-01,3.203500429673053485e-01,3.146334449445492010e-01,-1.635649084825268815e-02,1.685903464357796366e-02,1.596393118913448650e-02,6.218056380748748779e-02
3.162601405535170329e-01,2.565633210729052482e-01,3.500948049238994941e-01,-1.037522018418040627e-02,3.075140438155024060e-03,-7.881168822401632499e-05,8.414059877395629883e-02
3.536939772953298089e-01,2.481632006956527303e-01,3.302682025605117033e-01,-1.908744655074804059e-03,5.718104165403222264e-03,3.359216042838165245e-02,1.127283945679664612e-01
2.836327857276390585e-01,1.176160472573191118e-01,1.058850228689624529e-01,2.474388267716156470e-02,-3.344103529834446115e-02,1.627788769848857175e-01,3.381261527538299561e-01
3.096757205741047514e-01,3.081582123355387504e-01,3.458937868987594366e-01,2.038962183060450978e-03,1.871154554701118895e-04,1.374227709435522481e-03,3.724587336182594299e-02
4.718621826152263332e-01,1.786622432177711883e-01,5.380713128938652279e-01,-1.310612144893468986e-02,5.982732231149545665e-02,6.280811215170506445e-02,3.644861876964569092e-01
4.603766115390549030e-01,2.733483970753144421e-01,4.629794277010196857e-01,-4.761328408320694315e-04,1.838774727460618444e-02,2.991338945016860235e-02,1.979206055402755737e-01
3.120551260318104037e-01,3.109409818427510408e-01,3.501898874222813540e-01,1.434751826304215107e-03,9.684484708452446378e-04,3.523836787853030887e-04,3.882461413741111755e-02
3.230556845248354625e-01,3.213719571599785718e-01,3.193584694539103319e-01,2.105382941800382733e-03,6.833096994240943790e-04,-5.307696215157120241e-05,4.998633172363042831e-03
3.725766945451059464e-01,1.582082233649461100e-01,4.573294337281653688e-01,-7.208873049096611862e-02,-4.072299069034785411e-03,5.950637220761978430e-02,3.123592734336853027e-01
3.488918167736881903e-01,1.672744428410755657e-01,3.215139406492963370e-01,2.995891238519278812e-02,-2.754723586363374242e-03,8.828043949468301899e-02,2.342174351215362549e-01
3.102397022635170476e-01,3.183315902911674766e-01,3.226941197406505424e-01,-1.938565983534088540e-03,2.985802673210231125e-03,4.807522816870416632e-03,1.507207378745079041e-02
2.891926138904597487e-01,3.172739211072573839e-01,3.349504581194024944e-01,-4.240380112955322370e-03,5.007227775716847906e-03,1.017788388544262068e-02,4.513676464557647705e-02
2.984851701173390492e-01,3.130924279836465596e-01,3.325933807347726812e-01,-1.452763233456414761e-02,5.398813883389651930e-03,5.575601267802796773e-03,4.113847762346267700e-02
3.552107704950292488e-01,2.594896236362176922e-01,3.583977950388415046e-01,6.785739245265630555e-03,6.440310893773022044e-04,3.638053879423427343e-03,9.826927632093429565e-02
3.173287269051626169e-01,3.201627499705410052e-01,3.411257811818384500e-01,-5.065155329139516861e-03,4.315460384997372653e-03,5.449931279331557757e-03,2.699689380824565887e-02
3.267465203425561904e-01,3.067617698644931612e-01,3.062121377180446746e-01,2.962648861663339656e-04,1.566953929273078678e-03,-2.013049466080347647e-04,2.045550197362899780e-02
3.016126579033450716e-01,3.161151314475545426e-01,3.346358575858142670e-01,-1.786139919956765453e-03,1.850105070375360379e-03,5.910281113958290589e-03,3.076636418700218201e-02
2.984332256075380996e-01,3.133460880262940451e-01,3.154048466582764498e-01,-3.272340811628532929e-03,3.931752527796626012e-03,6.612073108383582920e-03,2.161002345383167267e-02
3.238539890468104532e-01,3.250233293155429526e-01,3.109205005696212831e-01,-5.559312221952619759e-03,7.016370269362174998e-03,5.543542382372229627e-03,2.272366359829902649e-02
3.227178038965410334e-01,3.238976904790756839e-01,3.083143304072094026e-01,-5.491173617051689493e-03,1.760383252419514240e-03,1.204535044957342821e-03,1.816466823220252991e-02
3.425049609937375061e-01,3.319020198029485891e-01,2.565855105581651974e-01,8.846560432260102552e-03,-1.843803676946079509e-02,2.216783151600499810e-02,9.650120139122009277e-02
3.100947920718950535e-01,3.305199178135658777e-01,3.118461558638434550e-01,-2.577273216444869557e-03,2.842110523717967553e-03,4.571161051466947692e-03,2.216590940952301025e-02
3.350399078921376117e-01,3.498439436076686282e-01,3.262808414968088599e-01,-7.202795425567651982e-03,9.460391446857258080e-03,8.901345552166949060e-03,3.297559544444084167e-02
3.146033201830200632e-01,3.340365007118198948e-01,3.048126528653377076e-01,-3.360016697541727462e-03,7.262612390791422547e-03,6.486767522279422889e-03,3.133862838149070740e-02
3.183549477205875888e-01,3.283161425288995128e-01,3.011510259869459305e-01,-7.043322173018445355e-03,5.208038214953173220e-03,3.044804362155844723e-03,2.871551178395748138e-02
3.148518570147589291e-01,3.349636131533623162e-01,3.075945668456738225e-01,-3.718021988592045638e-03,2.674692330774111441e-03,2.460245821960580989e-03,2.615720219910144806e-02
3.130680699906177034e-01,3.155415657187142786e-01,3.506307797966043416e-01,2.360380400182388386e-02,7.092675635476559937e-03,-3.844175935768040335e-03,5.648746713995933533e-02
3.073677285095273715e-01,3.193259167546234067e-01,3.761723530131010351e-01,5.865259143137224740e-02,4.274156661034674010e-02,-2.505894814642250015e-02,1.474416851997375488e-01
3.549766395681836495e-01,2.240329136635543228e-01,3.584233111888736056e-01,-4.297045830466798833e-03,3.249198656858095710e-03,-5.681926660251732423e-05,1.330283284187316895e-01
2.977164072956520746e-01,2.538737680715839606e-01,3.455600735117776989e-01,3.467137130749277374e-02,6.991171050570567716e-03,-1.908514814314364247e-03,1.003626137971878052e-01
2.949983032307524899e-01,2.425934985572398006e-01,3.354663003349344641e-01,3.767180784569450214e-02,1.818162888765507707e-03,3.394331065496719591e-03,1.039548814296722412e-01
2.940030650692305736e-01,3.146316337946008512e-01,3.260174887228626806e-01,9.434508383960071506e-03,7.590613918099616692e-03,-7.366489295329649994e-03,3.731925785541534424e-02
2.954909501305671982e-01,3.143467361749245348e-01,3.547369995047206515e-01,-1.874555340418020133e-02,3.319140043937034937e-03,2.912094427975948138e-03,6.213841214776039124e-02
3.031379469241323732e-01,2.826968705759698164e-01,3.196853444227591989e-01,9.191948466351126251e-03,6.771464802320344319e-03,-4.001281755841695417e-03,3.832708299160003662e-02
3.103868029864866873e-01,2.987318619707475809e-01,3.438156124956282533e-01,2.068355290244781874e-02,1.508628197411620957e-02,-1.698949931523358048e-02,6.689602881669998169e-02
3.143520497196641839e-01,1.074996750349459518e-01,3.391362488928963970e-01,-9.768369637153584417e-02,-2.032489837684078524e-02,-7.266231947416307291e-02,3.069753944873809814e-01
3.193397547722178209e-01,3.065749370041870869e-01,3.327199042720369593e-01,2.355010849601065111e-03,5.545167389797747183e-03,-2.811356265557653222e-03,2.540394105017185211e-02
3.134328382691115578e-01,3.082277722807983955e-01,3.313198336675076128e-01,4.309802554894458237e-03,3.396272854093077605e-03,-3.882967783045681437e-03,2.399374544620513916e-02
3.097474069586589329e-01,3.050075197460808685e-01,3.601495554746953487e-01,-8.178917690612320934e-02,-9.923932146194849521e-03,-4.022140345136861195e-02,1.673884391784667969e-01
2.908669305486652479e-01,2.865157600927419335e-01,3.383077556805455521e-01,-5.220976309678205390e-03,-6.273254665237317299e-04,-7.146100566572326880e-04,5.060114711523056030e-02
3.028566173664209438e-01,3.215847466376081099e-01,2.949100000775490282e-01,-3.903993038000848695e-03,-2.310450977600997033e-03,-2.136114949658896381e-03,2.526150830090045929e-02
3.149375393969611192e-01,3.235108241281831609e-01,3.176729043901100891e-01,-1.305785052959265507e-03,1.745414020010526476e-03,3.280509092246753234e-03,1.020157989114522934e-02
3.093706209811106222e-01,3.102999961480790159e-01,3.269769182321562440e-01,-2.681594314862487029e-03,1.973528391028964418e-03,4.038765083973843220e-03,1.940811052918434143e-02
4.648677237575996046e-01,1.492108626901834101e-01,4.695918738381856250e-01,-2.250841768351889705e-02,5.466799407055904225e-02,1.344865080918097519e-02,3.349343836307525635e-01
2.902538517615410041e-01,2.958964619137458008e-01,3.444055081846703059e-01,-6.011538717566480491e-03,6.090662281055759988e-04,-1.333739272922063982e-04,5.261431634426116943e-02
3.142761324452876259e-01,3.099532868533139141e-01,3.180459513139780592e-01,-2.502915923212265838e-03,3.796936967163484170e-03,2.242353085372757356e-03,1.123936288058757782e-02
2.998262232513280168e-01,2.947858264683413387e-01,3.417877243574969914e-01,-3.189289474631413265e-03,2.083616860063326921e-03,1.208612932047023513e-03,4.522827640175819397e-02
3.164107353928808930e-01,3.083366572417364226e-01,3.179970796735179794e-01,-1.508890128468536734e-03,5.213082213213252568e-03,1.336662707214192987e-03,1.319978851824998856e-02
3.082813629737147232e-01,2.902913815050744417e-01,3.530388228871908507e-01,-4.828800674517968669e-03,9.311632588989159119e-04,2.569907313267581761e-04,5.661101266741752625e-02
3.188336229321309667e-01,3.163813021644005241e-01,3.161306780159460206e-01,-1.590215425310282727e-03,1.839738812882523063e-03,6.562363640943375074e-04,5.071835126727819443e-03
3.173574059385728674e-01,3.052605132926799469e-01,3.212302064351598152e-01,-3.225546187534051364e-03,9.244258760201500696e-03,5.035917921705521799e-03,2.391328290104866028e-02
2.901679801339500653e-01,3.382085228662577991e-01,3.438218559279488384e-01,-3.487225533248198422e-02,-3.990920236708825342e-02,-2.309812048074005864e-02,1.124103888869285583e-01
3.068540825455278176e-01,2.877305505674482844e-01,3.468656727629648717e-01,-4.336968172771385813e-03,-5.300131443507702378e-03,-3.715149119916098699e-04,5.359958857297897339e-02
3.866520362922420961e-01,2.577763079415879011e-01,4.536930690806239563e-01,-1.396896127308027979e-01,-4.686867408008115604e-02,-8.465034029377130342e-02,3.411305248737335205e-01
3.002611553837719605e-01,3.299725304188687591e-01,3.247531876390898908e-01,-4.409157837930220356e-03,3.942648331690097249e-03,7.662700083932385935e-03,3.218757361173629761e-02
2.953617249941911105e-01,2.899825975075436268e-01,3.301994172235093172e-01,-5.288803457115258747e-03,-4.133014981356503831e-03,-2.140713565439029183e-03,3.973542526364326477e-02
3.148529018773293386e-01,3.182988353603998788e-01,3.211262466813674665e-01,-4.332005828718139134e-03,4.721858111526928969e-03,5.509407713687731328e-03,1.561599038541316986e-02
3.185817094212154421e-01,3.280811998175363065e-01,3.146708911513899087e-01,-3.774523635660322670e-03,4.781363755522566664e-03,5.835258912235721275e-03,1.887224800884723663e-02
3.078250227974010378e-01,3.109904389624147947e-01,3.440079670109182919e-01,1.103448965144857626e-03,1.195153633250573954e-03,2.169935615936341596e-04,3.482485562562942505e-02
3.211461352812148284e-01,3.306486457896818942e-01,3.166280166905602322e-01,-2.792804792117565844e-03,5.428412582710677101e-03,6.255180734404126863e-03,1.956600882112979889e-02
3.265783119217951502e-01,3.143352720521933041e-01,3.120189214969976144e-01,-3.978279874608751238e-03,2.837020608541498436e-03,2.784105277145761462e-03,1.668821647763252258e-02
3.240278449736135324e-01,3.141918584360977040e-01,3.129906907612887701e-01,-4.182747261239303307e-03,5.051041548410852358e-03,4.062679405214337375e-03,1.698662340641021729e-02
3.236674018509481110e-01,3.103172064018458465e-01,3.095874597024813046e-01,-5.906514931577627400e-03,7.291036668383705024e-03,5.856985866484534613e-03,2.357018738985061646e-02
2.918196145127426866e-01,3.440233122232739249e-01,3.564206147226618437e-01,-2.301429211849997589e-02,8.732606669006921438e-03,1.113540438440103683e-02,7.560320198535919189e-02
1.971031805222697442e-01,2.743011413473738225e-01,3.550470881350879515e-01,-9.734533729942271285e-02,8.053549697169329336e-02,6.010178807501398435e-02,2.782728374004364014e-01
2.618133189943202543e-01,3.758303781897693319e-01,4.467158312315832047e-01,-9.288608445752082055e-02,7.965370195195564662e-02,2.260713805477636978e-02,2.693652808666229248e-01
1.132981635882605032e-01,2.923585399522415917e-01,3.481394821414792728e-01,-9.496176093449903988e-02,2.756093315404739910e-02,2.676503121747791578e-02,2.768454551696777344e-01
3.504201078305794193e-01,2.332462041212112758e-01,3.331662571562887809e-01,-1.246338964570849889e-03,3.870565663314760180e-03,-9.092685027244400836e-03,1.109204813838005066e-01
2.881449444531872239e-01,3.411837914345069445e-01,3.737174286440402837e-01,-3.140000334591034475e-02,1.313729289656206944e-02,6.769616772459727261e-03,9.596996009349822998e-02
3.008172763980139774e-01,2.965927808868881743e-01,3.419034878948119527e-01,8.413939308601809525e-03,1.689992620305363197e-04,6.844261441289244217e-04,4.575331509113311768e-02
3.137948928071273569e-01,2.978962428112207350e-01,3.132424854351933408e-01,4.239308893481993912e-03,6.604902342254036045e-03,-4.135603222432266898e-03,2.191777341067790985e-02
3.126981429188703254e-01,3.315946988515307559e-01,3.150301087605161809e-01,1.383795461923200375e-03,-1.205538134134827652e-04,-8.563774112594093029e-04,1.806765608489513397e-02
2.083759399736581364e-01,2.700671401839287999e-01,4.878810793172534410e-01,-1.411011180540676091e-01,-2.663775482525406087e-03,3.104708365038595652e-02,3.568298518657684326e-01
3.177497201025274443e-01,2.636931142552428886e-01,3.389995244231067684e-01,7.147454085338057067e-03,5.346142065169344655e-03,4.758448326526927325e-04,6.900756806135177612e-02
5.911363747836939631e-01,3.160375240109328798e-01,4.342030422306326076e-01,5.330239860359240606e-02,4.950629804687940727e-02,-1.445989598963781098e-01,3.684262633323669434e-01
1.221373986355543673e-01,2.968290961678412554e-01,1.607985058155935731e-01,1.752139503648290214e-02,1.351567635066145412e-01,-5.844036161226403257e-03,2.847518324851989746e-01
2.395260973574083740e-01,3.437958478124490402e-01,3.595455692811093118e-01,-5.991947893936620806e-02,1.852257159642275303e-02,-1.192091316843863803e-03,1.567386537790298462e-01
3.260536158077351754e-01,3.367943016387812127e-01,3.137087542658834050e-01,-3.963862633213808065e-03,7.180326009738267597e-04,1.860298083934633362e-03,2.143398486077785492e-02
3.122799831927237091e-01,3.415496298728672442e-01,3.137967015404772853e-01,3.254359739945190694e-03,2.705994441783317155e-03,-4.185277123747783989e-03,3.034646995365619659e-02
2.970548218128705176e-01,3.228114885519531296e-01,3.135894010452798808e-01,2.588638394972855080e-03,4.461226327510088921e-03,-8.556489636526384140e-03,2.846706658601760864e-02
3.227626741446581460e-01,3.001087112970823312e-01,3.545054729831215168e-01,5.213842013863800515e-03,3.319628339023954558e-03,-1.341414874506863166e-03,4.857898503541946411e-02
2.980294061385725390e-01,3.168477909320895347e-01,3.141968220993756611e-01,3.224464113653917677e-03,6.330511821162169116e-03,-7.894150648614269017e-03,2.548809163272380829e-02
3.145921961308946746e-01,3.279341632870964585e-01,3.180770505069840937e-01,9.056848154848061178e-04,6.550133130750360275e-04,-2.222014091832089696e-03,1.273646112531423569e-02
3.627669984188536256e-01,2.265043014972470403e-01,3.590872291876509026e-01,-7.917310487228601101e-04,2.136757154126286366e-03,-6.962895048497942836e-03,1.350580304861068726e-01
3.593719589826191441e-01,3.247058729410534639e-01,2.573368003827088968e-01,3.971839345896010197e-03,4.848944474434806542e-03,-1.547010655891939770e-02,9.440120309591293335e-02
3.493415445836537403e-01,2.734678210123198672e-01,3.460059544177739310e-01,2.558602204762331321e-03,7.995103563434892424e-03,-5.455326350806274580e-03,7.625975459814071655e-02
3.172768361046474639e-01,3.294950040570157057e-01,3.234936794594420184e-01,6.024038411262352087e-03,9.699427319702922171e-03,-7.453700876595045419e-03,2.587954886257648468e-02
3.459181029601227086e-01,2.352295272407649018e-01,3.339553745604023627e-01,-5.185247743976057443e-03,-1.932252858333428826e-03,-8.076581193917034551e-03,1.065761968493461609e-01
3.931084822878498919e-01,3.923790353279184573e-01,3.409807214735932068e-01,3.639013217445837695e-02,6.471112318108522554e-02,-2.573370685835393162e-02,1.456083655357360840e-01
3.251523135577951695e-01,3.075446893940467219e-01,3.022864603741442502e-01,-1.257991578440016342e-03,-1.713847991147069479e-03,-2.012394826377436781e-03,2.135347761213779449e-02
3.266787143680910943e-01,3.356288446447945328e-01,2.968577917079286976e-01,1.467334107105985538e-02,1.514029080117021767e-02,-1.429474552032537760e-02,5.641736090183258057e-02
3.197099348721840761e-01,3.427990588226021429e-01,3.309216763197336819e-01,8.537653292371365915e-03,1.364507555624645992e-02,-1.025702884617597094e-02,3.863677382469177246e-02
3.332917436548858969e-01,2.339146906381967539e-01,3.454220669120606768e-01,-8.908677374709237859e-03,-1.940504417126751990e-03,-4.855648040758658336e-03,1.074641421437263489e-01
2.862567463256375233e-01,3.063348541031191141e-01,3.474164973150301039e-01,-4.686509202881650876e-03,2.413721254117982753e-04,-1.767373030038890897e-03,5.469103530049324036e-02
3.098134813933120513e-01,2.744104730917376611e-01,3.302041423579727963e-01,1.098785665980279644e-02,-9.484971766803688281e-03,7.611546893283498670e-03,5.654151365160942078e-02
3.083673864087472793e-01,2.409582617401209992e-01,3.308627541581665166e-01,1.730970981063829212e-02,1.297901595726077585e-02,-1.042242115051774873e-02,9.108538925647735596e-02
3.094908317596172243e-01,2.864235397255571747e-01,3.353602443034929270e-01,9.070418471485937328e-03,6.238163236178374295e-03,-2.987070745545516905e-03,4.678026214241981506e-02
3.003091070467429624e-01,2.955110805330251056e-01,3.403847119035474655e-01,-8.829677019644710523e-03,-4.574338315230708565e-03,-3.775064888683311685e-03,4.648414254188537598e-02
3.083282822817558499e-01,2.838933762508922265e-01,3.358125033417304617e-01,8.250021653088848370e-03,5.655014721303158569e-03,-3.650141388804341996e-03,4.862219840288162231e-02
3.314289025400468658e-01,3.142878962162895529e-01,2.656288982796007891e-01,-9.522226212924055078e-03,-6.238396080117131898e-03,-6.090665053860336645e-03,6.321104615926742554e-02
2.774354833086085104e-01,3.005081744393804932e-01,3.340372642078642818e-01,-2.182821991877562789e-02,-1.520368910547917861e-02,-1.813924628206398451e-02,7.443199306726455688e-02
3.122587302630983053e-01,3.060712880219248477e-01,3.490020246563059203e-01,5.404910193651229350e-03,1.152052434046967402e-03,2.535196046228923444e-04,4.132208600640296936e-02
3.149145291746421882e-01,3.341713953633542733e-01,3.161211454308907598e-01,-7.451206008318119779e-04,4.224106735786741906e-04,2.091617531885973675e-03,1.908854767680168152e-02
2.843879286882032287e-01,2.070218140906386339e-01,3.192775913627582951e-01,-6.393744678749491150e-02,-2.798702275956340205e-02,-3.849918297244721288e-02,1.701835840940475464e-01
3.146518123463953875e-01,2.991868953380216745e-01,3.249778706230620484e-01,5.437255944984262929e-03,6.693991258271767518e-03,-3.366971395672384900e-03,2.761543169617652893e-02
3.522532916551790461e-01,3.527452861635853587e-01,3.640744540510394978e-01,2.632756127916732053e-02,1.825044382750173888e-02,-1.824876564630802805e-02,6.489896774291992188e-02
3.015685948409732031e-01,2.871785377476258616e-01,3.312870651736541938e-01,-2.629770409493228413e-03,-5.167174379269603643e-03,-1.626542056079913852e-03,4.033230617642402649e-02
3.080548183775370652e-01,3.121488308664465694e-01,3.371261454229793064e-01,9.378265145569449068e-03,6.465536285649923012e-03,-6.240877289985038295e-03,3.534112870693206787e-02
2.317387455888381131e-01,3.575828133468460512e-01,3.593985534450595543e-01,3.425196724490374520e-03,1.671046347523925794e-04,9.697701530004484722e-04,1.269118934869766235e-01
3.169359748386259557e-01,3.253230653027753827e-01,3.027141279105652338e-01,-9.376492203019896193e-03,6.289470071219188663e-03,4.230408631969219749e-03,2.877501212060451508e-02
3.260728876424337508e-01,3.230582773811193631e-01,3.101354735977043808e-01,-5.201490590154023326e-03,2.044492654268717079e-03,2.496978782017514505e-03,1.809571869671344757e-02
3.069570826889932436e-01,3.106710601893981627e-01,2.880610123326519667e-01,1.471376882132143134e-02,1.575656071819560994e-02,-1.321982682372086632e-02,4.857590794563293457e-02
2.941817950801832171e-01,3.121766276763888737e-01,3.273631526548904103e-01,-1.225580475661911493e-02,-8.783336233103872237e-03,-9.678486026543711707e-03,4.231782257556915283e-02
2.485136435100660512e-01,3.531496184943092032e-01,3.469496342525436594e-01,-2.795659154749625258e-03,3.788334111373794274e-03,7.510116232003771937e-03,1.028304100036621094e-01
3.301933024874222911e-01,3.142705761783051721e-01,3.081873326155909476e-01,-4.505808092665418776e-03,2.124472471581754628e-03,2.397330244089316068e-03,2.188811451196670532e-02
3.305240150608513283e-01,3.096350772568414178e-01,3.093470273853452523e-01,-7.376221683106059211e-03,1.031655710120275155e-02,7.962355607465665397e-03,3.339408710598945618e-02
3.203457478853329876e-01,2.888360922540000320e-01,2.900454149929476699e-01,-8.690167305409682297e-03,-8.280989971532554811e-03,-1.104293851829755979e-02,4.188479855656623840e-02
3.249353910472424500e-01,3.135424894126537243e-01,2.895437360304815022e-01,-8.568759334316595686e-03,4.213380712288026381e-03,1.020373986873460842e-02,3.956047818064689636e-02
3.395422767585890567e-01,3.213041620925063957e-01,3.192072595774707033e-01,-3.507891783575816172e-03,4.467929648927984956e-03,4.403734885889914671e-03,2.302718162536621094e-02
3.198882268310518917e-01,3.116681150694169955e-01,3.237481052480739030e-01,-9.067279264723802912e-03,9.535080616968366618e-03,9.748881265237825666e-03,3.031038679182529449e-02
2.130350429667382528e-01,3.697236600545281138e-01,3.735939103619295709e-01,-7.075123362393659354e-03,2.851342939683650535e-03,5.933262060370215682e-03,1.595396548509597778e-01
2.770304508723839265e-01,3.295015459715046058e-01,3.302103296600494287e-01,1.188281611622071972e-02,8.024655416263744290e-03,-1.204427363930769650e-02,6.199106201529502869e-02
3.409035203906538025e-01,3.040200827946733519e-01,2.722324268737226216e-01,-8.400675603891294418e-03,9.279433335665304705e-03,3.096089066911482043e-02,8.300029486417770386e-02
3.444760881047114198e-01,3.026458968128989402e-01,2.852657138746913512e-01,1.856188417874003564e-03,9.758267781623433234e-04,-6.695626326123866288e-03,5.409749969840049744e-02
3.469428468093544993e-01,2.525848241248664361e-01,3.157499607512375128e-01,3.550767185485514347e-03,4.008610089180703745e-03,-3.748997750003853907e-02,1.059983968734741211e-01
3.234075941094143314e-01,3.185030061116715938e-01,3.207908915635402369e-01,9.016929340142032729e-04,3.095475952703720260e-04,-8.981791537496439104e-04,4.818200133740901947e-03
3.231151461493912413e-01,3.149857021495356957e-01,3.412483114156413810e-01,8.847252775508710962e-03,7.247263600496491390e-03,-7.812882566229039510e-03,3.343389928340911865e-02
3.331745879426384893e-01,2.963328460312728563e-01,3.435147518083021545e-01,5.253062889956784665e-03,5.933455403651031676e-03,-2.691948457682282261e-03,4.533568024635314941e-02
3.182891370330320213e-01,3.184210615723538917e-01,3.190630500861613150e-01,9.394881552794286800e-04,1.150117614404661025e-03,-3.230916233456657344e-04,2.728302963078022003e-03
3.425803925080658230e-01,2.798759257238176423e-01,3.267341908240061765e-01,4.835062272875569685e-04,7.168053541458347527e-03,-5.716198947377520642e-03,5.867021158337593079e-02
2.173850538719542813e-01,1.782334040445403833e-01,3.240280316584068787e-01,1.242819021179319694e-01,1.654220241609892506e-02,-1.519034404647209022e-03,2.534692287445068359e-01
3.313479290328866789e-01,2.332018672980268881e-01,3.322696143748781195e-01,3.092370350799966867e-03,-1.060882342985532308e-03,5.994476727574736021e-03,9.931679069995880127e-02
3.150225656827618237e-01,3.262496756440819712e-01,3.146073288277045910e-01,3.210080145462724903e-03,3.040906681090664674e-03,-3.498654703447883190e-03,1.504191663116216660e-02
3.526354989266932138e-01,3.392170860390733567e-01,2.740333030130138736e-01,-7.776907807425300669e-03,6.677699838411323488e-03,1.123692757742416129e-02,7.744458317756652832e-02
3.188842334154926017e-01,3.240912378874020172e-01,3.169661875693976505e-01,3.173295838340002041e-03,9.276938931683925953e-04,-1.587574778337856422e-03,9.007303975522518158e-03
3.232191046989500993e-01,3.093253828666610583e-01,3.133149601614220181e-01,2.113152208560273304e-03,4.615493361995024260e-03,-2.659095906870961347e-03,1.587573997676372528e-02
3.327444018967188333e-01,2.964896418015766089e-01,2.960545706001646571e-01,-2.727867428631167157e-03,-1.331083688383722687e-03,-1.247561435812301507e-03,3.691447898745536804e-02
3.249007109686074535e-01,3.096395330989156758e-01,3.130977836618294430e-01,5.236919131626663164e-03,4.970834625788667777e-03,-4.976621857339260865e-03,2.056185528635978699e-02
3.342311327628834094e-01,3.249073659163385086e-01,2.483774584680035757e-01,-8.845399784831640966e-03,-2.622457096308321647e-02,-3.491561387359662372e-02,1.123054474592208862e-01
2.614593366030266153e-01,3.403497756367473426e-01,3.381557251540137088e-01,-4.238607096596574628e-03,-5.625456377441061945e-03,-1.122991309559602698e-02,8.113317936658859253e-02
3.802264581449780745e-01,1.592504896487523247e-01,4.947926123654473041e-01,-7.162076589939592175e-02,-4.522369494148132177e-04,4.407529237279651790e-02,3.293770849704742432e-01
2.926679734794847554e-01,3.076532569179441512e-01,3.055617716145750395e-01,1.343378894197704183e-02,1.833453483381351085e-02,-1.575082452076176712e-02,4.991715773940086365e-02
3.325252182901817233e-01,2.953014285351255874e-01,3.081509271289585850e-01,-2.113280614607449502e-03,-6.325137271835520880e-03,-2.360902442236169352e-03,3.496504947543144226e-02
2.885056210636596230e-01,3.284048465163387776e-01,3.673171073750145510e-01,4.837192087245956867e-02,1.968475949707907541e-02,-1.576547331988423922e-02,1.165604069828987122e-01
2.979700487787730334e-01,3.055695679207523496e-01,3.054008521374814156e-01,-1.371415841663313224e-03,-2.315477724865350716e-03,-7.299453362722118852e-03,1.542957220226526260e-02
3.218077787841247539e-01,3.042120876269672758e-01,3.364043364368797251e-01,1.851517937251456747e-02,1.309879912779788290e-02,-2.634698099751683897e-02,6.637142598628997803e-02
2.991910184023462427e-01,3.009192560287519691e-01,3.294520991036457569e-01,-7.973297707870488204e-04,-1.029945970021340588e-03,-3.002296680069091537e-03,2.997586317360401154e-02
3.061228170920644587e-01,3.105335444036134152e-01,3.086197477400734468e-01,-6.074833950397686083e-04,-1.357907474463895467e-03,-2.404312088935050759e-03,6.217466667294502258e-03
3.580943332576342342e-01,3.459354067661774557e-01,3.168891195828561491e-01,1.597373289407649777e-01,9.998823468825121519e-02,-7.943112473259669737e-02,3.561089634895324707e-01
3.083799231801455654e-01,3.126702141837570115e-01,3.030040599094900311e-01,-2.939613262661220239e-03,-1.473973516017864239e-03,-1.794428359979515419e-03,1.060529146343469620e-02
3.089033059188293628e-01,2.911310033046298762e-01,3.357358884476311922e-01,-1.765816176592770702e-03,-7.191081864129081000e-03,-1.778359239234852170e-03,4.106940329074859619e-02
3.031225782191500073e-01,3.031573856393690036e-01,3.181807667257413041e-01,-3.232285452891013101e-04,-3.141951410715556649e-03,-5.870183653390125380e-04,1.603711023926734924e-02
3.138190345336854814e-01,3.405550139030658063e-01,3.623342587186241248e-01,3.492477978135620498e-02,2.695878630122724995e-02,-1.110975044548232274e-02,8.933793008327484131e-02
2.929133984975182403e-01,2.985945844574599550e-01,3.325033741457982250e-01,-3.674638799333756339e-03,-2.135648694133060466e-03,-5.129597502986324963e-03,3.883109986782073975e-02
3.123368443222448443e-01,3.146787556870827007e-01,3.458514947889735902e-01,1.348258691532214920e-03,3.048763587894230708e-04,-1.563841307240955284e-04,3.249667212367057800e-02
3.071376319013684464e-01,3.391808324900964511e-01,3.609975380659352640e-01,6.147486424277220224e-02,4.723144392442327893e-02,-3.006799010818589357e-02,1.514726728200912476e-01
2.270653616589851653e-01,2.861350788567736947e-01,2.767475788612153709e-01,9.992190036952865173e-02,1.033194746901371780e-01,-5.660998772179792748e-02,2.731571197509765625e-01
2.380253237500794539e-01,1.263966411687663105e-01,2.459968137367137264e-01,1.345654274225779323e-01,8.334138077392788668e-02,-9.840084890601091816e-02,3.429627716541290283e-01
3.459458124857692773e-01,3.119157858454683629e-01,3.115847982308100894e-01,3.233740930665136241e-03,-1.720068111375224309e-03,7.660090887906310583e-03,3.722491115331649780e-02
3.301169712457330263e-01,3.008586321902408933e-01,3.296420755188686491e-01,2.440656057936344339e-03,7.638461210491043034e-03,-2.440865715197420779e-03,3.245247900485992432e-02
3.041533016631356445e-01,3.322904742928138866e-01,3.354117092497471697e-01,2.977959082542972098e-03,3.038525341210641592e-03,-7.364657339646288672e-03,3.326082602143287659e-02
3.472984678677817350e-01,3.115026716302168874e-01,3.068237758259895198e-01,1.500601040946957692e-03,-1.690381583327548072e-03,6.304778460765657865e-03,4.006612300872802734e-02
3.188022276094636398e-01,3.213778740235478382e-01,3.182369478177917155e-01,1.918418445379681562e-03,8.183961788000668636e-04,-1.010105253324202618e-03,4.951837938278913498e-03
3.318161315543317613e-01,3.020057274454819307e-01,3.313243302450152306e-01,2.375754032314408848e-03,7.064092204161061435e-03,-2.377626205835384199e-03,3.252441063523292542e-02
3.461459598011332184e-01,3.105898890496565645e-01,3.135167240968514402e-01,5.250177279946437528e-04,-8.977916202033028826e-04,1.256086585019898418e-03,3.430323675274848938e-02
3.482559867999999725e-01,3.008840985389609757e-01,2.758664629342614805e-01,1.128554519290866746e-02,-4.807084136305529894e-03,3.240815744152394928e-02,8.750651776790618896e-02
3.394787561655884245e-01,3.112693130116725992e-01,3.092073077495854916e-01,1.076461374798609377e-03,-8.698428221663127976e-04,1.471483156160337692e-03,2.950312756001949310e-02
3.211302379484162750e-01,3.238578246858343501e-01,3.223721051956294770e-01,1.758914110450884860e-03,1.776948454899012972e-03,-2.878715574481141484e-03,7.014958653599023819e-03
3.315659958548728414e-01,3.419794536226151149e-01,3.229207974041931606e-01,7.561331211494179937e-03,8.494842552212004266e-03,-4.904878989852375949e-03,2.708113193511962891e-02
3.350999463194496708e-01,3.409048212308272152e-01,2.971202041469012123e-01,1.204679650599321111e-02,-1.740280856995485292e-02,1.759310753093036583e-02,6.300100684165954590e-02
3.418623874068999480e-01,3.155543444437287071e-01,3.114533367764749094e-01,2.194174224316902851e-03,-8.476121902906765286e-04,1.704174085828613237e-03,2.901951223611831665e-02
3.258373884657058683e-01,2.968486920436804177e-01,3.030217911926741392e-01,-1.436997909813992344e-03,-4.230653287001785202e-03,-8.624668872963194184e-04,2.759752422571182251e-02
3.439743706968700909e-01,2.791727520803758411e-01,3.233249377196077967e-01,2.859590037808627664e-05,7.530219190240330755e-03,-6.336091831035987713e-03,5.981709808111190796e-02
4.731461363079611515e-01,6.625587561116935698e-02,4.022814818239187629e-01,5.088867271410870557e-02,3.935054397887183600e-03,-1.891578289674936131e-02,3.881187736988067627e-01
3.307179722369950059e-01,3.206112570991525579e-01,3.067965572552712739e-01,6.791493382647375600e-03,1.268158761598932056e-03,-8.906176674798258744e-04,2.404558844864368439e-02
3.664431188703355380e-01,2.149310902746819352e-01,3.612009102770076252e-01,-8.759601352395042506e-03,-3.118614841460092815e-04,-2.308002624228383363e-03,1.497851163148880005e-01
3.344916260953000875e-01,3.231010241897270818e-01,1.510087157492645271e-01,2.564979266884682106e-03,-1.161463280896115127e-03,-3.011630486599270115e-02,1.856084614992141724e-01
3.767075577879316350e-01,3.797099546572355599e-01,2.611603491455470327e-01,2.445551831788121688e-03,6.170107732100737867e-03,-9.828728366455818932e-03,1.188656985759735107e-01
3.689943623966295827e-01,3.582755787592820096e-01,2.267429130336556520e-01,2.208099197208518872e-03,-3.387853170217603599e-03,-5.488436126335018150e-03,1.377135962247848511e-01
3.347798400350179837e-01,3.295451006968355134e-01,1.918268995099618457e-01,1.256879170727315947e-02,2.626812786566881316e-02,-2.357326811301541786e-02,1.546793133020401001e-01
3.580693202422298715e-01,3.568256442969903741e-01,2.459721835289480629e-01,9.533442218795300932e-03,1.248728361332177017e-02,-1.593065469206659396e-02,1.180242151021957397e-01
3.435101302113038879e-01,3.037787326753795814e-01,2.971660564282189165e-01,2.037667825236747811e-03,3.048642994543206749e-03,-5.459464523250212933e-03,4.488650709390640259e-02
3.356996760116520706e-01,2.782797906054533810e-01,2.852820180836337927e-01,-4.933919777024797955e-03,-5.074737005328056744e-03,-1.407199948092137387e-02,6.073187291622161865e-02
3.439361319794841942e-01,3.348156852451126264e-01,2.373360682462636317e-01,8.152805653956984866e-03,1.794900012213372295e-02,-6.824117327220073290e-03,1.085362881422042847e-01
3.661116142165676823e-01,3.423070129449339860e-01,2.743166609194422900e-01,6.701832345533517178e-03,7.188560992427152699e-03,-1.544719459599535986e-02,8.839371055364608765e-02
3.578103256007064692e-01,3.397641521611081683e-01,1.820266755971121087e-01,8.277646079177965882e-03,-9.127177893194324265e-03,-2.143901226900339976e-02,1.728806048631668091e-01
3.459895603844981848e-01,3.024326751389228018e-01,2.695697773941885256e-01,-6.303045006123888898e-03,-2.582547941102127792e-03,-9.768351294162116311e-03,6.952721625566482544e-02
3.445098855870463161e-01,2.880993543079496400e-01,3.068347285202747132e-01,-4.987844193486065669e-04,2.535031392562579321e-03,-3.797967489374746205e-03,5.039433389902114868e-02
3.403114657600785908e-01,3.016297489734701132e-01,2.723404079365170372e-01,-5.777546276084400724e-03,-2.933586312321880343e-03,-9.037822138340839695e-03,6.211366504430770874e-02
3.468115059987701976e-01,2.676380744042202720e-01,3.203801972166700485e-01,-2.281972651932481257e-03,3.063878371901023780e-03,-7.448915901770761759e-03,7.130660861730575562e-02
3.398591291018369653e-01,2.991076305150344727e-01,2.968692260846120257e-01,-2.261576852566278811e-03,-1.149060473908637301e-03,-9.329452623353159252e-04,4.217617586255073547e-02
3.409847323236681049e-01,2.903237443535974238e-01,2.868071798080718549e-01,-2.789182638890931555e-04,-8.664361950294990032e-04,-7.831205998811688676e-03,5.425424873828887939e-02
3.196324598163340358e-01,2.881734024053158039e-01,3.225582968786117610e-01,-3.046820326271386208e-03,-8.029286042864392653e-03,-3.609280884634017816e-03,3.675071895122528076e-02
3.457124612265876085e-01,3.562598261776989683e-01,2.996574486342911126e-01,-8.804112418232097614e-03,-1.955558151393682609e-02,-1.264848128855443690e-02,6.765960156917572021e-02
3.366965658705396991e-01,2.909543339920463434e-01,3.080574247956387457e-01,-2.304663664184691818e-03,-7.670334286654998356e-03,-9.511515107584547508e-04,4.239910840988159180e-02
3.317363125219062736e-01,2.675747528924370955e-01,3.162260803325146474e-01,-3.720210951328285515e-03,-8.367700454425865478e-03,-5.059415817503288421e-03,6.074932590126991272e-02
2.985888651199327670e-01,2.915445787840735825e-01,3.385671516962608929e-01,-4.953790100285060220e-03,-4.549413945891107175e-03,-2.033680975843726521e-03,4.558094963431358337e-02
3.022480513790602452e-01,3.024469171567998882e-01,3.065307866490468713e-01,-1.847375571366061944e-03,-1.776161155286554508e-03,-2.493888657018886873e-03,7.476012222468852997e-03
3.045988989824273130e-01,3.057364648214800917e-01,3.038020640636076020e-01,-3.995680257864451732e-03,-4.084267223178497316e-03,-3.565109485675079914e-03,1.178582105785608292e-02
3.359939050553955031e-01,2.996240209426020984e-01,3.031634611078471431e-01,-1.372666537517893076e-03,-3.031210116630905782e-03,-6.884798317937695835e-04,3.523075953125953674e-02
3.385468159121571285e-01,3.026040808759286049e-01,2.688142714495888042e-01,-5.247794345486889167e-03,3.609822286239687279e-03,-1.535965021661249603e-02,6.691484898328781128e-02
3.348208875240584192e-01,2.917297590609616575e-01,2.886748771297408256e-01,-3.520264996017295929e-03,-1.787913752139218227e-03,-4.660726584754649668e-03,4.593201354146003723e-02
3.038045997714273194e-01,3.111772657555147981e-01,3.048083678080474868e-01,-1.710182451110515674e-03,-1.331095962556543173e-03,-3.370893142910143594e-03,9.805186651647090912e-03
3.103441542670543063e-01,2.934493919514053473e-01,3.212742195449867499e-01,-1.718116957522009382e-03,-6.641623699009302842e-03,-2.028100700371397724e-03,2.725965902209281921e-02
3.065365667074628764e-01,3.040164911055148744e-01,3.115892596998643960e-01,-1.834054663064689419e-03,-3.783442243250793348e-03,-1.660236337664841230e-03,1.029161736369132996e-02
3.292640672582860528e-01,2.762286300734982381e-01,2.421500672514863006e-01,-6.360668756531024336e-03,-7.404463667377372132e-03,-3.796471210070891111e-02,1.019376665353775024e-01
3.402529725383485748e-01,2.945130257234164772e-01,2.962121314729972976e-01,-7.706306848547096310e-04,-7.038349731301915243e-04,-1.189994974906716761e-03,4.499809816479682922e-02
2.839503792101785717e-01,3.157200571915045884e-01,3.063921021592354577e-01,-1.178286299766900282e-02,-1.671878585769047756e-02,-1.567881022715706535e-02,5.284423753619194031e-02
3.456140465892609814e-01,3.008491840620637348e-01,2.969182392694512673e-01,-9.745305748208079591e-04,2.679761950913342114e-04,-2.062400977771480792e-03,4.702274501323699951e-02
2.841203051748177888e-01,2.806225218778151120e-01,3.355371627946436841e-01,-1.692803014378144871e-02,2.281578814739586812e-03,3.600657077371836531e-03,6.123690307140350342e-02
2.988090952849946080e-01,3.118858987940259508e-01,2.931281762680068015e-01,-3.331912305358901601e-03,-2.182247336073963803e-03,-6.849669309629755065e-03,2.158493362367153168e-02
3.663369478789326172e-01,2.750605408686032094e-01,3.580389809264128420e-01,-4.558747213251436448e-02,1.642040005472354333e-02,1.309361048353691222e-02,1.232911199331283569e-01
3.253812731098190691e-01,2.529620714381988211e-01,3.980397550798086548e-01,-4.822774783782823177e-02,2.448742559272584426e-02,2.982538876284178755e-02,1.650181114673614502e-01
2.485823610077256274e-01,2.493710116295012325e-01,3.379786092264854269e-01,1.082633924996862229e-01,5.686406252440591447e-02,-2.526024175305260910e-02,2.338792383670806885e-01
3.189071594767440287e-01,3.193885069887715811e-01,3.263365111240014160e-01,5.697868892912179989e-04,6.482549485542684611e-04,-9.626504013332855140e-04,7.540930062532424927e-03
3.243404624441557083e-01,3.163915655167768293e-01,3.260540133724288969e-01,7.943399164540638135e-04,2.667791735058553174e-03,-7.754243989419310661e-04,1.023670751601457596e-02
3.258485703918712617e-01,2.517366695512082142e-01,3.330788376327921130e-01,1.141399201132108597e-02,1.104857846409805500e-02,-1.176140555411862507e-02,8.516303449869155884e-02
2.749658120485556356e-01,3.461188360736212055e-01,3.221392419325986856e-01,-3.345712767176688748e-03,-7.447561876697515910e-03,3.714187115404041662e-04,6.428021937608718872e-02
2.928786110250860553e-01,3.823038548081106880e-01,3.269726570945136745e-01,6.666372712163332048e-03,-5.840019266301574308e-02,-4.576116935497742504e-03,1.286013275384902954e-01
3.163875478996906465e-01,3.193999990098356778e-01,3.187564545078727107e-01,1.677550075369980530e-04,9.625634937150313614e-04,-2.234565891224745955e-04,3.250257577747106552e-03
2.883457466639579581e-01,3.430752527336520252e-01,3.005238379629956436e-01,-1.957876044002558103e-04,-6.753667650012398598e-03,6.936376699959783884e-04,5.114213749766349792e-02
3.123118580753018181e-01,3.490143822580883404e-01,3.102717719267870100e-01,-1.466056722254300768e-02,-2.704771903303847952e-02,-1.483190836480187055e-02,7.018265128135681152e-02
3.198815462336950799e-01,3.150469500630154185e-01,3.139298646236678425e-01,8.959820280814353175e-04,2.059253943963969095e-03,-5.462033793714282486e-04,6.785779260098934174e-03
3.371592941183601533e-01,2.868127369092040024e-01,3.272956230248353360e-01,8.937790081373929441e-03,1.095333145398063798e-02,-4.407996978233547081e-03,5.285201966762542725e-02
2.465107186086626656e-01,3.904984724764628545e-01,3.266916598071370470e-01,-7.616459420004343707e-03,-5.813538483924308997e-02,-1.757683037628560846e-02,1.638792753219604492e-01
3.196241525906236003e-01,3.129779264614782064e-01,3.205623136143010976e-01,1.125625811564983942e-03,4.388073361504653616e-03,-1.300714463372206397e-03,1.085955463349819183e-02
3.350155051281593632e-01,3.122625923693342354e-01,3.254183831687135209e-01,2.085611355440169287e-03,4.038364042740257530e-03,-1.780957877744756548e-03,2.151574380695819855e-02
3.323626401302599565e-01,2.841784519704708689e-01,3.085017070968367192e-01,-2.089678623681028458e-03,6.253215740838614749e-03,9.731644123271238067e-03,4.643127694725990295e-02
3.335215126992822632e-01,2.723382795034139936e-01,3.013487710163937905e-01,-2.058601690733419861e-03,3.370896683159339390e-03,1.269515160458720669e-02,5.779570713639259338e-02
3.271627816233220187e-01,3.066833014486698983e-01,3.070705435213040291e-01,1.455710039604441505e-03,2.730185007857521915e-03,-1.501013761878760861e-03,2.114489674568176270e-02
3.337330139644850702e-01,2.938949526963545722e-01,2.992355247074289237e-01,1.820457918018929038e-03,2.552104531919074243e-03,-2.617711472859119478e-03,3.811658546328544617e-02
3.417225257101148550e-01,3.117677050578510078e-01,3.063227494255149064e-01,2.998080951333450140e-03,1.240763350304967955e-03,-1.850766169591370244e-03,3.364374488592147827e-02
2.528080352037829770e-01,3.594305110019562211e-01,3.234048399372084770e-01,-2.329387691949489497e-03,-1.582669356729623708e-02,-5.257050186175921125e-03,9.836511313915252686e-02
3.426606962775786691e-01,2.875349120053594110e-01,3.070018207123316190e-01,2.435730019754921106e-04,-2.182539614805095556e-03,-4.318255599701289506e-03,4.914360865950584412e-02
3.443504070331174227e-01,3.026792413064093301e-01,2.982013789909857548e-01,2.791318766009927895e-03,4.209260015335711258e-03,-2.487354175954598762e-03,4.514669254422187805e-02
1.447942726830349636e-01,2.799022372589896612e-01,2.571316386972170021e-01,-8.596482777255709529e-02,1.054465461295981121e-01,6.295456296370206817e-02,2.882928848266601562e-01
3.814878650472591226e-01,4.230271934230285247e-01,2.683399233154219465e-01,2.006976463540478817e-02,5.391901435111819824e-02,-2.601681374766399123e-03,1.708172559738159180e-01
4.322102842114627363e-01,3.983478563228873282e-01,2.126771182551534800e-01,9.292212478165473577e-03,1.406612816357607487e-01,-7.826209979123309110e-03,3.189155459403991699e-01
3.590021718943186002e-01,2.881126083186487108e-01,3.171689026115432908e-01,2.032795866090220376e-03,4.505259453183235036e-03,-1.579196774662391944e-02,6.805334985256195068e-02
3.560682537043043938e-01,3.632672351620346851e-01,2.133356758408709308e-01,7.099281910881315508e-03,2.374943015626231752e-02,-5.913111102204835282e-03,1.529710590839385986e-01
3.293613652805618131e-01,3.527587667778622205e-01,2.315517951474261316e-01,-1.551270489668622483e-03,3.404367141587545664e-02,6.813549152016310471e-03,1.265940219163894653e-01
3.443749092942586243e-01,2.953294492441128072e-01,2.978482497233362891e-01,-3.920140312770975478e-04,-6.833285139589610844e-04,-1.173471717515920526e-03,4.789841920137405396e-02
3.438281016267508705e-01,2.972650703778107473e-01,3.008493191359210006e-01,-6.763255954294101775e-04,-2.108890368599365857e-03,-1.380638780791543403e-03,4.510545730590820312e-02
3.520314418773418663e-01,2.922820558940537050e-01,3.116821844592275181e-01,5.293860953532714651e-04,4.222473614933328783e-04,-3.998540789957493596e-03,5.325926095247268677e-02
3.400661199795231293e-01,2.980883335394153288e-01,3.340567397774032998e-01,-4.569281328464095022e-03,1.023366276984109813e-02,4.238859230683988608e-03,4.446019604802131653e-02
3.372491268948148990e-01,2.859163950228540974e-01,2.916334496271099086e-01,-2.056781773930683793e-04,-1.238698860232715672e-03,-6.259064637716148065e-03,4.996518418192863464e-02
3.161426546924654968e-01,3.604254807571850572e-01,2.026826619196765711e-01,2.837189500480159429e-03,1.056596623092601744e-01,7.490155208798478584e-03,2.313932031393051147e-01
3.968721840297468328e-01,4.019249786496473242e-01,2.480945267485283601e-01,-8.311946259186671002e-03,4.826980427611103630e-02,1.487862945236355545e-02,1.754234135150909424e-01
3.302731101007880254e-01,2.858277826608767724e-01,2.991693522440300179e-01,-1.915104444994875522e-03,-5.038717003250882051e-03,-1.998271772228017457e-03,4.073772579431533813e-02
2.908688923973918317e-01,3.226078676689093649e-01,3.042998858576871912e-01,-8.202791727953656631e-03,-1.455725474773290375e-02,-1.068351522725832087e-02,4.406221956014633179e-02
3.530710087354448357e-01,2.089739398799284054e-01,3.524023713429143556e-01,-1.903285864158562853e-03,-1.010453302793051832e-03,-1.974202515757958899e-03,1.438530087471008301e-01
3.702724422207592236e-01,1.746469013917392177e-01,3.718827254249713055e-01,-5.935150851716022510e-03,1.280674698385301721e-02,-2.623461513123070271e-02,2.030995786190032959e-01
3.245984314135456072e-01,3.034294450445446101e-01,3.063558176661303478e-01,-1.539500552636892698e-03,-3.427220012241438685e-03,-6.389622845885426991e-04,2.093594521284103394e-02
3.198073202033471230e-01,3.050458931354728120e-01,2.937599092036079496e-01,-8.081176807477373839e-03,-3.287864231137290014e-03,-4.145489778696203470e-03,2.813844382762908936e-02
3.919482684881098744e-01,2.729375347529233720e-01,3.985574600957670355e-01,5.178237879788034556e-03,2.812225118669112092e-03,1.068392042977211673e-02,1.242594346404075623e-01
3.568210755786916377e-01,2.165546929176040414e-01,3.971286689404057713e-01,-3.099831150355423365e-02,2.066893950017392040e-02,2.408971476244096271e-02,1.812688708305358887e-01
3.242942703157817297e-01,2.986554813734197400e-01,2.962547300508793224e-01,-2.580820315541964248e-03,-3.603325141158196239e-04,-9.484733982729500173e-04,2.734472043812274933e-02
3.173033349000362602e-01,3.333196406436437775e-01,2.580567322303981004e-01,-1.134931497570662064e-02,-9.037704854340088828e-03,-6.390591202302132665e-03,7.395656406879425049e-02
3.189630042711461000e-01,2.933502506290755485e-01,3.086133796315653766e-01,-1.248668117224876594e-03,-7.308866224909761622e-03,-1.456964781443221158e-03,2.587179653346538544e-02
3.195620939172211794e-01,2.915707967797092626e-01,3.026773146572777629e-01,-1.765294221385401915e-03,-6.385798062354407917e-03,-2.388637044258934503e-03,2.729070186614990234e-02
3.077906403695600535e-01,3.072944589840495011e-01,3.130728924767319232e-01,3.664427765478686779e-04,-2.621722602128416946e-03,-1.200217656996085090e-03,7.490930147469043732e-03
3.109293044673926421e-01,2.986580378332476804e-01,3.077392784818704929e-01,-1.585619657656877008e-03,-4.856220851672440539e-03,-1.197851836578106045e-03,1.429021824151277542e-02
3.158300724896502265e-01,2.867018230645526633e-01,3.049008562667331335e-01,-3.516251325360330009e-03,-8.898700186521247071e-03,-5.946069712822126853e-03,3.209787607192993164e-02
3.071860474691984755e-01,3.059429518521722402e-01,3.040230742748464832e-01,-3.380231268070042327e-03,-2.645340605146347460e-03,-3.633467597117936293e-03,1.012400351464748383e-02
3.155065039148464701e-01,3.097256399634407131e-01,3.062173615705888197e-01,-3.907931394699311117e-04,-1.737903458798207819e-03,-1.519114961752843608e-03,9.080170653760433197e-03
2.996964114659262379e-01,3.079368672200986090e-01,3.166190149735664816e-01,-6.678240919392964756e-04,-4.163107959711546437e-03,-7.010592863758794042e-03,2.038644813001155853e-02
3.145833298638991971e-01,3.123087301599323240e-01,3.474732810617605083e-01,6.620583099653839631e-04,1.006459817304340872e-03,-3.659101948536559409e-04,3.415391221642494202e-02
3.258802390682792316e-01,2.993414474542306913e-01,2.966813538838173336e-01,-5.725322188649229621e-03,-5.432148591125183015e-03,-8.156206513732885272e-03,3.418205678462982178e-02
3.254904672561086953e-01,2.908158315584236098e-01,3.053808916916691540e-01,-1.220223603736698319e-03,-7.777340903691850292e-03,-2.889779718987280609e-03,3.347257897257804871e-02
2.980258011872783386e-01,3.379402309199489585e-01,2.978870838395211718e-01,-4.091120761524656008e-03,1.605869019405936626e-02,4.408876427953878005e-03,4.980852082371711731e-02
2.597414353757006023e-01,3.496920816320208125e-01,3.328582678595090050e-01,-9.574274200703012175e-03,7.798661207023824433e-03,7.828373375744218307e-03,8.661172538995742798e-02
3.360901025147487453e-01,2.980183582896506200e-01,3.501654919380797204e-01,4.649494963106182155e-03,8.966879178133404377e-03,-3.050460806098291480e-03,5.017402768135070801e-02
3.289303591749317413e-01,3.097097124104362664e-01,3.080597009586514834e-01,4.909098510659922962e-04,1.521820177124615439e-03,2.772526178293145314e-04,2.029215358197689056e-02
3.140028446534743334e-01,3.431847551763033688e-01,3.160799816581463806e-01,7.427536997494345794e-04,1.308112524384589300e-03,-5.325790223392168864e-04,2.833589538931846619e-02
2.919057984853871135e-01,4.120566330812571731e-01,4.271491037455138473e-01,-3.995786213388750896e-02,3.234872141763184966e-02,2.062628703391021154e-02,1.602589190006256104e-01
1.578325016885075427e-01,3.036973145067207169e-01,3.202100900113880044e-01,-4.207376158070312566e-02,7.022479127170830164e-03,8.612257190263043066e-03,1.721595525741577148e-01
3.153755749584045143e-01,3.294125321210172874e-01,3.171604900202174560e-01,1.658474137701516915e-03,7.187627794352456894e-04,-9.788713942733119969e-04,1.370559539645910263e-02
6.042742816151083218e-01,4.723634970841640301e-01,2.681731468342369862e-01,3.933320752138481924e-02,3.361255635992508456e-02,-1.398922348533345184e-01,3.908571302890777588e-01
3.170716764859911607e-01,3.013514079422456304e-01,3.446971687359159930e-01,1.955687773926354650e-03,9.145899830214798036e-04,-9.304730072173047909e-04,3.822506591677665710e-02
3.202740651129949989e-01,3.736263100023385908e-01,4.430075659852198422e-01,-7.689950711706898534e-02,1.810632557751718635e-02,1.783194661985102250e-02,1.761814951896667480e-01
3.824454685745454774e-01,2.547068842678171796e-01,3.742477735363754499e-01,2.973932810255845369e-03,1.084826260899522839e-02,1.115668044200581951e-02,1.268471032381057739e-01
4.066321286656163769e-01,3.671747859178568496e-01,2.004878402481125588e-01,1.574480383624540791e-02,1.483005802245312629e-02,-2.257398458631249341e-02,1.971057802438735962e-01
3.316893211019614762e-01,3.281257231220623960e-01,3.002052644312634966e-01,6.688390178838298124e-03,2.590623491962866509e-03,-2.524343695058981797e-03,3.263745084404945374e-02
3.051409814864612380e-01,3.397735102725583101e-01,3.465999427707270875e-01,-1.730854929994081470e-02,1.636885667571966185e-02,1.138213744073391515e-02,5.978013202548027039e-02
3.520632869656711850e-01,2.604524624331326921e-01,3.274031127112932427e-01,9.743162494904723629e-04,7.592348213958395988e-04,1.385526527304677298e-02,8.556874841451644897e-02
3.456322676422193263e-01,3.388180083750238492e-01,2.334650455873515940e-01,1.139444411536013908e-03,-3.118177820079324081e-04,-7.813982193123288761e-03,1.097767949104309082e-01
3.206057508340146023e-01,3.076360903171956318e-01,3.163477266154442469e-01,3.359692729862462628e-03,4.632721317068559143e-03,-1.373825929328600795e-03,1.533065084367990494e-02
3.134367636439852056e-01,3.287820375310903098e-01,3.195722083757358556e-01,3.121656761728403874e-03,3.050527772005473363e-03,-3.372304710387004443e-03,1.643897034227848053e-02
3.081323635552708495e-01,3.461189183169666728e-01,3.139470166875786838e-01,1.061398575523697131e-03,1.459337197652470566e-03,1.621025191277271208e-04,3.557748347520828247e-02
3.473430240795329915e-01,2.458239850513054547e-01,3.248715426999712053e-01,2.134381903412406814e-03,5.244035722913828815e-03,3.654936307595482714e-02,1.123989969491958618e-01
3.088115257594614693e-01,3.550504414711246892e-01,3.226204280508843669e-01,-1.244583906148518260e-03,3.368332202687078416e-03,-1.166388523627262617e-03,4.162907227873802185e-02
3.765437635980180553e-01,2.716547821682530062e-01,3.594102672797493958e-01,3.819163787722887338e-03,2.642860558044116473e-03,5.401278980880231881e-03,9.823631495237350464e-02
3.122154619469202363e-01,3.445378634129803719e-01,3.062799390137814770e-01,-2.720013159618862256e-03,4.074655046449748505e-03,1.660222252455858562e-03,3.677079454064369202e-02
3.765178392969209531e-01,2.581520616735051843e-01,3.729114162123228216e-01,3.010864696480986414e-03,4.462912472641864317e-03,7.245321603860285439e-03,1.176478639245033264e-01
4.358030689973056981e-01,3.439649765688456151e-01,3.911795061679225194e-01,-1.587907209311817175e-03,1.885558437706788548e-02,5.983431771340335520e-02,1.346920728683471680e-01
3.388019056118308225e-01,2.201171126740313067e-01,3.427343126358918246e-01,-2.950224538770033350e-02,3.655146179395503403e-03,6.764265039101349970e-03,1.317450404167175293e-01
5.864996435604109548e-01,4.860377839829781998e-01,3.188781121422786802e-01,6.712718591361604981e-02,6.523211863962255497e-02,-1.294823454624026149e-01,3.625037968158721924e-01
3.718722401572658320e-01,2.208892370354537671e-01,3.591071680811029898e-01,-3.924640752250438402e-02,1.121571416160391244e-02,1.251825022418868831e-02,1.627877205610275269e-01
3.963565102998725109e-01,2.580086611643009897e-01,4.019068636833001973e-01,-3.769231907759518219e-02,1.337891133490209418e-02,2.521802128745030680e-02,1.632353514432907104e-01
3.472477967663984977e-01,2.998339752082715970e-01,3.047029830629605640e-01,1.746638625996937999e-04,7.675897908104213239e-04,-2.225298266266018468e-03,4.536115378141403198e-02
4.059711687799295587e-01,1.409843932644478937e-01,4.045214099919519635e-01,-1.057715527412415313e-01,2.412918079103595209e-02,-1.386550767859994621e-02,3.251495063304901123e-01
3.123798495890930393e-01,3.083685625882414127e-01,3.344466500226186412e-01,-1.202818680063689159e-02,-9.953752504496990797e-03,-7.604769077926121223e-03,3.868218511343002319e-02
4.549175044135665980e-01,4.860320621032607757e-01,3.367388418998384925e-01,-5.697532754013695522e-02,-1.193766782957115802e-01,-8.230021277577648231e-02,3.023612201213836670e-01
3.151096099012743457e-01,2.945592470132136209e-01,3.477365505040836968e-01,-1.756869306998154120e-02,-6.801880481712184630e-03,-1.052908848074359666e-02,5.962121114134788513e-02
3.117420326099001326e-01,3.476634519191114103e-01,3.161061236493090121e-01,-2.292042509061014202e-04,1.478899272542921490e-03,1.692076415325215882e-03,3.417510539293289185e-02
3.111303919498730197e-01,3.439126386108088407e-01,3.153487220776462485e-01,1.833930918320964519e-03,1.229246130853942510e-03,-4.188310947310287823e-04,3.113411180675029755e-02
3.207037957777302828e-01,3.543345931977562868e-01,3.017238762409860109e-01,4.579795474736133437e-03,4.191516349416423044e-03,-1.646962543427502295e-03,4.746941477060317993e-02
3.171963361685506966e-01,3.546064213119121122e-01,3.165934510746281627e-01,-2.313572194960596563e-03,6.166311036965499946e-03,2.692754981673354479e-03,3.967760875821113586e-02
2.928497192292593976e-01,2.789024852144657562e-01,3.333005452810994251e-01,-7.845915094169254173e-03,-4.377803343095934899e-03,-2.270984149423387055e-03,5.150353908538818359e-02
3.171591992120474934e-01,3.387056247665975461e-01,2.986163218452275170e-01,-2.707786558293662389e-03,2.868445144945870259e-03,1.371280858959235665e-03,3.549564629793167114e-02
2.915509092312051354e-01,3.330763558581111283e-01,3.118083919673065862e-01,-2.635831825012052536e-03,1.001573277335397749e-02,7.981586002461869833e-03,4.250214248895645142e-02
4.749558545004864962e-01,1.356733616547721455e-01,3.308327619540824549e-01,4.785141679884818283e-02,-5.943653132097733924e-03,8.720753482910972854e-02,3.417255580425262451e-01
3.095001131010337581e-01,3.435583316699137302e-01,3.135578244084246680e-01,-3.784787027073076163e-04,1.456831463968907793e-03,5.826803154913459638e-04,3.234260529279708862e-02
3.174971329400145259e-01,3.338289823600779083e-01,3.078033118313090455e-01,-1.420721333359187049e-03,2.099976428618038991e-03,1.100641431663780968e-03,2.327953651547431946e-02
2.940347498463735665e-01,2.661902910474379658e-01,3.318596342741991778e-01,-1.359523265353469214e-02,-7.186148796252931487e-03,4.775071266484962767e-04,6.300275027751922607e-02
3.006162699051211362e-01,3.010326816640854775e-01,3.421026616969138345e-01,-5.405707035442390389e-03,-5.308742724455592712e-03,-1.853362942079932836e-03,4.343428090214729309e-02
2.860360054699133125e-01,3.025348124619290924e-01,3.113151917952452497e-01,-6.460630910055021117e-03,-4.242253129376324407e-03,-1.038077762723355231e-02,3.156996145844459534e-02
2.024739708478209277e-01,3.123709028877643124e-01,2.744019270856829507e-01,-3.846855181217492814e-02,-5.856391017226418583e-02,-3.021437162522174966e-02,1.637489348649978638e-01
3.194851079660134818e-01,3.379053433682981944e-01,3.189133702475384080e-01,-2.066750876997216178e-03,1.868720242602709553e-03,1.050750013808343826e-03,1.941047236323356628e-02
3.194260152387196627e-01,3.416257460569266935e-01,3.112315355288662322e-01,-4.541368434060996835e-03,4.206126785428413849e-04,2.023330190279335090e-03,2.857581526041030884e-02
3.317835156674350805e-01,3.135846047347743415e-01,3.118682710161184701e-01,-8.109758673907123362e-04,2.751587252914971301e-03,1.615270454964514010e-03,1.994732022285461426e-02
3.182230388597466764e-01,3.139621086279324458e-01,3.178381025752792244e-01,-1.981618196604303678e-03,5.570111895098249846e-03,1.098439582245594936e-03,1.118669286370277405e-02
4.367686937635126831e-01,3.803193588099197942e-01,3.913820633777745361e-01,3.759725661805952968e-02,-1.868847058042615722e-02,6.442378031653248072e-02,1.429130434989929199e-01
3.109346071591021499e-01,3.334208626052344027e-01,3.245541067239055000e-01,-2.182693607658107299e-03,1.940544942791716434e-03,5.288701258507550254e-03,2.223446778953075409e-02
2.884535372945262743e-01,3.231218912282426414e-01,3.289516643484887704e-01,-3.973499391127264385e-03,3.549855807552868957e-03,8.982778559442317415e-03,4.201465472579002380e-02
3.114193981030645708e-01,3.293552844911002420e-01,3.057175082298110302e-01,-3.510556817256896885e-03,2.520968687591934945e-03,1.780141936536464541e-03,2.284776978194713593e-02
3.195020000774701496e-01,3.234146099479132119e-01,3.190976399548232645e-01,-2.759173873984529894e-03,2.871637187363673856e-03,3.636212523784496456e-03,1.021265238523483276e-02
3.184343071869785158e-01,3.181631734903518915e-01,3.155837766461183080e-01,-1.462533383590481446e-03,5.135355764433338979e-04,3.669622760264213660e-04,3.877926617860794067e-03
3.209068146333389215e-01,3.131675776391960597e-01,3.127477446307186382e-01,-9.061742383785168376e-04,2.556205710127850816e-03,2.053439604088299134e-04,9.247364476323127747e-03
2.850884777473121634e-01,3.033892931030949813e-01,3.162521821702413694e-01,-5.566679067521667669e-03,-3.636616716868218933e-03,-1.021629791422111466e-02,3.437342122197151184e-02
3.218775618973326869e-01,3.158670323217963594e-01,3.151349188503294041e-01,-2.454000168490324575e-03,1.357023479553847323e-03,1.016111008617742251e-03,8.231110870838165283e-03
3.200340538215444286e-01,3.224065426654377231e-01,3.161665244069460923e-01,-1.578213269256357630e-03,5.637803693343788891e-04,9.413356407777940648e-04,6.391111761331558228e-03
2.949061947692246943e-01,3.338411377354238985e-01,3.302508866535577847e-01,-7.452118622987595952e-04,4.389687610314951111e-03,1.105303023695771054e-02,4.260300472378730774e-02
2.781057364614463734e-01,3.066820381157108755e-01,3.322139264463699893e-01,-1.173319142490638657e-02,-3.424553055870598831e-03,-1.004945283069432621e-02,5.430699512362480164e-02
3.030485919609249290e-01,3.248685326745259783e-01,2.917635287772623043e-01,-5.498236378579003311e-03,-3.713714150109974268e-03,-2.255187615416185537e-03,3.157572448253631592e-02
3.080718865105361304e-01,3.363405292207382602e-01,3.195857022904536326e-01,-1.018719811000120927e-02,-1.282387132591935631e-02,-1.239763141211423260e-02,4.326661676168441772e-02
3.042520118743150537e-01,3.207017000943420681e-01,2.999624538005263297e-01,-6.459642303361860620e-03,-5.142116446127551962e-03,-4.234655725470239801e-03,2.485671639442443848e-02
2.752761935246738623e-01,3.115303551444080776e-01,2.893727997517062112e-01,-1.664641381749114302e-02,-2.719863375236583614e-02,-2.300754398954011487e-02,7.510436326265335083e-02
3.141472760499173233e-01,2.992923352098844636e-01,3.004803687944206936e-01,-6.523105568000495992e-03,-7.309321780503119301e-03,-6.381589683638375955e-03,2.478987351059913635e-02
5.409090300144028252e-01,5.802782351372536285e-01,4.071088342085153466e-01,5.565370482686425591e-02,1.228531758628295667e-01,-8.356464370226395627e-03,2.819578647613525391e-01
3.203907660722141726e-01,3.077705260452616720e-01,3.190906370428602812e-01,1.920214285836081315e-03,4.612082200755819941e-03,-1.509590874983871272e-03,1.504210848361253738e-02
3.309823338715986996e-01,3.204579980718960663e-01,3.056608472829678291e-01,6.795731395816681682e-03,1.710368643502157030e-03,-1.322781218306120013e-03,2.525903284549713135e-02
1.465262091485841356e-01,3.058115159486445855e-01,2.961071963239677585e-01,-5.594881433009409738e-02,8.199820887823205950e-02,3.534065607718013535e-02,2.392259240150451660e-01
3.231956601243122229e-01,3.266890638850333817e-01,3.181126036916854805e-01,6.373594910235818797e-03,6.383423570279662083e-03,-6.462673896986837613e-03,2.062060683965682983e-02
3.194643750168914553e-01,3.104388952594556716e-01,3.226297819167725511e-01,1.313395214056729127e-03,4.585267064804164280e-03,-1.451765357513785546e-03,1.395063847303390503e-02
3.044579519175283355e-01,3.443616006391204687e-01,3.210593998662982784e-01,1.158279809318715683e-03,4.540677739969543013e-03,-3.731159136673972004e-03,3.623663261532783508e-02
3.262322515722144711e-01,2.987395187794444906e-01,3.175329040743918863e-01,2.359841776973793138e-03,7.169597290299860315e-03,-3.694271005139512787e-03,2.835875563323497772e-02
3.256476751218779220e-01,2.957272937591058359e-01,2.924094595644337047e-01,-4.924937803479179782e-03,-3.515591898357664068e-03,-3.889422091510636760e-03,3.406954929232597351e-02
3.043616481274855068e-01,3.337821959756068768e-01,2.738093301692511305e-01,6.156334848286710258e-03,1.070585617349194274e-02,-1.008663209112194495e-03,5.620034039020538330e-02
3.214190658501620557e-01,3.182461003072487027e-01,3.214236428776643395e-01,8.366275299886370134e-04,4.165177714218643371e-03,-2.245018430835252177e-04,8.023678325116634369e-03
3.113042834773892542e-01,3.372592900805376215e-01,3.059366299913727771e-01,4.634467519958385129e-03,2.947732470784728692e-03,-1.049951618926592192e-03,3.058759495615959167e-02
3.410471472354767997e-01,3.146389228062942411e-01,3.119355822267549372e-01,2.160792243252541295e-03,5.409774537635787459e-03,-8.163871873912414284e-03,3.283052146434783936e-02
2.854774729586815329e-01,3.620895454480192455e-01,3.356172524540714797e-01,-1.383026265739294375e-04,6.172193486471441552e-03,9.777638136505618395e-04,6.825912743806838989e-02
3.476929193175784527e-01,3.259858022474023120e-01,3.375311735439734395e-01,8.988570282928728603e-03,6.828291027089984123e-03,-1.009327939615422762e-02,3.227631375193595886e-02
3.208626293217781700e-01,3.497964441038224903e-01,3.066588385459346200e-01,6.568395631895133750e-03,2.236537298034018285e-03,-1.738679301565312354e-03,4.004235193133354187e-02
2.996651109357490461e-01,2.979815223122525558e-01,3.208550317923072881e-01,2.758971716108661338e-04,-1.628052956300454030e-03,-6.418613967593710980e-04,2.229211293160915375e-02
3.372779125264464550e-01,3.087215528379559371e-01,2.971942012796873200e-01,3.169613080450951401e-03,8.053909252071664261e-04,-3.247246596337428296e-03,3.662299737334251404e-02
3.229696118737105381e-01,3.074974608515559371e-01,3.093256432037714831e-01,5.332651054651168891e-03,2.287037876258794268e-03,-2.098671836295483255e-03,1.812898740172386169e-02
3.143504435720995693e-01,3.184791438643004291e-01,3.234166527803153945e-01,1.799517573391078585e-03,1.714016017687095125e-03,-3.471730933999522817e-03,1.079341210424900055e-02
3.261355176284557178e-01,3.448288912726735767e-01,2.722734311101433491e-01,-4.116889027178615573e-03,6.212300169056933843e-03,-9.192077184896399591e-06,6.651357561349868774e-02
3.293127898070348225e-01,3.224382907229899620e-01,3.136688567230428992e-01,5.506753929971045999e-03,2.177790503428264982e-03,-2.154844982335295516e-03,1.742350682616233826e-02
3.141437528620884545e-01,3.432796641769162438e-01,2.957520383278514631e-01,1.629253622735549103e-03,4.361063635793636581e-03,-4.611863817215285035e-04,4.229271784424781799e-02
3.263086912752815594e-01,3.163361690004105053e-01,2.976355069786021934e-01,8.445276340947823618e-03,2.894322670505369496e-03,-3.149293389722455320e-03,3.007511049509048462e-02
3.294700732642313890e-01,3.029101251780290660e-01,2.788920001122409675e-01,7.817317564717575495e-03,2.260659964440505688e-03,-1.069788491159223698e-02,4.962074756622314453e-02
3.099616953544050424e-01,3.451907817874974027e-01,3.105263833492156178e-01,-8.073178876788418860e-04,1.013891849805408606e-03,7.519045095883595360e-04,3.504638746380805969e-02
3.345271671779314060e-01,3.600367551485689765e-01,2.794080674384862295e-01,7.579917637560675730e-04,5.845143568314113344e-03,1.215026998540718771e-03,7.213576883077621460e-02
3.649898660424341634e-01,2.896630879260111979e-01,3.377723693232475011e-01,-1.655724962514543510e-04,1.390268952460935051e-03,5.057529257364155872e-03,6.668827682733535767e-02
3.551342370876688914e-01,3.060268791075782535e-01,3.217099705310086932e-01,1.049359393057920833e-05,1.772528016893352813e-03,3.818591672764462281e-03,4.405119270086288452e-02
3.390698285589597294e-01,3.074193020582757230e-01,3.048617286243169300e-01,3.549164592301546836e-03,2.837189260299199673e-03,-3.315294035057877054e-03,3.441159427165985107e-02
3.278700697601970027e-01,3.168902765486079631e-01,3.151909750453696368e-01,3.549573860688088819e-03,-1.302407455217333447e-03,1.118048132426589184e-03,1.373822335153818130e-02
3.204363289608112009e-01,3.217483200574215441e-01,3.118030840586453745e-01,-4.518101523519387624e-03,2.100455106885481572e-03,1.928993972382213101e-03,1.316128764301538467e-02
2.321424945144092145e-01,3.768672565113385664e-01,3.713591389706447643e-01,-1.126964802953470254e-04,-6.717984806917410255e-03,3.936305839722758527e-03,1.426897048950195312e-01
2.386877500235605187e-01,3.628011121266868644e-01,3.675032280817909225e-01,6.049917641033123426e-04,-6.293620466423600034e-03,9.513757546071047665e-05,1.270030885934829712e-01
3.531722191144479606e-01,2.672012088145896413e-01,3.425392272191102316e-01,-1.036585903632371297e-02,7.168938413105998761e-03,1.357674990125816092e-02,8.728954195976257324e-02
2.389133451563313082e-01,3.475539301860979258e-01,3.426889163449416409e-01,1.014466189619832835e-02,-1.250298352042123091e-02,1.203353883649308301e-02,1.118482947349548340e-01
3.232217614284439433e-01,3.292635318677898382e-01,3.127081159297523949e-01,-3.322625183138622814e-03,1.197188115009021909e-03,1.400450714541351567e-03,1.593310572206974030e-02
3.268187259594043659e-01,3.091914750959602332e-01,2.880852046952707135e-01,-7.459100428941564317e-03,6.041393590875763185e-03,8.423553657529123453e-03,4.021838679909706116e-02
3.169691567280315536e-01,3.174368731141990474e-01,3.493843607650039540e-01,-4.878932537074410751e-07,1.664241238619188976e-03,-1.520375895990996266e-03,3.241985291242599487e-02
2.302503296914516495e-01,3.680884888119337894e-01,3.418778212524991589e-01,9.117371221123195257e-04,-1.508447263864685917e-02,3.225028003377105029e-04,1.294563859701156616e-01
3.305169392665873729e-01,3.128423099988106859e-01,3.106121950129914211e-01,-2.682802464232822513e-03,9.727512621940471787e-04,1.306708065249433635e-03,1.965542882680892944e-02
3.121725325317879496e-01,3.104676740526816081e-01,3.444204679921559764e-01,6.608683560942465399e-04,9.424713255554846797e-05,-3.709127415127547243e-04,3.315966948866844177e-02
3.243382680207697599e-01,3.036812988071272978e-01,3.144384910003809042e-01,-2.301883359462767072e-03,8.026778406695052673e-03,2.437974107311386210e-03,2.339297346770763397e-02
3.310529645372468632e-01,3.294600242549285407e-01,2.854686423793846850e-01,-7.273302226309186387e-03,3.930162395094234304e-03,3.860662764056894090e-03,4.751431569457054138e-02
2.361756070912785777e-01,3.506058783680708890e-01,3.655350288599836239e-01,5.085774373225561938e-03,-3.765200826284773039e-03,9.249936119195180254e-04,1.230780482292175293e-01
2.937866803921741488e-01,3.863859621695057700e-01,4.057949939306484954e-01,3.806423454528380657e-02,1.974268649419717164e-02,-3.517036417121662158e-03,1.276780664920806885e-01
2.452153719514610919e-01,3.460141263915354481e-01,3.260112516757927570e-01,1.364146873946635655e-02,3.095679036062494796e-02,-1.259293630832989883e-03,1.094633936882019043e-01
6.103111792999144081e-01,5.903078360117237633e-01,2.659671526664674213e-01,3.017601626210779028e-02,-1.057531767006882496e-03,-4.914850531001371120e-02,3.493805527687072754e-01
3.138691933087638941e-01,3.253624186106408023e-01,3.166882890477081269e-01,1.184227758565377115e-03,4.777083058853981478e-04,-6.132430324126458875e-04,1.066119223833084106e-02
2.694624406691173979e-01,4.062321639394664841e-01,3.846353924565197313e-01,5.925457075402868271e-03,4.900444639209556447e-02,2.631620598710911890e-03,1.534568667411804199e-01
3.299618721316356362e-01,1.970471286822221280e-01,2.619895023881939067e-01,-8.971888328435258936e-03,-1.019726829143282817e-02,-7.040409385207503645e-02,1.693389713764190674e-01
4.007643270489386067e-01,3.387350597534379282e-01,1.654200251451954373e-01,-2.020032416352929988e-02,-1.015847530470643800e-01,-9.914047332770233034e-02,3.260450661182403564e-01
2.498809151564892472e-01,3.452431524473019708e-01,3.264362796863032878e-01,-3.091359266137155837e-03,3.553425722483870980e-02,-1.726549990490139092e-03,1.071440726518630981e-01
2.910258787070907904e-01,3.885363133785763590e-01,3.805216593725327390e-01,2.889118109988781736e-04,1.781587832171401681e-02,4.022171152039803223e-03,9.895457327365875244e-02
3.273778165127121387e-01,3.464639184035337993e-01,2.711217963953221344e-01,3.375033868376318708e-03,7.158505363413530075e-03,-1.231221835161615003e-03,6.924723833799362183e-02
2.218970813782677465e-01,3.508231000378130293e-01,3.479732935300855479e-01,-3.728098971750876817e-04,1.747747808847907244e-02,4.795213203976704010e-03,1.313332021236419678e-01
4.911604637190551959e-01,3.190349182002841233e-01,3.352088320964747292e-01,-5.547707680542155601e-02,-4.881313789582950730e-02,-1.558952468783494916e-01,3.411687612533569336e-01
2.515098567246941696e-01,3.219666967398089330e-01,3.383277764515189023e-01,-2.623318010669876965e-02,-1.681861065288023718e-02,-9.932227495864611594e-03,9.794735908508300781e-02
5.642508414746723044e-01,3.387707161563162650e-01,3.111329642808879914e-01,6.216293744571631252e-02,8.484856135180104952e-02,-1.456919721963455261e-01,3.933266699314117432e-01
3.267505971772354800e-01,2.414506524778573249e-01,2.710041826294697920e-01,-1.191327236518231227e-02,-1.074267659260140853e-02,-3.291676220703736860e-02,9.824006259441375732e-02
3.396433091867037124e-01,3.005994259372421484e-01,2.691301141014431075e-01,-3.564625475616814247e-03,-1.264445949420439728e-03,-7.806758617800980959e-03,6.300142407417297363e-02
9.628465442078909531e-02,2.046149490693655315e-01,3.556170948020152545e-01,-1.479695048917230027e-01,1.908618088963416962e-02,1.228492586200739291e-02,3.436942398548126221e-01
2.068578892452922480e-01,2.195694705022108728e-01,3.768422584934185138e-01,-1.513758059032395131e-01,-8.177146056882220182e-02,-2.711015708705940414e-02,3.433715105056762695e-01
3.328593103435404377e-01,4.222496566278214347e-01,3.916836453326157375e-01,1.040246097417630786e-02,5.947218480719348999e-02,3.284374577985523218e-03,1.309978067874908447e-01
3.432719264517219426e-01,3.392671901914395272e-01,2.651970165598108720e-01,5.806556657248990519e-03,2.531360289087931405e-03,-6.878619042039453395e-03,7.785484939813613892e-02
2.661061524614333762e-01,3.922919010126624251e-01,3.873452721785943798e-01,-4.251839011171461291e-02,-5.321067758037127671e-02,-1.440890271485997451e-02,1.728107035160064697e-01
3.593964683851352260e-01,3.416958848611817978e-01,2.421459712796643626e-01,3.794269826071770303e-03,-3.498732360601955471e-03,7.125669360047004637e-03,1.105342730879783630e-01
2.716121595663569255e-01,4.052376029523177547e-01,4.347725510214136557e-01,-4.243855533472242619e-02,8.731980294710475071e-03,5.085641174190743546e-03,1.684758663177490234e-01
1.430944669614120646e-01,3.328810332438476571e-01,3.262713981808874064e-01,-7.025718619480160465e-02,-7.513188198982559407e-02,-3.108216112622738322e-02,2.635320127010345459e-01
2.878613421302838038e-01,6.024567097558033435e-01,5.876355959957196839e-01,-2.262462075124904715e-02,-1.339486561304433290e-02,2.439460732089275552e-02,3.136661350727081299e-01
3.538197680453704086e-01,3.166423742754110870e-01,2.851824657226902926e-01,3.997605491419128042e-03,1.034734127857908116e-03,1.071886762367841445e-02,6.274805963039398193e-02
2.044657368277990328e-01,3.925864855037095591e-01,3.880292959874170333e-01,-1.596487240513594363e-02,-2.731584579735112442e-02,-6.847864043349357471e-03,1.941562741994857788e-01
2.596824083389134286e-01,3.580441268792888820e-01,3.748483125238389335e-01,-3.274307361985769049e-02,-2.071254093254639925e-02,-9.628690254228890189e-03,1.280304193496704102e-01
3.834206422120922109e-01,4.026483188196035012e-01,2.900741160132407903e-01,1.851988702911476839e-02,-6.595560883407480812e-02,3.385638787832044583e-02,1.685119122266769409e-01
3.253029524588281207e-01,3.470782842994853401e-01,1.815335394448667206e-01,3.140108809066353979e-02,-8.559786437341895815e-02,5.648997246553180696e-02,2.424600124359130859e-01
1.083839046212436985e-01,3.217999116272848292e-01,3.280727068810994074e-01,-1.328009430623291673e-02,6.085575502098524402e-03,7.892480086640348003e-03,2.185211926698684692e-01
2.357930749359068157e-01,3.448228270565795173e-01,3.545739530214760404e-01,-1.419682466890046131e-02,-1.198542595739832996e-02,-4.236829080168261034e-03,1.188914924860000610e-01
2.008387285997129679e-01,3.616904112051104736e-01,3.696274900704568100e-01,-1.541157333602750576e-02,-2.809444678933942230e-02,3.808457543878666397e-03,1.741749346256256104e-01
1.607588489559722555e-01,3.089668852741641047e-01,3.330534061264583956e-01,-4.254232838336858419e-02,4.318707843270659652e-03,5.053702184518756371e-03,1.779823601245880127e-01
2.215386603527863818e-01,3.531032954858075446e-01,3.422878614984614654e-01,1.477648402513238521e-02,2.873288787699939013e-03,5.745093631869353443e-03,1.295458078384399414e-01
3.381955410535866791e-01,3.614683965742815364e-01,2.032075696115617502e-01,-2.289223895920392405e-04,-3.480861945641899879e-02,-1.356872406496472880e-02,1.615312397480010986e-01
3.408490561482150349e-01,2.490230023361869327e-01,3.630364332741201627e-01,-7.472794545613547883e-03,-3.959825507768539171e-03,-2.758321718016602114e-03,1.058256924152374268e-01
2.450134303541591230e-01,3.822562422531952109e-01,3.714912280631097463e-01,-2.811474936057335814e-04,2.375378250380918727e-03,3.804979214150361940e-03,1.324184685945510864e-01
3.163518603503228110e-01,3.480234647002944937e-01,2.556476200995508874e-01,2.339728073504167283e-03,-3.366645220507208380e-02,3.167742347636455513e-03,1.002871543169021606e-01
2.388335749672930164e-01,3.563641672654655479e-01,3.616095582168418199e-01,-1.554254769552744671e-02,-1.468841753961719636e-04,3.272247713198609374e-03,1.233464553952217102e-01
3.476472141214516087e-01,3.042869038727952224e-01,3.240170912101094092e-01,-1.486733750467269556e-03,2.640880303589495520e-03,2.776361827938595914e-03,3.826967626810073853e-02
3.466109139086181457e-01,3.104747336779125066e-01,3.146578840454063997e-01,-6.540373415455972509e-04,-9.493815472435310990e-04,1.161499475134156059e-03,3.435394912958145142e-02
2.494891447888496483e-01,3.210399279045852428e-01,3.587120035834227005e-01,-1.996087498403600544e-02,1.214747812504388385e-03,-6.695738687448696616e-03,1.028027310967445374e-01
3.168366725629855885e-01,3.235678439516925797e-01,3.119808935815333029e-01,-2.982765617209704422e-03,1.018438996076536122e-03,1.484906837856822363e-03,1.174689363688230515e-02
3.069855217848763695e-01,3.110765792673763075e-01,3.056867992068399986e-01,-4.412308536505585820e-03,6.700506589579964881e-03,4.484088459436171188e-03,1.664792746305465698e-02
3.412308005240196618e-01,2.987364209583808217e-01,2.949474909634112185e-01,-6.423327504765032232e-04,7.069093796465298479e-04,-2.233812459757742244e-03,4.470842331647872925e-02
2.438396678233828718e-01,3.565094952026640063e-01,3.636223132670766689e-01,-1.557339615064660086e-02,9.729945000882514808e-03,1.019379502613420099e-02,1.219419091939926147e-01
2.393753182894310383e-01,3.700845856255466915e-01,3.778452859950929277e-01,-1.628944444046761392e-02,-2.475176272422964551e-04,5.027571493960323809e-04,1.376826614141464233e-01
3.185828963046108409e-01,3.178438686089392062e-01,3.338248239132514117e-01,-1.093455179297844271e-03,7.093717115450836642e-03,8.929995996982874329e-03,2.525689266622066498e-02
3.292945908019442314e-01,2.797974790197843564e-01,3.499791655777519384e-01,6.340285089288090134e-03,-5.580243907659256271e-03,8.187818018547170229e-03,6.570219248533248901e-02
3.397240129228850103e-01,2.814928385703763802e-01,3.491315530048534899e-01,1.008406614530555495e-02,-7.195113012753062871e-03,4.530127074866588735e-03,6.744719296693801880e-02
3.307978353421641149e-01,3.157564219991950138e-01,3.052328689184177768e-01,-6.122706061260392053e-03,2.806710234959541861e-03,2.985463008168832196e-03,2.565371058881282806e-02
3.552897446726737130e-01,2.930847994974122850e-01,4.020813473838597552e-01,-3.627254796883855326e-02,1.831044661650648581e-02,2.830755615746846643e-02,1.277749687433242798e-01
3.100927015298280409e-01,2.727879708467751962e-01,3.707314447923515388e-01,5.251961790689378684e-02,-1.996470497568512276e-02,1.277087966107632450e-02,1.314944773912429810e-01
3.297657724996091999e-01,2.276170416058098389e-01,2.728531185385961733e-01,6.736216275550868660e-02,-3.960186028511488571e-02,1.133156355652047559e-01,2.543601095676422119e-01
3.503519326187840566e-01,3.060470437886441686e-01,3.059870811006442093e-01,-4.100946385128947241e-03,8.225774793789230460e-03,1.321750403144607289e-02,5.237493664026260376e-02
3.298020983185766530e-01,3.252626300499296685e-01,3.040394721476086803e-01,1.580525501323760962e-02,-1.671308023793861841e-02,1.218250398622577023e-02,5.099029839038848877e-02
3.125077966691107156e-01,2.842312095773931180e-01,3.475872214157610385e-01,8.663233805095187784e-03,-4.073396880055605608e-03,4.568138325326312997e-03,5.796200409531593323e-02
3.297388971043380135e-01,3.065304888191436872e-01,3.611279873790225747e-01,2.150555766106623107e-02,-6.425121220151138422e-03,1.087665030111939143e-02,6.417643278837203979e-02
3.139662435884603697e-01,3.128594126450025548e-01,3.396581863369004806e-01,9.724677649706742547e-03,-6.512553221164822485e-03,7.829200368728035653e-03,3.584096580743789673e-02
4.296722094536477021e-01,3.635277750162366206e-01,2.915949337729480395e-01,-1.159809160311937697e-02,-3.359646946178176941e-02,-8.344070418686387602e-02,1.974440366029739380e-01
3.321317749538506003e-01,3.007214386931450489e-01,2.947276123291777683e-01,-1.457743909728870420e-03,-1.178112460944116466e-03,-1.992327801646297421e-03,3.511766344308853149e-02
3.326201493029859457e-01,3.230315476316916179e-01,3.439229906980673102e-01,1.113272686952465618e-02,-9.526575212422309577e-03,1.116884523932205192e-02,3.669309243559837341e-02
3.463145755501278455e-01,3.503577904497846562e-01,2.448117814210584720e-01,3.248360147798663548e-03,5.350863212969661845e-03,-2.578204809154794989e-03,1.042451635003089905e-01
3.707564489631388627e-01,3.656627301282392439e-01,2.271848442336380225e-01,-1.460230777536300180e-03,-1.707924112032666985e-03,-1.544079519949713127e-03,1.411727219820022583e-01
3.475092919596339813e-01,3.294019683432711787e-01,2.884710647423339158e-01,8.071645162170314192e-03,1.822031202026862685e-03,-5.394626111460763818e-03,5.510973557829856873e-02
3.169442727685721217e-01,3.033701469923855698e-01,2.910780084326428652e-01,-7.746105623570300087e-03,-1.852540263345421384e-03,-3.239371318692346822e-03,2.690708823502063751e-02
3.554193166028357664e-01,3.141726830605513499e-01,2.956007708312225479e-01,3.178269224309337223e-03,7.660220139335979740e-04,-4.588530896159440445e-03,5.392085015773773193e-02
3.405362878004156713e-01,2.874139271133128726e-01,2.950445895469843705e-01,1.653530888612655687e-04,1.148511004584954875e-03,-5.642565224812488497e-03,5.073862895369529724e-02
3.172908379919146538e-01,2.902758308567600642e-01,2.708592241924031030e-01,1.179475993697553377e-02,1.276182593445854448e-02,-2.553954858568875316e-02,6.703806668519973755e-02
3.201650048915845037e-01,2.990461613788278350e-01,3.014978440795302306e-01,-3.659895545711299748e-03,-1.317814300478669341e-03,-2.332930112345278032e-03,2.149329334497451782e-02
3.528005346239854179e-01,3.364215183795581376e-01,2.989467793637065607e-01,-3.196796785910812570e-03,2.909992982388412506e-03,5.351650424085097231e-03,4.927890747785568237e-02
3.149544270668291901e-01,3.283531904860363393e-01,2.455358565999976039e-01,-1.340282728015041759e-02,3.266042295860515504e-02,2.206916211916351567e-02,1.054928824305534363e-01
3.179405018197229982e-01,3.360821748961793087e-01,1.871390408189120003e-01,-8.575426366792380031e-03,-4.055141917493444020e-02,-1.920146229879916150e-02,1.614653319120407104e-01
3.432244031761119141e-01,2.938761224752136081e-01,2.969857681365966617e-01,2.485743545592920779e-04,1.322251097462603074e-03,-2.215661845699270441e-03,4.807936027646064758e-02
3.425136507191471336e-01,3.184452169318990888e-01,3.066530706943933482e-01,5.785947678907444637e-03,1.321899828202808495e-03,-3.022552932835195771e-03,3.369338065385818481e-02
3.473310571110389544e-01,3.655678908406640448e-01,2.550377182795646736e-01,6.133420907425207562e-03,-6.589619224049718567e-03,4.347155807296341004e-03,1.040845811367034912e-01
4.113947740551359145e-01,3.658824231007188899e-01,1.626980584414936537e-01,-1.863307223914483987e-02,1.171670451887530003e-02,-1.281078224497442242e-01,3.213890492916107178e-01
5.418404135596350812e-01,4.775282545495579400e-01,3.478993669021924751e-01,6.165321875451146294e-02,-3.840230686219409106e-02,1.282898504527501538e-01,3.073741197586059570e-01
3.482451075047967026e-01,2.800485411571790872e-01,3.267084802347610673e-01,-4.186656541440928738e-04,6.106032191809152715e-03,5.152908123539529615e-03,6.195085123181343079e-02
3.592179600992421729e-01,3.214319290775200511e-01,2.494227101610176078e-01,-1.837799192791721376e-03,-3.271735511869465658e-03,-1.752269255362606110e-02,1.014762744307518005e-01
3.386555922664920559e-01,3.280619335338754716e-01,1.830753713013857364e-01,-3.363970854021708801e-03,-1.034272162004416448e-02,-3.404505739683184873e-02,1.627922952175140381e-01
3.521733252877664033e-01,3.493251818304128897e-01,2.206584025642029934e-01,-1.139254371890921838e-03,-6.368393788125364420e-03,-8.487427761913983806e-03,1.314206421375274658e-01
3.680936859521534710e-01,3.483361846627064939e-01,2.511036991645281269e-01,-1.310017673698730175e-03,-3.792586682838948713e-03,-8.168998901568736565e-03,1.096087768673896790e-01
3.511465115232573764e-01,3.612307432520645012e-01,2.490780288585050795e-01,9.771950658789066435e-04,6.618884930193063426e-03,8.291672993262734145e-04,1.080985888838768005e-01
3.094136977224998808e-01,3.015549860387375380e-01,3.507920177988967381e-01,6.567847552396150444e-03,3.498374368855580469e-03,-5.947554420977828413e-04,4.760558903217315674e-02
3.183705328682406854e-01,3.085290889351595678e-01,3.026726688206901605e-01,-3.429975614854057463e-03,-2.582006468574476934e-04,-8.266262213973081573e-04,1.504431571811437607e-02
3.560179843954874856e-01,3.785681746007250048e-01,2.174243685198327669e-01,-1.982166041444703708e-02,-4.051232410219199331e-02,-3.049755502782343017e-02,1.781425178050994873e-01
3.566006071088757556e-01,3.595410703220326409e-01,2.314934659997071598e-01,-1.671201371001667085e-03,-1.269587300922302500e-02,-6.498703329651319902e-03,1.290230602025985718e-01
3.370315825159497236e-01,2.872708755880466480e-01,3.092566344921602317e-01,3.056703094245074009e-03,-5.250827904523207648e-03,7.983021382330812710e-03,4.655539244413375854e-02
3.549984054107229170e-01,3.068847363609116252e-01,3.219509620239550118e-01,1.233080978562128035e-04,9.116947789403672883e-04,2.953687515897530837e-03,4.296204075217247009e-02
3.243032411870138132e-01,3.078753710768479257e-01,3.203899827250978327e-01,-1.160581771904485582e-03,6.209097087948945229e-03,2.205318067566510928e-03,1.884653232991695404e-02
3.440315364141401933e-01,3.124921876234597051e-01,3.127190504459054776e-01,-1.255585111495795270e-03,7.651477522433024637e-04,1.860291325069991244e-04,3.153119981288909912e-02
4.413520573444218442e-01,3.765060226731810067e-01,3.585259802249438077e-01,1.660414211925140271e-02,1.998994360879039790e-03,5.164890261628615059e-02,1.205658838152885437e-01
3.275504644993103565e-01,2.353497057582447094e-01,2.777851952591530171e-01,8.511648328065184524e-03,-3.270110084931731904e-03,4.640751261792844251e-02,1.144533231854438782e-01
3.460565908170041283e-01,2.716872961085254334e-01,3.255765291703419106e-01,2.942926863479322121e-03,4.087388792762537107e-04,5.077940170392402849e-03,6.731253117322921753e-02
3.560214563996029757e-01,3.315772963845566856e-01,2.786243937166329454e-01,-2.859351296642507643e-04,9.036392406701197104e-04,6.613149398914325641e-03,6.949684768915176392e-02
3.489396217476338768e-01,3.137283048480657976e-01,3.127948250630958049e-01,1.783031898678835367e-03,-4.392204791878244973e-04,1.547411944316587655e-03,3.592877835035324097e-02
3.395296898716663181e-01,3.129749209383184128e-01,3.124185432028436238e-01,-1.875640622138012364e-03,8.214778060684151768e-04,7.890693648974952392e-04,2.710509672760963440e-02
3.431247771971961402e-01,3.217770899820270869e-01,3.105177639920626009e-01,-2.472276545311297667e-03,1.899015863871489091e-03,2.684394128109649294e-03,2.955722995102405548e-02
3.439307041426660771e-01,3.041210443233072214e-01,3.127836239370183069e-01,-1.946322299587306464e-03,1.709052389476430674e-03,4.632767376942670962e-03,3.741002082824707031e-02
3.331363302317882358e-01,2.648874827410869770e-01,2.978411084944259657e-01,-6.334549440656142734e-03,-1.219073780152972290e-02,-9.058972390782316433e-03,6.562938541173934937e-02
3.494696004696251079e-01,2.669861023954426260e-01,3.172427569829500693e-01,-4.805546103352383567e-04,-1.914636599607286074e-03,-6.631477771107868735e-03,7.298995554447174072e-02
3.433096637664972417e-01,3.121991814519191055e-01,3.090153433235875990e-01,-3.774305458289830932e-03,1.008343234225038540e-03,2.719115530331938334e-03,3.383809700608253479e-02
3.842424778797587370e-01,2.704609412472419594e-01,2.996502676073321547e-01,-1.072509212950412544e-01,-9.672364348572622117e-02,-1.428623295666223980e-01,3.664432466030120850e-01
3.637060143327017214e-01,2.280004813610212455e-01,3.268809920440763905e-01,-6.079284796262871514e-03,-2.925718980405376569e-03,-4.473555754206476331e-02,1.446204632520675659e-01
3.415856082825849405e-01,2.368233249939827034e-01,3.548523482238203353e-01,-1.304157735253716997e-02,-6.813015236309887847e-03,-1.312677033403623385e-02,1.170787438750267029e-01
3.405322500214078008e-01,2.608412166491929085e-01,3.467398567135487886e-01,-4.521029530629416468e-03,7.492674346372575969e-03,3.054290937439317014e-03,8.450805395841598511e-02
3.530083770230562079e-01,3.176236300153156278e-01,2.335855176010126766e-01,-3.425218701319362232e-03,-3.826721848130925675e-03,-4.290940597754228092e-02,1.299651116132736206e-01
3.432807203857672351e-01,3.086233575787679650e-01,2.896218023242556616e-01,1.723153300909806783e-04,-8.273242437681164194e-04,-4.521271683199682909e-03,4.779334366321563721e-02
3.412701119216797196e-01,3.001967453142969644e-01,3.028455149258554857e-01,1.343285033872045628e-03,1.791733193223761641e-03,-1.715276140091257558e-03,4.011376574635505676e-02
3.770791533343771929e-01,3.437602163851830595e-01,3.555233436241738709e-01,-4.873661381808502141e-02,-4.995092630285409563e-02,-6.749939636184836000e-02,1.706931442022323608e-01
3.383634781473654485e-01,2.830005770517766694e-01,2.841041023545851085e-01,-5.204562687536294641e-03,-7.164087967107221101e-03,-1.777787286507360662e-02,6.471914052963256836e-02
3.599952076991813077e-01,2.402227344813183119e-01,3.399697456483390945e-01,-2.432425426041738559e-03,-1.260761983983846009e-03,-7.426406754179510489e-03,1.119640022516250610e-01
3.570802881082445479e-01,3.521753341617658850e-01,2.178790698380462243e-01,9.838633111128392353e-04,-2.717813445038870252e-04,-3.837232441317857574e-03,1.369874477386474609e-01
3.880465136264916737e-01,2.236068907647237869e-01,4.082225650188536226e-01,-5.771819258317583551e-02,-9.608958118833806419e-03,-2.788838533216078316e-02,2.082538306713104248e-01
3.598098930072022861e-01,2.993049937621788392e-01,3.068680220671758385e-01,1.362905548537553680e-03,6.218007802414941788e-04,-3.816020972368384251e-02,8.738294243812561035e-02
3.457948307689251988e-01,3.141504057456392940e-01,2.658627058163295365e-01,2.533202218907946481e-03,-1.081659311939879451e-04,-9.700517480181247709e-03,7.185189425945281982e-02
3.342819824913956239e-01,3.079481689843529546e-01,2.878747802230503527e-01,-5.682594639116723967e-03,-1.640938311574363954e-03,-2.805633571039031684e-03,4.187586531043052673e-02
3.618157731905606300e-01,2.573158949414993124e-01,3.284695427326725370e-01,-3.634389628219202809e-03,-2.432037078026598811e-03,-1.585917150481139931e-02,9.674414247274398804e-02
3.497900734044038229e-01,2.555994367882660212e-01,3.284011106577940931e-01,-1.009060366635924737e-03,-4.610971482803545574e-03,-1.211456704347356472e-02,8.844122290611267090e-02
3.804066971395012597e-01,1.961195164518962641e-01,3.509413953309792333e-01,-4.077609503156297277e-02,-2.338077190155364582e-02,-9.096886765802443542e-02,2.466859221458435059e-01
6.271426038910321576e-01,2.944865204947685333e-01,6.291245044382283158e-01,-5.733835403765257660e-02,2.243871058880179611e-02,-4.574390067885171496e-02,3.591299951076507568e-01
3.168516166171987947e-01,2.364383396002218141e-01,3.409148273212859181e-01,-4.520593635460966320e-02,5.338112211491445776e-03,8.405618280069571818e-03,1.241310387849807739e-01
3.461080310384193059e-01,2.831318684113993678e-01,3.635651454796813287e-01,-2.663301776560414794e-02,7.202128088897991748e-03,5.928178991099026726e-03,8.808589726686477661e-02
3.435481048440239826e-01,3.308761043685212178e-01,2.111282017584024118e-01,-1.651519775671021284e-03,-6.194585692127415992e-03,-6.425822682441938334e-03,1.275333613157272339e-01
3.256331480140426948e-01,2.571576172612480837e-01,3.496736218078241309e-01,-1.267734818928442121e-02,7.160676660000962236e-03,7.237335659407426354e-03,8.778459578752517700e-02
3.425195345459978724e-01,2.616243067376515796e-01,3.599139387473753171e-01,-1.430261029995737523e-02,5.269548109775064673e-03,7.953154240734876951e-04,9.461830556392669678e-02
4.010720712113622355e-01,2.506823488428706059e-01,4.367626161615951741e-01,-4.336616221330415188e-02,1.001870816779829552e-02,1.166735332038083828e-02,1.887054592370986938e-01
3.546045244873449742e-01,2.429409564069573702e-01,3.876361316140381486e-01,-3.180644313490725572e-02,8.874390198721571546e-03,7.580138707437694516e-03,1.438466459512710571e-01
3.518795775353495414e-01,3.491465127384624778e-01,2.149482680961801451e-01,-4.912347315583427730e-04,6.076037889994807296e-04,-3.715441445827606486e-03,1.357448250055313110e-01
3.086354776453550941e-01,3.125819944659288252e-01,3.232242897396477299e-01,-2.629765192255289867e-03,2.195878028113397960e-03,4.314204590607195397e-03,1.618280448019504547e-02
5.292322299690860321e-01,4.520986043389260134e-01,3.059366925172044005e-01,-1.344884022937350293e-02,-3.531939457073872413e-02,-1.323365138911538619e-01,3.088863193988800049e-01
4.086095212908495422e-01,3.920788801257285017e-01,2.604995681869951007e-01,8.480821988319424062e-03,-2.270947308515745139e-02,1.711386207664742642e-01,3.307411074638366699e-01
3.189086388452373466e-01,3.190005492869210646e-01,3.186148357733210035e-01,-3.329879365414685922e-04,1.585371563602353288e-03,4.552238973198231430e-04,2.935355063527822495e-03
3.226032959987750748e-01,3.244808142811460017e-01,3.287496031561377152e-01,-3.928836380113199384e-03,3.816374961684873644e-03,4.847557998950450739e-03,1.379348523914813995e-02
3.155846524836903866e-01,3.129926624493625242e-01,3.198413150545467154e-01,-2.729086491958653427e-03,3.058013847661431115e-03,1.310472951956304392e-03,9.561428800225257874e-03
3.438072498276532607e-01,2.798643529700127197e-01,3.038524769767831368e-01,3.016578957819169692e-03,-7.864269854961914970e-04,-1.452641587424354473e-02,6.158294528722763062e-02
3.571291430526811750e-01,2.971815715233069310e-01,2.621695128911620265e-01,5.055886660255410996e-04,-9.889050691299622179e-05,-3.035963371077766287e-02,9.840915352106094360e-02
3.515021867297373759e-01,4.046665027121898461e-01,2.581699422566099966e-01,5.244940783089037210e-03,3.113222097434837840e-02,1.614815818639699432e-02,1.423789262771606445e-01
3.489977365389815289e-01,2.529385569854731286e-01,3.205606293348277069e-01,1.659974374862910069e-03,2.827136649071172302e-03,-1.854296971000052308e-02,9.147764742374420166e-02
3.343524253341067509e-01,3.115563340797939396e-01,3.014151881017542167e-01,-8.669306664943650376e-03,-7.495416358929794277e-03,-1.164782540235548801e-02,4.067816585302352905e-02
4.660544300824080999e-01,2.099331619682455186e-01,2.838387080823482345e-01,6.176258433541348403e-02,-4.838133527963587449e-03,-1.435736121027441359e-01,3.542394340038299561e-01
3.483821469165387930e-01,3.123717994846286206e-01,3.118811755226206239e-01,-6.997475147908320536e-04,5.181084495486411312e-04,1.491005627591183557e-03,3.638127073645591736e-02
4.048254338572896405e-01,3.745468575149291102e-01,2.848356095454059878e-01,2.284993766513827504e-02,2.196208204500062124e-03,3.245766789264413477e-02,1.281505376100540161e-01
3.292358504671623609e-01,3.469487362903198036e-01,2.830946996620267164e-01,6.335390215410721150e-03,-1.313212241841607043e-02,1.029156583855558513e-02,6.492736935615539551e-02
3.433929851775758268e-01,2.136524375944756915e-01,3.256435273699117561e-01,1.857962117116188777e-02,1.035672956064969188e-02,-4.085975015469248128e-02,1.456392109394073486e-01
3.551395597975543494e-01,3.318832640785384647e-01,2.783122169205025642e-01,5.713009226403532870e-03,-8.614779810644657013e-04,6.459318974700223662e-03,6.987050175666809082e-02
3.596633318424482528e-01,3.282910374252961394e-01,2.768327002578426788e-01,2.150703962760766412e-03,1.412813534118706471e-03,-3.076799873740767785e-02,9.003566950559616089e-02
2.771889450627920137e-01,3.460578098967031502e-01,3.276260332463583613e-01,-4.953172394350852581e-04,6.264929055792767786e-03,1.636361825712794819e-03,6.276776641607284546e-02
3.284974574302852446e-01,2.695181837768337307e-01,3.438234552987297632e-01,-8.427399510953434425e-03,8.887285514105940087e-03,2.459258594807265698e-03,7.131280004978179932e-02
4.376851119338213136e-01,2.894837961315319119e-01,3.782652696436301643e-01,2.120680453794533335e-02,8.639992843488644367e-03,-7.461453331502068687e-02,1.869849413633346558e-01
3.543492113782399366e-01,3.194097401368994893e-01,3.020766170538937700e-01,-1.136442012622177703e-03,1.206210655795159482e-04,3.926329170386880923e-03,4.665812104940414429e-02
3.466368521257494617e-01,3.054431502663927378e-01,3.105044110165248727e-01,-1.463336476816285542e-04,-1.399577437713345543e-03,4.038504674727556865e-03,3.960952535271644592e-02
3.209565981679589619e-01,3.186359871407495881e-01,-6.728027983859910521e-02,1.428856522867199240e-02,-2.197271068259146198e-02,2.634357576877324920e-03,3.897614777088165283e-01
3.583795950325152635e-01,3.098808906433588861e-01,3.250042106021697741e-01,1.566286154042116369e-03,-2.386003619953595660e-03,3.637227266956410791e-03,4.372075945138931274e-02
3.448884041402381917e-01,3.063087446150359883e-01,3.192965573501682086e-01,1.816798154280330809e-03,-3.198967118068357218e-03,3.259605387358361587e-03,3.504975885152816772e-02
3.872494313972512647e-01,3.740403690920783286e-01,2.681133366609695923e-01,4.170184275633146039e-03,1.074004795759563383e-02,4.358541025707051569e-03,1.151061281561851501e-01
3.036020549827002091e-01,2.588083393723482062e-01,3.475027385591101803e-01,-5.754049512417588191e-02,-4.686334056674974768e-02,-5.363582858203641557e-02,1.762154102325439453e-01
3.634076151930102361e-01,3.652637322684958443e-01,2.467573750267953725e-01,2.098732461782373045e-03,-2.642798136058400029e-04,1.272392917143479445e-03,1.176669895648956299e-01
3.148367258272425362e-01,3.298609851796442949e-01,2.035837363455060556e-01,7.461902740000104020e-03,3.970820608934727547e-02,-1.282488442487912661e-02,1.402324736118316650e-01
3.409456080288008062e-01,2.893300538604595129e-01,2.955857801871385471e-01,1.262176847932124524e-04,6.654551285705028948e-04,-7.128448984317556185e-03,5.034111067652702332e-02
6.164374305351199013e-01,3.013669132130270545e-01,5.976152076537711855e-01,4.208150434972947329e-02,2.414145740215005789e-02,8.446146867004826475e-02,3.495076298713684082e-01
4.107801067368240244e-01,4.066044993478177827e-01,2.910634874130857974e-01,2.154648441371981998e-02,-3.587348119697618409e-02,4.202771507024853637e-02,1.562116295099258423e-01
3.122204352002193040e-01,2.962219959920694423e-01,3.107956587290957029e-01,-2.556459441929447539e-03,-4.298728782818121014e-03,-2.310045925896263459e-03,1.806207187473773956e-02
3.899300132174917666e-01,4.118487144882968520e-01,2.048499632277025473e-01,2.324580058177019327e-03,-3.469231756943870482e-02,9.257906045637488354e-03,2.065811604261398315e-01
3.471376972079198708e-01,3.020340438202171462e-01,3.064032177604896767e-01,1.483101107141459674e-03,8.692964013351678777e-04,-2.743390680965294634e-03,4.344891011714935303e-02
3.372870751280804824e-01,2.926578737264954322e-01,2.972624497151469813e-01,-3.303738732504903595e-03,-2.387724053947147887e-03,-2.624028019617528559e-03,4.333559051156044006e-02
3.707227060253244777e-01,3.746411290305770581e-01,2.526706446339499479e-01,5.453422649213678780e-03,-1.525332467736824349e-02,1.181556482275801859e-02,1.249810159206390381e-01
3.593412893647782713e-01,3.575807986486327361e-01,2.392848888843277511e-01,-4.506852724469542076e-03,-1.658310569719504551e-02,-6.930960760923737980e-03,1.234314739704132080e-01
3.627492908158254092e-01,3.263279434467697970e-01,2.858199341495800683e-01,-1.232122059812938014e-03,1.156659669487107448e-03,-7.781705624683152300e-03,6.806616485118865967e-02
2.746695978408517091e-01,3.158847121468625896e-01,3.241763532304982043e-01,-4.823746722541725519e-03,-9.411266021341773563e-03,-1.116048766004920645e-02,5.308831110596656799e-02
3.659934608000683376e-01,3.599377031546693306e-01,2.357937988513782723e-01,1.071270102412882549e-02,-4.865992296180777360e-02,2.759542007424728785e-02,1.610352098941802979e-01
4.275079835663183614e-01,3.897518355005762936e-01,2.444333883333439372e-01,1.086380229615605160e-02,1.606651894225612914e-02,1.898990886951539003e-02,1.738964021205902100e-01
3.762247331702469055e-01,4.195921874716415645e-01,3.025103934121061156e-01,3.189319665978238016e-02,-6.337937184058017870e-02,4.475494223270921890e-02,1.778277754783630371e-01
2.701270194747530939e-01,2.169440437500751440e-01,1.390701930305935918e-01,-5.778395681678731577e-02,-8.309395665304383782e-02,-1.279116100783340704e-01,3.047117292881011963e-01
3.431831761894553745e-01,2.986548824960228998e-01,2.954832339938641139e-01,-3.000060766342675222e-04,-1.193578530315044959e-03,-4.134271752062506147e-03,4.679612070322036743e-02
3.100190917885484732e-01,2.973551038140209157e-01,3.028815636673469203e-01,-2.271191374755876166e-03,-4.775712076010274129e-03,-3.250532233487095964e-03,1.537941489368677139e-02
3.714479876600831343e-01,3.362957436830407154e-01,3.475667463640388921e-01,3.157513048837237019e-02,-2.210730661749481935e-02,4.079773058621179171e-02,1.020639240741729736e-01
3.446657944610744817e-01,3.461085731717101766e-01,2.705568148501908410e-01,-6.297209795691966101e-03,-4.666497502491305863e-03,-4.208473356154046260e-03,7.641054689884185791e-02
3.145410006751481746e-01,2.849222250672056034e-01,3.143075570889250492e-01,-3.706536075230299279e-03,-1.171588242641161647e-02,-4.750062974683523336e-03,3.729748353362083435e-02
3.261156060938976697e-01,3.457916034671419392e-01,2.789752514238096892e-01,1.504990793651058735e-02,-1.777127337920067843e-02,2.187893923390478446e-02,8.123982697725296021e-02
3.466850981030987766e-01,3.436365403986745837e-01,2.822579950560442086e-01,2.056733582703977603e-02,-5.829844721218807591e-02,4.072875727589179984e-02,1.428474783897399902e-01
2.383462365908722846e-01,3.559968042394461296e-01,3.385962247111319323e-01,2.870499581735120459e-04,-8.703006009649013469e-03,1.261900621310621268e-03,1.110382825136184692e-01
2.788845230166020484e-01,2.895783322733370690e-01,2.532300919705535169e-01,3.714455601850832900e-02,-4.704225058674162130e-02,4.091413784887833194e-02,1.297953128814697266e-01
3.575667059966186057e-01,3.296528100752994517e-01,3.326208045002853608e-01,5.819776527018524770e-03,-4.562102619701398874e-03,1.367261725828849278e-02,3.781554475426673889e-02
3.564375368859972748e-01,7.538566133677482295e-02,3.231768124256042540e-01,-3.203829339425829509e-02,-1.064241442579073882e-02,-8.649315642191873765e-02,3.108227550983428955e-01
3.498882621762149370e-01,3.147589936439700309e-01,2.663112329967528003e-01,1.185083508841458695e-02,-2.790874654402058369e-02,4.857734437800538541e-02,1.229653656482696533e-01
2.617279532055127866e-01,3.374383683300311576e-01,3.424887179402812398e-01,-6.060984354420870419e-03,-6.371613219849672251e-03,-8.055680086894070890e-03,8.103466778993606567e-02
3.274747790055660412e-01,3.034782941720471916e-01,3.112515629169074760e-01,1.426821793152805058e-02,-1.230811840421143673e-02,1.808767556366609047e-02,4.996430128812789917e-02
3.380477742487521531e-01,3.511234708818645189e-01,2.455241170551136498e-01,-4.717525470041459071e-03,-1.082426083553056015e-02,-6.889877172231049715e-03,1.024796664714813232e-01
2.953257824009541954e-01,3.603872910792084161e-01,2.978723608184620231e-01,1.654824576015472351e-02,-2.934003798787248804e-02,7.015136498272398977e-03,8.732401579618453979e-02
3.367735770127917028e-01,3.103448097708031428e-01,3.047003705678411611e-01,5.134871497745311167e-03,-7.677752751338582857e-03,8.908687430497943052e-03,3.706148266792297363e-02
3.313279105128588142e-01,3.310447036412312860e-01,2.731768448217522516e-01,-1.217459475989283828e-02,6.731412507073420565e-03,1.193052001292106527e-02,6.612690538167953491e-02
3.080942041157179734e-01,3.331636859992952449e-01,3.225598464995831915e-01,1.391938400082568320e-03,-1.796185697971410542e-03,3.759345822863085270e-03,2.308629266917705536e-02
2.993481367483075695e-01,3.372360766176857316e-01,2.711380143400216047e-01,4.851342754897586956e-03,-1.243436247321648078e-02,6.770270313272104545e-03,6.302449107170104980e-02
3.564925883694682329e-01,3.642065703609717597e-01,2.417899787955356816e-01,7.241442237512354246e-03,-8.987032983469755987e-03,4.149581588921282677e-03,1.206328347325325012e-01
4.433616220109046768e-01,5.216964694435155536e-01,2.123064450309489759e-01,4.239549302932321684e-02,1.087128951316934516e-01,6.139416808484287474e-02,3.602469563484191895e-01
3.788900084965101112e-01,3.717112691868437180e-01,2.593739693589835471e-01,-3.983444593661338018e-03,1.395700665831335445e-02,1.000140414263129586e-02,1.200405135750770569e-01
3.564387775014569715e-01,3.246787237144310168e-01,3.088912172637190978e-01,4.478377161206514682e-03,-1.424307968833878014e-03,2.937027346346781590e-03,4.302894696593284607e-02
3.663877445119140819e-01,3.238640768192808661e-01,3.405111639912314914e-01,4.063647148278282106e-02,-3.684722852674141708e-02,5.549889232314419996e-02,1.401606053113937378e-01
3.815201117043536261e-01,3.733022275493849684e-01,2.566752074433897302e-01,-1.429389891077308171e-03,1.010386534023237012e-02,1.751190350703570476e-03,1.222678050398826599e-01
3.806937767313159915e-01,3.691844360652675738e-01,1.006884071413335358e-01,-3.723956787811849578e-02,-8.891865632813386600e-02,-6.312922956308006373e-02,3.393355607986450195e-01
3.416644996005552826e-01,3.164397568769257152e-01,3.091375417635443545e-01,4.607341252353554760e-03,-1.432466994963235577e-03,4.461182365371314101e-03,3.167572617530822754e-02
3.761817011841114278e-01,3.775589936370665201e-01,2.490374957964712477e-01,8.720418471645282471e-03,8.147540016179385947e-03,9.279287390057635492e-04,1.295087933540344238e-01
4.065302516919207521e-01,3.705190860135743058e-01,6.936428864820876061e-02,4.892919763888947671e-03,-8.073194846083647791e-02,8.275570518988900615e-02,3.781616389751434326e-01
3.037853369821941207e-01,2.952681668144897520e-01,3.179576555748950817e-01,-3.247319838814678554e-03,-9.049246016965033917e-03,-3.321946723947484092e-03,2.654265798628330231e-02
3.025027769685572632e-01,3.066299523889945977e-01,3.031543689401126618e-01,-1.577386680758584986e-03,-2.058608653726801824e-03,-2.112400713746891839e-03,6.952242925763130188e-03
3.090262782937877040e-01,3.078487951527312805e-01,3.037602098018462593e-01,-1.716488963863103652e-03,-3.662060200509230498e-04,-5.213433541302530750e-04,5.742295645177364349e-03
3.060178819300390374e-01,3.054596186822300941e-01,3.049060692496125546e-01,-1.499247557622969060e-03,-4.837343630441475742e-04,-9.169946439791793044e-04,3.300752257928252220e-03
3.092974279499678958e-01,3.004241431484142022e-01,3.149242883964597506e-01,-2.390602845880731697e-03,-6.119561667329394793e-03,-2.955278082469642645e-03,1.777691021561622620e-02
3.404522694379024661e-01,3.544442726101729724e-01,2.475358297393654983e-01,-3.715288726295523907e-03,-1.069175195451478599e-02,-6.563376130990719245e-03,1.031644940376281738e-01
3.212034645801755683e-01,2.430020596770938179e-01,3.664471314795141321e-01,3.778357784564431721e-02,1.897009613543625128e-02,-3.325113000737547203e-02,1.427580863237380981e-01
3.383732151530254861e-01,3.220479770487232885e-01,2.815081307844280456e-01,-6.824036038165600358e-03,-4.694251990635023644e-03,-5.387333286611823910e-03,5.352285131812095642e-02
3.102554620663687257e-01,3.062885433723327444e-01,3.083112451060579517e-01,2.033342718984399626e-04,-1.731400092724127331e-03,-1.281336365339750096e-03,5.083956755697727203e-03
3.143770090094835101e-01,3.082486370899802375e-01,3.050504734507781812e-01,-9.795269341296699780e-04,-1.104027992284071363e-03,-9.676286326581549219e-04,8.759492076933383942e-03
3.106443752411692794e-01,3.018021152508796878e-01,3.016972645854906765e-01,-2.735687780562609007e-03,-1.089051717059393368e-03,-8.285278750845047682e-04,1.035341061651706696e-02
2.792622069386590522e-01,3.617545142411882075e-01,3.387147093142924281e-01,-2.281657224764714609e-02,-3.395531893028617965e-02,-1.496336332974125029e-02,1.054874062538146973e-01
3.458547735643017762e-01,3.768946128863286948e-01,2.806535354124500836e-01,-7.563711110882435917e-03,-3.122268856606737197e-02,-9.563260484442195203e-03,1.030003651976585388e-01
3.406039346984028882e-01,3.614236763561597399e-01,2.386947956433881635e-01,2.829176196863298319e-03,-9.449513960939657370e-03,9.906859238991222384e-05,1.150329411029815674e-01
3.262156643050510008e-01,3.277695796541799100e-01,2.952361949353587423e-01,-7.579087899940245565e-03,-3.799382363520287676e-03,-4.298565196854970544e-03,3.579592704772949219e-02
2.629345487171956264e-01,3.239791291389840788e-01,3.367890609117487055e-01,-1.029224034656423328e-02,-5.141093141443987824e-03,-9.876696787555375862e-03,7.322733849287033081e-02
3.217189206350983821e-01,2.754694245169296840e-01,3.574845989893671860e-01,-6.545406697890329868e-03,-1.988002862359180591e-03,-1.244602765951726125e-03,7.223139703273773193e-02
3.058695247368265480e-01,2.774999770098889873e-01,3.195248583544965659e-01,-4.629524588778976407e-03,-1.281340877440798054e-02,-7.550202784947319598e-03,4.589727148413658142e-02
2.847567702651394028e-01,3.080172326415355766e-01,3.019679503594785985e-01,-4.580699191034910689e-03,-6.264253140718715335e-03,-1.016750125523086662e-02,3.045880980789661407e-02
2.948387602848210332e-01,2.912063465106258797e-01,2.923045470443807470e-01,-7.705262800031213201e-03,-5.282621929570538097e-03,-7.072925980056497634e-03,2.055046707391738892e-02
3.138354543346684733e-01,3.204107914564132686e-01,3.109966325766072570e-01,-4.080420315835703478e-03,-2.705912556562110188e-03,-4.398539658848574577e-03,1.413920149207115173e-02
3.351344933206683585e-01,3.407833173167074126e-01,2.484561909596378071e-01,5.917031392186303078e-03,-7.255126089848295233e-03,2.401983412679468619e-03,9.118618816137313843e-02
2.107907094223580580e-01,3.039690182001129060e-01,2.639233718361773118e-01,-6.401572218787639212e-02,-1.179401871716816430e-01,-6.533608953827962917e-02,2.708958983421325684e-01
3.019240864948786740e-01,3.713830653309191931e-01,3.081580517368781580e-01,-4.889407734207227435e-02,-8.636903393999814660e-02,-5.147537414394249417e-02,2.047688215970993042e-01
2.709984331734688889e-01,4.036128676479895927e-01,4.127527838568468277e-01,-6.015264854435267011e-02,-5.473031055578817666e-02,-1.886674016646738145e-02,1.994776129722595215e-01
2.459800324343566214e-01,3.093851346400015023e-01,3.160729254280982836e-01,-3.561915631357291667e-02,-2.980237544149016635e-02,-2.012651191591550287e-02,1.103400215506553650e-01
2.893904866821038202e-01,3.387288909646921087e-01,2.941218030754061408e-01,-1.549621531668574992e-03,-3.849725475593327329e-03,-3.300877823705989939e-03,4.803728312253952026e-02
2.712704936600736083e-01,3.367265693811749006e-01,3.339307368489287664e-01,-6.824929789582141748e-02,-3.811404299509313365e-02,-3.099169895026464283e-02,1.591310948133468628e-01
2.450988831025961989e-01,4.817060785462838335e-01,3.977799386268610071e-01,-4.956062724294216237e-02,-1.401144763248960146e-01,-2.828386233775089312e-02,3.344157934188842773e-01
3.513328777593990870e-01,2.590937149372624648e-01,3.326084075706260967e-01,-4.679489781651986410e-03,1.773047871223171765e-03,1.762460451282830964e-02,9.021387994289398193e-02
3.333706009551390403e-01,3.048037346066366782e-01,3.296467557850217833e-01,2.639429365363747497e-03,-7.173429201804649644e-03,3.076446493215973313e-03,3.045031800866127014e-02
3.409440986956302488e-01,1.833367635739678314e-01,3.434062995674291296e-01,2.999430532516225972e-03,7.289390385614818481e-03,1.923775030278868786e-02,1.628829687833786011e-01
3.374332846174832312e-01,3.009378320514063954e-01,3.057791892141523138e-01,4.434667907571854251e-03,4.742872259604902219e-03,-6.736856399265272154e-03,3.796456754207611084e-02
3.759349630390080854e-01,2.757373869687876344e-01,2.886613042340185342e-01,-7.960780542126264653e-03,5.891412847999142645e-03,4.319274571781359096e-02,1.216664463281631470e-01
3.307771408811424618e-01,3.064800893696998374e-01,2.775196141652164217e-01,5.055474170416580926e-03,-4.335199491361897001e-03,1.136362418988664733e-02,5.150884389877319336e-02
3.485881652599973624e-01,2.857494890380807284e-01,3.191972861330883426e-01,1.083864487369167948e-03,-1.926572210871927001e-03,8.597024536638513126e-03,5.658643692731857300e-02
3.368517650078980408e-01,3.183109888409580424e-01,2.958555715619133331e-01,6.031143937493963630e-03,-1.618849103488982687e-03,3.817930168474390883e-03,3.775000572204589844e-02
3.490551934773838405e-01,2.774016482778282611e-01,3.068434955076369541e-01,-2.582326779942729564e-03,-2.377651292639702666e-04,1.494687049379385228e-02,6.768930703401565552e-02
3.600467402086767743e-01,2.854581613196032208e-01,3.324289721161171052e-01,-2.416374937779848346e-03,2.246584880661990635e-03,7.959772303905057744e-03,6.699969619512557983e-02
3.197392925038731737e-01,3.090132646774276237e-01,3.159243813396026557e-01,2.468845811554073837e-03,3.473275051482738272e-03,-2.784048729415569516e-03,1.290006469935178757e-02
2.828644243679613313e-01,2.907944345237103434e-01,3.539125594358802362e-01,6.882780936788336634e-02,-3.397911625013465275e-02,3.635109495517122036e-02,1.618241667747497559e-01
3.417910234254718516e-01,3.145734945317810172e-01,3.113908365630069230e-01,2.632386154138712658e-03,-8.551177184521044144e-04,1.169651309824755328e-03,2.940465323626995087e-02
3.228465442692141640e-01,3.128374471401283996e-01,3.417358293010817061e-01,2.353574728029077766e-03,-5.156803520611935240e-03,1.740564560391496662e-03,2.741416171193122864e-02
3.256943000691457368e-01,3.169409782020988220e-01,3.214108428355279545e-01,6.103913789361376267e-04,-1.736573305219715323e-03,-2.254892519981676490e-05,8.224383927881717682e-03
3.366886848182308323e-01,2.897070380559000902e-01,2.931137435663359048e-01,1.943025193259590973e-03,3.409450316293292406e-03,-7.104923793460784023e-03,4.750228300690650940e-02
3.111765790956866895e-01,3.001724329109285994e-01,3.327629105394558362e-01,4.293077099545594688e-02,-2.362903861108274148e-02,2.205502506993950451e-02,9.740646928548812866e-02
3.228773954837843019e-01,3.161455772506929218e-01,2.986941635331906153e-01,7.076839953789357957e-03,-3.432727751884034201e-03,5.914233157943182481e-03,2.752960659563541412e-02
3.039072318712478515e-01,3.191095634270718628e-01,3.059867206110234439e-01,2.022570134205582855e-03,-4.014494842311728574e-03,3.993189944126955722e-03,1.767143607139587402e-02
3.043335308497838176e-01,3.297540613470024695e-01,3.148058348043809573e-01,1.324847126605434126e-03,-2.858968690905814257e-03,5.658717533886332453e-03,2.480949461460113525e-02
3.431569694205257037e-01,3.251738070289789673e-01,3.115762756016210999e-01,8.213354762958906957e-03,-7.145180473623889347e-03,8.476527258720636254e-03,3.638552501797676086e-02
3.098812007414243896e-01,3.593723118115421666e-01,3.296051733444317899e-01,5.422488142771197256e-03,-1.829641602723148380e-02,9.837005304725802979e-03,5.696516856551170349e-02
4.041121616604632649e-01,3.864238510717933894e-01,2.130666753821560677e-01,3.368836549660570584e-02,2.171054362074237298e-02,-7.810122516507889134e-02,2.378027439117431641e-01
3.223877531687020515e-01,3.117407423446140746e-01,2.956741624920384282e-01,-5.339671236370756129e-03,-1.859364109160185951e-03,-3.291371888843505709e-03,2.590293809771537781e-02
3.466026812634314669e-01,3.409565681165421247e-01,2.795121319916139546e-01,-7.820434977821878395e-03,5.209578847849515720e-03,1.171576771014172513e-02,6.950463354587554932e-02
2.906148766107135573e-01,3.199548112948943923e-01,3.023390678964726908e-01,-2.381196609757140099e-03,-2.818171185700453669e-03,-6.380593271935020884e-03,2.858800254762172699e-02
3.391094419296418749e-01,3.007864728062130122e-01,2.673904025586463229e-01,8.772462439197898504e-03,6.158173002469620287e-03,-1.266761872388392010e-02,6.848231703042984009e-02
2.752000923947331978e-01,3.319319070197292998e-01,1.215111588262445946e-01,1.500608201988918970e-02,8.130289189169975783e-02,-1.108564431519343946e-02,2.375553399324417114e-01
3.907514887696688644e-01,3.996906283938920779e-01,2.585865436906901182e-01,1.352295745224779168e-02,1.379792564295745372e-02,-1.826733345893781502e-02,1.443944871425628662e-01
2.912298436328419893e-01,3.425184227682001037e-01,3.041640300876993774e-01,-2.535561882899892497e-03,-3.714178827311994790e-03,-1.549791476395641701e-03,4.692881554365158081e-02
3.463635822201964198e-01,3.811529039038669686e-01,2.355730362547560630e-01,1.179730934413162138e-02,3.661252488236592384e-02,6.281428042433423453e-03,1.479746550321578979e-01
3.727659773312501090e-01,3.682597494229314927e-01,2.576484620482100141e-01,3.024041501300386934e-03,6.894988277674639690e-03,-9.505595828940850353e-03,1.148683130741119385e-01
3.532634045568635583e-01,3.132273149087358988e-01,2.972420081351559440e-01,2.141676202618168247e-03,1.142187238368911218e-03,-2.873599474542128367e-03,5.040688812732696533e-02
3.033576667258384707e-01,3.358737773914159397e-01,3.344969261830075258e-01,2.381103227053437549e-03,-3.501957741253921945e-03,6.975470407190854059e-03,3.484530001878738403e-02
3.690276686704874742e-01,3.656524891300101943e-01,2.488627803648041648e-01,3.781681400870845478e-03,2.828458896456726400e-03,-1.227147164396450232e-02,1.206817477941513062e-01
3.196899254206440055e-01,3.325917799624773519e-01,2.744356488313813847e-01,-7.755522809059736677e-03,-6.737108663411662743e-03,-4.575492018340036535e-03,5.637097731232643127e-02
3.001334888600415418e-01,3.222227852325824649e-01,2.981869759625875860e-01,-1.116949177021342356e-03,-2.315083960427430680e-04,-1.457575947885821283e-03,2.334523759782314301e-02
3.692509518101704802e-01,3.806522806403841996e-01,1.072444393388464756e-01,1.324295900381347590e-02,5.566973590135095712e-02,4.684236966628602290e-03,2.857515215873718262e-01
4.247964589397120738e-01,4.270675989456193533e-01,2.482430829116323567e-01,1.803515945869362761e-03,-5.886643686902184869e-03,-3.070610489585539477e-02,1.857943534851074219e-01
6.031394700159140032e-02,3.072672732374766014e-01,2.832182538840303243e-01,8.814143324434331461e-02,-9.077331149656119036e-02,4.425320827404946589e-02,3.309478461742401123e-01
2.622362239350715107e-01,3.572671218618798661e-01,3.401003093850304970e-01,8.924388057975473493e-03,-2.756490703994906102e-02,4.531395659955052974e-03,1.013617292046546936e-01
3.457038680303425315e-01,3.534571586579145497e-01,2.132147639022611285e-01,9.760240157314955655e-04,-7.391309821951579269e-03,4.895624702203515066e-04,1.371428966522216797e-01
3.607818566006900651e-01,1.390129387165554842e-01,3.574482300571317772e-01,-5.350341699247974925e-02,1.814365250102058583e-02,5.913107785703360098e-02,2.617597281932830811e-01
3.101992469237643268e-01,3.356379908683121971e-01,2.932235775825992041e-01,-5.283525450720286468e-03,-3.746662216203507350e-03,-1.943413628288501909e-03,3.878572955727577209e-02
3.750223217449416002e-01,2.491587320119962590e-01,3.807018348092702231e-01,2.481510591543398606e-02,1.399285463834482870e-03,-3.351889914117730119e-03,1.359253227710723877e-01
1.454027586421542395e-01,2.625908358140335297e-01,3.030120550506630872e-01,1.043055470034482263e-01,-9.467038729260217333e-02,4.953676516225395676e-02,2.949438393115997314e-01
3.121528597072740219e-01,3.456280955471499605e-01,2.406031450973113717e-01,-4.182116248199534104e-04,-2.064992553327452476e-02,-1.124903299608849029e-03,9.959255158901214600e-02
3.468481215662703177e-01,3.385141453571718917e-01,3.061515762630827031e-01,7.322142584782463139e-03,-1.768417185608457849e-03,3.169805460580665118e-03,3.983548656105995178e-02
2.651010794504984336e-01,3.399069798852811242e-01,2.867884690588922703e-01,-2.030006364735033667e-02,-3.570442959286472540e-02,-2.285087266906040901e-02,1.052193194627761841e-01
3.576868521288688041e-01,2.322680646368299462e-01,3.599762826115360248e-01,-4.768636760562272592e-03,7.271613585355750538e-03,8.533765302258123492e-03,1.283260583877563477e-01
3.449796269084255407e-01,3.049107637903930024e-01,2.916184969996439280e-01,-6.755339776498684758e-04,3.459367532024820767e-04,-3.655260531346071328e-03,4.854498058557510376e-02
3.335002247009331011e-01,2.962828019186040662e-01,3.459239080485626561e-01,5.263225119905559288e-03,-4.147984634544793839e-03,3.730838177518129312e-03,4.667270556092262268e-02
3.419550588175056527e-01,2.986112466668961463e-01,2.884720900212248695e-01,1.116623451788719031e-03,2.155033317789013900e-04,-3.549897468989339760e-03,4.962502792477607727e-02
3.257131708598733355e-01,3.131144642908276765e-01,3.165956614150081672e-01,9.069246572651366639e-04,-1.715578067497897834e-03,7.414337898224900719e-04,1.182936597615480423e-02
3.351116096042177084e-01,3.148493185518083659e-01,3.248166023664018076e-01,1.842574950131624671e-03,-5.676567752156474675e-03,1.238919765467311499e-03,2.047944068908691406e-02
3.472258034038235852e-01,2.416180466206376276e-01,3.603015013299466496e-01,-1.397311555836484170e-02,6.437032343940994258e-03,1.065860684341937009e-02,1.172848492860794067e-01
3.446425098679350429e-01,2.303428798031984526e-01,3.597967989230175245e-01,-5.771961120203440709e-02,2.282523097307496973e-03,1.019629020255833664e-02,1.592117100954055786e-01
3.979561945276056667e-01,2.283434402791932327e-01,4.107916476934254657e-01,-5.817733461875199130e-02,-9.371320462946196393e-05,-1.626397170863147501e-02,2.050796747207641602e-01
3.187353884543510651e-01,3.243262214157259238e-01,3.257332026289466720e-01,6.332131109262036442e-04,-9.792630017754961648e-04,2.943386954220554227e-03,8.436440490186214447e-03
3.229637945117423414e-01,1.755549306133635801e-01,3.455000982173429547e-01,-3.981532665132173077e-02,-2.691692538683353002e-03,-1.775638061898969413e-03,1.742018461227416992e-01
4.075927844322909666e-01,2.428296368422796225e-01,4.261495083209801971e-01,-5.544524810336967646e-02,-6.376443662493287527e-04,-2.612571078223532503e-02,2.044996768236160278e-01
3.871970452748546565e-01,3.711717932964186950e-01,2.251702167047410219e-01,1.074982044994209768e-02,2.632328560772874068e-02,2.760568147436102959e-02,1.691881269216537476e-01
3.186776746740711541e-01,3.213935520387347644e-01,3.164464709461092262e-01,3.119928577947956531e-03,-8.680676443066000789e-04,1.446552185551503887e-03,7.493594661355018616e-03
3.338926675427099644e-01,3.205863719132800993e-01,3.084735848738705544e-01,4.789890003282348124e-03,-2.009147031306726932e-03,1.989714201648507853e-03,2.403683587908744812e-02
3.897414375032118850e-01,3.855771924777878779e-01,2.295636177686831148e-01,7.280585502765124679e-03,3.144216082882523352e-03,3.566550712250668095e-03,1.588524281978607178e-01
3.239155058919183094e-01,3.107116150432064905e-01,3.173009184438577712e-01,2.405169790422601907e-03,-3.559539248770432658e-03,1.522955208742128065e-03,1.389535423368215561e-02
3.520431505688284002e-01,3.026346973603395996e-01,3.017458276179041388e-01,-1.653267103323391440e-03,-2.029530095223787065e-03,1.929352569378379664e-02,6.019286066293716431e-02
3.553270210515682148e-01,3.402812288447262801e-01,2.589129214349969454e-01,5.093555767142311091e-03,-1.421546793253935289e-03,1.625560723960296772e-02,9.459417313337326050e-02
3.484026272811930891e-01,3.154819846405453876e-01,2.918268265273497586e-01,-3.956194460393304109e-04,2.203354851609820239e-03,1.736104945789900683e-02,5.780424177646636963e-02
3.192279660433109956e-01,3.138901461394734138e-01,3.144125951292388033e-01,2.499759653910766950e-03,-1.517366271615279340e-03,1.953650733259213682e-03,7.942316122353076935e-03
4.059357135512571824e-01,3.637208471907078522e-01,2.859965936157893296e-01,7.207996443350850324e-03,2.135648098431217057e-02,3.383240591727852686e-02,1.267372518777847290e-01
2.977240214886042180e-01,3.419594076104707780e-01,3.043807600603258279e-01,-9.729830984946964342e-03,-2.147691754351035293e-02,-9.716177584535058698e-03,6.047820672392845154e-02
3.388863445939789831e-01,2.855455272520728283e-01,2.904154323272295501e-01,-3.293666892525557908e-04,-7.381928538466033755e-04,-5.570531345405698928e-03,5.200237408280372620e-02
4.017880003557245949e-01,3.516865214420339392e-01,3.039398607965923538e-01,-4.801065979422517588e-02,6.818741517847323741e-02,1.192061051669844607e-01,2.658495903015136719e-01
3.235135207367294541e-01,1.966886983713692083e-01,1.276558679461750612e-01,-3.649433386839206605e-03,1.170705971490225601e-02,1.484180262854888355e-01,3.100644946098327637e-01
2.668912039102827038e-01,3.273167476471222637e-01,3.399318712951028276e-01,5.108484642686594857e-03,-1.256625665493398339e-02,8.008653798663611934e-03,7.291845977306365967e-02
3.115355206679728539e-01,2.980390304708355753e-01,2.965597987184978579e-01,-6.082777783410578745e-03,-1.818124302128231460e-03,-2.795878934260549037e-03,1.867286488413810730e-02
2.968050808160662135e-01,3.134395020001158327e-01,3.071186036765803928e-01,-2.144018034822537788e-03,-2.702141755169978551e-03,-7.215370280675758273e-03,2.008464746177196503e-02
2.768820364710204984e-01,2.986173143599311075e-01,3.193559632239443835e-01,-2.168271893861328792e-02,-1.648634753094067873e-02,-1.708961281473049890e-02,6.674772500991821289e-02
3.040920568091488030e-01,3.257113554827584245e-01,3.066299409911303897e-01,-1.128616045250366642e-03,-3.929698639931655975e-04,-3.500713920007831118e-03,2.144801244139671326e-02
3.251214177944833361e-01,2.275074225755649715e-01,1.257803875868938048e-01,-3.441307955423555942e-02,-7.097222619404244814e-02,-1.392575423531946521e-01,3.265712857246398926e-01
3.057654536169148729e-01,3.176358645197012720e-01,3.344872634942464007e-01,-1.224298207310573969e-02,-1.134129423369361483e-02,-1.065727226795335977e-02,4.244041070342063904e-02
3.058868708551722992e-01,2.928811106464205283e-01,3.268318808837928358e-01,-2.251780897066127211e-03,-8.063569748483601085e-03,-2.188811864370965570e-03,3.323998674750328064e-02
3.030306946584214733e-01,2.369554514913654875e-01,2.803963214201401488e-01,-4.960079980622317253e-02,-3.979130642933566275e-02,-5.837414055864448975e-02,1.604246348142623901e-01
3.154341635998531568e-01,2.511503900727701244e-01,3.338938781381401988e-01,-1.416290833384342696e-02,-1.156313899151100409e-02,-5.865076285968948491e-03,8.225511759519577026e-02
3.112924343789768011e-01,2.562596777124490632e-01,3.136771659044054195e-01,-1.171886369644611209e-02,-1.244950036863053631e-02,-1.090252068686001739e-02,6.632563471794128418e-02
2.994770343005488389e-01,2.750266990566622161e-01,3.292820463795574359e-01,-7.965585589728260002e-03,-8.289798222535182254e-03,-4.218825962646017419e-03,5.162179470062255859e-02
3.005417865056080329e-01,3.316777532658198302e-01,3.028057641967906721e-01,-4.629196167070682294e-03,-5.531242957698152135e-03,-5.862743064763110794e-03,3.410675004124641418e-02
2.969646708940638091e-01,2.669333160392678428e-01,3.318015267827253978e-01,-9.684725017402882885e-03,-8.873372244081693255e-03,-6.991476843859222023e-03,6.185403093695640564e-02
3.084498269619357913e-01,3.108580922001943914e-01,3.355450432165489882e-01,9.694283475050011201e-03,6.492932132307653419e-03,-8.729351358695805474e-03,3.621760010719299316e-02
3.065875430321923223e-01,3.055211058208705532e-01,3.068559407841314202e-01,-5.512743449192741667e-04,-1.149629313467908200e-03,-7.034008835185587370e-04,2.802949631586670876e-03
7.092829724746779751e-02,3.610277181623664511e-01,3.707300120203926852e-01,4.573015533651125612e-03,1.320987849084994011e-02,1.622618990126367677e-02,2.973929047584533691e-01
3.117626345456624981e-01,3.374591721923716481e-01,2.816602544080319959e-01,6.328818605862088741e-03,-5.129856012148307880e-03,1.924693292322949591e-03,5.049964040517807007e-02
1.148075008267941122e-01,2.892547157455970797e-01,3.156049022441200780e-01,7.313379598132559167e-02,7.068129353596594444e-02,-1.209567340453904238e-02,2.592199742794036865e-01
3.098296618924599732e-01,3.669662603867777095e-01,3.923235789030251608e-01,2.616982345416408659e-02,-3.220002263683622266e-03,1.002254584809623636e-02,8.799690008163452148e-02
3.255967369431271852e-01,3.358894269554002499e-01,3.846035455305290562e-01,2.358111160107903559e-02,4.747562019488902121e-03,3.420402926512571429e-03,6.892986595630645752e-02
3.062829384363240370e-01,3.072305314925203867e-01,3.039458329519567070e-01,-1.517395476484777574e-03,-4.988262847381145539e-04,-9.340199219373915718e-04,4.341169260442256927e-03
2.405359583607184493e-01,3.525287361372273498e-01,3.588238030352356445e-01,7.029123259770235672e-03,-4.342340308070596032e-03,-6.419847676518971929e-04,1.161595508456230164e-01
2.936147487766979647e-01,3.407289463766353665e-01,2.961940838571855972e-01,-2.023035779035770748e-04,-2.000081000317796912e-03,-9.623098895035626628e-04,4.604106023907661438e-02
2.918079379303519238e-01,3.477990358636524060e-01,3.578964060949851311e-01,1.254660754556878241e-02,8.848661324216595264e-03,-5.312091888784088549e-03,6.777998059988021851e-02
3.997354563077260003e-01,3.373254716234030393e-01,4.163683982283190588e-01,6.915674477204351855e-02,4.194785888261018392e-02,-3.607318163283713963e-02,1.695298850536346436e-01
2.982625334410614060e-01,3.057653885225376511e-01,3.230330516084115589e-01,-2.364247370378723227e-03,-1.451908543150302964e-03,-6.910098632656357792e-03,2.550222165882587433e-02
2.655173346493476805e-01,3.521468884921797882e-01,3.186333958641474062e-01,-1.144198864557002701e-04,-6.905984521699617962e-03,1.569609095787235804e-03,7.664909213781356812e-02
3.813116320817442895e-01,3.796934353947885032e-01,3.838006312020822430e-01,5.020605787048983137e-02,-3.106247537093561120e-02,5.089705404723469939e-02,1.350590586662292480e-01
2.729677911439998828e-01,3.490290931093095739e-01,2.963543871262887541e-01,1.864082354596409289e-03,-1.718121423848117599e-02,-5.964760426947701526e-03,7.453979551792144775e-02
2.621679222675451504e-01,3.540182537054589740e-01,3.305890710794734955e-01,8.260378740472518883e-03,-1.422995695508469903e-02,6.669876514631502273e-03,8.819903433322906494e-02
2.522362607513404242e-01,3.673983828636550597e-01,3.631061062921022708e-01,4.183821425436389137e-03,-6.368323730198760350e-03,1.034065084007656544e-02,1.152449473738670349e-01
2.976530441151109541e-01,3.396040975176993215e-01,3.618045773487395533e-01,1.768981244841730249e-02,-7.147346482421722529e-04,4.832344153882553103e-03,6.476466357707977295e-02
2.920466552413299999e-01,3.046343011623168229e-01,3.258909035228512163e-01,-3.194181194721884814e-03,-6.160402304896895644e-03,-8.772298324338454953e-03,3.540031611919403076e-02
3.215859074097773274e-01,3.322593949522424928e-01,3.085264692971030343e-01,5.879359724675509505e-03,-2.073047200620169086e-03,9.827852139823816356e-04,2.330992929637432098e-02
3.207014246558178572e-01,3.005975814384035383e-01,3.512540888827699326e-01,1.339883988298173033e-02,3.487417480971148794e-03,-3.368316995735084335e-03,5.060598254203796387e-02
2.689894618722722397e-01,2.117764663265430392e-01,3.373167790014691692e-01,-5.741064393942930250e-02,-2.034255443752122638e-02,-1.804707015356127667e-02,1.547826081514358521e-01
3.291898035081883278e-01,3.159940091071120061e-01,3.164976182757872625e-01,3.565750193944112849e-03,-4.890302258264029971e-03,3.887917193753244634e-03,1.797146908938884735e-02
3.629845419227243908e-01,3.597087206087380418e-01,2.834136349353362783e-01,-1.540525427547823241e-02,-2.404710774109166532e-02,-2.409981489499401705e-02,1.013447567820549011e-01
3.189504376181821477e-01,3.187475136414853472e-01,3.220192097190580083e-01,2.217913205091742376e-03,-2.117311538306198854e-03,2.063942235689330933e-03,7.146137766540050507e-03
3.193313528192591733e-01,3.177496166777639131e-01,3.198257360941913485e-01,3.279576301156172675e-04,1.703732711306461768e-04,2.323414060635833965e-04,2.024841960519552231e-03
3.508999697594660239e-01,3.469681682359518349e-01,2.447375440826951021e-01,-1.226000692416634799e-02,-2.411191678476690484e-02,-2.425804905251682450e-02,1.217741593718528748e-01
3.137751785397279725e-01,3.203870517247558447e-01,2.381012069812504517e-01,-1.506538623527726647e-02,-1.604683834529588293e-02,-1.431481357589358891e-02,9.131678938865661621e-02
3.571718280469081686e-01,3.367136485409384372e-01,2.911569283851554446e-01,-9.778920211181913943e-03,-2.524232153315473376e-02,-2.406504256972177153e-02,8.580061048269271851e-02
3.193072992416409739e-01,3.205625762814030555e-01,3.133134968481893767e-01,4.022078884980088455e-03,-2.264761392594323325e-04,6.466769124144838106e-04,9.745002724230289459e-03
3.185535977312248246e-01,3.177559412776040371e-01,3.188093898936750770e-01,4.304898623497781110e-04,-3.401466853588677947e-04,1.098928698394138846e-03,2.330604242160916328e-03
3.223550632763850787e-01,3.073945871880948144e-01,2.348182609414567468e-01,-1.428727883643386883e-02,-1.341061830690386085e-02,-1.372384628308690770e-02,9.107063710689544678e-02
1.629578881577776195e-01,2.123195814432633222e-01,2.863332902460477003e-01,-1.376716114876485597e-01,-8.471703729885429746e-02,-7.889332302424220678e-02,3.295934796333312988e-01
2.940445827248162614e-01,2.937473869012503513e-01,3.246383598335245146e-01,-7.807887271879828013e-03,-8.046409158538041229e-03,-6.522497736460602068e-03,3.807771205902099609e-02
2.958620714397496299e-01,3.554570459099897217e-01,3.042918438833985273e-01,-4.836416025527211920e-02,-5.397862122908526211e-02,-3.373123104480323792e-02,1.493050158023834229e-01
2.936278903027841336e-01,3.371329095978513601e-01,3.657891661939707828e-01,-8.513651126464830132e-02,-5.801709079083262194e-02,-4.588103043837001016e-02,2.052276581525802612e-01
3.360477949744486992e-01,2.863857029347376959e-01,2.838752533663830846e-01,2.475733438962160818e-03,-1.870287665825412374e-03,1.838835150318892178e-02,6.033718585968017578e-02
3.003961040474405486e-01,2.638836532022277304e-01,3.408077755416569765e-01,3.327123006293584984e-02,-1.689746089155236969e-02,2.038802904818860090e-02,9.932927042245864868e-02
2.976631957226311687e-01,3.202322223258641798e-01,2.959099902653747893e-01,-3.102732829583084058e-03,-1.466100771785761080e-03,-1.660906133070333369e-03,2.440507896244525909e-02
3.050263755720861725e-01,3.125510241531505029e-01,3.026074945516539216e-01,-9.377742698076587963e-04,4.551182953133176522e-04,-1.264945423529357810e-03,9.419791400432586670e-03
2.656267958833971043e-01,3.480694934812130770e-01,4.152002955298573772e-01,-8.702238058154357359e-02,-2.175747044600644109e-02,-6.281778952151888598e-03,2.027190625667572021e-01
3.018309417083285817e-01,3.102963608120951067e-01,3.022748222826574516e-01,-2.779189679886516929e-03,-8.762005002083472294e-04,-1.716185526605908899e-03,1.011995319277048111e-02
4.975342295668204740e-01,2.423769464514915484e-01,4.758122820023987787e-01,8.436723340504551083e-02,4.511650009122883387e-02,5.832769338993767927e-02,3.125714659690856934e-01
3.110663859825046895e-01,3.434938960228822724e-01,2.881044471721954658e-01,-3.832093586317159278e-03,-4.830394333486516187e-03,-1.134262643940574071e-03,4.940956458449363708e-02
3.566229824021776573e-01,2.331570236873090618e-01,3.175536629882165784e-01,-8.473788980512363470e-03,3.791503138470037407e-03,2.739504815964281456e-02,1.202353164553642273e-01
3.432258364743876466e-01,3.118288825336031356e-01,2.811466291948405694e-01,4.269184067141837749e-03,-1.198151251325324865e-03,1.097977039157573345e-02,5.754258483648300171e-02
4.071260347126024470e-01,3.344441595755306418e-01,3.478994367796716114e-01,3.296843118039413656e-02,-4.617221144419174882e-03,5.566732657097905185e-02,1.307937502861022949e-01
3.391400345365165880e-01,2.660269191662717470e-01,3.232980590009525979e-01,1.480096098085570237e-02,-6.912298527505281523e-03,3.188481063631022627e-02,9.104233980178833008e-02
3.517428404643867523e-01,2.936933314044729570e-01,3.233451764624460378e-01,5.652322734359754852e-03,5.280112296367464641e-04,9.950237554040914506e-03,5.405003949999809265e-02
3.001675599224400415e-01,3.411212866981989111e-01,2.942648765035267289e-01,-1.266078512988005281e-03,-2.698224869009231263e-03,4.238346088531499663e-04,4.450814798474311829e-02
3.102657916351575507e-01,3.310682218737619475e-01,3.150072329839961882e-01,6.365629500512143702e-04,-2.201684886938520651e-03,4.886674811693643644e-04,1.931484229862689972e-02
3.554690869751833127e-01,3.574520678040423172e-01,2.936926733840994341e-01,7.707652850105392930e-03,-5.434609133623894903e-03,1.361569841124622357e-02,6.903440505266189575e-02
3.586156108122168784e-01,3.518035939182505012e-01,2.594913084616972121e-01,7.521731784352121697e-03,-2.052285340440833990e-03,3.853880762020189202e-03,9.707582741975784302e-02
3.452627927569058564e-01,3.255781475373155653e-01,2.675492555390396321e-01,1.451027096851757389e-02,-7.106999369479768090e-03,1.120488620570660697e-02,7.782632112503051758e-02
3.396819876117770920e-01,3.455204187473430166e-01,2.034506968614774036e-01,7.183284190647318095e-03,-2.314334424423074646e-02,1.287068958067960969e-02,1.471293121576309204e-01
3.165931594487610967e-01,3.365587643717029009e-01,2.896999707261865287e-01,-8.091677110466955272e-03,-1.177826414116826641e-02,-4.284871463424607708e-03,4.823376610875129700e-02
3.067387488462710587e-01,3.640528941368849636e-01,4.021857963188822382e-01,6.250082257421235576e-02,-3.666049023220197683e-02,3.329288747618176086e-02,1.612478345632553101e-01
3.097152189184072535e-01,3.386733743889959736e-01,2.888086047220189134e-01,-5.543824571221728052e-03,-3.983987198025677919e-03,-2.314253972516126280e-03,4.513273760676383972e-02
3.713952200116039104e-01,3.616506796931874823e-01,2.237002649412382915e-01,7.849529225984024083e-04,4.537649255061391995e-02,2.047930471614584774e-02,1.670528948307037354e-01
2.668649492979537907e-01,3.724424239778341694e-01,3.788899371495143553e-01,4.797174463364505675e-02,-5.201136763126917861e-02,1.089807873470530729e-02,1.650593876838684082e-01
3.108487294817167124e-01,3.414867806607149170e-01,2.384142929474803996e-01,-2.317042969814435416e-03,-2.017397103686634219e-02,-3.613923635083775721e-04,9.819446504116058350e-02
3.362789948955101638e-01,3.228828845985646789e-01,2.196018637897682313e-01,1.127390827296103834e-02,-2.003638046760271990e-02,2.213759720757995514e-02,1.236360818147659302e-01
3.071304147184232280e-01,2.982228336800828439e-01,3.424853929867334723e-01,1.426130074647170148e-02,5.291231307408172241e-03,-6.023834627889516902e-03,4.946970939636230469e-02
3.024773001019482321e-01,3.392499476860360019e-01,3.023127890855517585e-01,-2.409268409942711070e-04,-3.414788396144031916e-08,-6.206742661880250054e-05,3.685769811272621155e-02
3.270300390043167083e-01,2.737933611712015658e-01,3.565465190381096883e-01,6.238547099984452678e-03,-3.019032573785485540e-04,1.011592602073632771e-04,7.344241440296173096e-02
2.947058157614361185e-01,2.909665081141735721e-01,3.422558768847570598e-01,1.614586108935426451e-02,2.618348860789964858e-04,1.308067374289428658e-03,5.692275613546371460e-02
2.892708567002991171e-01,2.416225969086067404e-01,3.523728524507697690e-01,1.156216305659711896e-01,-2.617485832541609908e-02,4.797044379515580381e-02,2.415012717247009277e-01
3.244806362599998439e-01,2.578216816556885282e-01,3.729471008129397469e-01,4.914805225326589200e-02,2.271427547414106574e-02,3.895935588120329456e-03,1.373429298400878906e-01
3.342759777780496266e-01,3.095112664207999020e-01,3.040042597964757176e-01,4.545839852703869623e-03,2.814099181592557425e-03,-3.594162502213742085e-03,3.007495589554309845e-02
3.531397093038206036e-01,3.078500593214022474e-01,3.752443039719478013e-01,1.677134307807599117e-02,2.730768713523773223e-03,2.099867535638155411e-03,6.648539751768112183e-02
4.317643073445881496e-01,3.697476006953840932e-01,2.752512366179958314e-01,3.046336426880759396e-02,3.889502802292196804e-02,-7.245706967067036541e-02,2.042268067598342896e-01
3.056309970532388176e-01,3.359072328721197653e-01,3.211605438286212477e-01,1.475024567982183982e-02,1.785118026460975546e-02,-1.663309419323939081e-02,5.591353774070739746e-02
3.200026572760283905e-01,3.168622284464847061e-01,3.210444560730630892e-01,4.599205446795742312e-05,-5.815027932155199773e-04,-1.120650206140733470e-04,3.908681683242321014e-03
2.944452852622800321e-01,3.282541875055832170e-01,2.607395852457145002e-01,2.022369858365117429e-02,3.138099334348928154e-02,-1.954352211211173376e-02,9.351903945207595825e-02
2.586122581613821136e-01,3.530275238820953509e-01,3.518518625592522708e-01,3.723372825524135128e-03,4.490273741712262276e-03,-3.271474149914323053e-03,9.454528242349624634e-02
3.274068519220677542e-01,3.079233905607904331e-01,3.049382356103932934e-01,-5.382852201793630019e-03,4.676798743656005938e-03,6.683134390682297574e-03,2.707790769636631012e-02
2.167927848243273170e-01,3.873379249995821949e-01,3.781600315716595606e-01,1.012999660067400928e-02,1.040538488377300008e-01,1.103691201816444332e-02,2.464944869279861450e-01
3.030586200465757440e-01,3.016700348289347855e-01,3.165975722313721930e-01,-2.845670324036107639e-03,-4.693834442716421709e-03,-4.182999335161995992e-03,1.862561702728271484e-02
2.801655658847874153e-01,3.565555993361498310e-01,3.568310844374405488e-01,3.015725110980181558e-03,9.418797047668524963e-03,-4.389035720804785982e-03,7.878942042589187622e-02
3.142942440448885377e-01,2.854909577056194414e-01,2.575878079826958711e-01,1.374598092204759245e-02,1.491317815131457634e-02,-3.110635469599496231e-02,8.092464506626129150e-02
3.430748936624635204e-01,3.035177157050434893e-01,3.184766684404551906e-01,1.632882772924139836e-03,4.391113218745914051e-03,-3.048923888537543713e-03,3.592407330870628357e-02
3.725290280796910714e-01,2.261092219778990109e-01,3.797431780200035689e-01,2.028983007628933077e-02,1.400246811687569891e-02,-2.279912595713786544e-02,1.610271334648132324e-01
3.392226686306321626e-01,2.901127683998693252e-01,3.058061267995887400e-01,3.727140752558514599e-05,5.298306460396809241e-03,-5.176682779243326274e-03,4.529877379536628723e-02
3.070862912157373836e-01,2.782740503535248155e-01,3.536975557481125132e-01,-1.578313876821546557e-02,-2.838065991535692820e-03,-1.192078482532621343e-03,7.156451046466827393e-02
2.935076253031195792e-01,2.886429837602790816e-01,3.325935926076644678e-01,1.740833660734261018e-02,4.580016709163883988e-03,-4.754516328770997703e-03,5.273910611867904663e-02
2.951822751818781732e-01,3.294011697535644823e-01,3.000011601751017554e-01,-2.012785627940881159e-03,-4.112091312181810794e-03,-6.012759736689267213e-03,3.464966267347335815e-02
3.869798875441269326e-01,3.366956229423366809e-01,3.970729089639107867e-01,5.893195280189635760e-02,2.818193869241505597e-02,-2.543029619008008863e-02,1.337145715951919556e-01
2.996656476877216924e-01,2.135982457882654451e-01,3.717169322333815917e-01,1.038947503838931891e-01,5.723535681485457556e-03,3.330136155737913051e-02,2.336831837892532349e-01
5.961534575439114692e-01,4.376267517072282009e-01,2.794810587381267863e-01,4.382409985564043181e-02,3.223041838004840620e-02,-1.598159430938491943e-01,4.008896946907043457e-01
3.000923605251759052e-01,3.425961718980613524e-01,2.987008990136770237e-01,-4.322716610542946813e-03,-7.657074974382538889e-03,-3.892260083900573372e-03,4.631470143795013428e-02
3.166756347194488175e-01,3.064036132108315935e-01,2.872157240010855261e-01,-9.155193726686976924e-03,-3.144771217949292059e-03,-3.634613407642867458e-03,3.148873895406723022e-02
3.044788921602745169e-01,3.076785911383461691e-01,3.256766838177681533e-01,-8.493215324962568279e-04,-1.602999830184411367e-03,-3.126064654462860221e-03,2.075927704572677612e-02
3.381175296660613450e-01,3.006911578311350919e-01,2.686502492475494885e-01,-3.820814283406228674e-03,-9.644447734677215767e-04,-7.965631449967376654e-03,6.215680390596389771e-02
3.295662936414991973e-01,2.786969170489921876e-01,3.397065940070635448e-01,1.259630451880797142e-02,1.300559011100419632e-02,-1.519912149323044206e-02,6.987722218036651611e-02
2.956580781771658284e-01,3.441873112894375808e-01,2.988463161552559200e-01,1.145908415226831875e-04,-1.740434818958764640e-03,1.965444693536922446e-04,4.711444675922393799e-02
3.571140669192452988e-01,2.922352936927179456e-01,3.542162929333018129e-01,9.901809094505855530e-03,9.315968855365931722e-03,-1.474025603936819119e-02,7.236002385616302490e-02
3.129249226075122570e-01,3.097095149381031698e-01,3.474404427836239595e-01,1.710231127559648599e-03,-4.477947161779071285e-04,1.950573586872215526e-04,3.636113181710243225e-02
3.169621725413445668e-01,3.546223518105043881e-01,2.958270815153524746e-01,3.786276230171531018e-03,-3.654253583089780554e-03,1.720015307844341900e-03,5.246786028146743774e-02
3.367685050635761956e-01,2.978352596275092301e-01,3.609800784582891664e-01,4.489990095045174982e-03,6.408478487760463534e-03,-1.493907207175859198e-03,5.687718465924263000e-02
2.655343731625123826e-01,2.880821927306234098e-01,3.171945613317241341e-01,-2.666690107418117142e-02,1.043502467327939512e-02,1.135450933169878697e-02,6.970774382352828979e-02
4.073119485096273751e-01,2.722758453823329039e-01,3.133392430387613725e-01,1.712879309144544129e-02,-3.427937591485569896e-02,1.264453384795419244e-01,2.583536207675933838e-01
3.024329896169468124e-01,3.183029512193025212e-01,3.518207096734620176e-01,-1.384053625903104538e-02,-1.030070393753918477e-02,-9.038370415618588588e-03,5.518417060375213623e-02
3.205992702633206348e-01,2.459731879075648942e-01,3.503562118412408832e-01,-1.933057934888236795e-02,-1.085094090626802926e-02,-1.993730293414168811e-03,1.008034721016883850e-01
3.058766754300203394e-01,3.269991104310523422e-01,3.059334808551705809e-01,6.925649276392077495e-04,-1.237959808955626292e-03,2.722822151239175439e-03,2.175404503941535950e-02
3.163353891419506958e-01,2.584377220799882191e-01,3.485282407425249751e-01,-8.931687863496278607e-03,-5.450936833541072946e-03,-5.087910967551611922e-03,8.159984648227691650e-02
2.927669421401333794e-01,3.286285136924991801e-01,3.397553129206611344e-01,-4.064059238540319516e-03,5.233311163287198906e-03,9.789750887853169298e-03,4.720288515090942383e-02
3.042008811835248960e-01,2.778660072988299867e-01,3.166366543647595178e-01,-5.697881553887905286e-03,-1.075795661438057327e-02,-6.447953265508763604e-03,4.177314043045043945e-02
2.983248111882024212e-01,2.378038821583233209e-01,3.241477076918588551e-01,-1.761195998905654148e-02,-1.307030265850503067e-02,-9.452218906090022535e-03,8.719808608293533325e-02
2.993677305835951707e-01,3.417041936422585691e-01,2.941887319183296157e-01,-1.302322188668996513e-03,-2.369558219984986731e-03,1.256476646530735710e-04,4.539205506443977356e-02
3.004723023313821129e-01,2.857842551857759927e-01,2.964794991529720591e-01,-2.319600497317887700e-02,-2.290769759498029884e-02,-2.893284474716334084e-02,7.663429528474807739e-02
3.134664012095270125e-01,3.151655237294385681e-01,3.217189650397834222e-01,-3.540151191338656786e-03,-5.260916253079761171e-03,-5.783620011913103050e-03,1.667184010148048401e-02
2.976398586316413852e-01,2.661908081855576813e-01,3.456928181669031708e-01,-1.456855276109302565e-02,-4.564233886325408038e-03,-2.301882145336032158e-03,7.432678341865539551e-02
3.087447504433381562e-01,2.426910922160347428e-01,3.288056768064422375e-01,-1.549607365850069231e-02,-1.515817399869840224e-02,-1.108116942521393186e-02,8.870567381381988525e-02
3.251614717708324886e-01,3.140133835734472134e-01,3.177607244089052374e-01,4.555873840634045227e-03,-4.560400473199964499e-03,3.414722695540861261e-03,1.600585691630840302e-02
3.083534962993709772e-01,3.121706668829175024e-01,3.197968714044135963e-01,-1.907814135412021087e-03,-5.123076318566216654e-03,-6.437611956166940097e-03,1.777148991823196411e-02
3.144790992969475063e-01,2.976765909797514098e-01,2.982169587868689908e-01,-2.843822559198664994e-03,-6.021947585943912898e-03,-3.146855565793952106e-03,2.088775672018527985e-02
3.134943370253151507e-01,3.091997902652345309e-01,3.453396959307427072e-01,1.799651796864246232e-03,-7.036464075459207762e-04,6.281624837093196492e-05,3.435905650258064270e-02
3.139327221397037460e-01,3.116832549903931771e-01,3.484549068607996070e-01,8.756757810786555511e-04,5.474615947213461262e-04,-3.914072672419428509e-04,3.575132042169570923e-02
2.546924932594716862e-01,2.601747947715803977e-01,3.912523515667554186e-01,-8.031171164364886428e-02,5.501824486224949837e-03,1.875183838391195068e-02,1.960245072841644287e-01
3.026475335589027260e-01,3.307924548507670259e-01,2.763585236254219035e-01,3.602399456094011135e-03,-3.042055732748772789e-03,2.781990357388651469e-03,4.809431731700897217e-02
2.981086868322967987e-01,3.392833790043173203e-01,3.100394616558858063e-01,1.994147101403634555e-03,-4.705325188122597146e-03,5.241629190816084541e-03,3.882301971316337585e-02
2.548440625049996355e-01,3.299049927361656920e-01,3.095014786896929659e-01,-9.536295614963020365e-04,-6.101651375885963451e-03,5.462571619450574435e-03,6.872319430112838745e-02
2.933237782873871491e-01,3.388747352226645360e-01,2.884131293352902858e-01,1.672733419479880768e-03,-5.632546984097016110e-03,1.742804422754411697e-03,4.934948682785034180e-02
3.164135802056088909e-01,3.005500686131338250e-01,3.056201504873004571e-01,-2.063205536609211306e-03,-4.861820957751583974e-03,-2.468135825103678731e-03,1.728828623890876770e-02
3.098545953058899904e-01,2.998392069023275153e-01,3.032553373049160506e-01,-1.809283192354262798e-03,-4.375527111987699211e-03,-2.844157519992182061e-03,1.301107276231050491e-02
3.187376143345197477e-01,3.161242013156261854e-01,3.183289375759148498e-01,5.028031204697959401e-04,-3.575096071462070574e-04,1.119483374245631990e-03,3.290973138064146042e-03
2.974041213828685914e-01,3.155060114086292167e-01,3.039589338724459355e-01,-4.114833408049746802e-03,-1.923843685716999409e-04,-5.102290332332407030e-03,1.951912418007850647e-02
3.211343631564557155e-01,3.156524431601063774e-01,3.187048880652480487e-01,2.196248100382657518e-03,-2.577040651266782750e-03,1.821819253252738137e-03,8.184535428881645203e-03
3.176341812528462594e-01,3.160895477102499407e-01,3.239172178870365348e-01,-6.196983246322105600e-04,-7.753957374811443074e-04,6.118737024232197156e-04,7.459651213139295578e-03
3.218316319026706673e-01,3.179921048669746564e-01,3.254185073295663977e-01,-1.794738284519406353e-05,-1.729006640523915103e-03,7.128802775016158076e-04,7.202326320111751556e-03
3.108196695816344279e-01,3.069411822343411367e-01,3.044608314326581744e-01,-3.668462063948075939e-03,-5.043023466130664226e-03,-4.688215255945524240e-03,1.460896991193294525e-02
3.046455426472121641e-01,3.130060995808446322e-01,3.095532127811542744e-01,-5.863100828544657358e-04,-1.136380933951871772e-03,-5.518394080627582118e-03,1.221542712301015854e-02
3.724458923892057793e-01,2.503996934074648739e-01,3.741595474435373547e-01,5.570942398523697284e-03,6.963027111597881215e-03,1.852057584034882270e-02,1.279646456241607666e-01
3.849413287447724374e-01,1.853336361655277265e-01,3.365176218942631525e-01,-9.960144480150118218e-03,1.898043280609758299e-02,-7.390329204350881698e-02,2.242449969053268433e-01
3.577749102168688577e-01,2.159371660949218064e-01,3.419561555509044726e-01,-2.468655187060394673e-03,7.631144455249676793e-03,-2.707555970134500195e-02,1.432366073131561279e-01
3.863359099225126547e-01,1.850784817317157327e-01,2.530213937285873960e-01,5.566345414861832014e-02,1.655742318608399710e-02,-1.173537591756779880e-01,2.878892123699188232e-01
3.378599660439216001e-01,2.269870578753608870e-01,3.461885161537251454e-01,-3.024498867412247355e-02,-7.247074324500869802e-03,-2.832497578743511241e-02,1.363610178232192993e-01
3.155955307041414248e-01,3.161961049172721250e-01,3.408620746334801166e-01,8.151227789508812965e-03,-2.958095038145689727e-03,5.861177648959965160e-03,3.085811436176300049e-02
3.164289195996062842e-01,3.441054962771296633e-01,2.638371613012492345e-01,5.859585287692959299e-05,-6.850417468032799287e-03,-5.662420787774292454e-04,7.161845266819000244e-02
3.140651390199870607e-01,3.158391695390133647e-01,3.261999862049634880e-01,4.294177363268069855e-03,-3.903597102243058174e-03,4.295987082019630046e-03,1.689007692039012909e-02
3.160160218830688761e-01,3.153702716396069028e-01,3.260732620544740668e-01,5.369845123422373277e-04,-5.011361506574772782e-04,2.111186303753856408e-03,1.109276060014963150e-02
2.850802825195308254e-01,3.306059965147958857e-01,2.976631484384029136e-01,-5.398489302008924401e-04,-3.260870142347480939e-03,-6.921630994195826156e-03,4.283195361495018005e-02
2.976829036491541736e-01,3.143898815789731294e-01,3.172355898848902567e-01,3.986469328984269811e-03,-4.279024694835282389e-03,6.590455235296712073e-03,2.382588200271129608e-02
3.105053770800552670e-01,2.795086689689134096e-01,2.622320665273354945e-01,-2.383662103680983871e-02,-2.030808865710425140e-02,-2.727240166920565090e-02,8.347427845001220703e-02
3.217472493727560057e-01,3.228107327729037301e-01,3.534281328768056341e-01,8.186918010852294383e-03,-3.675374554903195357e-03,4.603403779312432997e-03,3.572524711489677429e-02
3.124477987824106906e-01,3.166818575238493083e-01,3.319680428163189201e-01,2.040897066666869791e-03,-1.692645906243403454e-03,4.385706712558834486e-03,1.987741328775882721e-02
3.209640651557325031e-01,3.419077832686683860e-01,2.862940147622787812e-01,5.687754673545362440e-03,-5.824273976959379318e-03,2.108030918559284945e-03,5.078307911753654480e-02
3.081041407292823830e-01,2.904372725477819550e-01,3.468122610478438506e-01,-4.984450198118390261e-03,-1.766341172811834769e-03,-1.815279437953997007e-03,5.087305605411529541e-02
3.484989170246757806e-01,3.141056269901635889e-01,3.120655043786106364e-01,2.426726193703336067e-03,-7.541717583306651977e-03,1.360702076407373749e-02,4.473230987787246704e-02
3.032563563419776731e-01,3.137785281461621389e-01,3.008249835747756618e-01,-7.405136542309584922e-03,-5.420936312946586511e-03,-7.910442483120602719e-03,2.413719333708286285e-02
3.620249920116881404e-01,3.392533860568966997e-01,2.947675871697446603e-01,5.082232497653984757e-03,-6.020963335086317904e-03,7.965331405935461434e-03,6.234683841466903687e-02
2.707979668083055902e-01,3.189808507022927619e-01,3.377665495141029539e-01,-5.816323054877543461e-03,-4.728719103822740487e-03,-9.052841277995962027e-03,6.319869309663772583e-02
3.588978283453626572e-01,3.610362194172617167e-01,1.988669843262259040e-01,1.953074410252087683e-03,1.415658766731476594e-02,1.053902743691943755e-02,1.640199273824691772e-01
3.493658151568064807e-01,3.326157672788812580e-01,2.874014492858369962e-01,8.686117084439308120e-03,-3.858254003380395120e-03,7.470854352579413445e-03,5.933536961674690247e-02
3.141634653480050443e-01,2.731524234633887493e-01,2.756916827795205527e-01,-1.245908910125073134e-02,-1.171926741877575041e-02,-1.633623843336695289e-02,5.711868405342102051e-02
2.963584601699514320e-01,3.530708203825084768e-01,3.088470841556453239e-01,-1.346295469076888834e-03,-3.619232552738280064e-03,-4.125448106848282268e-03,5.253370478749275208e-02
3.530801315367776416e-01,3.399280125575833145e-01,2.327166393271457856e-01,-1.629055147357579827e-03,1.530956827284779510e-03,2.637668116917755989e-02,1.232050880789756775e-01
3.443289767024039771e-01,3.581693733125149715e-01,2.447589088945769376e-01,1.377667928587252184e-02,-9.933148350059217008e-03,1.069927805835897347e-02,1.126617118716239929e-01
3.093502514203947951e-01,3.113052139881375968e-01,3.505620614768742982e-01,-6.099976489172293827e-03,4.466438327970449935e-03,2.497170308983197046e-03,4.256584867835044861e-02
2.944548753443396727e-01,4.221475493869218942e-01,4.489821366092571209e-01,-1.094171488540489207e-01,-1.111922124677962032e-01,-4.827286759295947027e-02,3.169390559196472168e-01
3.059971622908801425e-01,3.054525204253209503e-01,3.392095911582534429e-01,-6.233946658833024353e-03,4.816732708272883703e-03,3.658216682228947973e-03,3.671222552657127380e-02
3.247087149202542711e-01,1.887853355103325248e-01,1.918158790352454401e-01,7.229036755052654396e-04,1.762728265951882256e-02,1.218425329770178728e-01,2.520773112773895264e-01
3.679021553703608061e-01,2.182591779567124579e-01,4.055045306868733102e-01,-1.227436213191142877e-01,6.639376807628580290e-02,3.185941768928722551e-02,3.014985024929046631e-01
2.880022732830137544e-01,1.233750578849369534e-01,3.256617536291342430e-01,-9.384688299696247737e-02,3.421294738616292158e-02,5.972821324137976562e-02,2.745101153850555420e-01
3.410607624776083036e-01,2.844758717696925787e-01,3.641899115998815106e-01,-2.467293929302770417e-02,4.788834930218148662e-03,9.906508962474670776e-03,8.505906909704208374e-02
3.024046124438763972e-01,3.317687764047242971e-01,3.095215371255486403e-01,1.359260848751347355e-03,-4.265089076853877115e-03,5.247781916638670323e-03,2.909734658896923065e-02
3.190467680976489251e-01,3.048419481680787468e-01,3.392770722520719318e-01,2.039819481758279110e-03,-3.647908902643891543e-03,8.584877094983440907e-04,3.087110631167888641e-02
2.469866784305134177e-01,3.469196630671473880e-01,3.491695906650651993e-01,-3.400128926235947147e-02,-2.432031280697547967e-02,-9.413244927898956754e-03,1.253994703292846680e-01
2.372126622963811882e-01,1.450015678928572305e-01,3.288075723312656740e-01,-1.227259350445960850e-01,3.204332558055709990e-02,3.903083147595413915e-02,2.795962989330291748e-01
2.815489201933081831e-01,2.246081998711638716e-01,3.989251204586160005e-01,-1.710853022286373259e-01,-2.186650110203931536e-03,-1.657511492166793832e-02,3.351894915103912354e-01
3.183081406478136532e-01,3.244532172651481972e-01,3.195847638088537557e-01,6.108844091833620128e-03,-4.331909506314943203e-03,5.781683498819487586e-03,1.732283458113670349e-02
3.067620414786773053e-01,3.205855064584812175e-01,3.179700811419844952e-01,2.638276086497351111e-03,-1.430447733183316632e-03,4.498221812383910306e-03,1.579545624554157257e-02
3.172658327458490191e-01,3.294091616545775647e-01,3.061179185300939576e-01,4.678150602641031539e-03,-2.562271500992327131e-03,8.626180289614620265e-04,2.224168367683887482e-02
3.865462022573316059e-01,5.556592151997462592e-01,3.681927544935051366e-01,4.727257106085234681e-03,-1.417485719861182325e-01,3.604895592886536194e-03,3.040129244327545166e-01
2.976836584805473418e-01,2.664513854184907271e-01,3.751065676721669906e-01,-6.881282492623277958e-02,2.650172864676929654e-02,2.056528220200239815e-02,1.642232835292816162e-01
2.777206619167790214e-01,4.010836981122851697e-01,3.564955527699149029e-01,-6.146475847960218737e-03,2.999028780771548913e-02,1.358725099801267114e-02,1.227658018469810486e-01
3.185624227032678446e-01,3.107842453735901178e-01,3.309139235055840733e-01,2.232469479778680706e-03,-4.905812479389384806e-03,1.108991322508728634e-03,1.999935321509838104e-02
4.017971735698830371e-01,3.624895041080796187e-01,3.702350584895265362e-01,4.710421078556186608e-02,-3.433418075327798746e-02,6.325756347658326173e-02,1.532909423112869263e-01
1.547796327028372609e-01,2.175522905149135378e-01,3.211128747573208098e-01,1.241941172832961154e-01,7.740752935533307122e-03,1.203705656545647935e-02,2.608695924282073975e-01
2.823081774852905235e-01,2.606130878584669852e-01,3.260582730260646045e-01,-2.997983861401159328e-02,-1.650489142009372093e-02,-1.596290970923340546e-02,8.724654465913772583e-02
3.331830427270110473e-01,3.089940410399436010e-01,3.122100362865020684e-01,-2.820311951766581171e-03,4.603695806590285544e-03,2.213197711370015926e-03,2.489574253559112549e-02
3.165045428063442134e-01,3.203249778955938876e-01,3.132806183544091794e-01,-2.828437127516999616e-03,1.685989520984896434e-03,1.552446935675080462e-03,8.778629824519157410e-03
2.959105041718291806e-01,3.147288094656752744e-01,3.115565162198438154e-01,3.946398003846388752e-03,-4.331977201724462531e-03,5.682295938114001813e-03,2.245841920375823975e-02
3.254272359716874896e-01,2.872883666865028163e-01,3.390997646357709616e-01,-4.935833837121911434e-03,8.363522683825428544e-03,4.912769262060972739e-03,5.018271505832672119e-02
3.084597269038743539e-01,3.368337772737299285e-01,3.086357180460845284e-01,3.380896746360001134e-03,-8.454170193205472889e-03,7.687853851157520901e-03,3.501633554697036743e-02
3.333913747579904663e-01,2.915443454597989037e-01,3.293315691400106049e-01,-4.719849759176627732e-03,8.977818340839553019e-03,3.942637375063808708e-03,4.419312998652458191e-02
3.150257072537271941e-01,3.236685230796675916e-01,3.071635104046725462e-01,-5.151285256671651186e-03,3.850071613219132639e-03,2.337359506498230301e-03,1.857229322195053101e-02
1.490172738426021048e-01,2.292312550000559224e-01,2.409004977675041070e-01,-9.827497767826376407e-02,1.101597394046976430e-01,7.919962801520924467e-02,3.028261065483093262e-01
3.027392916127038536e-01,3.112364822390261132e-01,3.280024315659798018e-01,3.855475507799938084e-03,-4.329223475078344818e-03,5.294243972687264627e-03,2.608966082334518433e-02
3.108594103199714409e-01,2.604058205756734634e-01,2.873418208684984654e-01,9.091753934790924863e-02,-5.839742197546617802e-02,7.747371243436376731e-02,2.344086170196533203e-01
3.157744480834799305e-01,3.203270537139130125e-01,3.208737671271524317e-01,8.583259789562464222e-04,-1.389049668427276693e-03,4.433101970506897124e-03,9.511562064290046692e-03
3.250095906900082321e-01,3.178882052914501211e-01,3.208904300977165058e-01,1.273125068211416067e-03,-7.441823352130653383e-04,5.177216293894630313e-04,6.758369505405426025e-03
2.945074981245331958e-01,3.136924272938896308e-01,3.139892794103774087e-01,4.375888652944765617e-03,-6.574656385061056728e-03,7.650415920119346853e-03,2.713954448699951172e-02
2.996825221166904418e-01,3.362583178989350663e-01,3.173117883522592053e-01,1.980349120858418931e-03,-4.433559663979147816e-03,5.589768451645579610e-03,3.417962417006492615e-02
3.238233830051613360e-01,3.210102088980962276e-01,3.141668671917977051e-01,4.385986264987667797e-03,-1.179428448003294778e-03,1.492310316796474851e-03,1.193991396576166153e-02
2.922020360390562566e-01,3.085764055659262484e-01,3.517785862713152523e-01,-4.352137173767445591e-03,-2.887115371809723628e-03,-3.719737872509619979e-03,5.445453152060508728e-02
2.868281574802416523e-01,3.084883138734043073e-01,3.484899215990724386e-01,-5.373182683469822189e-03,-1.728234729901298840e-03,8.775806809997933238e-04,5.507827177643775940e-02
4.184190988396186972e-01,3.022626888212174290e-01,3.790053841676045421e-01,-1.090208666525354364e-01,-7.936744681915530730e-02,-1.285647180552223490e-01,3.385387361049652100e-01
2.612942821931328319e-01,3.435362563406552106e-01,3.144659596565922977e-01,-3.592076424623101907e-03,-7.769241082939732854e-03,-1.253747023647384332e-03,7.377353310585021973e-02
3.119039747464816270e-01,3.235109822549737113e-01,3.127848046294685602e-01,1.449057664645402206e-03,-6.108260153150899853e-04,2.548397570457118164e-03,1.233597565442323685e-02
3.149037801583779439e-01,3.205596465638098636e-01,3.149460415435722527e-01,4.219836496119395595e-04,3.944459115784996919e-04,1.238467469387592853e-03,6.111789029091596603e-03
3.213644630701057991e-01,3.233751334651617237e-01,3.180340970995331196e-01,1.977578764770585203e-03,2.851952499697519520e-04,1.243801440579198232e-03,6.200644187629222870e-03
2.687149628994718875e-01,3.565367497294716914e-01,3.230997801671229852e-01,-3.174650352282242655e-03,-7.828512037540098778e-03,-4.991474514312409586e-03,7.863230258226394653e-02
3.070070467163051320e-01,3.023968722802730658e-01,3.451574227316592802e-01,-1.837099813507688320e-03,1.830746936508323864e-03,1.426596160882215997e-03,4.097401723265647888e-02
3.402408767281543955e-01,2.864761649571183622e-01,2.961617127831714380e-01,-1.567156704298240709e-03,-2.111224612021060762e-04,-4.298089980468754526e-03,5.026565119624137878e-02
3.084725669515487878e-01,3.069782996300111089e-01,2.378357566568120307e-01,-1.762253345801011867e-02,4.262672655711281094e-02,3.713556500125010651e-02,1.241215765476226807e-01
3.192024204222505546e-01,3.440225834181727671e-01,2.577039206903159463e-01,-6.689791603014904123e-03,2.319517396229246048e-02,6.521662534048611008e-03,8.831994980573654175e-02
3.375794684197060969e-01,3.035771331804668627e-01,2.779268321235213723e-01,-9.082643446574252891e-03,-5.501808379712067737e-03,-4.939025723067260246e-03,5.565736070275306702e-02
2.786356978334005308e-01,3.357114565307815490e-01,3.196649493083796312e-01,-3.623187434975738957e-03,-6.031891504482951236e-03,-1.000647400584827457e-02,5.521040037274360657e-02
3.379393851741828159e-01,2.890073075126836089e-01,2.622182567224185523e-01,5.563760863421516635e-04,-1.473146265681887996e-03,-1.452812299423866978e-02,7.115815579891204834e-02
3.372139507889439503e-01,2.992785467481107742e-01,2.889428019709874285e-01,-5.922240337664147133e-03,-1.291476402744076973e-03,-3.988383858011845459e-03,4.578162729740142822e-02
2.619284945250314189e-01,3.975876249337984003e-01,5.197314205547868271e-01,-1.465462355177410414e-01,-7.008549000048014399e-02,-4.253277698550074482e-02,3.667190670967102051e-01
3.431862490161368684e-01,2.958947349955652895e-01,2.926619784702918503e-01,1.696502047542772793e-03,-2.483229311698439620e-04,-2.039096883210965092e-03,4.920480772852897644e-02
3.523989706298034097e-01,2.807194036123545899e-01,3.081066157219522483e-01,-5.046970457619337838e-03,3.799009632140501729e-03,-1.407961360876542646e-02,6.811267137527465820e-02
3.304420893106814194e-01,2.721715213843290404e-01,2.886438622116230812e-01,-4.348297312758098165e-03,-5.038796790393804126e-03,-1.028553416514367373e-02,5.618907883763313293e-02
3.154848670504404873e-01,3.460479436845323442e-01,3.106108344767199436e-01,-5.668061500495840798e-04,2.496516753160548524e-03,-6.188899279010217692e-05,3.356331959366798401e-02
2.924412218976691347e-01,3.544686075578333817e-01,3.354131980789185619e-01,-1.483126499086408461e-03,5.944931724191681970e-03,4.168398406950969692e-03,5.650929361581802368e-02
3.450748531270142472e-01,2.929571290908515313e-01,3.092755139811310117e-01,-1.615821876649976277e-03,-2.212064569805232209e-03,-3.450504877987098026e-03,4.680064320564270020e-02
3.125495829157046157e-01,3.465171907658445849e-01,3.097705495162237921e-01,-9.805411096528199484e-04,1.983864253858569696e-03,2.539087108177864220e-04,3.564833104610443115e-02
2.926473135833476125e-01,3.114961586782659109e-01,3.444611772251642834e-01,-1.580781755472340094e-02,2.667662928683926966e-03,5.956288083316029977e-03,5.422883480787277222e-02
3.415271183893949236e-01,2.864178499760103858e-01,2.947565975622240542e-01,5.707759080077217826e-04,1.630433797231183989e-03,-8.083884035863193873e-03,5.340434238314628601e-02
1.438295431158207183e-01,5.087950410877584151e-01,3.948849454034936701e-01,4.787075102633864959e-03,-7.726080039642954644e-02,5.841337863996035051e-02,3.644377589225769043e-01
2.591446949902090346e-01,3.839531605336092834e-01,2.716231277188505544e-01,-1.044218938285738918e-01,-1.650658904997594767e-01,-9.804218679196838315e-02,3.968177139759063721e-01
2.344834342037263319e-01,3.153623594089852711e-01,3.475191280461020216e-01,-1.486626849202928730e-02,-8.997997690621513736e-03,-7.383637599224490526e-03,1.060458719730377197e-01
3.172167672323323306e-01,3.209616480125671578e-01,3.188830492982964726e-01,-1.171746389876839999e-03,1.320959617479794748e-03,2.743905837011202144e-03,6.519312039017677307e-03
3.172542007378472140e-01,3.198653829128329518e-01,3.174950004658859126e-01,-4.021883735534607582e-03,3.326962658064158869e-03,4.015661664428606115e-03,1.167719066143035889e-02
3.168436422382614470e-01,3.191953087932127286e-01,3.171997929101260660e-01,-3.571486779106053128e-03,3.021585981934779824e-03,4.098818281404535691e-03,1.099441014230251312e-02
3.183451580247734780e-01,3.188356015382435293e-01,3.134075761925240733e-01,-1.792464227400223558e-03,6.951760549110817984e-04,1.958264619487367145e-03,7.045200560241937637e-03
3.186767895230281922e-01,3.192092789509451412e-01,3.167603454306191502e-01,-1.232917720745085183e-03,1.731638459318802039e-04,2.148230477580411737e-04,3.124972339719533920e-03
3.223009629597464176e-01,3.229335752375243618e-01,3.192074624073039102e-01,1.887762209372281651e-07,4.546681467286096002e-04,5.203713915797731054e-04,3.655059263110160828e-03
3.182478324557758698e-01,3.195996017091530805e-01,3.186314782557628233e-01,-2.963469360582105016e-04,6.987482129293942894e-04,1.376004877175126054e-03,2.977287862449884415e-03
3.208700365709127311e-01,3.224205738099160112e-01,3.190943000882687230e-01,-5.248308280707052144e-04,2.021265752967595943e-04,-8.445650290814970287e-08,3.042968688532710075e-03
3.008835446445181083e-01,3.349770039378551223e-01,3.281382121264765916e-01,2.041433314789354789e-03,-4.416187490840002561e-03,8.214848658788530961e-03,3.534737229347229004e-02
2.963793511551076620e-01,4.417656263876253431e-01,4.516294274915071960e-01,4.122605384367792475e-02,6.364190000067009587e-04,1.200291971060541384e-02,1.679306775331497192e-01
3.234304349466601280e-01,2.715722074843598954e-01,3.476745744971988517e-01,6.536042324435785249e-03,-5.681102428336318177e-04,1.965041587597407199e-03,6.837414950132369995e-02
3.712228479279812698e-01,3.568363064362322090e-01,2.755264139266656032e-01,-1.045651720529267633e-03,-3.627028896882922553e-03,1.406219978388699270e-02,9.286560863256454468e-02
3.137815887011454197e-01,3.131156158338638806e-01,3.364630329292032651e-01,1.023615702203609784e-04,-7.770917241553818629e-04,2.096941270804136663e-03,2.334590256214141846e-02
3.559539936406802552e-01,3.703872338061497960e-01,2.548804919668849478e-01,2.971945751578383439e-03,5.215871834741777832e-03,-1.120933775767215396e-03,1.095211058855056763e-01
3.906917787055808611e-01,3.902994242456634955e-01,2.601562899915627058e-01,3.589279656163241270e-03,1.046452224203140054e-02,-7.724231092704101579e-04,1.317475140094757080e-01
2.994207679504497510e-01,3.344361048136905157e-01,3.471850844713019191e-01,6.720811167773989292e-03,-3.540525155204085790e-03,6.746646992539423286e-03,4.631075263023376465e-02
3.147433602104120487e-01,2.915138952785650828e-01,3.277330246202294073e-01,6.382264482551848646e-03,-1.056894092735274383e-02,7.536204692967146679e-03,4.046940803527832031e-02
2.992474788919152195e-01,3.362137830256030635e-01,3.532437909076430738e-01,9.114050323758945277e-03,-2.915017756524906738e-03,9.422606854599434659e-03,5.317058786749839783e-02
2.487315265313193025e-01,4.290218228321966976e-01,4.120721420485177200e-01,8.502474773746077075e-03,-4.070551474033674844e-02,1.258551858991933080e-02,1.881459504365921021e-01
2.897367967439078984e-01,3.373009372479120471e-01,3.504443760379537531e-01,4.582461673094615981e-03,-2.883299986225566248e-03,3.995797317967737794e-03,5.653397366404533386e-02
3.012273606461303155e-01,3.199369816797379418e-01,3.430386838158247520e-01,2.682809509212558813e-03,-1.826325010219717170e-03,3.011952407744251155e-03,3.707798570394515991e-02
3.412340297720322657e-01,3.333122018642125095e-01,3.742940239999091312e-01,2.898729003276824187e-02,-8.164284916602891629e-03,8.396326758888511890e-03,6.595350056886672974e-02
3.597691190313018206e-01,2.445424026311153742e-01,3.694227220142302093e-01,5.611582414698598059e-02,6.902546748345114030e-03,1.990071241861408186e-02,1.589363068342208862e-01
2.055596361108272541e-01,2.759955418470333988e-01,3.280726004620703185e-01,-5.931835506192115193e-02,1.696244345345507276e-02,1.175135019673542724e-02,1.522326767444610596e-01
2.702288793457829352e-01,3.018951754549116795e-01,3.410687172557074209e-01,-9.297998113080040150e-03,3.227228587188560099e-04,2.940828836975168357e-03,6.374494731426239014e-02
3.682435045596856860e-01,2.446442243226387703e-01,3.941614057728317078e-01,5.688270703405957224e-02,3.917009538316220535e-03,9.990242935268438956e-03,1.708927303552627563e-01
3.156881619559853691e-01,2.542714015749288903e-01,3.302906144154991175e-01,-1.286236758020480563e-02,-1.044019260257055687e-02,-5.542580087147539261e-03,7.614171504974365234e-02
3.007890812825799731e-01,3.389023998994995512e-01,3.071573474759857203e-01,-7.499657684574782129e-03,-1.250998892464360440e-02,-1.015864020848550667e-02,4.688594862818717957e-02
2.683067157738391328e-01,5.781772817641206430e-02,3.130754705492816425e-01,9.905621014277489478e-02,4.464191800900109419e-03,-4.945263665086126886e-03,2.920663356781005859e-01
2.691012149065244441e-01,3.234169977043034327e-01,3.532602847808652413e-01,-6.967063135129478689e-03,-3.777658674525448228e-03,-5.480129529430705256e-03,7.576486468315124512e-02
3.155417598055452189e-01,2.931160704429504049e-01,3.546044476950904745e-01,-4.095655241786620368e-03,2.939881843598293742e-03,2.825669359571360045e-04,5.460132285952568054e-02
3.531267576478541725e-01,3.518850296018242174e-01,3.110874040802478202e-01,-1.037737286990335350e-02,1.524952523176900318e-02,2.270467159684476377e-02,6.545126438140869141e-02
2.391387770472706842e-01,3.549959069128763023e-01,3.406041688373327991e-01,-5.086166543733628038e-03,-9.605567997193399654e-03,-4.554157963618151936e-03,1.112620308995246887e-01
2.678564029801772661e-01,3.161510678252245077e-01,3.319168636061722855e-01,-5.826243542381656995e-03,-4.865058215339633507e-03,-7.555025333580540729e-03,6.071586161851882935e-02
3.138239644878856316e-01,3.497006298507422395e-01,3.142599323367224473e-01,8.843030496003855597e-04,1.673453011826705941e-03,1.475061900217354549e-04,3.581196442246437073e-02
2.627387403682750477e-01,3.140984337213803546e-01,3.440314380231824787e-01,-6.851575709311429410e-03,-3.944404048163496941e-03,-2.271429638396124315e-03,7.262326031923294067e-02
3.020932960043840598e-01,3.028029818799249373e-01,3.470838679755414158e-01,-7.628723391544761472e-03,-1.239139143358296367e-03,-1.547633078834930852e-03,4.668094217777252197e-02
3.421157746483158291e-01,3.080742112430302493e-01,3.036562764375786982e-01,3.228125420462091451e-03,-9.131669297465531618e-04,5.511952282109747539e-03,3.812674060463905334e-02
3.041854033173846950e-01,3.028812870407244229e-01,3.361648258563317837e-01,-5.485491104682436656e-04,-7.632448176826548206e-05,1.120730753068856526e-03,3.272273391485214233e-02
3.700535861659073333e-01,2.735050615603512592e-01,3.541876324281599264e-01,1.374701611207958469e-03,4.138655665716766199e-03,1.723044551687516468e-02,9.481155872344970703e-02
4.143286631011615651e-01,3.564279443658401325e-01,3.201351138748261271e-01,1.305312625895580989e-02,1.069074209608150347e-02,4.313043834794262621e-02,1.149163842201232910e-01
3.183717559273993580e-01,3.307190001018380232e-01,3.457195753336514965e-01,1.084931002339051265e-02,6.648340474963938818e-03,-7.914886411426817411e-03,3.516173362731933594e-02
4.405828956978765087e-01,3.584809617009387384e-01,3.673517409879447637e-01,4.284759642148557382e-03,5.600674598952651295e-03,5.186504992175289264e-02,1.196254193782806396e-01
3.554469836483439837e-01,3.385654997591414639e-01,2.714993694769812782e-01,8.299524461996367342e-03,-5.851558463636433692e-03,1.518356222337782432e-02,8.316259086132049561e-02
3.465659145043118450e-01,2.758068556509478686e-01,3.360527460207821671e-01,4.765604651643036080e-03,-1.037829753097804092e-02,1.117277836355031265e-02,7.168836891651153564e-02
3.407790768814427107e-01,2.540574403728566577e-01,3.040598296150580082e-01,-2.389939702886665750e-03,4.513160231938817546e-03,4.555240035583353608e-02,1.094892546534538269e-01
2.985247234636976832e-01,3.386626269412353341e-01,2.664931766283247794e-01,-1.836273084659066895e-03,-9.059220355580537010e-03,-5.566578537063771905e-04,6.465294957160949707e-02
3.702964216527234731e-01,2.784681930832264563e-01,3.516949296343820919e-01,2.075553725847133907e-02,1.000175178026956740e-02,-3.038530905179324601e-02,1.069232448935508728e-01
2.319314216863479772e-01,3.588550839296715256e-01,3.601437374380300760e-01,-5.522160271493116099e-03,-9.226373383845788982e-05,3.011635042356115063e-03,1.280373185873031616e-01
3.597524125019381236e-01,2.266750064617497062e-01,3.236994380636042945e-01,-2.157558235067585234e-02,-1.132649810035931542e-02,-4.469335108067082341e-02,1.482749134302139282e-01
2.351069402549669229e-01,3.700890599065034814e-01,3.576653302878285978e-01,-1.153793337159278974e-03,-1.462942302517573553e-02,-3.914250803186130213e-04,1.316968202590942383e-01
3.123124288961158790e-01,3.140894985401048722e-01,3.301938055142565887e-01,8.089115023714460321e-04,2.580418808426803920e-03,-1.038075929471517613e-03,1.778473146259784698e-02
4.124510429050040061e-01,2.430801650130117175e-01,3.808558762214689919e-01,6.253316837973000100e-03,-5.594583012239757146e-03,-2.698811143101718241e-02,1.634923070669174194e-01
2.767307180495817143e-01,5.372645588249855830e-01,5.977402167832842617e-01,-7.664280563500275312e-02,2.259102832411758258e-03,2.221779231074583541e-02,3.262050151824951172e-01
4.852380020056959453e-01,2.278125653895576863e-01,3.681255968128250844e-01,1.355489667946561082e-02,-2.279510646148026620e-02,-1.106015143134885109e-01,2.977307438850402832e-01
2.982161153957729183e-01,3.186298063294014660e-01,3.471873027912666387e-01,3.543306940836201454e-03,-5.690058325349999554e-04,2.701120057448009454e-03,4.330978915095329285e-02
3.466583910736059093e-01,4.003721740526282602e-01,3.700980479422256164e-01,-3.280213872672006759e-02,6.323604247145811486e-02,3.609956963343748798e-02,1.459774821996688843e-01
2.594379619680973192e-01,3.529247802502867293e-01,3.348943286769144878e-01,-2.680676610456007251e-03,1.398979972625823999e-02,7.674673688827638070e-03,9.035860002040863037e-02
3.247399522410019390e-01,3.051261222654162442e-01,3.492341333328036201e-01,4.499465530557623244e-03,4.237752015229381136e-03,-7.426646288694523654e-04,3.976628929376602173e-02
2.681117348996199801e-01,3.917917346846397919e-01,3.481213974931713362e-01,4.532652482930957238e-03,3.377968886461985010e-02,-5.328686814048642743e-03,1.239867508411407471e-01
2.719886630024481722e-01,3.453620321337517729e-01,3.723569186381909257e-01,3.184687356372317008e-02,1.273055243951576841e-02,-1.707383960362666292e-02,1.117877438664436340e-01
3.285920087087905728e-01,3.513720627088532944e-01,3.009060845756286184e-01,1.287867632086853002e-02,1.736684010991240701e-02,-1.395703621934885758e-02,6.247340887784957886e-02
3.549976908501015216e-01,1.111934003282381567e-01,3.416262481143997887e-01,8.107578072952585646e-02,1.005680431303194143e-02,-1.134780716637013992e-01,3.391377329826354980e-01
3.099160220822614331e-01,3.127595967799075005e-01,3.453339688546972486e-01,1.762067623868949313e-03,-2.275671850707433423e-04,5.430093795485269438e-04,3.423679247498512268e-02
3.003271396457397602e-01,3.208925813931874371e-01,3.468532841363669017e-01,2.841069089211175226e-03,-1.664255674657534384e-03,3.200199129827069593e-03,4.115867987275123596e-02
3.188840241581590296e-01,3.176057528453044565e-01,3.483466755332244591e-01,7.301640992031488940e-03,-4.244164721532887180e-03,2.682921159119932078e-03,3.380706906318664551e-02
3.076803350594601860e-01,3.028713990457496119e-01,3.429478184350314707e-01,5.519637274294005892e-03,3.373222092738871209e-03,-1.219330742671047730e-03,3.957923129200935364e-02
2.603150704114428615e-01,3.223977242075675154e-01,3.305057489219729860e-01,4.166908956633691950e-03,-2.852432678587558338e-03,7.276933772417393254e-03,6.825484335422515869e-02
3.062573977360148469e-01,3.088406749261340956e-01,3.415935946864666617e-01,3.480174170463882534e-03,1.350961963946179737e-03,-2.067604275128885182e-03,3.490948304533958435e-02
2.967637300152431989e-01,3.475630335633262957e-01,3.236415749748213222e-01,3.448719971478327040e-02,3.510048487735017986e-02,-1.125248712801571287e-02,9.788616001605987549e-02
3.106253229584849951e-01,3.131173601102460458e-01,3.470898586310113276e-01,1.705452056951758293e-03,-5.845878992112226862e-05,8.953759822943324750e-04,3.544210270047187805e-02
3.646411492918861796e-01,4.009129224537066327e-01,3.608606088800198064e-01,2.597599810605902976e-02,5.234967699815028241e-02,-1.265626120998391765e-02,1.104234009981155396e-01
3.799320503753739198e-01,4.565441108132400894e-01,2.182632367029111453e-01,4.448570738917125705e-02,7.477539604862644407e-02,-2.576870761786624608e-02,2.628594338893890381e-01
3.340642776867002173e-01,5.134591047890226800e-01,4.763763199790105873e-01,-6.059490711502347332e-05,1.158320436139399223e-01,7.960100165231379088e-02,2.935393154621124268e-01
2.994236796046443327e-01,3.186928220898117559e-01,3.389437280179664058e-01,2.653914426291557448e-03,-1.974202335981116180e-03,3.919132832970420588e-03,3.536265715956687927e-02
3.134126444537736478e-01,3.313466140125719828e-01,3.110626588208979526e-01,-1.401832227765406136e-03,7.803019989622186729e-04,2.215807140629254962e-03,1.979256607592105865e-02
-6.680749975082611591e-02,2.834411003519733963e-01,2.883916424254243660e-01,7.762377264789048492e-02,-3.389040129349062125e-02,1.863069624727673942e-02,3.834003806114196777e-01
2.278079103433671149e-01,3.737501938357171705e-01,3.878746278765371480e-01,7.477323912755988976e-03,-4.073497680783125241e-02,1.268627989809505661e-02,1.708466410636901855e-01
2.820486771725733144e-01,3.080503580208846515e-01,3.506232067311025324e-01,1.332929478805176295e-02,-3.517285114235053911e-03,5.685343922450762297e-03,6.528854370117187500e-02
2.937458634384675360e-01,2.859890745824982816e-01,3.390059624838340224e-01,-7.415319789734709129e-03,-1.251414378332779340e-03,-1.036296722549820892e-03,5.130885168910026550e-02
3.131168744512195512e-01,3.405832806576918337e-01,3.090003277023858907e-01,-1.628767827158843088e-03,1.590423022264496767e-03,4.152889980774066773e-04,3.000800870358943939e-02
3.347615309772531411e-01,2.780912359581518278e-01,3.042266338927954727e-01,1.935096519771513368e-02,1.192833958452085841e-02,-2.319452478670193385e-02,7.468383014202117920e-02
3.119748467962935035e-01,3.275022908649756204e-01,3.572857635258676612e-01,1.516436384706660971e-02,1.092527445779462730e-02,-5.717315413916582156e-03,5.231290310621261597e-02
3.029009068680780237e-01,3.033643941348582174e-01,3.114247986649605893e-01,-7.816383002988196377e-04,-2.080568347531440779e-03,-3.482949194216555973e-03,1.096051186323165894e-02
2.058049586012236642e-01,3.710626646878348867e-01,4.180443656496048987e-01,-3.674760630887820984e-02,-7.315850880789582372e-03,-3.886606452790128223e-03,2.038100063800811768e-01
2.753496646146234017e-01,3.167156291203195306e-01,6.144797243529900865e-02,-2.326238750744659758e-02,-8.866139755571705861e-02,-5.927118297984133172e-02,3.034114241600036621e-01
3.660108130084106515e-01,4.149044453555735812e-01,2.409907674846538950e-01,2.183926422348042920e-03,-5.379422375757841879e-02,-1.209507141843742424e-02,1.823949515819549561e-01
2.596247912900643828e-01,3.347317820992684601e-01,3.391062144653888555e-01,-6.028565710501741261e-03,-6.461708420996769599e-03,-7.006827610987087507e-03,7.981431484222412109e-02
3.109531191546887063e-01,3.122722202308036987e-01,3.442292116832078031e-01,1.307365570885653857e-03,-2.593882285615156246e-04,1.497472699442476719e-03,3.282073512673377991e-02
1.537845291772685086e-01,2.315880269757885079e-01,3.479065227244101943e-01,-1.371559442521520789e-01,-6.604854755872295591e-02,-4.460841209034513422e-02,3.226849734783172607e-01
3.737460591638316898e-01,4.725269138682445247e-01,1.408941262055301846e-01,-2.506894604130105800e-02,-9.198231207095683426e-02,-3.761014872750070848e-02,3.442240059375762939e-01
4.254579193925177583e-01,4.642995658275734794e-01,2.035547866367792003e-01,2.906603899978073974e-02,4.559070260954288523e-02,-3.272362336607564925e-02,2.671166360378265381e-01
2.130242600705800071e-01,3.554786571905463877e-01,3.519854024240962054e-01,-5.355696919072284491e-03,-7.086641621506704035e-03,-2.965833786689902642e-04,1.415796726942062378e-01
3.684168099238511740e-01,4.147451062619743056e-01,2.520082218328605905e-01,1.100041587505010089e-03,3.224619430900482753e-02,2.306109175567255462e-02,1.606511920690536499e-01
3.676648522074349446e-01,3.713775548115374470e-01,2.419108600534528031e-01,3.984299046325851315e-03,-1.008956709062812721e-02,-3.303266980663112362e-03,1.291529834270477295e-01
2.965868753429612426e-01,3.202516039171125484e-01,3.505956295815738644e-01,4.336238474983762636e-02,1.786074612306942644e-02,-5.899297106469338081e-03,9.434603899717330933e-02
3.219135758076800968e-01,3.051225471427618241e-01,3.422933144462644295e-01,2.858060508231515407e-03,4.187167377131926702e-03,-6.152620009001754341e-04,3.343213349580764771e-02
3.583694238803104559e-01,3.779947789912732614e-01,2.391359053368067311e-01,4.589349956048476009e-03,-1.802393540435582447e-02,4.619919605023541792e-03,1.343264281749725342e-01
2.869709043476078025e-01,3.280173864308800202e-01,3.438290658201477723e-01,-5.038676930778206858e-03,6.244308508551463591e-04,7.683934273596404983e-03,5.327569693326950073e-02
3.082249520426212364e-01,3.264063220469510251e-01,2.880468918136223078e-01,-5.588564935340908750e-03,7.732902789021598756e-03,2.386074819530072891e-03,3.734636306762695312e-02
3.345885565753390911e-01,3.025889174629163292e-01,3.430132066775742339e-01,-2.223357555258685669e-02,1.184378886709127644e-02,1.704796830590806639e-02,6.434484571218490601e-02
3.336957089590117942e-01,6.622184489127171947e-01,6.547933291431067282e-01,5.198538577379489822e-02,6.847693187579340091e-02,1.644078377120513149e-02,3.585088849067687988e-01
2.636523082975691934e-01,2.067233274879801130e-01,2.778028965831469410e-01,-9.410299309686917524e-02,8.501316156195179441e-02,8.996061061588579710e-02,2.770799398422241211e-01
3.245263116582468577e-01,2.705174796564501771e-01,3.521466797833734952e-01,7.162818948961575602e-03,1.866866645988686816e-03,-1.088724242261631444e-03,7.307196408510208130e-02
2.476231084629826051e-01,2.568105802581630015e-01,3.294558810434206064e-01,4.952263403666099656e-02,1.320841244325817593e-02,-6.773662592811170551e-03,1.185229271650314331e-01
2.912119110107220243e-01,2.665378661730705145e-01,3.618819638528596450e-01,-3.535991791702780551e-02,4.370721523790580508e-03,2.865719419748645209e-03,1.057340949773788452e-01
2.171272634327061912e-01,3.547390187331015410e-01,3.563266450085278425e-01,-1.452994796494451761e-03,-5.351395062017306331e-03,2.005831553312694727e-03,1.387887150049209595e-01
8.409889039158155444e-02,3.663634297936720907e-01,3.721711059151334711e-01,7.409368881317002220e-02,-1.047371550354160019e-01,4.836499773885524420e-03,3.616569042205810547e-01
3.163105663704143811e-01,3.364026350524257913e-01,2.814043035735476761e-01,1.038002851398496171e-02,8.912187317903195322e-03,-5.453340653390174528e-03,5.453632399439811707e-02
3.100569753080704705e-01,3.093440847838441199e-01,3.458283651864125230e-01,1.776957609390414448e-03,1.403519759612451489e-03,-3.298566967504498780e-04,3.634983301162719727e-02
2.845333301197431330e-01,3.164391971383193614e-01,3.420314893938236067e-01,6.197488843702366780e-03,-2.582217291113406317e-03,4.748770807174603446e-03,5.188811570405960083e-02
4.048761534723622768e-01,4.552773668913737692e-01,1.149736651524166375e-01,3.401630725699313074e-02,4.094746143850483411e-02,-4.738712484060299962e-02,3.412230908870697021e-01
3.251478242168208688e-01,4.955077632636674112e-01,3.054980735982321116e-01,7.280430657672656847e-02,1.156982346752234436e-01,-1.716967361896493821e-02,2.994998991489410400e-01
3.136995170838065006e-01,3.105679150486130857e-01,3.457866464604706369e-01,2.053087831939304220e-03,7.983435359679092380e-04,-1.874463412505798982e-04,3.397849202156066895e-02
2.927976231719122135e-01,3.620185432634931977e-01,3.382382325726256966e-01,2.233668603331798001e-03,6.714987641117942975e-03,-2.861024563048456155e-03,6.233571469783782959e-02
3.113464552614971237e-01,3.091573885004791356e-01,3.401631352282067366e-01,1.444967151470846409e-03,1.787435520985519027e-03,-7.252301806006156192e-04,3.026055358350276947e-02
3.904709968532779629e-01,4.247387946683398030e-01,2.953866663472039522e-01,-2.513182346795106090e-02,7.877912048047888693e-02,5.192427383978542171e-02,2.051226645708084106e-01
3.179869861638471851e-01,3.171376997606683013e-01,3.336244976526032135e-01,1.108704311878458025e-03,1.051712720915604776e-03,-1.083213199345437481e-03,1.640304177999496460e-02
2.612831604985302314e-01,3.463624559684596593e-01,3.012558170041494399e-01,1.575768884196537345e-03,3.768130594941224154e-02,1.047551523436119101e-04,9.850166738033294678e-02
2.973115445121507494e-01,2.993421587147798157e-01,3.447170044707245085e-01,-2.480064643920967035e-03,-5.510169194124271436e-04,1.661897994370196388e-04,4.663244262337684631e-02
3.550293930058855962e-01,3.589306501429776475e-01,2.294131806930110595e-01,5.367385609309260723e-03,6.233598635705672915e-03,-3.902294086213312693e-03,1.285822540521621704e-01
2.854702641846103006e-01,3.089394850605708953e-01,3.439699209911937783e-01,-4.927345880300935087e-03,-9.350062600010704229e-04,1.565845024556712303e-03,5.179659649729728699e-02
2.438420801593016163e-01,4.314331940051271408e-01,4.225678291844781054e-01,6.880430537392725684e-03,3.351407689594858297e-02,1.312823411346927989e-02,1.939964145421981812e-01
3.266038723445321423e-01,3.757337302429380466e-01,3.345382322139645037e-01,1.526607566450245701e-02,5.878190433281389043e-02,-7.851257410255463656e-03,1.154855191707611084e-01
3.073425948406354746e-01,3.428968753340957965e-01,3.090954567627642313e-01,-1.993149019287819546e-04,8.407050559836698163e-04,3.129705679095959574e-04,3.474753350019454956e-02
2.773089074524116016e-01,3.453685888634036028e-01,3.540285625009390036e-01,-6.561308620748750216e-03,4.028426050507532934e-03,5.558444943607420557e-03,7.461257278919219971e-02
2.758634019969227746e-01,3.255566330257481655e-01,3.503532082586809371e-01,-8.062495081246283390e-03,8.594513486943486586e-05,3.427298029777555051e-03,6.742983311414718628e-02
3.231418096293278697e-01,3.469876621425698193e-01,3.006911517846998505e-01,-2.848798416200246618e-03,4.811941770011204239e-03,5.672372319104527051e-04,4.126485809683799744e-02
3.359646870024390886e-01,3.521615511945619392e-01,3.268778999114209660e-01,-4.382984645232054777e-02,5.292546348190989985e-02,3.526780250614052620e-02,1.356098055839538574e-01
2.619925874405206190e-01,5.159841929614730205e-01,4.767564442966164551e-01,7.025378441519210260e-02,1.467041500509418395e-01,5.735972768393445692e-02,3.812224566936492920e-01
3.539198059383495409e-01,3.548824907424613095e-01,2.651900389833322103e-01,-1.775473686733116188e-03,2.738362763928938598e-02,2.083414162683151077e-02,1.073338165879249573e-01
2.976553177399225425e-01,3.132070610885047124e-01,2.998604482338218524e-01,-5.883984475390406817e-03,-2.001197045655427487e-03,-2.951068793239075387e-03,1.882631890475749969e-02
3.203536573135846166e-01,3.118224468354933721e-01,3.308074299495481485e-01,2.000450875495891033e-03,5.388317909862438970e-03,-2.094824786416149120e-03,1.958362758159637451e-02
3.082472953360511636e-01,3.072830806707960716e-01,3.039214115366432045e-01,-2.795501435382628970e-03,-1.719562090940650843e-03,-1.544849193515739506e-03,7.412606850266456604e-03
2.878738932053154786e-01,3.503565609779717982e-01,3.325296681532682319e-01,5.182194210993199034e-04,5.873555497370517089e-03,4.344092746848049469e-03,5.717451497912406921e-02
2.934472035431778814e-01,3.437233740315130404e-01,3.285039570364650108e-01,1.900470381713475088e-03,-4.554873260420986072e-03,6.482064933258504386e-03,4.683243855834007263e-02
3.054389377332594191e-01,3.119077561230169104e-01,3.019617518316832783e-01,-3.038017556630366427e-03,-4.226577117439530564e-04,-1.476935270709227354e-03,1.054506096988916397e-02
2.491169815307049118e-01,3.368359109256554573e-01,3.566362239676066914e-01,-1.042694244382457586e-02,-7.463783869372887575e-04,3.410364376022920196e-03,1.009269654750823975e-01
3.061054036248083143e-01,3.131635318744362406e-01,3.018043437111342375e-01,-4.539320594300681917e-03,-1.617476586430805895e-03,-1.489160741712142015e-03,1.322843600064516068e-02
3.082321142119281987e-01,3.189346511137343132e-01,2.962696165425673378e-01,-1.357893740053216919e-02,-1.035374672346250913e-02,-8.381411583988564173e-03,3.835598751902580261e-02
3.539848216790352220e-01,2.759339324359996737e-01,3.484163810743378109e-01,1.920782816021568461e-03,6.798969675655855242e-03,-5.424833707552452824e-03,7.698285579681396484e-02
2.413167151601475768e-01,3.277848964510882146e-01,3.085967479245682599e-01,-6.808057798027573881e-03,-1.355193551999582351e-02,-1.037494575008883826e-02,8.484514802694320679e-02
3.584285553425532456e-01,3.413379379685433923e-01,2.726316668323605641e-01,-6.763862242800322208e-03,6.683529584355242699e-03,1.465523359224476033e-02,8.427608758211135864e-02
3.296315317057215144e-01,3.117855547093762447e-01,2.103928107157753691e-01,-6.697379506432054978e-03,2.419415176309363397e-02,3.138529727656422935e-02,1.313551217317581177e-01
2.224962255711652181e-01,3.406287492996397659e-01,3.502978283831232331e-01,1.295556695319453281e-03,7.059918487984734023e-06,2.573657661602467501e-04,1.232730746269226074e-01
1.942905937926732995e-01,4.522547569040707427e-01,4.615283931217361024e-01,1.385710386933797222e-01,3.187901888607592299e-02,5.837740083538751207e-02,3.740349709987640381e-01
3.027137144766278709e-01,3.203994362912136462e-01,3.479110109322486322e-01,4.341384043579207298e-03,6.855075466314544241e-04,9.893973617882978206e-04,4.021346569061279297e-02
3.109957239514640759e-01,3.144983591707298798e-01,3.288428908426060393e-01,1.047895547164211152e-03,2.874861276289007121e-03,-1.814680030513499218e-03,1.749987527728080750e-02
2.810233514247504893e-01,3.318608993721945954e-01,3.583792063087600788e-01,8.649747391210618752e-03,9.842112012964001483e-04,-2.024705551749965936e-03,6.982450187206268311e-02
3.311822891685557435e-01,3.458780614785020302e-01,2.899916939570411634e-01,8.713600337249842800e-03,3.726351474331393750e-03,-1.171725240458781122e-03,5.283479019999504089e-02
3.207739270415443378e-01,3.367966121314373007e-01,2.633533559027862458e-01,-8.129098329861719069e-03,1.848393804106487903e-02,2.048755385345091100e-03,7.556246966123580933e-02
3.464761566837558648e-01,3.615720157221955500e-01,2.669088104141195128e-01,8.236766282737881251e-03,2.187715198065156436e-02,1.015647287429638414e-03,9.696619212627410889e-02
3.831027562651898588e-01,2.824358459062085158e-01,4.271682308406162254e-01,-5.667147056281427592e-02,1.538322842058281736e-02,2.944256225972060118e-02,1.716304719448089600e-01
3.577633493559021494e-01,3.597496585481905762e-01,2.560834920839725193e-01,-4.394838048281382234e-03,9.422161237151067958e-03,8.279077318746694975e-03,1.052359789609909058e-01
2.086388117518674368e-01,3.571405204092271135e-01,3.493065676076197446e-01,8.863865802083814582e-03,2.384042637692253275e-02,-5.418227711248657479e-04,1.513025313615798950e-01
4.376500366966765143e-01,4.304041623934451444e-01,3.070919867654974267e-01,4.491573808489314999e-03,1.410514071134031863e-02,4.579852735318244716e-02,1.519927680492401123e-01
3.111234057335182657e-01,3.045553017211899971e-01,3.385869067932080201e-01,4.356375498144096289e-03,2.924175617575900787e-03,-1.246793136565726122e-03,3.263459727168083191e-02
3.445111605744791139e-01,3.405737617994112898e-01,1.864176692478349273e-01,-4.097667087967926496e-03,-9.118967088198124543e-03,-1.740590932068920849e-02,1.599853634834289551e-01
3.236860685792873893e-01,1.747254636605448108e-01,3.649661015417594578e-01,-7.728913492616501513e-02,3.183089784237383424e-02,5.552997746843638810e-02,2.454660534858703613e-01
3.263090699412127815e-01,3.735756641847577386e-01,4.388756618383612418e-01,1.068620777654571280e-01,4.958305652707679922e-02,-6.076169816056199713e-02,2.495889216661453247e-01
3.080737903813028367e-01,3.101701376264791588e-01,3.357308877803651392e-01,-6.259113438379522963e-04,5.914669535112731039e-04,2.841006942623901330e-03,2.716191485524177551e-02
3.095084967307000778e-01,2.808835784691180448e-01,3.260181644113026578e-01,-7.307095805016187821e-03,1.108536239567992077e-02,8.021681511681333712e-03,4.781654477119445801e-02
3.465363110148759196e-01,3.539439710788532811e-01,2.489678735718524050e-01,-1.072076945218513200e-03,7.495777603287180971e-03,2.301893496611967863e-03,1.023969277739524841e-01
3.640951998500646658e-01,3.666312436217933346e-01,2.801226264271329258e-01,-1.141226235159818227e-03,1.744715902117903450e-02,6.256007223147583805e-03,9.113349020481109619e-02
3.681710882579819488e-01,3.774729828273719057e-01,2.439772157675358932e-01,4.382667920013251159e-03,9.310548816317017543e-03,2.351482335040739301e-03,1.303846389055252075e-01
3.009009326715578192e-01,3.141211643687374377e-01,3.439130344804337547e-01,-3.184843174188165330e-03,1.342392582265237956e-04,5.465637047897865114e-03,3.970250487327575684e-02
3.605775484450069457e-01,3.814111966662253606e-01,2.866243590053552115e-01,3.365046551470538688e-02,-2.951467499070238240e-02,3.673965596612977641e-02,1.323013454675674438e-01
3.064283452978565636e-01,3.162690167838524413e-01,3.302073339856296252e-01,-2.213593049177473536e-03,1.779015364287373814e-03,6.321163225831279327e-03,2.392370998859405518e-02
2.372596472319816185e-01,2.390738164567540736e-01,1.374345850710715911e-01,6.820625240926311839e-02,-8.847955786253197674e-02,1.169223304690916870e-01,2.976644039154052734e-01
2.930884431207383400e-01,3.461232886520304586e-01,3.341597664426380621e-01,-2.428539951966521629e-03,7.236137936302329196e-03,5.483459981035516267e-03,5.085588246583938599e-02
3.788543837582106222e-01,4.157130045308043420e-01,2.625983886432499137e-01,5.789141325186249708e-03,-5.037464588656495601e-02,1.951592335330794986e-02,1.673768758773803711e-01
2.573936155175552964e-01,3.667131285211617797e-01,3.584315417655583591e-01,-1.606050795412576225e-03,3.057866497297095660e-03,3.182956813619848384e-03,1.057363972067832947e-01
2.927228264896473142e-01,3.634244502569690671e-01,3.335853900942261085e-01,2.273022745565274425e-03,6.627672584197437204e-03,1.969137805490371596e-03,6.275611370801925659e-02
3.423739198687597574e-01,3.491199414346545793e-01,2.291410308635095650e-01,1.510944396633131376e-02,-2.686910732258532275e-02,2.012576926858904158e-02,1.330298483371734619e-01
3.018552721025815622e-01,3.452558610811999329e-01,3.050070801681329935e-01,-1.235795275253207632e-03,1.519500600111625688e-02,6.502372940158402271e-04,4.955067485570907593e-02
3.555276448684707713e-01,3.558625481609877794e-01,2.742500902629326776e-01,-1.601663609931920206e-03,5.932754719464376249e-03,4.516321052299744621e-03,8.250971883535385132e-02
2.808294861312147228e-01,4.298441305540066648e-01,5.560534735339599521e-01,-1.420555344595613445e-01,1.970536172557677077e-03,2.856638496282103840e-02,3.463239669799804688e-01
3.842970772072462626e-01,1.862787958080178163e-01,3.419748138407270321e-01,3.541946965559353289e-02,7.896439510663433303e-03,9.305435719194399269e-02,2.500996887683868408e-01
2.754294797226625180e-01,3.451242653025897722e-01,3.488806189851226258e-01,-6.232526736578412364e-03,4.768579650604343190e-03,6.460793709387732849e-03,7.377837598323822021e-02
3.593192488139597685e-01,1.283012691765463287e-01,3.741645171484117016e-01,-1.406370790078126376e-01,5.490847072544344232e-02,4.205629377680137823e-03,3.541941046714782715e-01
5.106152701460435761e-01,1.895610920916766529e-01,3.816497134369378208e-01,1.106398722378176651e-02,3.228736883208221681e-03,8.743904148322970138e-02,3.188075125217437744e-01
4.107900565866984266e-01,3.546286053986975606e-01,3.368977291029399135e-01,-2.952463620978168415e-03,7.139575133622927394e-03,5.729677961485234866e-02,1.203832179307937622e-01
2.605704330161682791e-01,3.481723494972804867e-01,3.509692733200773795e-01,3.867502069924384951e-03,4.686852946709302997e-03,-3.469068791625396810e-03,8.985438197851181030e-02
3.042698011208985198e-01,3.407851170526171036e-01,3.159660006344234828e-01,1.266938263994538474e-03,3.548763577126721764e-03,-2.771622001061112631e-03,3.329746425151824951e-02
3.845045746824288790e-01,3.716341071950264308e-01,3.101805789961177284e-01,3.620458287789465879e-02,-1.144995765747873311e-02,5.450089874508683846e-02,1.340514272451400757e-01
3.188608972877113867e-01,3.056661391773985437e-01,3.424250005153520182e-01,-2.785450187976280887e-03,5.041465237956422110e-03,1.193279394618381372e-03,3.382437303662300110e-02
4.205520020561674399e-01,2.730159590335424769e-01,4.106173519878728584e-01,1.870199571216647674e-03,1.709195892300590866e-02,5.786680325211215198e-02,1.770097762346267700e-01
5.581453353775047699e-01,4.216018813096223394e-01,5.301782403578405578e-01,-4.763506975363734214e-02,7.757448371076675064e-02,1.491761605849654115e-01,3.274581432342529297e-01
3.010229998088369552e-01,3.186187239197960097e-01,3.291990498215764394e-01,-2.725374538708641957e-03,2.751621999429897016e-03,7.307072396988206590e-03,2.851137518882751465e-02
3.419032128058649977e-01,2.134545799394619858e-01,2.643128706221254398e-01,3.944377309814639521e-02,-1.587256529259066518e-02,1.098769326858541756e-01,2.327982187271118164e-01
3.002792936514268596e-01,3.064817118132205920e-01,3.323738505186243364e-01,1.442540186623489373e-02,-1.291017600975514698e-02,7.744852131468745599e-03,4.662305861711502075e-02
2.027675884457024735e-01,1.465695950426246785e-01,2.348247281148430621e-01,-1.049588352548322528e-01,7.810913351588981424e-02,9.971525988315513289e-02,2.952439785003662109e-01
3.172541640179937228e-01,3.199099278934151025e-01,3.209476902471959936e-01,-2.106942621549490202e-04,1.928371733102368727e-05,-4.628321405085752504e-04,3.415115876123309135e-03
3.247391222556734736e-01,3.145223701697739127e-01,3.344365428167689336e-01,1.568696942848885837e-03,4.042218003945302618e-03,-1.847329058252811631e-03,1.908237487077713013e-02
3.073980594789683107e-01,3.173615473035401591e-01,3.136595207611530545e-01,-1.272566561256983086e-01,9.605271777134974376e-02,7.517673161191412712e-02,3.054371476173400879e-01
4.463193849991595741e-01,3.208700727844228662e-01,4.187092003674149909e-01,-3.212380989081883853e-02,1.126833257326448345e-01,1.399353009328570818e-01,3.361104726791381836e-01
3.138685360219989895e-01,3.126626803776531016e-01,3.363103252433910506e-01,7.677236204970174773e-04,2.530603694161981127e-03,-1.154081245774777210e-03,2.360350266098976135e-02
3.408591404578318884e-01,3.048243684272140541e-01,3.675190727456325579e-01,7.112174541289303063e-03,5.200183603142879106e-03,-1.148059565377081495e-02,5.998523533344268799e-02
3.114506028883680666e-01,3.240048756329859669e-01,3.439015703348557440e-01,3.064847780055563863e-03,1.136991073309964826e-03,-5.124642653899418553e-03,3.023442998528480530e-02
3.001669355034227715e-01,3.015331183287797145e-01,3.305610114285012502e-01,9.789829984099308879e-03,5.393867556916198160e-03,-6.398434636308689485e-03,3.717211261391639709e-02
3.656225753126974842e-01,3.523466066266187635e-01,3.084679278640873323e-01,-2.400487571979174548e-02,2.050609301659204325e-02,4.720381480309650962e-02,1.111706942319869995e-01
3.144527664776698983e-01,3.197187467340945610e-01,3.277988654500296750e-01,1.285361175250053240e-03,1.621584691559481472e-03,-3.689497468819059010e-03,1.375684794038534164e-02
3.081160657197720143e-01,3.187290396577017182e-01,3.313936105303499358e-01,2.112426888042588397e-03,1.331580341258307380e-03,-3.525272550340885578e-03,2.152729220688343048e-02
3.392791934549848620e-01,2.114426755332451668e-01,2.391405004142552471e-01,-4.543356109849169822e-02,7.068137984345194968e-02,1.154922411928032133e-01,2.734302878379821777e-01
3.799111548326296051e-01,3.856953669471285817e-01,2.387964092784887749e-01,-1.305235614059810671e-03,-1.936455102522148444e-03,-4.332216923624070300e-03,1.443458795547485352e-01
3.189405262861564339e-01,3.304163572661256709e-01,3.186957245360684809e-01,-4.253372056096340302e-03,2.654343389994364040e-03,2.843868205551367857e-03,1.530479732900857925e-02
3.437978248092360412e-01,3.323799101201887485e-01,2.212466444445982672e-01,1.138256566357879682e-02,2.150688117835694579e-02,-2.990800920187539416e-02,1.349432319402694702e-01
3.120049297599892801e-01,3.415659926215495190e-01,3.158558930521671582e-01,-1.962003780413715346e-03,9.785191190700361259e-04,4.038418833930122222e-03,2.895160019397735596e-02
3.040482311201166410e-01,3.136125171023956826e-01,3.346174757715081882e-01,-3.624995142238859359e-03,2.088123845493346665e-03,5.431093569944583400e-03,2.957320027053356171e-02
3.100964980786196645e-01,3.101791942646509592e-01,3.244096957504483125e-01,-2.935562171672715173e-03,4.735965262747644788e-03,2.619215723808391953e-03,1.781607046723365784e-02
2.921819943338349046e-01,3.453129176262867972e-01,3.323415655183405426e-01,-2.416527765364132226e-03,7.476475476207486426e-03,5.926915305672828677e-03,5.091726407408714294e-02
3.051598053731520710e-01,3.254729264715816028e-01,3.155796304553111220e-01,-1.418282343886910577e-03,2.338897062761103110e-03,7.633673221750631420e-03,2.251224778592586517e-02
3.873730421362626686e-01,3.661867040307085763e-01,1.932219225008269259e-01,-1.585486389385188169e-02,-7.091202752884394334e-02,-1.415578764634660702e-01,3.316409885883331299e-01
3.113386544599009431e-01,3.185674142025000655e-01,3.173755969254027365e-01,-9.172930308327111818e-04,1.611019799277510055e-03,5.383532878523509917e-03,1.192970015108585358e-02
3.338727910712123159e-01,3.164222730111994619e-01,3.150824652165069018e-01,-4.221410654823101218e-03,1.022520117811808989e-03,2.172271970877984702e-03,2.001124434173107147e-02
4.946587329825476997e-01,3.524049724200181699e-01,1.002957834029888362e-01,4.430326848710735427e-02,-4.604458944660601120e-03,-9.304091068942757503e-02,3.893333077430725098e-01
3.308081102642670412e-01,3.234077631930031282e-01,3.614918697773174538e-01,-5.820149430361041404e-02,2.779510114497076023e-02,2.862046499657926873e-02,1.271246075630187988e-01
3.325981969891838030e-01,2.815006561919933259e-01,2.117088931141564156e-02,-1.978055543908257240e-03,-1.748761762344227394e-02,-9.270039168621591052e-02,3.322559893131256104e-01
3.006323307554941149e-01,3.508055450694121946e-01,3.209885860434375515e-01,8.295937833843564319e-06,4.034813635394406302e-03,1.266446506190615096e-03,4.431749880313873291e-02
2.696272595938396521e-01,3.387029817135598919e-01,3.229116429317424042e-01,4.603915466464709831e-03,6.964043064629949452e-03,-3.933011090591822384e-03,6.469552963972091675e-02
3.165924878015144994e-01,3.218774823992029410e-01,2.764450925293510108e-01,2.709059648973826534e-02,3.734712192789325924e-02,-3.086002965456930910e-02,1.053331419825553894e-01
3.085698717595748430e-01,3.494072136426634723e-01,3.050335424576823828e-01,1.077143591328389056e-03,7.973983215859497403e-03,1.691102733031134373e-03,4.502690210938453674e-02
3.986761165495978365e-01,3.812829291269290155e-01,3.249094368450718973e-01,4.519463906061408492e-02,5.519874498795872275e-02,-4.360651364535189645e-02,1.594802886247634888e-01
2.600482299389928476e-01,1.954506442098668528e-01,3.304171548876257414e-01,-6.889574351321593737e-02,6.160903733341263275e-03,4.790871891267600019e-03,1.676093488931655884e-01
3.519124808929567361e-01,2.452171216157007227e-01,3.670015074134588273e-01,-1.491598643377610271e-02,8.275134754201770443e-03,8.498328086883468607e-03,1.196288689970970154e-01
3.371036000095998797e-01,2.239473579104632461e-01,3.527170484052484234e-01,-3.092656871242844413e-02,6.437026873941666637e-03,2.539259857297596415e-02,1.405093967914581299e-01
2.987478926670884549e-01,3.451422992861131744e-01,3.210736719575926768e-01,-8.962516760201453886e-04,3.580343259218581650e-03,2.212088677564814226e-03,4.087341949343681335e-02
3.154985802807180328e-01,3.455832087551446996e-01,3.111180111533776715e-01,-1.560490768864347504e-03,1.551889871159371943e-03,-3.273064646161314974e-05,3.271995857357978821e-02
3.131925977558791541e-01,3.369623895229076904e-01,2.525696504818872867e-01,-3.458888844240310279e-03,2.440774815416415361e-02,5.343457816737368082e-03,8.712004870176315308e-02
3.061964917223776728e-01,3.552040385273103063e-01,3.213994421869470486e-01,1.733098663459324779e-03,2.226272412918057012e-03,-2.877925764676739825e-04,4.372571781277656555e-02
3.233507823813358550e-01,3.553301206363194686e-01,3.027102058243126281e-01,1.437671217161071635e-03,4.937110960266211795e-03,-1.010200386037021954e-03,4.680994525551795959e-02
3.249959579460515724e-01,2.122273383886282838e-01,3.240050645944307361e-01,-2.944023980862294637e-02,9.159824091010399308e-03,2.323591477182526677e-02,1.306813508272171021e-01
3.105909482533465438e-01,3.522122255132135171e-01,3.232285736579696422e-01,2.566603344202428479e-03,3.285643120527795193e-03,-5.873573461288628811e-03,3.900886327028274536e-02
2.843690568310769939e-01,3.496068170292182531e-01,3.262394027785171513e-01,2.429179051300858153e-03,6.595899845978004349e-03,1.241106989322331156e-03,5.856965854763984680e-02
3.410058390905907344e-01,2.793733373458623381e-01,3.097030722087147359e-01,-6.075034244165654698e-03,6.054467376067361288e-03,9.761648067839572007e-03,5.792855843901634216e-02
3.124305627070964042e-01,3.338039031960144953e-01,3.120469090497794418e-01,2.529427155050440693e-03,9.813191541802352303e-04,-1.076864820823014886e-03,2.215239778161048889e-02
3.166246412731240079e-01,3.264568598292754698e-01,2.994159209013539380e-01,7.067652224092179497e-03,4.534587365170497653e-03,-2.657435535554574738e-03,2.819114923477172852e-02
3.095812066447696798e-01,3.131810692163264354e-01,3.295116416435324713e-01,9.936327444848755928e-04,2.750889769681293378e-03,-3.468993351421199942e-03,2.000500634312629700e-02
3.365425365821767545e-01,2.633813009763533719e-01,2.549019800599788277e-01,7.145805208187616317e-04,-3.472040787233400126e-04,-3.946993552079360035e-02,1.035390943288803101e-01
3.242214537020292608e-01,4.085360899068953278e-01,3.278196588017562862e-01,3.762229924577249057e-02,6.215709145359790688e-02,-1.350627568986556386e-02,1.523240208625793457e-01
3.142083947949556033e-01,3.166396544362997112e-01,3.227821193687002710e-01,4.443227779527591571e-04,2.034386634918861417e-03,-9.116283370406052166e-04,8.606769144535064697e-03
3.606537456498172256e-01,3.681320414900199900e-01,2.304785383833444223e-01,-6.318234687925573974e-04,-1.436995783480953665e-02,-8.305388701091896697e-03,1.371226459741592407e-01
3.314995021174592660e-01,3.674536476380113603e-01,2.314676619340492181e-01,-2.340075100579735307e-02,-4.704854657128874906e-02,-5.413787044687495831e-02,1.788067072629928589e-01
3.091610064372934952e-01,4.164297634629053890e-01,1.624586383423622937e-01,-5.349136400216632919e-02,-1.244615306261128845e-01,-1.025834987000712600e-01,3.679549694061279297e-01
3.097920497704706455e-01,3.302782593945337020e-01,3.156628268666908932e-01,1.612188484118066241e-03,1.341473347137782206e-03,-5.500240972788285679e-03,2.092450484633445740e-02
3.108554653102576504e-01,3.229958822873107427e-01,3.352724541712169826e-01,1.721348034597988035e-03,1.624036595825974856e-03,-4.886543423944688519e-03,2.314266934990882874e-02
3.194094239058332674e-01,3.158341337861070852e-01,3.138967947392109492e-01,3.246799513777435826e-03,1.257326348287910248e-03,-2.318502587172343362e-03,8.715310133993625641e-03
3.268121514670988548e-01,3.495383314914997097e-01,1.102693880076148214e-01,-1.684268772955562973e-02,-7.085623752669045761e-02,-6.265140430452678655e-02,2.828725576400756836e-01
2.943785809841185097e-01,2.860290747012962376e-01,-1.297878711066294266e-01,1.772960355023631140e-02,-1.786229474322090574e-02,6.172441256116094344e-02,4.356319904327392578e-01
3.398346663643544985e-01,3.160490440020051195e-01,2.973620739920475042e-01,6.670149369841801498e-03,6.678560712677719842e-03,-1.758744010877752451e-02,5.054380372166633606e-02
3.315377422782344041e-01,3.322487889852928644e-01,1.411275935531379200e-01,-2.356722517773244402e-02,-6.623084627420110226e-02,-7.755022586569354504e-02,2.631726562976837158e-01
3.125260981064442722e-01,3.195433383385746229e-01,3.231646454865185203e-01,8.626556970232850509e-04,1.464414799300951418e-03,-3.896412148710941704e-03,1.191550493240356445e-02
3.162222390743318901e-01,3.265173455394514979e-01,3.240490407675522544e-01,-9.568501010357919039e-04,1.629793769038464461e-03,2.911573974631876272e-03,1.108230277895927429e-02
3.119620282490035978e-01,3.424740519627684776e-01,3.048986793372387427e-01,-3.573512816628248573e-03,4.731356875706050139e-03,8.787512544028888272e-04,3.611336648464202881e-02
3.159330114526774924e-01,3.229653965061183296e-01,3.136040142926520002e-01,-6.041388679718163231e-04,4.614000653217973898e-04,2.041635137229607429e-03,9.246378205716609955e-03
3.138488461060889301e-01,3.225194097365743917e-01,3.143328712095993516e-01,-1.005591421435465208e-03,1.750903627643950970e-03,2.827897227789352708e-03,1.036522164940834045e-02
3.130428470572585442e-01,3.150648464702234808e-01,3.254581309566896841e-01,-2.673842603942830267e-04,1.488497852629647308e-03,2.731435919304823611e-03,1.274235639721155167e-02
3.072683803081690534e-01,3.045950887165974064e-01,3.266770234831465336e-01,-5.335387205722180205e-03,3.493325798779064843e-03,1.750500288314913713e-03,2.381026372313499451e-02
3.211563694123265589e-01,3.266576679370589709e-01,3.167778822628153912e-01,-6.385001686312983399e-04,1.169639632196770940e-03,7.866471014112951790e-04,8.983677253127098083e-03
5.261597996748860195e-01,3.981303337653558927e-01,6.200622598446227096e-01,-9.831035011977293236e-02,6.401835719799978119e-02,8.208795525784490232e-02,3.142238259315490723e-01
3.726724214300755067e-01,3.879583364821809210e-01,2.018776157289961237e-01,-6.994242078606610277e-03,2.491496566482694769e-02,-1.603043864361834020e-03,1.844776719808578491e-01
3.631998395790567713e-01,3.602699531084464502e-01,2.367949549813799237e-01,2.434550557806277899e-03,6.582926896868967342e-03,-2.842668471076073566e-03,1.256521195173263550e-01
4.252523879810690133e-01,4.180383448509796818e-01,2.291256661188115495e-01,-1.404276751496019802e-03,-1.888715722201049496e-02,-3.081010852944807837e-02,2.025506049394607544e-01
3.095002727066833437e-01,3.346971027548085731e-01,3.052845542276443336e-01,-4.022226080640558740e-03,4.468653282164271497e-03,1.572142740989553684e-03,2.957586199045181274e-02
1.234684546191796434e-01,1.909938023911183502e-01,3.241619330426903645e-01,-1.495375790845880903e-01,3.478742328695751118e-02,3.319065416926411660e-02,3.245080411434173584e-01
3.159275872744707891e-01,3.403761474266192022e-01,3.149214893679473382e-01,-1.621602787980635368e-03,6.194688803731977084e-04,1.875444441277656325e-03,2.535613998770713806e-02
2.305390328357364849e-01,2.331915298446924079e-01,3.342314292771436102e-01,-6.932405306122177424e-02,1.344121079994102866e-02,9.987380606996654892e-03,1.604456901550292969e-01
2.371443118246805981e-01,3.700395946575678607e-01,4.028604037112979430e-01,-1.718762014097001412e-02,3.499104585812447266e-02,2.793872131469599812e-02,1.732084602117538452e-01
3.092172144796603295e-01,3.381277070209536828e-01,3.081443970423845546e-01,-8.553246237533910319e-04,1.240997283727679999e-03,1.728777951584920805e-03,2.972817234694957733e-02
3.239978461124037312e-01,3.243933872451299494e-01,3.223005409060010207e-01,-2.343505061634889100e-03,1.700482442548476286e-03,2.713593892090882323e-03,7.137954700738191605e-03
2.820303221363379964e-01,3.354802206108271623e-01,3.123202808455979307e-01,-2.881722928115114900e-03,5.275658167152285846e-03,4.332753154767917184e-03,4.816748946905136108e-02
1.972407611287588514e-01,3.570335207693409174e-01,3.904097896464112649e-01,-1.374733145979220583e-01,2.934548204033052970e-02,2.232542485866329321e-02,3.045594692230224609e-01
3.221948564215699196e-01,3.022624133086048159e-01,3.573320812402535074e-01,-1.819525781848648979e-02,4.103707917287104621e-03,4.713524009800473119e-03,5.867429450154304504e-02
2.287053933588250876e-01,3.141672564419766833e-01,3.687389647923496883e-01,-7.672871951310167304e-02,-9.551904356959046690e-04,-1.645639797704180271e-02,1.828186661005020142e-01
3.158131337425740814e-01,3.327501062016994249e-01,3.168215266772252403e-01,-1.203832429119744678e-03,1.457958582732513369e-03,1.010279200736342040e-03,1.686965674161911011e-02
2.739510383181459896e-01,3.226203211778152502e-01,3.588580465576124423e-01,-6.404895475539250198e-03,1.090701521204597268e-04,-1.736592460230030862e-03,7.468391209840774536e-02
3.104651283392648176e-01,3.468088551024115507e-01,3.144414150556426590e-01,-3.983419365763174501e-04,1.353129429481451929e-03,-1.239432570011265566e-03,3.468056768178939819e-02
2.420832194617702215e-01,3.409022173178648529e-01,3.591162322873235890e-01,-2.798717657504055240e-02,2.350095343405968554e-02,8.858565085178141119e-03,1.270393133163452148e-01
3.030111811178407555e-01,3.467455360461544900e-01,3.204390868122253266e-01,4.373434322433424407e-04,1.695271128543138954e-03,1.279882567188902597e-03,3.831889107823371887e-02
3.082336706484479216e-01,3.353385358345096212e-01,2.796352488421882665e-01,7.118555882506274156e-03,8.796842220385143324e-03,-3.670023464259871120e-03,5.246219411492347717e-02
3.594141822330311209e-01,3.792547299331506250e-01,3.586016122577699305e-01,4.348157675239637532e-02,4.888313886910929107e-02,-3.965582945610143795e-02,1.340477913618087769e-01
3.089971832715380229e-01,3.466878996433662707e-01,3.142452859879287241e-01,7.836090275978801426e-05,9.119407776519083356e-04,-1.019744366833089458e-03,3.543953970074653625e-02
2.681107805346432116e-01,3.430335404089991380e-01,3.163881649065135582e-01,-9.078983786396769423e-03,4.055563246917445047e-02,1.739124478377188088e-02,1.020587012171745300e-01
3.148348853026680105e-01,3.455222556879157247e-01,3.198288548009552423e-01,1.323970802880975080e-03,1.092532336523221624e-03,-2.795349909327577570e-03,2.908064983785152435e-02
3.109774804551117544e-01,3.409273585898933701e-01,3.129963516706646964e-01,1.529122144694267365e-03,3.601780936892683182e-04,-8.921753416496029654e-04,2.916158176958560944e-02
6.773088535829807633e-02,3.642938363852282757e-01,3.597761092048059606e-01,3.923358721278944828e-04,1.570313881098171077e-02,2.260864477418684029e-02,2.981675565242767334e-01
3.424840842435049049e-01,3.117140288893107680e-01,2.977031539979124730e-01,-4.417088192052134182e-03,3.513833821205287859e-03,5.734540325464278568e-03,4.205287620425224304e-02
3.263049925116865979e-01,3.114839904922478975e-01,3.205017959652707304e-01,7.791580503430697293e-05,5.253653419411483463e-03,1.574195154988017233e-03,1.604945771396160126e-02
3.128821414693843117e-01,3.313587650700786091e-01,3.237762015914995017e-01,1.122443040168463269e-03,8.100555273182426014e-05,-7.038565359352710014e-03,2.027817256748676300e-02
3.127863236233586197e-01,3.296919461853240474e-01,3.051961081062825598e-01,4.433675121166665879e-03,3.471357370054242893e-03,-2.972091301740181941e-03,2.435882017016410828e-02
3.234036272407059820e-01,3.575800280292475430e-01,2.896743594974816594e-01,-6.001612341259373110e-03,1.167079704089709832e-02,1.530811921308810361e-04,6.304907053709030151e-02
3.254597026925636905e-01,2.995471876971079195e-01,3.179983987365869180e-01,-2.720693761437796652e-03,7.659101950368159793e-03,4.203775428284825880e-03,2.801777236163616180e-02
3.154846342184011165e-01,3.336691733369289148e-01,3.202830222481900524e-01,1.003745307390346148e-03,3.694038786605356880e-04,-2.665137223531484703e-03,1.706418022513389587e-02
3.247427987959979334e-01,3.136065568072615162e-01,3.129261442900123091e-01,-4.013121002982034460e-03,3.068355882830359638e-03,3.327558633574932093e-03,1.555100828409194946e-02
3.179244598295316582e-01,3.217010766955857304e-01,3.256663417995782073e-01,2.352028152852401728e-04,8.904407975697819664e-04,-1.799008258649742410e-03,7.564083207398653030e-03
3.160168698637870199e-01,3.162102661875050846e-01,3.159274754059741563e-01,3.583640173803012696e-03,1.336673357725239215e-03,-1.104943618667305043e-03,6.900210399180650711e-03
3.263674606591157046e-01,3.121979394508758721e-01,3.243203734878405409e-01,-6.782235117969454691e-03,6.849829368426683246e-03,8.947590414525700281e-03,2.636084891855716705e-02
3.100020669043170862e-01,3.110771772387598277e-01,3.289594802891757097e-01,1.034750124873053383e-03,2.150448375230096243e-03,-2.737598288995949942e-03,1.948658004403114319e-02
3.388064598745412215e-01,3.118643126686027056e-01,3.196319596955010667e-01,-5.330467048293791900e-03,7.092174842601097103e-03,1.026721184671372175e-02,3.360541537404060364e-02
3.163438716709133236e-01,3.216248955353637196e-01,3.213231595895434389e-01,7.416718420663099718e-04,7.247337740322329228e-04,-2.060659839927492850e-03,6.507817655801773071e-03
3.161945303130100360e-01,3.208577525362270588e-01,3.196769967326694162e-01,4.385344231268606158e-04,5.066894092924930726e-04,-1.334110639152210221e-03,4.931570962071418762e-03
3.513172602968237523e-01,3.417481372197945233e-01,2.579696660039139111e-01,7.600913886292083067e-03,2.500148701212589510e-03,-6.120830082110459772e-03,9.064520895481109619e-02
3.434132053838618859e-01,3.406366598121077782e-01,2.548267401986088476e-01,6.027671425966378560e-03,3.333243620023471857e-03,-6.430949725440647698e-03,8.874518424272537231e-02
2.398879575385432228e-01,3.892785209330872909e-01,4.059177016186666931e-01,2.724397742965566430e-02,1.082518997786764692e-02,2.333006295385096560e-02,1.711469292640686035e-01
3.728225822847320847e-01,3.269892882925050093e-01,2.412291417368936930e-01,3.273035722563340938e-02,3.970191029384050052e-02,-6.758271053467507228e-02,1.871656626462936401e-01
3.543989755055307889e-01,3.580285630465920299e-01,2.244566009540828466e-01,3.379699590340546744e-03,-1.319902750038793844e-03,-5.104855022469935791e-03,1.322403252124786377e-01
3.041197585880178744e-01,2.208245676046157735e-01,3.276481201402591248e-01,-4.929842521835153812e-02,-2.670145793826517178e-02,-2.609679594346953069e-02,1.446530669927597046e-01
4.630131966872103044e-01,4.068518540892369084e-01,2.507445652791809865e-01,-4.680402078652029507e-02,-7.569768360010678543e-02,-1.321261760073255409e-01,3.352984189987182617e-01
3.535320613256789368e-01,3.570709127155849427e-01,2.403140011297210665e-01,-1.016890222031377553e-03,1.380658398067628658e-03,2.228261930531882495e-03,1.151313632726669312e-01
3.307561584895354900e-01,3.082956782237769588e-01,2.862925509692882953e-01,-9.847466196507269690e-03,1.570996956949336290e-02,1.702040728438719563e-02,5.816546827554702759e-02
3.133815894435127980e-01,3.155103806059934013e-01,3.311107064294235292e-01,2.538844725354233445e-04,1.212492082472884985e-03,-8.810823627723485566e-04,1.697187311947345734e-02
2.766619424356934753e-01,3.266560421768883726e-01,3.509472698107551358e-01,8.781638060224068384e-03,6.468497367475253054e-04,1.183347623210166780e-04,6.735384464263916016e-02
3.121796618965131387e-01,3.460349105599316299e-01,3.130472159398235421e-01,2.493110897913632974e-03,8.687760345902114777e-04,2.402610901615449737e-04,3.374379128217697144e-02
2.139715662901476856e-01,3.124735942017395907e-01,9.989552094494542900e-02,1.244557248972530568e-02,-1.436915260252401016e-01,1.860470038560840811e-02,3.120858371257781982e-01
4.905478543630998334e-01,4.657840647551499957e-01,4.237596783415665813e-01,1.390728431188197056e-01,1.234852125514973586e-01,-1.022661688862161466e-01,3.722427189350128174e-01
2.429382113794755216e-01,3.463610808248709927e-01,3.545938389497554910e-01,3.846723018229513194e-03,-4.427039603902211892e-03,6.031930389821648503e-03,1.087559834122657776e-01
6.321007297928691315e-01,4.313679120512429743e-01,5.239544597540980453e-01,-3.174661510142751455e-03,5.337773493159856525e-02,1.725025202460931939e-01,3.579523861408233643e-01
3.033632893834926625e-01,3.349017989483527580e-01,3.447953153392323555e-01,5.057479081663701984e-03,2.606514469108800296e-03,-5.022598495004779867e-03,3.971626237034797668e-02
3.504040768655142246e-01,3.174013912090783429e-01,2.891883143836960213e-01,-4.951120118613202420e-03,3.204155129360975254e-03,9.954787418069174429e-03,5.672650411725044250e-02
2.355998266951832010e-01,3.666129970321039266e-01,3.750978802935671652e-01,5.537528265174840314e-04,8.162335797812849151e-04,4.508815606045310509e-03,1.356907635927200317e-01
3.230216269290287490e-01,3.058527698376149462e-01,3.433354564048727853e-01,2.759530838401804635e-03,3.825540048812060834e-03,-5.318773035798402384e-04,3.352289646863937378e-02
3.581600406067763642e-01,3.297256068539636820e-01,2.392422031208389643e-01,-6.319253021889192218e-03,-4.090741583981529969e-03,-4.437960443924421350e-02,1.328429728746414185e-01
3.027230800607755845e-01,3.289453776091987303e-01,3.345400817046459974e-01,2.975292686485871228e-03,3.038146389217131430e-03,-6.660388416421953936e-03,3.244912996888160706e-02
2.898620038292388790e-01,5.538563931951523411e-01,6.020999528148355262e-01,-3.873695294221056462e-02,6.411997564016229390e-02,2.777972767451101360e-02,3.223467469215393066e-01
2.358842742602479670e-01,3.664805925647313112e-01,3.635122767620512785e-01,-3.969997382070898639e-03,-1.103165481146882115e-05,1.090681359996829251e-03,1.293344944715499878e-01
3.458478619832858758e-01,3.364395964396708072e-01,2.403250528829281030e-01,-4.904422318294804871e-03,-5.167108316477889152e-03,-8.584299391253116807e-03,1.029763072729110718e-01
3.877877893269298104e-01,4.558494738709530369e-01,3.256456134855025830e-01,-7.686567040885936009e-02,-1.333738272902593169e-01,-8.749287552684442693e-02,3.267709910869598389e-01
3.776724432365943240e-01,3.286953429877708110e-01,3.379744732460557288e-01,3.006940521558006466e-03,1.824224580608259545e-03,2.295598183829942324e-02,6.040226295590400696e-02
3.361682604813377995e-01,2.887878001979859444e-01,2.604693044627944820e-01,2.395987143946795486e-03,-4.906292641298562327e-05,-1.490738552594307945e-02,7.122154533863067627e-02
3.640016106946516450e-01,5.717519758152495024e-01,5.985788452664283499e-01,1.225313230907315309e-01,-3.458762212343165915e-02,4.933086709412989185e-02,3.246297538280487061e-01
3.679470305230273519e-01,2.979607895359995817e-01,3.465899667087308789e-01,-1.271741243426285223e-02,3.562173509165694751e-02,6.325961880671504556e-02,1.419744938611984253e-01
3.243927004472622611e-01,3.156813587799783827e-01,3.118582686346811905e-01,2.958713461101848945e-03,2.728994892074996549e-03,-4.431141546981638354e-03,1.520910859107971191e-02
2.113077744063964758e-01,3.497275018848327033e-01,3.529454659471158440e-01,-5.846722197594245163e-03,-7.367792903225666747e-03,5.714550960601242745e-04,1.410042196512222290e-01
2.900334483786365380e-01,2.436207855200388517e-01,3.229573868105940493e-01,-4.545967974058547773e-02,2.922067824758619453e-02,2.829912247201566214e-02,1.262141913175582886e-01
3.148416379093122441e-01,3.164370368445457715e-01,3.387189193927269137e-01,6.000009389217635276e-04,3.127940346254432739e-03,-2.412270620079487102e-03,2.413431741297245026e-02
3.259637338224455338e-01,3.314577621044187961e-01,2.986418014740631621e-01,6.299524280136216230e-03,-2.600457660650962784e-03,3.271002998165204421e-03,3.313936293125152588e-02
2.996611328018277121e-01,2.768783447649535434e-01,3.268991061258997854e-01,-1.093956775395108112e-02,6.350995471225739757e-03,2.453773713272319919e-03,4.878124967217445374e-02
3.210961036982591388e-01,2.824381436696178360e-01,3.414329682964394319e-01,-6.167365987084107333e-03,4.452295995672978304e-03,1.415228182637907331e-03,5.360778048634529114e-02
3.121997032777703573e-01,3.169746646952197877e-01,3.320591013409619485e-01,-1.507802893089674407e-03,1.084035696280623556e-03,9.138049341827431463e-04,1.830898784101009369e-02
3.507235515650145019e-01,2.558702672813229495e-01,3.483084638624934781e-01,-6.972794764754364910e-03,8.422167157225497747e-03,3.637462828406656367e-03,9.577187150716781616e-02
3.250943973209342586e-01,1.252421533331453118e-01,2.847579498487164962e-01,6.024604992844431045e-02,-1.592475418876153695e-02,9.962554223693126376e-02,2.737369537353515625e-01
2.767695708283355316e-01,3.063378770951338814e-01,3.545123253047712808e-01,-1.071565630250529907e-02,3.791215156956173984e-04,-3.034412246417827769e-03,7.065429538488388062e-02
3.428355554003197359e-01,3.063499669032112016e-01,3.018463130569207786e-01,3.355748257386900833e-03,1.679205392147349769e-03,-6.061174693328803993e-03,4.084428027272224426e-02
3.661132098425338155e-01,3.403923101790715111e-01,3.008376061260013001e-01,2.504157600230693618e-04,-7.633383215998939750e-04,6.610994346254815864e-03,5.810829252004623413e-02
3.581085403002415291e-01,2.166141456759451689e-02,3.442283963099019850e-01,-5.973966846812604065e-02,1.516487463304013600e-02,3.194402544117984875e-03,3.466214239597320557e-01
3.786763835792223976e-01,2.464475404318733076e-01,3.730890174183280061e-01,6.887754125753258773e-03,-2.854596347552432623e-03,-5.448338093554059083e-03,1.305093765258789062e-01
3.808263605939039564e-01,3.568393481085496144e-01,1.878934544001938656e-01,-2.475863306314738180e-02,3.575244372973336582e-02,1.022857355428340720e-01,2.650120556354522705e-01
3.335948142867036781e-01,3.026369618210429935e-01,2.793623425765827117e-01,6.461805308084701133e-03,1.488995859531368725e-03,-9.206239639122667726e-03,5.105692148208618164e-02
3.412189129327836135e-01,3.360769131893777684e-01,2.571298219254618544e-01,-1.492990780492487422e-02,-2.786429583216841824e-02,-3.074932635788301880e-02,1.118014156818389893e-01
3.417025457869844463e-01,2.944179363809762418e-01,3.020845983924191902e-01,1.110338223449475279e-03,4.317824824764233092e-03,-6.805559877747917839e-03,4.615921527147293091e-02
5.690626468760418000e-01,3.017139608419577290e-01,5.996796209451501491e-01,-5.002411995126773009e-02,5.896059053654354593e-02,7.172801141405577008e-02,3.375931680202484131e-01
3.011714081672472454e-01,3.440616581586051770e-01,3.358963133734478301e-01,-2.858721687545704229e-03,5.018186231983343126e-03,6.350639275620007657e-03,4.215552285313606262e-02
3.612150119448039876e-01,3.246365857055245052e-01,3.098306158159357948e-01,6.953956764282044622e-03,6.042037460595696234e-03,-1.781754252828203489e-02,5.749576166272163391e-02
3.607636839548079011e-01,2.425414507649887863e-01,3.472739210550827571e-01,-5.148166901223039799e-03,1.306417270485260747e-03,3.457873885631752593e-03,1.126240715384483337e-01
4.219686575873414225e-01,4.218723952131675503e-01,2.653973937884746004e-01,1.425774883270843280e-03,3.067690168048736038e-02,1.512459775310072245e-02,1.673770397901535034e-01
3.164165952664744208e-01,3.513972794642168940e-01,2.534540041180158854e-01,4.294146289685751502e-03,-9.235942275787022149e-03,1.859737203205439379e-04,8.775956928730010986e-02
3.329266812035273637e-01,2.692735859343232119e-01,3.434555533903181357e-01,-1.260285879134781344e-02,7.615188472922627440e-03,1.448200595655473912e-03,7.409136742353439331e-02
3.468020245208219832e-01,2.590410392644085236e-02,2.877666105718507672e-01,-9.541867372362945049e-03,2.621207864019602443e-02,9.431326161522456120e-02,3.413731753826141357e-01
3.106853263503013274e-01,3.181939877023855501e-01,3.232680039580554943e-01,1.223738080917091426e-03,-1.560420583734938938e-03,3.483689751767958531e-03,1.297807134687900543e-02
3.068074610716108319e-01,3.374263379913788885e-01,2.531387130053735501e-01,1.745629926148761085e-02,-4.260846601667156452e-02,2.548030641464661683e-02,1.173434108495712280e-01
3.381720109995627332e-01,2.461653096093358306e-01,3.601682860549559884e-01,-9.503506947905256130e-03,3.891780111660885898e-03,-4.742202460836578148e-04,1.062541157007217407e-01
3.162248656482711251e-01,3.165010915946908088e-01,3.312215589859440756e-01,6.409761192984942471e-06,1.708307936509853011e-03,-7.651807985461888794e-04,1.521006971597671509e-02
3.268046186928909580e-01,2.898848170346561837e-01,2.866023193716881190e-01,5.621334678963237595e-03,5.307280550412624490e-03,-1.214577974796949601e-02,4.600973427295684814e-02
5.629978907618109485e-01,3.316169882007153347e-01,4.118437252821098848e-01,-3.224447525049300555e-03,6.969034513603014624e-02,1.152328100919817883e-01,3.095928728580474854e-01
4.214981417794033125e-01,5.943778807258754959e-01,5.672434332178004635e-01,-1.385299958003864684e-02,1.280871277917748352e-01,5.876340161606753015e-02,2.934054434299468994e-01
2.823117809739398298e-01,3.739356684045295198e-01,3.745223339608355073e-01,-6.461030587950213240e-03,1.361546495271949431e-02,7.511077194804218447e-03,9.643474221229553223e-02
3.290252878105656142e-01,2.911513955935237097e-01,3.456046010730073892e-01,7.029755128485150849e-03,6.658110598158703194e-03,-3.573087229241062729e-03,5.154389515519142151e-02
4.109989672248495207e-01,2.374639329066113302e-01,4.204042717035474386e-01,-3.993355051743510686e-02,1.658767386828296359e-02,2.265654887503342277e-02,1.974449157714843750e-01
2.308735810594485793e-01,3.412210076673237724e-01,3.416120797949156462e-01,-1.904540071201847248e-02,1.436989394612755511e-03,3.544496325202436873e-03,1.155505478382110596e-01
2.570167493911466039e-01,3.840890749828232975e-01,2.970637283063977674e-01,-1.062985938050250816e-02,-8.134660652854533436e-02,-4.028485306672259687e-03,1.813884079456329346e-01
2.396872925755691996e-01,3.589820008540343665e-01,3.700468773993673688e-01,-7.450347745267382055e-03,1.405738444094194704e-03,-1.910331134072695359e-03,1.259247362613677979e-01
2.058975077131445786e-01,5.557647230579620956e-01,4.886740287166662644e-01,4.490083677058120948e-02,1.523961552301585920e-01,3.068257449036780604e-02,4.265930950641632080e-01
3.065071956193483604e-01,3.108695805128596223e-01,2.884342166126985796e-01,-7.512124567918002788e-03,-6.167620473841162881e-03,-3.848763078058680884e-03,2.742914296686649323e-02
3.491459922908827229e-01,2.158758188437398806e-01,3.300057387459885416e-01,-1.034280326219382679e-01,3.192388198095019725e-02,1.121962021772648921e-01,2.974725365638732910e-01
3.153664594323286607e-01,3.151408993290591987e-01,3.374380836185429389e-01,7.967331111371860324e-04,2.076969496443361804e-03,-1.382805992489156803e-03,2.264438569545745850e-02
2.345139564267491039e-01,3.727874279997688278e-01,3.778048557991379175e-01,-3.993266266915962426e-02,1.835376792710989233e-02,-2.601410454515348282e-03,1.601662933826446533e-01
8.890204265895867985e-02,3.582151909208762808e-01,3.576602653067070259e-01,-4.745992103430027309e-02,5.318754155009894000e-03,1.077326266098914236e-02,2.820830047130584717e-01
2.823825217089050987e-01,2.810279710146724175e-01,3.198280854120102989e-01,-1.636035395826328925e-02,-1.217883872699272729e-02,-1.202751121889686359e-02,5.600594729185104370e-02
2.973719904396467939e-01,3.048669848665836457e-01,3.636489748064264949e-01,-4.735113391776338276e-02,-7.245458553494637903e-03,-3.543708310110046597e-03,1.042766571044921875e-01
2.788050390023478764e-01,3.630893204949504627e-01,3.767214322772121649e-01,-1.657069619342264183e-02,2.616672057531110526e-03,6.240118143716830330e-03,9.695240855216979980e-02
5.654021198514544988e-01,5.897032874867316199e-01,2.577586540395237491e-01,1.679603625822962548e-02,-8.045008782392160107e-02,-2.647300105239058440e-02,3.536616563796997070e-01
3.678383793908514554e-01,2.692223507995053500e-01,3.728176937954343906e-01,8.982244776159335059e-03,-3.884738774832570928e-03,1.361562403608635200e-03,1.026344597339630127e-01
2.390586863705549681e-01,3.419322748857920868e-01,3.605595133818014775e-01,-5.326757069668584810e-03,-1.803264009684222777e-03,4.753043812380649061e-03,1.140563562512397766e-01
3.519644359706908809e-01,3.255238639588252658e-01,3.083078974630734104e-01,-1.132986224162339621e-03,5.280207214137389547e-03,1.793376764072614898e-02,5.003045126795768738e-02
2.118555117505534213e-01,3.447514886174182225e-01,3.175197710102398152e-01,1.413602444866676744e-02,-4.178021449126869541e-02,9.585167135790037540e-03,1.445537507534027100e-01
3.116673174794320489e-01,3.425520596415795316e-01,2.933820407833113153e-01,-8.278240586174035603e-03,-1.447211809841833334e-02,-6.511323847574684333e-03,5.304772406816482544e-02
2.746926186814170889e-01,3.906578707075384349e-01,3.850103479704218290e-01,1.197864475442161555e-02,6.511561220674869782e-03,-1.896799132466786032e-03,1.157297566533088684e-01
2.187898881859466349e-01,3.009942906133498686e-01,3.257691222039816870e-01,5.837440260537134218e-02,-1.784238924901658183e-02,1.122989779943527056e-02,1.447896808385848999e-01
3.188177508238414504e-01,3.599574122161876000e-01,3.092280095500259396e-01,4.106600945308392508e-03,-3.016873086426836385e-03,2.953498765330592017e-03,4.778096079826354980e-02
3.446899742817896017e-01,2.647373184976669624e-01,3.289477747088611070e-01,6.748591438975350826e-03,-3.077856576707315925e-03,1.543135190304052544e-02,7.912675291299819946e-02
2.646026208531492285e-01,3.655100053255921355e-01,3.566605369442623630e-01,1.330680629610058764e-02,-1.820167348374917074e-02,6.791089423105677383e-03,1.050290912389755249e-01
3.040329898435357725e-01,2.655837125655520770e-01,4.029459255071099477e-01,7.697653151036570884e-02,-4.423428620414936174e-02,8.223477294997530440e-02,2.428973019123077393e-01
3.322390726125653004e-01,1.606541603705566867e-01,3.220256478118417309e-01,6.828908999411834047e-02,-1.125703571517491439e-02,6.858845717539682751e-02,2.372271418571472168e-01
3.072675432381772875e-01,3.429540332197207886e-01,3.085477529673586461e-01,3.355045730379449705e-03,8.784793989636682440e-03,-2.340146068067890280e-03,3.887407854199409485e-02
3.376100777021029398e-01,2.632020265480297105e-01,3.567801364768473094e-01,1.520808921384087659e-02,-3.968461733454975091e-03,1.199595773439306656e-03,8.986588567495346069e-02
3.324639521169463485e-01,3.319683177984344424e-01,3.023342655431204840e-01,-7.319426452831965905e-03,3.929298860925855251e-03,3.474347602686489716e-03,3.370999544858932495e-02
2.498913404989737130e-01,3.248942328173594629e-01,3.420892331163338240e-01,1.621041932968651789e-02,-3.485555183004003434e-03,5.609417654287970380e-03,9.016625583171844482e-02
3.065697980099842956e-01,3.362773317410590046e-01,3.527964670255713808e-01,5.066583586870621048e-03,2.640377970909623707e-03,-6.565778496358951749e-03,4.328297823667526245e-02
2.571937250469508718e-01,3.489553409752179647e-01,3.404900514408143453e-01,2.970812955204240983e-03,3.052119569841000614e-03,-1.811568409831596557e-03,8.820053935050964355e-02
3.132214062287830281e-01,3.235000269932897243e-01,3.212863559926021351e-01,2.191817935630814183e-04,9.601799182440480963e-04,-4.244800064790414315e-03,1.203170139342546463e-02
3.063886436053074869e-01,4.456627645739468790e-01,4.180438388116386461e-01,1.722691293116141928e-02,5.654165423717714967e-02,1.097279967754569846e-02,1.647903770208358765e-01
3.338934083764093508e-01,3.496353204051741437e-01,2.321946816149821069e-01,-4.281967075650910362e-04,-9.644113395803365074e-03,-1.153709723450760177e-03,1.116912737488746643e-01
3.695448427266581626e-01,2.902241545337960194e-01,4.050561658182765257e-01,3.187568486654686339e-02,-4.641134931447297648e-03,4.870658326985154163e-03,1.164198294281959534e-01
2.773543851747272138e-01,3.331600418331655544e-01,3.184269336711500475e-01,-3.582635138006693559e-03,-6.036471030305961584e-03,-9.358812345186571374e-03,5.403452366590499878e-02
2.384232602704470239e-01,5.832020229585166415e-01,5.615570446782408576e-01,-1.687998287760446997e-02,-4.634530272403324103e-02,3.191542991779636185e-02,3.496175408363342285e-01
2.506041917800129748e-01,5.786504635047607925e-01,5.131647253512517937e-01,1.710552326697879072e-02,-1.077649117026728554e-01,3.537180506684867859e-02,3.604046404361724854e-01
7.959838015285991553e-02,3.566170375874228027e-01,3.569267700524889619e-01,-2.703568177381947268e-02,-7.524935543818181416e-02,-2.760644290517672017e-03,3.098843097686767578e-01
3.206557676942025648e-01,3.529570274162358579e-01,2.680278128806368176e-01,-4.403090702731744452e-03,-7.764324607054396733e-03,-1.542283640974334569e-03,7.588922232389450073e-02
3.206640507536716034e-01,4.033508967905186093e-01,3.947965585370772912e-01,-1.155548909332991120e-01,-1.132878212794692918e-01,-6.792944464877750943e-02,3.140181303024291992e-01
2.899322324853423338e-01,3.370009249201839086e-01,2.916339370006196807e-01,-2.147433468237696253e-03,-4.360685692546477192e-03,-4.475086614306066600e-03,4.763634130358695984e-02
3.141501400406465638e-01,2.792038924658066246e-01,4.390222242481238712e-01,1.290545683725747295e-01,-5.472842177089309867e-02,3.378861526639704432e-02,2.890569865703582764e-01
3.100981094757265244e-01,3.308772303847792307e-01,3.113391411127426345e-01,4.807312860307621366e-03,5.978561541596708745e-03,-5.971035371961741327e-03,2.628772705793380737e-02
2.372533730639982963e-01,3.736693394365410703e-01,3.632957139818424608e-01,-2.558706302769876879e-03,1.083189946093992065e-02,1.001743319012826303e-02,1.340689361095428467e-01
1.375933371535884298e-01,4.262452873274484855e-01,5.123669278579826569e-01,7.014468982954201806e-03,7.297219766861451351e-02,1.742721681068571532e-02,3.641834855079650879e-01
2.455132579291467443e-01,4.442669770442307930e-01,5.460053014365719992e-01,-1.432361092344732467e-01,-2.256343597825472003e-02,5.669316064574386402e-03,3.650316298007965088e-01
3.342703534515381603e-01,2.202678447356164748e-01,3.365575749306501940e-01,2.130823066075501065e-02,-1.035133869723450784e-02,1.802659703379143677e-02,1.261784434318542480e-01
3.687624593272599838e-01,2.765865356158119792e-01,3.465212110654752875e-01,3.810498847984786826e-03,-4.797338190601560526e-03,1.167124004510837476e-02,8.638416230678558350e-02
2.586646495332768914e-01,3.414035635121392409e-01,3.555218675824622920e-01,-6.828655886428238418e-03,-5.572576986044620179e-03,-2.292965216367934527e-03,9.198920428752899170e-02
2.627408104056940807e-01,3.438974222436980699e-01,3.646625984120837605e-01,-6.763231336002060133e-03,-5.334984239643742431e-03,-4.273328542817787963e-03,9.476398676633834839e-02
3.450822518755800039e-01,3.261038813056020835e-01,2.728619670998320701e-01,3.016652918656434219e-03,-1.965476460479769621e-03,6.362505651637175713e-03,6.607313454151153564e-02
3.038911597486244620e-01,3.132947623514675817e-01,3.519642862021439278e-01,2.256235972630786166e-02,-9.477181440970695175e-04,1.267004336114528791e-02,6.291945278644561768e-02
3.614555599431924504e-01,3.613553251431198543e-01,2.227339483102404594e-01,1.978932098511014103e-03,-2.858714956648352812e-04,-3.855943558654629632e-03,1.388754397630691528e-01
3.730178739594792736e-01,2.404629474391515309e-01,3.769093393789840207e-01,1.214734801795037782e-02,3.988583465773066355e-03,2.005241833725882224e-03,1.363973915576934814e-01
3.178398497139717227e-01,3.369706800806738789e-01,2.702565296407409834e-01,-9.088561688641156461e-03,-5.552819555116900868e-03,-5.115122791265198920e-03,6.292273104190826416e-02
3.589104772683455180e-01,3.563470780563950946e-01,2.268969723559545737e-01,-1.070966802817503900e-03,7.510759127359059812e-04,2.063798258873207093e-03,1.308191269636154175e-01
3.093932174248666400e-01,3.332126688175185425e-01,3.036921754382792549e-01,3.889634588638705374e-03,-3.424788291162457216e-03,3.457827210988379668e-03,2.919090352952480316e-02
5.778220407201533071e-01,5.914967808094477864e-01,2.828284265179581425e-01,2.567468170870465527e-02,-6.121120262764655900e-02,-3.369094966205196662e-02,3.284287452697753906e-01
3.398038250171884767e-01,3.388144172997459846e-01,2.663308248082117968e-01,-8.399408920237589823e-03,-4.880132814256362556e-03,-4.971069839376789264e-03,7.539096474647521973e-02
3.107391707878158216e-01,3.505200696039704744e-01,2.834061825949578672e-01,-1.251217759116756431e-03,-1.250167891356657700e-02,-9.044312924478291327e-03,6.431107223033905029e-02
2.937415443212952337e-01,3.478233149649803124e-01,3.041607277226876516e-01,1.202960922185802514e-02,-2.524867115970729978e-02,6.765732049021601878e-03,7.038363069295883179e-02
3.062085450176524892e-01,3.270156829633535378e-01,3.066762727438740455e-01,7.935708170282469850e-04,-2.734423861263344063e-05,3.423092806402748046e-04,2.063169144093990326e-02
3.472437273006374614e-01,3.261526788260887821e-01,2.737303934148864193e-01,-2.711677180553219088e-03,4.702832318129820011e-04,6.561994897228915109e-03,6.671185791492462158e-02
2.985007974935263153e-01,3.457382369358250607e-01,3.007737063755518969e-01,2.146560449891671274e-03,-8.137104361161972763e-03,-9.266305495982052809e-04,4.841706156730651855e-02
2.791948147131970703e-01,5.211357073815127139e-01,4.233692206346846842e-01,-3.541611595518753125e-02,-1.348492545955938815e-01,-1.539877925624746555e-02,3.216632008552551270e-01
3.404433110880733526e-01,3.485335535601723489e-01,2.408325374531704310e-01,-3.100113214504798299e-03,6.685593273549168651e-03,8.766024662097846249e-04,1.046845838427543640e-01
2.941700113726047339e-01,3.323677217149338947e-01,3.158072018457253605e-01,5.738539443018733643e-03,-1.004766234836579689e-02,6.964390463315924679e-03,4.059444740414619446e-02
2.975973541526319988e-01,3.280515749375698120e-01,3.163629353309919678e-01,2.493835144862937853e-03,-3.614811341976710297e-03,6.808546075820642689e-03,3.008392639458179474e-02
2.973230409258140194e-01,3.291261160223038496e-01,3.330670199672556842e-01,6.450482644882777825e-03,-6.414569006448584895e-03,6.691118447830282645e-03,3.917752578854560852e-02
4.248413398903013727e-01,3.781015719980337364e-01,3.583414756722577144e-01,1.332328302415692056e-01,-2.490196722649117705e-02,1.747104664558536968e-01,3.875347375869750977e-01
2.657082479083817672e-01,3.265883939058332186e-01,3.421180310974291094e-01,3.788102108784808207e-03,-5.252773698893707308e-03,4.475818143738682746e-03,7.126662135124206543e-02
5.674712078337220689e-01,6.371275734618808695e-01,3.821559324592827545e-01,2.698041743470656201e-02,1.330886705435481709e-01,3.051444575383800012e-02,3.319897055625915527e-01
3.313081380184142999e-01,3.239341904944337824e-01,3.263674227642728853e-01,3.375503410141301314e-03,-5.947060266551662359e-03,6.660153584850070536e-03,1.776825264096260071e-02
3.107877549877902656e-01,3.442312033244596670e-01,2.876569780968998291e-01,4.183228899768996062e-03,-3.486626502622921196e-03,-1.291094684264036500e-03,5.020994693040847778e-02
2.607196522482914669e-01,3.558575824527125953e-01,3.417273774227174155e-01,1.688697569751726121e-03,1.510165798497426631e-02,-1.657313494828668811e-03,9.277685731649398804e-02
3.407958298537114294e-01,2.953275517677662054e-01,3.010573889278105875e-01,-4.839340146723873637e-03,4.018543195302934704e-03,1.444346822338851179e-02,5.083516985177993774e-02
2.487831987668479017e-01,3.607046839493336376e-01,3.535934735089314440e-01,-5.680091891040186906e-03,3.360648835436973007e-03,4.685521008868596612e-03,1.094423383474349976e-01
3.735778326445543529e-01,2.142527630839351493e-01,4.100952441450617103e-01,1.350646686065984370e-02,3.451378207396718027e-03,3.517343556032961893e-02,1.919131577014923096e-01
3.431923810393622820e-01,3.368406917275209578e-01,2.957905520174909930e-01,-4.732659828377136155e-03,4.888278775012953360e-03,4.317228303504427531e-03,4.670108109712600708e-02
3.513550446549276174e-01,3.074278430997798850e-01,3.214320251605096712e-01,-1.990591751772599789e-03,3.272634585721781800e-03,3.368869031228090456e-03,3.985746204853057861e-02
3.331947822429481842e-01,2.911829298519174603e-01,2.503542335261775276e-01,7.689931425774216775e-03,-6.221448312180821207e-03,3.555511271782059446e-02,9.609001129865646362e-02
3.441411701902725717e-01,3.014339766252779329e-01,3.080744579569069663e-01,4.470673827886567636e-05,1.543367773035258985e-03,6.514871436234433329e-03,4.145945608615875244e-02
3.545428038379563884e-01,2.615307937030209029e-01,3.447774198906563559e-01,-2.525182194249921651e-03,5.621503435292861568e-03,1.822069754111713819e-02,9.459500014781951904e-02
3.243944405449505908e-01,3.293110849812800334e-01,2.968023375489097226e-01,7.394506587281113839e-03,-3.384471377015879461e-03,2.815115589823850330e-03,3.381320461630821228e-02
3.300137269229826420e-01,3.010664623938570372e-01,3.029936302302949636e-01,-5.382688125949918953e-03,-5.063590870837923232e-03,-6.575647483743642802e-03,3.285466507077217102e-02
3.594602378860956571e-01,2.661702463783514050e-01,3.520994554272443566e-01,7.013965201144761914e-04,1.599676789456190486e-03,5.719168827616252608e-03,9.043116867542266846e-02
3.128715294882538078e-01,3.093495031818415120e-01,3.084383747505643480e-01,-4.309791480292125831e-03,-5.761865085697075867e-03,-3.675566081993964906e-03,1.457029115408658981e-02
3.540710067936120309e-01,3.383445573007164975e-01,3.291403636497764462e-01,2.962288826680202145e-02,-3.290011474079314324e-02,3.287789298912879854e-02,9.797680377960205078e-02
4.115543428645880852e-01,5.051213438522285104e-01,5.630154524266032245e-01,1.613853985170291550e-01,-5.348392680336447325e-02,8.545414734494932718e-02,3.551732897758483887e-01
3.196038776563266959e-01,2.969222102987466028e-01,2.969241392730417872e-01,-4.051779699084196926e-03,-1.690953628494041563e-03,-1.415625002416347721e-03,2.404693327844142914e-02
3.165454669419084932e-01,3.045091405505933602e-01,3.016690894508747278e-01,-2.737567705460003126e-03,-1.575003932589978282e-03,-1.010476009798309469e-03,1.483612973242998123e-02
3.338956340789738242e-01,3.477388547961081100e-01,2.926760100883798454e-01,-4.326733839987089575e-03,5.672477407926402281e-03,3.484723729236683526e-03,5.148230120539665222e-02
3.088640190947489761e-01,3.565187018315702505e-01,3.516168521902888755e-01,-3.516593137693264232e-02,6.130045292261098594e-02,1.443404118049736867e-02,1.329270154237747192e-01
3.213329929668659046e-01,2.996959948463953638e-01,2.983604175754274168e-01,-1.480466084358672118e-03,-1.497278828617598471e-03,1.958214145577756886e-05,2.263058535754680634e-02
2.937062495229804115e-01,3.476705797472034454e-01,3.039285209629750684e-01,-1.950072170500980698e-03,-7.092588361550812223e-03,9.984584740124254759e-04,5.128663778305053711e-02
2.969865304232724434e-01,3.218490171255236620e-01,3.509673831207567041e-01,-1.755570245392423789e-02,1.304525725034047512e-02,1.788702682917838946e-02,6.771232187747955322e-02
3.380050819406586471e-01,3.435233393803663327e-01,2.926480181409770731e-01,-4.347416806151714608e-03,4.550239073277236035e-03,4.617758646462875871e-03,5.020748451352119446e-02
3.423301007373830140e-01,2.391800818482816560e-01,3.456706746092665927e-01,5.175431272266921984e-03,-3.701957028077605856e-03,1.444299100473692490e-02,1.083648204803466797e-01
3.320444160003265810e-01,4.284515509554195356e-01,4.729238280569315611e-01,-2.332846611880984647e-02,1.453522058663577754e-01,5.191723523962959996e-02,2.977586388587951660e-01
3.493455959839686931e-01,2.932143877993610981e-01,3.104340621413106405e-01,-1.138110893715918014e-03,-6.110526410615190309e-04,-4.136908114142302285e-03,5.036880820989608765e-02
3.871929120075176534e-01,3.117419658733277532e-01,3.102260876307774695e-01,-1.427388055697379095e-02,-1.403387578890572494e-02,-4.182073043728466721e-02,1.107181906700134277e-01
3.216112555734115808e-01,3.160826264950457598e-01,3.082164644511729001e-01,-8.700402684620214128e-03,-6.452701162581700629e-03,-7.339475095428458357e-03,2.548603713512420654e-02
3.550960510437264350e-01,3.418204249932114136e-01,2.473503473584947598e-01,-4.657672336406647184e-03,-5.653121181438247773e-03,-1.127291848631116825e-02,1.043895483016967773e-01
3.116428976941054696e-01,3.156331299793514455e-01,3.362399488014290450e-01,3.617770284802125213e-04,1.525802400250304619e-03,-3.470549796466184094e-03,2.379705756902694702e-02
3.441901437043752288e-01,2.576221877114683867e-01,3.453988030565510181e-01,5.396855205283650203e-03,7.053321223002709597e-03,-6.865165942926429975e-03,8.932032436132431030e-02
3.993403348987549228e-01,3.872845548705846630e-01,2.381009746192507825e-01,-3.702427842692597015e-03,2.809343708206358745e-02,6.996769230116692100e-03,1.635705381631851196e-01
2.144024093277600018e-01,3.869322705486987757e-01,3.565396260586833344e-01,1.147098241046321312e-02,7.869650649543213916e-02,1.817753142336662325e-02,2.131010740995407104e-01
2.945726577083802034e-01,3.399563646031917852e-01,3.641352741353625078e-01,8.694422568158950704e-03,-3.791789293058791914e-04,7.567324557798503623e-04,6.301236152648925781e-02
3.295992600025840491e-01,3.053884972443142720e-01,3.150571227965761056e-01,1.168204868044854256e-03,5.060475739553668348e-03,-1.007034381586845422e-03,2.301130816340446472e-02
2.837573842774686605e-01,2.680874451709210349e-01,2.360780773624850393e-01,-4.380592767457515413e-02,-5.447214558249554445e-02,-5.988075108410720326e-02,1.648859232664108276e-01
3.076132783502226187e-01,2.367310328538590747e-01,3.212663265050663686e-01,2.077878586965459934e-02,1.223525281735858908e-02,-5.888611717119920930e-03,8.959276229143142700e-02
4.895327017594152119e-01,3.464579912711063803e-01,3.215764179215792051e-01,-3.889714848879660680e-02,-3.826491607761173253e-02,-1.426522135610001352e-01,3.076197803020477295e-01
3.314197354806646678e-01,2.684446862331101302e-01,3.191147396413452908e-01,-3.976714634190088582e-03,-8.812349802727012169e-03,-5.509259774651692476e-03,6.094122678041458130e-02
3.639154698637901975e-01,3.134860397448777647e-01,1.510507591557940232e-01,-2.187290967959601082e-02,-4.528611304178474517e-02,-9.295886154523932965e-02,2.657662332057952881e-01
2.892940175475177123e-01,3.352967399450544894e-01,2.907824925959900941e-01,1.659791149139275127e-04,1.559634969566820947e-02,-1.792069356343024684e-05,5.272394418716430664e-02
3.027335313066742417e-01,3.319412093230167948e-01,3.309601083011648459e-01,4.782831025506298003e-03,3.942375738017847922e-03,-6.455626974804082839e-03,3.264466300606727600e-02
3.569048587501890690e-01,2.121343916533306451e-01,3.574050057522890067e-01,-2.250312991810459688e-03,2.719752768613878033e-03,-2.001701459599895296e-03,1.451914161443710327e-01
3.569366941060719278e-01,1.904028027486282526e-01,4.052210801148100616e-01,-1.450787373944389669e-01,9.755942170033251454e-03,-2.285006350250608567e-02,3.210939764976501465e-01
4.795838450764828842e-01,4.405054154022833846e-01,2.103712861769627129e-01,-1.793441341029271274e-02,-6.220394203795947402e-02,-1.411780888305402271e-01,3.685767352581024170e-01
3.369547217842560616e-01,2.821889493753762523e-01,3.080990099916995906e-01,2.010541583670030080e-03,4.706741938122186233e-03,-9.138733689562259302e-03,5.080131068825721741e-02
6.312092285833983407e-01,4.892397750678596502e-01,3.948372803588720559e-01,6.342661083207817851e-02,8.762296007105890849e-02,-1.305249978230887675e-01,3.587225973606109619e-01
2.543462874368814797e-01,1.671952804539482973e-01,2.474039871440161797e-01,1.011964223667601859e-01,7.362747293073836075e-02,-8.998954742647022331e-02,2.798534929752349854e-01
3.142934390437968628e-01,3.025537117616719507e-01,3.061238433074179310e-01,7.628105452958612066e-03,6.866428684796158088e-03,-9.178483120506708212e-03,2.602682821452617645e-02
3.176511954229718215e-01,3.496269668113792806e-01,2.999556113381314226e-01,-1.296868639838354891e-03,2.908624849619859988e-03,9.096314493346833313e-04,4.398092627525329590e-02
3.011038281970799257e-01,3.371287666383875337e-01,2.687705419975568444e-01,-5.034673224844811099e-03,-9.634733355351183734e-03,-2.474822358995700140e-03,6.229722872376441956e-02
3.261077737572494195e-01,3.076309405080471238e-01,3.019625915483840073e-01,3.640173196546574608e-03,2.336844016096037077e-03,-3.448605352666945980e-03,2.387614734470844269e-02
3.110721830810912469e-01,3.087732803061126186e-01,3.348486582781444176e-01,5.065657139848167220e-03,4.004481302717776033e-03,-3.012094000775698832e-03,2.788501232862472534e-02
5.541932963896446518e-01,3.881554327696875584e-01,5.303095082405748784e-01,1.289444367776806655e-01,7.297330701531787311e-02,-6.701435769504066053e-02,3.217164576053619385e-01
3.090997056566069934e-01,3.516466264582449597e-01,3.215820111363974498e-01,-7.333143260270112620e-04,3.108077249431925957e-03,-8.945166102236045422e-04,3.831395134329795837e-02
3.403656430210099670e-01,3.037893610851464810e-01,2.969569496547960208e-01,3.464067246800989295e-03,9.873884440166490369e-04,-3.667442130358938412e-03,4.139667749404907227e-02
2.482209510556535603e-01,3.510163614271524790e-01,3.409641606799334590e-01,-5.705440946212527592e-03,-7.444774352180608817e-03,-3.276170990328854636e-03,9.965316206216812134e-02
3.057089613825624830e-01,2.753292695534589329e-01,3.429391002931088672e-01,3.703929152147211745e-02,1.722135176400344664e-02,-2.196243897289222591e-02,9.946128726005554199e-02
3.013460205251854984e-01,3.227616949266776669e-01,3.317725233565003151e-01,4.108803012144552139e-03,2.043903681612220351e-03,-4.934704318657716360e-03,2.947935648262500763e-02
5.458921570716920302e-01,2.857612857982522736e-01,4.205723122318694718e-01,-1.809180044933612203e-02,1.551268124456450966e-02,-1.543583248522392148e-01,3.520751595497131348e-01
3.166291913060551022e-01,2.659298923231014911e-01,3.337181059428004359e-01,-6.830265869857827556e-03,6.314977719983911296e-03,-4.704331090939783445e-04,6.315935403108596802e-02
3.159965639631810985e-01,3.158580905156792018e-01,3.471529563031147125e-01,4.683004996624872199e-03,-3.772484840488598851e-03,3.519375027513123658e-03,3.347684070467948914e-02
3.437921308147376953e-01,2.063791528289251886e-01,3.304793687400056634e-01,-7.179904317039562762e-04,2.835796357207357246e-03,-2.608189699692631258e-02,1.389124840497970581e-01
3.393451901894389278e-01,2.964736912091921472e-01,2.894733354644873913e-01,8.361600939126943161e-04,-1.146200371410401129e-03,-6.474096726717603126e-03,4.815461114048957825e-02
5.720953359266438554e-01,2.955574582891877800e-01,4.434347127427724633e-01,-2.262416861186287292e-02,1.511498616247183499e-03,-1.373960798327023280e-01,3.400333523750305176e-01
2.966709486587991162e-01,3.396121020778419264e-01,2.997374537620545176e-01,-1.449417265919051472e-03,-9.162026868723207066e-04,-1.687677319198308034e-03,4.170170798897743225e-02
2.838285998534395560e-01,2.401518813103977468e-01,3.597621267848476467e-01,-7.782303626462147572e-02,-3.044945258430464818e-02,-1.678515893430472528e-02,1.810692995786666870e-01
3.785670667271719414e-01,2.317105636108966749e-01,3.696540401542132148e-01,-4.068424326699050103e-02,-1.624312128048509231e-03,2.438383464451683927e-02,1.646043509244918823e-01
6.161738976139897739e-01,2.506354580023103518e-01,6.059002243299540513e-01,2.639876275886018919e-02,3.746957720208012044e-02,-6.253921853068872272e-02,3.847135603427886963e-01
3.652022825949990392e-01,3.803426873866296853e-01,3.668406965773673978e-01,-3.849864828712731141e-02,4.946881316720882354e-02,5.647756983894162280e-02,1.468474864959716797e-01
3.185679518905194518e-01,3.365713337349899303e-01,2.579459433290159920e-01,-7.846629772102538952e-03,1.743300977963475884e-02,4.584396196639621383e-03,7.905718684196472168e-02
3.049646149679228202e-01,3.428202583978525730e-01,3.080438435832272837e-01,-1.741774838113003447e-04,4.180248941869152239e-03,1.578192952057558621e-03,3.722837194800376892e-02
3.175614989640574426e-01,3.489840345260595278e-01,2.884415583449036480e-01,-3.794005794152172008e-03,1.013840878096463824e-02,3.760652249444627025e-03,5.607443302869796753e-02
2.711289890993681118e-01,2.994576929772606033e-01,3.337502393408606216e-01,-8.182783906286395653e-03,2.641071767841017374e-03,5.995391055963967056e-03,5.726771801710128784e-02
3.562859346962264362e-01,1.987148585866017614e-01,3.521313345306055775e-01,-9.386508514612208753e-03,-2.481605444161612446e-03,-2.574303778525023276e-02,1.626719534397125244e-01
3.679004592798307272e-01,2.019935063066419234e-01,4.940302077262837543e-01,-8.167836421278848458e-02,1.623309299635445485e-02,3.675155849280124787e-02,2.986909151077270508e-01
3.727125360076558591e-01,5.668892023756911813e-01,5.349020724773154711e-01,-6.135704354683407108e-02,1.286861699039318907e-01,5.897356143813740209e-02,3.223735392093658447e-01
3.650646880050638643e-01,1.569379377843984069e-01,4.608635934381323240e-01,-8.792386764663617793e-02,-1.729894866027574529e-02,-7.152263209361618690e-02,3.344675302505493164e-01
3.378261343923154580e-01,3.374087179900831512e-01,2.697928514939971212e-01,-1.023048218486394961e-02,-5.924597839464075706e-03,-5.220120051434807770e-03,7.142368704080581665e-02
2.992441754217357031e-01,3.021453433385896670e-01,3.423983569696559814e-01,-8.326397484194687088e-03,-5.620050485288005659e-03,-4.154813003779138716e-03,4.582610353827476501e-02
3.635099413741373353e-01,3.295437479589949370e-01,3.186830443241735478e-01,-5.721989425212173873e-03,4.411698107171065780e-03,1.865325307186559145e-02,5.330101400613784790e-02
3.736365550700416205e-01,2.564229280457223648e-01,3.869076007683349694e-01,-3.432383391600545832e-04,3.996067273653397534e-03,1.167197707078605588e-02,1.262048631906509399e-01
3.073739078568327732e-01,3.375917902105777801e-01,2.740027780984881645e-01,-2.098418995542301706e-03,9.961634813969879806e-03,2.783535619626466631e-03,5.804579704999923706e-02
4.182979610676199611e-01,2.419040275779489879e-01,5.077791075351741901e-01,-1.212453350572638006e-01,-1.462555984283147974e-02,-4.439107809321582443e-02,3.249005079269409180e-01
3.365286888333527404e-01,-3.748808822587182399e-02,3.366125623192189331e-01,1.555302703216207040e-02,1.171623326294691722e-02,-1.661426449290550125e-02,3.766769468784332275e-01
2.631616348377622261e-01,3.562214467891496317e-01,3.527719607187958517e-01,-1.121664150789766085e-02,4.430799894007643111e-03,6.123379965175287758e-03,9.433896839618682861e-02
4.350832288040063500e-01,4.508003115055448928e-01,5.583515504886148451e-01,-1.145309586868290125e-01,9.372803990072832436e-02,8.168802555915383179e-02,3.150084912776947021e-01
3.347666016789707655e-01,3.150833248671228159e-01,3.086073241045160787e-01,5.128830680484591439e-03,-2.339114249162954802e-03,3.625459950102479911e-03,2.629828639328479767e-02
2.975366186461494422e-01,3.012933581560359175e-01,3.434040417866670025e-01,-2.677389699523019875e-03,-7.269538335495241265e-04,5.480814097299788402e-05,4.437027499079704285e-02
3.003404483640260692e-01,3.230658295741958286e-01,3.315437421290109987e-01,4.243935035981924800e-03,2.872367390501517643e-03,-5.791849782493299278e-03,3.099036589264869690e-02
3.795974197051116272e-01,3.850662745799030007e-01,2.593251299156345002e-01,5.788920824733436409e-03,1.749762437396743670e-02,1.266040123531750328e-03,1.271885484457015991e-01
3.102623880958927938e-01,3.237388581096873885e-01,3.341163003865215142e-01,-1.286749600325833107e-03,1.736922297614403293e-03,4.392530144986232614e-03,2.238433994352817535e-02
2.102382038136818010e-01,3.483498235490578021e-01,3.433682694609277997e-01,-1.453337920709374268e-03,-5.358432255481930528e-03,5.492394885836803485e-03,1.363620162010192871e-01
3.382930256555159998e-01,3.112417208798936019e-01,3.179270774483377027e-01,1.419920207301634922e-03,-5.368524450525767253e-03,3.532148580170158154e-03,2.693620882928371429e-02
3.170721616868456549e-01,3.154069780922598709e-01,3.311439581798152898e-01,2.075276007505233444e-03,3.133505023561406269e-03,-1.911944524406274971e-03,1.666024886071681976e-02
3.188893629629209192e-01,3.181583993492030360e-01,3.159955530678111857e-01,-7.241277424454903690e-04,1.278668531574895595e-03,9.482139717753934409e-05,3.646671073511242867e-03
3.305717146038791299e-01,3.140496883166788433e-01,3.103758523042181028e-01,4.101459037654344927e-03,-1.863143124836523978e-03,4.387386733307465161e-03,2.158242091536521912e-02
3.631591310456163124e-01,3.775758552943908053e-01,2.302994218713100283e-01,3.418879336671662873e-04,-5.410976361363437070e-03,-3.084776073402445157e-03,1.410378664731979370e-01
3.072169434255830334e-01,3.488001770871450580e-01,2.895715795811497073e-01,-1.019593860415979845e-03,-3.335291140765325821e-03,2.122593160119020999e-04,5.301794037222862244e-02
3.521919535207665986e-01,3.513837030207760947e-01,2.213993530104876872e-01,-7.725250068379816044e-04,-6.509158125646639925e-03,-8.171488784190843527e-03,1.316467374563217163e-01
3.276966449408962312e-01,3.190890974853339834e-01,3.317976861705677627e-01,7.322938332826330055e-03,-7.165891406243167332e-03,5.288628392468939371e-03,2.291382476687431335e-02
3.942146445028461010e-01,4.863382167753734775e-01,2.934701367782301951e-01,-5.863794975698508050e-02,-1.440859267102722607e-01,-8.364692042473934053e-02,3.485757708549499512e-01
3.152936358304729847e-01,3.148814891529223003e-01,3.028582734948196409e-01,-3.379359622413899682e-03,-1.511792559269655410e-03,-1.469145511479893204e-03,1.404545642435550690e-02
1.971150455490265907e-01,4.161057951524791965e-01,4.194763653261411873e-01,-1.022000733134362932e-02,-2.240492995611427507e-02,2.530646983830127286e-03,2.248219996690750122e-01
3.548049285104861728e-01,4.210266629651777115e-01,3.435376313385284375e-01,3.886615480389564448e-02,6.993348092658790982e-02,-9.433994484620674553e-03,1.572552770376205444e-01
3.316028300385154837e-01,3.064526369990009380e-01,3.061521305132814397e-01,7.752034550490662264e-03,-8.347094096840385752e-03,8.966309650148697463e-03,3.564643859863281250e-02
3.465711494729091235e-01,3.711384240414097868e-01,2.675788381835040308e-01,8.341520648226088746e-04,1.471073742287755219e-02,2.153647959618403690e-03,9.720689803361892700e-02
2.603320927323011791e-01,2.492414053906885918e-01,4.003989977829627844e-01,1.261435958424183823e-01,-3.321396874956774464e-02,-9.024529145483803708e-04,2.689679265022277832e-01
2.833804366036575262e-01,4.762822765621556598e-01,4.957747497889132271e-01,1.172722276855446971e-01,-1.581840887018403849e-02,8.199027674092068674e-02,3.217567801475524902e-01
3.287251500025754614e-01,3.152689100640687081e-01,3.151250009921534034e-01,3.626758818626528869e-03,-3.190827139934707297e-03,3.110253278040683682e-03,1.679443009197711945e-02
3.137841637767793124e-01,3.124487806052606009e-01,3.381855011387289167e-01,5.631201348244170221e-03,3.134411104335124449e-03,-4.199663529794879155e-03,2.841320261359214783e-02
1.817158101450232488e-01,3.237775536702316437e-01,1.434226983386775456e-01,-3.236768013034484193e-02,-1.510338141372192799e-01,-3.938574349471099523e-02,3.214315474033355713e-01
2.364354053253285570e-01,3.349829557260284862e-01,3.323252689791924008e-01,1.924039245111223637e-03,-1.724387377361440848e-02,2.986949560430893994e-03,1.019151583313941956e-01
3.313977545274060521e-01,4.324049322656597361e-01,4.107514462358277108e-01,5.388554545492377917e-02,-4.578283056694419650e-02,3.917744077612148046e-02,1.675945669412612915e-01
3.220858561996082225e-01,2.914911751970282738e-01,2.294126039004308060e-01,-1.095590264837860081e-02,-8.230879964094149973e-03,-1.871247814138394389e-02,9.112006425857543945e-02
3.089532694819656644e-01,5.801082875796719218e-01,4.883701549450825130e-01,7.489138799583552886e-02,-1.254845015845876266e-01,6.896090030899292012e-02,3.679642975330352783e-01
2.988990070427774981e-01,3.524260931890798587e-01,3.146294231208336400e-01,3.289463198129469277e-03,-3.912213681549165517e-03,3.820497380816485940e-03,4.891582578420639038e-02
4.482751628843006930e-01,3.492527055712359441e-01,5.322403729629212599e-01,1.543625045897065728e-01,8.476080166283476991e-02,-4.428995446709867168e-02,3.522660434246063232e-01
5.020286506534880067e-01,4.530901016001928072e-01,4.596628137935810376e-01,1.338913106246103490e-01,1.342762284902294656e-01,-9.216301082892205954e-02,3.680618703365325928e-01
3.455053916480552156e-01,2.993839275229703834e-01,2.946174768386105591e-01,-3.160528757989526302e-03,-1.124651682306891057e-03,-1.541907514424801368e-02,5.582785233855247498e-02
3.266787010796106117e-01,3.282452286921169748e-01,2.516136821848256044e-01,-1.102726923087495904e-02,-1.481360987846719671e-02,-1.363325068861396053e-02,8.564770966768264771e-02
3.453805499583649241e-01,2.940628559858845525e-01,3.138614696293460238e-01,1.684588678379042928e-03,3.128283925394753813e-03,-4.580146373438670829e-03,4.593775048851966858e-02
3.364992808211363928e-01,3.185569368018136283e-01,2.530979855998088945e-01,-1.002529328568008138e-02,-1.225095942139573825e-02,-1.647501123702248965e-02,8.571664988994598389e-02
2.788191069374755804e-01,5.169681105841286151e-01,5.540176492997255231e-01,1.435334913906629595e-01,4.470138705127747226e-03,4.487987662051812904e-02,3.671771585941314697e-01
3.146016742917510101e-01,2.906043347924465725e-01,3.292460022823691101e-01,6.859579957320204209e-03,1.004685617953387025e-02,-5.828412333387134568e-03,4.108094796538352966e-02
3.114192415574771888e-01,3.146577319697708153e-01,3.246562252903793522e-01,3.017285425390054104e-03,-1.375478054295222255e-03,4.119235824664670489e-03,1.505755260586738586e-02
3.652256521059229488e-01,2.444595363022818157e-01,3.979769068200068594e-01,3.148671418872991956e-02,2.904794317724342101e-03,-1.321275229259977202e-02,1.521039903163909912e-01
3.361360155210760259e-01,3.381025870099214625e-01,4.045429082870481419e-01,6.960782213368929550e-02,-1.966540694938696127e-02,3.088919599618019513e-02,1.520105302333831787e-01
3.372906267267052893e-01,5.283130860497695092e-02,3.451707638538315526e-01,3.667166500314216621e-02,1.281095031249135201e-02,-2.892652370922778066e-03,2.962645292282104492e-01
3.111656007538607938e-01,3.159126876366852299e-01,2.955701253987550459e-01,9.336696885815551350e-03,-6.826418039776230816e-03,4.044152502068834934e-03,2.811003290116786957e-02
2.754197107762245689e-01,3.562415597397851075e-01,3.150394357647219312e-01,2.566018693299143560e-02,-4.494536047917258026e-02,1.650886758536242865e-02,1.172730773687362671e-01
3.545254684681505841e-01,3.519426449891981390e-01,2.571486565649244715e-01,4.431739616275951789e-03,-1.467006068482176392e-03,5.157509487520596167e-03,9.686373919248580933e-02
3.281205492692119696e-01,3.108081721022205035e-01,2.838471426879264903e-01,1.031862045674932296e-02,6.762619449978577932e-03,-6.980220214449141258e-03,4.578390717506408691e-02
3.469543809766656994e-01,3.173088502479549655e-01,3.031591776960163021e-01,1.679528658139710926e-03,-1.579014950654797616e-03,2.884353490597451209e-03,3.923577442765235901e-02
3.206175715461348497e-01,2.898406465686788613e-01,2.903075084822872576e-01,5.553850571389886727e-03,6.504345579045038399e-03,-1.374592577755039471e-02,4.146534949541091919e-02
3.637570252256811520e-01,2.908846395441075927e-01,3.256721179753460649e-01,-3.285508984741436749e-03,-8.687906128417790955e-04,-1.595300919650690513e-02,6.916394084692001343e-02
6.028777536963920713e-01,5.221433194231352992e-01,4.740867628010408397e-01,8.775086148423322241e-02,-1.612347303252237296e-02,1.589867889951334656e-01,3.352882862091064453e-01
3.333676612598204803e-01,3.007897703526611344e-01,3.185980801621204894e-01,-8.343646280779101060e-03,-8.518868188309613315e-03,-1.079213655931114332e-02,3.967708349227905273e-02
2.584423128483807064e-01,3.760530359071872497e-01,3.369284416888073119e-01,-1.546894892829906408e-02,-7.957100550957127427e-02,2.543474491629340965e-03,1.746237426996231079e-01
3.317699933598317052e-01,3.396756675433182937e-01,2.943583227161093996e-01,1.149091132730689808e-02,-1.317063427058151083e-02,1.227386012381532186e-02,5.591386184096336365e-02
3.527963930514474433e-01,2.466265972343395507e-01,3.438577252474436796e-01,-3.493150218808607505e-03,4.728880330378250341e-03,5.624736230591583126e-03,1.029636561870574951e-01
3.220706745088368073e-01,2.605525149731586221e-01,2.807070850103809412e-01,-6.768905464367935831e-02,-5.491125912072786913e-02,-7.059563871005307412e-02,2.017255872488021851e-01
3.491612882590421907e-01,3.150753554699731729e-01,3.257443606962082683e-01,1.386663426101110127e-03,-5.104795916443432072e-03,2.897541857460749978e-03,3.195540606975555420e-02
4.530288120150193221e-01,4.908287203014127797e-01,4.733403968359217728e-01,-8.572433185574593328e-02,1.282836206895630882e-01,1.267236445452702420e-01,3.473705649375915527e-01
3.518745307100435982e-01,2.869973149286776382e-01,3.227178142011480899e-01,-3.827619772154466655e-03,-4.894599569595580249e-03,-1.440738416423615297e-02,6.249881535768508911e-02
3.225261315348720292e-01,2.991551365181872590e-01,2.772541290129528768e-01,-8.893407650121590985e-03,-5.367961392939876904e-03,-7.280947969979168453e-03,4.494959115982055664e-02
2.519946974496061753e-01,3.313867261894153371e-01,2.815621770729910267e-01,-1.941858456096694999e-03,4.593086960936805518e-02,3.386087097946199626e-03,1.058515533804893494e-01
5.776352786048177812e-01,5.315210203633965458e-01,3.196052961656961622e-01,2.923421264097945949e-02,-2.358168466424230905e-02,1.236226857126273282e-01,3.269358575344085693e-01
3.606824036923299559e-01,2.867176552276463619e-01,2.784493596838914509e-01,-1.007374072190874749e-02,-1.048375412886928468e-02,-3.327915965475385096e-02,1.005354970693588257e-01
3.461693251533025650e-01,3.458133623884528385e-01,2.684777839317820103e-01,7.409654479014534528e-03,2.512427312402031564e-03,-6.546739361724777939e-03,7.950265705585479736e-02
3.217527154842547699e-01,2.726926643199609757e-01,3.543690708426228686e-01,-7.167799744755494126e-03,-5.488222888963012643e-03,-2.347960588371812707e-03,7.301991432905197144e-02
3.829656263252406712e-01,3.774975657450530542e-01,2.550838115247716642e-01,1.869259869365546634e-03,-5.918844125342191198e-04,-1.352273841381432772e-02,1.274539828300476074e-01
3.086443133923459370e-01,3.039540800452246172e-01,3.037977879938522641e-01,-2.130746346552617968e-03,-3.444577851393472966e-03,-3.157553418573480573e-03,1.009365078061819077e-02
3.201990791848232099e-01,2.974912098973986341e-01,3.014298567590089628e-01,-2.817705475573895144e-03,-4.637436146550442777e-03,-5.532043675210494664e-04,2.304291538894176483e-02
3.093734881037620288e-01,3.794989481917069307e-01,2.834512987318258959e-01,8.528262547968821572e-04,3.404534984252129137e-02,8.798120760889087399e-03,1.054466962814331055e-01
3.444393335296577208e-01,3.664705160942416384e-01,2.631526250866228489e-01,-3.006148215646855778e-04,3.376651037556072099e-02,2.156490532378677050e-02,1.170456409454345703e-01
3.353531718204826317e-01,2.798165267670648104e-01,2.071374422147989891e-01,-2.151810350646835707e-02,-2.482960088454914949e-02,-5.842735943822319200e-02,1.608813405036926270e-01
3.516979728150699258e-01,3.448838317783654572e-01,2.404088852252916908e-01,1.204333083306688770e-02,1.207401717627079596e-02,-1.242532859798878286e-02,1.140569671988487244e-01
3.211698501346882395e-01,2.899687658652441158e-01,2.919318466636703358e-01,-2.722040924096352614e-03,-5.583251522478627216e-03,-3.751782009975246704e-03,3.277324140071868896e-02
3.197963567363170667e-01,3.970827448205824783e-01,3.589861461995125236e-01,-1.094404384353813292e-01,7.681863683183480507e-02,1.007817976524682524e-01,2.976340651512145996e-01
3.169753852266680161e-01,2.697188186718966763e-01,-9.807108047159174280e-03,1.641396259585831477e-02,3.847847163943604598e-02,-9.597831927722411116e-02,3.556162416934967041e-01
4.244203479099801224e-01,5.423468685470127504e-01,3.172066674126789443e-01,5.055261676966466694e-02,9.070243356044148386e-02,-8.305749199461568213e-03,2.657051384449005127e-01
3.605059990516278345e-01,3.136712343689492255e-01,3.286454665348054194e-01,-1.118833837497781349e-02,4.823305425144695444e-03,1.345244403439671207e-02,5.200617760419845581e-02
4.603285217174110655e-01,4.884355107142714369e-01,4.749279173957813849e-01,9.764734522059469179e-02,1.208542258394071506e-01,-2.143327529381344743e-02,2.727511823177337646e-01
3.137602377076441629e-01,3.505287507169695393e-01,3.165018390355061606e-01,4.393220974514484498e-03,8.419523230816777087e-03,-1.379483476644526941e-03,3.917793557047843933e-02
3.347491395477182885e-01,3.596868022493102113e-01,2.803730721482348143e-01,-1.105844241889187017e-04,6.234523560927289487e-03,5.052301359842687259e-04,7.107789069414138794e-02
2.782576873266782158e-01,3.664030251840125763e-01,3.512180048317355974e-01,6.886064398781237966e-03,1.896307161543055175e-02,-9.739750021621520473e-04,8.880084753036499023e-02
3.152443542233303586e-01,3.131386380371792844e-01,3.491198450415587962e-01,6.485072790032465374e-03,-1.722770535457202436e-03,3.418237137048987361e-03,3.732881695032119751e-02
1.646715466542750250e-02,3.199735133856316249e-01,3.332775998245855464e-01,3.710816885016582356e-02,3.277934248849358797e-04,1.253649933346762460e-02,3.177008628845214844e-01
5.391118583730359903e-01,5.757852161853939110e-01,5.050913723633557728e-01,8.506587002056813229e-02,1.446943318067762108e-01,-6.114676439400022062e-02,3.154119551181793213e-01
3.292822381087247008e-01,3.014656335824484334e-01,2.980824628754267791e-01,-4.497919680451458596e-03,-4.837620726203194742e-03,-7.229481452235766471e-03,3.416160866618156433e-02
2.001769747772520758e-01,3.399017834925854298e-01,3.197054041310740113e-01,6.488384842363647403e-03,3.050428907868538153e-02,2.268316369776957574e-03,1.415706425905227661e-01
3.330561266908096396e-01,3.354801525497946857e-01,2.762598329258362795e-01,7.561195677345897148e-02,8.153956554253305455e-02,-9.955133979236832631e-02,2.649497687816619873e-01
3.143670632007921073e-01,3.547195373062962398e-01,2.820463687528987906e-01,-2.797875122973693106e-05,1.031854048832653650e-02,2.986003915049402664e-03,6.575208902359008789e-02
4.442143386974992114e-01,5.668758130737396872e-01,4.093302858909004804e-01,6.414015446241957963e-02,1.887972408477313624e-01,-2.429681667424502672e-02,3.762814700603485107e-01
3.299135037927928282e-01,2.880528157383639987e-01,2.929971003469589164e-01,-2.954818201647552069e-03,-3.848931681963603958e-03,-6.042665521516334473e-03,4.183263331651687622e-02
3.222830897435630670e-01,2.974569616862935972e-01,3.363782765554231835e-01,7.116656698971697212e-03,-7.198460752056242209e-03,5.691790927484711819e-03,3.961720690131187439e-02
3.270057996844230597e-01,3.453885878088902572e-01,2.880296713015501053e-01,7.671579425763882035e-03,-6.469094661272243446e-03,9.575531175803340175e-04,5.365084484219551086e-02
3.162504619971148734e-01,3.177746903025336356e-01,3.330545528141812817e-01,1.212538083358044626e-03,-9.230909857389229959e-04,1.242475440813883489e-03,1.645253039896488190e-02
5.773465760499421062e-01,3.820278232185334022e-01,6.288672537844676169e-01,1.440394777471568633e-01,1.528422172688020941e-02,7.379371708856373446e-02,3.607578575611114502e-01
4.765522663923859037e-01,2.749911082114546712e-01,4.349560942520474538e-01,1.229611107946832899e-01,8.570209885704242747e-02,-4.302009018701519194e-02,3.269831836223602295e-01
1.566662179873017091e-01,2.498290937712987492e-01,2.405786812657608187e-01,1.171358478450489071e-01,-8.807841225246670902e-02,8.080962181460779603e-02,3.031988143920898438e-01
2.515904536475289111e-01,3.467413063542538199e-01,3.344707656540659713e-01,9.236878098634253992e-03,-7.754417492484936072e-03,7.013661370638503423e-03,9.284732490777969360e-02
3.661561562572122619e-01,2.160016231009924681e-01,2.939043072139617685e-01,9.635606990007788974e-02,8.045709940507767000e-02,-8.883618711554924774e-02,2.964234948158264160e-01
3.092717359870235105e-01,2.946629580990243746e-01,3.332393225497595757e-01,-2.774505082308037149e-03,-6.175970620153401966e-03,-1.955697279532591249e-03,3.587470576167106628e-02
2.771982298503959385e-01,3.150358221523643643e-01,3.352471024349956696e-01,-6.149765411876152721e-03,-2.748842220516363455e-03,-1.105957062866741447e-02,5.574939399957656860e-02
3.332478312953257027e-01,2.965480125959991664e-01,3.396388030296160765e-01,3.791613094028244927e-03,-7.240131380527561195e-03,5.915977218109275647e-03,4.390504211187362671e-02
3.832119702834300146e-01,3.801755534811015469e-01,2.516442215962945150e-01,-4.293608513782783132e-02,-1.389639535312084950e-01,-5.741167418041442927e-02,3.004522621631622314e-01
3.008437489708863932e-01,3.342541831328337820e-01,2.250196139160312303e-01,8.410250900937532234e-03,-4.484783075382212103e-02,1.091089261875071229e-02,1.264997869729995728e-01
1.930795798170970023e-01,3.735341508226180385e-01,2.349068502493165678e-01,-6.822995548011110117e-04,-1.113896463404905196e-01,8.534631107423359259e-03,2.533936202526092529e-01
3.129261858650380090e-01,3.107334531824766377e-01,3.301689231389656198e-01,6.541839486814957950e-04,-9.859289425098245914e-04,2.912847322278934101e-03,1.922453753650188446e-02
3.179805511937774387e-01,3.188962665254043150e-01,3.236802734551188498e-01,1.034970598607621011e-03,-1.051603250388609282e-03,2.807085238958811901e-03,7.633893284946680069e-03
2.446149648975416424e-01,3.602409306606436656e-01,1.333859126542322193e-01,2.622725890132787674e-02,-1.210140266357743882e-01,2.261312681406250219e-02,2.934843897819519043e-01
6.338316914316932671e-01,2.630356959823240137e-01,6.076006921527509208e-01,-6.643284489009110283e-03,4.594091435876831997e-02,6.904345857467664160e-02,3.862854838371276855e-01
6.262784987356198041e-01,3.104014741803438060e-01,6.251893378884824104e-01,6.797702705936946310e-02,1.712139663577031193e-02,5.814873109371442722e-02,3.525922894477844238e-01
3.106302650612846605e-01,3.683826775528993291e-01,1.375789106267287787e-01,1.385052999190367062e-02,-8.607336609844641606e-02,1.845103422690696354e-02,2.590346634387969971e-01
3.572151411955816203e-01,2.168320978797903531e-01,3.511686384375020120e-01,2.560380028467971157e-03,2.065756678711527274e-03,-2.696133544863413243e-05,1.375776231288909912e-01
3.506746093083934479e-01,1.823531397776031460e-01,3.518192528326696267e-01,-2.079332339376913433e-02,-1.101453017049493222e-02,-3.714739550842179050e-02,1.852752715349197388e-01
5.659243964808701177e-01,2.863749230031277793e-01,5.708423927133764453e-01,-7.684950522544831131e-02,-2.795557908895590464e-03,-5.394395036217562028e-02,3.256036639213562012e-01
3.323295818958333925e-01,3.126943934318187623e-01,3.167303260091324235e-01,2.121119752739461344e-03,-3.913460180653859609e-03,1.880778234288732129e-03,1.981509663164615631e-02
3.283979637687401976e-01,3.760362683131749928e-01,3.167509405470578243e-01,2.498086505804859858e-02,-3.748531850723882397e-02,3.335257431074514778e-02,1.112864166498184204e-01
3.767893698504194977e-01,3.308646000906312334e-01,3.450698561269623932e-01,-2.298835004722487099e-03,6.135458568697648753e-03,2.035045785936828028e-02,5.504279583692550659e-02
3.996227500806991961e-01,2.574219900851956733e-01,4.101332395722057100e-01,3.377620467730771403e-02,-1.561951929349810657e-03,2.199746702340366414e-02,1.634246259927749634e-01
3.587533924066416691e-01,2.247541946697044213e-01,3.582172811623043351e-01,-8.796242599896779727e-04,2.992282818142288914e-03,-6.995226242970184125e-03,1.343882977962493896e-01
2.318888137256149007e-01,3.689783804626938224e-01,3.283566406118596515e-01,1.780172803847798746e-02,-3.490216097205385559e-02,1.427615182989452544e-02,1.417443901300430298e-01
1.817857951496816282e-01,3.424354217531369038e-01,3.295915341677166932e-01,-2.054227622229300859e-02,-4.055790616468902404e-02,2.202323606174758346e-03,1.735662370920181274e-01
3.413602493765058865e-01,3.078201359667546710e-01,2.773461912735661339e-01,6.842584371359351769e-04,-8.005044877763780502e-04,9.386381622442943606e-03,5.782162025570869446e-02
2.592367412496460743e-01,3.614778970179018391e-01,3.416441183120045300e-01,1.223047182408029763e-03,-7.747210980708113710e-03,2.189960618658001040e-03,9.496176987886428833e-02
5.633808278870504616e-01,2.781552213961964171e-01,5.609285951449948238e-01,8.565516911810709677e-02,1.556745478941986768e-02,5.967084952358189115e-02,3.377565741539001465e-01
3.734083041941282932e-01,1.855501456076367461e-01,4.776108295385949054e-01,-9.667551449906713890e-02,-2.286371168855942312e-02,-5.003937792447027411e-02,3.206909298896789551e-01
3.414401521433420017e-01,1.599226718813998305e-01,3.582586075959547367e-01,7.117055081201424660e-02,-5.759059451829245425e-03,5.789235279263248157e-02,2.482621967792510986e-01
2.680684271803163155e-01,3.412953031400970394e-01,3.229638884623041162e-01,5.722463128644760758e-04,-5.577141556332406228e-03,1.085225863152212283e-02,6.930710375308990479e-02
3.351698431415465751e-01,3.123809279755797030e-01,2.932907831898964868e-01,4.740951926213985909e-03,-1.301794887931437793e-03,2.488893071792044366e-03,3.754876181483268738e-02
2.236175985522735610e-01,3.583096336499618229e-01,3.464925303277922586e-01,-8.054179876585580017e-03,9.709257205805940649e-03,4.418499149518849770e-03,1.312475055456161499e-01
2.680720926871433263e-01,3.511382125625394091e-01,3.360371755440897390e-01,1.296603626188376317e-02,3.378818992833716728e-02,-1.019071093906139891e-03,9.902541339397430420e-02
3.216358013741041910e-01,3.215514180376661812e-01,3.276689760125572337e-01,2.230859890672985419e-03,-4.115771182173551257e-03,3.452155175680665482e-03,1.176505256444215775e-02
2.153570135463104274e-01,3.662740528459912381e-01,2.815469363659214297e-01,-2.584025280568531813e-02,1.094900080883296350e-01,4.578038752651824445e-02,2.478361278772354126e-01
3.486846066581177350e-01,2.919372296257309318e-01,3.368805802331976684e-01,2.042885774383441239e-02,1.477913639224594233e-02,-2.348974979256523640e-02,7.907174527645111084e-02
2.995533333639496809e-01,3.335376933408179534e-01,2.992380787841867895e-01,-5.771589482971602311e-04,3.617464293292392899e-04,1.554599535226597025e-03,3.426940366625785828e-02
3.042771766256807675e-01,3.182242477467989716e-01,3.139260466151278517e-01,-4.381527965616990525e-03,3.653693853033308878e-03,9.387576029116391496e-03,2.269514463841915131e-02
3.100796300017203411e-01,3.145590259419345780e-01,3.531812427313791858e-01,5.595004551944369325e-03,-3.484056811369061371e-04,-1.388571640280302638e-03,4.224696010351181030e-02
2.962115336540171451e-01,3.335007421797460125e-01,2.995832650334829816e-01,1.648999681980297272e-03,-4.738256370465850423e-03,4.497378097681487691e-03,3.758077323436737061e-02
2.738451008061809078e-01,3.461297080689312300e-01,3.315140190646141960e-01,2.289341984493961906e-03,-7.749986730488654316e-03,8.818436053037816136e-03,6.936424225568771362e-02
3.184496302410049218e-01,2.808959354246695073e-01,2.808263585975645515e-01,-8.835595251861038876e-03,-8.101567658129433386e-03,-1.388776828475120177e-02,4.922009259462356567e-02
3.389599158959279990e-01,3.294032972541171556e-01,2.823418845709059211e-01,1.078281509298815999e-02,1.974120831374327062e-02,-2.519344830624490814e-02,7.859984785318374634e-02
3.467619104582323475e-01,3.685065733893839179e-01,2.966407798505446003e-01,5.824371068388210088e-03,-2.451139937657086793e-02,1.196437390879988294e-02,8.005286008119583130e-02
3.345916402486229235e-01,3.024266722843313993e-01,2.986586947465765807e-01,-1.387206545040544151e-03,-1.222688940102062589e-03,-1.757197844398424502e-03,3.448913991451263428e-02
2.577235743682566582e-01,3.553826700823267126e-01,3.245750740378909871e-01,2.332112806195417182e-03,-1.830400336671050149e-02,3.574241220565794498e-03,9.239868074655532837e-02
3.171458328423265027e-01,3.182162981553561254e-01,3.296757421605898686e-01,4.004232517929015578e-03,-4.307306144462248049e-03,4.380500236505417526e-03,1.749452203512191772e-02
4.833181780230659808e-01,5.417785421340917118e-01,4.997410711816365758e-01,1.218383348506841823e-01,-7.988719358555981809e-02,1.401578103400981934e-01,3.540332019329071045e-01
2.860868330891569444e-01,3.129097508741581213e-01,3.339056091446400698e-01,9.689041677960459273e-03,-2.685477061855372737e-03,8.345537380473243283e-03,4.728294536471366882e-02
2.033738657929237692e-01,3.228545170947811904e-01,3.259278286337815578e-01,3.605787979999165727e-02,2.655200481383812247e-02,-8.315768116077114358e-03,1.444827616214752197e-01
2.951744833836111859e-01,3.068415584021796927e-01,3.322859209504335776e-01,7.424186548737360392e-03,3.942574361294578361e-03,-8.308541220683196560e-03,3.872312605381011963e-02
3.830810097002926851e-01,3.279382557041133905e-01,5.149254835462333535e-01,9.954643076581828898e-02,1.080890538573820933e-02,-1.081332405792317236e-02,2.410885989665985107e-01
3.434358152780284112e-01,2.404163979558489594e-01,3.478737198992875590e-01,3.183853694237239254e-03,-3.683619126175116318e-03,-3.253579642758299209e-03,1.057958453893661499e-01
2.739033073899627135e-01,3.560427458435476145e-01,3.261657981690991304e-01,-7.200120406101590681e-03,-3.213718512014157591e-02,1.286920754537097616e-04,9.186628460884094238e-02
3.357437956637486787e-01,2.183980760620211070e-01,3.525294318440970187e-01,-1.729083555733935962e-02,-8.066309402330332917e-03,-4.352801219482448601e-03,1.310360729694366455e-01
3.506577107769668911e-01,2.325319708805367036e-01,3.595618955286852825e-01,-1.363047460157570251e-02,3.592006642714961565e-03,-6.765539077977747624e-04,1.252287477254867554e-01
2.756082050974888453e-01,2.902774707213433558e-01,3.333747465715356517e-01,-4.260642750795173850e-02,2.605842639370901589e-02,2.920177161661483001e-02,1.128983870148658752e-01
2.268324861111474799e-01,3.579605991747480953e-01,3.566140799229495228e-01,1.947260533034402127e-04,2.381079510125566710e-04,1.646270769532203826e-03,1.304923146963119507e-01
2.913150919297659569e-01,3.308935887083848670e-01,2.948017243804196275e-01,2.792551082124182342e-03,-2.584087393720730166e-03,2.196548459283557790e-03,3.871072828769683838e-02
3.284414890375497720e-01,2.740221559687603947e-01,3.683451120218711461e-01,-3.706937209735318428e-02,-2.383755050021483905e-03,-8.445942682034780769e-03,1.052556633949279785e-01
3.527010062877101171e-01,3.234795260863712052e-01,2.996375062456165250e-01,1.550556410119933700e-03,-2.640479719289302862e-03,2.000403124267481972e-02,5.785886943340301514e-02
3.537791585790738824e-01,3.640832558772776339e-01,2.612260415126533286e-01,-3.528895597545650756e-03,6.917669717748341218e-03,1.253613398439150720e-02,1.013820320367813110e-01
3.280291707344908936e-01,3.453199438843726488e-01,3.304264451699641114e-01,-9.447927741100817928e-03,2.764212372768734896e-02,2.189626737081027882e-02,6.528137624263763428e-02
4.570164281189961208e-01,3.755133977278130586e-01,1.972604643275448488e-01,-4.680844964028814219e-03,-6.352162156855117869e-02,-9.067322551515243079e-02,2.996341586112976074e-01
3.057779681654616000e-01,3.389982754273596077e-01,3.098719783748756784e-01,4.536695641344260454e-04,-2.172631315540490826e-03,3.600209691505379373e-04,3.161507099866867065e-02
3.114193520388912617e-01,3.104435615325185638e-01,3.235517722347585612e-01,1.966615121521468352e-03,-3.899368507635949180e-03,1.172651220244893969e-03,1.487715635448694229e-02
3.347249411397270613e-01,3.346201601555773841e-01,3.040065032621588337e-01,-6.489289582904043258e-03,3.808644278498869717e-03,3.282571745287769620e-03,3.380222618579864502e-02
3.341517212404507831e-01,2.954190231890568841e-01,3.185827339140628878e-01,-4.562227043848498913e-03,1.017737847929557973e-02,6.547236996699042424e-03,4.051375389099121094e-02
2.925170923231767972e-01,3.276830995405432545e-01,1.859816345195751119e-01,-3.955547701574572972e-02,1.012324868840775993e-01,6.400164090051235766e-02,2.530997097492218018e-01
3.121025246582851964e-01,4.665919512134292235e-01,5.326942500415818849e-01,-1.141723459519633915e-01,6.102036906791345056e-02,5.473417530267048192e-02,3.125900328159332275e-01
2.683340647327275286e-01,4.528983497142604064e-01,3.224474029946939879e-01,7.736403109925651944e-02,-1.226723991804263697e-01,3.575944740784678388e-02,3.064998984336853027e-01
4.459204156339469094e-01,2.976028543489632749e-01,4.301878263835153260e-01,1.331256886719014813e-02,1.305606762056256767e-02,5.117295365937523516e-02,1.697388142347335815e-01
4.252666648974073316e-01,2.100594529721270809e-01,4.249696715641961831e-01,-1.523597834137785205e-02,1.094989952264664203e-02,-4.263152291299797739e-03,2.176257073879241943e-01
2.944204395425557563e-01,5.302422687655147238e-01,4.749419600935492758e-01,-3.889254163225198263e-02,1.501931100846282119e-01,6.531105291601088658e-02,3.614380061626434326e-01
3.663886861253002891e-01,3.616652058593508023e-01,1.723516717113991459e-01,3.492062214160516348e-03,4.764939475726463064e-02,7.867126534034372953e-02,2.493423819541931152e-01
3.459441997123492429e-01,3.207572008271252217e-01,2.711070775323100590e-01,-5.185523464305636515e-03,-3.266395133235612709e-03,-6.789036322386430948e-03,6.783072650432586670e-02
5.555945197760104870e-01,3.030479907106067849e-01,2.959004635738674005e-01,-9.611803035783175395e-03,4.771831014607228437e-03,-1.412947743931735889e-01,3.547872900962829590e-01
3.336457897184952337e-01,3.653688442087771326e-01,2.886533440023161257e-01,1.199303908332826577e-03,6.679431358507569548e-03,4.809978704700243923e-04,6.779988110065460205e-02
4.550463196514423214e-01,5.328575626499543194e-01,2.595978606797227917e-01,-1.910124607112049372e-02,-1.145847142310706668e-01,-4.110246975593730839e-02,3.240594863891601562e-01
2.470331478379663159e-01,2.483568732040891125e-01,3.498564443811758573e-01,-7.477659054915830605e-02,-7.822986771662724477e-04,3.510346451379446533e-03,1.650808602571487427e-01
3.054093136667281883e-01,5.766336981450367882e-02,3.460632581238239913e-01,-6.931043134885297996e-02,6.896680383015530401e-03,-2.632055367361726874e-03,2.961045801639556885e-01
3.107805609956862947e-01,3.350770839894361419e-01,3.159440779433022040e-01,2.011956654058197000e-03,1.508985160147259617e-03,-5.055558352783470766e-03,2.423176541924476624e-02
3.079442332668391735e-01,2.252342424946816857e-01,3.465509252750952895e-01,-3.424216868880217840e-02,-8.481824480893070811e-03,-1.297393438026323009e-02,1.255505830049514771e-01
4.370315082683772223e-01,2.724068352788102665e-01,4.264549460837279149e-01,7.504768379327960738e-03,4.141060051468092168e-03,4.332881656982768420e-02,1.769874393939971924e-01
3.233732407119467855e-01,3.122169852289395919e-01,3.272311058932074190e-01,1.030587706386962288e-02,-1.084979959325140311e-02,7.384059815197595300e-03,3.190211951732635498e-02
4.050765671675284341e-01,5.939855711394086413e-01,5.200521823775152708e-01,-9.532270557169264524e-03,1.621441162725017759e-01,8.741011935238433839e-02,3.595168888568878174e-01
3.412931421301582113e-01,2.954347420776485822e-01,2.882349400484742752e-01,3.196162897294421495e-04,-1.106745497122711176e-03,-5.373523357489825777e-03,5.075043812394142151e-02
4.499187864932258085e-01,1.288837709537101750e-01,4.047091071834040821e-01,7.155804544199986794e-02,-2.431924424853129998e-02,-8.820252972778939646e-03,3.285769820213317871e-01
2.616125667250537856e-01,3.661657325326871382e-01,3.398119280904324246e-01,-3.254663176567399244e-03,3.430374070405255160e-02,5.843485750950013803e-03,1.119596883654594421e-01
5.032138607022856869e-01,2.317662493716182714e-01,5.245965880519479763e-01,-9.160537463687079551e-02,-1.744245371416588281e-02,-6.539163505738110338e-02,3.447620570659637451e-01
4.682207182412232993e-01,2.116904788783176006e-01,3.869490671235250034e-01,-6.600374533457564752e-02,-3.137947278042838017e-02,-1.454618981476610562e-01,3.620292842388153076e-01
3.738197957382402015e-01,2.309133114548771737e-01,2.577109723360694327e-01,-9.614914776029287458e-02,-9.892040105930063887e-02,-1.198981922721850668e-01,3.428224921226501465e-01
3.240170101913682488e-01,2.521816668771659220e-01,3.455985577589608670e-01,-1.688539685359042447e-02,-5.726320067562123452e-03,-3.755565788995419551e-03,9.040150791406631470e-02
3.958516593984988674e-01,5.591670744987364827e-01,6.061490787090214605e-01,1.214119771152046001e-01,3.046644832067079214e-02,3.149285138864534039e-02,2.941678762435913086e-01
3.326571539198812655e-01,3.898979189364804587e-01,4.141953701413890188e-01,5.942093576529792337e-02,2.489984708360393206e-02,-1.094502999354967504e-02,1.344232410192489624e-01
3.444328982320883914e-01,3.233293083727024619e-01,3.240502715859386873e-01,5.196827969417340889e-03,-5.489254960554742352e-03,3.540125337717978452e-03,2.529190853238105774e-02
8.685933748855961811e-02,2.139470987641724498e-01,2.502133179533871377e-01,1.278626294342276593e-01,8.079613814751643308e-02,-4.567065556673956250e-02,3.113897144794464111e-01
1.266930623957484847e-01,1.773477934518663535e-01,3.056198088391474110e-01,-1.538170138204432436e-01,4.775680671028839641e-02,4.434117496096184885e-02,3.305098712444305420e-01
2.613082823151455236e-01,3.436893117180407908e-01,3.653180135223689229e-01,-8.948695243081276895e-03,9.867634509133711013e-03,9.257172504278855796e-03,9.912448376417160034e-02
3.248511607299984227e-01,2.870622676817577434e-01,3.397459590937612628e-01,-5.154095033823503924e-03,-8.730583962409509818e-03,-4.032469802441700224e-03,5.069378018379211426e-02
4.951856619440921925e-01,4.517184877260028708e-01,5.500673085613471125e-01,1.314526337289709801e-01,8.322117784080790281e-02,-3.916269594403408438e-02,2.906970381736755371e-01
2.417537410600130998e-01,4.052148725370342541e-01,4.113089991981531135e-01,-3.783841910762082011e-02,2.796379972528124924e-02,2.465241657704769079e-02,1.903082132339477539e-01
3.128313349612528715e-01,3.548442613027693593e-01,3.587174937897562033e-01,-1.716737892649369129e-02,1.664661631965585337e-02,1.605227517351827393e-02,6.656821072101593018e-02
2.845186445273573672e-01,3.352250997189263337e-01,3.383933827882453227e-01,-2.308414727826318957e-02,9.919574828954249440e-03,1.324369324695006539e-02,7.184600830078125000e-02
3.116423525016593365e-01,3.434616149998738210e-01,3.066147966800789604e-01,3.154396922290825158e-03,-9.237451485108187817e-04,8.047472320976910808e-04,3.510083258152008057e-02
5.177221238737732545e-01,6.121083312073423155e-01,3.240269536364063785e-01,3.967957644018099694e-02,-1.053573063710038782e-01,4.548792698519932287e-02,3.300607204437255859e-01
4.544188279461928159e-01,5.407760057963523215e-01,2.927807886854748576e-01,6.726930292417979129e-02,-1.122226153068857368e-01,6.030344489754710380e-02,3.313755691051483154e-01
2.692301025131260128e-01,3.217159702295844803e-01,3.259612749697716194e-01,-9.310016802749704334e-03,1.004027442270435944e-02,1.371272006026756120e-02,6.420415639877319336e-02
3.508318857848695682e-01,3.153238194576443165e-01,3.137519794076122914e-01,1.376108306581812473e-03,-1.968992535275210579e-03,8.439580761699969069e-03,3.937128186225891113e-02
3.276819806908415900e-01,3.087390403162406649e-01,2.861353908645785094e-01,8.500618950703895532e-03,-3.833791443834193378e-03,9.493924246014622675e-03,4.276936873793601990e-02
3.460025533669616182e-01,3.098843672630136048e-01,3.132305854240323706e-01,3.053442853120280002e-04,-2.885208838268170264e-04,1.723638464565470070e-03,3.470307588577270508e-02
3.840185961801089176e-01,3.425584453951951436e-01,2.901248702421520553e-01,3.667008570110351102e-03,-4.721131596312313702e-03,4.147864392353498020e-02,1.091364696621894836e-01
3.517115342362224784e-01,3.311260041352103167e-01,2.565658772877196792e-01,8.234442221647935919e-03,-1.314217018844956661e-02,2.582126989561940242e-02,1.011909991502761841e-01
3.482866531385003239e-01,3.154240377545780571e-01,3.171548110823269040e-01,4.522068890835723512e-03,-2.516505188178984158e-03,5.742530056537478722e-03,3.471807762980461121e-02
3.639734095384210000e-01,2.870908988800729422e-01,3.365630521901645245e-01,-2.445368466098577116e-03,6.283669489149906317e-04,4.841040892197199380e-03,6.814911961555480957e-02
3.569292208232301422e-01,3.319984237233986613e-01,2.790623376283122292e-01,2.396647882655961355e-03,8.538765339644198210e-04,5.763509676282092820e-03,6.973224133253097534e-02
4.201462354373356467e-01,2.396248793879145189e-01,4.172816234352487164e-01,3.315834913228749015e-02,1.363366660685387012e-02,-1.116584564274559349e-02,1.905495524406433105e-01
3.898325062637273408e-01,2.866531397434045059e-01,3.699199177667137906e-01,1.434006525410276914e-02,-7.971145732885754481e-03,2.510352162293762873e-02,1.081018745899200439e-01
3.205139185853668193e-01,3.490943799150981741e-01,3.050985453794024527e-01,6.145851748056298247e-03,1.518656448421892673e-02,-4.051474967896101162e-05,4.796112701296806335e-02
3.055137443935249109e-01,3.329156275411572774e-01,3.077673323888304169e-01,1.151233756624184517e-03,-1.069464812910641801e-03,2.464020826792012384e-03,2.682928927242755890e-02
3.310136930402028943e-01,3.097519436132215587e-01,3.133249985069516685e-01,-2.665275427064302260e-03,5.746616938545162125e-03,3.361613003271011774e-03,2.330541796982288361e-02
5.335300163463891909e-01,1.811703481762717283e-01,4.424350677189401448e-01,-1.348581808946319608e-03,1.310916163508449132e-02,-9.506136044863711804e-03,3.180401623249053955e-01
3.428463106253792914e-01,2.821618680586220340e-01,2.009650627100200426e-01,-4.459058434873866203e-03,1.556684149974680610e-02,1.091769986114580898e-01,2.274827212095260620e-01
3.166809123743342114e-01,3.137002748493973314e-01,3.428360706704517979e-01,5.595991622672283339e-04,2.396472826233368367e-03,-1.011830336793454691e-03,2.814561501145362854e-02
5.818648535011075040e-01,5.790293105532977602e-01,2.937473774008544924e-01,3.552105105562972792e-02,8.157241289603425760e-02,1.070377798323259438e-01,3.745950162410736084e-01
6.582153658654192885e-01,5.922671425947673152e-01,3.751524044527360102e-01,5.083605243497878873e-02,2.310536609500327826e-02,1.306426912490677161e-01,3.554762005805969238e-01
5.073922132949353347e-01,2.682243161485998728e-01,5.967997245296283726e-01,-9.936819115598584384e-02,2.956273496271829421e-02,1.521898467177072549e-02,3.457126319408416748e-01
3.029345136846626207e-01,7.889594662914084511e-02,3.335875392782431947e-01,-1.118618400379089439e-01,-6.603889479618390949e-03,-1.467681398554252295e-02,3.103491961956024170e-01
6.149430867525171873e-01,4.501245111656787534e-01,5.041688024492017028e-01,-2.562996589525524602e-02,7.860060552483588703e-02,1.419676826256608959e-01,3.196056485176086426e-01
4.091560338535155106e-01,2.341367771434699208e-01,4.020714382398359321e-01,2.815688331446316098e-02,8.022021330852571741e-03,-2.482783450122351757e-02,1.840183287858963013e-01
3.824093955985664040e-01,2.746041727883944961e-01,3.364263310749633362e-01,-2.490228976533043377e-03,-1.235002960937593187e-03,-3.477849517380239563e-02,1.114944145083427429e-01
4.669728052517739814e-01,4.651475030248038989e-01,5.346405200863212359e-01,1.566820218724326585e-01,9.309510704829222771e-02,-4.741914624637232067e-02,3.333157002925872803e-01
3.435895446966585887e-01,3.163991285635091577e-01,2.642075569781651145e-01,-8.779732267843897477e-07,-1.138309962515506859e-03,-7.559466835322146451e-03,7.111760228872299194e-02
3.600091492415274375e-01,2.729464660811506405e-01,3.226658757745886064e-01,-1.851995790504702005e-03,4.109245803241663372e-04,-7.284839168425531752e-03,7.676736265420913696e-02
3.840572095496829208e-01,1.349461161655635122e-01,3.611058518095024983e-01,-2.549144017928077141e-03,-8.399091199961197796e-03,-1.173269218237963096e-01,3.136775493621826172e-01
4.369543115606249750e-01,1.775271002679813526e-01,4.855808181259907430e-01,6.087449012204770166e-02,5.214484184845032122e-02,-4.629945877518966413e-02,3.286142647266387939e-01
3.106230536458938762e-01,3.473932030534019888e-01,3.100057742030514762e-01,4.430979781261376593e-03,5.739526736138028142e-03,-2.624959543905727374e-03,3.941472992300987244e-02
4.909507448835764842e-01,5.660627514972466079e-01,4.529463012063612015e-01,9.036175879092761543e-02,1.491412954495160426e-01,-5.552925055420079858e-02,3.322895765304565430e-01
2.462612514215347104e-01,3.898435229361496557e-01,4.413226439879223695e-01,9.173153444543571955e-02,2.652133466887635072e-02,-3.654572858844161443e-02,2.490349262952804565e-01
5.112424978637601924e-01,5.465982963637312508e-01,3.216586449440909101e-01,6.402892786226202504e-02,1.325359806723412914e-01,-6.723424494355505210e-02,3.499324917793273926e-01
3.111040293290512904e-01,3.344639411285458830e-01,3.080952873409059101e-01,3.811720120943712289e-03,3.767505428697318082e-03,-9.434431772968777810e-04,2.671819925308227539e-02
3.490908464402180389e-01,2.895393812397314970e-01,3.065969705320504834e-01,-1.605188849687111050e-03,-3.191869774891841621e-03,-5.309075674543930166e-03,5.426220223307609558e-02
1.980523318317225501e-01,3.003625807910687562e-01,3.331087776781863075e-01,-5.586050267145965809e-02,-1.405726288268360769e-02,-9.366195155620865923e-03,1.584523767232894897e-01
3.411714358581389162e-01,3.363260853208969170e-01,2.286595089185677609e-01,-1.020191284521119492e-03,2.974631380496336628e-04,2.346242175137304951e-03,1.102594807744026184e-01
3.135430020987964306e-01,3.411034080089579423e-01,3.167793012007639186e-01,5.223525267011036458e-04,1.465746583417426325e-03,-7.628479561128124944e-04,2.626529149711132050e-02
3.090580755580035754e-01,3.255980848009548123e-01,2.877933095321953960e-01,8.027305324139494963e-03,8.041723618546946922e-03,-3.952271126408553152e-03,3.888012096285820007e-02
3.097831936770622518e-01,3.333468605144273011e-01,2.872762898636370132e-01,8.199825072129109105e-03,6.277686063848303584e-03,-3.415257122020310190e-03,4.412576928734779358e-02
3.227659838668655023e-01,3.142739891232284033e-01,3.285549211016800530e-01,2.311026816064603792e-03,-5.185882720527675016e-03,5.217588849540583714e-04,1.588410325348377228e-02
3.460056144544714218e-01,3.282308855931790337e-01,2.539189548777484595e-01,1.311545798609280167e-02,6.150627370265712712e-03,-1.648121402935116137e-02,9.275508671998977661e-02
3.175436519490330567e-01,3.259812690102800170e-01,3.134378542313829841e-01,3.806538517084488878e-03,2.218882900423876231e-03,-2.622845531683194818e-03,1.419759076088666916e-02
3.066493241544366866e-01,3.121421448489576922e-01,3.095071909276945754e-01,5.508528570028315731e-03,7.351544781541504044e-03,-4.644434544210014094e-03,1.845319382846355438e-02
3.403672075796700391e-01,3.021828084967547179e-01,3.171366199844336542e-01,1.174907930834188366e-03,3.493419115982119520e-03,-3.670984844555399539e-03,3.452309593558311462e-02
2.831587952484819204e-01,3.401948632953902263e-01,2.662817727496389342e-01,9.728336838147349022e-03,3.750172501824799998e-02,-1.262100072606831686e-02,9.737286716699600220e-02
3.622504636979723136e-01,3.603714960905616826e-01,1.971946040948805157e-01,1.091918356197151951e-03,5.998048219624718333e-03,7.667089685113663913e-03,1.649990677833557129e-01
5.222925643426115094e-01,5.765022476567439602e-01,2.980688630963544972e-01,-6.101396831305214152e-03,1.452898879580918623e-01,6.727540895428796297e-02,3.773421943187713623e-01
3.023338807670259976e-01,3.280269016993066500e-01,3.214360280444159557e-01,3.866126637853850578e-03,4.415781982276189774e-03,-7.427784664217726603e-03,2.833876572549343109e-02
2.325634839882763372e-01,3.355274311542479904e-01,3.469572096944672501e-01,-5.337729222852087736e-03,1.534194764581752780e-02,3.044670915117818084e-03,1.128205657005310059e-01
3.084869631836607562e-01,5.286254103441365704e-01,5.431667946929737978e-01,5.394916512436625372e-02,8.034392842315275785e-02,4.816992817192051329e-02,2.948414981365203857e-01
1.525241603085147613e-01,4.090890468966556504e-01,3.403621920659922750e-01,-4.220714687915391727e-02,7.198612265362681895e-02,8.540569080978435354e-03,2.720756828784942627e-01
3.163596043328979479e-01,3.414651270138058803e-01,3.137357019839086547e-01,2.900826233219091187e-03,6.018487740501708851e-05,9.241521902829226355e-05,2.698754146695137024e-02
3.406356871289391020e-01,3.063162868481932866e-01,2.908046036910039156e-01,-5.706774122722881731e-03,-1.028723779398536863e-03,-2.782765848576394460e-03,4.555099457502365112e-02
2.450764662218458678e-01,3.180435900485046874e-01,2.609024914726431610e-01,-9.156843300890010751e-02,-1.627135232524045128e-01,-8.757744320796270743e-02,3.633327782154083252e-01
3.155528940638375190e-01,3.119342178881112093e-01,3.365929355685804425e-01,2.153301542432808566e-03,-3.439465040706416593e-03,1.368715316769485157e-03,2.422674745321273804e-02
2.975810568725595351e-01,3.144016650781575883e-01,3.277715650866027675e-01,1.763049392937307731e-03,-4.360055888279558249e-03,6.514771781699466371e-03,2.966915816068649292e-02
2.883473464614719761e-01,3.184975349367432651e-01,1.231908227844072251e-01,-3.116369153570490089e-02,-1.065907003375876350e-01,-7.759584415190917683e-02,2.970300018787384033e-01
3.328259902293366768e-01,3.599570854841633305e-01,2.661262408966387216e-01,-5.279412372826999128e-03,-1.366976729864773608e-02,-1.043431842184713507e-02,8.924920111894607544e-02
3.468547176025756351e-01,3.600264697383717127e-01,2.577280457939259972e-01,-4.245242008085656910e-03,-7.694590441244518637e-03,-1.398883318038295770e-02,1.005473136901855469e-01
4.378970335324239849e-01,3.444376255823872746e-01,1.398385187880913372e-01,-2.786280739994180175e-02,-5.390662169544439136e-02,-6.757419559156484234e-02,3.073479533195495605e-01
3.537506888667625304e-01,2.691756987239355414e-01,3.238395274819350078e-01,-2.125140310884431234e-03,-6.306064950498856819e-03,-7.465932142566100195e-03,7.627541571855545044e-02
2.387376602718698504e-01,3.194058025930918143e-01,1.726896968030542379e-01,-4.859257710213620018e-02,-1.229798575572957353e-01,-6.183755657238124148e-02,2.830638587474822998e-01
3.615814618216406928e-01,3.630000075109077184e-01,1.926692457413242687e-01,-2.876981850065702534e-03,-2.996775011958134616e-02,-2.300330721351703800e-03,1.775045394897460938e-01
3.403738448585162391e-01,3.674610866125850306e-01,2.558588803607886319e-01,-1.600569965850018924e-03,-1.301446341327441858e-02,-1.632393475332379789e-03,1.033904403448104858e-01
3.456834475556599950e-01,3.382414828574566434e-01,2.601557408860041831e-01,-1.410642295275880108e-02,-1.138094775779466272e-02,-1.418992368963603069e-02,9.123316407203674316e-02
3.170748587559447107e-01,3.477118361541000069e-01,2.855741608735747894e-01,2.330309349882376136e-03,8.905888272507409692e-03,-1.860844818501657030e-03,5.621946603059768677e-02
3.494113950739324292e-01,3.292582453623223437e-01,2.841756317942166210e-01,8.689406274307830136e-03,2.036875223244326294e-03,-5.939851283116085595e-03,6.076148152351379395e-02
5.674545190385098525e-01,3.197340380888217259e-01,3.791809064179952338e-01,2.657012909055121719e-02,1.673579871558471960e-02,-1.563153046864662610e-01,3.555766642093658447e-01
3.233547268573792044e-01,3.136251992993768778e-01,3.231387425104151889e-01,6.866505357971290809e-03,5.549835939029082281e-03,-7.497138433349195483e-03,2.225036919116973877e-02
2.839033140460492377e-01,3.308601105298646372e-01,3.093563547748681697e-01,2.879107989150503366e-03,9.206048548976088208e-03,-8.209573229350265733e-03,4.624843597412109375e-02
3.452071817246662455e-01,3.735563512819987664e-01,3.019037183474897468e-01,3.844567701276134617e-04,1.222198986442950448e-02,-8.057811615268169756e-05,6.599300354719161987e-02
3.671500174834059216e-01,2.898689863699722702e-01,3.314877128699741937e-01,1.577477535351014606e-02,1.716794010155507297e-02,-6.262612436365039281e-02,1.337347328662872314e-01
5.467691676295598491e-01,2.587538308632337247e-01,4.505262530126944442e-01,-3.869886118168557737e-02,-5.633547783881867436e-03,-1.095385611782424135e-01,3.241607546806335449e-01
3.094553838335549756e-01,3.440649125863234903e-01,3.052880652159453700e-01,-2.984686907759066983e-03,6.334514764108168522e-03,2.221213435134660602e-03,3.900409862399101257e-02
2.964025851542144707e-01,3.334685251291304442e-01,3.286147361142702228e-01,8.645998752161980494e-03,-1.336011284986930552e-02,7.698757928293484265e-03,4.642287269234657288e-02
3.443090294176547328e-01,3.448426214753003705e-01,1.824875477612052377e-01,4.259138692557406375e-03,-3.038590977492285766e-02,-2.363221619067254475e-03,1.706279814243316650e-01
3.136692117350719511e-01,3.433160572097486152e-01,2.814552877911493667e-01,-1.640640749117793472e-03,1.078750737828111303e-02,1.052410305292616425e-03,5.685263872146606445e-02
4.396725926498685211e-01,4.400504402309325380e-01,2.580891392658888339e-01,6.346004154346648884e-03,-8.634654282254017321e-03,-3.267292058255023141e-02,1.912808120250701904e-01
3.361747729915098293e-01,3.423021429014981853e-01,2.512533971608262862e-01,-9.200277372388206837e-03,4.292190110496985067e-02,2.719807815313247251e-02,1.255768239498138428e-01
2.860988375329320266e-01,3.332006560309146437e-01,2.918598622026966072e-01,-2.916459192233625004e-03,-4.719966471830302178e-03,-2.556241806738554327e-03,4.574243724346160889e-02
3.408739041025657945e-01,3.619340874012214604e-01,2.382151794197874817e-01,2.148645784659602292e-03,-7.284807408756084450e-03,-4.314872408554938990e-03,1.156428381800651550e-01
5.548206056703537392e-01,5.090423344856929155e-01,4.642907051095108706e-01,1.018507397225419525e-01,-5.274293763376035338e-02,1.526715930919741449e-01,3.399103283882141113e-01
3.526223166410218934e-01,3.624894811534889461e-01,2.649343977409450157e-01,5.059812017447559360e-03,2.085085350896125067e-02,-3.725508912718501243e-03,1.003717109560966492e-01
2.990728309209558788e-01,3.180419702328141085e-01,3.272486395096171341e-01,3.380724741889756108e-03,-3.239365981513048914e-03,7.610392784637886460e-03,2.930454164743423462e-02
3.597548836116916671e-01,3.695448559433479607e-01,2.249457657252771914e-01,-3.613465582194712311e-02,-1.079807802181761422e-01,-1.183817755856802212e-01,3.170623481273651123e-01
5.909660396433751295e-01,5.143524718295744425e-01,2.300962372249898968e-01,3.390029474773724461e-02,4.097654423486701142e-02,-4.973417408981818666e-02,3.526393473148345947e-01
3.570851100533539157e-01,3.537751610357560139e-01,2.237007317062333911e-01,3.865261615825326975e-03,-3.461953729183500292e-03,9.556778263826696748e-03,1.331000626087188721e-01
5.666262001759241329e-01,5.649766322225588944e-01,2.508640225961269454e-01,3.126897421314871195e-02,2.600755068194609068e-02,7.024869407290521006e-02,3.448980450630187988e-01
4.185552795302842077e-01,2.252527754414369865e-01,3.999512741181225906e-01,-2.497872150897864629e-02,7.245467432184974667e-03,-3.949968160158896097e-02,2.020538002252578735e-01
3.616801709145773813e-01,3.514634119000300538e-01,1.733184999030825124e-01,1.549003233025517037e-03,1.911403846162040843e-02,-2.541216104921099894e-02,1.915740817785263062e-01
3.165207887263727371e-01,3.433675957100217890e-01,3.236523799247900679e-01,-6.974110463343700592e-03,9.673650923405052726e-03,9.755209147360232452e-03,3.594851493835449219e-02
3.616399183245962989e-01,4.125828830723468621e-01,3.665191716470557193e-01,-1.217586625435213704e-02,7.162169471628687667e-02,1.650460847813636084e-02,1.379180699586868286e-01
4.200571474984139408e-01,2.742860394456456685e-01,4.053353837834776652e-01,-1.631729510362849023e-02,8.653596816828318036e-03,5.312942646082473297e-02,1.697396934032440186e-01
4.108625520716707724e-01,2.686647375529812587e-01,3.561872520050694546e-01,-3.329587095886473846e-03,9.895155383670774935e-03,3.201918414034032184e-02,1.372500807046890259e-01
4.369374648094986324e-01,4.993692586494885566e-01,2.968049648804316210e-01,-4.007903364202078378e-02,-1.311092809137805459e-01,-6.616274706976868480e-02,3.190674185752868652e-01
3.498831982192400214e-01,3.516991049284939330e-01,2.847700116214291755e-01,6.491034878893122036e-03,-5.037577558234512115e-03,2.822977633681067640e-03,6.773258745670318604e-02
3.256436202669848456e-01,1.655762374698219186e-01,2.903744120187168876e-01,-4.163118655839194437e-02,3.824935494407312453e-02,9.790659370898811831e-02,2.440607398748397827e-01
3.242350167361633395e-01,3.081893271761352859e-01,3.106959740901032996e-01,-4.402352623807463672e-02,5.246590320491550247e-02,2.948798983519603997e-02,1.300168335437774658e-01
3.327009203369116208e-01,8.925116402723709541e-02,1.969737421394017751e-01,1.221032357249962445e-02,9.478600025777710048e-03,1.439665281094890947e-01,3.279371857643127441e-01
4.464155437763814849e-01,3.228483107267945407e-01,4.425190978923529972e-01,-2.481507943950820444e-02,4.420250427430705287e-02,1.730277035976723887e-01,3.351526260375976562e-01
3.025176799044125842e-01,2.811439069064955443e-01,3.059934576691287766e-01,-1.679919127737188739e-02,-1.807248719318724217e-02,-1.493876544279896731e-02,5.512887239456176758e-02
3.530954024665383661e-01,2.003819921264977100e-01,3.428151782752454357e-01,1.074469059316025821e-02,9.498266219371772484e-03,-2.758047516808626726e-02,1.573409885168075562e-01
5.919354247021342275e-01,5.587391677885961139e-01,3.341762509571101769e-01,4.599665181224088517e-02,3.979281700569652080e-02,1.091810223525588319e-01,3.253369331359863281e-01
5.784942331360952705e-01,3.940335028585357779e-01,2.775795710646914993e-01,7.441252501324105428e-02,1.016378129904011579e-02,1.246371510960816997e-01,3.641336262226104736e-01
2.375536810752210404e-01,3.738426916567256786e-01,3.737939769957642766e-01,-1.042741251727280754e-03,4.122013740609624735e-03,8.609069587695589035e-04,1.364716738462448120e-01
2.367114367729662994e-01,3.701904271568315363e-01,3.707849673665957191e-01,-7.889011011315789912e-03,7.210325881187360994e-03,2.597200936948344460e-03,1.351268440485000610e-01
2.903130971023484275e-01,3.177140988196012761e-01,3.405835973688355334e-01,6.413590808349780605e-03,2.859330095184678053e-03,-3.750653224504702215e-03,4.572316631674766541e-02
2.623429241996669825e-01,4.271408925436744330e-01,3.932986655435743439e-01,1.922005572671983686e-02,1.929216546853549860e-02,-7.029832677139923741e-04,1.579646021127700806e-01
3.217742098530554928e-01,5.946740018051840382e-01,5.327281930630041185e-01,4.992531847367284725e-02,-1.165423025348623770e-01,5.641886426527836090e-02,3.452242612838745117e-01
2.937830115965801014e-01,3.283007265501345362e-01,3.200468550842814897e-01,4.799154996764106937e-03,-8.430831669709253073e-03,1.020984141113982432e-02,3.962006047368049622e-02
2.411760894358099261e-01,3.781809272181235193e-01,3.659485946409944401e-01,-1.616337962866150715e-04,-5.405723886986299812e-03,3.701456085731978912e-03,1.318063437938690186e-01
2.104083691481666574e-01,2.005193773505538624e-01,3.314717615052444888e-01,1.103519542900927297e-01,-1.659521172032428493e-02,3.200247152006367723e-02,2.374503612518310547e-01
4.132935960191957969e-01,4.810868100926220525e-01,1.242941548531592000e-01,1.942554609982995173e-02,-8.107972773003051942e-03,6.787896832322530549e-02,3.505149483680725098e-01
1.553686074333260336e-01,3.354454358620423959e-01,3.369141685992848578e-01,1.240797899048610020e-05,-1.413360360233200698e-02,3.070404388034694756e-03,1.825427711009979248e-01
1.971399449182340557e-01,3.356208110848287740e-01,3.154721551055611473e-01,-1.922054066822775150e-04,-3.976929523972561054e-02,8.227535155200096928e-03,1.474472582340240479e-01
3.184312710260496226e-01,3.555610637823234943e-01,2.396116618131023113e-01,-7.478125276258999581e-03,-4.006207826933112087e-02,-1.787703199149588695e-02,1.282932162284851074e-01
3.615232427661351222e-01,3.284615024841182618e-01,4.430719802453944589e-01,-7.135637458042105863e-02,-1.881028459884491466e-02,-2.267024342017824948e-02,1.682792752981185913e-01
2.429598581501333232e-01,3.661980784536748024e-01,3.660714229461565217e-01,1.495918442840571340e-04,5.127709410976410281e-03,1.581096631944713723e-03,1.235253512859344482e-01
2.489788219712195105e-01,3.617239159279040939e-01,3.666239744343758322e-01,7.843085855389815911e-03,5.151894243082781079e-03,2.301310272005785505e-03,1.164816766977310181e-01
2.355376363126547301e-01,3.622322702256330906e-01,3.630641658602820065e-01,2.702879433542710805e-02,1.727576593065591887e-02,4.334207387514490625e-03,1.389280408620834351e-01
2.348324796210095045e-01,3.830330204962957286e-01,3.695519293260956517e-01,1.000371518242331240e-02,2.048588242194909065e-02,5.532805187611850549e-03,1.476425081491470337e-01
2.299866129713353524e-01,3.515625345400290591e-01,3.555554464346768473e-01,7.998433299622978443e-03,2.777328499832910219e-03,2.896270578693068993e-03,1.245886087417602539e-01
5.197903645054238186e-01,5.474048728550194864e-01,4.799408748584662598e-01,1.296695228574072378e-01,-8.658489421804768660e-02,1.295714111957275705e-01,3.560205101966857910e-01
2.966889012952755866e-01,3.444238592488108042e-01,3.756791995204598056e-01,8.292218130593198219e-03,1.362696515978103692e-02,4.577485306360137840e-03,7.465735077857971191e-02
3.163954782786893571e-01,3.161541803394838923e-01,3.308926009383290068e-01,4.542059991608537670e-03,4.814407565593374801e-03,-3.923177516385777802e-03,1.978189498186111450e-02
2.896350818200540411e-01,3.356942035701523386e-01,3.424118310443449720e-01,4.512760947937387648e-03,-3.141314984161639422e-03,7.002861414766837177e-03,5.209410935640335083e-02
3.129224879521768088e-01,3.317143899323420353e-01,3.552009674230423020e-01,1.771977646044124374e-02,4.636251540991403672e-03,-4.292923416917154150e-03,4.906990751624107361e-02
2.841516626244638966e-01,3.481582423444820051e-01,3.217121175930037769e-01,3.403223368561059960e-04,-5.592071317942955491e-03,-5.709359309839137208e-04,5.655663460493087769e-02
3.012424054432918386e-01,3.039941153128611351e-01,3.160890514865846157e-01,-1.719083669375822505e-03,-2.135917862815162396e-03,-4.053119113294718218e-03,1.609275117516517639e-02
3.029861484475593891e-01,3.040593724291484889e-01,3.161845733269734726e-01,-9.619164597255611647e-04,-1.540988709970041821e-03,-2.947839645401003749e-03,1.404116861522197723e-02
2.972302842760287112e-01,2.975779083956072157e-01,3.200105759023955665e-01,-1.427384921204158819e-03,-2.794450872011502475e-03,-1.555370080786560314e-03,2.340812236070632935e-02
3.097173307329270098e-01,3.471449337515371547e-01,3.727666038205569854e-01,1.984146909765080458e-02,3.379366743036349863e-03,7.960223998724359068e-03,6.649556756019592285e-02
3.381805718355310741e-01,2.038259739288470485e-01,3.930877876529830228e-01,1.303292422780716331e-01,-6.109978826884528147e-02,5.764520477166632656e-02,3.171255290508270264e-01
3.400323562721886406e-01,3.137148039964725021e-01,3.068234645427183049e-01,-3.699006793483021059e-04,1.883305066110567373e-03,2.697123312805698933e-03,3.089242242276668549e-02
5.088923917602077296e-01,4.976311881659544190e-01,5.663551962489518088e-01,1.340603449299559435e-01,-5.031094783673997761e-02,8.643987485749785038e-02,2.966505587100982666e-01
3.056764378319896114e-01,3.017037058609895461e-01,3.240102476022789224e-01,-1.303183679996481941e-03,-6.445169849403329949e-04,-1.550837609384867226e-03,2.093568444252014160e-02
2.275734385999709231e-01,3.545803409333138645e-01,3.485937463650115586e-01,-4.160759129570454178e-03,-1.499784793353300776e-02,-1.455126656997494548e-03,1.270407289266586304e-01
2.878406237134814583e-01,3.350412454342701629e-01,2.859581733223164335e-01,-8.576176488274123849e-03,-1.164551129079510056e-02,-8.785277377504991866e-03,5.638567730784416199e-02
2.863248371786181190e-01,3.299149050116238491e-01,3.385247126426002562e-01,4.959762735320789873e-03,-3.029042952328547204e-03,5.370319121274235580e-03,5.037230253219604492e-02
3.146994361484079517e-01,3.151670164857596212e-01,3.449149642157174345e-01,-3.670899305467020611e-07,4.147347827072103417e-04,5.685100139577191391e-04,3.000923618674278259e-02
3.709543655262518280e-01,4.925492685642536284e-01,2.215794253509382750e-01,7.905638878015142090e-02,-1.056256019497275045e-01,4.063540092106611434e-02,3.353135585784912109e-01
2.993832159447482599e-01,3.316648188556753918e-01,3.306297703770237351e-01,3.057064279919398386e-03,-4.484714780716011692e-03,7.305520390555446733e-03,3.547177836298942566e-02
2.849047873115522767e-01,3.749504784083402820e-01,3.385729053933385635e-01,-8.042393811687951338e-03,-3.147237650827499483e-02,-4.781295897035315462e-03,9.690234810113906860e-02
2.176193718871239358e-01,3.641037374483473976e-01,3.448007315920058047e-01,-1.464075955352073287e-03,-3.781076211824919986e-02,-2.328021448728342241e-03,1.526903361082077026e-01
3.900608439040845754e-01,5.786873844975162218e-01,5.066031592225833657e-01,9.044748689718951074e-02,-1.069714417075241231e-01,8.807129777128902548e-02,3.306352794170379639e-01
3.339513802311371848e-01,3.028493095962149217e-01,3.336783283272226064e-01,3.515737151045717282e-03,-6.751342612010897276e-03,3.426803326680618288e-03,3.417561948299407959e-02
3.269467490311289692e-01,3.674808134095313150e-01,2.950141921905808373e-01,-2.770300299574856087e-02,-4.377424296351947741e-02,-2.137448016062370656e-02,1.156658232212066650e-01
3.336356252362683295e-01,2.808666296823746911e-01,3.330253577079216876e-01,9.318072182058137823e-03,-9.174039104491729657e-03,8.034572013641518712e-03,5.881638824939727783e-02
5.966002422325651366e-01,5.690743598387885127e-01,4.099984384073196431e-01,6.834304822633055498e-02,-3.879509626688980306e-02,1.295323611624069615e-01,3.151268362998962402e-01
2.488299068531715230e-01,3.593718187682060083e-01,3.539711651246074120e-01,5.691359678918194234e-03,-1.038512095646623723e-02,3.920211457762964521e-03,1.100841239094734192e-01
3.504931605847664833e-01,2.694244569900740571e-01,3.743633315269372375e-01,-5.614679989765027773e-03,9.410742594604726285e-03,7.611083899831733689e-03,9.803616255521774292e-02
2.307211405871746890e-01,3.282274801687289356e-01,3.530194486385718200e-01,-4.460163167243658133e-02,-5.477686229219907305e-02,-2.289442849470065336e-02,1.705326884984970093e-01
2.042834802681687822e-01,3.679414587538399339e-01,3.668582729008875165e-01,-1.993599866429832460e-02,-4.067213952534407678e-02,-1.004878738480061151e-02,1.818399578332901001e-01
3.237917113161678517e-01,3.095655646962529040e-01,3.252839973116893879e-01,6.142509397370662406e-03,-5.938890647186470702e-03,7.698576721766486365e-03,2.495288476347923279e-02
3.271598817673956883e-01,3.158806559595876973e-01,3.270316605730153592e-01,1.139029716361531462e-03,-3.021508009768686300e-03,8.120460096576112693e-04,1.261150650680065155e-02
3.566079228545451230e-01,4.250248614911231737e-01,4.201901105282154214e-01,-1.340150578967514994e-01,-1.147113237475118341e-01,-8.570975937261883504e-02,3.460753262042999268e-01
3.108757201758703403e-01,3.627678328621777859e-01,4.177720720421587153e-01,-6.810049606469564809e-02,2.557647209445043646e-02,1.896524944552573783e-02,1.597719788551330566e-01
3.252973645464031782e-01,3.166390053063505849e-01,3.220419034218006682e-01,8.346010618696881114e-04,-5.090623457817680317e-04,5.223395642067682476e-04,7.814338430762290955e-03
6.448307523480378833e-01,4.673196913465959001e-01,5.574189478893499805e-01,3.679240760077893968e-02,3.331673325447929990e-02,1.350969393185380840e-01,2.928805947303771973e-01
3.369947496511757623e-01,2.509708322797297164e-01,3.547246413773281204e-01,-7.072512918972672681e-03,6.315675111155383270e-03,4.319098296714315608e-04,9.751893579959869385e-02
3.585144694092937123e-01,2.065893118484958269e-01,3.504972601566513912e-01,-4.028163630104972942e-02,-2.460316589069452484e-02,-8.596789024507522914e-02,2.253502309322357178e-01
3.407059955726248757e-01,3.232915216573608586e-01,3.114586251568374209e-01,6.760952220585574740e-03,-2.152945909028944858e-03,2.771654314860816370e-03,2.869543805718421936e-02
3.390768393759957533e-01,3.169918027885566536e-01,3.144048585724646960e-01,4.321151687985771289e-03,-3.880403799157018923e-03,4.791719997395723143e-03,2.686345577239990234e-02
3.097764604681138567e-01,3.378734939440311558e-01,3.129992129356418684e-01,-1.824149416837251517e-03,3.415090056491642059e-03,4.375550988959599728e-03,2.849012240767478943e-02
5.082982020306562321e-01,4.118255126241610053e-01,4.812013219628195615e-01,-5.971743099372824048e-02,8.729645731777749273e-02,1.241193484186215168e-01,2.953040301799774170e-01
3.142631332288326473e-01,3.281368872106494861e-01,3.122961384338147073e-01,5.373691924117848101e-03,-4.990132666863572597e-03,5.136095593197313562e-03,2.154326252639293671e-02
3.410013737371426767e-01,3.205149979041084785e-01,3.093735341017858076e-01,-3.039404766280130385e-03,1.902030211800450959e-03,2.687217765755560081e-03,2.884965389966964722e-02
3.504929980674089673e-01,2.125098288681372405e-01,3.521641326921245430e-01,-5.850003362839840959e-03,-4.537080510929483810e-04,-5.657896513135762112e-03,1.395423114299774170e-01
3.911103981278529762e-01,9.528760541760392111e-02,4.118127978634978370e-01,4.837523658541140192e-02,-3.100700555897947103e-02,2.166379119430902195e-02,3.246178030967712402e-01
3.338408132335817236e-01,3.157253703137938849e-01,3.209715399803228508e-01,1.720774161610895891e-03,-3.315866084249849063e-04,1.725277669192352894e-03,1.669723540544509888e-02
3.319864779779672093e-01,3.185173198599712263e-01,3.212905757253825545e-01,2.012770139479597674e-03,-2.166209190878176649e-03,-1.075650681175579616e-06,1.334117166697978973e-02
4.123446488938110610e-01,3.074701852963964699e-01,3.886620046364908099e-01,5.100663874169939632e-02,-6.183833904811460863e-02,1.031747147848936508e-01,2.455358505249023438e-01
6.099273429468207164e-01,3.401848745077883374e-01,6.156645821394577389e-01,9.130694789478305262e-02,7.937979491849005489e-03,4.596018147851332891e-02,3.253896534442901611e-01
4.046068991044527996e-01,2.121359406790953306e-01,3.679566756448457432e-01,3.578496791345489592e-03,-5.149523336753269835e-03,2.261203300815244066e-02,1.816207170486450195e-01
3.705688990886985001e-01,2.295280758644767660e-01,3.684096969686513900e-01,-2.395847330621954287e-03,4.549262936849146860e-04,-1.541307436101595815e-03,1.400628685951232910e-01
3.478219597676183716e-01,2.439171339718566034e-01,3.178081116159621744e-01,1.381187805149810231e-02,6.601187002759435589e-03,-2.569149094839855499e-02,1.061209216713905334e-01
5.909604063258742102e-01,2.637060862607072398e-01,4.791112494435605385e-01,4.376808925554111218e-02,4.072791277256392062e-02,-1.124412360505007147e-01,3.628427088260650635e-01
6.190660089581527803e-01,4.804104911441145487e-01,3.979653222963437931e-01,8.272281593396919874e-02,6.670811078317209764e-02,-1.356980923146326456e-01,3.557738959789276123e-01
3.360611316364559009e-01,1.395613904098055302e-01,2.958407785798159439e-01,-6.971588073431589372e-02,-4.033043076287032291e-02,-1.147493620550704002e-01,3.021412491798400879e-01
3.737956527114797978e-01,3.332082149786388392e-01,3.289006700098155989e-01,2.457535689172569981e-02,2.609718975809291117e-02,-3.393661432109017217e-02,9.566003829240798950e-02
2.902218930879895131e-01,1.526202885436794832e-01,3.182556281213560490e-01,-1.067034837278446890e-01,-4.328819396329736113e-02,-8.024098239437933711e-02,2.875272631645202637e-01
5.589405921512570208e-01,3.989153305534998140e-01,6.064438127976801152e-01,1.152697572854604890e-01,5.671233418295427292e-02,-2.741097463917448185e-02,2.953483760356903076e-01
3.124988856216276978e-01,2.935744038978214121e-01,2.957377534471937186e-01,-8.080189793371213985e-03,-8.091116952692534864e-03,-9.616266043424970267e-03,3.148905187845230103e-02
5.817940353851327462e-01,2.309843902260200477e-01,5.734142354105931094e-01,-1.977549818986588243e-02,1.930712157054605485e-02,-4.480889122637073119e-02,3.584870100021362305e-01
3.321244026056501819e-01,2.976511697194257899e-01,3.484329541963298582e-01,5.805274344397134967e-03,5.274180657577114129e-03,-1.822630388080065476e-03,4.702235385775566101e-02
4.010012069669955936e-01,2.682267432970593113e-01,4.101238475538432904e-01,2.889711912942614924e-02,1.408677025488833112e-02,2.740516533067034050e-02,1.558111160993576050e-01
3.515139992185937756e-01,2.600063637686245155e-01,3.572659408404965653e-01,4.536309787270948607e-03,7.833706281348282521e-03,-5.380118700710531839e-03,9.625877439975738525e-02
3.636351946784762146e-01,2.741891622840461062e-01,2.755957390449695898e-01,-2.480485763247345255e-03,6.730949097107939705e-03,-5.560702670358938504e-02,1.315581947565078735e-01
3.118787016713028826e-01,2.621910052446217443e-01,2.784845466240840062e-01,1.672540922140317368e-02,1.410106951490920114e-02,-3.569930125379369712e-02,8.475740253925323486e-02
3.105887986606311602e-01,5.834891029044050881e-02,1.896990325918137543e-01,5.122956278747019948e-03,-7.568801022451914461e-03,-1.589064602259698811e-01,3.517818450927734375e-01
3.753294611099621814e-01,2.097789745414425089e-01,3.460553338448733030e-01,-5.823317317525858461e-02,-4.647548011996417705e-02,-1.321450050635592788e-01,3.040685951709747314e-01
3.247133969566595169e-01,1.506058804776826410e-01,2.000071952722063950e-01,-5.497283240848795105e-02,-4.242773236548076643e-02,-1.372473521401087193e-01,3.084309697151184082e-01
1.904772856104543777e-01,3.295611452498204419e-01,3.014246899058284912e-01,-6.684086309865740812e-05,-3.966241296271594968e-02,8.335185245115186992e-03,1.454318165779113770e-01
6.614896314916458575e-01,3.122722082119870901e-01,6.293909638703926168e-01,4.300653943185070438e-02,4.363586630689444273e-02,-2.433961288555582664e-02,3.532873094081878662e-01
2.537813195153985069e-01,2.376659561361305073e-01,1.946983001120665413e-01,8.029838626201263319e-02,1.075107664590521372e-01,-9.698502670111214252e-02,2.916090488433837891e-01
6.097877614655429213e-01,2.976484335157140726e-01,5.092717981480829881e-01,2.753903553134719531e-02,3.805943762490790472e-02,-9.446372026858232407e-02,3.309839367866516113e-01
3.215461985890242236e-01,3.161562013236021151e-01,3.145564653798880728e-01,4.253363593303867429e-03,4.229152267581481189e-03,-4.637821337344286490e-03,1.458397880196571350e-02
3.227970815228440316e-01,3.453637407691392824e-01,2.476400077308111847e-01,-5.582430123418856936e-03,-1.505483599435692224e-02,-3.290495087852822725e-03,9.305804967880249023e-02
3.334191274027245577e-01,3.039348105476895046e-01,3.082222139438534070e-01,4.004100969181995963e-03,3.661882965610483917e-03,-1.957802576261729113e-03,2.934486605226993561e-02
4.434782883271259912e-01,3.868140555976088968e-01,2.804077374604390105e-01,1.207536917471316029e-01,-3.685857978719767059e-02,1.278618706584245257e-01,3.426785171031951904e-01
3.250626838385044515e-01,3.515387354504222461e-01,2.566173396239657123e-01,5.661085549974871796e-03,-1.262229628575899272e-02,5.650477549786491610e-03,8.870063722133636475e-02
4.711209790267105735e-01,5.489127774811753957e-01,2.433816055351109842e-01,4.819377548182009890e-02,-1.145120023165169254e-01,2.659070607732168245e-02,3.522231578826904297e-01
4.985713745484652293e-01,5.715853018796781537e-01,3.082429864807955111e-01,5.476593010501455000e-02,-1.122485133214968234e-01,4.329915755522495413e-02,3.284419476985931396e-01
2.866787046787271365e-01,3.153293645031048920e-01,3.513340101417423700e-01,1.307465742606700801e-02,6.515944225452881700e-04,-4.131404854212558306e-03,6.094317883253097534e-02
3.353894212286275267e-01,3.161582229762908702e-01,3.098962272327365763e-01,-3.621615312156916972e-03,1.451207539602818956e-03,1.599146069336133047e-03,2.414156869053840637e-02
2.886084035518123314e-01,4.102768310383933525e-01,3.580234749397272487e-01,-1.384062339132481959e-02,-7.544334001574817816e-02,-1.797490559842350108e-02,1.726125925779342651e-01
4.691968453760542723e-01,4.742738436383704959e-01,4.661678637545140225e-01,-6.299548375127769773e-02,1.123441695996194312e-01,1.363685964368373527e-01,3.249745368957519531e-01
3.275095373465516380e-01,2.807324144773659103e-01,3.622720213046644044e-01,-2.252671940364597142e-02,1.323776633170073956e-02,1.223326445498957617e-02,8.671592175960540771e-02
2.373183395117025030e-01,3.111852957306991407e-01,2.361970432075461701e-01,-9.570500066812120954e-02,-1.710155509111570549e-01,-6.032064406270364748e-02,3.628683686256408691e-01
2.182359039407903711e-01,3.532860587151923637e-01,3.418197519771659643e-01,-1.245659433097392240e-03,1.405935495013609614e-02,3.144336237060888460e-03,1.320939213037490845e-01
3.277429409282853756e-01,2.989051137268113334e-01,3.629761120647465589e-01,-1.706910175885280323e-02,5.779713182331067470e-03,7.340570457309822210e-03,6.499980390071868896e-02
3.162913104282967236e-01,3.004747338709257698e-01,3.270269657433609867e-01,-5.757077691942048131e-03,6.168730815372892341e-03,2.098677561460145485e-03,2.760479226708412170e-02
3.464509185053230023e-01,3.190970097153156271e-01,2.993001738039967052e-01,-2.506495023743630837e-03,1.233782227559505906e-04,3.930278404185864188e-03,4.179600998759269714e-02
4.035602463029758780e-01,2.137410272894347818e-01,4.210502522286364568e-01,6.357457762914138499e-03,3.021834873316340056e-02,-3.009818323250285088e-03,2.062645107507705688e-01
2.993698774126518081e-01,2.590954178965260146e-01,3.655106028069449176e-01,-8.581898154984825278e-02,1.580918394222349376e-03,-3.256505199455854481e-05,1.753927171230316162e-01
2.825521464396069660e-01,2.855100126562950535e-01,3.339074959754634309e-01,-1.546888221969701903e-02,4.227937637880209779e-03,2.621513579026603369e-03,5.732644349336624146e-02
3.505492330094394648e-01,3.014530484477068173e-01,4.888309605523387669e-01,-1.532530801136905985e-01,-2.774081520739472492e-02,-4.487942973625467374e-02,3.273103237152099609e-01
3.345192580148217965e-01,2.873953701436339769e-01,3.006728768960338360e-01,-1.301355140749194464e-02,7.937671747940518857e-03,2.302463961111485269e-02,6.370827555656433105e-02
5.059203179989291144e-01,2.694209970291085443e-01,5.496816077437439718e-01,-8.591230275680476758e-02,2.186498213396977433e-03,-4.613470319658430352e-02,3.110286891460418701e-01
3.408851457621591141e-01,2.175732992128440457e-01,3.508800202851484196e-01,-1.266231667388741967e-02,-2.250579024741010403e-03,-4.975227150302188699e-03,1.308000534772872925e-01
3.436293605044069555e-01,2.354670653614104325e-01,3.378062386335732303e-01,-1.289795779654186181e-02,-9.858188058129335046e-03,-1.098593250539509417e-02,1.107061132788658142e-01
2.614077827863946490e-01,3.903738586976298608e-01,3.824618913978144463e-01,-1.259298324317889572e-01,-9.518692541719428468e-02,-5.447839367671734184e-02,3.151741921901702881e-01
3.203897507792946020e-01,3.519781103106868758e-01,2.270990095249438290e-01,-1.600160732478061922e-03,-3.603167453730343056e-02,-4.443586794414475412e-03,1.288784295320510864e-01
4.091019775005421133e-01,3.423745360003045968e-01,4.025417928631339071e-01,-3.231784458565280932e-02,4.507288112533372471e-02,4.992832456228016302e-02,1.440985053777694702e-01
4.761201870069083908e-01,5.868431198953306671e-01,5.126174274679272669e-01,-4.843358379165167704e-02,1.397491963587755015e-01,7.663893078985800633e-02,3.046277463436126709e-01
3.236123942272041143e-01,3.439620373932592567e-01,2.676722566134937531e-01,1.093030619543657565e-02,2.496037430646418781e-02,-1.112432954774258617e-02,8.532582223415374756e-02
3.055480117798097250e-01,3.069109660662344141e-01,3.390529276798451841e-01,-3.012636517707308840e-03,3.317289411139374890e-03,4.058376874339751465e-03,3.447352349758148193e-02
2.945750279890655410e-01,3.488062375470223353e-01,2.674689138185623039e-01,1.913572716690706396e-04,3.319045759590899536e-02,2.784536039886613325e-03,9.205407649278640747e-02
3.177779228265166789e-01,3.144615857832797068e-01,3.388393018489735953e-01,-5.957315894510106097e-03,8.657674781677150710e-03,9.674600658543149045e-03,3.371283039450645447e-02
3.282219055292988075e-01,2.665772600623896871e-01,2.659781272133274199e-01,-8.009324479333747998e-03,1.328583944471108461e-02,4.548572227378794297e-02,1.037602797150611877e-01
3.438594034544053546e-01,3.084054360921537619e-01,3.112765953560123200e-01,-4.804026597082801365e-04,7.789236025464304439e-05,8.486022668717813511e-04,3.415119647979736328e-02
3.853768010143101552e-01,3.264841178448871784e-01,3.732017643189656786e-01,-2.789043840668078717e-03,1.737670721427059944e-02,5.600171579095349073e-02,1.150535568594932556e-01
3.669906371936569323e-01,4.309920447747079830e-01,3.713631948999441268e-01,6.200165130164802434e-04,5.344805696863051681e-02,-3.949574769940881959e-04,1.113874092698097229e-01
4.627982055564737185e-01,2.998832742061048329e-01,5.925409090736655227e-01,-1.172044522052350379e-01,4.584094244662619000e-02,3.912111316717126197e-02,3.414933085441589355e-01
2.747663184454727792e-01,3.035413095127940108e-01,3.355865718602116798e-01,-1.014453516677152681e-02,3.837358130791914974e-03,7.657635345147129069e-03,5.749634653329849243e-02
1.840361971227626459e-01,3.129854873764773560e-01,3.077878311363025920e-01,-2.578973815637317438e-02,2.947749040899209222e-02,1.267234773388732638e-02,1.451501548290252686e-01
5.338177609070998697e-01,1.974691510728395771e-01,5.037142902603598538e-01,-7.368742680280917709e-03,2.783676494021826431e-02,1.519584532956677891e-01,4.191336333751678467e-01
6.006734801323085904e-01,3.088519799995783077e-01,6.201520786773361271e-01,-4.623211451125265603e-02,2.147193459937036045e-02,4.703177202968951420e-02,3.250458538532257080e-01
2.601107954742618578e-01,4.126526491937855257e-01,4.045345907783331474e-01,1.004711848327451487e-02,1.444887879901943506e-01,-7.596873544058308468e-03,2.918965220451354980e-01
4.054006254500890361e-01,1.697019824065432725e-01,4.574539700350506166e-01,2.150509632334196911e-02,2.963646384865279218e-02,1.511995762612109440e-01,3.783366382122039795e-01
5.968559644250690521e-01,3.615600083585739921e-01,5.712239084882975160e-01,8.176723694285045752e-02,1.548072625597801677e-02,1.116108605449027263e-01,3.288428485393524170e-01
5.425973815310763948e-01,4.315100957302329676e-01,6.258233608558598782e-01,1.340737998638510398e-01,5.892541884365267921e-03,3.976855512758695199e-02,2.954461574554443359e-01
6.048777860405356588e-01,2.695242308433402623e-01,5.768873809568918487e-01,8.850544982745351579e-04,2.289699280212351487e-02,-1.079058895330482206e-03,3.247113227844238281e-01
3.348601462998808120e-01,2.299902054455696676e-01,3.145284339009143393e-01,-1.396738869389728237e-02,-1.114427922669378873e-02,-1.209186500141550512e-02,1.033217608928680420e-01
6.188640127271631819e-01,2.652089988567645773e-01,5.706554934914451760e-01,5.870598158456048765e-02,5.358467993699428389e-02,-4.951872244933416822e-02,3.696703910827636719e-01
4.091739853237481572e-01,4.253814036440591306e-01,3.455208545015062693e-01,4.808802162258127288e-02,1.892321203319482781e-01,-2.759421404684422180e-02,3.492766022682189941e-01
3.304297336864229218e-01,3.087891676628141679e-01,3.149540206178722546e-01,2.110972691950951420e-03,4.018643800874395142e-03,-1.521085813337837113e-03,2.101587131619453430e-02
3.264472586036921142e-01,3.253577731070952384e-01,2.825165293977359160e-01,-8.785225073545070013e-03,3.335056251685502605e-03,3.440825999498067431e-03,4.672965034842491150e-02
3.316636595767868956e-01,3.113768674892187782e-01,3.166160408030604390e-01,1.422975123587136986e-03,3.461692491716977728e-04,-2.508356864710847411e-03,1.892158761620521545e-02
2.552357436574477223e-01,3.124886188300909917e-01,3.359439798057710092e-01,-1.922207643726430576e-02,2.599100476649286902e-03,1.254794863132393384e-02,8.229225873947143555e-02
3.392056106980672059e-01,4.204649480647710824e-01,3.920899954127542442e-01,2.360553134250131802e-02,6.107054583869788583e-02,3.830700981455809669e-04,1.340277045965194702e-01
2.393861192927370929e-01,3.541213356140905932e-01,3.484110994570658315e-01,-2.914021844401545359e-03,1.505444580043773743e-03,6.801121329261622557e-03,1.127503886818885803e-01
2.941511219645350783e-01,2.879583361862654844e-01,3.403699543909801672e-01,-5.597002898401468030e-03,-2.110416032391738972e-03,-9.346152212010036629e-04,5.070222541689872742e-02
1.882048115537358624e-01,3.188131315507474750e-01,2.982141858408457469e-01,1.687010495236782384e-02,3.891303195743772009e-02,-6.585663722598831746e-03,1.425448805093765259e-01
3.808450315963848309e-01,5.745731438569605665e-01,5.409087008549088305e-01,-1.886860717002726475e-03,1.271750349772736155e-01,3.777569866337325555e-02,2.914691865444183350e-01
2.091438685837155864e-01,5.207804193700378281e-01,4.930943208891104268e-01,2.323882668879634697e-02,-7.800775645300817018e-02,8.925956256284382773e-02,3.647374808788299561e-01
2.818954340691770533e-01,2.842143117773636152e-01,3.159466304154524008e-01,-1.433716435780993219e-02,-8.413841335645572128e-03,-8.523511856173639906e-03,4.618324711918830872e-02
2.104250078064770491e-01,3.490190028255844013e-01,3.484908115707867626e-01,-4.537317975799241669e-03,-4.365227680489736778e-03,-6.453180984626982579e-04,1.387643516063690186e-01
2.450430001849462636e-01,3.608666867471185813e-01,3.581168713516781343e-01,-5.002294051679460202e-03,3.676676710120695135e-03,3.954102636304946371e-03,1.151812523603439331e-01
1.588050682039023609e-01,4.052313234812427445e-01,4.953025568730117789e-01,-2.619602901839679712e-02,-7.518283257173560830e-02,4.720508686193588058e-03,3.318396508693695068e-01
1.274324068305699442e-01,3.164834380308925166e-01,3.700426377536070177e-01,-1.094373023464799283e-01,-1.767388285860790539e-02,-3.808334341404277269e-03,2.926507890224456787e-01
2.192429951032249247e-01,3.684681548161665154e-01,3.864965520632272500e-01,-1.452742991457684207e-01,-1.110924738884824375e-01,-8.158581194344650955e-02,3.815634548664093018e-01
3.065656817314097449e-01,3.082154776454246181e-01,3.317375181860431343e-01,-5.909249497222246982e-03,-5.868583286024122922e-03,-5.851135508743294383e-03,3.009319864213466644e-02
2.843600641170702104e-01,2.879329119382865732e-01,3.328811192679850817e-01,-6.602108886284538576e-03,-1.601461105760628107e-03,-3.686126497719524955e-03,4.871262609958648682e-02
3.006448358230077167e-01,2.947240069163558074e-01,3.278270763328864357e-01,-4.013219552899002784e-03,-4.982310605939005779e-03,-2.373709119405986723e-03,3.278053179383277893e-02
3.035217341496550536e-01,2.993255220695292262e-01,3.358286209558511981e-01,-8.247699448960075109e-04,-2.895247264273272635e-03,-1.584764010902227913e-03,3.509461879730224609e-02
2.688301317487724607e-01,3.547269472984528882e-01,3.519323767792705837e-01,1.242298509144563502e-02,-9.027473294059333575e-03,8.835551957443850413e-03,8.993167430162429810e-02
2.964804977171565659e-01,2.973768987278687659e-01,3.397648101604083815e-01,-6.381107222003686279e-04,-1.094881250941799698e-03,-2.581771888484810529e-03,4.313176870346069336e-02
1.757200829860913749e-01,3.486027830842947095e-01,3.581308856750771152e-01,-3.901754553172267874e-03,2.300142678637828904e-03,1.076070047944435466e-03,1.780209988355636597e-01
3.161459191728645535e-01,5.610348367581498019e-01,5.814449432107087201e-01,9.495680220074484423e-02,-6.615427987232951751e-03,3.950659940659944497e-02,3.118482828140258789e-01
2.656261106061995059e-01,3.446971743624276385e-01,3.661081980809010594e-01,1.967373799367149595e-02,4.309789600586047542e-03,8.200864660885563489e-04,9.809467941522598267e-02
3.261064380757499048e-01,3.158763819174155718e-01,3.143256528874985856e-01,2.467882244908180776e-03,8.490301794586710893e-04,-1.000260309529421403e-03,1.209786348044872284e-02
5.901881083004689721e-01,3.581311183504206630e-01,3.851183790219717684e-01,-7.292431971702273809e-04,2.062108601799544656e-03,-1.590520210875466800e-01,3.524530529975891113e-01
2.971731221308585025e-01,2.958938299778656189e-01,3.318958656928102102e-01,-4.880180925290600455e-04,-1.133890056574411850e-03,-1.657086986600277709e-03,3.556030616164207458e-02
3.373741870421539946e-01,3.078639284820899880e-01,2.968542008794267106e-01,2.793692542763391920e-03,6.840777771194054505e-04,-3.681116348706966850e-03,3.718116879463195801e-02
2.836454611084986976e-01,2.998442487645137655e-01,2.871330681099081850e-01,-1.332007583465997548e-02,-9.942943796625150488e-03,-1.219371282941354544e-02,3.863921016454696655e-02
3.510018086692179851e-01,3.618206654390781485e-01,2.772585511328954921e-01,1.209406158821344640e-01,8.412103093029732470e-02,-1.286973221688973434e-01,3.480673432350158691e-01
3.095072201617573016e-01,3.238456747896317212e-01,3.102968984788714857e-01,-2.192843485494356398e-03,3.709114629856887033e-03,4.310729681849766008e-03,1.750250160694122314e-02
3.311771061018011220e-01,3.196019135126105803e-01,3.170632586731011449e-01,-2.137704521518549519e-03,1.728633129261060875e-03,8.543534278522877485e-04,1.395273767411708832e-02
3.004888194024301074e-01,3.134798875394737561e-01,2.945306096158432640e-01,-4.589268741342497453e-03,-3.248677447762891163e-03,-2.033343924172844978e-03,1.972107961773872375e-02
3.388295408239200279e-01,2.749983885582041321e-01,2.937751290289604689e-01,-3.456958870167959382e-03,-2.278041793477479648e-03,-1.061586497632705656e-02,6.014940515160560608e-02
3.040585607981998728e-01,3.142695600348923146e-01,3.026245390969595217e-01,-7.363571624386004016e-03,-5.722309538027119460e-03,-7.527616818801416421e-03,2.349169738590717316e-02
3.334163341078883458e-01,3.131004571798335356e-01,3.217184467618695587e-01,1.881400868546797070e-03,-6.027648615577199491e-03,2.672952254850466391e-03,2.128316834568977356e-02
3.003401684498920865e-01,3.129586775430751588e-01,3.019258392857794293e-01,-3.561020822911561620e-03,-5.456331801782026217e-03,-4.538666669463716462e-03,1.819032989442348480e-02
3.032983678847098186e-01,3.174030635880548123e-01,3.036308941399949446e-01,-8.567274677200482913e-04,-8.814415158154591994e-04,-2.804946629793635647e-03,1.491639297455549240e-02
3.206775559621786176e-01,3.191159619697075955e-01,3.247788953780494370e-01,1.052184463654376673e-03,4.595748492792865736e-03,-5.560329873037738162e-04,9.657934308052062988e-03
3.058335285761148437e-01,3.246873356265196353e-01,3.000961810106935745e-01,-9.191499205891828653e-04,-2.069783986104569047e-03,-1.706597908573844651e-03,2.281836979091167450e-02
2.999125702668811178e-01,3.276157149751504627e-01,2.954033698708925515e-01,-2.545278216901515622e-03,-9.119959457867838227e-04,-5.094462269035950758e-04,3.058472275733947754e-02
3.270862023229137439e-01,4.322021441894696725e-01,5.065636226716314638e-01,9.796547320784507185e-02,2.678061017952161268e-03,-8.070791738244216529e-03,2.310934811830520630e-01
2.725971221935224453e-01,3.534204425357447277e-01,3.496527745050055369e-01,-2.266189959453361255e-02,-2.283834861591205884e-02,-1.156630002236582432e-02,9.873642772436141968e-02
3.319203026488393715e-01,3.206896619646550373e-01,3.078488282611849813e-01,4.480905261775864311e-03,-1.673783414999143642e-03,1.809216021586548080e-03,2.266462147235870361e-02
2.825763688239752991e-01,3.107028475608250018e-01,3.418036286420252923e-01,1.094416975477992444e-02,6.888931889254944034e-03,-6.875852808023448504e-03,5.724195763468742371e-02
3.043993615113050333e-01,3.205533541608406867e-01,3.399892094583489288e-01,3.188937763271590224e-03,1.166056623341404702e-03,-5.548227627193685202e-03,3.285736218094825745e-02
3.288301783118826593e-01,3.166980559417338359e-01,3.506519118499580312e-01,9.455872113504570908e-03,7.202101224780496982e-03,-3.907510421428181738e-03,3.684803470969200134e-02
3.167759283945207893e-01,3.164384731759410374e-01,3.531282893472852957e-01,1.816919474469238377e-02,5.921499610293178180e-03,-8.028142436368379195e-04,4.930882528424263000e-02
3.328905701397463779e-01,2.803786735033826916e-01,3.234086026658919977e-01,1.802403122751850689e-02,1.210090198960770205e-02,-1.595549762081566181e-02,6.728385388851165771e-02
3.390507378478665457e-01,1.940601920935472458e-01,3.420939674869082348e-01,1.428575812519861099e-02,7.109172190284921908e-03,-2.842945020570166251e-02,1.570392549037933350e-01
2.710843508822718961e-01,2.233363623998795289e-01,2.613724191574027245e-01,1.083114557489481961e-01,8.976374710310516813e-02,-8.327392979161447883e-02,2.864975035190582275e-01
2.756131032898083699e-01,4.849986006421679874e-01,3.146039570412107467e-01,-7.050128617993397899e-03,-1.629429631849350635e-01,-7.768271058174697034e-03,3.423154056072235107e-01
3.272519124940060364e-01,3.116600393355642429e-01,3.014580866433823614e-01,4.685275502867543643e-03,1.811063282350731246e-03,-2.485803379104797439e-03,2.450483292341232300e-02
3.015513479346177972e-01,3.034302220918802528e-01,3.372430516258971833e-01,8.541823399468722461e-03,5.638478918603151598e-03,-4.254874295346076224e-03,3.973594307899475098e-02
2.665735578724968136e-01,2.818766259237877048e-01,3.188269190172552947e-01,-5.177478083860562186e-02,-3.494766299718203573e-02,-2.567402081779178794e-02,1.258901506662368774e-01
2.359888529680104208e-01,3.918787845052462693e-01,3.724403844655896911e-01,3.753523625412951564e-02,-2.728048235224952295e-02,-2.296417519734121008e-03,1.677034497261047363e-01
3.337374880545226352e-01,2.930838651512531201e-01,3.446586172649226398e-01,4.380772462660303956e-03,-5.874415534024183400e-03,2.345877227915997391e-03,4.892423376441001892e-02
3.393268900204926553e-01,2.953572128548815900e-01,3.331707698308606358e-01,6.840165755946890636e-03,-8.516845965289992354e-03,4.420276022848197185e-03,4.601236432790756226e-02
2.450423120050934100e-01,3.460010464130783836e-01,3.195946835389725793e-01,1.093197949271417727e-03,-1.796301123709004993e-02,2.943818509034752239e-03,9.602916985750198364e-02
1.615924648875453895e-01,3.719700944892818661e-01,3.844557284743055914e-01,5.135550418475944663e-04,-1.707437543943483849e-02,-1.134389921755319872e-02,2.197789400815963745e-01
2.632188589485606744e-01,4.441153171526819876e-01,4.417839485154054779e-01,2.581056096206921224e-02,1.984980678559993689e-02,8.422132447749714618e-03,1.889460831880569458e-01
9.341396953322966823e-02,3.726294392588692661e-01,3.785520002014419738e-01,9.124737403962156213e-03,-1.029731983164082661e-02,4.722076217152714611e-03,2.833457291126251221e-01
3.152241399629197027e-01,3.355563034925695409e-01,3.193277230359140018e-01,4.341600046227812523e-03,4.020861529909811050e-03,-4.415682467820845197e-03,2.259085513651371002e-02
2.065851744796983747e-01,4.694506444813356105e-01,5.192061277706754296e-01,-1.060892263761861395e-02,-3.919061295792211630e-02,3.654702422284540619e-02,3.059498071670532227e-01
3.493596505938607599e-01,3.526951507401000496e-01,2.849341410949119968e-01,6.572274747746083279e-03,-5.043383542824434948e-03,2.827809959931137755e-03,6.787152588367462158e-02
2.653669372057855802e-01,3.531924529414532388e-01,3.390356128395360380e-01,1.953829770823936173e-03,1.685255234974028515e-02,-2.497778602638492038e-03,8.690569549798965454e-02
3.067883511752632630e-01,3.486618995666573850e-01,2.883694510562811453e-01,-3.683674305793687744e-03,-5.858301512432884106e-03,-3.974487578323230929e-05,5.484146997332572937e-02
6.196857800412111650e-02,3.473280944079256694e-01,2.900249325484137719e-01,-6.753095386641597836e-03,-9.607439550509608295e-02,1.081643043729032042e-02,3.107094764709472656e-01
2.313660477013089189e-01,4.106620863986852332e-01,4.040791819610121127e-01,-7.141561874752427007e-03,-2.342027776215107465e-02,1.615379998626212399e-02,1.832797974348068237e-01
3.196879441230810470e-01,3.159943423290085818e-01,3.136884647939721660e-01,7.980650335047903424e-04,6.494077973379535403e-04,7.029208729584930345e-04,5.668770987540483475e-03
3.221064661047707833e-01,3.196033623214460939e-01,3.221239795254882132e-01,8.138096577441109947e-04,2.466131860340799349e-03,6.257130878384625956e-04,5.264646373689174652e-03
3.134574385580852773e-01,3.244253805378434774e-01,3.133681673362613829e-01,3.505700157332522059e-03,2.715875068186323314e-03,-1.515829514573625468e-03,1.368114724755287170e-02
3.151156592307833848e-01,3.224469470365315393e-01,3.166518753286137744e-01,3.274728501306300912e-03,1.816748224765371653e-03,-1.683420539829231588e-03,9.768330492079257965e-03
3.582756641841771672e-01,3.083331973485774480e-01,3.207794316920567490e-01,2.192754652233607632e-02,-1.148766717260196746e-02,5.138419122315030646e-02,1.085675805807113647e-01
3.156819757035314034e-01,3.200254008746592493e-01,2.977370439405083169e-01,7.600385145901175990e-03,5.808476974981598845e-03,-2.651447968941264381e-03,2.672885544598102570e-02
3.199088243093333173e-01,3.269097709270313845e-01,3.144351317109126964e-01,5.442713053509266527e-03,2.262491561722371897e-03,-5.457595746995607712e-04,1.491358876228332520e-02
3.127889916466515818e-01,3.151034011293914472e-01,3.185083198120277626e-01,1.073898350927813931e-03,1.809163886074647816e-03,-2.302223180971080946e-03,7.349151652306318283e-03
3.267971905972030244e-01,3.182926819613914882e-01,3.137901368486184506e-01,4.047434329320982738e-03,1.594911218734806815e-03,-1.764628537011219637e-03,1.403601281344890594e-02
3.064601565401899874e-01,3.078163804956072780e-01,3.085058429535175728e-01,7.937244613878905049e-05,-7.521343443492964787e-04,-1.307300825880756472e-05,2.228519413620233536e-03
3.202118479906678195e-01,3.175909610499391689e-01,3.143283335130364620e-01,2.629178010960333579e-03,1.670764073908805871e-03,-6.696660344966034583e-04,7.518125697970390320e-03
3.239140751939932339e-01,3.164874742797214591e-01,3.185286566975829015e-01,-1.584008971460432310e-03,3.013814485519239906e-03,1.885441738493242106e-03,9.465882554650306702e-03
2.994936727347953243e-01,1.734652545551244041e-01,3.066209081689162952e-01,-9.723778549039248376e-02,-5.178571315904439976e-02,-9.803637743228534041e-02,2.864898443222045898e-01
3.106355101441188316e-01,3.198055748603083059e-01,3.400424800704847650e-01,2.182119742133533172e-03,2.350186576343028626e-03,-7.736596492632169531e-03,2.982643060386180878e-02
3.179321980080531129e-01,3.207636760492852401e-01,3.244069680936256805e-01,5.457488505116584766e-04,1.296574043715815246e-03,-5.016415624665819268e-05,6.127898115664720535e-03
2.990486137822627732e-01,2.281585894128529413e-01,2.495534593730695527e-01,-9.094069246933950135e-02,-7.085559800595730984e-02,-1.225002883709921248e-01,2.980898916721343994e-01
3.211176685833383448e-01,2.455456006692897375e-01,3.844103795070146767e-01,-6.780524869119425313e-02,-1.191187719434149729e-02,-4.717880012637200304e-02,1.881385594606399536e-01
3.618699590928611265e-01,2.674414742552179147e-01,4.364304715642598476e-01,1.469915042055404131e-01,1.146075512261135326e-01,-2.234458264382963022e-02,3.567052781581878662e-01
3.246563411706129276e-01,2.622295273842827901e-01,3.602995704859460191e-01,-2.559634864729967013e-02,-9.923942671853067804e-03,-8.056011775547513437e-03,9.923865646123886108e-02
3.145495537384609963e-01,3.335155888734821494e-01,3.191210433614622977e-01,1.422883486215437707e-03,1.054998067064209571e-03,-7.080109574501176894e-04,1.745917089283466339e-02
3.141090159154649730e-01,3.225151910589375559e-01,2.882157651598645232e-01,8.640121441470274138e-03,6.297995678939272667e-03,-5.989284708262164296e-03,3.754132986068725586e-02
3.181422618801102442e-01,3.254769264064291123e-01,2.995173608537928245e-01,7.069714908210116867e-03,5.887671174945217738e-03,-2.491798047519601898e-03,2.845795825123786926e-02
2.479764012264265849e-01,3.192535622263758532e-01,3.447466104068810377e-01,-1.559689551546926227e-02,-4.190830340215140337e-03,-6.283512794510688788e-03,9.191478043794631958e-02
3.121430091104661630e-01,3.300943588584998589e-01,3.087465698902084887e-01,7.629613862502241869e-03,7.153225822372917195e-03,-7.408332026729159796e-03,2.979171834886074066e-02
3.103535227721515022e-01,3.274509442267470871e-01,3.178191326362261870e-01,2.097264456889234071e-03,1.729501339222537905e-03,-3.355513947003120525e-03,1.662413775920867920e-02
3.160890794738187570e-01,3.322784239178793175e-01,3.164410659893679978e-01,1.885362982965691500e-03,5.572436075870466649e-04,-7.225843461842958214e-04,1.642199978232383728e-02
4.473435953337046023e-02,3.245399232677987911e-01,2.295010307080002643e-01,1.590445211731137190e-02,-1.342355754421588609e-01,1.315634890790980463e-02,3.406858146190643311e-01
3.789430859960947751e-01,2.460946845459300314e-01,3.368506396232897604e-01,4.009034629305831265e-02,2.322665269400424684e-02,-4.116544137108939239e-02,1.592246145009994507e-01
2.650661847905251278e-01,3.442237912729900207e-01,2.246528431132343850e-01,2.847494510314109006e-03,-7.485049254580224132e-02,-3.613728169399773801e-03,1.672407835721969604e-01
3.713108360336967451e-01,2.218487809461441307e-01,3.685672021843354740e-01,3.440977751654581036e-03,3.479032133794625293e-05,-4.944684408285080629e-03,1.484763920307159424e-01
2.854422407927945105e-01,3.446832481478100396e-01,2.852248388168007187e-01,9.419908751173892243e-04,-1.694283652397938350e-02,2.333316604633739987e-03,6.635206937789916992e-02
3.050999557042613497e-01,3.040258719781516739e-01,3.015575733267437109e-01,-3.141442691923410861e-03,-1.258275840214494873e-03,-1.376250031769877830e-03,7.066489197313785553e-03
3.036711624555286648e-01,2.984090937728055004e-01,3.223665639772708147e-01,-1.409771482346635274e-03,-4.854058264163087742e-03,-2.837594146708191743e-03,2.400807663798332214e-02
2.962406258928605984e-01,3.318239247649120149e-01,4.163165441428852698e-01,-8.714501284227585409e-02,-2.289100139794750591e-02,-2.488613214030836046e-02,1.939701288938522339e-01
3.207617654204023006e-01,3.177346838933116091e-01,3.198568945988299883e-01,-1.128029819294848555e-03,2.543191828250398155e-03,1.359330354206526262e-03,6.000588182359933853e-03
3.501788080514181001e-01,2.033929408100781933e-01,3.217432552751230412e-01,-2.948142134005712076e-04,1.019005431575639286e-03,-4.601742011105734720e-02,1.566426455974578857e-01
3.511747208193429781e-01,2.478174453338151673e-01,3.275269673359206268e-01,-5.042281929119318828e-03,-1.196827594178438009e-02,-2.291805676790125562e-02,1.043047457933425903e-01
3.878442557575487726e-01,2.964257813814537013e-01,3.467336419273258086e-01,-3.367479136355923993e-03,-3.443723139338694759e-03,-3.542024692626075805e-02,1.006107851862907410e-01
3.354696656946908884e-01,2.495297754166168891e-01,3.313084081069362918e-01,1.459384862447232929e-02,1.091054926461294990e-02,-2.032207162990094101e-02,9.633474797010421753e-02
3.258748564562211625e-01,3.078104388586033746e-01,3.559957097641336388e-01,4.835225530979481157e-03,2.923458831430362365e-03,1.952383714987176153e-04,4.328506812453269958e-02
3.168558823078196363e-01,2.910255597346484979e-01,3.458262790718693025e-01,7.234560640412447154e-03,2.949235807317925648e-04,1.926521098672359612e-03,4.922617226839065552e-02
1.337053685416508819e-02,3.999329229675543940e-01,3.607655148440137571e-01,2.694326276711701482e-02,1.031564275802532120e-02,-2.115331707683069246e-02,3.737156093120574951e-01
3.509370985078384408e-01,1.797145267612405561e-01,3.470257169325287605e-01,-1.987832791873367713e-02,-4.969143651996837463e-04,-3.064561832414040496e-02,1.807384788990020752e-01
2.545224084233198014e-01,3.478014916826558389e-01,3.246456699909132104e-01,1.614954378461055245e-02,-3.055698046544063143e-02,4.327562109201777904e-03,1.035230383276939392e-01
3.090449377060838776e-01,3.040867112047767051e-01,3.341607704774873788e-01,-4.287892349869809952e-03,3.541888574440975237e-03,2.142608251098472583e-03,2.977388724684715271e-02
3.019959958251663412e-01,3.188066617706367123e-01,3.424112845960458618e-01,-2.276752896584883536e-03,7.689513265989890954e-04,4.912889292717115448e-03,3.641868010163307190e-02
2.292138862047594927e-01,4.750252974910119108e-01,4.242309951710472316e-01,5.909436336249093702e-02,-1.241818240618203228e-01,9.726346479090282326e-02,3.682904243469238281e-01
3.141614133127346165e-01,3.136157289363097900e-01,3.492891677535918116e-01,6.819695937133383665e-03,-2.058431947711783126e-04,1.534365153478638210e-03,3.741844743490219116e-02
6.497064757343923302e-02,3.434931441264714724e-01,3.048282904561275819e-01,9.712830600070627290e-03,-9.784557993895637296e-02,1.447970814413243774e-02,3.129440844058990479e-01
3.044126201084086936e-01,3.031169604443225696e-01,3.118881333844936155e-01,5.723180670917107048e-04,-9.458234703660425976e-04,-6.892104636315737757e-04,8.505243808031082153e-03
5.665279534084333157e-02,3.399391822950043052e-01,3.345418606657654115e-01,1.920155139983259485e-02,-4.428551510877381386e-02,2.048942265781451139e-02,2.949584424495697021e-01
1.551053033131814252e-01,3.630654416615672342e-01,2.552053988260014616e-01,2.845517671932671147e-02,-1.194085600756963905e-01,4.277780532744634989e-02,2.883483171463012695e-01
3.865173594020621661e-01,4.014428480603161042e-01,3.787492377075054595e-01,5.659141754833333510e-02,6.701926855315473719e-02,-4.043009903259874027e-02,1.684795171022415161e-01
3.583296461777903397e-01,3.615095535959948481e-01,2.968120659829602825e-01,1.553540002146905526e-02,2.240385285972495283e-02,-1.560105531205236568e-02,8.336766064167022705e-02
3.871819582200314303e-01,4.009841088796116115e-01,3.720246279133603839e-01,4.723447367277414100e-02,6.717135642674283702e-02,-3.958362118432220966e-02,1.598727554082870483e-01
3.354825396034757934e-01,3.106301333540271159e-01,2.359182531310217434e-01,1.523818363637509735e-02,1.861806102723648215e-02,-3.899288765309467941e-02,1.198086664080619812e-01
3.424394818301138566e-01,3.377988697605509572e-01,2.821263892042428778e-01,1.248585480718764767e-02,1.367775334874070207e-02,-9.953936979061840315e-03,6.859657168388366699e-02
3.610358156365265359e-01,3.396927978335265719e-01,2.813898921399041742e-01,1.203366617500971347e-02,1.343657676342394254e-02,-2.584921345006049517e-02,8.988720923662185669e-02
3.242368375066129182e-01,3.612258902697741414e-01,2.627153179063241861e-01,-1.410254470594991816e-02,4.005368393620174772e-02,1.706920525480511847e-02,1.170996204018592834e-01
3.664435550472894820e-01,6.174033558017508749e-01,6.128231339022035540e-01,8.259740406678581226e-02,6.948335461516751133e-02,1.426272555987519175e-02,3.121112287044525146e-01
2.255675713294454654e-01,3.549524024667129463e-01,3.560766316136756426e-01,2.445077971335870388e-04,2.221358074974358744e-04,1.020940862658735373e-03,1.299638897180557251e-01
2.892946962992049564e-01,3.367231842198804004e-01,3.502772805443221671e-01,6.409653461248074856e-03,3.363001524737376825e-03,-4.170369730085110582e-03,5.731824785470962524e-02
3.071153839172754418e-01,3.086748814630723148e-01,3.145350665050231087e-01,7.720638984302371317e-04,-9.406296457057273944e-04,-2.095649613678358340e-03,7.970607839524745941e-03
3.058788624413911750e-01,3.220226283896316932e-01,3.490542735394652207e-01,2.800165790471310229e-03,2.559768728912309443e-03,-2.544036776509069238e-03,3.860466182231903076e-02
3.603149053339019248e-01,3.464170736715146970e-01,2.434611544702395547e-01,1.665336337807272072e-03,2.242339172684161769e-04,-6.194626127758633485e-03,1.111194193363189697e-01
2.658567036791773530e-01,5.722644829121563692e-01,4.202224824990134500e-01,1.802474016729788825e-02,1.148543765561252511e-01,8.258914449887407028e-02,3.625297248363494873e-01
2.645563777836396624e-01,2.879412189563875790e-01,3.287331043458305291e-01,3.411319650086937216e-02,1.326229576941663664e-02,-1.174214047004861101e-02,8.716174960136413574e-02
3.007511342219191253e-01,3.301727173629953604e-01,3.060639097801500785e-01,1.430691362184015629e-03,5.034065700512235786e-03,-4.040114851157206380e-03,2.947335317730903625e-02
3.093454453117515102e-01,3.336778994066021964e-01,3.040109873911936433e-01,3.963921585896995441e-03,-2.303076175469256134e-03,1.793528978576211779e-03,2.868842892348766327e-02
1.982721076603107535e-01,3.914625788287730002e-01,3.674951938102627991e-01,-1.507480457883136546e-02,-1.861335849639871032e-02,9.614923469269346518e-03,1.877902597188949585e-01
3.166218923900520621e-01,2.833441736499999752e-01,3.449876749906848339e-01,1.132961837050754442e-02,3.978261571360970986e-03,-7.149374376497420920e-04,5.735910311341285706e-02
3.415892732798638254e-01,3.452382365902016415e-01,3.350547533514002252e-01,-7.770847528653163083e-02,-7.662715722617864655e-02,-7.252483009189615581e-02,2.271351963281631470e-01
2.961294647508182498e-01,3.054384693743473211e-01,3.215460647480011813e-01,-2.282992385396411146e-03,-2.500813443308245315e-03,-7.623336400108438222e-03,2.654810808598995209e-02
3.439695048785850195e-01,3.084982958340835579e-01,2.888890324921714048e-01,-1.722621205102002617e-02,-1.753790501245199723e-02,-3.134937846821315988e-02,8.425915986299514771e-02
3.499227384513489691e-01,4.843807328533062950e-01,3.210504887894296000e-01,-5.020260235165439205e-02,-1.549282420209852629e-01,-5.499483509339693488e-02,3.338220119476318359e-01
3.160037617955300804e-01,3.164132266326705745e-01,2.750246318642641241e-01,-9.565931624373871789e-03,-4.820463094703308221e-03,-3.997819044007131818e-03,4.569918662309646606e-02
3.384267967090596740e-01,2.588755292707717870e-01,3.235642477478768431e-01,-1.180870817712252174e-03,-6.841391784513528411e-03,-1.210577397065202773e-02,7.714409381151199341e-02
2.682876947933486855e-01,3.431162849479467702e-01,2.951214837751501285e-01,-1.195393376894097418e-03,-1.274202885551447076e-02,-4.268619913458187101e-03,6.969550997018814087e-02
3.910724147007409446e-01,4.451598273070824785e-01,2.337237858441456317e-01,-1.149205896941168578e-02,5.391249588840139190e-02,6.578485631247703302e-02,2.414403408765792847e-01
3.311674396627131700e-01,3.469297889178460381e-01,2.989344834414084939e-01,9.605386340844259546e-03,-4.747903004733667817e-03,3.641527528495072663e-03,4.668707028031349182e-02
3.200535795219078827e-01,3.208468554478627333e-01,3.115247340108028840e-01,-4.964963976858458895e-03,1.403065255148018596e-03,1.194885063950792709e-03,1.281709223985671997e-02
3.199100640669848006e-01,3.224152168792363549e-01,3.150979506417303511e-01,-2.748121964888893681e-03,1.756508421609741851e-03,9.855033679856762055e-04,8.735756389796733856e-03
2.918250345036053628e-01,2.610394973373964533e-01,3.385068927490015311e-01,-1.554264864827680122e-02,1.549227984910315874e-03,7.090370303272008554e-04,7.278393954038619995e-02
4.616286798257623336e-01,4.027038213681766732e-01,3.328337499614901773e-01,4.247432460545318145e-02,1.417034133420540520e-01,-2.039824338266046228e-02,2.817287445068359375e-01
3.604153336314764311e-01,3.668025046087010077e-01,2.785603204560084811e-01,9.240092821817005170e-03,2.009394225440570836e-02,-9.277763724151965458e-03,9.481313079595565796e-02
3.476563300328017747e-01,3.585323506943265404e-01,2.741203964299882556e-01,-1.370964616181526282e-03,1.344129272924005775e-02,2.275420675863152990e-03,8.299864828586578369e-02
3.078621618194186671e-01,3.064274474474374399e-01,3.098354915756285632e-01,-4.937065337745926742e-04,-1.086651192198636023e-03,-1.357267440771220413e-04,3.621123731136322021e-03
3.141632507618725700e-01,3.307253749923059205e-01,3.045841017305235821e-01,1.130631654314975983e-02,1.462583256125889533e-02,-9.409514535475636821e-03,4.260956868529319763e-02
5.458223828338906736e-02,3.051415159408394917e-01,3.220049249648959666e-01,-7.619900548640211324e-02,4.610629602239094821e-02,3.085814713573744456e-02,3.065004348754882812e-01
1.144140944311975716e-01,2.964472821083059539e-01,1.628937593145711737e-01,2.320567059345058844e-02,1.347622143792933103e-01,-9.968911627811459508e-03,2.881972491741180420e-01
2.744752783449265765e-01,2.613488735763695447e-01,2.894495361413284007e-01,-4.677068010755609795e-02,4.372333917475456494e-02,4.399913884891987204e-02,1.367426067590713501e-01
2.908008841243668874e-01,5.191831109905153951e-01,3.052228890203940170e-01,-1.835123745701949804e-02,1.398023476624224160e-01,1.457786610367016178e-01,4.152967035770416260e-01
2.998846777174063449e-01,2.964220336123869481e-01,3.124299727076732536e-01,-1.847221436128281295e-03,-4.582818331078838611e-03,-3.114426736243128529e-03,1.775264926254749298e-02
3.128138259635787621e-01,3.462766108790446551e-01,2.922627690368402309e-01,-1.177466252200518038e-02,1.862969717107249012e-02,1.101756137520679482e-02,6.364812701940536499e-02
2.958903520188910230e-01,3.445616482425363780e-01,3.150943099969637506e-01,-2.161051933135617678e-02,4.458829197479975692e-02,2.552035213721475654e-02,1.054621338844299316e-01
3.962061907402717464e-01,4.272154840384189689e-01,3.599557040419759102e-01,-1.334592029581602862e-02,6.598780911579874009e-02,3.105972897568914926e-02,1.410369127988815308e-01
3.016884214681286869e-01,3.037345499221179579e-01,3.098198870423626294e-01,-7.368736897441103282e-04,-2.643427558940738154e-03,-1.628710077668358083e-03,9.177119471132755280e-03
3.017063838154903088e-01,2.999432606410646907e-01,3.136886615117125410e-01,-3.759745322169467854e-04,-2.281752752221693960e-03,-1.682041855607638130e-03,1.386870071291923523e-02
3.809002836812946935e-01,3.184507027105493160e-01,3.119360711831681843e-01,2.832629319407810667e-02,3.386240480147895138e-02,-8.089081777821971464e-02,1.727029979228973389e-01
3.492954705802252535e-01,3.079558328170023396e-01,3.002350406595280519e-01,2.564739236687048340e-03,4.089854112934398350e-03,-1.949782187282807222e-02,5.742961540818214417e-02
3.200824402733847274e-01,3.256989215400029059e-01,3.161608375282967676e-01,4.345716301931642350e-03,1.169982307931011602e-03,-4.604238501153347417e-04,1.141699310392141342e-02
3.136251630442927207e-01,3.169293751117837066e-01,3.229814888061632305e-01,4.758569748543445975e-07,7.838925529823021019e-04,-1.446369531184290213e-03,8.698435500264167786e-03
2.740142948840249004e-01,3.435523558483322137e-01,3.264017287781472154e-01,1.106427467047879087e-01,9.252459895159517722e-02,-5.107675953683586678e-02,2.723443210124969482e-01
3.486525907339204644e-01,3.185807523144779108e-01,2.236673957636460541e-01,8.488482497637601584e-03,6.182434440581494571e-03,-4.397767068687427616e-02,1.374773383140563965e-01
3.104742014665568539e-01,3.085471484887797877e-01,3.156512304710324957e-01,-1.640534491029792047e-03,-1.285089508605504231e-04,-1.858941180235080355e-03,7.679984439164400101e-03
3.314765000480908719e-01,3.246123054983462430e-01,3.579978234179259089e-01,1.213159460897597977e-02,9.854811428267364060e-03,-1.279511559502269705e-02,4.643887281417846680e-02
2.915736278331664266e-01,3.505133379044274022e-01,3.114448896766174313e-01,-2.999814233375322492e-03,-2.093752595334930078e-02,-2.103442282657625242e-03,6.366286426782608032e-02
2.842323251656297400e-01,3.485994583221370124e-01,3.038260384646720991e-01,-3.065758928966346797e-04,-5.518104786118860350e-03,9.361112280559130173e-04,5.796645209193229675e-02
2.828282138736611384e-01,3.423084117115305913e-01,3.058972123812445654e-01,-1.139675094559209137e-03,-6.100378902828675586e-03,1.653168985352446337e-03,5.311933159828186035e-02
3.134776121586105857e-01,5.727479596445723686e-01,4.387005981403155896e-01,8.613497816315079936e-02,-1.274101328098157793e-01,6.895936053149925860e-02,3.683194518089294434e-01
3.452822849218366574e-01,3.147289136008759591e-01,3.497233330768408366e-01,4.657759316196923710e-02,1.512239093848095212e-02,-4.232001560853710515e-02,1.168603822588920593e-01
2.403132555251756286e-01,3.700387319510703987e-01,3.839369008794872307e-01,-3.735366334386411302e-02,6.663259157079642198e-03,1.974366903263175682e-02,1.559273153543472290e-01
2.960327164057220406e-01,3.428028593963143300e-01,3.013190161070293804e-01,-8.244282572668574366e-04,-2.871406858205087682e-03,9.043254252254930608e-06,4.466457664966583252e-02
3.675492979321149933e-01,2.444461881815297166e-01,3.449545969386592081e-01,1.429305656036562559e-02,3.601662273629846044e-03,-1.339924535797348479e-02,1.186331659555435181e-01
2.863946331510751064e-01,3.394367300276585064e-01,2.932515111570091482e-01,1.215814439503310059e-04,-5.696356590842010376e-03,2.020286211963161585e-04,5.093417316675186157e-02
2.822604895455902430e-01,3.569684981401883284e-01,3.322153174977452994e-01,-8.629359038137343618e-04,-1.265359029011892469e-02,4.086867140164773121e-03,6.983857601881027222e-02
3.051922943243499109e-01,3.208949899606276523e-01,3.189895961225210352e-01,1.856852582115438299e-03,1.331664568323190356e-03,-4.688393587390070512e-03,1.737504452466964722e-02
3.375418460872779969e-01,2.841924899601789845e-01,2.871435792417288968e-01,3.650463129777976618e-03,4.036426876461950836e-03,-1.345083558962898232e-02,5.769796296954154968e-02
3.519851739164696625e-01,2.313612444461604911e-01,3.506580565483816136e-01,8.302597826831712574e-03,8.629953396967132012e-03,-3.498295799625820209e-03,1.218964830040931702e-01
3.065475515930963235e-01,3.504787853329093261e-01,2.723916826136585922e-01,-5.057394843710136256e-03,-8.413732713941503294e-03,-1.057590276088419016e-03,6.992528587579727173e-02
3.116355504737068904e-01,3.139713735441473363e-01,3.241967908293167944e-01,1.538282336121196171e-03,2.677250925098919720e-03,-2.185785745084775980e-03,1.329792942851781845e-02
3.451208993263296110e-01,2.588783766496171590e-01,3.401109163238072997e-01,3.565751659916523587e-03,5.636009829062195615e-03,-5.471580191649275636e-03,8.517071604728698730e-02
3.447019041890493907e-01,2.786749789300945745e-01,3.292230032687650798e-01,1.045774064163124996e-02,7.923384305278178066e-03,-1.230075436521118996e-02,6.743504852056503296e-02
3.132883639319945512e-01,3.374815924028080616e-01,3.154841103528572832e-01,-4.533838005542887190e-05,3.899143116987757794e-04,-1.898440504064245141e-03,2.341550588607788086e-02
2.983885315496094259e-01,2.802052387882207340e-01,2.971814416466195263e-01,1.466730740594379516e-02,1.333087704296114992e-02,-1.636795622171057646e-02,4.787898063659667969e-02
3.097843441043123258e-01,3.242463429113169315e-01,3.174648884533977089e-01,1.723776853744645940e-03,2.289275535525161012e-03,-3.853039400261948962e-03,1.504122465848922729e-02
3.138757441565128148e-01,3.141506258923198458e-01,3.227734377931241738e-01,1.983313545406782674e-03,3.243637282621677099e-03,-2.617298410611874904e-03,1.186227612197399139e-02
2.909831713644407403e-01,3.468172777152643271e-01,2.978281628971943262e-01,-1.640176829941505845e-03,-4.944522689903207285e-03,-1.056448730066092412e-03,5.354326218366622925e-02
3.007583913672592923e-01,3.229888794121084095e-01,3.298046738344289075e-01,4.767242619921577274e-03,9.034521611352926184e-04,-5.234045653253117936e-03,2.906857803463935852e-02
3.115518697218979116e-01,3.155135983433307034e-01,3.286386053242706384e-01,2.276435184948070144e-03,2.918052710930118133e-03,-3.436782060637483087e-03,1.779001951217651367e-02
3.173637343168591585e-01,3.301881165314258237e-01,2.727980879439566020e-01,1.050724560707166563e-02,-1.116129087836066625e-02,6.617063909273164860e-03,5.965211614966392517e-02
3.154417461333839379e-01,3.239113248740716489e-01,3.154088420695101980e-01,2.753813982483305570e-03,1.503244164654265200e-03,-1.256927911329453872e-03,1.030935719609260559e-02
3.140196362684064546e-01,3.152573967491268392e-01,3.298549108992910317e-01,2.006045600842230707e-03,2.731580740027502330e-03,-3.836493249486108703e-03,1.764372363686561584e-02
3.113569913620553575e-01,3.208492051680582602e-01,3.161409226300853081e-01,1.337767818190965623e-03,2.984694267429509069e-03,-2.550484418626012325e-03,1.091727986931800842e-02
3.099218829833320088e-01,3.255993333510244780e-01,3.125606364506147150e-01,3.190266734939398163e-03,2.300719417544702921e-03,-1.881277543322101061e-03,1.638314686715602875e-02
3.429335584363895073e-01,3.234588233034345617e-01,3.111084177786621607e-01,-3.843667497333414299e-03,2.182963286486644741e-03,7.987443623135286747e-04,2.885914035141468048e-02
3.065121371252180760e-01,3.481636844185541091e-01,2.277122059776912621e-01,9.252226235665945639e-03,-4.256013795946773232e-02,1.339761623133445094e-02,1.321204602718353271e-01
4.377378035014114488e-01,3.085309220845158240e-01,3.716296260156923270e-01,-3.745765089377769974e-02,-2.277158616095282043e-02,-7.971835545003513879e-02,1.932692080736160278e-01
2.996007847851452910e-01,3.195441634653295448e-01,1.897610037811876260e-01,-1.481568300960047976e-02,-5.745084996389545479e-02,-2.260984547119588434e-02,1.635451614856719971e-01
3.386112592686486011e-01,3.148547905333309305e-01,2.942289037816612773e-01,-6.210440224742810530e-03,2.773835181767416759e-03,1.247526982843766286e-02,4.566709324717521667e-02
4.037251371040356807e-01,2.730938646897262401e-01,2.654456032972682955e-01,-1.009122650696582524e-02,-3.964532211721878696e-02,-1.467226484885311710e-01,2.961848974227905273e-01
3.355873351327010035e-01,3.085349693007541361e-01,3.035929582507796987e-01,-2.000217246174718078e-03,1.525871877318678684e-03,2.150102624051339339e-03,3.037767857313156128e-02
3.465888431904801670e-01,3.193047355669713649e-01,3.054266773747142394e-01,-5.428745018073949033e-03,4.157883418928152823e-03,2.884724503570249704e-03,3.848267346620559692e-02
3.346875820922866618e-01,3.109281293307387117e-01,3.130933200916300452e-01,-3.605901587539812490e-04,2.884186207880462798e-03,1.748097597078234399e-03,2.350040711462497711e-02
3.040395494460706449e-01,3.480095623415005446e-01,2.686849991851862907e-01,4.816037996402131385e-03,-3.823885243298439512e-02,-6.387769372121335221e-03,9.652186185121536255e-02
2.805827280158212922e-01,3.606578716741413171e-01,3.264860396942358967e-01,-3.736188856440307657e-03,-8.271861881907807343e-03,2.808572732091054510e-03,7.151392102241516113e-02
3.168264063497349681e-01,3.375337223125977060e-01,2.939514572426664141e-01,9.726406021471524152e-03,-7.750771542224362681e-03,4.038762062298530478e-03,4.403069615364074707e-02
3.316369154150924925e-01,3.541214318786016224e-01,2.941192316120989081e-01,9.525630739189000148e-03,-5.224467937336019566e-03,2.968430375104534006e-03,5.601098015904426575e-02
3.827861693710261637e-01,4.537222895389465549e-01,2.994803181124874869e-01,1.102426824687138297e-02,-7.876505669981717639e-02,7.991326140299605252e-03,1.924816370010375977e-01
2.995157975709183962e-01,4.634128822583633567e-01,2.347014685882505836e-01,1.595668626606068161e-02,-1.334169040782185733e-01,-2.654295763424299737e-02,3.129914999008178711e-01
3.201740915612455440e-01,2.846239909739228802e-01,3.372451534693887143e-01,-4.869051064333250640e-03,-7.513812062715409176e-03,-4.057342307062885775e-03,4.951757192611694336e-02
3.260327810233271117e-01,2.073003627844883234e-01,3.482561610364305338e-01,-5.235589284053354664e-02,-2.780323369922007432e-03,-1.699190210266390832e-02,1.623042970895767212e-01
3.209816099336385009e-01,3.436733806642229272e-01,3.078366195347421730e-01,6.261771596870862808e-03,9.431390080539631604e-04,-1.548045862642139642e-03,3.336881101131439209e-02
3.059582225134510058e-01,3.574555975927897755e-01,3.263089988099114325e-01,1.138775933861904330e-02,1.734067206866511668e-02,-1.307752697998169488e-04,5.752663314342498779e-02
2.433132749483807866e-01,5.185903150817774421e-01,5.867949749042192797e-01,-5.328085030850895215e-02,1.715622660507963235e-02,2.823153808036129100e-02,3.331592977046966553e-01
2.939735365110728860e-01,5.825789787867405867e-01,4.655697065420306147e-01,2.023733056060551816e-02,1.696437492552866910e-01,3.323165966303114754e-02,3.925473690032958984e-01
2.521475780463956484e-01,3.691175925827978044e-01,3.588602279915369397e-01,-2.282391482030295387e-03,3.543844435212672311e-03,2.111679191690071788e-03,1.124903336167335510e-01
3.145286210784588032e-01,3.602079955469527084e-01,3.760854037257356786e-01,5.626676093616165414e-02,2.765670384455667409e-04,1.531788258092034102e-02,1.151779294013977051e-01
2.627792877347457923e-01,3.540730398407574975e-01,3.672599503742766114e-01,3.728623028915596400e-03,-3.735506275716033537e-04,3.460491182498425227e-03,9.894634038209915161e-02
2.853878029403770222e-01,3.503092186105155603e-01,3.534110036808270627e-01,6.338403909501154343e-03,7.671747193126222074e-03,-5.350522351499914162e-03,6.934522837400436401e-02
3.174626020706736718e-01,2.093131912953174467e-01,2.145857074546928533e-01,-2.988680767355280515e-02,-2.535271673261674935e-02,-8.094390077284216445e-02,1.881955564022064209e-01
3.039843654644364679e-01,3.105088814379783901e-01,3.018054674030208329e-01,-1.275865363138190683e-03,-1.993837227215773580e-03,-3.228540510915967748e-03,1.046963408589363098e-02
3.085031060466951192e-01,3.147335344329201257e-01,3.048832688215491471e-01,-8.229038672598750718e-04,-6.738164935632196331e-04,-1.049332789946968124e-03,9.009522385895252228e-03
3.071296387138461870e-01,3.109926683992438878e-01,3.082210449516403217e-01,-2.137700888157779283e-04,-9.094235969833895043e-04,-2.052792140819098467e-03,5.211347714066505432e-03
3.091763473036717724e-01,3.020771553611040217e-01,3.016140878098637623e-01,-2.800574294395942639e-03,-1.475093107599906436e-03,-1.055453007738859066e-03,9.343428537249565125e-03
3.408250402540171087e-01,2.758974426584302475e-01,2.940530295858010401e-01,-3.042695991872281566e-03,-1.603844024300279123e-03,-1.054959277036694211e-02,6.112112849950790405e-02
3.131987355732157585e-01,3.054142789333625374e-01,3.079288912938699663e-01,-9.662665286509474752e-04,-2.509049509260153320e-03,-1.117295499848486252e-04,8.310872130095958710e-03
3.192521653023588368e-01,2.997080441307290455e-01,3.108056396697062573e-01,-2.597844629980971230e-03,-6.677265911065257027e-03,-2.028555459078854387e-03,2.132101543247699738e-02
2.957543656113952313e-01,2.951098455354890238e-01,3.128814151414078260e-01,-4.179113580808807224e-03,-6.118057357622845929e-03,-1.981452080583147660e-03,2.193753048777580261e-02
3.077912013024565185e-01,2.943482324491249469e-01,3.125133819296345705e-01,-2.136278541422193672e-03,-6.179770849593394129e-03,-1.306231216829982066e-03,1.999677531421184540e-02
3.326159038249303368e-01,2.833872455818010061e-01,3.009241417586216993e-01,-4.727854565939059589e-02,-4.241336708283382356e-02,-6.198246946683799719e-02,1.596735119819641113e-01
3.119980479173423138e-01,3.031003790252864705e-01,3.021049231136199165e-01,-8.406267594979412346e-04,-1.302681312821051592e-03,2.950951772165708920e-04,9.822872467339038849e-03
3.832812269743722244e-01,3.708162947914295793e-01,2.690874856116882152e-01,1.209081949522602126e-03,-4.782252288052485367e-03,-1.611875683935620751e-02,1.123592704534530640e-01
3.357265921321978541e-01,2.978753270126091590e-01,3.014520402907926999e-01,1.408886133774141323e-03,3.566657767042110804e-03,-5.767725570172120911e-03,3.813195601105690002e-02
4.022029297586912633e-01,2.419128712973197537e-01,2.492308117631418796e-01,4.835388811218970830e-03,2.998296576489387424e-02,-1.539304855997416510e-01,3.137265145778656006e-01
3.272681874434962834e-01,3.135251581882875782e-01,2.994011642218636360e-01,-9.470990485224593455e-03,-9.210474746413840202e-03,-1.081891458515146960e-02,3.817340359091758728e-02
3.426376768611305579e-01,2.969353443988297370e-01,2.865450871913416964e-01,-3.026212083988168763e-03,-1.913322187843237996e-03,-8.162459834263615169e-03,5.394305661320686340e-02
3.489301051317117430e-01,3.200459690248643740e-01,2.789213460783731557e-01,-4.644556553707686677e-03,-1.267428620208997788e-03,-7.680247712123923487e-03,6.292749941349029541e-02
3.264863784619937981e-01,3.025870006716574467e-01,3.156718630097504752e-01,-2.443707571961103303e-03,-5.198023227563852711e-03,-1.942852897761558574e-03,2.323728241026401520e-02
5.720451837269567852e-01,1.848515998901218149e-01,5.022546091906308074e-01,3.604261673770423752e-02,4.075757474218266035e-02,-8.335414398159241012e-02,3.968521356582641602e-01
3.126164761596053610e-01,3.099742756083732620e-01,3.286942736149604527e-01,2.755007570119525663e-03,-3.637370583447931474e-03,1.746260053628959259e-03,1.948248967528343201e-02
3.145688841118861045e-01,3.595171583769966039e-01,2.438817740662479749e-01,-8.201479955226104179e-03,-1.542491204031623715e-02,-2.805529262236832258e-03,1.055152490735054016e-01
3.549654302724805088e-01,3.423669306158294012e-01,2.655177002894195115e-01,4.318916696359394528e-03,-1.846357916634647385e-03,1.289957527095613246e-02,8.716705441474914551e-02
3.583097050349803858e-01,3.327543545832256089e-01,2.719078229449777284e-01,-8.393161359646300265e-03,-8.837798595787885181e-03,3.841177544650958148e-02,1.038382351398468018e-01
3.319815085874846528e-01,3.252386076263524828e-01,2.979875035606033840e-01,7.966510375562785296e-03,-3.339388208063380319e-03,2.792057297194909006e-03,3.491529822349548340e-02
3.244462084806381541e-01,3.195297469428453607e-01,3.146794698499746357e-01,4.704716936780686289e-03,-9.617429319562553541e-04,1.114147788442918603e-03,1.201852317899465561e-02
3.605089490561408372e-01,3.523992365012329486e-01,2.594124337784596834e-01,5.513549759244671875e-03,-2.135849278378634808e-03,5.443447769019383459e-03,9.828624129295349121e-02
3.754225017931281383e-01,3.742959083497285899e-01,2.237509261821477302e-01,-1.514283980488765821e-02,3.863312060996789907e-03,4.775987928737181198e-02,1.743857115507125854e-01
3.605347568114275481e-01,3.275597913410575046e-01,3.088971102357244702e-01,9.790110930389986713e-03,-7.149501786588272761e-03,1.992350058058686008e-02,6.068581342697143555e-02
3.431883873916397043e-01,3.112390554416580857e-01,3.203996121390575991e-01,8.219342645014377554e-04,-3.236525621706070385e-03,3.300476224523459824e-03,2.963331528007984161e-02
3.352137829608581865e-01,3.142045727331522209e-01,3.085214691081444305e-01,5.149964824822295464e-03,-2.770004712185541833e-03,4.063855264506154724e-03,2.729857154190540314e-02
1.533607000245597873e-01,4.305257574801569787e-01,3.518813372589201238e-01,-4.798343558009200704e-02,7.360488483115576464e-02,4.421107914097432284e-02,3.003865182399749756e-01
3.737368905110182715e-01,3.377559043758316948e-01,5.305779288135176186e-01,-1.467658373728837062e-01,-2.865649139573570037e-02,-2.266628775170628080e-02,3.164846599102020264e-01
2.777944881730097237e-01,3.245874969838255519e-01,3.453660200543235415e-01,-6.188337691858281087e-03,2.718577069353802882e-03,7.891739015127553769e-03,6.259009242057800293e-02
2.878946282978931404e-01,3.064117092561258748e-01,3.410975858798654947e-01,-3.964556922673568781e-03,-1.674406282626565191e-03,-1.551226246159031910e-03,4.744530096650123596e-02
2.837617284174011045e-01,2.988792740780051860e-01,3.308528982064300461e-01,-3.732976908093865124e-03,-2.582722277584809274e-03,-5.680261861477279087e-03,4.350664839148521423e-02
3.079549310960335573e-01,2.915584424554513165e-01,3.269886156681093836e-01,-2.755298744868526703e-02,-2.278370261468354654e-02,-2.656915095893644038e-02,8.304073661565780640e-02
3.467130050607051261e-01,3.116050039127604698e-01,1.567742995593616739e-01,-3.414804514170366456e-02,-6.581833603464755378e-02,-9.424214870335204108e-02,2.716248929500579834e-01
7.199115481406412331e-02,2.925688591305681818e-01,3.574255485575941194e-01,-8.955876172304691463e-02,-1.186137017102576255e-02,2.096072626962180128e-03,3.027613461017608643e-01
2.874580551709235432e-01,3.099351264941935802e-01,3.404630062694983250e-01,-1.540742871052571197e-02,-6.223175527393738984e-03,-7.231574379716567379e-03,5.575468391180038452e-02
2.768574312685628258e-01,2.736590267236581053e-01,3.313786592635983297e-01,-1.696906956792215357e-02,-4.863920838496509080e-03,-5.072089261800492854e-03,6.456914544105529785e-02
2.591097565359309907e-01,3.230786344563085777e-01,3.382421976365100336e-01,-7.612686806376193702e-03,-4.529427810785822094e-03,-1.202146625023866808e-02,7.720686495304107666e-02
2.971183292470567783e-01,3.300649108172284407e-01,3.083755206079941136e-01,-2.308179845490506560e-02,-2.953945804624429766e-02,-2.132720606254468604e-02,8.013682812452316284e-02
2.072285207375150762e-01,3.342763351903547675e-01,3.809805830948795324e-01,-1.454429923029149085e-01,-4.134746112536327733e-02,-4.607461193850573983e-02,3.149833977222442627e-01
3.165475804597568943e-01,3.003906164141987856e-01,3.489902195791551587e-01,-3.111526995857875205e-03,2.336675322616254755e-03,1.084741805835520018e-03,4.343618080019950867e-02
3.227338409578955347e-01,2.687831382230747579e-01,3.504418065264435778e-01,-8.012525949945788206e-03,7.555604332059224354e-03,3.421517758768194330e-03,7.464755326509475708e-02
3.106501566152310989e-01,2.452116270107661256e-01,3.109096378598996679e-01,-3.373110797333771227e-02,-2.384696965311682709e-02,-2.722340610928201607e-02,1.078980416059494019e-01
3.380612812039748283e-01,2.555630226846041242e-01,3.532979174955630519e-01,-7.218032586833201918e-03,5.677688484422466729e-03,7.034997964831236038e-03,9.325554221868515015e-02
3.655522703229883152e-01,2.267296636866583670e-01,1.715370676989911025e-01,-1.527684437379365351e-02,-2.874149357478612832e-02,-1.404964761688190511e-01,3.039343059062957764e-01
2.922953309884112061e-01,7.645835757282362644e-02,2.438978399178680090e-01,6.681795846586653653e-02,4.688237814386336105e-02,-1.375586154184751109e-01,3.394655585289001465e-01
5.477869964872892350e-01,1.971410583312225573e-01,4.437613011926537787e-01,4.478520836688076878e-02,2.107264231833801821e-02,-7.299653980723935787e-02,3.473219275474548340e-01
4.575886249487789992e-01,2.996189985413810208e-01,4.586828615951377142e-01,5.266418273085259755e-02,1.096549374734362946e-02,1.870466490168999282e-02,1.867065131664276123e-01
3.468384145195664847e-01,2.561480213462073996e-01,3.900580425078922220e-01,3.409184203863777768e-02,3.536301730110019258e-03,1.298153314544872594e-02,1.343209892511367798e-01
2.669289467515716940e-01,3.590486561950765876e-01,3.721414579405997736e-01,3.857289895313755629e-02,-9.520541371347692600e-03,-4.231015153571617525e-03,1.210487484931945801e-01
4.495469504361939705e-01,2.857105685175377330e-01,3.646205907320279049e-01,1.325213330294293217e-02,7.997530488512764185e-03,-7.194337396001468377e-02,1.907540410757064819e-01
4.131401477862964855e-01,2.218796800962591909e-01,4.110396310226092642e-01,-4.513178698716259485e-02,-2.895523621583907282e-04,-3.846770717478490559e-02,2.161791175603866577e-01
3.002640209162222296e-01,2.523462612527313520e-01,2.778106071253332865e-01,7.399546586088145972e-02,-5.530435707766234721e-02,9.860777282880463235e-02,2.376899868249893188e-01
3.494298168454580966e-01,1.806780571389575707e-01,3.405041495307893351e-01,-9.322881443419594322e-03,1.028973719957586644e-02,1.662706088433456991e-02,1.686960756778717041e-01
3.215172850285452633e-01,2.882029775704314511e-01,3.538936082251439297e-01,1.144501211636714255e-02,2.197303517867848707e-03,3.264151843284769129e-03,6.063066422939300537e-02
1.978520237830714845e-01,4.438907688203395097e-01,4.431950479222140915e-01,-9.481588025873631531e-02,-1.138113415844203419e-01,-4.159661540623298126e-02,3.624699115753173828e-01
2.676512438007723205e-01,4.054711680982998612e-01,3.926805128422385383e-01,-1.499475713391257986e-02,5.523428522696168658e-02,1.502938830581584950e-02,1.670322716236114502e-01
2.524130615054408500e-01,3.200951435849765936e-01,3.374376886245724627e-01,-1.211255647142071672e-02,-8.331100887438781452e-03,-1.071485175373582469e-02,8.395352959632873535e-02
3.152721169396723311e-01,3.203368825572526224e-01,3.140788885010776799e-01,-9.925746609613017232e-04,1.930455941293584068e-03,2.623001642836542482e-03,8.239846676588058472e-03
2.355841034437965442e-01,3.497396431382123194e-01,3.357248786425263698e-01,-5.252162553408582304e-03,-9.508822651955871341e-03,-2.774026697119893244e-03,1.095679327845573425e-01
2.231591636981551385e-01,3.393719856625497244e-01,3.503418332410723757e-01,-1.677311301822180523e-02,-5.387943105619181008e-03,-4.456737539733959461e-03,1.260606348514556885e-01
2.547539724168721986e-01,3.230251052317599791e-01,3.484966392735584506e-01,-1.232867286085301099e-02,-4.471892948993671721e-03,-6.576973478191747331e-03,8.771812170743942261e-02
1.834112096713196305e-01,2.794042607315945781e-01,4.327254394921371539e-01,-1.458113214003280145e-01,-7.171373602425397398e-02,-9.305295791527183613e-02,3.906760513782501221e-01
3.852765489317663272e-01,3.567604448016487573e-01,3.166722517664416481e-01,-3.323339908410379712e-02,-4.859175105287313196e-02,-7.162509743081559022e-02,1.713204830884933472e-01
2.523076314267967968e-01,3.411958539713404459e-01,3.613467697185854810e-01,-1.010091949633121558e-02,-1.128581256688709162e-03,1.836227318298077520e-03,1.020704507827758789e-01
3.530999762109892637e-01,2.387964010521114455e-01,3.738274288359644815e-01,3.635344086081048094e-03,4.779258934631261044e-03,9.444041274500615188e-03,1.274358630180358887e-01
3.074421921941880576e-01,3.102724494683823941e-01,3.484838724567565493e-01,9.811297043170685850e-03,1.833210162709331570e-04,-1.300271445955745448e-05,4.318746551871299744e-02
3.112131538193113056e-01,3.099476459212389123e-01,3.433313627156011072e-01,1.139946383995580747e-03,-3.335235141676855773e-03,4.487231819982580912e-04,3.334217518568038940e-02
3.114383965659721643e-01,1.722038507042115973e-01,3.587123698529659510e-01,9.318612488670356686e-02,-2.603093231299528042e-03,4.265203643298620673e-02,2.444015890359878540e-01
3.986023485216644846e-01,3.058024027732118011e-01,4.288402972773410760e-01,5.577566090761534867e-02,3.163150768078166163e-03,-1.235485775489342372e-03,1.473078876733779907e-01
3.069076810258953292e-01,3.126507081854828507e-01,3.394255162790553171e-01,4.885531186331426232e-03,-2.002624450064013992e-03,3.868157528929586867e-03,3.212733939290046692e-02
3.050686380716837176e-01,3.114201744874952604e-01,3.454534437457688067e-01,1.882247564266556527e-03,-7.160988356783381343e-04,4.879440248954635415e-04,3.778425976634025574e-02
3.129651763150494981e-01,3.066034239292634855e-01,3.428063366642735699e-01,3.647978813322778988e-03,-4.325666808018906705e-03,9.065733649881975789e-04,3.491893410682678223e-02
3.648879894346460651e-01,1.949095123203266611e-01,5.046638778821441740e-01,8.980878591861918281e-02,7.548244938196167417e-03,4.454975213481597585e-02,3.201729059219360352e-01
3.206644750905842667e-01,3.192991027514375246e-01,2.905047240159518429e-01,-1.000308683852175334e-02,-4.024246194973833506e-03,-5.175696752855995023e-03,3.604757785797119141e-02
3.842761433999317688e-01,5.080448981781694462e-01,2.689180650083098367e-01,-1.321402101717253537e-02,-1.580918745916694013e-01,-2.507084784616687989e-02,3.468320965766906738e-01
3.133721569601647938e-01,3.323476534992230169e-01,2.722012617118693134e-01,-8.900665428402959253e-03,-6.858731603820534227e-03,-4.538833558205064567e-03,5.724461004137992859e-02
2.960978189365084945e-01,3.313043023858557312e-01,2.917646512751283505e-01,-2.709736326555727687e-03,-1.697637555490095216e-03,-1.404034023018455599e-03,3.804492577910423279e-02
3.078980617681297272e-01,2.943612110974156426e-01,3.104755134682654072e-01,-1.426816555423948392e-03,-6.338851108203163824e-03,-6.915610748473282471e-04,1.878471300005912781e-02
3.361099610015510497e-01,2.327961034018473097e-01,3.304259611377511896e-01,-1.147552937974302342e-02,-9.570463214563427329e-03,-7.628228311923208535e-03,1.047054901719093323e-01
2.571319059601270274e-01,3.779150896350389477e-01,2.969801332383529835e-01,-6.986473685695690494e-02,-1.289930844673330967e-01,-9.601255872803357572e-02,3.218378424644470215e-01
3.233429113707424474e-01,2.888509502155374165e-01,3.259530920968443657e-01,-1.935977228918359105e-02,-1.404503700401050180e-02,-1.635939534624752251e-02,6.168970465660095215e-02
3.106310441953566426e-01,3.477770966235810279e-01,2.830806847081861477e-01,-1.494351932785852131e-03,-2.005646826349326978e-02,-1.526691564632773421e-03,6.620208173990249634e-02
2.751703204881381093e-01,3.298685945589134305e-01,3.467202746510776867e-01,-2.583339290830551430e-02,-1.571199841630850982e-02,-9.766925165394901853e-03,8.500888198614120483e-02
3.661070186542706995e-01,4.346828694235840840e-01,3.161143941549144354e-01,-1.566263353009422765e-02,-7.989236365882293467e-02,-2.042161658610820718e-02,1.782291978597640991e-01
3.602186898553124683e-01,2.947096271836971426e-01,2.981018453352370923e-01,2.788003869927778954e-03,1.947981735478253058e-03,-1.270024019078163161e-02,6.781824678182601929e-02
4.703454431791441182e-01,4.366053684235901566e-01,2.616824846392452608e-01,-3.659930632601107736e-02,-8.402027416206203636e-02,-1.242899637337145230e-01,3.304225206375122070e-01
4.253122812656123797e-01,4.287237432543863358e-01,1.975074886743534708e-01,8.606372063979062653e-03,-8.849668249591848695e-03,-9.894270081024624658e-03,2.311593741178512573e-01
3.225162958346360353e-01,3.048118175990594536e-01,3.177075833024681217e-01,-1.000077630988962032e-02,-1.119586759172547935e-02,-7.941802496925533250e-03,3.341769054532051086e-02
3.095390790823531191e-01,3.050841041463308034e-01,3.071721253730508860e-01,-6.168336974051076300e-04,-2.660983870188640341e-03,-1.703141290850282040e-03,6.781635340303182602e-03
2.341275445438577851e-01,3.327783275404814778e-01,3.320557949688622834e-01,-1.552179283431243985e-02,-8.475568151396084202e-03,-1.113495271634614044e-02,1.047447696328163147e-01
2.998752495256311601e-01,3.590863878040900237e-01,3.160488694022063338e-01,7.640161444128248632e-04,-1.903253231937532611e-02,2.134695950803058503e-03,6.254614144563674927e-02
3.520639086584240185e-01,3.283315981221694990e-01,2.719546987655329096e-01,6.283609886321998329e-03,-9.296465107889516181e-04,-8.759089180733051205e-03,7.369355857372283936e-02
3.734449637590112614e-01,3.051759917614846329e-01,3.114798185581925116e-01,-7.756549211717853054e-02,-4.927687624009867429e-02,-1.253996011377441488e-01,2.770903408527374268e-01
3.262994106903843172e-01,2.939189986396740784e-01,2.970429880875453676e-01,6.016519020975454567e-04,3.115649441027818715e-03,-6.035189949920107683e-03,3.311453759670257568e-02
3.462907047570073504e-01,3.507605720438158325e-01,2.294011597617965914e-01,1.488578913296755013e-02,5.496233346951343718e-02,-4.741549065460560000e-03,1.549206525087356567e-01
3.095915158169764148e-01,3.440661863559379419e-01,3.105453602454497086e-01,3.648315576059851253e-04,1.251124746630256478e-03,-4.933005990092210330e-04,3.409332036972045898e-02
3.047917781289580796e-01,3.448556396659771539e-01,3.085085664415029294e-01,-4.875857041048670365e-04,3.872897355136624246e-03,1.327383810020215521e-03,3.900020197033882141e-02
3.335001225618433596e-01,3.568159764225128372e-01,2.768017104276519480e-01,6.166658034046804647e-03,6.980335526922087398e-03,-2.326081154865423679e-03,7.319016754627227783e-02
3.112285235320996213e-01,3.494537112681417867e-01,3.161104427333593647e-01,-3.795915924257071560e-05,1.321871432777001155e-03,3.639084219000098008e-04,3.611134737730026245e-02
3.050909755370203591e-01,3.463237595402575142e-01,3.616944335026179846e-01,4.794621078906209644e-02,6.970137863240566389e-02,-2.717724528461586478e-02,1.620411872863769531e-01
1.454556237297365828e-01,3.163963775179245430e-01,1.872881194876754862e-01,9.055638131806117638e-03,1.332303424131154879e-01,-1.507690263036028447e-02,2.792825698852539062e-01
3.157659207889139119e-01,3.499771640000190476e-01,3.146210607694530093e-01,2.379053134202479755e-03,1.488918331158069165e-03,-2.704867122965672272e-04,3.513881936669349670e-02
3.301992099784264445e-01,2.832289736499892241e-01,3.334721646920905114e-01,-2.391233914316780174e-02,-1.782910320784894878e-02,-2.285816337272932736e-02,8.128446340560913086e-02
4.758510791776000559e-01,3.694393960801159449e-01,3.375152848101322656e-01,-6.648959075565824550e-02,-6.374284029181331857e-02,-1.536137365509028241e-01,3.346390426158905029e-01
4.017832295067704784e-01,3.626016947952188652e-01,2.722812297206224086e-01,1.115289054580852549e-02,1.787870030210892552e-02,-4.843029361068509203e-02,1.469709426164627075e-01
3.540795661365107039e-01,3.045712385737961991e-01,2.727418533062460626e-01,1.711187953468215617e-02,8.469288812483275267e-03,-3.450379490457591847e-02,9.851484745740890503e-02
4.482766447571950863e-01,3.404767345724044603e-01,3.300723625700962005e-01,-5.919056058506436471e-03,-1.136369763952763817e-02,-1.024702537216200804e-01,2.117631435394287109e-01
3.039071321858108354e-01,3.174122964364440302e-01,3.126380493774611469e-01,-6.824918602236349462e-03,-1.188508602748964034e-02,-9.634778104283276551e-03,3.134800121188163757e-02
3.621703937519262784e-01,2.994720374102803895e-01,3.206465896455145681e-01,-4.875284452888374934e-03,-9.871147314687196694e-04,-1.895977475644953711e-02,6.484198570251464844e-02
3.076029699381008231e-01,3.165456080102871383e-01,3.400056732764340506e-01,3.973349887084995022e-03,1.102951856760268435e-03,-3.234047483598812348e-03,3.037317097187042236e-02
4.439260416226066819e-01,1.177400085937187479e-01,3.650131089074907798e-01,-7.873548996177630321e-02,5.873201869739627309e-03,-1.038727874916934024e-01,3.714219629764556885e-01
3.088704199127070837e-01,3.123627091000608647e-01,3.295547767372166148e-01,3.616334878875147700e-03,1.620614872041717522e-03,-2.954626531086905917e-03,2.100250497460365295e-02
3.405270225876201873e-01,2.691991279186080055e-01,3.188952472236520341e-01,2.902400953515213260e-03,7.639122323571787346e-03,-6.395970031713380140e-03,6.584617495536804199e-02
3.402848622054295835e-01,2.787674600996453700e-01,3.086315253033136696e-01,2.870428538850777322e-03,6.797203456262788761e-03,-1.603545657101052013e-02,6.143146753311157227e-02
3.534293303133965725e-01,3.114702939902160295e-01,3.123789796454193857e-01,3.196938432182871992e-02,2.177439591528358351e-02,-2.695383591074316729e-02,9.160394966602325439e-02
3.267287519881530433e-01,3.068268986990292380e-01,3.036098035722671340e-01,3.968974955298566060e-03,1.956184333623423727e-03,-3.472275795929440773e-03,2.377746812999248505e-02
2.746789231305393209e-01,3.462072671992462713e-01,3.301531334518705285e-01,4.009156623215111293e-03,7.447056847679062869e-03,-6.464218542362315523e-03,6.756972521543502808e-02
2.718015925809739164e-01,3.372116261252362523e-01,3.415443956815513715e-01,1.478796176046048849e-02,1.499265515366820026e-03,-5.235244633812374121e-03,7.297719269990921021e-02
2.142012936695520398e-01,3.368769839681169942e-01,3.452468445148634268e-01,2.450961713463278152e-02,5.199359714938509187e-03,3.172867082899612527e-04,1.342748105525970459e-01
3.182479011953258663e-01,2.891057606773224098e-01,2.716454899600730388e-01,4.054093255509323007e-02,5.379579436927436203e-02,-7.984104083844226207e-02,1.854707449674606323e-01
3.216352413174931035e-01,3.203774750535765548e-01,3.085288173404345802e-01,-5.506972278213754721e-03,1.688190024896294664e-03,1.717958733813066199e-03,1.628679968416690826e-02
3.737207396675332749e-01,3.410282019136373077e-01,2.881768903780217439e-01,9.936431093353714425e-03,7.272343641201489163e-03,-2.732307052097624617e-02,9.101876616477966309e-02
3.054932320438362714e-01,3.076438308406919120e-01,3.364142087343156007e-01,4.326407150812384278e-03,1.392547180350492408e-03,-2.651172509129163558e-03,3.126164525747299194e-02
2.914434023458781775e-01,6.446403164360120508e-02,2.847144207420571060e-01,6.275820078362789878e-02,3.595968448429302800e-02,-7.690352042641965258e-02,2.889205813407897949e-01
3.368164998650307607e-01,3.579479022491950380e-01,3.191749021156272126e-01,8.986002717384084307e-03,1.263062476076133936e-02,-1.101768527998621752e-02,4.706978797912597656e-02
2.094410061616775176e-01,2.804543640341303767e-01,2.733855274406138958e-01,1.074171426857838951e-01,9.569784673760275973e-02,-4.545893777796404522e-02,2.699629366397857666e-01
4.417923847723154163e-01,3.250156368571863186e-01,3.624775878198003287e-01,2.653426066614411952e-02,1.158919193251295790e-02,-6.748240306892341889e-02,1.638361215591430664e-01
2.401657264256793212e-01,3.166921165376546665e-01,3.310938641974078278e-01,2.649966650222701850e-02,2.282648035844672685e-02,-7.793438155462539298e-03,1.049660295248031616e-01
2.888607724194178217e-01,3.572114124326982165e-01,3.302328301346923456e-01,7.696705468529295522e-04,6.309663050068208337e-03,1.580519951704439929e-03,6.069890782237052917e-02
3.845656415663369909e-01,3.756328490548013210e-01,1.907284685132010493e-01,1.003467696957921831e-02,2.027994003689845975e-02,-2.345650349968662202e-02,1.977566033601760864e-01
3.179603048959334100e-01,3.286401926422347630e-01,3.147546727475876716e-01,-2.218310278446708212e-03,5.618261272609412302e-04,7.107548348534276734e-04,1.325884740799665451e-02
3.673709747575423235e-01,3.642057584572132578e-01,2.311525951772626930e-01,2.519194999761509030e-03,-2.559215783849043933e-03,-4.729568164006802897e-03,1.350559145212173462e-01
3.601769632414486555e-01,3.510703426046700715e-01,2.433114923698218579e-01,1.413447312198202899e-05,-2.666935487718696211e-03,3.912186641115142534e-03,1.128869950771331787e-01
3.254164797335858950e-01,3.321179012513011952e-01,-2.373656333142945551e-02,1.407110750015944968e-02,8.936543581955681478e-03,1.062047507891470538e-02,3.542097210884094238e-01
3.968071337069740689e-01,4.155115399959363742e-01,1.879553260345226406e-01,3.622713432246421617e-02,1.563321991310945847e-01,6.724686112491479184e-02,3.724221885204315186e-01
3.564201094130780567e-01,3.507002724376692693e-01,2.724251231626804715e-01,9.766763181267892543e-03,-9.590705307342371755e-03,1.531952626217915510e-02,8.873338997364044189e-02
1.984584568262575399e-01,3.323251196068383040e-01,1.957182675963152763e-01,6.691475855596210054e-02,-1.145860840142228082e-01,6.984189082983510710e-02,2.928326129913330078e-01
2.857390982819488223e-01,3.429580122148871424e-01,3.084881163573399698e-01,1.616201535559364487e-03,9.558275523933412038e-03,-4.055661704215337421e-03,5.311413481831550598e-02
3.101462840223813133e-01,3.632290233562438519e-01,3.118144049313076316e-01,2.983880469335354387e-03,1.720712744825872095e-02,-9.432988539456664892e-03,6.256134063005447388e-02
3.051201393483288782e-01,3.450336680898841157e-01,3.136413269714338758e-01,1.020023917809339056e-03,3.323867418937459690e-03,2.549607587831846526e-04,3.690596669912338257e-02
2.979242580266803775e-01,3.383294650048521701e-01,2.949298596913436099e-01,3.857358616936932064e-03,1.462984490333213254e-02,-7.154888659907444100e-04,4.950562492012977600e-02
3.343799879550437559e-01,3.125495911154796413e-01,3.089428289734679201e-01,-2.062511732499105153e-03,1.583567990453703779e-03,1.141175356933955831e-03,2.434140071272850037e-02
5.262403641566031354e-01,4.654013305210383256e-01,4.923414600399464991e-01,-3.951481240795277905e-02,1.076895491090577306e-01,1.356495495146908814e-01,3.121953308582305908e-01
3.319224174939122696e-01,3.129397978657096902e-01,3.125318647318667264e-01,-2.231177577634829712e-03,1.092115950008488599e-03,1.300032351736184894e-03,1.979476585984230042e-02
3.286288400185951031e-01,3.178068181827585215e-01,3.156047000116963819e-01,-1.953370092875948965e-03,4.685066738533955988e-04,1.825151877713840094e-04,1.256989408284425735e-02
4.330016587225751223e-01,3.387588778548658031e-01,3.920392534797625395e-01,-7.995710224008276829e-03,1.977850651036128227e-02,5.905741070150542782e-02,1.361172497272491455e-01
3.291075267664204662e-01,3.159519573274747750e-01,3.023451241199897055e-01,-6.321601854082947204e-03,4.086493304943975523e-03,3.069148680423800478e-03,2.711947262287139893e-02
3.376327518884624790e-01,3.313778236091702301e-01,2.954683667693263627e-01,-8.318542644108042894e-03,5.644607772266245146e-03,4.228295323013069387e-03,4.370399191975593567e-02
3.366957263781152343e-01,2.331797673374980950e-01,3.798446182038542895e-01,5.299208404722612759e-02,-8.146312101079206808e-03,2.750283268325921793e-02,1.671429574489593506e-01
3.010885359539052231e-01,3.119449790346461304e-01,3.328128761024970461e-01,1.479210627723764708e-02,-1.078207527832286509e-02,1.012681771852941975e-02,4.574624076485633850e-02
2.998258866125051991e-01,3.067526713998240950e-01,2.839251479032085523e-01,1.556192659068314672e-02,-2.038728578235527583e-02,1.605873037735514042e-02,5.619651451706886292e-02
2.995704996375160301e-01,3.323452953468173376e-01,3.305024058357803329e-01,3.050146963335702982e-03,-4.481046703275801124e-03,7.398707145115077100e-03,3.563081845641136169e-02
3.005610297193873071e-01,3.478271000817529934e-01,3.214189946673404186e-01,2.143082148040183991e-03,-4.391515355446152027e-03,5.614565675183740695e-03,4.300542548298835754e-02
3.614846933555944108e-01,3.316579632591625248e-01,1.706437203463339602e-01,4.087914229802638855e-02,-1.040887834139870433e-02,1.215261494448712093e-01,2.850647568702697754e-01
2.483542799928503964e-01,2.514833318186561195e-01,1.844408231169380186e-01,7.304793948303114903e-02,-9.024168692874315334e-02,1.077416588447854401e-01,2.820606231689453125e-01
3.671710629975151741e-01,2.719157555163994600e-01,3.541743911899287167e-01,9.370015620946300222e-03,-2.730223829171693917e-03,4.152743756986238856e-03,9.133441001176834106e-02
2.819630079795657496e-01,3.460387394233049307e-01,3.064105070779150619e-01,-2.281706592762214846e-03,-4.912408261032591428e-03,-1.101640769728511916e-03,5.682026967406272888e-02
2.978818202535474247e-01,3.155695467997835513e-01,2.947870341865945765e-01,8.245400156018073412e-03,-1.093814682858334358e-02,7.821914619427289966e-03,3.352028131484985352e-02
3.212975944784376425e-01,3.225593136863617594e-01,3.124834332098740952e-01,-7.207335900311879345e-03,9.562789226564578221e-03,7.858052028783984663e-03,2.656740881502628326e-02
3.467130335975914801e-01,3.348461101169397658e-01,2.705732423253549013e-01,8.292231319767156064e-03,1.778151343551262909e-03,-1.204592545709266653e-02,7.540310919284820557e-02
3.239718885992289854e-01,3.365840321539831925e-01,2.114716609930085145e-01,1.244302296665541693e-02,3.264100478422057861e-02,-2.579779610930745329e-02,1.410376131534576416e-01
3.435100409761867035e-01,3.180709233514418255e-01,3.075163448442242431e-01,6.509496616245104457e-03,1.370813772344861483e-03,-3.075797685086104939e-03,3.447008132934570312e-02
3.540820867605178335e-01,3.441573176218718499e-01,2.551231905783537535e-01,8.599047044421596897e-03,2.242016650121194180e-03,-8.564488083638204310e-03,9.677904099225997925e-02
3.562079222844630189e-01,3.229827439217450302e-01,2.710467328051404112e-01,3.459739712172880434e-03,6.980947415324595829e-05,-7.560435190003201439e-03,7.572482526302337646e-02
3.159306099509717747e-01,3.281201664067106560e-01,3.169044804973269458e-01,2.080636978489956018e-03,6.010608100449714702e-04,-1.145209666647013748e-03,1.247670408338308334e-02
3.127665148802564743e-01,3.314202918256715646e-01,3.144312802535411122e-01,9.254982919222503376e-04,-2.127951828212463667e-04,-1.310014917938164252e-03,1.809791661798954010e-02
3.369688503499370102e-01,3.667776860149944418e-01,3.846821251929103958e-01,4.078376102021111227e-02,1.881799278145425067e-02,-2.409654447057820240e-02,9.765793383121490479e-02
3.345681462631054370e-01,2.798401696734328925e-01,3.449242523412987538e-01,8.057907524900716212e-03,-6.947206787603476402e-03,3.628627236478677940e-03,6.362586468458175659e-02
3.441791340490731876e-01,2.694250021815839946e-01,3.545746765348179452e-01,1.507901511979461984e-02,5.098269463667405577e-03,5.589762363995492240e-04,8.505528420209884644e-02
3.701786504854236437e-01,2.502314469490301008e-01,3.598908248863967874e-01,4.238386106416741107e-03,-2.445146214507522460e-03,6.606350945552627064e-03,1.160255745053291321e-01
3.198147532740449051e-01,3.087378785997956787e-01,3.214839272599841480e-01,2.078523428447742218e-03,-5.638559765084093754e-03,1.801970298549682332e-03,1.618810184299945831e-02
3.646509869973200146e-01,2.417818298921715348e-01,3.671702777335414392e-01,8.018997483491802081e-03,3.814552433365540635e-03,-3.075772330345337945e-03,1.252104938030242920e-01
3.532622805693593770e-01,2.350731398125415206e-01,3.444332881750988840e-01,-9.125031040270059504e-05,2.182997921048730229e-03,1.047871002033751858e-02,1.155286282300949097e-01
6.344278808574352890e-01,4.265367576084163059e-01,5.665091008048541710e-01,7.620733357690280541e-02,1.368994996707526349e-02,1.491411185101276515e-01,3.441309332847595215e-01
3.462366676798650511e-01,2.683960787284087046e-01,3.553106180507962231e-01,1.516218688354600830e-02,-8.956809945535851476e-04,1.321439361170634839e-02,8.979843556880950928e-02
3.574876209723955589e-01,2.691338977121852660e-01,3.437842499790553785e-01,7.166981594032672664e-04,-3.827143392828124386e-04,1.705574957250962503e-02,8.751054108142852783e-02
4.014994429236127815e-01,9.057797882758344965e-02,4.344397830023241092e-01,7.165628376356489304e-02,4.975261995641587498e-02,-7.750435544963377166e-02,3.858104348182678223e-01
3.350220270947831258e-01,1.545637734559055232e-01,3.425803826546252595e-01,1.205487458901769761e-02,2.698039913921663775e-03,1.345135933772241901e-02,1.870478391647338867e-01
3.472222713264114247e-01,2.491451343937552687e-01,3.174714337385213248e-01,-3.679326672064458029e-03,-6.686408966150106555e-03,-1.866680717315605254e-02,9.384266287088394165e-02
3.686752413382938243e-01,2.533883676159691678e-01,3.419749111714635026e-01,-1.744459966522534820e-03,3.226117217864224191e-03,-1.147725419270646113e-02,1.065894365310668945e-01
4.485476720774667081e-01,2.587574331931637994e-01,5.190852363390112689e-01,-1.105790121190561581e-01,-2.501302265622657589e-02,-5.841645550013434274e-02,3.212176561355590820e-01
3.383661465556750403e-01,1.070481870685190129e-01,2.839955110152604378e-01,-3.256389685647260307e-02,-1.414772599498678902e-02,-1.144132027952657060e-01,2.948560714721679688e-01
2.617438963848945921e-01,2.977652936868790401e-01,2.341461274551152882e-01,7.223567054915687458e-02,7.753356919258261315e-02,-7.728401116766189793e-02,2.337949573993682861e-01
3.203074546071540407e-01,2.018465139219236537e-01,2.536264773784002724e-01,-6.616404244154486247e-02,-5.579807256659023718e-02,-1.130934230105430510e-01,2.672525644302368164e-01
3.117049489619843072e-01,3.072274603227371781e-01,3.415952812821115292e-01,-9.139406485303817624e-04,2.112611201287833973e-03,9.803816921211219206e-04,3.265106678009033203e-02
3.051869965616713642e-01,3.011683642804157679e-01,3.441693567890008465e-01,-9.312851258563591139e-03,2.190158168589498907e-03,2.400882727421321111e-03,4.454548656940460205e-02
3.065899324332433395e-01,3.109454274071399849e-01,3.395659133160030541e-01,-2.245825710661092378e-03,3.053708107455985980e-04,7.313265193064808715e-04,3.130134940147399902e-02
2.727132580019703822e-01,3.036831290884292600e-01,2.679367558729084942e-01,-2.900417203290170387e-02,-4.432109171503600953e-02,-3.334482955929407577e-02,1.135002747178077698e-01
3.364372747109651285e-01,3.339982152614967004e-01,2.931705776623020898e-01,-1.179868138435564810e-02,-1.594590622586147116e-02,-1.401504833026988653e-02,5.951582267880439758e-02
3.122563319824946948e-01,3.329040179003346922e-01,2.789381541701381195e-01,-1.304458446997863903e-02,-1.560713574103080037e-02,-7.651459617258027888e-03,6.034266576170921326e-02
3.347374189276778877e-01,2.892744103813852941e-01,2.934386921057588471e-01,1.200683072569832003e-03,1.730345397965183264e-03,-6.732619401688230004e-03,4.521280154585838318e-02
3.876290076562723397e-01,3.400698457829383070e-01,2.444711319181089304e-01,1.489027083471678326e-03,-2.399738351103030548e-02,-5.936693417653398502e-02,1.680926978588104248e-01
3.278893387699052808e-01,3.030513536273825026e-01,2.886878344982002353e-01,-1.393093230076812745e-02,-1.133466426282710854e-02,-1.612921428005345895e-02,5.411181226372718811e-02
3.110132054654071165e-01,3.055609507379033474e-01,2.878927039711852709e-01,-9.110817535438233902e-03,-3.493156530248203717e-03,-4.751238045407652974e-03,2.813496068120002747e-02
2.907746977381663323e-01,3.406515977544438689e-01,1.386706662376847587e-01,-2.209688288421823854e-02,-1.208342744251502121e-01,-7.209928392111097928e-02,3.067121207714080811e-01
3.952296042219182737e-01,3.473897106227936127e-01,2.927578471086162981e-01,5.360602941544459488e-03,1.298751043006325179e-03,-3.099017494109553017e-02,1.042080596089363098e-01
3.289206463163132921e-01,3.437599238857101946e-01,2.617110057581061300e-01,1.879595324369601889e-02,-3.779421243582795076e-02,1.096932292672764438e-02,1.069613546133041382e-01
3.107638185474036474e-01,3.448466566073274397e-01,3.072477651705216584e-01,-1.608559550236505955e-03,9.802879994907830186e-03,2.790434772840465726e-03,4.016529396176338196e-02
4.298135372140033383e-01,4.148099564329366107e-01,2.526604726897567765e-01,-3.484274764536787750e-02,7.056536116019365701e-02,1.013836684476168287e-01,2.799406945705413818e-01
6.024047136157636428e-01,6.157013045162784692e-01,3.093094567894688618e-01,2.005075612910352592e-02,8.073857528110489623e-02,6.323052074091242702e-02,3.503360450267791748e-01
3.580336447410142342e-01,3.191371807697919727e-01,3.194202855118957185e-01,2.033805002998087530e-03,-1.448569337545978610e-03,6.901172779128462824e-03,4.078708216547966003e-02
2.720166447217198247e-01,2.372813154762436483e-01,3.349328132589544649e-01,-5.933525129022058919e-02,1.867288784175222954e-02,3.694086601553196042e-02,1.518299430608749390e-01
3.498857389734735257e-01,3.372650366167185276e-01,2.169111048592512747e-01,2.492187405037074067e-03,-3.629329516673026343e-05,3.195600159347335070e-03,1.273286044597625732e-01
3.399434514944543184e-01,3.782304078541540160e-01,2.636650007356083347e-01,-1.722079715478707805e-03,4.315681353133447862e-02,-9.275615704516832968e-03,1.267253011465072632e-01
3.100451857868475880e-01,3.619327370316179904e-01,3.329949776601907607e-01,-1.221426948006093006e-02,2.299718855168581336e-02,1.280349343789020065e-02,6.748457252979278564e-02
3.036677809746917145e-01,3.117935858678129168e-01,3.260869267397691895e-01,-6.369414517020638433e-03,4.194150548106608499e-03,7.583943043698484175e-03,2.708325721323490143e-02
3.423665335024745349e-01,3.084794486948800318e-01,2.759688409537441878e-01,-1.928327012919681897e-03,9.103168052764289706e-04,1.013622061826724256e-02,6.023980677127838135e-02
3.412408374130866395e-01,3.561763505973185029e-01,2.806615306521677011e-01,-8.010394514044386072e-02,7.419944509747150585e-02,1.204282526656712121e-01,2.899537682533264160e-01
1.073674740201902011e-01,3.271410989758335441e-01,2.285560984554542985e-01,-4.600995979934814628e-02,-1.340843190465800805e-01,-3.396665227570620782e-02,3.163871467113494873e-01
3.219408177586378650e-01,3.920677373694264611e-01,3.858744669325306353e-01,7.644035136734558811e-02,-9.526418536027572714e-02,1.369672773160593715e-01,3.248955309391021729e-01
2.853083100846189879e-01,3.754204054423476711e-01,4.054971718053858032e-01,4.385204107864611872e-02,1.995173380243682459e-02,1.872408035184261466e-02,1.405349671840667725e-01
3.526289797941149495e-01,3.816498843256806994e-01,2.537165842011704919e-01,-3.005149549682614718e-02,-4.211848753182890343e-02,-4.073028288781847805e-02,1.628018617630004883e-01
3.125460931658447516e-01,3.255883104602952383e-01,2.965298045068093247e-01,4.117465647033495199e-03,-3.867527271294788228e-03,2.119961304297329589e-03,2.728965878486633301e-02
3.150557412208545016e-01,3.696698636160511420e-01,4.373578432332867472e-01,1.220076913300399829e-01,-2.381448870417895991e-02,1.011036697698224351e-01,2.971295416355133057e-01
2.616614567607398745e-01,3.164398320339780191e-01,3.142644286808121690e-01,-9.308035629850532067e-03,-9.530794647435284622e-03,-1.283744656719488023e-02,6.255449354648590088e-02
2.613923708972861193e-01,3.220648359208005962e-01,3.323563682003586317e-01,-8.970325861322028804e-03,-4.758157794226496040e-03,-1.341574451983049837e-02,7.253098487854003906e-02
3.468134941053806486e-01,3.561497503122532104e-01,2.162280019563596889e-01,3.471952988580471328e-03,-4.968190622146360230e-02,-2.066108826686311080e-03,1.606635004281997681e-01
2.727030326719604991e-01,3.521035543861830153e-01,3.191607358578713582e-01,-2.714864367988644757e-03,-7.529790416932281849e-03,-1.542759552716825317e-03,7.052191346883773804e-02
3.009171209769121447e-01,3.992955627388141693e-01,3.536820052869483755e-01,2.470541624032772735e-02,-4.745369843221274725e-02,7.238510771566026430e-03,1.265517473220825195e-01
3.034898992638998538e-01,3.064171985433608580e-01,3.114841660062290796e-01,-1.856557656352676201e-03,-2.283718900365756463e-03,-5.072316442052651753e-03,1.233886089175939560e-02
3.014682796863709102e-01,3.008008869661064622e-01,3.380554264000030229e-01,-2.025049223039011425e-03,2.726111230023948485e-03,1.017016749626803700e-03,3.743238002061843872e-02
3.082699889682808947e-01,3.108526907926830174e-01,3.363088043411569528e-01,-1.337166786356362063e-03,1.616550240286884158e-03,2.879504953274633020e-03,2.754102461040019989e-02
2.955797685375093908e-01,3.012777610751284918e-01,3.346931187426543941e-01,-5.216835771157227880e-03,8.901365404299648072e-04,2.230610661098923926e-03,3.792629390954971313e-02
3.103294544044182812e-01,3.043151826136122895e-01,3.396271760102965165e-01,-2.790746119129129503e-03,9.446219852201449222e-04,7.466728469942798168e-04,3.314282372593879700e-02
3.055143920629266874e-01,3.064226022097065183e-01,3.516303902728597497e-01,-6.957988446528984815e-03,1.744916513884429152e-03,1.344882016489804249e-03,4.738594964146614075e-02
2.964387513373571981e-01,2.959877525920717178e-01,3.275078461161365362e-01,-5.811171224137433831e-03,3.545024610644632868e-03,1.795044416729801471e-03,3.358841314911842346e-02
2.963163339328057089e-01,2.992394342914769245e-01,3.442823779362863545e-01,-1.247975980185719392e-03,-3.625467108473331935e-04,2.785761695085086265e-04,4.663020372390747070e-02
2.823984187437067472e-01,3.174415193434737548e-01,3.042594038622962183e-01,-2.809974697230183983e-03,-4.087754084104458507e-03,-8.755082482229519306e-03,3.526494652032852173e-02
2.720293117710898545e-01,2.921649909859479477e-01,3.069054600231589935e-01,-2.055925017382016773e-02,-1.275651437239748789e-02,-1.571167484749449311e-02,5.844947323203086853e-02
3.650993785183663798e-01,3.629902085490053221e-01,2.295460986141228676e-01,1.040153211164496737e-03,-3.147219599005760936e-03,-5.963514693703603729e-03,1.350292116403579712e-01
3.309773303054697191e-01,3.079783996529474321e-01,2.820599965758822103e-01,-8.052619512406735541e-03,-4.294190968883612042e-03,-3.986170589538351981e-03,4.576388373970985413e-02
3.546059208000647001e-01,3.181444303842822507e-01,3.190796597202281704e-01,-5.534679018571994624e-02,-5.970777096657973321e-02,-8.168188326281831946e-02,2.029701024293899536e-01
3.097590665774125340e-01,3.145648958607018542e-01,2.973949731847712608e-01,-6.464490021554308505e-03,-3.202519126134859527e-03,-3.419330547173787989e-03,2.065427973866462708e-02
3.283334893894565565e-01,3.564305845441847476e-01,3.187994615868581794e-01,-6.537283209471664303e-02,-8.742922851484702385e-02,-6.332576295707673109e-02,2.212037742137908936e-01
3.142535948390418055e-01,2.945625992815209537e-01,3.254735608700742300e-01,-1.125269547456513031e-02,-1.023394915101383945e-02,-8.484443558737715316e-03,4.055346176028251648e-02
3.365829014586057544e-01,3.153107857062748542e-01,3.788488310594700370e-01,-7.257444764828432926e-02,-4.837976531176057388e-02,-6.404462889303311202e-02,1.956172287464141846e-01
2.977157243920092178e-01,3.340539796364342395e-01,2.759841446707975154e-01,-1.450233634014103448e-02,-2.030906290961465716e-02,-1.224167927371656514e-02,7.000229507684707642e-02
3.297449697790937884e-01,2.744224928937574193e-01,3.029314610358953552e-01,-3.335851511800901927e-03,-8.812667039507953923e-03,-4.920923722094320760e-03,5.133391171693801880e-02
3.382602129006230252e-01,2.633615405945333166e-01,3.169304637696320204e-01,-3.779775641587239474e-03,-1.006730613245324438e-02,-6.572849017456061302e-03,7.031158357858657837e-02
3.520324348826816552e-01,2.535977321236497772e-01,3.247738470503195862e-01,-1.136873688822976486e-02,-2.781582017019229667e-03,-2.947622578925578052e-02,1.037628576159477234e-01
3.016017203897927157e-01,3.330195036513091122e-01,2.978204762918244541e-01,-9.878208440582754608e-04,-2.105959469414052029e-03,-1.281726265898052450e-03,3.378363698720932007e-02
4.237205971322214326e-01,2.926852239534575850e-01,3.028936470695190453e-01,-1.001915915184927938e-02,-1.084990633639642404e-02,-9.824331939416314219e-02,2.134159803390502930e-01
3.551372557717918932e-01,3.531174938177648048e-01,4.068856048040465079e-01,5.146903083393904177e-02,1.858835748682744968e-02,-1.129326416733510141e-02,1.102400496602058411e-01
3.278075791020362284e-01,3.244640161137480328e-01,3.226372295901741571e-01,-3.895638351974412602e-03,3.433483331595710286e-03,4.101370363347740799e-03,1.232812553644180298e-02
2.831004207150833452e-01,3.896888617829692980e-01,4.355388132687730840e-01,-5.980807990523825252e-02,7.673199340943807380e-03,1.580209991294216632e-02,1.732257455587387085e-01
3.017376472529293974e-01,2.969924714287862644e-01,3.463726685899665703e-01,-5.438035922744465823e-03,1.008616288899715288e-03,2.031481993305710165e-03,4.827786609530448914e-02
2.000410940207565380e-01,1.452766496413977482e-01,3.552155237268027621e-01,-1.503746047904617467e-01,6.840553414382056531e-03,-4.290402432551152466e-03,3.218842148780822754e-01
3.035937681533431021e-01,3.254168165629209297e-01,3.197611573136316387e-01,-2.770874424778731714e-03,4.627363233515575588e-03,8.143411258029836786e-03,2.590413764119148254e-02
2.745852017993768435e-01,3.349283495358117979e-01,3.420580628958790892e-01,-4.670302066453947687e-02,-4.442391226408066301e-02,-3.992440588234485999e-02,1.461786627769470215e-01
3.006951539451975797e-01,2.804528124413064316e-01,3.150320559545179977e-01,-1.948356681820128528e-02,-1.721215640520104215e-02,-1.611770293056617384e-02,6.092992424964904785e-02
2.883729570238615092e-01,2.929815905389576147e-01,3.362050442433534014e-01,-7.679458470668414950e-03,7.156172512485514670e-04,2.355848401278765655e-03,4.778929054737091064e-02
2.715673832782565245e-01,2.973992196538828847e-01,3.351961975408492833e-01,-1.191449518352570743e-02,-5.599204319273564170e-03,-5.660907871037793720e-03,6.073151528835296631e-02
2.536239099299796296e-01,3.606750995714908536e-01,3.537516609712833549e-01,-3.292577038320044364e-02,-2.385683072355784806e-02,-5.106764238235205616e-03,1.257168650627136230e-01
3.394235925035627433e-01,2.482744807428690081e-01,3.448403921487510626e-01,-5.060077149085543888e-03,-6.382930921875742611e-03,-6.727826715865921348e-03,9.573958814144134521e-02
3.388941996266502388e-01,2.529961854534393262e-01,3.170817070398599391e-01,6.255011468142288381e-03,8.089628107355716080e-03,-1.459270542891722040e-02,8.326552063226699829e-02
4.362007775709664803e-01,5.061773071263918622e-01,5.993484831712155847e-01,1.342720191971993882e-01,-1.666474389632948555e-02,6.044730595536690343e-02,2.932218909263610840e-01
3.333929195550209279e-01,2.850067970821464902e-01,3.625956802104519650e-01,2.249716427056541734e-02,1.062007684125615241e-02,-5.732159982515945898e-03,8.100817352533340454e-02
3.477139206589344722e-01,2.952505898332262180e-01,3.777193317444234588e-01,2.142619954395889176e-02,5.700570332610824589e-03,-4.654434725162544424e-03,8.225956559181213379e-02
3.112985425613785107e-01,3.122154313555539629e-01,3.395199518958442186e-01,1.297703858910356778e-03,1.635811303975782732e-03,-1.209224788906084619e-03,2.808699198067188263e-02
3.312921896262938093e-01,2.825384794892455975e-01,3.546202376201681994e-01,3.571361131654020912e-03,1.181198365251218216e-03,5.195271818806808601e-04,6.404459476470947266e-02
3.670417059785376912e-01,2.997749346674932203e-01,3.179416571545011228e-01,9.228426988920399423e-04,2.401867243119573322e-03,-1.486048373847102810e-02,6.569014489650726318e-02
3.085527713157556473e-01,3.136578879727577318e-01,3.106799219013291480e-01,-5.977735114119009895e-03,5.550655959939880882e-03,5.486801979426989516e-03,1.759749837219715118e-02
3.624553700878069828e-01,3.641657715213594271e-01,4.318089150448277125e-01,5.418860854475533034e-02,6.675957249514328194e-03,1.015634154131677194e-02,1.180956885218620300e-01
2.788054189924294435e-01,3.928820811988407158e-01,3.912678007206209507e-01,5.110264190804420653e-02,-5.114495038484068862e-02,2.537103055228224352e-02,1.744845658540725708e-01
3.875643284173041492e-01,2.990852496626111856e-01,4.115462013571679067e-01,2.747099345325880806e-02,1.380721127536905547e-02,-3.043215501696557024e-02,1.270425319671630859e-01
3.183305685162265974e-01,3.325104628524194750e-01,3.712525646758743636e-01,1.965114388980806343e-02,2.325926469928011730e-03,4.345313078143185127e-04,5.853782966732978821e-02
3.136160392946822362e-01,2.818001327940123923e-01,3.389101202645548039e-01,9.258218547232924256e-03,-7.075338730143433154e-03,3.873506190745100355e-03,5.393638834357261658e-02
2.992418459393273444e-01,2.787072557693606178e-01,3.398421401563774813e-01,1.264446332488158679e-02,7.710153155216966639e-04,8.678709686873914463e-04,5.820183828473091125e-02
3.085726978688382860e-01,2.880264226796570015e-01,3.351729726397895681e-01,8.182760198367217477e-03,-6.949228417363366959e-03,2.943706280355725975e-03,4.525488615036010742e-02
2.992969777607603632e-01,3.022272064511445921e-01,3.157332047723334645e-01,-5.835386830375696721e-03,-5.876553631591739484e-03,-6.478888139770635525e-03,2.371199615299701691e-02
3.001586558224118573e-01,2.793751586342730353e-01,3.317957432701553744e-01,1.278237742564161152e-02,9.979687746174942253e-03,-5.553686557272639879e-03,5.451484769582748413e-02
3.125233262685618851e-01,2.939661872368301010e-01,3.412843471010351126e-01,1.707285196236067032e-02,8.035295022490718947e-03,-8.405910955417757874e-03,5.463889241218566895e-02
2.935206100393297213e-01,2.657521462420897596e-01,3.328568033404506465e-01,1.066184442181187242e-01,-4.258294444869027695e-02,6.886324974108276598e-02,2.391224950551986694e-01
5.713400253832416897e-01,4.819097437770216708e-01,2.432892117931246823e-01,3.098412152654284740e-02,1.027023796414199344e-02,-1.289126378202031242e-01,3.732684254646301270e-01
3.588183733488880534e-01,3.365148115863955680e-01,2.907407752495906883e-01,6.981991015469963743e-03,3.332786947822398167e-03,-1.236470880225391464e-02,6.520628929138183594e-02
3.312984834089456321e-01,3.301923034131903356e-01,3.007724744664714289e-01,6.964158547944310391e-03,2.596749142515078490e-03,-2.531353579793742172e-03,3.292787075042724609e-02
3.496821336068671182e-01,3.176793572135042654e-01,2.663262684213377751e-01,4.355008538160818482e-03,-6.844971578811113446e-04,-6.413903585863191606e-03,7.407075911760330200e-02
3.726876429057369711e-01,2.683535877576694317e-01,3.170894654285954517e-01,6.513739644447008072e-03,6.643890809247272877e-03,-3.330108085558183134e-02,1.084553599357604980e-01
3.340361561420300829e-01,3.457193084506111624e-01,2.937318484680835340e-01,6.852813132614982497e-03,4.466819863253181956e-03,-4.065154675911334357e-03,4.982099682092666626e-02
3.653280381487843953e-01,3.050965177642512294e-01,2.685737653776198997e-01,3.254584381856463760e-02,8.195046372243521005e-02,-9.051750958516070755e-02,2.346639335155487061e-01
3.289120504816130386e-01,3.397670708811228457e-01,2.498623174893360166e-01,1.653217347669760917e-02,2.552978420194995310e-02,-2.267161508480002724e-02,1.074338555335998535e-01
4.241886265883145768e-01,1.965084480896761854e-01,3.245034839087499456e-01,2.642733161708186312e-03,4.787813517427930154e-02,-1.729617548105545355e-01,3.684077560901641846e-01
3.461700340368249473e-01,2.302688288733907573e-01,2.730919833956520493e-01,1.634218664342348276e-02,1.990593921335465435e-02,-6.701820729710930569e-02,1.605238914489746094e-01
3.562054609008359907e-01,2.739504943916448165e-01,3.219155303883626251e-01,-6.105088911378207112e-04,-2.228589654715191787e-03,-7.969827944761649630e-03,7.299132645130157471e-02
4.254907525424830861e-01,3.444155686557778262e-01,3.476407858823417074e-01,1.747820268179298836e-02,1.056668701713470160e-02,-7.899459675731362873e-02,1.621541529893875122e-01
2.422332342427093721e-01,2.586953489589857158e-01,8.645073091545012189e-02,-7.788553183526675250e-02,-1.237242306069884085e-01,-1.123530727133576768e-01,3.592977225780487061e-01
3.208681492298663396e-01,3.644930379798639319e-01,3.292774992488271546e-01,-2.523234499214293235e-03,2.411213077427686036e-02,6.518952865395302027e-03,5.914191529154777527e-02
3.727208892171557375e-01,3.196706164448659959e-01,3.129169505849505040e-01,2.828577557263487179e-03,1.175377116608214423e-03,-1.916211298581872030e-02,6.593886762857437134e-02
3.549935117474788959e-01,3.197525725630108728e-01,3.609741686518694870e-01,2.156923973533397126e-02,1.251679104672287837e-02,-1.744359715296874697e-02,6.532227247953414917e-02
3.318261222703967062e-01,2.852231376548187147e-01,3.219404484316244486e-01,7.668432913676466282e-03,9.008765064773847919e-03,-5.181790364856870765e-03,4.805521667003631592e-02
3.117228148450139624e-01,2.983233859979679825e-01,3.170256986646641795e-01,5.376623382174886001e-03,7.184148936813152669e-03,-4.480271232954688605e-03,2.409355901181697845e-02
3.721135106690754979e-01,2.938973674375336409e-01,2.738067178880653763e-01,7.888741637706883289e-03,5.783845852802638535e-04,-3.592593012492951987e-02,1.102385148406028748e-01
3.615757525474800338e-01,3.609501788406101475e-01,2.464221000400270700e-01,-3.180614452478957958e-03,-1.884572221949229812e-02,-1.446935293082574417e-02,1.221173107624053955e-01
3.693483654390261051e-01,3.614148195294651367e-01,2.413712297206465351e-01,6.118746379870600898e-04,-4.077213524803049646e-03,-1.038527379864020300e-02,1.256993710994720459e-01
3.488109112084866736e-01,2.511579797339152376e-01,3.267523197332998786e-01,-2.091025871853629918e-03,-6.345168810250698122e-03,-1.364610471370650627e-02,9.252642840147018433e-02
4.129071710450995525e-01,2.653283885292865296e-01,2.972677137036525141e-01,-3.202639450715231810e-03,-2.254100034876885608e-02,-8.594053137088783489e-02,2.044466584920883179e-01
3.450074800225497174e-01,3.140525403260522319e-01,2.436082257384169503e-01,1.248206391366641970e-03,-2.700963853875048377e-04,-1.902417284548388668e-02,9.587418287992477417e-02
3.553935494789145499e-01,3.538791418779752562e-01,2.314200397931226727e-01,2.101596293699340302e-03,-7.906356678390540592e-04,-1.106067410537960385e-02,1.247642561793327332e-01
5.083656622044767648e-01,3.943711091018294868e-01,1.410585170581253323e-01,6.674216053600382989e-03,3.575966505568543841e-02,-6.457916165457668056e-02,3.500279784202575684e-01
4.165190371845632900e-01,4.964025465332149722e-01,1.065497616608391263e-01,2.810914667554801835e-02,-3.531871154526916579e-02,-6.157551065647685201e-02,3.804089725017547607e-01
4.191127532520877441e-01,3.544602423561297178e-01,1.756042513822041740e-01,-9.942695830469319707e-03,1.121520145484012189e-03,-9.379372123001697426e-02,2.728095054626464844e-01
3.831655419966522591e-01,3.056547093354057831e-01,2.825888445234039370e-01,3.785398658193689370e-02,3.162777947189125693e-02,-5.302598387333296720e-02,1.551219075918197632e-01
3.341156288491825554e-01,2.754559277885300084e-01,2.047220734813034737e-01,-1.783627888811739615e-02,-2.971299153417616620e-02,-6.272459807935532039e-02,1.673307418823242188e-01
3.359524860026578685e-01,3.017507277306314961e-01,2.985519598956679066e-01,2.199802612841529528e-03,1.002127150183360765e-03,-5.520054687568914931e-03,3.739437088370323181e-02
3.906623398458471397e-01,3.543592168501510375e-01,2.510095084716985059e-01,1.881997344518213100e-02,4.730961248712996225e-02,-6.857593924989971446e-02,1.940003782510757446e-01
4.932823900702610342e-01,2.666764916936988916e-01,3.444460520599589848e-01,6.215567946949138861e-03,5.658071161041360736e-02,-1.279887673229049005e-01,3.140679895877838135e-01
3.839133896246765265e-01,3.802899436453880400e-01,2.307622982158078206e-01,1.099787184324388552e-02,-3.841406676472840925e-02,-1.979369355285427040e-02,1.699370592832565308e-01
3.443214740265949647e-01,3.022535474124384280e-01,2.728887587156801353e-01,-7.707488549841537417e-02,-8.123452545869072616e-02,-1.660763042892651198e-01,3.524628877639770508e-01
3.396401527848605384e-01,3.386192336953700588e-01,2.833640251084733053e-01,1.293163504998500260e-02,9.967900292811016777e-03,-6.698529461322038671e-03,6.360001116991043091e-02
3.365097948411329698e-01,3.258609451648973865e-01,2.865180952425216976e-01,1.219136437165968187e-02,9.890123350134866209e-03,-4.823162323901666534e-03,5.375253036618232727e-02
3.453637550129006195e-01,4.621095950773637107e-01,2.204234304447010295e-01,1.056149808621093117e-01,1.077215727828580855e-01,-7.064152576260379623e-02,3.564715981483459473e-01
3.550497072589344771e-01,3.150077494808537493e-01,3.016681088951765344e-01,5.789450855593323425e-03,3.314731421940729332e-03,-1.527938272515379399e-02,5.611901357769966125e-02
3.557961291653665703e-01,2.525544830867105794e-01,3.412169634361192361e-01,7.258506119016782179e-03,8.218165137401735321e-03,-6.520347342865329132e-03,9.926947951316833496e-02
3.439232497764422858e-01,2.975128299611695115e-01,3.090559477736173344e-01,4.014777667086497775e-03,5.397909474279396352e-03,-7.602408983812123516e-03,4.539391025900840759e-02
3.410847278414333439e-01,3.005840976685835164e-01,2.885751016446050921e-01,2.351261131211416187e-03,1.183500402709310433e-03,-7.104479110082780047e-03,4.942769557237625122e-02
3.116239050284874135e-01,3.118308751620235131e-01,2.593347176926384390e-01,-1.210160081222388245e-02,-1.141487879204290158e-02,-8.814387843643529952e-03,6.171182170510292053e-02
3.181604907105468616e-01,3.291279950840420021e-01,2.635330022486094825e-01,-1.171660683891042297e-02,-1.023511811201271299e-02,-4.930652533241983333e-03,6.710156053304672241e-02
2.961607056358140921e-01,3.371140131988765720e-01,3.061288532327217649e-01,-1.861827278845398087e-03,-3.675425001486991479e-03,-5.590803464141437182e-03,3.889736905694007874e-02
2.973473421026259778e-01,3.259103611258349908e-01,2.994017176757428622e-01,-2.659555852405107949e-04,-6.682205303495582921e-04,-2.504799854839383569e-03,2.795999310910701752e-02
3.009806953519502115e-01,3.064092439344304197e-01,2.912371010558439943e-01,-1.080728937094048783e-02,-9.115304594640837726e-03,-1.050981297887807094e-02,3.329155594110488892e-02
3.281468402259651307e-01,3.001742497100924889e-01,2.982790385125339006e-01,-2.956668102262756826e-03,-8.153098878413754611e-04,-5.586370655560644405e-04,2.946570329368114471e-02
3.444118571961213848e-01,2.677285747133095750e-01,3.005353675204007757e-01,-7.954250272538692951e-04,-2.589848228419160386e-03,-1.148072066966809857e-02,6.970164924860000610e-02
3.394718130094750430e-01,3.001679725868671711e-01,2.931222025654249275e-01,-5.364253066674791806e-03,-1.441869178843351073e-03,-5.186955531098619981e-03,4.521765932440757751e-02
3.554725978242758155e-01,2.052367346956613381e-01,3.793635663327431518e-01,-5.501399083964825243e-02,-9.480315734007692743e-03,1.292701800622360125e-03,1.899608671665191650e-01
3.271168711144646357e-01,2.951356114746129800e-01,2.996646192394376573e-01,-2.192268119884349664e-03,-5.225941742471835322e-03,-3.771901496726980108e-03,3.221025690436363220e-02
3.178438026926854731e-01,3.221998990031543775e-01,3.118268868157218487e-01,-7.407343542291554804e-03,-3.675780887238733891e-03,-6.006389149607415864e-03,1.986855641007423401e-02
3.041180106501933378e-01,3.517633355098971903e-01,3.095104688229133316e-01,2.925822954152679407e-03,-6.622687238704330105e-03,2.122693629320788339e-03,4.704263061285018921e-02
2.444855245743394745e-01,3.347624402213230654e-01,2.738047332865792827e-01,-7.368070940046630816e-03,-3.823612887182310793e-02,-8.490952278425780222e-03,1.054886206984519958e-01
3.282249896818617563e-01,3.194830675936970454e-01,3.215478537097239409e-01,3.467663336214947111e-03,-3.333725985760540526e-03,1.757718012603732855e-03,1.188773848116397858e-02
3.383878889654912681e-01,3.364523180349645037e-01,3.435542145548154958e-01,2.309231211630873026e-02,-1.289068021892314335e-02,1.322311125340938469e-02,5.160680785775184631e-02
3.102989669015143726e-01,3.344906940532509920e-01,3.062238113013581731e-01,3.934945121754117661e-03,-5.471136691828512588e-03,5.317501620959272368e-03,3.035639040172100067e-02
3.100461236778515040e-01,3.407329172267120065e-01,2.998362888238410573e-01,4.334941774019145794e-03,-4.295868561756809034e-03,1.435511691922228055e-03,3.843368217349052429e-02
3.459234738003911236e-01,1.488326802913598479e-01,2.794805001433751657e-01,-5.217806210549032903e-02,-4.264460206129229436e-02,-1.001600899175779658e-01,2.718154191970825195e-01
2.429472468484982495e-01,2.129617258557944259e-01,3.039079620098388279e-01,-1.336455039991417126e-01,-6.706826965754797421e-02,-8.206060378746478368e-02,3.061420023441314697e-01
3.162065069685083829e-01,2.805628942154874128e-01,3.239350588287848720e-01,-3.846224349142781610e-03,-1.199160432339418936e-02,-7.278427815703272796e-03,4.733258485794067383e-02
2.903528086335403491e-01,2.882619390689827865e-01,3.449560615216576420e-01,-1.519370964888194959e-02,-4.400539611974634349e-03,-7.133117915926431071e-04,6.206627562642097473e-02
3.676539678052920257e-01,2.927046354049956389e-01,3.856464201070479714e-01,-6.921313320672911606e-02,-3.319400006232585409e-02,-5.761818644177646442e-02,1.868853121995925903e-01
3.193267669893146699e-01,2.709995563869203594e-01,3.353522905756803341e-01,-4.804874382189752713e-02,-3.332003852441305092e-02,-4.159523011040180962e-02,1.371641904115676880e-01
2.866066832709391887e-01,3.816962197280168168e-01,2.958909456899043167e-01,-1.047538015898264174e-01,-1.292790724696386839e-01,-6.363248335409815715e-02,3.216395080089569092e-01
2.468457188750242948e-01,3.465633013548277130e-01,3.201491204731393703e-01,4.971518842013635323e-04,-1.825934917136737279e-02,2.767383163599073086e-03,9.503301978111267090e-02
3.111379625868245236e-01,3.166064398663737123e-01,3.530222147998744453e-01,9.558417190202450620e-03,7.666490627708812101e-05,1.676177494190854954e-03,4.286826401948928833e-02
4.067129477993220443e-01,4.248387756272129501e-01,3.637670569869654313e-01,3.421121453775217980e-02,6.621165018245203648e-02,-3.391015065302179637e-02,1.518689841032028198e-01
2.982185657569299542e-01,3.178219351257144387e-01,3.351046067400291761e-01,6.288132708925463568e-03,3.986070006965374869e-03,-8.727072136851551573e-03,3.763714805245399475e-02
3.118642765902601144e-01,3.231185549488773678e-01,3.408166459013534655e-01,2.959983763352682078e-03,7.341301131351817173e-04,-5.238887093784569751e-03,2.737333811819553375e-02
5.337048662971521917e-01,3.420381424992466890e-01,5.749180691928743592e-01,1.230964156657209929e-01,5.761334299597319075e-02,-4.000264662033026219e-02,3.264208436012268066e-01
3.039392839963061532e-01,3.025943960270549571e-01,3.294144677242437647e-01,1.040742558711212074e-02,6.350371466168304967e-03,-6.245618944441996487e-03,3.532709181308746338e-02
2.962897416107668769e-01,3.138299514136861368e-01,3.301493808708894639e-01,1.688499825185361611e-02,1.314289088981890515e-02,-1.436211461946888118e-02,5.340932682156562805e-02
3.358210636362837231e-01,2.917873567489022713e-01,3.178083421593060898e-01,9.940109132147758805e-03,8.919244957356282574e-03,-1.088457255907372689e-02,4.858761653304100037e-02
3.254174016388298174e-01,3.228624460036268462e-01,2.567319850809119952e-01,1.843762671256808650e-02,2.729177673332549431e-02,-3.248122425766791777e-02,1.047290638089179993e-01
2.865931281447255397e-01,2.705968599443505651e-01,1.871496898316691304e-01,-3.349482201185384478e-02,-4.892540571616135064e-02,-5.279883692744938989e-02,1.657229661941528320e-01
3.235461120704451465e-01,2.986367910118924995e-01,2.921647059597326512e-01,-5.157153176537510562e-03,-2.039110374461773449e-03,-2.470587251993001769e-03,3.056389093399047852e-02
3.230513858301025110e-01,3.020767248888074907e-01,3.049538259703115650e-01,-1.386561027084240363e-03,-1.043627830244788163e-03,-4.226937556761329153e-04,1.993587240576744080e-02
3.926827947169987398e-01,2.151005297787688675e-01,3.257882687714915293e-01,-3.382060050178820054e-02,-2.351429193738879125e-02,-7.858503112855672046e-02,2.185134887695312500e-01
3.364601805479002783e-01,3.171854083339992747e-01,2.649883088099291295e-01,-2.536616642383372755e-02,-6.496770294991272010e-02,-6.449066254560839595e-02,1.765559762716293335e-01
2.534636735826353848e-01,2.632870866507363017e-01,2.722166528702477106e-01,-5.460421885352832738e-02,-5.362338620178775522e-02,-4.530792884529468573e-02,1.548988223075866699e-01
3.351414477642760681e-01,2.884653124211618569e-01,3.094314267123211559e-01,2.614478850182427438e-03,-6.042741906363280346e-03,8.750506646069022842e-03,4.471450671553611755e-02
1.563285711169139225e-01,2.274699331016542536e-01,2.690698159806919065e-01,1.298463420348280328e-01,-7.814092454728456538e-02,8.259200271537650573e-02,3.148232102394104004e-01
2.865049165305966761e-01,3.381278429662055163e-01,3.563345969784539324e-01,4.185885465699622394e-03,8.965665724469960634e-04,4.902488633390586492e-03,6.374463438987731934e-02
2.917953975098584452e-01,3.583830081896307584e-01,3.427783759955301268e-01,1.066161812437301654e-02,-9.131199867976514881e-03,1.124253975500837631e-02,6.788718700408935547e-02
3.055021442407267473e-01,3.287179458141305521e-01,3.115825013389066922e-01,1.347341447570009646e-03,-1.979868579655697652e-03,3.869285798688142184e-03,2.229133434593677521e-02
3.258916884420124394e-01,3.018114510931452221e-01,3.487871071925876532e-01,1.852874373316552165e-02,-7.474251174138275312e-03,6.116163974588102910e-03,5.445313453674316406e-02
3.347735145809377366e-01,2.390085626206792102e-01,3.402227604370238190e-01,3.402819541167213802e-02,-6.502158300887397532e-03,2.321487645856670085e-02,1.222286671400070190e-01
3.283663294802803279e-01,2.950368788264480235e-01,3.334358069885803300e-01,4.198447820756298979e-03,-9.645015366004290949e-03,7.342452311699205689e-03,4.241709038615226746e-02
5.021941630159475478e-01,4.481797232583680235e-01,4.702752607370680460e-01,1.394038405956762317e-01,-5.243480008193249914e-02,1.579842076005308904e-01,3.789958357810974121e-01
3.968744926873020717e-01,2.531239628755843074e-01,3.785021376731512177e-01,1.497082679534495198e-01,2.585907302493211171e-03,-8.523862580566123059e-03,2.929785847663879395e-01
4.052750455940629104e-01,3.356989668035333385e-01,3.234103891351728377e-01,3.777581426297609013e-02,3.296169795488948506e-02,-7.762761440711038463e-02,1.773849725723266602e-01
4.610507769033500014e-01,2.414734215674659290e-01,3.926725151665587665e-01,4.419492260747164003e-02,-3.204692804920448307e-02,7.473179767974227894e-02,2.521321177482604980e-01
3.544591361987409206e-01,2.702504894352736331e-02,3.124157976139694259e-01,1.139739530639662969e-02,1.309363427602110164e-02,-7.265265310799395859e-02,3.345946073532104492e-01
3.409016710786179072e-01,2.400981531091309074e-01,3.330836691608042854e-01,3.627927356997887043e-02,2.595539698655027067e-02,-3.095266945832186520e-02,1.351968795061111450e-01
3.710269316940009721e-01,2.853461028496998564e-01,3.898825956419394445e-01,1.753761134827926810e-02,8.385843848675220841e-03,2.224436369061017198e-03,1.022781729698181152e-01
3.510898424953802777e-01,2.935549758278963028e-01,3.488221362968336181e-01,1.766086181065014762e-02,2.012722710797130304e-02,-1.843539892614943013e-02,7.972174882888793945e-02
2.577525523535437735e-01,3.438113091624183659e-01,3.466383079322573058e-01,-8.077621294322495302e-03,4.097097005293891259e-03,7.497355802725105822e-03,8.984499424695968628e-02
2.788063137800255165e-01,3.522313239961967213e-01,3.310823462145183749e-01,-9.709562074215011230e-04,6.708688865011743635e-03,3.230886524048456627e-03,6.674437224864959717e-02
2.998087196134627819e-01,3.712960317288107603e-01,3.435150600056324777e-01,4.733833799481047995e-03,1.046965755400091833e-02,1.699472472913024978e-03,6.558173894882202148e-02
2.297380242295940789e-01,3.682519265393384145e-01,3.615308353389752871e-01,-2.005835505455324814e-03,5.261273804581616514e-04,6.620677948581792918e-04,1.353311687707901001e-01
1.707787697687409012e-01,3.026006888417996366e-01,3.273118380362216584e-01,-9.086831407697737450e-02,-6.938789673163039962e-02,-3.411466074651235691e-02,2.528868317604064941e-01
3.084915201099973081e-01,3.362504629258984967e-01,3.057390608135388543e-01,-2.341242691261020969e-03,1.356071172954719482e-03,1.275298528345370289e-03,2.968805283308029175e-02
2.789362065669485080e-01,5.021180162582042916e-01,5.927408885519634962e-01,-1.297841389398744494e-01,6.284737727368616689e-02,6.930698096790011142e-02,3.937505781650543213e-01
2.210403395676578953e-01,3.556049497890033662e-01,3.537346300525492371e-01,-4.539011431450494169e-03,-3.902704484420633385e-04,9.953591637968087940e-05,1.338721364736557007e-01
3.201189513167937983e-01,3.050336406068143158e-01,3.210521146177119367e-01,2.129532959212592121e-03,4.774059765193254881e-03,-1.661707188734621796e-03,1.824220269918441772e-02
3.200619421049049063e-01,2.902514701177099643e-01,3.510556807566420634e-01,1.887294702902281296e-02,1.542935227697499884e-02,-1.229405567893621966e-02,7.077714800834655762e-02
3.293727329086475475e-01,2.955382587370657399e-01,3.327687484496594794e-01,3.673274970971135336e-03,9.499436335895655031e-03,-4.549722132542306091e-03,4.055247828364372253e-02
4.868112077292573447e-01,2.065391766681367869e-01,4.092855442322815285e-01,2.657526568264993033e-02,7.111093378840385726e-02,-9.734652214265510084e-02,3.294729590415954590e-01
3.222813765645196615e-01,3.033884357598658488e-01,3.435924204720506303e-01,4.100793193317945132e-03,5.181012126374038435e-03,-8.994765901082328596e-04,3.670337051153182983e-02
3.154957152081598881e-01,2.906833220716601440e-01,3.376746562983472533e-01,7.699182577030815218e-03,7.392642910364581078e-03,-2.677528775463258910e-03,4.495738074183464050e-02
3.875361759594085354e-01,3.972759541755769841e-01,3.812835029907786222e-01,5.745760903429009137e-02,6.891269566252584966e-02,-3.792225356359310573e-02,1.692931205034255981e-01
2.934262890023260351e-01,2.925991684947780724e-01,3.399936745208197442e-01,1.642676932273415269e-02,-1.059624742421062023e-03,2.628965096220967860e-03,5.514835938811302185e-02
2.919294072028708609e-01,2.967506123347292135e-01,3.259523913303543075e-01,-4.514601250768626381e-03,-1.824675241205053538e-03,-4.896628014006052486e-03,3.405642136931419373e-02
3.259105116353189224e-01,2.721053052944846784e-01,2.542349252537405291e-01,4.514914854593893127e-03,4.949810509487600346e-03,-3.507984546222705363e-02,8.945564180612564087e-02
2.902212971495965466e-01,2.739711319577582960e-01,3.155013748406006457e-01,-2.637125192317630457e-02,-2.358581635248392996e-02,-1.973073438768866220e-02,7.897507399320602417e-02
3.425627398848611338e-01,2.999337544128781174e-01,2.979790282811167756e-01,-5.502563653289532959e-03,-5.539522817156175907e-03,-1.080061028524486287e-02,4.936833307147026062e-02
3.642309650593386072e-01,3.512048249778469411e-01,2.806071047323783207e-01,6.756520047547567680e-03,6.078467739840974667e-03,-2.922775466433076563e-02,9.425451606512069702e-02
3.288486827582335348e-01,1.655507158344169949e-01,6.537979608250711616e-02,6.150154670703457740e-03,2.039958143847123151e-02,-1.546522905708673512e-01,3.552070260047912598e-01
3.326507139430842086e-01,2.492414040491532645e-01,3.389392249792317902e-01,-8.021911740603723806e-03,-1.010342122659982182e-02,-1.154607658232645155e-02,9.176276624202728271e-02
3.561543929518465323e-01,2.391680753971283380e-01,3.349826558642552410e-01,-4.240864665036774353e-03,-3.917491949888834632e-03,-7.699821436924286604e-03,1.092478558421134949e-01
3.165822322227197505e-01,2.800728774041926217e-01,3.213110457443053014e-01,-4.802791945870979462e-03,-1.052166947460778448e-02,-6.439860887511839570e-03,4.531747102737426758e-02
3.439535274232895512e-01,2.206505667568129381e-01,3.519127150549809513e-01,3.250412564934468396e-02,4.561155776320467009e-03,-1.348826529534220484e-02,1.415137052536010742e-01
3.188435921313373389e-01,2.719553968542093858e-01,3.162464501865823174e-01,-8.912492083407174553e-03,-1.032251480953552854e-02,-4.840919132657536816e-03,5.207433924078941345e-02
3.190142532517565299e-01,1.981961543078223642e-01,3.401567092767471268e-01,-4.897886544882670140e-02,-5.226225450168825101e-03,-6.885741376681219113e-03,1.581751406192779541e-01
3.400810714720558514e-01,3.321693089466547510e-01,2.393109737981569396e-01,1.513970834605596685e-02,2.364685712494619257e-02,-4.949836296665123536e-02,1.383306086063385010e-01
2.972563109259792058e-01,2.928443835732472689e-01,3.194532307194249965e-01,-4.230177158354952310e-03,-5.475393637839130745e-03,-2.435170687887035050e-03,2.777611836791038513e-02
3.430305018248337445e-01,3.165100256865105433e-01,2.642664991794721474e-01,8.325162227339765603e-03,6.482274953785339446e-03,-7.587676610588932509e-03,7.297223806381225586e-02
3.451276954140379827e-01,3.105833345362924436e-01,2.973678352462266195e-01,1.737174868988935030e-03,1.633794181386116892e-03,-3.135778933380297187e-03,4.325556382536888123e-02
3.437137033848861600e-01,3.456608384397344413e-01,2.294081930492583854e-01,1.045680796271313343e-02,7.780518100400613327e-03,-1.567429479514596824e-02,1.205769628286361694e-01
3.402106219078891991e-01,3.422837757746130527e-01,2.702279121575160703e-01,1.400559087743010606e-02,1.636191047422818484e-02,-3.697577220431874211e-03,8.049587160348892212e-02
3.439244824080893159e-01,3.126382715333936857e-01,2.404891242924564465e-01,1.437568033665900758e-03,-1.242451567132120665e-03,-1.879215160642921240e-02,9.752879291772842407e-02
3.269079378461487995e-01,2.758982921166950320e-01,3.710556762445719747e-01,-1.535522447766307641e-02,9.352315122732254848e-03,1.277227624368851983e-02,9.089612960815429688e-02
3.217952902113909164e-01,3.111518837787297098e-01,3.381969898333206381e-01,-1.263197446847079235e-02,7.649443933358223736e-03,8.946846942558457985e-03,3.809525445103645325e-02
3.225837206925188938e-01,2.787251655484395130e-01,3.498269572630112734e-01,-6.886075695882893158e-03,5.407865571300341651e-03,1.957391162184258376e-03,6.404763460159301758e-02
7.464903245872789306e-03,2.510756015360878779e-01,2.994168158180016692e-01,-1.241935722671116821e-01,-6.252040276244325012e-02,-3.019200402770128369e-02,3.663232028484344482e-01
2.339821697036384984e-01,4.369511646516029968e-01,3.903205592977787575e-01,-4.664913717960876560e-02,1.172198875546703323e-01,-8.550425473515900487e-03,2.861389815807342529e-01
2.387142805189220729e-01,2.016086358508445142e-01,3.427747821135724848e-01,-1.076521437890839150e-01,6.732435965842549497e-02,6.166079302733015743e-02,2.753860354423522949e-01
3.455327740303705264e-01,2.587840378254521734e-01,3.419484058754508893e-01,-2.180668967289083222e-03,9.495630071832093788e-03,1.614316718376991588e-02,9.107043594121932983e-02
2.978710807694849305e-01,3.013850411369642934e-01,3.151391421939895299e-01,-2.705638231913058862e-03,-2.636837463479827382e-03,-6.506916082002802727e-03,2.048644982278347015e-02
3.516649953007457974e-01,3.280666893884638391e-01,2.792248480062944904e-01,5.451935104412428124e-03,-3.865571692316335274e-03,4.200194787884681952e-02,9.757807105779647827e-02
3.583024177281366462e-01,2.817753264331376295e-01,3.279578289319045603e-01,2.535496219767185283e-03,2.112346459719598515e-03,8.493988186124418888e-03,6.858660280704498291e-02
3.177723804371665461e-01,3.130999249675014418e-01,3.262846985049371318e-01,-2.599838303050509315e-03,3.327715094696862951e-03,1.904216232296705768e-03,1.408692635595798492e-02
3.583552301332648682e-01,2.246435758571303232e-01,3.962411967833768811e-01,-4.528317159682010429e-02,5.325836921757970757e-03,-1.922635990453833849e-02,1.781170964241027832e-01
3.216715070215364070e-01,2.823893829367909447e-01,2.506749233743318928e-01,-1.258603651633520559e-02,1.485058274451107538e-02,3.988068221290096138e-02,9.850357472896575928e-02
3.533497071563349579e-01,2.849006308037584922e-01,3.028465377676656800e-01,-2.861339685954428225e-02,4.659564690593498426e-02,5.311824558769732280e-02,1.456476449966430664e-01
3.501771899455369264e-01,3.287500939893372998e-01,2.751962800386880126e-01,7.980618423516834536e-03,1.335578998516874852e-02,-2.581724680439447667e-02,8.485533297061920166e-02
3.070962613973767796e-01,2.006643483129718075e-01,1.723899610164165708e-01,6.878716817171486031e-02,6.442383086029937478e-02,-1.303180133456575129e-01,3.045179247856140137e-01
3.889197431168388563e-01,3.344322566179614431e-01,2.589151465923196227e-01,9.268743225078984391e-03,1.760445621004442379e-02,-4.086267974887155402e-02,1.377795785665512085e-01
3.730958176561463002e-01,3.402896626372533539e-01,2.864316092443862094e-01,6.139924601800040953e-03,4.770473470817481257e-03,-2.803092742974417489e-02,9.100756049156188965e-02
3.359643319384268967e-01,3.133580059672015916e-01,2.453747773176586378e-01,8.285602078106611007e-03,6.436260052941106431e-03,-1.560803727129937354e-02,8.792427927255630493e-02
3.395619296863403580e-01,2.837387965879520912e-01,3.134061527733305041e-01,6.277113536571611542e-04,6.830572751106978729e-03,-1.267205080569947483e-02,5.443477258086204529e-02
3.243738813782859887e-01,2.959447541240941004e-01,3.043840945543070386e-01,5.296510136041579844e-03,7.100010505726751624e-03,-5.796308819861257892e-03,3.123612888157367706e-02
3.691053638863449615e-01,3.268474413204450202e-01,2.043764172823118175e-01,1.127722625182115031e-02,1.488177303502933105e-02,-6.707087146692741753e-02,1.910541504621505737e-01
3.298287179437813244e-01,3.175132153932762047e-01,2.646330310291712395e-01,-1.121061275833891598e-02,-5.738332000893817640e-03,-1.098259987638904207e-02,6.661008298397064209e-02
3.203465698595157618e-01,3.085187516115338036e-01,2.909424264487620038e-01,-8.164338672725075449e-03,-8.442941571261356609e-03,-6.772364533585109592e-03,3.475813567638397217e-02
3.267794061296004360e-01,2.997975650567833439e-01,3.154225417587261382e-01,-1.028127051386870314e-02,-9.169398283856790982e-03,-1.155869322838682170e-02,3.899649158120155334e-02
2.968302710654822096e-01,3.164533788540014325e-01,3.497428098030385124e-01,-4.039599921889721473e-02,-3.053643735762347211e-02,-2.243137966865179495e-02,1.065313443541526794e-01
3.383829352241571331e-01,2.935073102368241371e-01,2.880319298961365182e-01,-2.020432651133791807e-03,-1.151663081355941334e-03,-5.036607533189218708e-03,4.880410060286521912e-02
3.526337779011762819e-01,3.212167098103427820e-01,2.700337021850291452e-01,-3.354446772823863141e-03,-3.113754287617903280e-03,-6.535780198609234676e-03,7.352377474308013916e-02
3.370429463386251934e-01,2.912813264512482681e-01,2.981155841314233612e-01,-2.340036508343711942e-03,-4.887197259981106330e-03,-4.613709853109567924e-03,4.449748992919921875e-02
3.517736337928029089e-01,3.411265871434993047e-01,2.490234406676783974e-01,-7.888653770485296035e-03,-9.214148139465347387e-03,-7.103623936976060857e-03,1.008452028036117554e-01
3.603464660584527746e-01,3.688690634902276333e-01,2.094794945446067647e-01,3.707182297185172143e-03,-7.018730103994680856e-03,1.693782364815861561e-03,1.559386998414993286e-01
3.500918188224420025e-01,1.829284850684419761e-01,1.641629152943737679e-01,-3.267479500829771621e-02,-3.709415290214532201e-02,-1.649942569072591070e-01,3.470343053340911865e-01
3.249522751134938936e-01,3.000236282429472601e-01,3.071692313673266561e-01,1.373804814863324036e-02,1.412808468901928342e-02,-1.862459811295736831e-02,5.196156352758407593e-02
3.211914712561819152e-01,3.398561577704435899e-01,2.940786318943065525e-01,6.392109839075122736e-03,5.374445258390219207e-03,-2.386278266208382518e-03,4.261271283030509949e-02
3.197118097119400204e-01,3.460849068681471907e-01,3.010721429308512720e-01,5.408332459722260330e-03,3.148948150356204422e-03,-1.948028025609154857e-03,4.078535735607147217e-02
2.524545074701800007e-01,3.320226678918085095e-01,2.980974402678917556e-01,1.499013867160445442e-02,3.734193694798763896e-02,-1.221448720342338361e-02,1.004370450973510742e-01
3.216610537959417315e-01,3.473928769039301701e-01,2.994396451146948968e-01,-1.628735518229133296e-04,4.982488595483725892e-03,-1.128266202542916631e-03,4.249810799956321716e-02
3.087292130949856328e-01,3.492134478084190086e-01,3.154990126460034960e-01,1.513258734403048972e-03,3.925562394109499004e-03,5.365055355344380307e-04,3.827135637402534485e-02
2.820045186361870293e-01,3.251415556270370599e-01,3.091376478691195140e-01,9.455777034890772842e-03,5.904753897341078611e-03,-8.964008464256309483e-03,4.517146944999694824e-02
3.123400260577476328e-01,3.395582705273277324e-01,3.075234809225362298e-01,4.873710897994345398e-03,4.397097024023905246e-03,-1.843068328676384510e-03,3.216493502259254456e-02
1.529388902936918981e-01,3.965724088121792557e-01,3.566481703248765567e-01,5.985378826427715376e-02,7.317710104870062127e-02,5.274007522368935261e-03,2.794993519783020020e-01
2.280677786895637105e-01,2.938451963754524221e-01,2.466258644931054178e-01,9.141863100479397097e-02,1.067181899896802316e-01,-5.756589253070122647e-02,2.695000469684600830e-01
2.831229414820096157e-01,5.349098068344102508e-01,5.838798168005965294e-01,1.196771070146157162e-01,4.646909761821919893e-02,2.984429255836377679e-02,3.608915209770202637e-01
3.028118808258109529e-01,3.024180222482282243e-01,3.019199490572823663e-01,-1.760332699473621688e-03,-4.250475574471410632e-03,-2.237181067640931897e-03,8.894394151866436005e-03
2.456782749629243534e-01,3.486548937676359761e-01,3.427489528672436614e-01,1.914416184292493106e-02,2.421868972565800748e-02,-3.217318105035180467e-03,1.136709079146385193e-01
3.072120971819199409e-01,3.502011125527311197e-01,3.145763514077596357e-01,9.408278344350658401e-04,5.687715604945539280e-03,-5.638772404703404264e-04,4.106537997722625732e-02
2.622481094450833106e-01,3.485984680376676970e-01,3.364714195384909678e-01,9.331053956959280008e-04,1.703762296847140950e-02,-2.147706516412620659e-03,8.627610653638839722e-02
2.332962651946057231e-01,3.612111921667455761e-01,3.601188359587726429e-01,2.861314508292870686e-03,-7.265175407575257938e-06,2.094800874866858985e-04,1.274691522121429443e-01
3.764887906663414996e-01,2.320895176712158559e-01,3.651486639229974962e-01,9.238726021354253491e-04,-1.568793319293734431e-03,-6.118397353944654213e-03,1.395152062177658081e-01
3.448374930353230727e-01,2.660111326682788602e-01,3.571231548624775876e-01,1.470860547372797485e-02,1.012347654201244812e-02,-4.699504862013434772e-03,9.140954911708831787e-02
3.436023296623913481e-01,2.531938266677192240e-01,3.393620170528840463e-01,4.362757661933525447e-03,9.505066800263816534e-03,-1.121812638419977803e-02,9.227132052183151245e-02
3.324296857285021778e-01,5.480996339628491087e-02,3.329147076328477506e-01,8.326206104819350307e-02,1.930028777781382307e-02,-1.471079175205298323e-02,3.158671259880065918e-01
3.664924423104304330e-01,2.528729376543807916e-01,3.686741803882594981e-01,8.965147907759225127e-03,7.144868608042108382e-03,-1.224158222062687700e-02,1.183464303612709045e-01
3.480885414840080294e-01,2.684510892584429653e-01,3.613533065229058705e-01,3.196656946473258598e-02,-4.622199924873105631e-03,3.268709315490960464e-03,1.036155521869659424e-01
3.239663823379440588e-01,3.008953965543922360e-01,3.532213406905173048e-01,2.076712739927929346e-02,-4.705087942523491704e-03,1.241198938391209830e-02,6.233354285359382629e-02
2.882759825367218198e-01,6.362987984872620073e-02,2.352954160682579898e-01,9.201115801413382866e-02,4.774870869957457964e-02,-1.223465238862475324e-01,3.442599773406982422e-01
3.563922547981819289e-01,2.455895444122640214e-01,3.694755374792886293e-01,-1.257090538352462726e-02,3.503739640596311745e-03,4.557464271568315364e-03,1.202967092394828796e-01
3.908052939673306025e-01,2.228244604852798738e-01,3.785390223539622512e-01,3.303337754551352590e-02,-4.322747396315207262e-03,1.907155237261879636e-03,1.721862554550170898e-01
3.121739181218033954e-01,-1.909839186020242940e-02,2.991756545260174649e-01,1.439209656763792977e-02,2.621254424296871020e-03,6.443181688913668381e-02,3.445297181606292725e-01
3.104217487550798293e-01,3.290343038871146319e-01,3.294934134468031073e-01,-7.665549366827511743e-03,7.199818245614160277e-03,4.564241782053645932e-03,2.737652696669101715e-02
3.132414720855073997e-01,3.128375881668680192e-01,3.185338895762540035e-01,-3.282700867561984975e-04,9.010056271726162198e-04,2.829103126031936536e-03,7.555164862424135208e-03
3.181215395724454331e-01,2.985809279066395927e-01,3.274331734034142127e-01,-2.748974153135193277e-03,7.193514144974557344e-03,2.175117230717214280e-03,2.902759052813053131e-02
3.192528803662346704e-01,2.995878212281529729e-01,3.165178805626827074e-01,-2.911612384104089735e-03,7.555307962216319465e-03,5.098779527882233917e-03,2.480088733136653900e-02
3.010623819325869976e-01,3.040742624371310376e-01,3.141076524054460806e-01,-1.085737556052460313e-02,5.989564322971657404e-03,6.891999841176370094e-03,2.727143466472625732e-02
3.140561601183556872e-01,3.290342451937479096e-01,3.217431129034419857e-01,-1.139079716130283202e-03,1.817970457339036566e-03,5.807592048094645763e-03,1.683117263019084930e-02
3.178637079331059767e-01,3.212581800269938004e-01,3.240087861625020604e-01,-1.047937183169249603e-03,1.062386545748153282e-03,4.843841491481100706e-04,5.984106101095676422e-03
3.198397913336150644e-01,3.182609343897352949e-01,3.186949003862918905e-01,-9.554926090634186832e-04,1.798076033941510207e-03,5.254177060614578093e-04,3.906695172190666199e-03
3.186464831380256824e-01,3.263527238891161253e-01,3.183649654641483306e-01,-7.471273183669327423e-04,8.900909369353366719e-04,6.716704986664953289e-04,8.187774568796157837e-03
3.215525772100704116e-01,3.102862041119278658e-01,3.279884572202944049e-01,-1.926268477560373268e-03,5.565528727044343274e-03,1.729803690777167047e-03,1.881207711994647980e-02
3.726449754279099746e-01,3.150418319499818653e-01,3.374606940048286985e-01,3.893641410371954936e-02,-3.805097137138806207e-02,5.206829214197116612e-02,1.398371011018753052e-01
2.578519834861551785e-01,3.283038522284426053e-01,2.740589177245904007e-01,4.817813150785947747e-03,-3.288912735265797638e-02,4.440513508385724242e-03,8.636083453893661499e-02
2.064588339297094566e-01,2.627736932662126379e-01,2.021935526704246866e-01,9.518868732988933212e-02,-9.558177351438590374e-02,9.435098312515834140e-02,2.910779416561126709e-01
2.709698142645026175e-01,3.345994925022233168e-01,3.646091370842867163e-01,8.915709262206632235e-02,-1.009113397916559796e-01,1.037767628338057829e-01,3.058822154998779297e-01
3.168103146820124838e-01,4.087273064327957561e-01,4.041709755299681128e-01,1.699139680344180503e-01,-3.615476175880487364e-02,1.177454439987880574e-01,3.744014203548431396e-01
2.601276316027736346e-01,3.994587359095613799e-01,3.785474311839960304e-01,6.516234848422278181e-02,-1.127905062345259668e-01,7.812694255635396767e-02,2.935162484645843506e-01
2.334149126575822408e-01,3.227608366451883981e-01,2.806386679321680178e-01,5.811497373952089450e-03,-3.181794380485201967e-02,1.006812048028517606e-02,9.713955968618392944e-02
3.406460929181673869e-01,3.450073589451199685e-01,3.887546346566495559e-01,6.045677555786131002e-02,-3.419381728875040688e-02,3.528261077257443395e-02,1.425866186618804932e-01
3.631049854117859299e-01,3.445918761999743896e-01,3.012126558650954355e-01,1.289125405783728313e-02,-1.250982053824161583e-02,1.583710860129774328e-02,6.890615820884704590e-02
3.101327461089600779e-01,2.382475094725979570e-01,3.119943899745223903e-01,8.080295621363740854e-02,-3.830973547474980645e-02,9.075422641028532689e-02,2.323876619338989258e-01
3.109095444119985285e-01,2.962314021264080277e-01,3.124187678724950068e-01,-8.049301391825233742e-03,-7.938161918901787129e-03,-9.376058861655531262e-03,2.978299185633659363e-02
3.505452934632232731e-01,2.546646916793660620e-01,3.283179854427555888e-01,-3.238591865352594568e-03,5.276228555472942811e-03,1.520397694490633125e-02,9.145730733871459961e-02
3.289370735154550363e-01,3.028573796161913578e-01,3.180715157106978053e-01,2.857449608405750879e-03,-6.720150474320471176e-03,4.367987400066868781e-03,2.705650776624679565e-02
3.370756706654727264e-01,2.626105365712234629e-01,3.536581774495593522e-01,1.611225973079362037e-02,-4.650564677013725723e-03,1.800898965704817540e-03,8.892852067947387695e-02
3.383292030008621665e-01,2.673426873695158856e-01,3.047288527514937506e-01,1.022104565628843137e-02,-7.017963936528095852e-03,3.379873494321564142e-02,8.758495748043060303e-02
3.598602035337816751e-01,8.787293805783619183e-02,3.148624624850407394e-01,-2.229896464581544030e-02,1.754454652021187472e-02,1.009737464879630897e-01,3.110712468624114990e-01
3.071310924646473151e-01,3.133678221086415028e-01,3.081792267889885695e-01,-1.115576640905749763e-03,-3.244999957785879888e-05,-2.359640874228092350e-03,7.341584190726280212e-03
3.098547912111200842e-01,3.154409382446803911e-01,3.066138826353315139e-01,-5.103963184644681045e-04,-1.158796062166401498e-03,-1.774047889017565677e-03,8.606066927313804626e-03
3.032482115703352687e-01,3.165343194489862455e-01,3.003753447491941952e-01,-2.536586534419849048e-03,-6.177497050225920754e-04,-7.689947516466759479e-04,1.565774530172348022e-02
3.535706087651522833e-01,3.100932936408208329e-01,3.762321314813317219e-01,-7.691123365068133766e-02,-4.982092999108127945e-02,-5.239986180469449750e-02,1.918820142745971680e-01
2.949754309656187345e-01,3.112588759055229803e-01,3.061361442537892663e-01,-1.197448364239014906e-02,-1.329782470029044344e-02,-1.544497268769886265e-02,4.340829327702522278e-02
3.125215833684755751e-01,2.959842136965833426e-01,2.996357029560586249e-01,-3.418767044057947468e-03,-4.036204823337907234e-03,-1.605728581385982602e-03,1.783546432852745056e-02
3.153450022640881256e-01,3.099055933101217408e-01,2.970880791452069070e-01,-6.451341830087815518e-03,-1.052040848907289695e-03,-2.240366862783140650e-03,2.017010375857353210e-02
2.699491320027758712e-01,3.244994613044064335e-01,3.288622053131287637e-01,-4.764291769592219478e-02,-2.748380782945661002e-02,-2.180882652148485173e-02,1.171975135803222656e-01
2.995189326393555840e-01,2.828568776990713074e-01,2.990513484187105053e-01,-4.991002564261746294e-03,-8.898734576237059962e-03,-4.791061991235294470e-03,2.551876567304134369e-02
3.104104819980426644e-01,3.008396976193092320e-01,3.099104336686901995e-01,-8.469753057174409308e-03,-7.686463925905687340e-03,-8.357421609400964013e-03,2.624993212521076202e-02
2.921871812890923792e-01,3.183335003934644747e-01,2.957241337877228315e-01,-2.688233163572751640e-03,-4.756518995363988658e-03,-5.778164723652380770e-03,2.816694043576717377e-02
3.224337838433677383e-01,3.366755123291654828e-01,2.271743958823201348e-01,-2.764104417407906022e-02,-5.642129061379180105e-02,-6.728342284314622890e-02,1.898872852325439453e-01
4.378411837148306063e-01,1.750665995579319956e-01,2.438282033457904452e-01,-5.370784485145977533e-02,-5.148147041183957079e-02,-1.296071515996586598e-01,3.502977490425109863e-01
3.179731328049064665e-01,3.146830031589890608e-01,1.463586692630880759e-01,-4.340803234510721975e-02,-9.176606844163705257e-02,-8.416018631615197754e-02,2.847144603729248047e-01
3.530086376567105333e-01,3.455702458453017711e-01,2.917333117967380596e-01,-9.100990299335667139e-03,-1.602266485429635484e-02,-2.224388711019024273e-02,7.653259485960006714e-02
3.323252403838333757e-01,2.505541302351009803e-01,2.561527559524504061e-01,-1.219370646437648725e-01,-8.953250162149045677e-02,-1.231167794263753473e-01,3.469689190387725830e-01
3.326867954574881381e-01,2.442422647359445698e-01,3.494352567132813503e-01,-9.169615685764577473e-02,-4.898630647212712935e-02,-1.179344790924941877e-01,2.893672585487365723e-01
3.237078856775140734e-01,2.424301185036689676e-01,1.634225269972354733e-01,-4.549146131749630395e-02,-7.431555689322133507e-02,-1.230225567719445412e-01,2.957199811935424805e-01
4.031054908240545576e-01,3.379931531982079962e-01,8.180153396580708280e-02,1.480301050553931713e-02,-2.820968914033845573e-02,-1.834168328760724942e-01,4.364916384220123291e-01
2.909908754702610900e-01,3.057967417608400962e-01,3.115590963835717098e-01,-5.387413125263897096e-03,-8.877201373828212672e-03,-6.948935958241751407e-03,2.839163504540920258e-02
3.652677511944052435e-01,6.247983154938271944e-02,3.112564284273849902e-01,-1.713479028531478959e-02,7.484800987307923571e-03,-9.498399424814815695e-02,3.261265456676483154e-01
3.937380355577261848e-01,2.962553880858681543e-01,4.008205741976332837e-01,-6.605421566518124288e-02,-3.091261699210789970e-02,-6.528947356585110273e-02,1.974534094333648682e-01
2.758768492764067659e-01,3.231432511650724759e-01,3.553568434142059251e-01,-6.484622253982137187e-03,7.410127405684667793e-04,1.828993535669642219e-03,7.023021578788757324e-02
3.279035726384655347e-01,2.968130523335159587e-01,3.088451295648803052e-01,-2.292768967628480009e-02,-2.125497247027830633e-02,-2.680204912976295178e-02,7.631982862949371338e-02
3.450835782806828123e-01,2.941766812385611662e-01,2.989926522502278639e-01,-2.473150829376265930e-03,-3.129130588968524491e-03,-4.270745920075911563e-03,4.971902444958686829e-02
2.087094721355387539e-01,1.680559897291035165e-01,1.886740129433659430e-01,-1.151784147394824820e-01,-1.000061003164682272e-01,-1.247197438253791757e-01,3.430838286876678467e-01
3.041288224565680265e-01,2.413377152023891137e-01,2.433476558109237686e-01,-6.196101921249933669e-02,-7.254887393092496195e-02,-1.118339429815099484e-01,2.620087265968322754e-01
2.122888341768260911e-01,3.442712496249861198e-01,3.257761303577376144e-01,-1.070548987219723108e-01,-9.327686774004767534e-02,-7.613665569621336227e-02,3.052781522274017334e-01
3.245768753165232945e-01,3.332558927527146109e-01,2.591753304226565580e-01,-7.081580973149069480e-02,-1.401824256510490474e-01,-1.105083216918713029e-01,3.399331569671630859e-01
2.785488055769203553e-01,1.788129876397789864e-01,2.846776146882751268e-01,-9.653309164037519874e-02,-5.585785681273982423e-02,-9.261830355820058203e-02,2.713792920112609863e-01
3.047780130380544072e-01,5.758248211093186519e-02,3.300793892121565154e-01,-9.506572371852269054e-02,-1.117015609390899222e-02,-3.682175767322361237e-02,3.155225813388824463e-01
3.018432566331513689e-01,3.106843259314639449e-01,3.044789141454803394e-01,-1.999686944875674749e-03,-2.480003681136377924e-03,-4.152794660442991545e-03,1.199974026530981064e-02
3.084809332166082996e-01,2.915140944981542415e-01,3.361115090367641223e-01,-4.395302536249589241e-03,-5.575032170793210035e-03,-2.848703085742886054e-03,4.117851704359054565e-02
2.945577317734511258e-01,2.889970510430753259e-01,3.363447946005209133e-01,-4.730053094078113043e-03,-5.243393240049630186e-03,-2.743170292183647573e-03,4.670780524611473083e-02
2.261135166193261048e-01,2.399177829118696037e-01,3.177425275987612596e-01,-9.925259424101351424e-02,-3.669069846995690748e-02,-4.694415892395132489e-02,2.180015593767166138e-01
3.048410897680093878e-01,3.054420432758385706e-01,3.039096764793558503e-01,-3.477325042089939467e-03,-2.881760811420770122e-03,-4.161282762525048834e-03,1.072036568075418472e-02
2.859868262495982583e-01,1.276788149023116992e-01,3.230726654430857714e-01,-9.765269481436247845e-02,-3.499420090784201298e-02,-7.385377783591362544e-02,2.845221161842346191e-01
3.460688435113437045e-01,1.765951800723856713e-01,3.418223508219441764e-01,-1.979163504521815747e-02,-2.610732421030511827e-03,-3.026320103821545510e-02,1.787815541028976440e-01
3.312891309148650598e-01,4.264665890038144003e-01,3.996024380513633623e-01,-9.912635010348908732e-03,4.958806010623816041e-02,2.279266340166638191e-02,1.282723397016525269e-01
3.291903814729920663e-01,2.129884205226726113e-01,3.437151394762674173e-01,-1.684024390345473243e-02,-5.507733249410080162e-03,-5.039752788698735435e-03,1.281391978263854980e-01
3.623684758136122563e-01,2.375985217788407766e-01,3.628968589096024933e-01,-6.014730491556667148e-03,-2.999340402903429015e-03,-1.156841002255444908e-02,1.271642595529556274e-01
3.568321173114206712e-01,2.346730720292553585e-01,3.743111557779538190e-01,-1.477132313262200479e-02,3.425738325625987115e-04,-9.855299281725051798e-04,1.342438608407974243e-01
3.282817623434694521e-01,2.512151485046447696e-01,3.877288796743833532e-01,-6.478681507467920486e-02,-4.988586029167163625e-04,-2.636736069299906032e-02,1.695083081722259521e-01
3.651478798075551424e-01,1.876972946913059714e-01,3.640902126629508295e-01,-5.340443611288527709e-02,-1.310818495534209899e-02,-1.618563207773964212e-03,2.009516805410385132e-01
3.058684328564438282e-01,2.378967552025648136e-01,3.440948069553180222e-01,-2.106459372064851260e-02,1.437663354122814671e-03,-7.131277839790863254e-04,1.000929251313209534e-01
1.364496451913435049e-01,1.826369357702870566e-01,3.202014142861845936e-01,-1.549371052113682201e-01,-4.188962397613460453e-02,-3.933974324183719951e-02,3.306577801704406738e-01
2.444472658363144868e-01,3.338062055433103081e-01,4.097485391680159572e-01,-4.548493240866358089e-02,3.146350597623973760e-03,2.734775685498514776e-03,1.636983752250671387e-01
3.265017624828673304e-01,2.520695433530590890e-01,3.518748246514504241e-01,-4.094439578102368471e-02,-2.010898236619858975e-02,-2.307312271411806476e-02,1.261430680751800537e-01
2.351005705961389525e-01,3.553697508136097749e-01,3.512552662950139681e-01,-1.119224310461082797e-02,-1.475154445899405815e-02,-1.080852916461558753e-03,1.225515678524971008e-01
2.284056348393278535e-01,3.568602884636338790e-01,3.457198404450411711e-01,-9.329922055644465639e-03,3.042675850980001637e-03,3.172070131452503321e-03,1.245502606034278870e-01
2.750510260024071618e-01,3.226278803677804508e-01,3.548931871901433444e-01,-6.274410056830353154e-03,-1.825667544008872456e-03,-2.746304860012151964e-03,7.064290344715118408e-02
9.250968852539792620e-02,2.853488226770645175e-01,3.279611911156953274e-01,-9.554254478112533810e-02,3.680259749478229092e-02,2.719727491370667674e-02,2.844074070453643799e-01
2.354259498711418763e-01,3.421124362780547656e-01,3.110071305039698863e-01,-4.069312169522250680e-03,-1.883821423458698768e-02,-6.308217592681333342e-03,1.013149768114089966e-01
2.751404751996541775e-01,3.063876761700708995e-01,3.387352553122231491e-01,-8.215476040434618529e-03,2.604929554847749962e-03,8.093311399136110182e-03,5.876111611723899841e-02
3.572437878486562912e-01,2.282858407538984336e-01,3.495937944324222224e-01,-7.891211207035051835e-04,2.701368238104363915e-03,-1.482684716853048881e-02,1.280055195093154907e-01
3.313792164730886558e-01,2.610806092982207449e-01,2.892334267880440346e-01,-2.398644284565187509e-03,-7.006239134545647236e-03,-1.108646139970215910e-02,6.548757851123809814e-02
3.297108158762253050e-01,3.272993701395143784e-01,2.271826533407691473e-01,-2.040214731089889239e-02,-4.951094976086049815e-02,-5.024552330103568276e-02,1.626258939504623413e-01
4.086532388748119193e-01,2.904519089034880985e-01,4.173316796933879136e-01,3.237435353755257345e-02,1.992469541537608343e-02,-4.466958919726127242e-02,1.593551635742187500e-01
2.904726254955396492e-01,2.746382063706604981e-01,3.516414570269684736e-01,-1.399359043862971053e-01,-1.035268616460437580e-01,-7.108073058775174480e-02,3.331935405731201172e-01
1.096934320307610400e-01,3.598000188836472657e-01,3.739465330897137618e-01,-5.352248195226075311e-02,-6.464842528132253019e-02,-1.406408617214411315e-02,2.966769039630889893e-01
2.941235623596288873e-01,3.143050806980787759e-01,3.503483463815701970e-01,-1.623642200119402787e-02,-1.751721188599547792e-03,9.243041230122642530e-04,5.688981711864471436e-02
2.552003081373612203e-01,3.132621921377113927e-01,3.538577805081916661e-01,-1.928834097854445484e-02,1.046636919287206868e-02,8.573774030056463547e-03,9.508693218231201172e-02
2.208725541559552474e-01,2.773173082907887110e-01,1.907838359648382776e-01,-9.387179371385095950e-02,-1.176989166662728015e-01,-1.081728647100845958e-01,3.299827873706817627e-01
3.121587115365109799e-01,3.131888953571611012e-01,2.153783036570042497e-01,-2.439753368713796708e-02,-4.307609390543352956e-02,-4.154302036091871153e-02,1.483140140771865845e-01
3.341269169051265253e-01,2.595566853035149446e-01,3.175209266917797257e-01,-4.078059392234748698e-02,-5.158102313358876867e-02,-6.951402382359045395e-02,1.790691018104553223e-01
3.340507197095397562e-01,3.214807807215911972e-01,2.655269945755579508e-01,-8.571354906216247654e-03,-4.848347142973689558e-03,-8.505293058206655349e-03,6.708285212516784668e-02
1.470682473137277513e-01,3.477533489259770350e-01,3.564706057051394428e-01,-6.623068877220905648e-02,-7.529475609034838590e-02,-3.107227208926175224e-02,2.741601765155792236e-01
2.398349333083779622e-01,4.115134366074599814e-01,3.668809461091960267e-01,7.664900967119482253e-03,-3.112897839033268443e-02,7.125377138888571230e-03,1.644345819950103760e-01
3.165606264219247290e-01,3.208801257086741909e-01,2.764274543632642134e-01,-1.125993355957971044e-02,-5.114286350673482445e-03,-8.033588102591084426e-03,4.954923316836357117e-02
2.869088514898895936e-01,2.882138704917613925e-01,3.071026040917589905e-01,-7.961125785611870148e-03,-8.261194027888864311e-03,-7.611983686058179134e-03,3.085198439657688141e-02
2.621118084353847300e-01,2.826559626549068338e-01,3.248007530723107661e-01,-5.399976631473513838e-02,-5.133473494905847756e-02,-4.412868093372553091e-02,1.598742753267288208e-01
3.146231019533800022e-01,3.415195896826664357e-01,2.671057258221858355e-01,-9.342110301897042779e-03,-7.159430810773352583e-03,-5.613150025213495264e-03,6.906151026487350464e-02
3.326023805927736943e-01,3.383183886644227645e-01,2.718186968112821789e-01,-9.144830589760000877e-03,-9.755312765604443048e-03,-4.623277205419981661e-03,6.837598234415054321e-02
2.696980623706671798e-01,3.336338072955507550e-01,3.220417431813547560e-01,-1.192416121533540485e-02,6.688220332766819237e-03,8.446162829205414516e-03,6.523630023002624512e-02
3.454493359152586152e-01,3.321821588118076818e-01,1.697489384689393754e-01,-3.027213546040893443e-03,9.436714435596334216e-02,7.776500571119582261e-02,2.712945938110351562e-01
3.512805272939680812e-01,3.246387669543607801e-01,3.233175040816513302e-01,-1.531385914852836580e-02,2.382542712163665533e-02,1.514554793724445791e-02,6.197893619537353516e-02
2.803716871907170893e-01,3.351468280652787901e-01,2.808651405724613692e-01,2.814483006203270972e-03,-1.622215962462547970e-02,1.369229503235478698e-03,6.158242002129554749e-02
2.715393490800838139e-01,3.241303904985026740e-01,3.245075187061278732e-01,3.152284159758102569e-03,-1.118386829666671162e-02,9.505632935399160877e-03,5.883801355957984924e-02
3.001828850683892491e-01,3.440894907512082601e-01,3.362800187134424856e-01,1.101079900182334523e-02,-1.620225262286465601e-02,9.772531910355014562e-03,5.553061887621879578e-02
3.185342172522849236e-01,3.218190241560215381e-01,3.300172285196668054e-01,3.172303891907933375e-03,4.249328702398942961e-03,-3.635853531199952603e-03,1.513106841593980789e-02
3.215262158946319837e-01,3.152910424242271747e-01,3.011617558078408807e-01,-8.738163824223869891e-03,4.226292850753834984e-03,6.035118896429418449e-03,2.680544368922710419e-02
2.935195231236428226e-01,3.169406931088727952e-01,3.290551485508486085e-01,4.248617196368770742e-03,-4.122555761467762078e-03,8.760063217047031614e-03,3.625466302037239075e-02
3.379947055321174121e-01,3.354306796729037976e-01,3.577449718349312580e-01,2.691003393881801625e-02,-1.745909280766459737e-02,1.894341139978950733e-02,6.790254265069961548e-02
2.780020607712393454e-01,3.276038201586566334e-01,1.833828505637110085e-01,6.281877798945140201e-02,-9.524312612879587414e-02,8.757013566064099364e-02,2.795788943767547607e-01
3.280108971617795022e-01,3.442666168600265753e-01,2.784611775009671053e-01,1.368204291365269359e-02,-3.334931829154860750e-02,1.658013734119936911e-02,9.081695228815078735e-02
1.602787130128081050e-01,4.720152541841516336e-01,3.981155369205349182e-01,1.972332818452445999e-02,-1.207013938003589082e-01,8.004382507135562874e-02,3.790753781795501709e-01
2.607926314879995822e-01,4.040709715385957801e-01,2.726935555472677075e-01,1.927921428086217664e-02,-1.410144931817268188e-01,9.416944653357221806e-02,3.260968327522277832e-01
3.931625935232038183e-01,2.159157328153613609e-01,3.409750402890552312e-01,-1.326183292920889243e-03,-7.488858185769791190e-03,-4.799827442815058492e-02,1.788153797388076782e-01
2.407301125426093702e-01,3.496840819784145515e-01,3.583529202258294299e-01,-8.631230299703591957e-03,1.572503972184106924e-03,3.850803047911510128e-03,1.147432774305343628e-01
4.029286112291308175e-01,3.192706806349701054e-01,3.472062153622800240e-01,-3.286299665680209037e-02,3.102622032142988290e-02,5.590258643786451959e-02,1.447242945432662964e-01
2.720731901308246492e-01,2.941316888568754617e-01,3.340748600099519017e-01,-2.777614925934238782e-02,8.604221558469443004e-03,1.198339287079082383e-02,7.701017707586288452e-02
2.207233651404506003e-01,1.000864213425558535e-01,3.194026587605778289e-01,-1.408332590009447882e-01,-2.700552905750378332e-02,-4.374638397080176516e-02,3.219105303287506104e-01
2.160937250179012503e-01,9.667450225281658260e-02,3.216359159278139312e-01,-1.442611731040465695e-01,-3.534275383106889878e-02,-6.109901539536264498e-02,3.396826982498168945e-01
3.292662180421148665e-01,2.739558799141926237e-01,3.515359173064473985e-01,-1.494507617620003011e-02,3.781304436278542028e-03,5.152841305187514168e-03,7.469627261161804199e-02
3.685168884900884012e-01,3.675303952723143475e-01,2.818283056321772007e-01,1.243604770965811091e-06,1.421702850968548613e-03,1.495613039309134744e-02,9.004158526659011841e-02
3.072357591622199013e-01,1.634061310024484404e-01,3.266574417833784105e-01,-4.259380006556642839e-02,4.646673736026403490e-03,3.477824965815330509e-03,1.714681684970855713e-01
3.202143863055844086e-01,3.333956222611044184e-01,3.156704212369784157e-01,4.919412725512417248e-03,2.449602452013707656e-03,-5.286858219296854296e-04,1.859380863606929779e-02
3.116055806277940876e-01,3.240325183898851713e-01,3.149901788284442672e-01,1.092133899764854543e-03,7.274047796464323378e-04,-2.539642336403369512e-03,1.217945292592048645e-02
3.133466235228505314e-01,3.185977350040883338e-01,3.230072003765793176e-01,2.904138662834052521e-03,2.355539445145886542e-03,-6.545586286450466584e-03,1.551302708685398102e-02
3.153379608575979098e-01,2.848689250945902196e-01,3.058943231076435842e-01,-2.795296754467032317e-03,-9.080214991370775049e-03,-3.735269013812295754e-03,3.228706493973731995e-02
3.051335817070325862e-01,3.015562233286256388e-01,2.926158033279101511e-01,-4.412203732595114739e-03,-4.869357593057762126e-03,-2.998275189786279472e-03,1.676947250962257385e-02
3.250234600004439089e-01,3.017429406726168661e-01,2.930572708267906723e-01,-5.924334582018831417e-03,-2.711315915227813407e-03,-3.747885146864187757e-03,3.145023435354232788e-02
3.241935758114420363e-01,2.953185232794282578e-01,2.909590302422736530e-01,-5.348412216853549311e-03,-1.923100269822883073e-03,-4.356704226367824964e-03,3.365276381373405457e-02
3.148557315857221650e-01,2.890637916888839642e-01,3.076058736067305843e-01,-4.371797815350134814e-03,-8.746429783608161007e-03,-4.796572418775355354e-03,2.977676875889301300e-02
3.379234260334131879e-01,2.640812461461389260e-01,2.970035564393416760e-01,-2.020383799452878191e-03,-3.681953390570818704e-03,-1.169922236016700777e-02,6.759454309940338135e-02
3.290007761576804746e-01,2.952380906120012360e-01,2.974524985825039991e-01,-2.807358766575556320e-03,-4.784764172765537497e-03,-4.163559441428779651e-03,3.484809398651123047e-02
3.151888986204960386e-01,2.739703415595733937e-01,3.022567073988943753e-01,-7.516396979278339684e-03,-8.782126407982336624e-03,-4.953378133287751096e-03,4.251633211970329285e-02
3.147281239856309920e-01,3.438343351948804916e-01,3.091808561750093443e-01,5.226042646724710430e-03,3.104398090663878715e-03,-1.399081752609437272e-04,3.391620144248008728e-02
3.042946628114272523e-01,3.416862237010369063e-01,3.006611490474748183e-01,2.171398384491571125e-03,8.190555695393906058e-03,-1.682083014455981783e-04,4.198427498340606689e-02
3.120057994311534744e-01,3.510530272415360309e-01,3.167406283353322305e-01,5.585922026677216969e-04,7.421177461509579840e-03,-4.409415544660522058e-04,3.910196572542190552e-02
2.853035048807774920e-01,3.392137357153426347e-01,3.068915145309502601e-01,1.689608243519324492e-03,9.603504762612312395e-03,-3.415884014478704801e-03,5.028709024190902710e-02
3.030297232807145913e-01,3.414639873322169450e-01,2.997498435563005770e-01,4.272832782631353341e-04,7.085892891896038680e-03,-3.191336190126123633e-04,4.201776906847953796e-02
1.110999472198485327e-01,4.318453573733023187e-01,4.072988219620518047e-01,-8.852729158625413652e-02,-4.835195338006018084e-02,2.061643636732885324e-02,3.569412529468536377e-01
3.237305477619105143e-01,2.485480434887152312e-01,3.485845549332214910e-01,-1.604326258267246841e-02,-4.668844076948326302e-03,-4.705594183421624686e-03,9.509310126304626465e-02
2.911797320780319942e-01,4.278860839799879523e-01,3.838369442068743087e-01,-2.256912394516662201e-02,-6.912726667049086393e-02,-1.445883810379691888e-02,1.763467192649841309e-01
2.872760290064371724e-01,3.479220838310547737e-01,3.046045054663781282e-01,-2.043328161411493617e-03,-4.043655528243038019e-03,-1.876780662841924779e-03,5.476734787225723267e-02
2.687424938781929895e-01,3.352306287490119385e-01,2.936369106348113434e-01,4.704757224821979667e-04,-1.321113031304281017e-02,1.875597952594481709e-03,6.261022388935089111e-02
3.204962404943462184e-01,3.027982840757151295e-01,3.316979377089274150e-01,1.615901089320496281e-02,-1.374759088660595582e-02,1.592869724077643212e-02,5.242559313774108887e-02
2.953840064972161894e-01,3.582051507567697302e-01,3.303411858866374673e-01,3.261900450105193871e-03,-1.313392882942820798e-02,8.128272623955712373e-03,6.099243462085723877e-02
2.297553746055935875e-01,4.314340567502381041e-01,4.529949028393625010e-01,-3.931343041362997393e-02,-8.758345944232158453e-03,1.060047269542383624e-02,2.251475006341934204e-01
1.919802097586384704e-01,3.232366931066546489e-01,3.351730581732687009e-01,-2.683557782523593102e-02,1.943221137496722178e-02,6.481047251277358492e-03,1.495217531919479370e-01
2.949821179006634764e-01,3.417640845882450873e-01,3.167954943116519373e-01,9.249146978627728957e-03,-2.387672954865759090e-02,1.686303749976942462e-02,6.681260466575622559e-02
2.304254108857046179e-01,1.963188125938409301e-01,1.421620391239855896e-01,9.267213392598624977e-02,-9.635084563339456343e-02,1.361317347594941385e-01,3.393430411815643311e-01
3.211395087651798819e-01,3.155714605783548343e-01,2.172380690236908052e-01,1.555199960990589700e-02,-2.572019232450941870e-02,2.664485507291467978e-02,1.228332519531250000e-01
3.162434942595584997e-01,3.356922108368774471e-01,2.525609279129119589e-01,8.380507743965637940e-03,-1.318782751951544548e-02,1.530247644720099127e-03,8.007337898015975952e-02
3.280625327829327920e-01,3.416835646697087281e-01,2.956146011511406324e-01,9.909225058576366651e-03,-4.992508912165286548e-03,3.745035020978849157e-03,4.573624953627586365e-02
2.980434389984621957e-01,3.381450152724201907e-01,3.443319884878348058e-01,-2.035450804397127833e-02,2.297107684001293074e-02,9.551720437285681278e-03,7.066935300827026367e-02
3.405936989625871769e-01,3.292068295917663368e-01,3.014191316846078772e-01,9.315183129214178737e-03,-2.247135041291085066e-03,3.692942038211835445e-03,3.917412459850311279e-02
3.414297500032924537e-01,2.335981163260724136e-01,3.139657854076175481e-01,-1.100930970768105865e-01,5.380619673576473444e-02,8.367014199066327707e-02,2.747167944908142090e-01
3.791132910997528915e-01,3.580916559329945237e-01,2.033438152320307390e-01,-1.060373720614979365e-02,5.650216477152512906e-02,1.156214291081632956e-01,2.786783277988433838e-01
3.150379735977557605e-01,1.788475530369568745e-01,2.923174301445501388e-01,-6.717253743254253395e-02,5.829332179070481623e-02,9.736904465318221846e-02,2.610415816307067871e-01
5.569250303853529038e-01,6.452789842887483029e-01,4.697248038223810762e-01,-2.595848708592569248e-02,1.771357724880631701e-01,1.162599824496550749e-01,3.997708261013031006e-01
2.169068308406892076e-01,2.888201494936326053e-01,3.409233408261865828e-01,-4.942986837464471983e-02,1.413763068128212098e-02,1.416703470053477971e-02,1.420029848814010620e-01
3.205989328714490827e-01,3.412939235052527276e-01,3.037165343551163077e-01,-3.586511777258097420e-03,3.339823757026592031e-03,1.408776964402540504e-03,3.377403691411018372e-02
1.502158753553766157e-01,4.278610516750957493e-01,3.997202398829135528e-01,-5.180759573003969332e-02,3.212164737827758604e-02,1.733388783320319662e-02,2.865562140941619873e-01
2.231076123552566681e-01,3.514293144594203833e-01,3.533055762958345891e-01,-1.513359298591919477e-02,-4.194601366997503626e-03,-1.132544766048405351e-03,1.321153044700622559e-01
1.987148785060072753e-01,2.987167159134275773e-01,2.960388510187157984e-01,-4.364473162316276356e-02,-4.698361836180931644e-02,-3.066513053600431610e-02,1.577902585268020630e-01
2.206247530814886559e-01,3.674015922544097701e-01,3.627693229656913099e-01,-1.956466928262800414e-02,1.571641920000072662e-02,-4.778927163627944182e-03,1.511385142803192139e-01
3.114928812692077664e-01,3.689579590918491414e-01,2.584945949940585241e-01,4.721330605606001429e-02,1.058628862523150194e-01,-2.927450508950805996e-02,2.281134277582168579e-01
2.265104364230953182e-01,3.852258665964083395e-01,4.076506129268580580e-01,-2.627596255658305735e-02,1.465490598494030572e-02,7.456903407270226193e-03,1.792623847723007202e-01
3.177744947086127425e-01,3.358437547464464545e-01,2.891732935003447635e-01,-6.226605686956755009e-03,6.380808745019691738e-03,3.753831948991964013e-03,4.406880214810371399e-02
2.140300139522522405e-01,3.773877504515275594e-01,3.710745534684654068e-01,-1.151980886881306398e-01,1.043307573315932768e-01,1.673880668045944070e-02,3.146448433399200439e-01
1.657182919958089251e-01,3.911455977204367773e-01,5.223278106320148328e-01,-7.554937219185245412e-02,1.736703612973735517e-02,3.936686631978692646e-02,3.468075990676879883e-01
2.403480614752947775e-01,5.095181821893729479e-01,5.792619970557011388e-01,-1.213980796632329745e-01,8.324896531378600875e-03,3.939317741083973173e-02,3.810060024261474609e-01
2.660004551754488467e-01,3.135546423567088792e-01,3.356519034797998957e-01,-6.458710384479694061e-03,5.231614200930687769e-03,7.078013557449990868e-03,6.448298692703247070e-02
3.474219833976863736e-01,2.801801977851927083e-01,4.025368121236771457e-01,-8.354790881777154898e-02,-1.287387684669382727e-02,-2.200360809009545976e-02,1.848122477531433105e-01
1.981027847146074328e-01,3.221773082289878243e-01,3.330708262166336975e-01,3.576257475409202330e-02,-2.388923630591500979e-02,1.758614935909822916e-02,1.527794301509857178e-01
2.432364556703433267e-01,3.095139574659884207e-01,3.462910259779056199e-01,-1.939556708221255171e-02,-5.164580761380843568e-04,2.576995111516829084e-03,9.660247713327407837e-02
2.074817684946954621e-01,3.580684023969658014e-01,3.665152112545900787e-01,-5.789464451138056841e-03,3.925428298277799932e-03,2.988495772073036447e-03,1.555417478084564209e-01
2.630073211395802524e-01,3.970181777299269799e-01,4.213594553392734920e-01,-6.767397949124476231e-02,-4.856328173741240178e-02,-1.957476342799185226e-02,2.092304825782775879e-01
1.916981633704331056e-01,5.024490687898501839e-01,5.057502456659760393e-01,-7.435623180665482113e-02,-6.370016220917260052e-02,-3.495236939623642871e-03,3.555266559123992920e-01
3.220262459366065588e-01,3.437165610562943896e-01,2.570337823209662975e-01,1.203579877570900257e-02,-1.488423936103441640e-02,7.005563018826778919e-04,8.488152176141738892e-02
3.224773569285174224e-01,3.607048220696563723e-01,2.629224134029874982e-01,4.998741813305608746e-03,-3.060406605055770654e-02,6.733135697140164508e-03,1.015162989497184753e-01
5.050870154611271090e-01,5.582597811890646078e-01,1.880165413418308784e-01,3.684345287368843980e-02,-1.059569229959090447e-01,2.762403796950202439e-02,4.003282785415649414e-01
2.794777561548233424e-01,3.370726236278521748e-01,2.168092034647343402e-01,1.233096043635190445e-02,-6.071484319721823925e-02,2.044919611370241835e-02,1.536992043256759644e-01
3.594983807796897080e-01,3.653288077834830339e-01,2.441316132499243563e-01,6.213484637324634061e-03,-2.627899786224792249e-03,8.403875987264537370e-03,1.198521479964256287e-01
3.441268349473910471e-01,3.681577063728827537e-01,2.457121986197216557e-01,-1.806239937250795268e-03,-9.117646811365410706e-03,-6.248348991152541908e-03,1.140360459685325623e-01
2.242708854887890679e-01,3.488844919275186363e-01,1.151434223525168304e-01,1.777388331770876975e-02,-1.432029951766959630e-01,1.607399359151880092e-02,3.229245543479919434e-01
3.048108524153971266e-01,3.163521014172162582e-01,3.437549317062970622e-01,2.939884785525425336e-03,-9.021239196927891653e-04,4.868211479608987834e-03,3.605339303612709045e-02
3.354916042080061667e-01,3.255049297313216128e-01,3.458929780278076627e-01,1.278580647091104305e-02,-1.026944822693157816e-02,1.201441122336691265e-02,3.939099982380867004e-02
3.097657387091425352e-01,3.890773123115299770e-01,4.079353227015521943e-01,-4.187409308767058719e-02,3.573790694057558948e-02,3.135721253627402061e-02,1.420681029558181763e-01
3.291571575295084706e-01,3.260094311411824708e-01,3.747940836441996382e-01,5.745307747426886547e-02,1.189265156090292888e-02,-6.224012889864640645e-04,1.120907068252563477e-01
3.234737375068270637e-01,2.748430981390057593e-01,3.348557151795243381e-01,7.492966071178223247e-03,-7.870612796786807461e-03,7.911750349819527892e-03,5.991712585091590881e-02
3.366073193952394127e-01,2.326645788019045535e-01,3.920231474564835894e-01,5.645048406776696781e-02,-6.161528031509435135e-03,2.150590367109949871e-02,1.752040386199951172e-01
2.765220493760423004e-01,1.921380888445148316e-01,3.798182737433259959e-01,-1.551868261445442654e-01,-1.800908867629507151e-02,-8.616386118008122208e-02,3.492875397205352783e-01
2.285891494635750587e-01,3.487133462123586658e-01,3.915424462290398866e-01,-1.059289505519801777e-01,-1.047250505872060200e-01,-6.224511240556617614e-02,3.155901730060577393e-01
3.341102610494224301e-01,2.611745348457882310e-01,3.518238240362234759e-01,-1.575056896475177104e-02,9.636956523138487732e-03,3.498065632055586110e-03,8.935829997062683105e-02
2.954447068310726010e-01,2.816171531267623873e-01,3.414434306651384921e-01,-1.102270385592292110e-02,4.329891832759187771e-03,2.255095279377960366e-03,5.813032016158103943e-02
3.025004292357705848e-01,1.981412686022474556e-01,4.942951569731713901e-01,-1.248882853785077407e-01,1.794728591341493082e-02,4.155935170927875510e-02,3.473193049430847168e-01
3.213655267850070718e-01,2.433249347436050591e-02,3.377118558353558453e-01,-5.562346195128860943e-02,7.754278969275579803e-03,-1.135991605381301943e-02,3.212485909461975098e-01
3.476430347826336420e-01,2.284254026588839193e-01,3.576053210850994035e-01,-8.793902275385245132e-03,4.665291818980591906e-03,-6.870403106290777799e-04,1.256920099258422852e-01
2.545589480741813904e-01,3.497111457669282442e-01,3.727066367710772377e-01,4.140497175265947516e-02,1.931016685529433376e-03,-1.206443831506484078e-02,1.317640244960784912e-01
2.729653080986617075e-01,3.529566138316531099e-01,3.679194617681544321e-01,4.788878009292217922e-03,1.128087947156931198e-02,-1.486519944002875166e-03,9.097580611705780029e-02
2.787215758722252912e-01,3.340411205384619664e-01,3.459757863770248076e-01,1.141568056240570284e-02,7.100580609809406529e-03,-1.101344348299858333e-02,6.905797868967056274e-02
1.895651143937936156e-01,3.112678721364093293e-01,3.169199309345867022e-01,2.684331101543188658e-02,2.973164614308186973e-02,-5.996799304855401046e-03,1.430135071277618408e-01
2.353554567971236078e-01,3.546268117755065896e-01,3.583747338340480537e-01,9.177146614485711187e-03,5.380810338272475762e-04,2.507021029445450321e-03,1.223074272274971008e-01
3.286917391845475822e-01,3.238988766792658680e-01,3.161203888989060906e-01,-6.209325781139312869e-03,6.914557986531184863e-03,9.621358332831482854e-03,2.564312331378459930e-02
1.644215307812864069e-01,3.934377737522566920e-01,3.920038777949670372e-01,-2.856204028050942853e-02,1.321982400013242166e-02,1.239535682113577023e-02,2.357004582881927490e-01
3.127199302332848707e-01,3.176541030151990297e-01,3.420517409118417618e-01,1.738014369155724834e-03,1.116361766257635210e-03,-2.044447297214155648e-03,2.766429260373115540e-02
3.062909321345934077e-01,3.017107826618045663e-01,3.393857065366698289e-01,5.764746004969064502e-03,3.350024224469775290e-03,-9.535127065890294752e-04,3.746883198618888855e-02
3.096236791208165640e-01,3.149419679640337311e-01,3.357582778498739429e-01,3.479394572237305087e-03,1.660095552770042083e-03,-3.853296415330849552e-03,2.571847848594188690e-02
3.109429425869909003e-01,3.218675493007672750e-01,3.526033128183789223e-01,3.740101823369348412e-03,1.947955209177150990e-03,-2.716793650571469425e-03,3.840965777635574341e-02
3.100718079931191196e-01,3.122902771926260312e-01,3.395623598567008017e-01,1.427712994616824483e-03,1.105792243972400848e-03,-7.311076291718684051e-04,2.864572219550609589e-02
3.133267437409871237e-01,3.106731481898887814e-01,3.445687942162440343e-01,1.412045941111250789e-03,1.740960249408095252e-03,-2.461156733055360922e-04,3.288262709975242615e-02
3.018917496008063361e-01,3.305888992109247693e-01,3.403602312472663316e-01,4.415733515809252760e-03,3.557165719628965078e-03,-8.866850603187714092e-03,3.913737460970878601e-02
3.246838111980113739e-01,3.301609823493816265e-01,3.792804564441432658e-01,2.301335699117179959e-02,6.649733460255143579e-03,-4.989114082180716447e-04,6.658832728862762451e-02
3.331907568149619081e-01,3.278427853670644598e-01,2.819647366860235649e-01,1.178067308223065650e-02,7.786173992802234919e-03,-6.670451058129123895e-03,5.577151477336883545e-02
3.241227864624089405e-01,3.274202589879539604e-01,3.117673566718805467e-01,7.168525607598735458e-03,8.830162323847071462e-03,-4.406525325169720689e-03,2.550691366195678711e-02
3.348074224805479560e-01,3.316439344341858275e-01,2.795832884377730809e-01,9.901750012999099154e-03,1.244259853629261364e-02,-1.979968079677351528e-02,6.942393630743026733e-02
3.268507667872508904e-01,3.817932803716401757e-01,3.433174852300217017e-01,4.628482890281951194e-03,1.958111082347625820e-02,-3.388070724600184078e-03,6.028328835964202881e-02
3.353193971475313950e-01,3.186834087956056383e-01,2.616283015570300963e-01,8.758375511785338602e-03,2.259374082750097764e-03,-1.502104221029148048e-02,7.350882142782211304e-02
3.336263939143351287e-01,3.244632219978539345e-01,2.871785438950976155e-01,9.850231342503013021e-03,6.606177247573232283e-03,-4.849542544457186022e-03,4.804494604468345642e-02
3.168515781791398922e-01,3.277964763160582939e-01,3.201776121486903937e-01,3.503230930232904133e-03,2.932411461973451899e-03,-2.847624023035737802e-03,1.346818730235099792e-02
3.026306029413670107e-01,3.257393802318164777e-01,3.105476247790720512e-01,1.299272776212963103e-02,1.740202220040754783e-02,-1.325005362415297705e-02,4.853203147649765015e-02
2.985752614860219811e-01,3.734321537042135652e-01,3.117786397933469122e-01,-1.704789107898559836e-02,5.718931808815302248e-02,1.089844306836124620e-02,1.258157193660736084e-01
2.672200094341922183e-01,3.488958272334696797e-01,3.378606229828490237e-01,2.263426871669091400e-02,2.744794923983412405e-02,-1.983234409489154342e-03,9.849012643098831177e-02
3.031397795345424639e-01,3.095458998523124561e-01,3.341175644004585332e-01,-5.569317136565034299e-03,3.465763736494434193e-03,3.821572725049326644e-03,3.122681193053722382e-02
3.760923973705491141e-01,3.856848573245748590e-01,3.923970586597144705e-01,4.376111817421880767e-02,5.452022323250896307e-02,-3.448219916043551714e-02,1.357607841491699219e-01
-5.836689288157004274e-04,3.101715906589638250e-01,2.972608555952125364e-01,5.740310909043677690e-02,-7.154593689043234339e-02,2.502386340663938225e-02,3.461846709251403809e-01
3.306053805120713895e-01,1.889726048598079355e-01,3.456764032643796503e-01,2.851835062078731872e-02,7.851762789099098541e-03,5.254050652591749429e-03,1.585218757390975952e-01
2.550699742410452164e-01,3.542405618295286218e-01,3.598342451554664700e-01,4.250189838860664662e-03,-2.335322180883976986e-03,5.239290916330546777e-03,1.028286293148994446e-01
3.112159710348801900e-01,3.116203700633047857e-01,3.441825866531582068e-01,5.392079403384096234e-03,3.313293227205480265e-03,-1.943639792548350993e-03,3.471484035253524780e-02
3.128111164462160088e-01,3.126659867237908674e-01,3.504253542166011481e-01,7.237624226954321449e-03,4.429304531067708266e-03,-1.424441229376203772e-04,4.045216366648674011e-02
3.376953797371153865e-01,2.771257157066399079e-01,3.434817976738032130e-01,9.258301821923640290e-03,8.923219181012981976e-03,-5.095686390993245905e-03,6.801886856555938721e-02
2.951625198787512505e-01,3.131737521144282721e-01,3.323546516150444607e-01,7.581770216255051889e-03,2.245291860074407914e-03,-7.035064915657168738e-03,3.706525638699531555e-02
3.250026160191324953e-01,3.287480487034569743e-01,3.103614411788763738e-01,1.096519139414110777e-02,9.949221315660578685e-03,-7.563843409399416060e-03,3.335464373230934143e-02
3.397127273193717989e-01,3.058942153029067246e-01,3.023656543602785129e-01,3.891887845312840682e-03,-1.945841121590726440e-03,5.558334816204286294e-03,3.774861246347427368e-02
3.647681598658938928e-01,3.164135787345606632e-01,3.426032004387726815e-01,3.065921904231308850e-02,-1.429816313361359677e-02,2.902967725525855414e-02,8.785849809646606445e-02
3.416598502984252717e-01,3.168036133903661677e-01,3.001191436051340866e-01,5.056038938023423371e-03,9.662432290086459073e-04,2.781356436284144248e-03,3.759809210896492004e-02
3.365972536487672473e-01,3.243343491626494712e-01,2.736537468216194702e-01,1.031215469941875601e-02,-1.001835221572412726e-02,5.765317459342389483e-03,6.371996551752090454e-02
3.214282465874254702e-01,3.192044692583190790e-01,2.702735139113030538e-01,1.049925517078342460e-02,-1.076068660500435932e-02,7.846686718126872490e-03,5.805847793817520142e-02
3.463763741740574220e-01,3.034884172370910793e-01,2.697245600279578603e-01,1.575836177718743097e-02,-1.453417910743799030e-02,3.050396101824481496e-02,9.272333979606628418e-02
3.409216037644904329e-01,3.279959682863718973e-01,2.784125481534828195e-01,9.288382268605625131e-03,-5.530504938806528499e-03,6.316455318054334939e-03,6.112903729081153870e-02
3.714916350112253407e-01,4.673838867011840259e-01,2.235913473112856598e-01,1.085110615651219412e-01,-1.045078811705166255e-01,4.134727903842747021e-02,3.441957831382751465e-01
3.562549894524116301e-01,2.546231977307764627e-01,2.915823941881874326e-01,6.629737754874334699e-02,-3.401341577532858429e-02,9.624034144878856889e-02,2.288714647293090820e-01
4.526552707817830257e-01,3.702037487003761451e-01,2.568892815942018792e-01,9.106123663537541574e-03,-5.705013533381644159e-02,1.043313690816680961e-01,2.676740586757659912e-01
4.995911801168219091e-01,4.674851392250869431e-01,3.670736943942478070e-01,7.268301759633805093e-02,-5.167849252188702613e-03,1.121314959166307690e-01,2.607413828372955322e-01
3.108985319648926993e-01,1.800932106443673963e-01,1.779084620942048001e-01,-8.467993460960601985e-04,8.366183186209099482e-03,1.222155669416487012e-01,2.498452514410018921e-01
2.913058863769395490e-01,3.283467528224577325e-01,2.613436441908146834e-01,1.614482148234047676e-02,-3.116198687812641796e-02,1.749808402925852324e-02,8.940532803535461426e-02
2.898254839001284666e-01,3.119636106952515808e-01,2.727767357876665910e-01,-1.774353023143088876e-02,2.990657839931646148e-02,1.592181868507175704e-02,7.447419315576553345e-02
4.971502113884434526e-01,2.432692372563916572e-01,3.994042750993130886e-01,5.310296977242784031e-03,1.021002161279426224e-01,1.255135617000820714e-01,3.575093150138854980e-01
3.645311960336407586e-01,3.296089517753656994e-01,3.061535310906141061e-01,4.140859245020923896e-03,-1.268945988306798001e-03,2.074728986368109401e-02,6.274119019508361816e-02
3.290908872341728464e-01,3.306899581948378186e-01,2.848072394911835281e-01,1.139792788080588697e-02,-1.192433648795616918e-02,1.649362650559482030e-02,6.055442243814468384e-02
2.419525705463905219e-01,4.250674352121553423e-01,4.256280940845524885e-01,-1.929090257721153071e-02,9.766619379058603229e-05,4.330622436061677336e-03,1.865656524896621704e-01
2.406449236113768486e-01,3.762867213846267100e-01,3.810521736786222080e-01,-2.126988438045150295e-03,-2.194156459403288906e-03,2.257250707621673638e-03,1.382429152727127075e-01
2.183889896178842494e-01,5.511704301317664756e-01,4.975249914579385480e-01,1.876940316685046101e-02,-9.080072180826889716e-02,4.230550462523349070e-02,3.562717437744140625e-01
2.870489524201422782e-01,2.945610061444035033e-01,3.398941937276364067e-01,-8.253962083410256237e-03,-4.001084682132242530e-04,4.920712249968445728e-04,5.155254155397415161e-02
3.252216351757115098e-01,3.642249327976124218e-01,3.771878515268404231e-01,5.538080552026951320e-02,-1.871947598992906858e-02,1.925314326026053222e-02,1.164444014430046082e-01
2.508498861972323635e-01,3.418717708453816728e-01,3.194912758368433359e-01,8.296805453989034712e-03,-1.765217604700930823e-02,6.912463259438567618e-03,8.962929248809814453e-02
3.372544638844585108e-01,2.568206026341538495e-01,3.254409106698248899e-01,-4.767758516721593010e-03,-1.189041407322594460e-02,-1.153335863235328655e-02,8.093424141407012939e-02
3.290003234281035360e-01,2.647216883735226123e-01,3.213676405387216883e-01,-7.879536541247754433e-03,-1.665245742076185836e-02,-1.444300390357125714e-02,7.309827208518981934e-02
3.335481044862748101e-01,2.828848632661947748e-01,3.197663332991602103e-01,-6.525876498979163443e-03,-1.222288317927983266e-02,-5.001245930225163908e-03,5.205254256725311279e-02
3.419170336434103064e-01,2.987191808166610452e-01,3.347659112018168126e-01,-1.510924779609070130e-02,-1.813834956854334934e-02,-1.984064539826398132e-02,6.679147481918334961e-02
3.086087849771331770e-01,2.412737274648243113e-01,3.008865621777015997e-01,-2.904257825621528455e-02,-2.174139074874401056e-02,-3.215285313614564544e-02,1.054683029651641846e-01
3.519087967709844111e-01,2.185811790811009458e-01,3.306078984930470588e-01,-1.965908893982554889e-02,-2.616941305111328275e-02,-6.346118064948499948e-02,1.751739233732223511e-01
3.107911682647087059e-01,2.496029872916644132e-01,3.389624833082221511e-01,-3.325672089849485147e-02,-9.009596117967613033e-03,-1.967804800211729599e-02,1.048073992133140564e-01
2.874364106938815389e-01,3.020189494273768371e-01,2.860288467644316324e-01,-3.941847732278183636e-02,-3.451622039995631830e-02,-3.973099508969098886e-02,1.149189770221710205e-01
2.904038687584492573e-01,3.394016570913593878e-01,2.855892785662224043e-01,-1.397384276827751256e-03,-5.771736819013867544e-03,-1.194386961585720310e-03,5.263026058673858643e-02
3.233207569705680573e-01,3.770435383917169481e-01,2.331133476563304607e-01,2.129055520005371238e-02,-4.579151378477751277e-02,1.607702200487137051e-02,1.558703631162643433e-01
1.497825166486084769e-01,4.084811075505441202e-01,2.590352432527715520e-01,-7.297937560650699651e-02,-1.397367344823070567e-01,-2.869700968218255252e-02,3.572466671466827393e-01
2.411529294334166795e-01,3.268381498085461967e-01,3.108418554242871612e-01,-1.010388649090615716e-02,-1.042580940264939415e-02,-1.078191899046307758e-02,8.490170538425445557e-02
2.467255148919458851e-01,3.429922106700378781e-01,3.166714844777019366e-01,-5.211927974344108747e-03,-1.479420397907551567e-02,-4.702181516155180818e-03,9.072308242321014404e-02
2.865960428303933050e-01,3.734481354191730995e-01,3.074971975190310403e-01,-5.754794975524648443e-02,-9.652752797695296483e-02,-6.520034483572488548e-02,2.383402585983276367e-01
2.568179913780969104e-01,3.415336065604477889e-01,1.599775540986500544e-01,-3.478075686117287901e-02,-1.148436845212740254e-01,-5.259258452853252108e-02,2.761393785476684570e-01
2.932310743673510189e-01,3.330339947227984321e-01,2.756032691807794865e-01,-1.582574997520432708e-02,-2.195271050018409928e-02,-1.435566871901145479e-02,7.356652617454528809e-02
2.266946074996498139e-01,4.428525987570408606e-01,2.877980826872079678e-01,1.937162181347015788e-02,-1.331638149385265812e-01,-1.889055336058358819e-02,3.043748438358306885e-01
2.913438491836215505e-01,4.553147621878749773e-01,3.828777144842945845e-01,7.867166151202885371e-02,-1.227038996191589654e-01,4.508163798898327801e-02,3.001491427421569824e-01
2.655765724405488304e-01,3.274164545992303554e-01,2.874916818940954077e-01,-1.565484522862790884e-02,-2.653459609048346157e-02,-1.517042922328874256e-02,8.054264634847640991e-02
3.065741177173704202e-01,3.031618836273055062e-01,3.189132246973642726e-01,-5.528067583517222439e-02,-3.525507394461051269e-02,-3.528532973548056256e-02,1.297604888677597046e-01
2.816579478072888665e-01,3.298108407013917720e-01,2.797897336992419826e-01,-7.020117221877151398e-03,-1.453146681723797851e-02,-5.330706437008975174e-03,5.726025998592376709e-02
2.696449187892014376e-01,3.381864526159537032e-01,3.135615753215028056e-01,-5.160222511838907962e-03,-5.513212397784524911e-03,-7.771529788859173407e-03,6.299809366464614868e-02
2.984752396258781859e-01,3.252944861177098912e-01,2.738850301570803780e-01,-9.450322548702049658e-03,-6.621029454937124928e-03,-3.563878983577448145e-03,4.920350387692451477e-02
2.988092361831472532e-01,3.270531680799207419e-01,2.940370128570153896e-01,-5.032897542080922403e-03,-3.155937795239031462e-03,-1.984730037555140075e-03,3.275618329644203186e-02
2.433442164536250285e-01,3.466410570223759646e-01,3.379620672079686194e-01,-2.483410116286754662e-03,-5.933779692475205786e-03,-8.795408408991229124e-03,1.010210812091827393e-01
2.673209191785097527e-01,3.566085835921946057e-01,3.703630679125692882e-01,4.961757116699296727e-03,-1.629857912276247347e-03,2.157765629724385341e-03,9.739287942647933960e-02
2.538169834934995706e-01,3.669331279241093702e-01,3.646007261080225215e-01,2.799738690430784126e-03,-3.719052012044699040e-03,2.480260281099851485e-03,1.123402640223503113e-01
2.282800267922870940e-01,3.255255422718934533e-01,3.234853653728291811e-01,-2.781489644241826042e-02,1.899981174179249388e-02,7.160927984487920096e-03,1.132266521453857422e-01
2.836755158812669375e-01,3.082838771267155664e-01,3.364360745633908079e-01,-7.068404633310642997e-03,1.177093718803524664e-03,6.539352032472427537e-03,4.871581122279167175e-02
2.924532613607189746e-01,3.315623976383512694e-01,3.291726049120095587e-01,-4.676174521967815280e-03,5.157277840863918467e-03,9.840583186501963148e-03,4.333216324448585510e-02
2.601752496375820956e-01,3.188856859598744320e-01,3.380589615667070058e-01,-1.082651777686234086e-02,6.355283070639280649e-03,1.214925346952641649e-02,7.652335613965988159e-02
1.894756660536252579e-01,3.587389888197052845e-01,3.795681187577090721e-01,-6.544520971488977656e-02,-1.152609424695298090e-01,-5.625815407629512765e-02,3.079106211662292480e-01
2.852028259097255658e-01,3.438809369578168518e-01,3.151246244089491721e-01,-5.704959523018353351e-04,7.977743507708703885e-03,1.911821561393923933e-03,5.277835577726364136e-02
3.179348500633713548e-01,3.523074810454671080e-01,3.222864401422592673e-01,-1.543313817422380151e-03,8.283705292796868930e-03,-8.222855283466980626e-04,3.557909280061721802e-02
3.133077142617016753e-01,3.472162328782162910e-01,3.113215446245781726e-01,-2.550133972302309738e-04,1.603896158815529575e-03,-4.884083061912011543e-04,3.506720438599586487e-02
2.957265976606796021e-01,3.470766990904438076e-01,3.206900823721344773e-01,1.557738714558355112e-03,3.523947404618510502e-03,2.314501220308840240e-03,4.515236616134643555e-02
2.854127179647533152e-01,3.523515038346852757e-01,3.167587592866003554e-01,4.893739114969142961e-03,4.558052529080503651e-02,-2.187472031693774022e-02,1.053813025355339050e-01
3.030354899580212646e-01,3.410264744887405719e-01,3.068202074983448768e-01,1.402675398455507667e-03,3.819532855730426672e-03,-2.298101345154028065e-03,3.713982552289962769e-02
2.679726358879523929e-01,3.168185143030519679e-01,3.274175417805459953e-01,-1.089471852676938100e-02,8.558572773190813859e-03,1.317924882893032473e-02,6.413180381059646606e-02
1.792614560325822559e-01,2.842659474263260488e-01,1.219244779233612797e-01,-3.730637844336125164e-02,1.544500899149359452e-01,7.389955460234542972e-02,3.353465795516967773e-01
3.181516483572000009e-01,3.739973304518623420e-01,3.408249687508497772e-01,8.970920203314063134e-04,2.672050139047172507e-02,4.403455578693652589e-03,6.759551912546157837e-02
2.910421635532501328e-01,3.308027476647439347e-01,3.085440177669886985e-01,-5.949066017353761907e-03,8.734285042316793785e-03,8.719707636028684733e-03,4.188642278313636780e-02
3.912664071726728587e-01,4.062909810118027765e-01,3.167830831059714192e-01,2.562648002756615431e-02,5.257821791095208808e-02,-1.948089757961148083e-02,1.352577358484268188e-01
3.988465772838916124e-01,4.149637406188022570e-01,2.883177739162974818e-01,1.473220057491938725e-02,1.338947084191440262e-01,-6.735693024741249042e-03,2.623516619205474854e-01
2.844501789287194327e-01,3.858996955328903855e-01,3.061488291464343203e-01,-4.825761782008654299e-02,-1.042439475832611789e-01,-3.335010599900916500e-02,2.269030660390853882e-01
2.871612436434132221e-01,2.778883010463630288e-01,1.978764443522900152e-01,-7.909721459974197733e-02,-1.104354740369528909e-01,-1.038563556871805044e-01,3.081320226192474365e-01
2.077446565139181578e-01,2.107328506701514337e-01,1.945812731525403128e-01,-1.293132275413771404e-01,-1.205995623367081132e-01,-1.249255985029474880e-01,3.752855658531188965e-01
2.154812639349805159e-01,2.347858270283761928e-01,2.792451333053148632e-01,-1.334108733745907882e-01,-9.751927456813715145e-02,-1.095693419924587686e-01,3.480650782585144043e-01
2.346283628299514756e-01,4.252552849552371228e-01,3.731914640845147568e-01,-1.613241063225199232e-03,-3.527874320363749705e-02,8.170188731961189679e-03,1.818415075540542603e-01
2.878799922472820016e-01,3.153296293543701445e-01,3.620587929750173073e-01,-1.963777004349492178e-02,-1.187521582737655849e-03,-2.232113432005175969e-03,7.345678657293319702e-02
3.290586739798119220e-01,3.472253456761480450e-01,3.248663217338524922e-01,-4.035107296351193862e-02,-4.875171048604572122e-02,-3.888370105579614516e-02,1.302858591079711914e-01
2.603549569915709627e-01,3.268636798797801002e-01,3.616879677528346826e-01,-3.290214013425353523e-02,-9.874507291946426485e-03,-5.475456376047703466e-03,1.076214313507080078e-01
2.974423721597810322e-01,2.937264812821310800e-01,3.244717007958620725e-01,-1.008277588767125393e-01,-6.496981046683344974e-02,-6.409065383008073769e-02,2.373385876417160034e-01
3.312085093029528138e-01,2.940234797091403340e-01,2.921770990050413519e-01,-2.779511886028668104e-03,-1.405196133614578218e-03,-1.395434377267212997e-03,3.859709575772285461e-02
3.246670081245095485e-01,2.978955088143044883e-01,2.990459285183557081e-01,-6.250758035830519897e-04,-2.994816275111492586e-03,-7.828444884524627095e-04,2.677976153790950775e-02
3.350250752411716437e-01,3.009334822964671030e-01,3.034758215178515739e-01,-1.494592434022929024e-03,-1.118046298008805060e-03,-1.987896101337453467e-03,3.323153033852577209e-02
3.280147433047846950e-01,2.846748065935816863e-01,3.040298462486029640e-01,-6.188610671539735049e-03,-9.219484389133798113e-03,-7.638450958251796243e-03,4.426118731498718262e-02
3.318519810288569905e-01,2.698866800133589705e-01,2.995843138159462460e-01,-4.582733197995126663e-03,-7.642226073173015617e-03,-1.054564500744515840e-02,5.876455083489418030e-02
3.439965193219585160e-01,3.041433429070454220e-01,2.412270218144747513e-01,-7.187353670374299966e-03,-2.611110206675276973e-03,-1.911180446597388061e-02,9.656792879104614258e-02
3.301440561500245119e-01,2.921768547025934692e-01,3.085543424419131542e-01,-1.038892898587812086e-02,-9.870311660259180331e-03,-1.477521962748299528e-02,4.856853932142257690e-02
3.310098072924791412e-01,2.750461478478808397e-01,2.649835988912279672e-01,-1.344610744293334680e-02,-9.680666216974862653e-03,-3.268866951326091647e-02,8.846191316843032837e-02
3.211590074543090867e-01,3.088556691367153606e-01,3.587455804737456067e-01,-1.840783231494289712e-02,6.134502812468411136e-03,7.262097445739213245e-03,5.756924673914909363e-02
3.501104838956775600e-01,2.788714004476687824e-01,3.578430610407158374e-01,-8.091711333680258467e-03,3.414739367310458493e-03,8.171848697171035097e-03,7.821385562419891357e-02
3.448960540170763478e-01,1.678428662145998729e-01,3.858527615305911151e-01,-1.157731859144612019e-01,-6.327511548639187799e-02,-5.926654523857618345e-02,3.209920227527618408e-01
3.627532976393702535e-01,2.507200769824707853e-01,3.953010590320076290e-01,-6.918874374773646696e-02,-2.288198059771116497e-02,-4.382849632955784780e-02,1.973627209663391113e-01
2.888067755627586886e-01,9.644336793144323017e-02,3.587696361297865177e-01,-9.429220341916338954e-02,-6.749971581486255423e-03,-1.561701189548294656e-02,2.879204750061035156e-01
3.081287070278362905e-01,1.837379480542545851e-01,4.659399659226157731e-01,-1.208372856296705822e-01,2.074805449550889622e-02,-4.364539675114243594e-02,3.328946828842163086e-01
3.255207311410127091e-01,1.319240550859196448e-01,3.584501041353266304e-01,-7.991175698818175910e-02,-2.767656430090202971e-02,-8.133816975521263037e-02,2.936705052852630615e-01
3.039917704757683636e-01,3.512343191502109718e-01,3.182137776257272233e-01,-9.001286258807481358e-03,-1.416456091439443309e-02,-8.822799914124292847e-03,5.329858511686325073e-02
2.884486968783252503e-01,3.395212096364458310e-01,3.043237011348030041e-01,-2.964973509601057620e-03,-2.809789093603197278e-03,-4.704237348362804751e-03,4.654125496745109558e-02
2.776025386722872357e-01,3.295931866529256404e-01,3.012736242228614136e-01,-3.925278901903573453e-03,-7.989938135374382092e-03,-7.807296714943058775e-03,4.953054711222648621e-02
3.033837628541238285e-01,2.119999587311051925e-01,2.738895533723255671e-01,-5.004069569080156488e-02,-4.133976823793695382e-02,-6.330212753042108176e-02,1.765962541103363037e-01
3.083229053860745417e-01,3.253990532285816473e-01,3.048194224519600315e-01,-1.141505821339004311e-03,-1.829532854479039208e-03,-1.414851826302500337e-03,1.958701945841312408e-02
2.981818951473342305e-01,3.301234950257597722e-01,2.682791099484234110e-01,-8.641361396218138341e-03,-7.684413312935829340e-03,-5.029338832515422436e-03,5.785013362765312195e-02
2.827578709554783298e-01,3.139459431472084172e-01,2.825679878106018283e-01,-5.913863296159014085e-03,-1.305403876911977526e-02,-7.802410751653438351e-03,4.215960204601287842e-02
3.058311443855883383e-01,3.095793462662258522e-01,3.324378303625601383e-01,3.992909894994014879e-03,2.375381227874920516e-03,-3.639824486485209593e-03,2.695811167359352112e-02
3.045405376415051268e-01,3.639397750928268227e-01,3.661928482915790539e-01,5.889702873343185402e-02,3.764987518923793713e-02,-9.651745345444927640e-03,1.364029496908187866e-01
3.109410243768503945e-01,3.103306103748010303e-01,3.385622487745774123e-01,2.268549947770845388e-04,7.220718351791902568e-04,-1.150750918466420837e-03,2.803312800824642181e-02
3.218500085200967642e-01,2.681977054907805358e-01,3.228832959952526727e-01,1.160798237077044492e-02,1.276140888947125893e-02,-9.822324116759172108e-03,6.416624039411544800e-02
2.907419959673259724e-01,3.218089727885903306e-01,3.391455929546789427e-01,8.292871440424200852e-03,3.956384469534947670e-03,-5.546151437940545839e-03,4.636663943529129028e-02
3.333685740131251407e-01,2.840857765528761458e-01,2.860211991650798979e-01,3.136485415939339449e-03,3.540198751104378823e-03,-1.417949344054008319e-02,5.484015494585037231e-02
3.513362739967167414e-01,2.595521715254167083e-01,3.279449912688301993e-01,2.509895167465418103e-03,3.702127089454927775e-03,-1.128421561158053643e-02,8.524401485919952393e-02
3.387458094111058249e-01,2.396722128690153553e-01,2.612965323244905713e-01,8.178251444374425028e-02,5.792615277853546685e-02,-9.806690267241036096e-02,2.590822279453277588e-01
3.308714100519902224e-01,3.238713087074576724e-01,3.459156282780482261e-01,7.413520121474074555e-03,9.514680508272482448e-03,-8.732910744464264519e-03,3.234038501977920532e-02
2.903878504535132299e-01,3.104167771110222240e-01,3.434301525637272756e-01,-3.037859845952980802e-03,2.011146772949759000e-03,5.352552199699609284e-03,4.772873967885971069e-02
3.098258319647642089e-01,3.247129794298199701e-01,3.559480066296685230e-01,-1.473339541687155620e-02,5.522836460264987299e-03,7.757739864170711160e-03,5.084807053208351135e-02
2.925684629359438516e-01,2.985267931790277496e-01,3.446374583388380763e-01,-7.185085803785745337e-03,-2.076925326463510170e-03,-5.662886001374470854e-04,5.104132741689682007e-02
2.987106085315758830e-01,2.953507118357037720e-01,3.470862958914862073e-01,-1.421138182113703199e-02,7.824151820160260562e-03,6.931614611596585880e-03,5.871726572513580322e-02
3.074855724181917438e-01,3.098488341719455863e-01,3.400756367782918344e-01,-7.298382341680217066e-03,2.727913024671806477e-03,3.434471115344402570e-03,3.475901111960411072e-02
3.098138099031100268e-01,2.989421574761245148e-01,3.459430387327199763e-01,-1.947433943722716660e-03,-3.669437348341569351e-03,-2.467009122177694219e-03,4.343188554048538208e-02
2.960704933138946782e-01,3.326194555455405100e-01,3.397839324672272121e-01,5.944876866200275549e-03,4.528778674760740135e-03,-7.819182760002322402e-03,4.472117498517036438e-02
3.848905145307195408e-01,2.975912879134556821e-01,3.269696037548925904e-01,7.079898221989186849e-03,1.046365833655633557e-02,-4.552920597259707547e-02,1.123258695006370544e-01
2.970288538530869715e-01,3.537358574709688619e-01,3.350443077290145566e-01,4.270414199863592844e-03,6.640879239948838282e-03,-3.002355806315328696e-03,5.214568227529525757e-02
2.928097956456450768e-01,3.407361979418812581e-01,3.126729120619978763e-01,2.098741282450550250e-03,6.923579978785502319e-03,-4.209422548321057819e-03,4.415535554289817810e-02
2.457841584717049277e-01,3.484750523294874447e-01,3.446631378434328319e-01,2.496709751173181377e-02,4.088299183112348301e-02,-1.279499043502927737e-02,1.324536204338073730e-01
3.552573303472652544e-01,3.766457886052881343e-01,3.602570624592084103e-01,3.769950983766376384e-02,4.144630456986596323e-02,-7.982589182271872946e-03,9.991916269063949585e-02
1.212121664666968024e-01,3.514672382522223693e-01,2.475161298156773049e-01,1.994247847945338631e-02,1.311383605587823076e-01,1.398186370682280924e-02,3.053839504718780518e-01
3.401541587747888840e-01,3.818056895969951792e-01,3.052112789536192139e-01,3.209494055927578082e-02,6.225368663370411254e-02,-2.523208440219722529e-02,1.450450718402862549e-01
2.679868371325811460e-01,3.211404518989320334e-01,3.387925000528864694e-01,-1.059360952392913134e-02,3.683291942585685715e-03,1.080209546441106630e-02,6.930080056190490723e-02
2.862854158362315160e-01,2.965017365970918917e-01,4.947553744312929158e-01,-1.198796572214973627e-01,2.253675447453704767e-02,9.989082822664255290e-02,3.405964672565460205e-01
3.116173523882336815e-01,3.400496571025362069e-01,3.133575934365658289e-01,-7.522818940349291399e-04,1.902309655138999071e-03,5.260101425077360129e-04,2.784474007785320282e-02
2.988084692064808534e-01,3.150779807927334142e-01,3.805330178135341579e-01,-4.234560597959317885e-02,1.202247635798385852e-02,9.023282648166517511e-03,1.080338358879089355e-01
2.944289476520218773e-01,2.050643063926585186e-01,4.733746727949902366e-01,-1.312618265301890297e-01,-3.548254200865788577e-02,-1.156143649617932465e-02,3.344638347625732422e-01
2.628742869971953389e-01,2.787910131830548810e-01,3.119291107903067184e-01,-4.231550637458404707e-02,3.130614134520542241e-02,2.671280210994261481e-02,1.110480800271034241e-01
4.038409714801742267e-01,4.257057579380411627e-01,3.243058103156745142e-01,2.015720181996090085e-02,5.182712096883644592e-02,-1.596024140465716196e-02,1.363239139318466187e-01
4.095082437618545734e-01,3.616213446891068384e-01,2.678902987998799667e-01,7.854598256490999408e-03,1.334061023843761268e-02,-4.136647648300531555e-02,1.463547348976135254e-01
3.695660218239678052e-01,3.517221653412479498e-01,2.632227651595486773e-01,3.323666916682938184e-03,5.795592325569022714e-03,-8.485029541360093741e-03,1.003972664475440979e-01
3.667180682380425383e-01,3.476157457995253663e-01,1.413605720728349224e-01,1.175022232189270634e-02,4.206258063692103200e-02,-4.240767129564662619e-02,2.407556176185607910e-01
3.263590325951025717e-01,3.240377247826561891e-01,2.354386840014106586e-01,-1.207520597930458912e-02,-9.857466480291851921e-03,-1.452013067084453705e-02,9.706846624612808228e-02
4.489952754643122823e-01,4.489997202422296718e-01,2.516473158088532447e-01,1.635492043986117722e-02,1.461000423207987724e-02,-1.184558589375779569e-02,2.020169645547866821e-01
3.392100514723304094e-01,3.183984223767507005e-01,1.947333226795450734e-01,-8.831549779192116034e-02,-7.891681580772570703e-02,-1.210453502764048672e-01,3.230143189430236816e-01
3.243474170066239504e-01,3.581581081633546382e-01,2.316777635977922967e-01,-1.005978442473761877e-02,-8.575295274469463269e-02,-5.252012467546169489e-02,2.085748016834259033e-01
3.313799012425990842e-01,3.448384395355554299e-01,2.717919623467210943e-01,-1.210137371292665034e-02,-2.330382159357134025e-02,-2.470147440080284681e-02,9.183051437139511108e-02
4.436971786141827301e-01,2.912531617334651601e-01,2.203681553826942197e-01,-4.472906851837110676e-02,-2.934301761475919049e-02,-1.357114874778654889e-01,3.207924365997314453e-01
3.380280815497665459e-01,2.999756778482431385e-01,2.341905625106694144e-01,-6.465568010026785488e-03,-5.258238824025152948e-03,-1.868845483511449163e-02,9.764774143695831299e-02
3.706695809011594789e-01,3.333699409179415873e-01,2.755069391491012376e-01,-2.511672019074981561e-03,-4.644082970912863026e-03,-3.382565087483452304e-02,1.020480841398239136e-01
3.654645672323460492e-01,3.460391821240587640e-01,2.368384797958104915e-01,-1.762094517474444228e-03,2.079135090743831037e-03,-6.471985053417145251e-03,1.207118406891822815e-01
3.054238181109315553e-01,3.031171710704977929e-01,3.323492035145073076e-01,-6.731158428375396026e-03,-4.681565992942162899e-03,-4.984417080035817051e-03,3.268966451287269592e-02
2.984445627880899510e-01,2.979457402572660563e-01,3.217942739943570052e-01,-4.730088275386053176e-04,-1.438415807299470509e-03,-1.207677691355496605e-03,2.384028024971485138e-02
3.043127087244808515e-01,3.007126587954966901e-01,3.242702724263256120e-01,-5.893998808288687186e-04,-2.873746817294326340e-03,-1.214670295230173367e-03,2.265737578272819519e-02
2.737711046180290597e-01,2.963456645233019104e-01,3.177826636771763913e-01,-6.501303918398642669e-03,-4.109696413698092632e-03,-8.335220480361279355e-03,4.288337379693984985e-02
2.831425932531304035e-01,3.050653965766970122e-01,3.172169884043155585e-01,-4.795270435263747702e-03,-3.022689940594600316e-03,-8.205328707990979659e-03,3.454046323895454407e-02
3.053427572742128948e-01,2.964573592618389153e-01,3.293668691936301740e-01,-5.965224300869594043e-02,-4.371249845174898785e-02,-4.200814663138674465e-02,1.502369493246078491e-01
3.048980161942690947e-01,2.859612034999178265e-01,3.070739046694638263e-01,-4.759354356542080944e-03,-8.634406845906180891e-03,-3.897007694783343346e-03,2.723444625735282898e-02
3.490453041380089938e-01,3.051464468237776728e-01,3.576835728506134737e-01,8.544677635215654210e-02,1.156189672087326731e-01,-1.108863018788232707e-01,3.182372450828552246e-01
3.551064757794983873e-01,2.619384343051149311e-01,3.307013042121789148e-01,6.102458748057508139e-03,6.359159471119873661e-03,-1.501357260866980139e-02,8.894590288400650024e-02
4.761292585552396317e-01,3.063067652308072986e-01,4.780324752736258009e-01,1.140979058617943714e-01,8.038556261356173682e-02,-1.230646596490049365e-02,2.967513501644134521e-01
3.806441725020200395e-01,3.060825331081808431e-01,1.764863188135174510e-01,3.788298427170238430e-02,3.628122722874259354e-02,-1.395521933235954748e-01,3.141596913337707520e-01
3.939144192879414641e-01,2.496866100184482740e-01,3.937345817791703118e-01,2.798232228538251321e-02,2.096903260286938145e-02,-1.491720229675968894e-02,1.584659516811370850e-01
4.070776074397886579e-01,2.873025196857740271e-01,4.019850274786740396e-01,2.663012224652499399e-02,2.429519069567835296e-02,-4.099331896267573855e-02,1.506706923246383667e-01
3.299022317417874550e-01,2.734994845345872783e-01,3.239540838959723557e-01,9.430680230563493957e-03,1.086710658310907282e-02,-8.877458249163590331e-03,6.114475801587104797e-02
3.300525313240723069e-01,6.570235768060939119e-02,2.327411039301147677e-01,2.786640167882679497e-03,1.625802311736183892e-02,-1.361715469700826575e-01,3.317688405513763428e-01
3.957149165154850712e-01,2.967184562118832525e-01,2.340272321310511994e-01,2.877636115387175592e-02,3.937120660062695676e-02,-8.219378228799387176e-02,2.175745069980621338e-01
3.514074259041725101e-01,2.477565452174481930e-01,1.029833509811574066e-01,4.126451237424701851e-02,9.078110880498521662e-02,-1.223144545370793840e-01,3.484580814838409424e-01
2.691278522726859856e-01,2.295244036248870467e-01,1.955512430287917602e-01,9.482495059289211548e-02,1.010357219997244232e-01,-1.060578969559590884e-01,3.088897168636322021e-01
3.625283174847439005e-01,3.152565046606454202e-01,3.296357652875818722e-01,8.680046624720048551e-03,6.768742331322185300e-03,-1.445394944360039319e-02,5.245837196707725525e-02
3.403365744057419429e-01,2.730735979354383947e-01,3.965801456522770052e-01,9.702435765289556258e-02,3.291187564083716821e-02,-1.849555685422058643e-02,2.097326070070266724e-01
3.064535551457643892e-01,2.895674827644681981e-01,3.021089502706504337e-01,5.134654702290684936e-02,4.229594545883691437e-02,-3.821992814662630855e-02,1.337504535913467407e-01
3.175309861186199623e-01,3.349881316512627882e-01,3.589194193709083214e-01,1.662234654753204019e-02,6.672518764682107244e-03,-6.381301529219307947e-03,4.878389462828636169e-02
3.310100090431783992e-01,2.962673275562702213e-01,3.364601683459116921e-01,4.612890088000786912e-03,9.154436278693812989e-03,-5.242855878529730992e-03,4.270622134208679199e-02
3.507108985926147837e-01,2.787918945806295290e-01,4.436066615238515309e-01,9.638466164305292683e-02,7.869760107266737803e-02,-5.525109353343756607e-02,2.758458554744720459e-01
3.197175764992911673e-01,2.979881365509591262e-01,3.440424822128310134e-01,1.485578569581099719e-02,5.382446818723548090e-03,-4.457728123432612433e-03,4.900046437978744507e-02
1.695499104507642296e-01,2.007878516474267128e-01,3.078255997483860806e-01,1.152414581195933402e-01,3.767801677340112954e-02,-2.117232881178694043e-02,2.474308162927627563e-01
3.707525153305036847e-01,2.634470843475664181e-01,3.389138977561157451e-01,5.100181367440310282e-02,4.995429023921538897e-02,-6.669514259962779079e-02,1.942839920520782471e-01
3.257207334386214570e-01,2.840462798724465165e-01,3.038336735204884564e-01,7.085163582862998542e-03,9.754303083949644737e-03,-7.984936769876552903e-03,4.394300654530525208e-02
3.461269123137361015e-01,3.458690069403301259e-01,1.985597824446286297e-01,6.396822147827184446e-03,2.077709735948687214e-02,-1.929157407688861237e-02,1.557959616184234619e-01
3.181222153857981572e-01,3.223897588266238512e-01,3.216610881542716904e-01,2.785561913661613147e-03,1.830318450334876210e-03,-1.625293368390806669e-03,7.542297709733247757e-03
3.148532782130658569e-01,3.280344674867941013e-01,3.165025719451788344e-01,-1.315408806864423047e-03,1.742317793643749198e-03,2.925595111539197168e-03,1.395347621291875839e-02
3.290586590368330677e-01,3.203778740629556476e-01,3.009853763666643922e-01,-7.527114433570845572e-03,3.396985588142275702e-03,4.752141314635902059e-03,2.986815199255943298e-02
3.002593522925219305e-01,3.248201224798839548e-01,3.185148802656277978e-01,-1.599435240247915275e-03,3.711116349401624367e-03,7.894332478358615304e-03,2.690871804952621460e-02
3.155570183034434040e-01,3.460474668425811973e-01,3.258975393012938371e-01,-2.545748050426919931e-04,2.090012753948826581e-03,6.536437463692509713e-03,2.937312796711921692e-02
3.534149830178340834e-01,3.350358027191537302e-01,4.280292724819647621e-01,-6.580480422608331326e-02,3.815230147536677330e-02,2.937568244264427905e-02,1.649934500455856323e-01
3.266543780031399558e-01,3.290667225140021523e-01,3.155593602228548011e-01,-6.468240575563314124e-03,5.971364624848155694e-03,6.976308975189123539e-03,2.311225794255733490e-02
3.124790862134879110e-01,3.291303021596088674e-01,3.100275793449408512e-01,-2.657060614353508321e-03,8.789738839348120803e-04,1.160869085414969939e-03,1.875190623104572296e-02
2.818499138589809494e-01,3.194634120033059688e-01,2.829319874182844030e-01,-7.854042857700891528e-03,-1.111098270532404064e-02,-8.385396290176472950e-03,4.627753049135208130e-02
2.085807278298416889e-01,3.318774195130695381e-01,2.954038954835270792e-01,-1.995113634961784982e-02,-5.821854426838231344e-02,-1.455551654168409960e-02,1.550266295671463013e-01
2.517717699396957998e-01,3.270615646883984207e-01,3.462445177261657681e-01,3.813433336355558090e-02,8.508649514745588241e-03,5.600705571666550128e-05,1.098212301731109619e-01
2.916469125045927369e-01,3.195281867835186862e-01,3.443057053113462440e-01,6.521378897789757018e-03,2.987563956004678570e-03,-4.338531257086851445e-03,4.788475856184959412e-02
2.913749679169977402e-01,2.918259534461901117e-01,3.290371832562200005e-01,-1.311877632618128724e-02,4.943775872870042817e-03,5.656987826610903464e-03,4.568692296743392944e-02
2.385196190518766857e-01,3.384240653016689082e-01,3.338073795447756842e-01,3.722789621811877381e-03,-1.646747446715091795e-02,7.116290448851173185e-03,1.027035564184188843e-01
3.226183723843052409e-01,3.056448309376877392e-01,3.475155702326429008e-01,2.210421327310874325e-03,3.169992595622066808e-03,-1.197391926629090206e-03,3.714391961693763733e-02
2.712977209524022881e-01,3.319654163149443060e-01,3.342895849572979916e-01,7.370244901140627150e-03,-6.142811934887633211e-03,8.670354826820981381e-03,6.579256802797317505e-02
3.170513662891655815e-01,2.765734075073622567e-01,2.862188403464325792e-01,1.710548683195634717e-02,-1.568189986406947484e-02,2.467361854227596851e-02,6.915918737649917603e-02
3.035329045642049528e-01,3.075681309966654675e-01,3.429743493195720472e-01,4.830273934408868368e-03,-6.576653282039956507e-04,2.069192981852226772e-03,3.868969157338142395e-02
2.989933529380169874e-01,3.459110782394780315e-01,3.578688423500234195e-01,1.508514916846875366e-02,-5.559221968872512208e-03,9.206939502580889154e-03,6.272954493761062622e-02
2.123314165522417751e-01,3.188482894433699588e-01,3.420682299163428919e-01,2.457068381007846899e-02,7.187239806463548066e-04,2.023012696637981923e-03,1.272136270999908447e-01
3.077936556884978692e-01,3.257181256064319852e-01,3.561602475783415267e-01,4.260423305331035790e-03,-7.756499549666143580e-04,-5.740914767849013712e-04,4.302226752042770386e-02
3.010747467675795597e-01,3.090658622045625581e-01,3.305350649117844153e-01,2.415048789883417202e-02,-1.138201974295433190e-02,1.500516041587233659e-02,5.924695357680320740e-02
3.432078604585812598e-01,3.027239046213331952e-01,2.706468432389054213e-01,1.783437102980333505e-02,-1.157104454393715481e-02,3.259831215876923816e-02,9.225132316350936890e-02
3.786159633795527224e-01,3.146698910799898830e-01,3.567749415422837300e-01,1.454654579014813629e-03,1.044095121029500533e-03,2.379968599626504713e-02,6.984537839889526367e-02
3.579913368976044841e-01,3.184065998511422801e-01,3.181408662176876678e-01,-5.963892759783440036e-05,2.041938497858056083e-03,9.212944132621844751e-03,4.294991493225097656e-02
3.932790985606482437e-01,3.966645428552973973e-01,1.782052280294373625e-01,-2.077510836231497016e-02,-1.130884071405440228e-01,-1.600198282668623823e-02,2.956794202327728271e-01
3.315937358199668727e-01,1.406245203521444553e-01,3.451490487321388634e-01,6.752102573432058885e-02,-1.133088869631505499e-02,9.295299022855360582e-02,2.814690768718719482e-01
3.469194511403222436e-01,3.175218947105156730e-01,2.998183979504540075e-01,-2.340424871830174697e-03,7.592148778576292799e-04,4.395460102993823878e-03,4.212115705013275146e-02
3.391476992271610924e-01,3.278104973177775050e-01,2.609436509550288052e-01,1.194409707893209945e-02,-8.217835523136957088e-03,1.185935763448347884e-02,8.006438612937927246e-02
3.477195169977510547e-01,3.466915248979819952e-01,2.684291115186418497e-01,9.661164140932911037e-03,-8.261489911927582391e-03,5.741393203667088420e-03,8.240252733230590820e-02
3.382317838299944701e-01,3.407218912462922633e-01,3.037748065600870961e-01,-1.770997287058932376e-02,6.176300832769417853e-02,3.877210858229329649e-02,1.348111778497695923e-01
3.323845442150415996e-01,3.137072463346246010e-01,3.151227995167044660e-01,1.313811869491538029e-03,-1.039419102385447970e-03,-2.213833311778684316e-04,1.824754849076271057e-02
3.444476825182404278e-01,3.158936471985581140e-01,3.072545871459846367e-01,5.789148724621172998e-03,-2.100397499461359799e-03,5.722447105107581790e-03,3.672415018081665039e-02
3.557983874544174974e-01,2.862513971646230559e-01,3.220698148772634384e-01,1.240998305255273850e-04,-4.005006591733926806e-03,1.025972220090427822e-02,6.318727880716323853e-02
3.437740883587739327e-01,3.082925240341206075e-01,3.134669294081509072e-01,-6.596465778043589441e-05,-1.121493356623185509e-03,1.719885577093200908e-03,3.338832408189773560e-02
3.402476255998050925e-01,3.074087883053183146e-01,3.119962572445093008e-01,4.993690368908316937e-04,-1.433467275218047255e-03,1.992358934333860777e-03,3.110639937222003937e-02
3.303037686178719179e-01,2.924260181321651220e-01,3.166053496926842237e-01,6.207582574137264324e-03,-9.986730812324769169e-03,5.584406104066932247e-03,4.014808684587478638e-02
3.836187430206904336e-01,3.764437977308089378e-01,2.999414681654127834e-01,3.284623082302855213e-02,-2.551004786654019474e-02,7.154537862712900820e-02,1.643110513687133789e-01
3.437603918849455042e-01,3.079373378634824299e-01,3.026883363371354330e-01,2.831801065707938332e-03,-1.127806882828207968e-03,5.303721395050914680e-03,4.013900831341743469e-02
3.346049878413602796e-01,3.185428039735240247e-01,3.181254790773724861e-01,2.643456859958406326e-03,-1.181839207353322513e-03,4.022996212974270852e-04,1.704436540603637695e-02
3.042748390203021680e-01,3.023023009156769469e-01,3.488993678644992658e-01,-9.764254522657420804e-03,9.148848634847451091e-04,2.210516417319634622e-03,4.885135963559150696e-02
2.577647322608261904e-02,2.512661492297293409e-01,2.992257112710239308e-01,-1.288898131386745916e-01,-7.973862052816110824e-02,-3.523590318485913392e-02,3.695907294750213623e-01
2.029119452194843853e-01,4.036785687683571155e-01,3.855096140718023423e-01,-4.394272737400846396e-02,-4.920322575612251850e-03,1.320511489242785948e-02,2.082745134830474854e-01
2.771852219177284304e-01,5.885084853911760616e-01,5.152205924159264372e-01,1.557023664950242005e-02,-1.148286509277319511e-01,3.439312172249208571e-02,3.511550724506378174e-01
2.253180711611421638e-01,3.304402817518994895e-01,3.838631986161805676e-01,-7.146378091819957645e-02,-4.981371090652182004e-02,-7.540039952370660749e-03,2.060500234365463257e-01
1.543504482045670034e-01,3.325094870687370641e-01,3.319154350846943990e-01,1.623729622016954061e-02,-1.600134160209521622e-02,8.926276906159087351e-03,1.828476786613464355e-01
1.402140209283875560e-01,4.133033082847398232e-01,4.325239752582347164e-01,-6.303455473294425349e-02,3.455260557398143195e-02,-1.185836883917790359e-02,3.100318014621734619e-01
1.060727796197015182e-01,4.025408046250119609e-01,3.290844327139459402e-01,1.177309772469263376e-02,-1.245782481644797796e-01,-2.395886056005648232e-02,3.467113673686981201e-01
1.781143152417594133e-01,3.615598674949517255e-01,3.518302281161049816e-01,4.723981443461078983e-03,-1.075027588056942998e-02,2.615899419793798770e-03,1.799896061420440674e-01
3.227960925093400490e-01,3.225076682785151250e-01,3.184823177294839325e-01,5.638222040753236523e-07,9.194730564146973194e-04,7.683020623264840386e-04,4.664204083383083344e-03
3.221030461375593568e-01,3.203541672027566678e-01,3.185484767110191018e-01,-8.729660428691549253e-04,-2.507255892913481617e-07,3.608137110925200750e-04,3.486229805275797844e-03
3.161430035399370730e-01,3.248725802566095333e-01,3.134386006927081247e-01,-5.568972696873778893e-04,2.440933027839819374e-04,1.561143441170077112e-03,1.074933726340532303e-02
3.153045469169629134e-01,3.230463859579494890e-01,3.119323504121291335e-01,-2.448116170661283029e-03,7.673476634598881945e-04,1.228238988433730250e-03,1.103117316961288452e-02
3.196267732352394697e-01,3.178816723497044361e-01,3.232538550158279844e-01,-1.555000420790025178e-03,1.583823933598782920e-06,1.075139784744537710e-03,5.766505375504493713e-03
3.141043387858682423e-01,3.171997201578040659e-01,3.275215880789261180e-01,-1.050452814693895358e-03,4.895419258101668322e-04,2.526226419763803049e-03,1.308614667505025864e-02
2.437319122573185504e-01,3.341661876891117711e-01,3.092643357423534578e-01,8.624953722181165003e-03,-2.723292404181681947e-02,1.338194704393648113e-02,9.763080626726150513e-02
3.008424458306561133e-01,2.730746917170396304e-01,3.389245411417859399e-01,-1.525203228426105437e-02,-4.270823960900545745e-03,-2.875991893009950760e-03,6.368795782327651978e-02
2.559691751839137663e-01,3.715021580792962075e-01,3.650558407595324018e-01,9.904334528235908888e-03,-1.343002319650505802e-02,9.296698627767876685e-04,1.161147728562355042e-01
2.293818814354503799e-01,3.419837651813161794e-01,3.325585847648003246e-01,1.433046930848588460e-02,-5.247434428291087964e-03,6.323127061428493803e-03,1.119167730212211609e-01
2.691949936997487525e-01,3.431621106234468699e-01,3.368638800255753796e-01,2.746624732477740815e-03,-2.278432980028775954e-03,1.293043400442457289e-02,7.473108172416687012e-02
3.038184536523353962e-01,3.416844600842017243e-01,3.476312845115608341e-01,1.360307717352575961e-02,-1.334250934172932779e-02,1.201424568899353215e-02,5.671513825654983521e-02
3.066496422912716180e-01,3.057469199212742850e-01,3.440322867863865874e-01,6.041765370567097997e-03,-4.863586905203146418e-03,3.432056296741084131e-03,4.059350118041038513e-02
3.013339330873870403e-01,2.963960861203799313e-01,3.425682856183568381e-01,9.449649688889472446e-03,-1.323536619871674546e-03,8.322939502296873701e-04,4.694128409028053284e-02
2.701671846741446337e-01,4.528752457695630063e-01,4.560987055421654723e-01,2.659564235829822709e-02,7.953479686571519533e-03,2.068822643669322378e-03,1.905418038368225098e-01
2.706205565918772815e-01,2.986537253493986022e-01,3.401337451023266900e-01,1.644850271642072509e-02,7.464426042026550776e-04,4.655120967957664547e-04,6.695706397294998169e-02
3.861453757708602774e-01,3.418831830844840103e-01,4.248556317429037499e-01,5.594547330308231869e-02,2.390486468180262267e-02,-1.767389462809008244e-02,1.311950534582138062e-01
2.408968571903076505e-01,2.968327199379154901e-01,3.355027568528718418e-01,-4.408256729278933750e-02,2.733683081296064618e-02,1.642857230783874301e-02,1.251744925975799561e-01
3.035805643796548048e-01,3.029000121263488721e-01,3.425461990924564271e-01,-7.677991277286264592e-03,3.436619880101778480e-03,-4.436931742565677211e-04,4.193063825368881226e-02
2.785192663563598736e-01,3.834256223079764991e-01,3.901759839841606459e-01,-5.598109489854818932e-02,5.516828691565616588e-02,3.128370759775724042e-02,1.822836995124816895e-01
2.982317584694129109e-01,3.367172159813689447e-01,3.244653703346743190e-01,-4.735776055402892912e-03,7.351636745587124093e-03,1.170800621927377098e-02,4.243082553148269653e-02
3.307699594726160042e-01,3.412393072453220322e-01,2.759794014470514645e-01,-6.991180436079482037e-03,1.088681878562080749e-02,5.483485879460184981e-03,6.540365517139434814e-02
3.357134419008815374e-01,3.250501807283547873e-01,3.808856682692179363e-01,-2.898562571146272304e-02,1.455925072506186572e-02,2.008972449369969548e-02,8.368467539548873901e-02
2.819316619258027123e-01,3.052020892503148342e-01,3.233890219104049724e-01,3.986045543878599662e-02,-3.512552029686265287e-02,3.462705650843671268e-02,1.155879274010658264e-01
3.105152635879649403e-01,3.282182822512951792e-01,3.091529542336730607e-01,5.620338636880285385e-03,-4.964856325400043846e-03,7.809984218180751961e-03,2.628823556005954742e-02
3.205556288153996181e-01,3.265504090172247631e-01,3.236975813572470217e-01,6.381908294301014486e-03,-5.196057712852355723e-03,5.428311253310454110e-03,1.784816384315490723e-02
2.999349156229009772e-01,3.316533637646466581e-01,3.106592512528382755e-01,4.870830476943542424e-03,-3.877637890341986519e-03,9.387958859264737554e-03,3.408220410346984863e-02
3.397594834659657947e-01,2.996904811207120045e-01,2.965086690841989836e-01,-2.064430625038229418e-03,4.817107078314635318e-03,1.504244174684991539e-02,5.004363507032394409e-02
3.175727763604471177e-01,3.145537609407640378e-01,3.228705273737744186e-01,1.242128490332316312e-03,-3.035951307585032805e-03,1.435776098982526321e-03,9.572806768119335175e-03
3.642615365874264377e-01,3.665564471911859634e-01,4.100364058811608037e-01,6.534194187540798282e-02,-2.834759157556475742e-02,4.001061289538961063e-02,1.483831852674484253e-01
2.936143953064905276e-01,3.254594022591550395e-01,3.309196295394269405e-01,1.761557382779986580e-02,-8.594679773638563836e-03,6.219114544471951445e-03,4.986343905329704285e-02
2.738231129245097817e-01,3.298306137748121536e-01,3.275810136462319888e-01,5.087804455469592188e-03,-9.322687284117829598e-03,1.102738205536864941e-02,6.098451092839241028e-02
2.913495629209943982e-01,3.337096391191616274e-01,3.245413163877829410e-01,4.214847787412507457e-03,-4.121500303774330506e-03,7.934383256806763068e-03,4.222773760557174683e-02
3.247969842477916869e-01,3.096488253680416691e-01,3.132413136437270373e-01,1.575603130920679969e-03,-3.021629674846223676e-03,2.353909717343260263e-03,1.547301188111305237e-02
3.301362720817438423e-01,3.190769499960466882e-01,3.181968514528137337e-01,3.050313687404531977e-03,-3.123137376486468959e-03,1.927368805426367361e-03,1.418223977088928223e-02
3.355704239879021555e-01,3.098261069588041372e-01,3.148851721968043971e-01,1.692041735356816052e-03,-3.884776379623180922e-03,2.405718371674065922e-03,2.508680336177349091e-02
3.391236139500266034e-01,3.119529968001776288e-01,3.213402631624467376e-01,9.195904648860479206e-04,-5.769175472567142186e-03,2.539266861015273928e-03,2.632557973265647888e-02
3.329236160373963971e-01,3.109412530628517524e-01,3.093637662053473347e-01,2.781410092186392419e-03,-1.982265173511789120e-03,1.118121341679462633e-03,2.364607900381088257e-02
3.217336396906716467e-01,3.131118581179155869e-01,2.976011507132979017e-01,8.295321669985401825e-03,-5.348806259503733826e-03,5.754353596941236271e-03,2.898708544671535492e-02
3.284653697461928368e-01,3.157190450334466658e-01,2.967375912221950074e-01,6.653180584385871149e-03,-3.837571640495225558e-03,4.781585488581696457e-03,3.178481012582778931e-02
3.343348602677237991e-01,3.194376650244838967e-01,3.017125066549171675e-01,7.307964560329230190e-03,-5.666489731862340076e-03,3.198709012366744448e-03,3.297581523656845093e-02
2.972554344580507490e-01,2.654679116621611046e-01,3.399329833982606131e-01,-1.192176999352830870e-02,2.535503652623363920e-03,-1.415063967095379514e-04,6.807470321655273438e-02
3.245889924517514347e-01,3.155973375265783698e-01,2.969493824601689425e-01,7.207573247507031468e-03,-2.656656191731530253e-03,5.082448663838978406e-03,2.916824817657470703e-02
3.364778683628237288e-01,3.078141708542563859e-01,3.209586552323001052e-01,2.256532566895402478e-03,-5.983941177757319714e-03,2.611199575702662437e-03,2.758204191923141479e-02
3.570730022854396446e-01,3.459348216754711824e-01,1.524833230164620024e-01,2.125124540679957513e-02,-1.088301719206932194e-01,8.142322604729008984e-02,3.106096088886260986e-01
3.563594094993884354e-01,3.938356437104222341e-01,3.512395331105542806e-01,9.340288988561491756e-02,-6.024423391157694707e-02,1.612471131240000022e-01,3.415916562080383301e-01
2.361276709189351897e-01,3.431357217186351560e-01,1.228492013112817832e-01,2.489266679637686108e-02,-1.225399599272629647e-01,1.795681957073066992e-02,2.903081774711608887e-01
1.787784194912551139e-01,3.290877677336020435e-01,1.723646641214229280e-01,-1.099621314252561925e-02,-1.382587536097473202e-01,-2.231820207390253219e-02,2.877526581287384033e-01
3.491177139573850008e-01,3.124740483775477196e-01,2.901998284834471642e-01,-5.086823431682690327e-03,3.254054541962004068e-03,8.581363482548370891e-03,5.463901162147521973e-02
3.299473875676550150e-01,2.790493337385593353e-01,3.319956483388912805e-01,8.741714371164957531e-03,-8.059042796472837972e-03,8.463459657240431783e-03,5.777583643794059753e-02
3.295450027328031828e-01,3.110433612986482355e-01,3.153898517918606870e-01,2.376808246495155236e-03,-4.321076427265726355e-03,1.311470603824323568e-03,1.894487068057060242e-02
3.213018160845588223e-01,3.157777038545185322e-01,2.792012891550799680e-01,-9.121685902933163170e-03,-6.545811109392210905e-03,-4.346180318786790203e-03,4.477977752685546875e-02
3.493833579325946737e-01,1.739997735416177749e-01,2.932066970522651528e-01,-5.031221793505794015e-02,-1.341245380039200567e-02,-6.766586651995608326e-02,2.143184542655944824e-01
3.214086044832826783e-01,2.743371198989587034e-01,2.530542745013807382e-01,-1.759301675543187976e-02,-1.615983187551011530e-02,-3.366687587854449992e-02,9.371680021286010742e-02
3.328756354663290340e-01,3.241904563662963978e-01,3.289298412861229592e-01,1.288007430917090593e-02,1.866794662358498003e-02,-2.059620102087037982e-02,5.359578132629394531e-02
4.298949197407597178e-01,3.952014025710465783e-01,5.201838678265080507e-02,-1.475000225372653795e-02,4.341105076595316858e-02,6.825160831172937372e-04,3.703944981098175049e-01
2.712126356506237568e-01,3.141049433726414430e-01,3.386014263445117356e-01,-4.266272448825146092e-03,-3.550022757905911975e-03,-9.042010042401075337e-03,6.187263876199722290e-02
2.815374887625497480e-01,2.587449510722830137e-01,3.416209038332319037e-01,-3.449291950511648719e-02,-1.578641331482489446e-02,-1.777948181449415938e-02,1.037507429718971252e-01
2.970870149569012630e-01,3.779174654694175128e-01,3.907074672396576576e-01,-6.094878102999652658e-02,-4.654507337923093763e-02,-2.781575444155425653e-02,1.664202809333801270e-01
2.974205829063108486e-01,2.917413896098441373e-01,3.364212531732927447e-01,-4.396310251686753531e-03,3.092975437422945499e-03,2.804196020532829462e-03,4.341739788651466370e-02
2.979040817814415099e-01,2.698956641289745884e-01,3.680902739766273579e-01,-3.467525811742253050e-02,4.878334160652485901e-03,-1.307606037010874403e-03,1.065834015607833862e-01
2.635336934945343712e-01,3.331034082705824351e-01,3.615903262828958353e-01,-1.467999227610235040e-02,3.599632110909163109e-03,2.922655550296586208e-03,9.134703129529953003e-02
2.656870825754731880e-01,2.962893933156277582e-01,3.675419882296355745e-01,-5.923723112191501411e-02,-5.889421787876041904e-03,-3.112210156961920477e-04,1.372057646512985229e-01
1.802780197452804600e-01,3.002372296441605526e-01,3.614353202635046114e-01,-1.058754343644490864e-01,-4.745017886710026916e-02,-3.467945111164243144e-02,2.635679543018341064e-01
3.365879707948715716e-01,2.872079901074313102e-01,3.540201161149528764e-01,-2.664656309154064470e-02,-1.224588434558251775e-02,-2.020103068275767855e-02,8.606572449207305908e-02
3.079437769597538899e-01,3.380974016602338317e-01,3.418646424671822337e-01,1.889783954019953402e-02,1.288604548580934463e-02,-1.399909375710916247e-02,5.651980638504028320e-02
3.286342637529339195e-01,3.351781688354647515e-01,3.594704242610778921e-01,3.479253019943420039e-02,2.572621246857410143e-02,-1.571729369494694745e-02,8.455812931060791016e-02
2.151490908232955024e-01,2.434399951238891413e-01,3.336025501242780855e-01,1.048350268664858115e-01,5.150970988166171660e-02,-3.296919844736748845e-02,2.359496653079986572e-01
3.419588719465941895e-01,2.933141427874449980e-01,2.988894373444082042e-01,1.772350875272295624e-03,7.450843999844031533e-04,-7.227839306277676623e-03,4.789571091532707214e-02
3.420474386285582424e-01,2.942650356414878154e-01,3.073156975760998888e-01,2.955413349528712014e-03,5.216777094135174181e-03,-7.809309605576073184e-03,4.605094343423843384e-02
3.480151583666827309e-01,3.053312589082610162e-01,3.013814629962515146e-01,4.021639857793150885e-04,4.137276836147210993e-03,-9.446204191293432195e-03,4.822486639022827148e-02
3.426865901524067115e-01,2.936786483555298144e-01,2.929152734073298125e-01,-2.637637242461049469e-03,-1.765832007038312156e-03,-9.251979107814122666e-03,5.221873149275779724e-02
1.402611902651082210e-01,3.174846666989529220e-01,2.994943458641462497e-01,5.113248177439104480e-02,9.736672745388302852e-02,-4.338201597765281581e-02,2.654692828655242920e-01
2.416222499200440799e-01,4.003165871293361544e-01,3.574693329921840856e-01,3.151799162998931286e-02,4.628963720602080611e-02,-1.120135709587891451e-02,1.732192784547805786e-01
3.010113485980289716e-01,3.387461868281064215e-01,2.732650935864999742e-01,8.879729857745884136e-03,4.093896049494236133e-02,-1.271540048247190094e-02,9.481751918792724609e-02
2.357139252805498242e-01,3.519008956238386943e-01,3.555748334837429137e-01,1.339557381840025645e-02,1.168282817364555901e-02,2.660377943067982333e-04,1.220154762268066406e-01
2.572700278992668399e-01,3.534760640084037009e-01,3.268371947848404124e-01,1.052031622843028688e-02,1.019928088263371072e-02,6.369782627818590566e-04,8.970917016267776489e-02
2.631725184102577386e-01,4.109885605390400931e-01,3.756960767171352300e-01,-7.160778284468236748e-03,5.237884670477990084e-02,1.666444095563306832e-02,1.646083742380142212e-01
3.365721685906096217e-01,3.319501873744604703e-01,2.953858911525040210e-01,9.092579597343400377e-03,-5.056376728907720219e-03,4.462624985598193442e-03,4.372391477227210999e-02
3.421973128126847286e-01,3.366995050358995156e-01,2.788692362505233446e-01,9.179610448593562844e-03,-4.699262796319771465e-03,7.570468805194850367e-03,6.467987596988677979e-02
4.077674861110191507e-01,3.897567269387954836e-01,3.988147027992716143e-01,5.270194276536176170e-02,-3.162295016507157830e-02,5.231396560750564001e-02,1.406629383563995361e-01
3.287997828033052405e-01,2.982739692597401460e-01,3.000253318098687894e-01,6.510507840848998515e-03,-5.490003485854979756e-03,9.736636926080420584e-03,3.719432279467582703e-02
3.365239052937464836e-01,3.314515856150920814e-01,2.789972268909121089e-01,1.615976478312785430e-02,-2.702434787949538342e-02,2.340200596569445152e-02,8.752471208572387695e-02
3.648200325503367369e-01,3.638380452995148562e-01,2.403040445667235792e-01,4.869662873423523906e-03,-1.091274263084236230e-02,-2.191734756264820602e-03,1.258003860712051392e-01
3.430846729640678050e-01,3.828396970916895237e-01,2.975833356293253185e-01,2.864758059703896229e-02,3.956034576099792116e-02,-1.945669334174191661e-02,1.172712370753288269e-01
3.004621068597243538e-01,3.384889100761908076e-01,2.965930528525297372e-01,-5.608078912247794513e-03,-7.153420640175611918e-03,-6.068497450559549693e-03,4.434502124786376953e-02
2.785477268747253987e-01,3.238334539684304403e-01,1.845223726812509901e-01,-1.302814708670436972e-02,-6.212850948385236632e-02,-1.784730509796135164e-02,1.679112911224365234e-01
2.940894873362482342e-01,3.309714528442404546e-01,2.948866159941930243e-01,-2.528011068858123343e-03,-3.945814545997376396e-03,-5.349780023991938804e-03,3.851306810975074768e-02
1.983108417332704598e-01,3.172836217521874946e-01,1.478393672925130409e-01,-5.548860150176367079e-02,-1.452883920259652184e-01,-5.598064895735008206e-02,3.235293328762054443e-01
3.743188082798590277e-01,3.861280037775501328e-01,2.232075323472688666e-01,-3.374460500232100146e-02,-1.506662580632886494e-01,-4.784753334342597975e-02,3.211600780487060547e-01
2.397125878117329079e-01,2.430094390628519119e-01,8.268793155097681202e-02,-7.570682783839766117e-02,-1.289369773084161896e-01,-1.072707312759349080e-01,3.560549616813659668e-01
1.857130440625620049e-01,1.072893027667874977e-01,3.214595138964444487e-01,-1.537722033706417912e-01,2.113843620344878910e-02,2.353760417206514008e-02,3.303987979888916016e-01
3.199908225606520329e-01,1.560847528540758311e-01,3.560260122201401867e-01,-7.400606566252880547e-02,3.108045274619868417e-02,4.940769831933168599e-02,2.464186698198318481e-01
3.358570789274949453e-01,2.813710455309186842e-01,3.547961562020294779e-01,-2.823019735301002600e-02,7.971248370677280759e-03,8.606724525977953524e-03,8.463458716869354248e-02
3.439819819420089630e-01,3.059873739652151925e-01,3.108180943755337600e-01,-1.525303696915434421e-03,2.881772103665748621e-03,4.133229676361111632e-03,3.696659207344055176e-02
3.684216543873806704e-01,3.122269989054954342e-01,3.566526674760451265e-01,1.403673191603104463e-02,-8.349629402924895610e-03,2.219901513911458346e-02,7.009723037481307983e-02
3.166920069648856417e-01,2.992575306563248771e-01,3.517712338327392274e-01,-4.097534345701802153e-03,2.937572142227131387e-03,9.203464887977507022e-04,4.716883972287178040e-02
3.326976698043893066e-01,2.670629116384922175e-01,3.492094238698737474e-01,-1.055978232003771528e-02,7.677961647605262459e-03,3.613865759437501993e-03,7.883441448211669922e-02
3.078579094000583050e-01,2.507933817157338430e-01,3.921182577828485893e-01,-1.476794516441784499e-01,8.411216151559941512e-02,3.236414779944012110e-02,3.239737451076507568e-01
2.576700030342304326e-01,1.492632407236280656e-01,2.493634581007211637e-01,-9.211673421305657805e-02,6.759767238487512930e-02,1.031581196343855089e-01,2.863741219043731689e-01
1.488540554820047546e-01,2.537522860536795544e-01,2.644300890861326914e-01,1.288707157516519874e-01,-8.362391510792829830e-02,6.086042732189907850e-02,3.068412840366363525e-01
3.351147485816245442e-01,5.206968029522573982e-01,4.462513474853502249e-01,6.940332411630915910e-02,-9.579986758101080579e-02,1.074859182081933373e-01,3.206400871276855469e-01
2.531035585504362584e-01,2.613604493515476745e-01,2.511651856127050664e-01,9.641730082469700258e-02,-7.393440324947081477e-02,8.822596216416024595e-02,2.602444589138031006e-01
3.346679037820200486e-01,3.801556072220211857e-01,4.265495926960466977e-01,5.873710372231118887e-02,4.367438194621800843e-03,1.166569897614851657e-02,1.309485435485839844e-01
2.296806667444955263e-01,3.474570668458462630e-01,4.959799676310839289e-01,9.157622666030340586e-02,-1.972422198492040923e-02,6.900298390093756451e-02,3.066476881504058838e-01
2.503424234203004417e-01,3.609352351812559201e-01,3.645608889059064328e-01,2.677359154100245053e-02,-3.273957618605835562e-02,1.579483581966189664e-03,1.342329531908035278e-01
2.382650520635430647e-01,3.486202874118738970e-01,2.846661000417120002e-01,6.280754768846827374e-02,-6.227379375837918674e-02,4.578844669252404853e-02,1.974054723978042603e-01
2.392454660185908133e-01,3.403871579817220328e-01,3.458626240471086022e-01,1.373801370779014763e-01,-1.089827255093578640e-01,4.010891432668074047e-02,3.284679651260375977e-01
3.267015745596265064e-01,2.222295422418716082e-01,3.738703243234626772e-01,1.053230045172349610e-01,-3.128408768709027565e-02,5.590575490497602662e-02,2.523060739040374756e-01
3.921161317018192483e-01,3.444179383539964223e-01,4.499923825666853339e-01,-6.742060226684890023e-02,2.576050296303583967e-02,2.527085508814406675e-02,1.610237360000610352e-01
3.088126636352228060e-01,2.570374570956994731e-01,3.174399810153939461e-01,-1.520419929022945142e-02,1.400836107650322258e-02,1.002874208950432430e-02,6.917887181043624878e-02
3.185246898131720572e-01,3.014747641663342859e-01,3.235665888004291557e-01,-4.144286922929446906e-03,7.239744876692674400e-03,3.554569120632631533e-03,2.547070197761058807e-02
3.210557107046838610e-01,3.232955725338489406e-01,3.170378080870652204e-01,-2.703984369038170237e-03,3.203247273273107480e-03,2.573346738878818166e-03,1.013624109327793121e-02
2.973347811460855805e-01,2.694943132682675602e-01,3.360081027008964272e-01,-1.243885690906392991e-02,2.932788149511780535e-03,8.739770868063538372e-04,6.196508184075355530e-02
3.005342053280694037e-01,3.063367676346204216e-01,3.378909881067433396e-01,-3.518989650164806252e-03,1.099449107586378347e-03,4.276362846973186596e-03,3.616727888584136963e-02
3.045263566489872509e-01,3.034903262678191882e-01,3.370544680319373376e-01,-3.925520190171912123e-03,2.712150767347201383e-03,2.372368868763430685e-03,3.432247415184974670e-02
3.076115714338182872e-01,3.074201823767834796e-01,3.278967463695910967e-01,-9.402007654680406010e-04,1.130098365446738362e-03,3.238649771540748519e-03,2.129218541085720062e-02
3.294683302447643514e-01,3.812127620093904712e-01,3.989084266655298916e-01,7.587959469982968885e-02,-3.280056502479776481e-02,4.382111565644054851e-02,1.736891269683837891e-01
2.916406555498193831e-01,3.038885542200698286e-01,2.836763353995838677e-01,3.765582592293763298e-02,-3.636980971071539226e-02,3.591200903959371887e-02,1.113650649785995483e-01
2.858798209440814309e-01,3.244067398341580755e-01,3.571043382315378101e-01,3.226124089490985114e-02,-1.038521313319036923e-02,1.854978295132632057e-02,9.105711430311203003e-02
2.906721854442994579e-01,3.519547811536014592e-01,3.217529725162382448e-01,1.125743002901883477e-02,3.922663335375450866e-02,-6.903462519235912045e-03,8.919758349657058716e-02
2.537334944503106815e-01,3.250073928329439421e-01,3.376814218675245338e-01,1.197691064314111882e-02,-8.894925065535356362e-03,1.037130372305698593e-02,8.446488529443740845e-02
2.642375247064551180e-01,3.213847494913511516e-01,3.153253026986268526e-01,1.520886712296592308e-02,-5.769191192450084417e-03,9.310877170532926711e-03,6.332533806562423706e-02
3.182578616586294595e-01,3.152380087329566538e-01,3.542542992855808315e-01,1.587200282979497196e-02,-9.027813692443512018e-04,8.915520227691497296e-03,4.909412190318107605e-02
3.027161716973960637e-01,3.052198683604733787e-01,3.421073856551704595e-01,9.780705454515791972e-03,-4.634157085715984517e-03,6.199116449919226182e-03,4.388635978102684021e-02
3.224634261458236839e-01,2.674284955372119299e-01,3.454838010513719415e-01,3.295367299640621084e-02,-1.040550866308091044e-02,2.492877398162873098e-02,1.013543009757995605e-01
2.313496050602428800e-01,3.209350472510558161e-01,2.724838839978883098e-01,-7.763421791276894912e-02,-1.168555145050009653e-01,-5.878483064341357561e-02,2.746750116348266602e-01
2.635474209003180746e-01,3.192935895084218489e-01,2.363886820321908777e-01,-1.609582681089410591e-02,-3.503922632120676228e-02,-1.441353166244155153e-02,1.021907404065132141e-01
2.453586813341571138e-01,3.840715561754689533e-01,3.559672584774018489e-01,-7.058641876420002070e-02,-1.397960051987820473e-01,-5.148845007186753781e-03,2.996469736099243164e-01
1.847676400209827263e-01,2.890249595385279147e-01,3.028366883178957303e-01,-8.675974705541446286e-02,-9.511681121861023658e-02,-6.365053162230548123e-02,2.727230787277221680e-01
2.961227356984427184e-01,3.204341358400132900e-01,2.954682468062837519e-01,-7.652952590868804597e-03,-9.582975922321382983e-03,-8.941488944843593162e-03,3.603384643793106079e-02
2.554532725497746792e-01,3.282494830804176256e-01,2.705629612038080722e-01,-1.748864162158540042e-02,-3.802129863233322943e-02,-1.634646659270492380e-02,1.023899391293525696e-01
3.294603859713280403e-01,3.376979221932561170e-01,3.176121068323093932e-01,8.037029664639476489e-03,8.777002023748693010e-03,-8.481939310804735219e-03,3.076618351042270660e-02
2.623337477780397498e-01,3.338463844351365895e-01,3.136855077652603296e-01,-8.264115982052920584e-03,-6.599247428045613637e-03,-1.017501826528350792e-02,6.873784214258193970e-02
3.264775716449245802e-01,3.435124542846596518e-01,2.696695975775372234e-01,-1.095260157754329895e-02,-3.058524146257287843e-02,-1.709121514101000217e-02,9.234516322612762451e-02
2.949409765729949506e-01,3.482338681401653813e-01,3.109371587479839438e-01,2.080269168103490371e-03,-1.931171667336450265e-02,1.239868046253820959e-03,5.813732743263244629e-02
2.633903923048703799e-01,3.616386282260914964e-01,3.372062782777270895e-01,-8.895159931539917825e-03,-3.758639897697072657e-02,-1.393543302293294255e-03,1.110433712601661682e-01
3.199752185981421526e-01,3.592728332040888151e-01,2.963352830821467943e-01,3.628503238418600771e-04,-1.794837079264918062e-02,2.417956170884348523e-03,6.337593495845794678e-02
3.198707644539639516e-01,2.928911146967211887e-01,2.726144211462772637e-01,1.271184128260461135e-02,1.245746400359884487e-02,-2.583574457647104874e-02,6.810946017503738403e-02
3.263010157013192525e-01,3.267032011024205707e-01,2.891177521683021556e-01,8.654905636765922172e-03,3.837431350945853196e-03,-6.369620212705790797e-03,4.228862002491950989e-02
1.053452114685501373e-01,3.405912686463766770e-01,3.044397075152421861e-01,-8.003923163571721733e-03,6.200842779072307520e-02,1.755122898029715800e-02,2.465655952692031860e-01
1.161716150542326798e-01,3.250451350187983923e-01,3.680047193271494543e-01,-6.869092846089978888e-02,2.223154933229390395e-02,1.402658771435713776e-02,2.658478617668151855e-01
2.918198464134248993e-01,3.374877033179364827e-01,2.884027304513481771e-01,-2.282647654460252980e-03,1.513084851951451530e-02,2.656846325251333713e-03,5.456113815307617188e-02
2.706143782654089058e-01,3.389808761496209688e-01,3.468945755920769813e-01,-3.773051268137142533e-02,4.531064487764863147e-02,1.428104103408039949e-02,1.277474761009216309e-01
1.865142116124074989e-01,1.761083653884698563e-01,3.068310862973043784e-01,-1.381408381923247830e-01,5.554788528309381052e-02,5.207638759458724231e-02,3.007950484752655029e-01
2.567119577487980142e-01,3.125577235686595179e-01,3.204057809606827290e-01,-1.153051844738106971e-02,1.457051158298280392e-02,1.235791765963141324e-02,7.150199264287948608e-02
2.617170327429368948e-01,3.357687353536383257e-01,3.293468736601092295e-01,-6.520790710309973433e-03,1.448705675644468630e-02,1.234208645755482600e-02,7.914236187934875488e-02
3.149284015512565649e-01,3.299270906613980814e-01,3.125745077892590484e-01,-3.687440773751320122e-03,4.469497235563873322e-03,3.745741030094059537e-03,2.021433599293231964e-02
2.271467318997659746e-01,2.090576962952126194e-01,2.678693474913794725e-01,-1.084338014706169306e-01,8.497577743953106666e-02,8.790008596455538281e-02,2.878155112266540527e-01
3.251920212358010986e-01,3.165756287461665153e-01,3.122907804264160037e-01,-6.745280202694659000e-03,7.225753435822981560e-03,6.413148966469487365e-03,2.336746640503406525e-02
3.263324685566909023e-01,3.382597279089575859e-01,3.067516952138474307e-01,6.951785636508591749e-03,1.327328533824652379e-02,-7.001545300681181853e-03,3.974667564034461975e-02
3.551585857677257985e-01,3.626042475660259945e-01,2.720648667542339694e-01,6.544057992033714549e-03,2.228820309012184697e-02,-2.317329100035162362e-03,9.598733484745025635e-02
2.867796542375238844e-01,3.557155337474652290e-01,3.341370760130779050e-01,-1.137267278573383510e-03,6.546868120325932336e-03,-3.499433759899035767e-03,6.244564056396484375e-02
3.245349359005397782e-01,3.179277746136026095e-01,2.579493621981895357e-01,1.419602513935467290e-02,1.571756604231683979e-02,-2.329254779513090928e-02,8.372984826564788818e-02
3.501383657867849775e-01,3.585701738171992448e-01,3.041963195554521771e-01,2.049809462513904612e-02,2.938561811396363591e-02,-1.580368480482566285e-02,8.467272669076919556e-02
3.586898324359558687e-01,2.796340538311961055e-01,3.495991459928181611e-01,2.309796345274863980e-02,1.426516876642926895e-02,-2.675041060049257458e-02,9.985775500535964966e-02
3.045971245317080078e-01,2.729315079788878218e-01,3.173492408716622748e-01,1.905670509409193927e-02,1.258827378645745697e-02,-1.625792502308833626e-02,6.266545504331588745e-02
3.294236663823528755e-01,3.375647738005801424e-01,2.928567127446395357e-01,8.979550865347064176e-03,3.641393554048155158e-03,-5.722955962162422708e-03,4.561850801110267639e-02
1.656253341525559530e-01,3.287912154846379109e-01,3.391389809762694885e-01,-8.470099866069624728e-02,-9.275978399927345408e-02,-3.784459556437276551e-02,2.829330861568450928e-01
1.453373159772548551e-01,3.496349568710192535e-01,3.953057824241169027e-01,-8.305814252314870638e-02,-1.172258440959144804e-01,-6.188451991158844950e-02,3.557590842247009277e-01
3.166555078170800730e-01,2.975864394997260742e-01,1.962734908780742471e-01,-3.733036656808358389e-02,-7.134732394395204569e-02,-6.285937894757251398e-02,2.094416022300720215e-01
3.520708674774754021e-01,3.474792563179694982e-01,2.277598973809063787e-01,-2.120739340608870926e-03,-4.817258132728888254e-03,-1.503039835154867422e-02,1.251573413610458374e-01
3.063746793381692535e-01,3.609450003579263155e-01,2.825774034732129736e-01,-5.166612610189570687e-02,-6.445284811245946544e-02,-6.201730643192528147e-02,1.919686645269393921e-01
3.033243066597227644e-01,2.833103501395298762e-01,2.233474598983173354e-01,-4.027034160861502760e-02,-5.139769357835060476e-02,-7.081782265198009740e-02,1.817469745874404907e-01
2.499406512536592184e-01,3.473987035029666437e-01,1.936003606230062013e-01,-5.449152820416362786e-02,-1.189655099754174244e-01,-6.175682958566256625e-02,2.845543622970581055e-01
3.645736187412741414e-01,3.562405074230471924e-01,2.787981003959227322e-01,-9.735428309191286600e-02,-1.269102297300233884e-01,-7.599667734408732667e-02,3.174756169319152832e-01
2.630752979167335637e-01,4.190614941787333958e-01,2.002199076990032467e-01,-4.644573909908492060e-02,-1.302246377239472119e-01,-6.931302534836109031e-02,3.314316570758819580e-01
3.092509982548357628e-01,3.430827914884488350e-01,2.905364368298467559e-01,-7.654448304156158053e-03,-1.614948998806155916e-02,-4.529128057838645652e-03,5.610437691211700439e-02
3.537570918713189294e-01,3.527214885996177718e-01,2.883221507073897016e-01,-4.472106467058288744e-03,1.317020624293240537e-02,5.625551674307681209e-03,6.993097811937332153e-02
3.056480880001448686e-01,3.394989105429859211e-01,2.708314810385082927e-01,3.944085909148836028e-03,1.234034807692151355e-02,-9.930264637431358409e-04,6.358555704355239868e-02
3.559419628640601574e-01,3.648867871559314247e-01,2.855062970150740176e-01,-3.520074477566327402e-03,1.114427295600196009e-02,5.943086227215077684e-03,7.865714281797409058e-02
3.499844485639511116e-01,3.618658068574189812e-01,2.570546621794913555e-01,-4.256846550667000607e-03,6.192262228198400741e-03,9.443956553610350149e-03,1.015785560011863708e-01
5.005426644675912140e-01,4.788186913778451070e-01,1.964193601240280251e-01,5.685319976772207351e-02,7.075841426810000612e-02,1.321017321727808169e-01,4.042596518993377686e-01
3.449751713679292675e-01,3.591391028769529425e-01,2.780673049201068947e-01,1.112176666096704796e-03,1.669341871459448928e-02,-9.859829500322976267e-03,8.219688385725021362e-02
3.708279163039538973e-01,1.999926199752653511e-01,4.017665044968584120e-01,-1.490341712367936056e-02,4.170049833737098782e-03,2.032365191598341225e-02,1.933518946170806885e-01
3.036020272722274038e-01,3.209500131708447057e-01,3.394032022397138748e-01,2.774254486766866007e-02,-1.633329212960853150e-02,1.004654355798511103e-02,6.613375246524810791e-02
3.355179250213710662e-01,3.101559199132979949e-01,2.835570182198306477e-01,-6.352770443255236106e-03,6.976299124567729437e-03,1.078992436620809098e-02,5.139728635549545288e-02
2.651902637673868024e-01,2.263261615870368337e-01,3.280693249646446374e-01,4.857739208916808660e-02,1.575895250071489978e-02,-1.039037948661886146e-02,1.267128139734268188e-01
3.476285699382248850e-01,2.881509107643904777e-01,3.320460425620810341e-01,2.949089996307017580e-03,-5.952875301561392010e-03,7.085121307757621251e-03,5.600529536604881287e-02
3.864695803818202768e-01,4.117731130074384627e-01,3.185625492909078260e-01,2.731241467828457101e-02,-4.325101730877380091e-02,5.950582258656075818e-02,1.595073789358139038e-01
3.414132328370297342e-01,2.856164497521967438e-01,3.151249091920761969e-01,2.262102350735136456e-03,-7.588895674778247183e-03,1.047913162292275768e-02,5.343327671289443970e-02
2.777829596649722399e-01,3.079306419850640353e-01,3.835706295962874601e-01,3.875358070576859215e-02,-1.742063145210407792e-03,5.762518387819233652e-03,1.162966266274452209e-01
3.465793575770669266e-01,3.009182402935212108e-01,3.457207806674547634e-01,1.941455635418559006e-02,-1.369133175229186004e-02,2.226494268469999746e-02,7.229652255773544312e-02
4.001209652435688269e-01,3.491946765398469266e-01,2.958477695050605871e-01,6.963914896010582438e-03,-6.534439537361695464e-03,3.870978370127872714e-02,1.136884614825248718e-01
4.015944052628779293e-01,3.391847284216277236e-01,3.043225827967592223e-01,7.475531168966443804e-03,1.374521718240983952e-02,7.557050648471011489e-02,1.585976630449295044e-01
3.389545924445596659e-01,3.050389945638962708e-01,3.107237118306362955e-01,1.824375559198990974e-03,-2.876605676051642579e-03,3.866871723716440532e-03,3.270246088504791260e-02
3.334732320865042565e-01,3.055606701867508157e-01,3.087707846108737053e-01,2.377020582152555850e-03,-3.828982490438739405e-03,4.101047562927676721e-03,2.848162874579429626e-02
3.641720653331972923e-01,3.598833785232280480e-01,3.043993915009394757e-01,3.773277626767628651e-02,-3.809306687517602374e-02,5.926109808530979212e-02,1.499832868576049805e-01
4.574054248773148923e-01,4.983215631717591299e-01,1.681430181616913877e-01,5.675713988726548836e-02,4.358644897362942694e-02,6.472369798187271872e-02,3.537135720252990723e-01
4.030239092750431684e-01,3.952967464257766128e-01,1.454167829595943151e-01,7.115433478240974600e-03,-1.084412103896684534e-02,-1.739060448647716806e-02,2.565980255603790283e-01
3.312990741259734806e-01,3.139264333055354905e-01,3.096396618475861784e-01,-3.560392675468451035e-03,2.398234239136676563e-03,1.646419294711070963e-03,2.140265144407749176e-02
3.740438300357289414e-01,3.647411071702393315e-01,2.352558095757903422e-01,2.039012353907848976e-03,6.534065304130792090e-03,1.307274396873254075e-03,1.349193453788757324e-01
3.172565682743462290e-01,3.230711744731767920e-01,3.114913569707827845e-01,-3.739035969985404859e-03,2.218368070038505020e-03,1.317030557289054380e-03,1.274668890982866287e-02
3.451101282929524561e-01,3.482190585324492771e-01,2.679119929284740631e-01,-4.670790059742918263e-03,6.920144356542637896e-03,4.903873115251608170e-03,8.056350797414779663e-02
2.664036373729351537e-01,2.890628081438855745e-01,3.367415819215960338e-01,3.681757220842808015e-02,-2.647389465065648310e-03,1.033199338534657001e-02,9.096670895814895630e-02
3.563551776940679372e-01,4.033606294484428090e-01,2.697146775720205003e-01,1.123187680660373000e-02,-8.089620877034947588e-02,1.500155962034570994e-02,1.856740713119506836e-01
4.215914946658413376e-01,4.178387409185337353e-01,3.642761254726707421e-01,3.568315284191023173e-02,-3.710561997296965564e-02,5.854718595217149602e-02,1.460058391094207764e-01
3.259468230245524678e-01,3.272896588497477000e-01,2.696164228953734643e-01,1.116761350361857585e-01,-1.130849423023427280e-01,8.272252819318823280e-02,3.155295550823211670e-01
2.392949142855761990e-01,2.271551934082440827e-01,1.247276353039431240e-01,8.105723898056321763e-02,-9.709680867578257546e-02,1.272198093732625490e-01,3.292887210845947266e-01
3.753987358373293559e-01,4.284482482819875759e-01,2.551774669707710386e-01,2.534117173582574323e-02,-8.613271693893126413e-02,7.924814732702284426e-02,2.582032978534698486e-01
1.285147898078398687e-01,2.993473995917373953e-01,2.807201594512017118e-01,1.043259992554900206e-01,-8.906973735610534959e-02,6.065281200624714902e-02,3.063280880451202393e-01
3.075342306468939468e-01,3.995837950653046700e-01,1.444237807060590462e-01,-2.313595977412432475e-02,-1.572524092914760474e-01,1.292061143755045792e-02,3.555052578449249268e-01
4.033216960434083953e-01,4.641892126965842524e-01,2.258969070516985700e-01,7.943871093770484004e-02,-1.107544343788190305e-01,4.194346084452191259e-02,3.270974457263946533e-01
8.990065720335452260e-02,4.017020282621780458e-01,4.175779783503905662e-01,2.016961138300901041e-02,1.748647760786659067e-02,-1.946779767454441187e-02,3.251108229160308838e-01
2.229358261879759440e-01,3.013042183908112293e-01,2.845602548614580840e-01,5.490575874061925238e-02,-6.397474745788817030e-02,4.223459744387830783e-02,1.782786697149276733e-01
3.632069934957294910e-01,6.127966688588023514e-01,6.030947879025725378e-01,8.373794368892752138e-02,7.436091998933611058e-02,1.870433703633676836e-02,3.140732049942016602e-01
3.134004071584520768e-01,3.129733709897376537e-01,3.416507619571182430e-01,6.724451891904315807e-04,-7.792300552289282067e-04,1.144882390737164907e-03,2.859089523553848267e-02
2.634370029694375059e-01,4.201707725631773083e-01,4.025363121134430955e-01,-7.712815766662209881e-03,2.264795546533609691e-02,1.023053787371838545e-02,1.553826779127120972e-01
2.299186776064666149e-01,3.680130858398179550e-01,3.748665117704586547e-01,5.593661479623556788e-03,2.460504994606485529e-02,9.071313920148330046e-03,1.490651369094848633e-01
2.175766654546116285e-01,3.608850237007363293e-01,3.223361503357733415e-01,3.829519109312286285e-02,4.138586774433306720e-02,2.279320573364356905e-03,1.614077091217041016e-01
2.874075533609974920e-01,3.730149812514212404e-01,3.452960902126608334e-01,-1.966251649232753952e-03,4.993595614820266204e-02,-9.080564118753180203e-03,1.160335838794708252e-01
4.078000464048980866e-01,3.899355261611076595e-01,3.389415445749027755e-01,-6.362805597555816484e-02,1.615419949989002624e-01,5.592100862400799233e-02,3.219394683837890625e-01
4.086081150985669819e-01,3.977362755091451985e-01,4.258997021515029680e-01,-3.281209154684670837e-02,1.174085384103188689e-01,1.378313236705148714e-01,3.196588754653930664e-01
3.179631586326904791e-01,1.973764808283161587e-01,3.014702244999339920e-01,-6.486691691027512974e-02,4.633059344708663485e-02,8.929570289233076941e-02,2.362376451492309570e-01
4.109027397490279121e-01,3.514412491850782971e-01,3.806524258152330087e-01,-2.652468856723572133e-02,3.866244056695360143e-02,5.561408106934503243e-02,1.361096203327178955e-01
6.408518474867617165e-01,4.466358300530769987e-01,5.799865939431499973e-01,9.836804643808929119e-04,6.139401610480849786e-02,1.396402514563691022e-01,3.152970075607299805e-01
3.985060595827389918e-01,3.639908023918706492e-01,2.151381639374338461e-01,2.011307166228189572e-02,7.820255741478696065e-03,-3.108162649807811456e-02,1.810562759637832642e-01
3.194619363440440729e-01,3.159018190673584248e-01,3.203762770983932806e-01,4.020947162020735888e-04,-1.003032258689720959e-03,1.893892333126609515e-04,4.514031577855348587e-03
3.210211064034812489e-01,3.194960233720240961e-01,3.261689908358439416e-01,5.189479173791009241e-04,-6.324000092738146566e-04,7.668390963020036517e-04,6.359982769936323166e-03
3.178762684578537168e-01,3.145283845558648483e-01,3.262140763372144980e-01,8.259735849021953907e-04,-2.120754075166359984e-03,3.451371216545046387e-04,1.115966960787773132e-02
2.967180924379937412e-01,3.265831902671617604e-01,2.972043818287068984e-01,1.698468048793381948e-03,-4.316129793629962241e-03,3.360661412719048637e-03,3.124197386205196381e-02
3.183813381991206781e-01,3.022592453886992492e-01,3.231472138625451351e-01,5.066399841514034746e-03,-7.770341551764091068e-03,3.073643099172484062e-03,2.541560679674148560e-02
3.063758789633329593e-01,3.210125631605376118e-01,3.068352252974068661e-01,3.791628862802229848e-03,-3.438257786949418943e-03,1.212692234240889295e-03,1.705069653689861298e-02
3.184914337348658253e-01,3.137739683022244819e-01,3.263039858252952952e-01,1.395284340848505561e-03,-3.333692253002425079e-03,9.227029043767608334e-04,1.272324658930301666e-02
3.250638876975518454e-01,3.150105149579265351e-01,3.170748011386030352e-01,1.115198805167089005e-03,-4.445538412547760565e-04,-1.011818221584834027e-04,9.430437348783016205e-03
3.461313172536624183e-01,3.201571915928963508e-01,3.317904765394517064e-01,-7.810793369934638380e-03,9.792585385284538133e-03,1.006777760979192006e-02,3.581360355019569397e-02
1.732265471971843052e-01,2.871011820678323057e-01,2.212640056804272559e-01,-6.005528821013279145e-02,1.349528015314871709e-01,7.089540527556406624e-02,3.005660474300384521e-01
2.863269913603235794e-01,3.290077603196014944e-01,2.593467430403575968e-01,1.764377115765445453e-02,3.191830703305645334e-02,-2.121067201954048020e-02,9.508438408374786377e-02
3.071886386808177494e-01,3.433768073122239750e-01,3.121858312245764377e-01,4.577574117889254834e-04,8.497134736260319359e-04,-1.199644197814547195e-04,3.400814533233642578e-02
2.925208814649606359e-01,3.284842338839177867e-01,2.932812596683755935e-01,7.644607864107653798e-03,1.323666867713881728e-02,-6.581190327710648331e-03,4.579824954271316528e-02
3.036182845080318549e-01,3.599582920522189644e-01,3.220137417567744409e-01,-1.813807167767311507e-03,1.927060129406191896e-02,-7.547549644755805138e-04,6.001529842615127563e-02
3.365751032323299197e-01,3.649038716192218867e-01,4.275604563101083055e-01,-7.564676821346932867e-02,3.171570382945365640e-02,3.155958024454397215e-02,1.722681969404220581e-01
5.105730096707941090e-01,5.793011078700845973e-01,3.923921336249571179e-01,5.105685535636367983e-02,1.382403163422750714e-01,5.536715926830436396e-03,3.034075498580932617e-01
3.708556190169203237e-01,3.654695665289315887e-01,1.523203014414151735e-01,1.573784844561102597e-02,3.622164753167170237e-02,-4.848158355565496125e-02,2.415369600057601929e-01
3.509538376104607282e-01,4.826093467275013316e-01,1.446026464271096268e-01,-1.515421884752856004e-02,8.751802355565954650e-02,4.947516111606339168e-02,3.436448574066162109e-01
3.535835779868232720e-01,3.147333554358661134e-01,2.855746073304905042e-01,3.420353627162172998e-03,2.555119538619277878e-03,1.142155868715581321e-02,6.275694817304611206e-02
3.268858195356468266e-01,3.638554289106464834e-01,3.547728767832762364e-01,-2.706677771519950745e-02,3.758237140731727349e-02,5.490981719294440316e-02,1.288171857595443726e-01
1.689034942497583125e-01,3.019253244443916295e-01,3.216930122353244270e-01,-8.189790342558475600e-02,6.302538606089466700e-02,4.538877672129359997e-02,2.427631020545959473e-01
3.136183755287216268e-01,3.144952346028502821e-01,3.407606495119023249e-01,8.226992429549947507e-04,-6.523461604332513649e-04,1.039078673523469339e-03,2.683688141405582428e-02
2.568606020531050693e-01,3.986037177352767524e-01,4.208725075766615586e-01,-4.198592261042342899e-02,9.087575576323636897e-03,6.231550577441838032e-03,1.714530885219573975e-01
3.229708269058937931e-01,3.769254406448935835e-01,3.668767300785321095e-01,-1.336768257038525171e-02,2.487740335310563433e-02,1.526650536621688460e-02,7.457775622606277466e-02
2.845282636424308897e-01,3.439072206303699364e-01,3.134261459006228434e-01,-6.857791838228051440e-04,1.020591281264396355e-02,1.310466407508057178e-03,5.444324389100074768e-02
2.195980358191877702e-01,3.768230931441368670e-01,3.691184273066788757e-01,3.445033133712404119e-03,-5.391330023820848673e-03,4.539060941485940567e-03,1.541178971529006958e-01
2.339533926984421752e-01,3.588098290871882812e-01,3.577777530760116731e-01,-4.985725280192282449e-03,8.139996532420392533e-03,7.073679872340544669e-03,1.260349005460739136e-01
2.379179629832202936e-01,3.479127447820988817e-01,3.560426335271476006e-01,-1.480503187666919879e-02,1.065104923244713196e-02,7.340559103219099907e-03,1.192423775792121887e-01
2.741338191523196577e-01,3.403203499916938601e-01,3.351985158334234161e-01,-5.474537980911138579e-03,1.012455504724431819e-02,9.132536421034788757e-03,6.866975128650665283e-02
2.887878872664778052e-01,3.470244462166951482e-01,3.173353715796387586e-01,-2.218478965402370315e-03,8.177623507708984413e-03,1.408083677716105752e-03,5.258594825863838196e-02
2.598657922250138252e-01,3.489538742014767214e-01,3.360811545920968646e-01,3.831190805076011442e-03,1.449657411918103649e-02,6.110326351787246811e-04,8.735670149326324463e-02
3.200687070330850426e-01,3.060273533037080051e-01,3.358114495272592759e-01,2.176473010503764908e-03,5.577388257471658541e-03,-2.233976160040621745e-03,2.808109298348426819e-02
3.333340771129999491e-01,2.760906159093681755e-01,3.276875513611048896e-01,1.050325104026650011e-02,1.205152722590334749e-02,-7.752990344381567936e-03,6.270940601825714111e-02
3.224267676223342427e-01,3.102657693335126865e-01,3.379701450570982146e-01,9.493927814876890886e-03,7.513589188534488574e-03,-5.909175130248758845e-03,3.351164981722831726e-02
3.125593752111833212e-01,3.128810012930345885e-01,3.112687781544984933e-01,4.612975437552974817e-03,3.661048245332467095e-03,-5.242830377266036526e-03,1.373660936951637268e-02
3.010947422872718993e-01,3.028707837260024016e-01,3.210855914921225129e-01,9.248028211957436129e-03,7.575093249854236883e-03,-6.531371574570379347e-03,3.039711154997348785e-02
4.244898013964302219e-01,2.519556333968744344e-01,3.850577761174543423e-01,-9.654655386177286164e-03,1.668728601084519146e-03,-6.273595612359145202e-02,1.913503110408782959e-01
4.530046289219142874e-01,2.074691713296257234e-01,3.504874382522265575e-01,-6.731023672915917300e-02,-9.718671498481270057e-03,-1.111721843594031672e-01,3.107715547084808350e-01
2.983261351094297353e-01,3.182397129736266317e-01,3.391078730580299738e-01,1.776086227667238865e-02,-1.583671318265227057e-02,1.320200017571383083e-02,5.890006944537162781e-02
2.951403561264826503e-01,3.058059060431285725e-01,3.358843061732205149e-01,1.353670993008407146e-02,-9.235380969041704149e-03,7.717359432065706154e-03,4.820315539836883545e-02
3.050346607711171276e-01,3.108948089193691589e-01,3.352611430292034567e-01,-3.230744783714767365e-03,2.024580985205506369e-03,3.692119970646595434e-03,2.924645319581031799e-02
3.155774275485181413e-01,3.148236526924804157e-01,3.695151682862307108e-01,-4.288167596817149541e-02,7.829215211962812365e-03,2.591548601704189887e-03,9.311851114034652710e-02
3.525044628848977291e-01,3.196143842639405097e-01,3.484369968649618232e-01,1.850522879215618990e-02,-1.068456325546465226e-02,1.639946906167307275e-02,5.604605376720428467e-02
3.350539008241776862e-01,3.288353670525117067e-01,2.619743188468351969e-01,-8.277333806616403444e-03,1.329415106343097112e-02,2.546776962500502811e-02,8.721476793289184570e-02
3.237371520262672941e-01,3.144700557993896917e-01,3.339735673447611353e-01,-2.070143211096790638e-03,3.817463927383490854e-03,1.632350871832425124e-03,1.871080882847309113e-02
3.161362584263545661e-01,3.041823892384961092e-01,3.356608814506794602e-01,-3.028334141164954439e-03,5.866133186271584032e-03,2.404408170033266352e-03,3.009304217994213104e-02
3.178042262972165521e-01,3.284629757481640211e-01,3.110815247914069936e-01,-3.112140378939327618e-03,1.770798892723488525e-03,2.081375375346693288e-03,1.679044589400291443e-02
3.184068804884913062e-01,3.182158339760388088e-01,3.192475178314525541e-01,-3.798204284719887977e-04,1.386106359543810319e-03,8.053171608695669633e-04,3.007663646712899208e-03
3.164320876976627894e-01,2.995269318532395308e-01,2.933558152689231258e-01,-1.278052901878575995e-02,1.349570453115254282e-02,1.873293964657939820e-02,5.017357319593429565e-02
2.573614985152016810e-01,3.724646119451984205e-01,2.007312475606801427e-01,-2.522178410458813733e-02,1.398285394376626301e-01,3.113796525876150190e-02,2.940191030502319336e-01
3.329741247475685451e-01,5.755730553929486182e-02,3.325205675674509087e-01,4.034094831159165673e-02,6.596087146211436665e-03,2.023424816001997278e-02,2.863052487373352051e-01
3.509603323325044544e-01,2.619638090880420100e-01,3.296562618139509682e-01,5.145882336301066482e-04,6.587773039374204094e-04,1.504650455426333189e-02,8.461409062147140503e-02
3.640669120301985306e-01,2.354879463602901346e-01,3.724643788624406593e-01,1.288869867501502356e-02,3.715912357857606430e-03,2.050421558426107627e-03,1.350377649068832397e-01
3.504374203940244792e-01,2.495251637843883818e-01,3.598093069944669486e-01,3.129948719726148056e-03,-1.018436975287615592e-03,4.137337116249027377e-03,1.063047870993614197e-01
3.333226299017816863e-01,1.655016275200301978e-01,3.419751495214941039e-01,1.003422654112690396e-02,2.937840234476958405e-03,6.167966552119821637e-03,1.735883355140686035e-01
3.457315755267424406e-01,3.060837416686022494e-01,2.997640997141097219e-01,2.911253225130527433e-03,-1.786651528565978469e-04,-1.821154711144271250e-03,4.356512799859046936e-02
3.400663206905684688e-01,2.954038022699429500e-01,2.942694715312314524e-01,1.250191358558278660e-04,-9.365881301379466414e-05,-5.512017219109759548e-04,4.525123164057731628e-02
3.449424923144755462e-01,2.927304183689030670e-01,3.003357453912844366e-01,1.148161817280609915e-03,9.944105862541323046e-04,-3.513944066117653201e-03,4.930331185460090637e-02
3.177000007923658775e-01,3.163025563165314802e-01,3.389293834251383974e-01,6.599117240256400542e-03,-3.353956958397292035e-03,4.605579896426653663e-03,2.665206603705883026e-02
3.635938839773617537e-01,3.196197609456711275e-01,3.193377129776496792e-01,1.909423874534416088e-02,1.637848431597661858e-02,-3.226420825599161241e-02,8.347261697053909302e-02
3.095550569648369277e-01,3.009727083572367734e-01,2.827610522920194214e-01,1.355927037188824416e-02,1.495312881250578790e-02,-1.870965192045781489e-02,5.323648080229759216e-02
3.450447075105587125e-01,3.095078886109275396e-01,2.780832942442620359e-01,3.556631431705311458e-03,-1.423397630847377665e-03,1.120993645630636790e-02,6.154767051339149475e-02
3.031336888846627997e-01,3.569060214323152014e-01,3.184280691656790063e-01,-1.159844204009174637e-02,1.738606919588911101e-02,1.695124591396995548e-02,6.689842790365219116e-02
3.340714906419730568e-01,3.413229135702677275e-01,2.979479785671506065e-01,-8.326521804520647940e-03,4.746302694317933862e-03,3.824494665767941542e-03,4.403286799788475037e-02
3.524265619469713062e-01,3.237518711287444284e-01,3.054194817287727570e-01,-1.325615408719907698e-02,9.340085053721143560e-03,1.966324434964084739e-02,6.027277931571006775e-02
3.510217215807550084e-01,3.232201538241021299e-01,3.062705364713776413e-01,3.240438355748382140e-03,-9.217769786394872837e-04,4.050437991899696541e-03,4.018346965312957764e-02
3.254958922606321914e-01,3.239359355452868239e-01,3.202377215822781453e-01,-9.607506264162627568e-03,7.272878882446380706e-03,4.585925336108428660e-03,2.281596511602401733e-02
3.169295093418213471e-01,3.282838314489585629e-01,3.116033318915105155e-01,-2.922573999729837467e-03,1.003647842569713525e-03,2.257244788680313596e-03,1.617700979113578796e-02
3.144139920428133395e-01,3.306304084567548984e-01,3.142959578963503975e-01,-2.646924338712857393e-03,4.125312156330931609e-03,5.444269809330967540e-03,2.063718996942043304e-02
3.225785636440819393e-01,3.238001240508636136e-01,3.184694180986399337e-01,-5.989747804356682082e-03,7.375360097374638810e-03,7.902322820605385545e-03,2.194438502192497253e-02
3.183173481610534483e-01,3.219016318421318856e-01,3.161130013835584118e-01,-6.887063159456974226e-04,2.619534632923848066e-04,1.843423817431676234e-03,6.118061952292919159e-03
3.159584167554355116e-01,3.216588142182053023e-01,3.173106626327166224e-01,-1.488102894704542269e-03,1.963702798599889238e-03,3.651587037928676668e-03,9.210253134369850159e-03
3.197320408414238146e-01,3.157121797120674977e-01,2.977006663882479365e-01,7.512828981194998555e-03,3.225459545550834941e-03,-5.186089028339005251e-03,2.634772844612598419e-02
3.263689211041562177e-01,2.980927570407491678e-01,3.148982515872945087e-01,2.436019522938573725e-03,7.852948108368226071e-03,-3.866629159143272244e-03,2.923067845404148102e-02
3.333696548843855245e-01,3.190779597398690215e-01,3.126843410654637778e-01,2.812143332520121268e-03,1.516452171189174762e-03,2.742703613832423023e-04,1.916652172803878784e-02
3.325341765134424143e-01,3.064789507887282771e-01,3.067226779141051796e-01,1.152981981336398832e-03,2.394507266109016479e-03,-1.122574592908489547e-03,2.641123719513416290e-02
3.284123408498323404e-01,3.097391779192368300e-01,3.064475456379523455e-01,1.295595426574086464e-03,7.182791774170160272e-04,5.436654520965694161e-04,2.069920860230922699e-02
3.418536326925812330e-01,3.134737272338541381e-01,3.064996828160043707e-01,2.888698772500384714e-03,9.846788937029724194e-04,-1.253445832114827730e-03,3.293379768729209900e-02
3.196621615342838951e-01,3.075610275758139389e-01,3.180331594959422414e-01,7.324923259685200104e-03,6.934016754289994491e-03,-9.310648588261366196e-03,2.635617740452289581e-02
3.364756366865023773e-01,3.035514140784172366e-01,3.013564447306814609e-01,3.040783934819003267e-04,1.084405000697085709e-03,6.063150690678710865e-06,3.413056209683418274e-02
3.415562087823524329e-01,3.046981539251303328e-01,2.997545587928461819e-01,2.406179350183845073e-03,4.979361224847031909e-04,-2.074762256473211986e-03,3.995238989591598511e-02
3.139281488020759237e-01,3.219909936510639281e-01,3.207419593456858897e-01,2.445703448120259242e-03,9.128961329792847652e-04,-2.616615169622774247e-03,9.873365052044391632e-03
3.338437495279188982e-01,2.206585154918903613e-01,3.530201278875145232e-01,8.534822982248021920e-04,-1.190436683061147499e-02,4.639252466918794560e-02,1.491081416606903076e-01
3.213578289820060996e-01,2.616604683764215400e-01,2.854883708422830124e-01,-8.639292082211556811e-03,9.005067756099601611e-03,1.736977229595926958e-02,6.388578563928604126e-02
3.108878089154673008e-01,2.730131146345884940e-01,3.530818321871953547e-01,-2.529920441291120051e-02,1.637023432741703532e-02,1.296902547191908749e-02,8.967498689889907837e-02
3.406673887594295902e-01,3.114738594360138002e-01,3.135570878232762926e-01,-2.626801808301582573e-03,3.464711957768717293e-03,1.369494004679042923e-03,2.929376624524593353e-02
3.152901453000711562e-01,2.317949647381707945e-01,3.039414953007140152e-01,-3.384452645514482438e-02,1.785785642664272643e-02,3.226754149461129317e-02,1.169158965349197388e-01
3.301170523587519945e-01,2.854486189505128779e-01,3.431559215024299614e-01,-1.592378629185890737e-02,1.244840730126335442e-02,1.423160419928735584e-02,6.768243759870529175e-02
2.993729672792284080e-01,2.313974434440477235e-01,3.587011097685351979e-01,-5.118618242432592530e-02,8.960499215015772789e-03,1.572045498596748650e-02,1.449679583311080933e-01
3.051621175701949573e-01,7.335202611185748234e-02,3.335763285649872012e-01,-7.563799663679407481e-02,1.504860060364418550e-02,5.601883655697088155e-02,2.972995340824127197e-01
3.052211131095539098e-01,3.139813617389903833e-01,3.457518287432190252e-01,5.845560045182666281e-03,-1.973233987559362863e-03,4.704355601022193294e-03,3.930658102035522461e-02
3.718984969338204327e-01,3.631228521772696949e-01,3.213686246726338847e-01,1.412393098425319127e-01,-6.702219671189769967e-02,9.055585607196187103e-02,3.164008259773254395e-01
2.372603920885288098e-01,3.193587060832894231e-01,2.937889162683934852e-01,1.755582098371918226e-02,-3.177734728404196796e-02,1.579507957508412275e-02,9.998591989278793335e-02
4.110123264836913481e-01,2.844731019860633481e-01,3.870492816220499899e-01,3.771700578424198869e-02,-1.966974992144223354e-03,2.906990306488590331e-02,1.427187472581863403e-01
3.524704948641007585e-01,2.808384307159897952e-01,3.645326467567048812e-01,3.476053112846366061e-02,1.890201282313637085e-03,2.209237104678972441e-02,1.060212478041648865e-01
3.641157884058967564e-01,3.294868537943062559e-01,3.883545803913294181e-01,6.930694431903003383e-02,-2.352072528293681214e-02,3.823163688036131103e-02,1.519244909286499023e-01
3.349170243969700200e-01,2.893895700847864405e-01,3.301673068888661966e-01,2.149422698283312907e-02,-9.995352517246793023e-03,1.926879669408734785e-02,6.840067356824874878e-02
3.674554920677164382e-01,2.499357234419061213e-01,3.159652460988315870e-01,2.953059322458414029e-02,-2.243651458130707654e-02,5.043200109407850601e-02,1.488876789808273315e-01
3.160664926819140574e-01,3.210684633631555873e-01,3.221891896127117572e-01,-1.766935009113187820e-04,1.170143305254244199e-03,3.408451008638259654e-03,8.422325365245342255e-03
2.905383576038912952e-01,2.928534754688435493e-01,3.235063967667479723e-01,-1.426154127872352080e-02,5.166496240116107141e-03,6.315884762300068463e-03,4.272997006773948669e-02
3.205467238743391900e-01,3.262221655738845594e-01,3.178301366980872955e-01,-3.664584342632695897e-03,3.082230788189785613e-03,2.428412645313210438e-03,1.189486682415008545e-02
3.076001383613873319e-01,3.180456323467288349e-01,3.057723396089870871e-01,-6.513477743247520976e-03,7.307024901547272237e-03,5.081646002074158980e-03,2.228149026632308960e-02
3.211907581559943492e-01,3.244106354925399005e-01,3.114040371423325571e-01,-5.001146049501789537e-03,1.436101512863509431e-03,7.464313842544232930e-04,1.485101319849491119e-02
3.126767540679896151e-01,3.142035470124782126e-01,2.981924679922179355e-01,-7.996967952753657877e-03,5.023423367327560680e-03,4.234174866861138697e-03,2.357082255184650421e-02
3.119260260963484521e-01,3.243960041947158701e-01,3.107133685957293445e-01,-1.617371842650229367e-03,2.022449882274630038e-03,4.316236172337492571e-03,1.575122214853763580e-02
3.138974297383980150e-01,3.310315188153662991e-01,3.468843427085469000e-01,-9.819330394547069740e-03,8.974115937383269487e-03,9.855205819654492411e-03,4.048147797584533691e-02
3.242345040056408556e-01,3.088700932187023462e-01,3.277959440518045664e-01,-9.181522111338227821e-03,6.985514431227471226e-03,5.551805804132637148e-03,2.819981053471565247e-02
3.347476243721432265e-01,2.956827747583201105e-01,3.270671403996363025e-01,5.922842944891663387e-03,-9.618068488163395574e-03,4.750387752800585769e-03,4.165904223918914795e-02
3.738628753705007246e-01,2.451900970889311637e-01,3.558035117759841826e-01,-7.238253307777438306e-02,-8.243057863537769925e-02,-1.061610083960604911e-01,2.906400561332702637e-01
3.235283019685657457e-01,1.036438490599811968e-01,2.081381961710685458e-01,-5.505615252040413354e-02,-3.511666192372352863e-02,-1.497545636231035482e-01,3.411215841770172119e-01
3.194262293501581862e-01,3.196835950785393288e-01,3.365371289054352455e-01,4.282455625864099377e-03,-5.606870360626681205e-03,5.191240908608308127e-03,2.277326397597789764e-02
3.416589105413529448e-01,3.396343922978991570e-01,2.658973833205441895e-01,1.703917251865486038e-02,1.773739267591976920e-02,-6.215656402555612067e-03,8.672528713941574097e-02
4.503110539578035199e-01,1.776210583288105882e-01,4.106580984251138045e-01,-9.089805997361112555e-02,-1.149120631350392628e-02,-7.572904126187859908e-02,3.278832137584686279e-01
3.371397398812877033e-01,2.307787975289892768e-01,3.183117266522925703e-01,-2.350163041770847103e-02,-8.011612215256962849e-03,-2.666190665145591610e-02,1.168190389871597290e-01
3.602973908508153578e-01,1.741088086251000033e-01,3.145760038043697859e-01,-5.509827646444510202e-02,-2.088130742725332126e-02,-5.105392170893059689e-02,2.155896276235580444e-01
3.726336604456530477e-01,2.927770278114232294e-01,3.379192539799710793e-01,-5.370907825397879670e-02,-4.208110364013820104e-02,-7.891134187559614710e-02,1.935392767190933228e-01
3.275878720624015861e-01,3.092479658309762458e-01,3.075197145593833170e-01,7.649207038440573522e-03,-9.509904773690024821e-03,6.807206680465040759e-03,3.093372099101543427e-02
3.520378343720190206e-01,2.847918145174013205e-01,3.324028764077769371e-01,9.318744220343611745e-03,-2.006091912690698403e-03,5.292637687381759361e-03,6.279978156089782715e-02
3.487233112583587591e-01,3.498883260783418603e-01,2.424282749246884916e-01,8.290813015657230028e-03,2.834890125152033334e-03,-1.565551664893858469e-02,1.113078445196151733e-01
3.656794809241903921e-01,3.309239238119244808e-01,3.126033799822253156e-01,1.019286827385414498e-02,-5.435623428033789506e-03,2.039291810224578769e-02,6.187298893928527832e-02
3.478937230292254434e-01,2.809100724474424271e-01,3.354260752955293134e-01,2.398100037617320081e-03,-3.569717283695538444e-03,1.332503258186831796e-02,6.629686057567596436e-02
3.475153240878749994e-01,3.147370343619794175e-01,3.427021612359621439e-01,1.445346117770152268e-02,-9.269792663893664658e-03,2.066134331650016850e-02,5.572238191962242126e-02
3.345920958810384427e-01,3.194746252566648681e-01,2.979806850600141277e-01,-7.626259657674094687e-03,5.994234921081917529e-03,9.093247062044484616e-03,3.931659832596778870e-02
3.174201684260834488e-01,2.818246058188768610e-01,2.125732410397443983e-01,-3.382923413784406919e-02,9.943561517526788851e-02,1.083386638332619334e-01,2.771916389465332031e-01
3.245020332634802607e-01,3.374928061005949553e-01,2.782499024351361427e-01,1.014842882992004168e-02,6.424541288847461333e-03,-3.884742863249142798e-03,5.819742754101753235e-02
3.177086114462161492e-01,3.092056767905252412e-01,3.085559194446172993e-01,-7.437352705407403002e-03,5.934747719861544271e-03,9.064017877556489883e-03,2.441971562802791595e-02
3.181659220608501482e-01,3.326784115517070206e-01,3.275976690436470662e-01,-6.252912404797841307e-03,7.246547277436690693e-03,7.798509919600298164e-03,2.489932626485824585e-02
3.138206868400331140e-01,3.213567259715129909e-01,2.583108026299315574e-01,-1.032651068647399625e-02,1.624234300461347216e-02,6.587149451979887153e-03,6.926750391721725464e-02
3.260396258114876544e-01,3.125260839777027622e-01,3.199477357134583033e-01,-2.063554946219947877e-03,6.318242616405482168e-03,1.677108768453025025e-03,1.668464392423629761e-02
3.361087723742969269e-01,3.143889712266547676e-01,3.135773904113796084e-01,-3.261713836463022180e-04,1.250000407348708393e-03,4.171333240680637580e-04,2.226127684116363525e-02
3.281232032063410298e-01,3.152150605033171016e-01,3.158263614453755697e-01,3.893381247030791126e-05,3.072410999570213738e-03,6.070744031901887912e-04,1.373070944100618362e-02
3.335988960640174361e-01,3.162499985838850836e-01,3.180006191854373720e-01,-7.136246288155415713e-04,1.416421748054159805e-03,2.013878324315472243e-03,1.712866686284542084e-02
3.208266652506018835e-01,3.025354017570083265e-01,3.477834547222058981e-01,-1.129842597071601534e-02,1.556266373592555272e-03,8.464717504273369664e-03,4.647037759423255920e-02
3.387708645185141254e-01,3.131140471720407770e-01,3.300390975091072598e-01,-3.341501190363713181e-02,2.151107781637617150e-02,2.988460454646656161e-02,8.903720229864120483e-02
3.397391695726805771e-01,3.200955635651812625e-01,3.093811659728515906e-01,-3.970708623459715154e-03,1.696204253991142772e-03,1.765580270635791873e-03,2.786434441804885864e-02
3.410398308831738556e-01,3.379126733774577840e-01,2.524909663896933165e-01,1.269642688768876822e-02,4.552039504009932486e-02,-4.515588542198277489e-02,1.427965462207794189e-01
2.526415068288479504e-01,4.948372595590377898e-01,4.410516089403631046e-01,2.727777435467291026e-02,1.018664924502178798e-01,-2.097557075043467514e-02,2.884571552276611328e-01
2.702380039241813470e-01,3.694264897554720428e-01,3.438020782667727815e-01,1.483492969547876329e-03,1.373579439573841855e-02,7.413599859970144458e-03,9.322457760572433472e-02
2.841075660775564393e-01,3.403818648963178872e-01,3.134453954323347391e-01,2.718670013172239629e-03,9.343804938794841169e-03,-6.093169254414075586e-03,5.264990776777267456e-02
1.778873253596848225e-01,3.454451124849177157e-01,3.628455772980190286e-01,-3.438431850323078048e-02,-1.039740025987840981e-02,5.633086330650012401e-03,1.877773404121398926e-01
2.535438611003280607e-01,3.341073046382594391e-01,3.434756400830040191e-01,-6.271418983341480249e-03,-7.632447282176627219e-03,-7.331605677664239547e-03,8.824393153190612793e-02
2.577820520228805146e-01,3.283479496520490537e-01,3.177553912746664544e-01,-4.863719695127105037e-03,-1.172766865364168951e-02,-1.161380400019960436e-02,7.233601063489913940e-02
2.309070947317927169e-01,3.567877860015628011e-01,3.552855526099303329e-01,-3.888423955630731458e-03,-1.505771378140930220e-02,-2.511187104621470569e-03,1.280764788389205933e-01
2.458337163551965465e-01,3.698549374586935778e-01,3.453961166773642510e-01,-1.555101709417176402e-03,-7.809806054942003938e-03,-5.074619825378499753e-04,1.146171540021896362e-01
2.551123026240913472e-01,3.676772601824463971e-01,3.300193809357625518e-01,-1.778946455513720981e-04,-1.779530412983831855e-02,1.472420001920908637e-03,1.039550155401229858e-01
3.330999628201674057e-01,3.000850500976831037e-01,2.946113833374323088e-01,-2.037732865881327834e-02,-3.376654787343627562e-02,-3.722275823429284369e-02,1.006156280636787415e-01
3.423871317208764253e-01,2.771638740813717749e-01,3.026991306675518301e-01,8.987448741791206897e-03,4.788471829226132945e-03,-2.740632236855072845e-02,7.619094848632812500e-02
3.606234256760960100e-01,3.201921120720650493e-01,2.970885433966585776e-01,-5.552185291702500976e-03,-6.092543544309453156e-03,-2.030493838554015690e-02,6.740387529134750366e-02
3.763930187579818121e-01,3.129282417999382226e-01,3.218560138026234085e-01,8.052931555706525218e-03,7.640227112892454368e-03,-3.506802129681653446e-02,8.717712014913558960e-02
3.435588570984207113e-01,2.652374355505879300e-01,3.270675763857600060e-01,2.792146763102277239e-03,1.095192716002595795e-02,-9.859353845370283712e-03,7.608830183744430542e-02
3.449833297610435667e-01,2.956091259299831187e-01,3.098761778247287602e-01,-9.382290047439876407e-03,-7.528305236967475916e-03,-1.705873923711495599e-02,5.695652961730957031e-02
3.508490945011930595e-01,2.477925700017353794e-01,3.194681524186737676e-01,-5.273128898040680421e-04,2.564937130886876630e-03,-1.828200792968395078e-02,9.692608565092086792e-02
2.195101769528205460e-01,4.264360617566725353e-01,3.671002982889294830e-01,-1.029934982799394355e-01,-8.687404787417021823e-02,-3.040949649410580255e-02,3.021579682826995850e-01
2.215825112537231356e-01,3.700145636974486729e-01,3.298144546667253207e-01,-7.608608087362143772e-03,-5.949938741052845231e-02,-1.580607112982887127e-02,1.709527373313903809e-01
2.756877309569197854e-01,4.148739467042991125e-01,3.600035230855225810e-01,-2.393223751878959318e-02,-6.194833518901819019e-02,-1.280945879449054033e-02,1.687295138835906982e-01
1.909319568429095615e-01,3.484533293103738716e-01,3.571505881674000293e-01,-3.946790548668321214e-02,-4.334325462013845220e-02,-2.222145179031695394e-02,1.950616985559463501e-01
2.490863085195345328e-01,3.674731122734712363e-01,3.822896411081058154e-01,-4.749443813948130144e-02,-4.333203595976758277e-02,-3.814171534569130596e-03,1.686204373836517334e-01
2.217555900676261293e-01,3.654559358880789532e-01,3.611061551167403794e-01,-1.868100591017271073e-03,-5.590822299790267763e-03,2.634010208567839212e-03,1.420165449380874634e-01
2.182149449844110189e-01,4.328427567766453543e-01,4.233157368276088128e-01,-2.439817092690607300e-02,-2.403343606365588095e-02,1.540393357469059532e-02,2.198671698570251465e-01
1.849437319387950418e-01,4.085252308317798842e-01,4.957560693702285359e-01,-4.473984734653083106e-02,-3.259644717350108911e-02,-1.802666966209145322e-02,2.954124808311462402e-01
1.345079712163571029e-01,3.797438886907816835e-01,3.978585002557498695e-01,-5.109783346917581848e-02,-2.561235458764107159e-02,5.924795926854155119e-03,2.735277116298675537e-01
3.491912882106319449e-01,3.413650056593141024e-01,2.153841041436432291e-01,6.218658424846877468e-03,1.321606276767897659e-02,-3.087073543338006432e-02,1.428895145654678345e-01
3.401955078327038584e-01,3.618875844549846454e-01,3.074244603095492301e-01,-1.422170870801716704e-03,7.786672714482230015e-03,8.570646587634936711e-03,5.161096900701522827e-02
3.213473433718834760e-01,3.058620148416439921e-01,2.925467993989628313e-01,-1.293136320481499436e-02,1.724961864227157055e-02,1.852965888777929893e-02,5.520538240671157837e-02
