sxx,syy,szz,sxy,sxz,syz,smises
2.133333333333986559e-03,2.133333333333986559e-03,-4.266666666666196761e-03,6.400000000000000307e-03,1.600000000000000033e-01,1.600000000000000033e-01,3.921273350715637207e-01
