sxx,syy,szz,sxy,sxz,syz,smises
4.266666666666640850e-03,4.266666666666640850e-03,-8.533333333333281701e-03,1.280000000000000582e-02,1.600000000000000311e-01,1.600000000000000311e-01,3.927535712718963623e-01
