sxx,syy,szz,sxy,sxz,syz,smises
3.680649495752748301e-02,3.680649495752748301e-02,-2.536129899150526557e-01,-5.539804165294218935e-68,-2.783758612219149466e-68,-2.783758612219149466e-68,2.904194891452789307e-01
