sxx,syy,szz,sxy,sxz,syz,smises
0.000000000000000000e+00,0.000000000000000000e+00,0.000000000000000000e+00,-4.747783872879899473e-68,-4.035616291947916075e-67,-4.035616291947914758e-67,0.000000000000000000e+00
