sxx,syy,szz,sxy,sxz,syz,smises
4.483433527472097113e-02,4.483433527472097113e-02,-2.996686705494414071e-01,-5.041800739515766497e-52,-2.535369927856032075e-52,-2.535369927856032075e-52,3.445030152797698975e-01
