sxx,syy,szz,sxy,sxz,syz,smises
6.273834373576833712e-02,6.273834373576833712e-02,-3.954766874715365255e-01,1.368299624072832479e-36,6.890220253060065840e-37,6.890220253060065840e-37,4.582150280475616455e-01
