sxx,syy,szz,sxy,sxz,syz,smises
-1.600324697598974610e-02,-1.600324697598974610e-02,-2.829653635105075504e-02,6.568799777142375775e-37,3.251555889685520013e-37,3.251555889685331667e-37,1.229328941553831100e-02
