sxx,syy,szz,sxy,sxz,syz,smises
1.394107556950661617e-02,1.394107556950661617e-02,9.211784886098774161e-02,-7.644715637841619705e-37,-3.898804975299388637e-37,-3.898804975299065400e-37,7.817677408456802368e-02
