sxx,syy,szz,sxy,sxz,syz,smises
-1.729664688929875849e-02,-1.729664688929875849e-02,2.145932937785968164e-01,1.316247712035808989e-36,6.778675716984073743e-37,6.778675716984760309e-37,2.318899333477020264e-01
