sxx,syy,szz,sxy,sxz,syz,smises
1.019637581482629174e-01,1.019637581482629174e-01,-8.039275162965251464e-01,-6.639714011074068081e-51,-2.987871304983273900e-51,-2.987871304983273900e-51,9.058912992477416992e-01
