sxx,syy,szz,sxy,sxz,syz,smises
5.507394713827872268e-01,4.507630974423114667e-01,4.403376002461698580e-01,-2.589916350318419071e-03,-1.403509330068713026e-04,-7.723390321793362212e-02,1.704748570919036865e-01
5.703693753234138075e-01,4.273238997748705081e-01,4.823351424135959853e-01,-8.914507635935292607e-03,-1.227871313663754516e-02,-7.254930098447083531e-02,1.791648566722869873e-01
6.062793601535376720e-01,3.961852958373636158e-01,4.240219775508665689e-01,-4.115606700928671480e-02,-1.521235517780467235e-02,-1.135063898425575923e-01,2.889513671398162842e-01
5.921842274724894439e-01,4.189507441858227321e-01,4.631377910210583981e-01,5.742289163622377179e-03,2.417136264729200651e-02,-9.583433233452955113e-02,2.317585051059722900e-01
5.795914023865070819e-01,4.623476333046872000e-01,4.505925490749017048e-01,1.561174522950067693e-02,1.018434385704520759e-02,-7.265197401995938942e-02,1.792756617069244385e-01
4.688882270216828685e-01,4.772687071854593843e-01,5.486712162521893976e-01,-3.971394621589284524e-02,-1.716755988630503868e-02,-2.219194749231695810e-02,1.134026199579238892e-01
4.488547344619857604e-01,3.862683771348581763e-01,5.626958540961565225e-01,-8.495959577572663457e-02,-2.743089268558394564e-02,-3.729975348208307978e-02,2.282264828681945801e-01
4.522548322925190045e-01,4.420945294634207601e-01,5.393506169668073058e-01,-9.131284233540458428e-02,-2.943844935965444706e-02,-6.065555770876097930e-02,2.173133492469787598e-01
4.659364903898942090e-01,4.608668733105488746e-01,5.351047025636028742e-01,-3.756188753367396826e-02,-1.853044470642992506e-02,-8.930026064774585631e-03,1.032601222395896912e-01
4.706610054223332451e-01,4.398224026630339067e-01,5.371399798819597171e-01,-5.276047890327655032e-02,-2.755097254789008743e-02,-1.563759710126964853e-02,1.370487809181213379e-01
4.153103626821227357e-01,4.559360219492765709e-01,5.374935397614806210e-01,-6.966988268688455166e-02,-3.661993620792633464e-02,-3.016660345903710017e-02,1.814668327569961548e-01
4.513759353950767550e-01,4.789132959168392878e-01,5.571462912465444672e-01,-8.747291281473151825e-02,-7.084629495244593178e-02,-4.246863339283765693e-02,2.290325611829757690e-01
4.596897347650112375e-01,4.776869477999325930e-01,5.731154301140052310e-01,-9.119734428924815284e-02,-2.944755402249638401e-02,-2.840252516769400590e-02,2.027816474437713623e-01
4.559358394036739925e-01,4.688083961872547833e-01,5.527167941867143774e-01,-5.488758720571418337e-02,-6.628394231663110696e-03,-9.863017463668275614e-03,1.332217007875442505e-01
4.745576288356883055e-01,4.615254534547959531e-01,5.377041126376620461e-01,-3.702621819265967257e-02,-1.498069909099526004e-02,-8.802141335174052880e-03,9.999385476112365723e-02
4.497477612381473588e-01,4.987929969950297138e-01,5.207111220669945473e-01,3.293282832424488521e-02,-2.476231192970540160e-02,1.788820403745102969e-02,1.000700369477272034e-01
4.927669571035936391e-01,4.992774178373431959e-01,5.252617981669984726e-01,2.587814193144929997e-02,-5.713194439625709532e-03,2.144485413636192106e-02,6.613127887248992920e-02
4.986785081205369896e-01,4.717952623494822140e-01,5.405638745632432851e-01,3.491313777570186072e-02,-1.451305528872552306e-02,2.238572232473547835e-02,9.692851454019546509e-02
4.787612907616761171e-01,4.848701001139035238e-01,5.185999425922324102e-01,2.031250031849596641e-02,-1.423580512142801069e-02,1.072399627408305960e-02,5.976494401693344116e-02
5.049447309174185383e-01,4.833839802416130538e-01,5.379596608738970165e-01,2.271021786657211397e-02,-7.501235963393453748e-03,2.186888725099178643e-02,7.360360771417617798e-02
5.029086367206753172e-01,4.800096243576874033e-01,5.209238071691044691e-01,2.235841601250083965e-02,-7.830275341247144513e-03,1.445762649908930060e-02,5.976742878556251526e-02
4.923662731129775927e-01,4.710766906429595946e-01,5.209906861300760417e-01,3.524359346872366072e-02,-2.194268960807186850e-02,2.677846989196805763e-02,9.593769907951354980e-02
4.915949660686688150e-01,4.684879024929574642e-01,5.138260492488256892e-01,3.484300580237493367e-02,-2.442135738744048365e-02,2.256090136175430139e-02,9.219624847173690796e-02
5.534640979583004272e-01,4.592280997307034429e-01,4.982628772075738954e-01,8.962057231864188275e-03,1.497088467754835103e-02,2.325050966428671151e-02,9.623280167579650879e-02
5.404313576797082908e-01,4.883901213321960033e-01,4.913847896953594252e-01,9.011607749664049191e-03,-2.051795813237760908e-03,3.069973937968447503e-02,7.513382285833358765e-02
5.518477193238412459e-01,4.889022189116608574e-01,4.896417079350230961e-01,2.401530028340709277e-02,-1.976630815142037603e-02,5.436364359322060774e-02,1.252384781837463379e-01
5.802443383699472657e-01,4.828143952824027196e-01,5.050108323820801104e-01,2.377657873045232670e-02,1.819867748147595277e-02,7.211480994422404811e-02,1.615978628396987915e-01
5.480310886910375601e-01,4.251262005555018209e-01,4.993182331233745330e-01,-2.735455594586115504e-03,-2.666532037819668074e-03,-9.084634854222270461e-03,1.085489615797996521e-01
5.979983705032954067e-01,4.188290617752714051e-01,4.668144154927693634e-01,2.008226964156943281e-02,-8.799812955479777501e-04,1.337856238632395278e-01,2.841033637523651123e-01
5.432635199234356893e-01,4.675644210448612892e-01,4.732124298282224251e-01,-9.932514376494046802e-04,3.618207764438940120e-03,-1.418229896496851251e-02,7.733272761106491089e-02
5.589998722002946785e-01,4.694780439926434235e-01,4.906489617823985849e-01,3.597111098321122830e-02,-9.405732131631851234e-03,8.732564596362932252e-02,1.832800507545471191e-01
5.491457432269666317e-01,4.371458512295786636e-01,4.962182678259012825e-01,-5.909147738956324093e-03,1.308172842845430062e-02,6.684263243658562781e-02,1.530992537736892700e-01
4.949070221613277032e-01,5.507709660205786228e-01,4.782078080248706731e-01,-2.010785979549426991e-03,3.930543775035220261e-02,1.887894893911527122e-02,1.002429723739624023e-01
4.662344210588790783e-01,5.289017322987559222e-01,4.833717304842379825e-01,-1.365157464660237546e-02,2.201939811520378654e-02,1.145171557010217847e-02,7.452525198459625244e-02
4.878796427992677653e-01,5.333790435109724282e-01,4.622218724452101801e-01,-4.294452236985430230e-03,1.704753090459015449e-02,3.921646851433429823e-03,6.978000700473785400e-02
4.961250812941053190e-01,5.329279934861083090e-01,4.631243076477725151e-01,-9.752700754827512558e-03,1.631055535572482895e-02,4.116758849083004303e-03,6.922659277915954590e-02
5.178817461014456613e-01,5.565947534681237041e-01,4.563001221602339674e-01,-1.970907797447697760e-03,4.104778786016342884e-02,2.416838702840187411e-02,1.203899979591369629e-01
4.987408330985009797e-01,4.950656149258240157e-01,5.067947011007747360e-01,1.536598849102363421e-04,3.357691270151795353e-03,1.232468530719110604e-03,1.210048701614141464e-02
5.228371542507441738e-01,5.494093999956071173e-01,4.705464041136295794e-01,-2.925080207332369196e-03,3.295527688203027383e-02,1.981464616675066362e-02,9.639278799295425415e-02
5.092910734066921075e-01,4.878795578166999491e-01,5.037705485106496184e-01,1.078686597985260495e-02,1.217479272386393606e-02,-1.375165830135016871e-02,4.161486402153968811e-02
5.254383528133533821e-01,4.718008013282197211e-01,4.893639747626041814e-01,2.506310746184705132e-02,2.793281875167777026e-02,-2.751327499220978731e-02,9.348557144403457642e-02
5.372487298326574789e-01,4.682522157386059258e-01,4.606798071092960134e-01,-3.224647694892770686e-03,-7.299783013335954963e-04,-7.406586034264909212e-03,7.441569864749908447e-02
4.919963737938663484e-01,5.290330113807706347e-01,4.818802708443757910e-01,-4.441635239589607903e-03,8.328382365573063634e-03,7.138705922315919349e-03,4.763263836503028870e-02
5.237826088715366035e-01,5.023500697402194515e-01,4.712417077645033037e-01,2.558913510375438599e-02,2.189911942174556370e-02,-2.014531463754006685e-02,8.194170147180557251e-02
5.273148910572963421e-01,5.096589655560919141e-01,4.905005054931956265e-01,2.324563177723491109e-02,3.077095830046490746e-02,-3.394051032439679427e-02,9.452273696660995483e-02
5.428000393117392575e-01,3.872470956028278843e-01,5.582209902911154931e-01,-2.380813196722167749e-02,-6.562669949855104001e-04,-2.143261486597351773e-02,1.729541569948196411e-01
5.276825981379237307e-01,4.056678038288561439e-01,5.571399801506585758e-01,-1.415973214880581962e-02,-5.439384962570080299e-03,-1.838415729371795787e-02,1.450991779565811157e-01
4.994835594339872009e-01,4.067010530655625899e-01,5.584345852349028583e-01,-2.728959577143310472e-02,-5.512046694405576923e-03,-1.266779495954750874e-02,1.426890790462493896e-01
5.491536014967707269e-01,3.513780297049861057e-01,5.674692029401151583e-01,-5.043902718368998422e-02,1.440140256727730998e-03,-1.612090536481728190e-02,2.269166707992553711e-01
5.297826047394877946e-01,3.887498176859268684e-01,5.611855617100960369e-01,-1.027779970764204978e-02,4.255125689467002814e-03,-4.573988665011850460e-03,1.604344695806503296e-01
4.928564722296240874e-01,5.166795070896170738e-01,4.919749811967631947e-01,-2.617455119706891837e-03,2.036805756587384362e-03,1.213104820697549638e-03,2.503452822566032410e-02
5.085975884361334520e-01,3.646000887466103735e-01,5.639906859775544179e-01,-4.843007147116133726e-02,7.492010423821396934e-04,-7.284400848510248078e-03,1.974270194768905640e-01
5.330010686390356245e-01,3.560814368889864689e-01,5.671116856278202167e-01,-5.068593151542689218e-02,8.923374716035513410e-03,-1.123473106989014356e-02,2.163877487182617188e-01
5.320874080731213818e-01,3.973269649295975148e-01,5.651286205052913347e-01,-1.460492287536989051e-02,2.363632569999503819e-03,5.657177579405969813e-04,1.560845226049423218e-01
4.715095086641163946e-01,4.797690852977551934e-01,5.406270659483510821e-01,3.655831031678382498e-02,2.686962414616574091e-02,-1.464538067641085912e-02,1.053256765007972717e-01
4.439100262620354620e-01,4.632636553445694250e-01,5.603029012888270932e-01,6.331663900003596523e-02,2.929404496402109731e-02,-1.088752196556240850e-02,1.631755679845809937e-01
4.705041220094591248e-01,4.816983943698983639e-01,5.253151671311490079e-01,3.298858380282376768e-02,2.632918381706853689e-02,-3.122281720156893856e-02,1.038508713245391846e-01
5.381318164002464322e-01,4.693345987017609189e-01,5.683453195863746865e-01,8.208253076345456423e-02,5.125591362226313702e-02,-1.326101110144396744e-02,1.906468272209167480e-01
5.223327876708895312e-01,4.399444905203315215e-01,5.266559407719871855e-01,6.996275654801446808e-02,3.428975873760939375e-02,-4.026705740439637249e-02,1.738928705453872681e-01
5.142937848350467300e-01,4.813183954562974542e-01,5.458147092101970355e-01,4.959847685258942512e-02,3.164390127585214180e-02,-1.278968073403625831e-02,1.183009892702102661e-01
4.461903266119687794e-01,5.462658437371248343e-01,4.879247302053899560e-01,5.510398636644900545e-03,-1.278529603623333732e-02,9.724182118101070207e-03,9.189908206462860107e-02
4.998468840139325686e-01,4.652828876972588956e-01,5.218965547514767822e-01,-1.059211350424138498e-02,1.516401910232456976e-02,6.339326044068560595e-03,5.991631373763084412e-02
4.622971237652497845e-01,4.168923272324281393e-01,5.363172668404139198e-01,-5.388249739595079441e-02,5.970973195359969600e-03,3.795014409117954991e-03,1.405758857727050781e-01
5.018950071508967437e-01,4.942773172027595252e-01,5.304900906585473530e-01,-3.730278363551911558e-02,2.843319771948469785e-02,3.599937635516697182e-02,1.076161488890647888e-01
4.663710332870271147e-01,4.643056025537339870e-01,5.260643396051687404e-01,-3.294638506509554171e-02,1.228308398800364437e-02,1.186106235270880695e-02,8.844161033630371094e-02
4.356496688068652867e-01,5.399856280132309116e-01,4.715961775137629264e-01,-2.790640603212330394e-03,-1.755035235475278094e-02,-3.595598355788470497e-03,9.702485799789428711e-02
5.042242920706005993e-01,4.668969831848525653e-01,5.302353227176230810e-01,-1.603961067265562493e-02,8.697046120197914065e-03,1.000622224685131928e-02,6.587807089090347290e-02
4.886464911213139750e-01,4.951549871320744534e-01,5.407505349741951184e-01,-3.094734267221249668e-02,1.319951049262781465e-02,3.269350540121453846e-02,9.497664868831634521e-02
4.957625010186653691e-01,4.569998690296065980e-01,5.330966473200431377e-01,-2.370762142305403442e-02,1.624177690736143195e-02,1.958634595931426844e-02,8.928585797548294067e-02
4.979517795705675209e-01,4.985165469505425384e-01,5.137676523644907345e-01,-1.035482439705978256e-06,2.899695348931866350e-03,-2.664171330008048132e-03,1.697193644940853119e-02
5.018653855712705836e-01,4.900083371837473112e-01,5.195441749815494781e-01,1.878357585036482397e-02,1.404099272296842164e-02,-9.771387709919919159e-03,5.098140984773635864e-02
5.024680309243119147e-01,4.923538291676433643e-01,5.214922334530882608e-01,1.239415043690300991e-02,1.216866054214043626e-02,-6.949459526734880384e-03,4.131090268492698669e-02
4.991094647115503213e-01,5.037535799326841035e-01,5.187183924540327284e-01,1.368820678368533501e-02,1.576533027983570076e-02,-9.337482550951558061e-03,4.340870305895805359e-02
4.737325810226497014e-01,4.908738884249518319e-01,5.094110230752078028e-01,1.094103596081612111e-02,7.988397249087876573e-03,-1.578983296513221737e-02,4.747335240244865417e-02
4.878083022739065355e-01,4.655025190007709979e-01,5.148836755767237650e-01,3.486377536146285233e-02,2.109907628461099235e-02,-1.632329090341174890e-02,8.726896345615386963e-02
5.762833899611926602e-01,4.195679899593324214e-01,4.514161602364207826e-01,6.069541289891852015e-02,4.336286485335003743e-02,-1.023889497849596875e-01,2.621568739414215088e-01
4.992128468049955581e-01,5.261545377529636136e-01,4.774382210616955891e-01,6.896524526236900640e-03,2.007942486516563988e-03,-2.195521163217260645e-03,4.422529786825180054e-02
7.442356910206200382e-01,3.115536244962332502e-01,4.454990165359913878e-01,-3.189008535650379728e-02,-7.921384361903203650e-04,-1.926226247439344896e-01,5.114319324493408203e-01
5.544995994900572267e-01,4.651330526389090281e-01,4.961202665399452316e-01,4.009436959561046149e-02,4.399950888667551741e-02,-5.651371887533618299e-02,1.624478846788406372e-01
5.765391564896623633e-01,4.601867704030780937e-01,4.398804403719656086e-01,9.879008928438182124e-03,-4.692412402209802762e-04,-7.591991891210529697e-02,1.841137260198593140e-01
5.482003127105776752e-01,4.683707150720270440e-01,4.936238743263648976e-01,2.004423787757658726e-02,2.471757632070040525e-02,-5.608829031453180930e-02,1.321756988763809204e-01
5.468731359477443377e-01,4.597582546681122651e-01,4.633585041983763197e-01,3.207673565969877162e-03,1.505849689879885586e-02,-6.303893765913498592e-02,1.411424577236175537e-01
4.933635745619039947e-01,4.982038929785191916e-01,5.154197735894988641e-01,3.355846151951029019e-03,2.861323797093936246e-03,-3.615316697780491086e-04,2.149149402976036072e-02
5.318184224607503952e-01,4.933410131675365351e-01,4.814811475473058100e-01,1.151113244389956845e-02,-8.549752693778982920e-03,1.422859604204623589e-02,5.746021494269371033e-02
5.318390550599536581e-01,4.893523850484727267e-01,4.882446580703774242e-01,6.305170356938911286e-03,-1.266279580802557453e-03,1.048158846038541037e-02,4.803201928734779358e-02
5.424531449876930367e-01,4.752962529854121709e-01,4.722861182819887982e-01,1.321006261585264303e-02,-8.502152924816415089e-03,2.333154708790827897e-02,8.423016220331192017e-02
4.735867024185757002e-01,4.670348354595968976e-01,5.480436307896274784e-01,-4.309025030374411674e-02,-1.658964363456075231e-02,-2.836748654031269121e-02,1.220028400421142578e-01
4.809819927161327890e-01,4.584357088280776038e-01,5.326448430018483338e-01,-6.094390417529247511e-02,-4.506539053789881261e-02,-4.008245449812065930e-02,1.624719798564910889e-01
4.815757327624473616e-01,4.999467691408693848e-01,5.325622119056766524e-01,4.127365937792934480e-03,2.733479478376741462e-03,-2.258889679010407398e-03,4.570853710174560547e-02
5.046674277033807998e-01,4.975317438022077710e-01,5.002832836116826165e-01,-1.146693317316872492e-03,2.283655216111510951e-03,-6.637541072328981132e-06,7.644928526133298874e-03
4.846094884548443060e-01,5.442696485705331710e-01,4.862589635754104300e-01,-5.154688269229097675e-02,-7.454743139599213919e-02,-5.366767721467810559e-02,1.916963905096054077e-01
4.483660763556051032e-01,4.830467590671951861e-01,4.682250089958341355e-01,-5.804746671533421443e-02,-6.014488078685083228e-02,-5.599062992821972340e-02,1.768445670604705811e-01
4.763636653760122130e-01,4.808502262218096734e-01,4.728341783502058582e-01,-3.414477459786875724e-02,-3.935506882302554355e-02,-2.850450332783573820e-02,1.031019091606140137e-01
4.745915729243602166e-01,5.008732842381470318e-01,4.753462047804264956e-01,-4.068119254478183566e-02,-4.114825214173038065e-02,-3.995653610297107000e-02,1.245208978652954102e-01
5.159966186513359476e-01,4.432095137129807294e-01,5.502504445953295686e-01,9.347135148852651898e-03,-8.685220733989864770e-04,2.763195040210590474e-03,9.618627279996871948e-02
4.615729744976364013e-01,4.697674544300983190e-01,5.303521335141571091e-01,-6.472640473438291166e-03,-3.033767331526496074e-03,-3.581657878813423752e-03,6.652739644050598145e-02
4.402868743997019885e-01,5.108658783438692064e-01,4.795811398456208963e-01,-3.036079189849254928e-02,-3.286674698350053325e-02,-3.026765369034417966e-02,1.118323728442192078e-01
4.426344373698469226e-01,5.231986696703124773e-01,4.600439633957591479e-01,-3.643351137730328759e-02,-6.258591898582334390e-02,-3.575123397131287767e-02,1.579833775758743286e-01
5.058107004919486505e-01,5.058854263533457685e-01,4.762274812537302116e-01,-3.282581156715734527e-02,-3.668700921765754436e-02,-3.741686372429717938e-02,1.111209243535995483e-01
4.611011920351165694e-01,4.955036148685932895e-01,4.753456410110125097e-01,-3.400823836300412989e-02,-4.272042865331501793e-02,-3.961590048986336071e-02,1.206210255622863770e-01
4.764307719406886132e-01,5.321491705136691674e-01,4.748347678738298328e-01,-2.344706897764588585e-02,-4.212687602787147656e-02,-2.133433223868128059e-02,1.074001491069793701e-01
4.803138240457620611e-01,4.778567919511141349e-01,4.889292360068440146e-01,-3.673824857799889987e-02,-3.298902568014882436e-02,-3.230378996127440672e-02,1.026935204863548279e-01
4.768750917879761020e-01,4.778266603819285585e-01,5.149406847991685465e-01,-4.026172995487081047e-02,-3.115132004837588287e-02,-3.462018668380773684e-02,1.130644902586936951e-01
4.634036798991691408e-01,4.393648675600263509e-01,5.007310610288858710e-01,-6.476529466822994463e-02,-5.566551383495826205e-02,-5.191846775722387675e-02,1.812033802270889282e-01
5.005189436479168252e-01,4.804196410095775693e-01,4.703900299888905123e-01,-2.627031360144455735e-02,-2.984209813520077512e-02,-3.159736199817685803e-02,9.188788384199142456e-02
6.065498877488587626e-01,4.400396520429250558e-01,4.370204893169339355e-01,9.591879825174268528e-03,1.551533194382743487e-02,-8.681338651199735357e-02,2.276957929134368896e-01
6.283178652768844907e-01,4.671226973900362567e-01,3.077087468748994636e-01,5.301130766978572745e-02,4.353689935955060847e-02,-1.953286359079877688e-01,4.535088241100311279e-01
5.942052716829981929e-01,5.103382946306430634e-01,4.371217306344843401e-01,3.794741684562041167e-02,3.556548047733393975e-02,-7.652295296440611572e-02,2.102779150009155273e-01
6.080661259831143806e-01,4.422416464246607948e-01,4.154479276073540506e-01,2.215316100940517216e-02,1.445008168054172371e-02,-1.723666462152075030e-01,3.519775569438934326e-01
5.532410227079211928e-01,4.463214789934251137e-01,4.277511762194376455e-01,3.005821489459923820e-02,2.760285879131533365e-02,-8.761015776617277206e-02,2.044138759374618530e-01
5.617051826550105709e-01,4.901477024950858241e-01,4.791249248922103132e-01,2.452903684381042837e-02,2.109209549034211928e-02,-4.936400116304778818e-02,1.283775717020034790e-01
5.588274824899522875e-01,5.079594046865321122e-01,4.341855570234132156e-01,2.339224264810123993e-02,2.435731637600344404e-02,-7.598677241832571538e-02,1.803504079580307007e-01
5.297543091918807123e-01,4.596541805056983954e-01,4.381580165647256941e-01,5.306871747517490079e-02,6.151837159004922007e-02,-7.668327927852236492e-02,2.105382829904556274e-01
5.046855658196907068e-01,4.696700259907786168e-01,4.876570856605668136e-01,2.553964136894651751e-02,2.774411965491545284e-02,-2.736721517210213839e-02,8.621320873498916626e-02
5.507486549099795958e-01,4.826882135877745839e-01,5.263434771414990943e-01,4.107448150048172153e-02,2.946495633087135857e-02,-3.161647616543233896e-02,1.192958652973175049e-01
5.103304220700721761e-01,4.937441640844963398e-01,5.180857489410874983e-01,3.656168143110648250e-02,2.106096251343374595e-02,-2.637646768950186599e-02,8.883691579103469849e-02
4.788917758513052680e-01,4.602093972827376867e-01,5.107160337470558753e-01,7.526128573805354605e-02,5.755306376057550688e-02,-4.608403926129030909e-02,1.877696216106414795e-01
5.614867631266131642e-01,4.446185816691111681e-01,4.147068829029290082e-01,-4.239543486790923674e-03,-8.355789116082722179e-03,-7.980103642875487069e-02,1.934337168931961060e-01
5.570297472445857601e-01,4.344184556365420224e-01,4.326076470847088906e-01,2.324735867069365608e-02,2.158341035507435612e-02,-8.698457421304194026e-02,2.024268507957458496e-01
7.040492602186344540e-01,4.520195925419441263e-01,3.988387178555909962e-01,1.530622075049517875e-02,1.322898587989792263e-01,-1.953520327956835279e-01,4.974356591701507568e-01
5.740988917193379226e-01,4.418343210676209387e-01,4.830806959558389679e-01,-1.146006868828026819e-02,-7.787566606789866723e-03,-7.349080603629418174e-02,1.746951043605804443e-01
6.103371844131701973e-01,4.983669903176551896e-01,4.426304909376154173e-01,6.592166953406739405e-04,-2.607085325896163139e-02,-1.148980888555675289e-01,2.520511746406555176e-01
5.906632160652793839e-01,4.129769105307639632e-01,4.302083486737536266e-01,-2.951547027015079261e-02,-1.904688134024782112e-02,-1.018809153145920909e-01,2.522866725921630859e-01
5.174639186683736014e-01,4.874648137458973962e-01,4.497822836564638327e-01,-2.371013448062682383e-02,-1.984480764405809755e-02,-2.787527127512274411e-02,9.300222992897033691e-02
5.167903773358837327e-01,4.550151086422048463e-01,4.867664481818772537e-01,-1.807508203616223219e-02,-1.696851910664094742e-02,-2.339514954720288420e-02,7.967936247587203979e-02
5.205166630197370914e-01,4.880276916127693210e-01,4.554201877200122484e-01,-2.235028368648875677e-02,-3.869129799824513188e-02,-4.794711666224022589e-02,1.267462074756622314e-01
5.026284029128463837e-01,4.976082385871540281e-01,4.950080721365513470e-01,-1.973261426014024517e-02,-1.769974346097275344e-02,-2.219473917434840529e-02,6.025617197155952454e-02
5.002062052942143344e-01,4.680234641395453199e-01,4.910002232936225841e-01,-1.602629433443833462e-02,-1.789331517693957055e-02,-1.683464360447413724e-02,5.835631489753723145e-02
5.175680720246530475e-01,4.424034728592439736e-01,4.848453402778271637e-01,-2.583808640923005231e-02,-2.555135050545096279e-02,-2.944890123160911338e-02,1.040387004613876343e-01
4.713176788003530793e-01,5.221566470524501291e-01,4.728444676366491684e-01,-6.805567665790343210e-03,-1.003574533422955765e-02,-6.691555186681369220e-03,5.554041638970375061e-02
4.900912704559845512e-01,4.859238416526444060e-01,4.608243379576879017e-01,-2.631761452630344139e-02,-2.573145960101272042e-02,-2.429059833507701133e-02,8.115557581186294556e-02
1.970091343293813857e-01,5.711609836322323330e-01,6.154986627907478303e-01,6.840477730936135592e-02,-1.210172884208643267e-02,3.595008484993872377e-02,4.205932617187500000e-01
4.784519939765213836e-01,4.591411284456940467e-01,4.834004925915509343e-01,-4.340400275902800420e-02,-3.804740054439478825e-02,-4.168663861692839534e-02,1.253029108047485352e-01
5.444191390404520270e-01,4.771019206755829356e-01,4.138606899010040530e-01,-6.889092675658987919e-02,-5.715536785880457465e-02,-1.111097305421117482e-01,2.717765569686889648e-01
5.473434931440422924e-01,4.762656067035831442e-01,4.725019906095753175e-01,-4.870784795309174992e-02,-6.420515324254111311e-02,-9.927885591893789718e-02,2.332099527120590210e-01
5.677360745763017080e-01,4.852573762957936854e-01,4.687020772791488654e-01,-2.479612690560506136e-02,-1.768698772752753945e-02,-5.740605364146734307e-02,1.452985554933547974e-01
5.458033135824779114e-01,4.369957386915909736e-01,4.729359287243168897e-01,-2.912791613564032212e-02,-1.433505755660891522e-02,-5.987734582921362680e-02,1.521114706993103027e-01
5.281975438269173040e-01,4.401451801597126567e-01,4.673645986684688558e-01,-2.749706546739301427e-02,-2.707432337678577355e-02,-4.118781592425236476e-02,1.251159906387329102e-01
3.394199092877665525e-01,6.001029958326533631e-01,5.643915209829900581e-01,9.164088763497652002e-02,1.305087292565054735e-01,-8.487766822920145976e-03,3.693636059761047363e-01
5.102646314843637398e-01,4.427425142791224233e-01,4.787075796096837976e-01,-2.733192694305230583e-02,-3.440009309466555976e-02,-3.466737891372669716e-02,1.132297143340110779e-01
5.008710945029101191e-01,4.440558291180449202e-01,4.809444997164854518e-01,-4.875391946500196722e-02,-5.101163499342740298e-02,-5.962895776215158816e-02,1.676220148801803589e-01
5.356356662912985511e-01,4.715658059845679317e-01,4.468961056966774259e-01,-3.389998098423242789e-02,-4.626875896985439135e-02,-6.594521888734337922e-02,1.709106862545013428e-01
4.913831858108687611e-01,5.473966090030104592e-01,4.885482297305055455e-01,-1.267603988836605959e-02,3.541400839066773110e-02,1.019754208863288616e-02,8.866119384765625000e-02
4.876962688512787025e-01,5.465414367848939747e-01,4.548936276060603356e-01,-1.545040954449714531e-02,4.555378487148865896e-02,2.093537635065751204e-02,1.213486790657043457e-01
4.934653671231544747e-01,5.466032703282811545e-01,4.880952715485956106e-01,-1.484712740737511617e-02,6.625321307084983125e-02,1.417412815718739443e-02,1.325531005859375000e-01
4.857860099946521570e-01,5.198826581460652685e-01,4.841073553924121198e-01,1.301060484030078582e-02,-1.936408544313080946e-02,1.584543337783761094e-02,6.007162481546401978e-02
4.977443906361463943e-01,5.405376825758682058e-01,4.211985988679727844e-01,1.878352420087326877e-02,-4.016973637948638431e-02,2.357354289297804509e-02,1.361344605684280396e-01
5.039521840071634617e-01,5.236855112511681343e-01,4.974249421848272457e-01,2.824015941241000277e-02,-2.632404594818549617e-02,2.374875873499684292e-02,8.200127631425857544e-02
4.938536096834493794e-01,5.298271704322222719e-01,4.732199846224157680e-01,2.746500192728743364e-02,-4.173833300377690486e-02,3.178522420081264510e-02,1.139396950602531433e-01
4.753281803984296117e-01,5.029957400902375086e-01,4.449017818313639738e-01,4.379832993705663063e-02,-6.337184525119558820e-02,6.694834876526264966e-02,1.837992966175079346e-01
4.949352504872653880e-01,5.154669623108235621e-01,4.786432905737075805e-01,1.915615493586114715e-02,-1.989697456191889813e-02,2.222054616671102073e-02,6.921909004449844360e-02
4.966452226538234926e-01,5.126370214216734444e-01,4.964506887052645423e-01,1.981388119482473467e-02,-1.840286913283050926e-02,2.930634669007495252e-02,7.091712206602096558e-02
5.161944121932771079e-01,5.481356189048113281e-01,4.710583420640321872e-01,2.579529254127098728e-02,-3.862579064087832276e-02,3.675396444536922075e-02,1.225716695189476013e-01
4.933809676827435320e-01,5.126020766517801475e-01,4.731008169604644098e-01,1.784068979354692247e-02,-2.259878625802754296e-02,1.899267219800227988e-02,6.884542852640151978e-02
4.793459316189054853e-01,5.480969838490694634e-01,4.191495843466575000e-01,-3.532584819548420518e-02,-4.849365081010606482e-02,-2.257078173609265714e-02,1.575304418802261353e-01
4.726220206442808269e-01,5.142886504619545995e-01,4.312973033531824485e-01,-3.227300838071478495e-02,-4.425541454857034873e-02,-3.092483924105062995e-02,1.305182129144668579e-01
5.125616887070264527e-01,5.533356469687434886e-01,4.166594429031784674e-01,-6.028976051217873819e-03,-4.589732561371420716e-02,-1.798723320079882726e-02,1.488940268754959106e-01
4.927737449788004986e-01,5.579481776589600983e-01,4.569782274436168801e-01,-2.842241058140771576e-02,-6.507701042640677558e-02,-3.758214402559749423e-02,1.650084406137466431e-01
4.871180274244109043e-01,5.110844082483113615e-01,4.471764830563422777e-01,-1.658782796984799301e-02,-2.391601338401004584e-02,-2.147562185708644378e-02,8.397601544857025146e-02
5.654721307669898778e-01,3.787930004897111513e-01,5.056940273265027042e-01,4.325300928765457575e-03,4.984376849454520177e-03,-7.582806372411217410e-02,2.112901806831359863e-01
5.631290917825086950e-01,3.636070883921425634e-01,5.456749134728684503e-01,-2.785899877738858259e-03,1.172006672678874801e-03,-3.356097713305459390e-02,2.000939995050430298e-01
5.433397442938021626e-01,3.968366456129083231e-01,4.874195093518968736e-01,-8.021249719652921717e-03,-8.419682573423552946e-03,-3.053762609844331080e-02,1.400038450956344604e-01
5.648237420881639936e-01,4.275799503697181314e-01,5.167168077605823751e-01,-2.679763664022308950e-02,-1.272996635743489299e-02,-4.099720753622818070e-02,1.490991860628128052e-01
5.501535720017616260e-01,4.219224200323441476e-01,5.097050082564470452e-01,-2.044524987959449661e-02,5.065720781671170401e-04,-5.040955849420328955e-02,1.475490182638168335e-01
4.813150072348645336e-01,4.818663423388583333e-01,4.435019833972797532e-01,-5.193778805786757741e-02,-5.804283506139156640e-02,-6.027577492256438324e-02,1.747855693101882935e-01
4.517876125214349559e-01,4.826378732489057799e-01,5.214775253842754976e-01,-5.078177549987199918e-02,-2.694749454100952776e-02,-3.762243249007994617e-02,1.334903836250305176e-01
4.325831061252837784e-01,4.645720753684707827e-01,5.325838057491282251e-01,-4.089446237844328313e-02,-1.920373763273693773e-02,-1.868699322820270223e-02,1.224563121795654297e-01
4.778540151014965542e-01,4.834495867582212503e-01,5.356148519002473796e-01,-4.623089975077174923e-02,-3.550773657220713392e-02,-2.284290363307587071e-02,1.216721013188362122e-01
4.550062660705029849e-01,5.096844034142692381e-01,4.883821054689798102e-01,-1.839004706636600955e-02,-2.360178582997250057e-02,-2.205758658295234320e-02,8.015012741088867188e-02
4.325787245574220785e-01,5.139329563800433265e-01,5.078972589757585476e-01,-3.247907831881301915e-02,-3.265248826119127729e-02,-2.340294313369972387e-02,1.190387755632400513e-01
4.177356925337931126e-01,5.090665070767722566e-01,5.116393446189849703e-01,-4.109943313942806403e-02,-4.549460436669577196e-02,-3.824310197808382383e-02,1.557154059410095215e-01
5.366775713407468951e-01,4.961213417763348787e-01,5.038275076495708493e-01,-3.099269212431751339e-02,4.816156868534311741e-02,5.224956821251530714e-02,1.393627077341079712e-01
5.251777573566828172e-01,5.049318794640905717e-01,5.274330229553753080e-01,-2.394882529280537020e-02,3.741936313151742605e-02,3.853254592626265129e-02,1.040969640016555786e-01
5.095728740660621092e-01,4.987793964536466618e-01,5.080877476696601391e-01,-1.832550772737462363e-02,2.346329912831259315e-02,4.690065181910021280e-02,9.675092250108718872e-02
5.099597438230706326e-01,4.591756929138294807e-01,5.049234845613428391e-01,-2.379662006098623439e-02,2.713581052778168620e-02,3.330308938355013015e-02,9.789690375328063965e-02
5.666931001370181242e-01,4.633260046632111107e-01,5.276159690764309351e-01,-4.732602325747124750e-02,8.243479438181698649e-02,6.073801376611014102e-02,2.152801752090454102e-01
5.451662541566123510e-01,4.536924302463693492e-01,5.297238552734352401e-01,-1.847983456994418960e-02,1.438092208927262659e-02,2.115131871262511051e-02,1.008981317281723022e-01
4.865829257472005231e-01,5.104197089506133933e-01,4.997639388724946508e-01,1.207202796030474451e-02,-1.124531544422901000e-02,1.324207492527621280e-02,4.207575321197509766e-02
5.074515768418206285e-01,5.124979569166108195e-01,4.996566907973198912e-01,1.549357235585506649e-02,-9.302328664385439358e-03,1.476479589282767013e-02,4.194415360689163208e-02
4.657322756990989188e-01,5.051298694123594890e-01,4.889595366830345458e-01,1.798976370410610912e-02,-2.655958549833786764e-02,1.806913521771488784e-02,7.240986078977584839e-02
5.142625378182654750e-01,5.130300264637730479e-01,4.943530977229755319e-01,2.846907436798485486e-02,-2.414283287186242202e-02,1.800702445598401438e-02,7.433854043483734131e-02
4.981705195599597791e-01,4.757468724083940836e-01,4.903723941811170550e-01,1.843254325062978691e-02,-1.505147016620940990e-02,2.651117232345295144e-02,6.477817147970199585e-02
4.898531835226975217e-01,4.899403141446480037e-01,5.069631265472399617e-01,1.216891590260005783e-02,-1.165307806592162133e-02,1.234778444507547354e-02,4.000375792384147644e-02
5.283457047000861273e-01,4.759689311027032743e-01,4.903838687619104242e-01,1.674506745204482061e-02,1.622418507291710499e-02,-2.428992839548665961e-02,7.481293380260467529e-02
5.457731712361716392e-01,4.624453095630687849e-01,4.308680752829026073e-01,1.192601690249194858e-02,1.508608757277717614e-02,-4.536364543282350031e-02,1.336224526166915894e-01
5.472219586771931432e-01,4.824116818073969082e-01,4.693144967481116536e-01,3.739194675849016013e-03,8.189486898339324097e-03,-2.207334146927660001e-02,8.322010189294815063e-02
5.291242408048781876e-01,4.722355185048602855e-01,4.732497490794050909e-01,1.139816838256653767e-02,7.317744419576065022e-03,-2.419912500350345289e-02,7.407329231500625610e-02
5.376732033674254119e-01,4.754947441646779627e-01,4.859290156710431297e-01,1.196542084973160024e-02,1.201215460414288561e-02,-2.685631618456729014e-02,7.970208674669265747e-02
5.492512012908230545e-01,4.679728559598124726e-01,4.759623096135676690e-01,1.122802294543863780e-02,2.145656151865724462e-02,-4.872422459293947877e-02,1.220743209123611450e-01
5.193783037049253259e-01,4.738122078521040392e-01,4.824617615066990051e-01,1.924462017375923317e-02,1.710933828731007675e-02,-1.994439998503140868e-02,7.028193026781082153e-02
4.222001327660643843e-01,4.527532532426479794e-01,5.927583716528648239e-01,-9.823180623378104104e-02,-2.135191503535754584e-02,-5.517016133921931464e-02,2.534954249858856201e-01
5.294142641977174213e-01,5.536255917223117384e-01,3.999879155114980378e-01,1.417001794850407913e-02,-1.053991044199748678e-02,1.450226263602639488e-02,1.484504491090774536e-01
4.348614270555709038e-01,4.927985262451510806e-01,5.357365557178173088e-01,-5.054811963502932326e-02,-1.868969601897014360e-02,-2.474948006492067379e-02,1.350516527891159058e-01
4.481174158970733234e-01,4.181908314346347022e-01,5.400884185811921645e-01,-9.097757424111897750e-02,-4.263597456766319432e-02,-4.925429740634080372e-02,2.228650599718093872e-01
4.015628524376024244e-01,4.444821007152701675e-01,5.148320393484803192e-01,-1.005843500693709702e-01,-6.418180379644816691e-02,-5.269484228288060651e-02,2.466785907745361328e-01
4.514248699905929474e-01,4.831770380087473393e-01,5.336250717461981097e-01,-6.208650632517019596e-02,-4.280962262416530134e-02,-3.378094475233364702e-02,1.601271033287048340e-01
4.352339452800934594e-01,4.913578264863084355e-01,5.608155535411183390e-01,-5.535305603699662569e-02,-2.354661514956864210e-02,-1.872678239103935105e-02,1.542069762945175171e-01
4.698182913512531367e-01,4.782005639446098022e-01,5.523528533207118230e-01,-6.013903604255629171e-02,-2.295118305012224663e-02,-2.535676941388266548e-02,1.433515548706054688e-01
4.760229540637172518e-01,5.505802410061251262e-01,4.426253912261032264e-01,9.966330185386684110e-03,-3.268051861731047225e-02,7.364460338775435412e-03,1.132649779319763184e-01
4.712453372081132352e-01,5.392986535809599635e-01,4.488002774306849574e-01,5.609520716943660256e-04,-1.826247832023738388e-02,-2.611119404600924666e-03,8.766098320484161377e-02
4.664531245046328878e-01,5.595568237243783161e-01,4.388972273354176390e-01,-1.245946653675463790e-02,-7.428585194500929301e-02,-2.594171349441859453e-02,1.761617958545684814e-01
4.704229331190896146e-01,5.449568965346990312e-01,4.344427177533922713e-01,-1.405744980987713895e-02,-4.717869340464020400e-02,-1.548718505709451021e-02,1.323688626289367676e-01
4.614606573754558294e-01,5.503255412284410175e-01,4.769700953580716662e-01,2.125238373949824879e-03,-2.047767239797780928e-02,5.553637240749292187e-03,9.012962877750396729e-02
4.646237304113278732e-01,5.460743624973186661e-01,4.801683590749158959e-01,-7.086065374463449730e-03,-2.660587139010813645e-02,-9.051148566118383254e-03,9.016510099172592163e-02
4.602587783178805347e-01,5.426992820204487034e-01,4.569410030076223594e-01,-8.229254324520174704e-03,-2.078515589421742540e-02,-4.243208188802510133e-03,9.292043745517730713e-02
4.892344953752811310e-01,4.703120482005687664e-01,4.890328533778573461e-01,-1.754693398023905813e-03,-9.197891850088886143e-03,-2.420154265973868245e-03,2.519714273512363434e-02
4.315336726832726399e-01,5.488660911682987642e-01,4.616312269163507231e-01,8.280749594071120864e-03,-5.502192233019741890e-02,9.295803190893072235e-03,1.438350528478622437e-01
4.565609788831638260e-01,5.512765994859727403e-01,4.943275032833154836e-01,9.818082274945408132e-04,-2.951866280767092773e-02,5.493831691786086983e-03,9.761030972003936768e-02
4.265769990863959582e-01,5.410975280212161342e-01,4.483806328296685018e-01,-8.877988743305717176e-03,-5.499054544091500074e-02,-1.169013682157686931e-02,1.442626118659973145e-01
5.728380964620753968e-01,4.013667068786833103e-01,5.123835453684547625e-01,2.787242752574606297e-02,1.596152447610952110e-02,-1.062736797660295135e-01,2.442706972360610962e-01
5.383685169330812981e-01,5.259312993969217365e-01,4.479873232986584797e-01,7.499734375724900759e-02,-5.082743812679855339e-02,6.426705334644673695e-02,2.102717459201812744e-01
4.799024633813380181e-01,5.300571226946315662e-01,5.106175248135220723e-01,5.955232505313680369e-02,-4.426329134827382966e-02,6.756618908670514179e-02,1.792515665292739868e-01
5.092652583003365319e-01,4.505305187560038060e-01,5.001536669032412563e-01,5.912115604610920783e-02,-3.429231377171110956e-02,6.513378435340171080e-02,1.724490523338317871e-01
4.975470507255081443e-01,5.434604780438012650e-01,5.168446774497055252e-01,4.096076148163895619e-02,-4.396479051751964878e-02,9.115288263724043161e-02,1.932693123817443848e-01
5.238512103454422419e-01,5.145112267247003990e-01,4.834179154338220097e-01,2.600864184917929881e-02,-1.788992469974400035e-02,4.209091176728994160e-02,9.822867065668106079e-02
5.292133874822172457e-01,5.196102205423879239e-01,5.052559340057518611e-01,3.154322529396331315e-02,-2.678178674298675038e-02,3.378757492418619363e-02,9.485584497451782227e-02
5.283862121773249543e-01,5.021227975417372758e-01,5.201622066279458778e-01,3.671564967341935798e-02,-2.234784279136089319e-02,3.877484652991687597e-02,1.029284819960594177e-01
4.992966479296536697e-01,5.052123682944765770e-01,4.962123821941800128e-01,2.223130026064517109e-03,4.830979735955788176e-04,-5.399918085068376250e-04,8.896962739527225494e-03
4.734860559380199563e-01,5.119095642681787961e-01,4.811369863460952523e-01,5.542865479453051858e-02,-5.088599421023697750e-02,4.969160229067215440e-02,1.601057648658752441e-01
4.954900010117642695e-01,4.933760081913706741e-01,5.158578458596060345e-01,2.438044646320602568e-02,-2.057392113747284410e-02,4.024636140643743365e-02,9.151372313499450684e-02
4.914148570324890497e-01,5.135237976277058358e-01,5.015144824181363425e-01,2.376267753163952348e-02,-2.733669823320022604e-02,3.348197656103279324e-02,8.755868673324584961e-02
4.977155218169769801e-01,5.089549619488069609e-01,5.046468722964057019e-01,1.182312784872063469e-02,1.747593883206402868e-02,-1.344964534399007740e-02,4.443790391087532043e-02
4.955385477506650815e-01,4.836885129415036122e-01,4.990623839278333640e-01,1.152938833654878689e-02,1.181767263646106743e-02,-1.272867648331100360e-02,3.870928287506103516e-02
4.976540394681166490e-01,4.951844463077266778e-01,4.984102235879921405e-01,7.460989365519496951e-03,6.898970636797211245e-03,-6.712128985224926313e-03,2.129513211548328400e-02
4.547508091352067683e-01,5.202842357502655002e-01,5.384831552725953818e-01,7.607110799936604197e-03,4.686973031731194589e-03,5.342323486718360227e-04,7.783850282430648804e-02
4.829860568438333890e-01,5.317139815360762967e-01,4.795956548590855628e-01,2.710936228893396152e-02,-3.674829279547239119e-02,3.633296116741036724e-02,1.129930466413497925e-01
5.679836859552139794e-01,4.177803878941008797e-01,5.171884914277092848e-01,4.344361900891285759e-03,-6.862495438424820026e-04,-4.761868915549826581e-02,1.561160683631896973e-01
5.456643576990051203e-01,4.231987659073874752e-01,5.323553624523508221e-01,-1.831233564318056617e-01,-1.430999491827275039e-01,-1.891507551030693901e-01,5.318969488143920898e-01
4.683253839212790925e-01,5.141519674524790418e-01,4.893105593813538712e-01,2.243141898688990124e-02,-2.593033695086800414e-02,1.753791094874492668e-02,7.764124125242233276e-02
4.733150326811157993e-01,5.245257795853517369e-01,4.922152653683480872e-01,1.849641622870452440e-03,-3.531793072291584262e-03,8.482366066196761478e-03,4.770115390419960022e-02
4.711485877522461063e-01,5.208521124199724239e-01,4.985096866725259313e-01,3.152529150102344451e-03,-6.777924746836081968e-03,1.307282140834083520e-02,5.039304494857788086e-02
4.784246524705789705e-01,5.486418190725766975e-01,4.642291955737042342e-01,9.725845881520830613e-03,3.374180496582421251e-02,1.324432679482752786e-03,9.916295856237411499e-02
3.707300055762698943e-01,6.168540355755786075e-01,4.259858309838323587e-01,-5.411382736927951125e-03,1.550797768792749887e-01,3.573413333177943851e-02,3.551032245159149170e-01
6.339489482397626663e-01,2.974175924551772932e-01,5.730896971130008399e-01,-1.254881860209234624e-02,2.554148388735529712e-02,-7.015439619257521180e-03,3.147273957729339600e-01
5.072592665218587094e-01,5.506564935316135001e-01,4.530989319346520050e-01,5.895787648557689747e-03,3.600905516374661858e-02,-3.583993955759044660e-04,1.056489124894142151e-01
4.309191397607088914e-01,6.327930054428365647e-01,4.603332040044239570e-01,-3.845836428997281842e-02,2.010295991951652206e-01,1.923899142296573231e-02,4.030714035034179688e-01
5.291396979140223777e-01,6.255598838224375458e-01,3.674742742980060539e-01,3.593869623170257988e-02,1.287374006991110764e-01,5.301402100895790531e-02,3.362239599227905273e-01
5.255553662769535395e-01,5.507646599484405936e-01,4.505907461156225535e-01,-1.029818298415820232e-02,5.300549510218707794e-02,-1.032203214708700455e-03,1.299811899662017822e-01
4.244770902328192097e-01,4.897647959645826665e-01,5.760880712552014504e-01,-1.212557604757203283e-01,1.657160886043636955e-02,-2.841383348896884316e-03,2.496136873960494995e-01
4.819943231240517156e-01,5.439750016238050767e-01,4.590546820119109639e-01,-1.853603720008982145e-02,5.758365857519661540e-02,3.404040987630003318e-02,1.422823965549468994e-01
5.471298268745066196e-01,4.604591466649745057e-01,4.809216432455502566e-01,-1.288255615106700773e-02,-1.065395183668971756e-02,-2.737771940172102278e-02,9.614593535661697388e-02
5.601549773867153803e-01,5.267145527539350836e-01,4.248262082954767926e-01,1.508569746364516947e-02,2.085478946200278703e-03,-4.375842073101890439e-02,1.461056768894195557e-01
5.278914783260971744e-01,4.953648633092769260e-01,4.566873252383887860e-01,1.669663447066019671e-02,1.226182577735041371e-02,-9.083886470062800533e-03,7.312265783548355103e-02
5.474592461938271315e-01,5.018440403476750467e-01,4.331545065283779472e-01,9.891229889175841977e-03,9.439667704568728557e-03,-8.839885939972771944e-03,1.035738810896873474e-01
5.500767263116934647e-01,5.123816419816329404e-01,4.228355994738005608e-01,1.899010578727761134e-02,5.740288670853935411e-03,-4.021323402335354180e-02,1.372839957475662231e-01
5.598424933382666335e-01,5.014220281005036250e-01,4.036201585758831811e-01,2.725576517044252939e-02,2.708045494958167057e-02,-6.810425393678209982e-02,1.924448907375335693e-01
5.526869793566038247e-01,4.344861425899492757e-01,5.046276113037470035e-01,2.908975801593527508e-03,6.606848759098748504e-03,-1.002583608679620715e-02,1.051587983965873718e-01
5.540629245616325305e-01,5.192329740490305712e-01,4.199516720793272095e-01,8.200260733944851957e-03,1.026065376049967171e-02,-2.453296737338572786e-02,1.298115551471710205e-01
5.475973960440825294e-01,5.168141730260313871e-01,3.989808595414719994e-01,5.187056750331931788e-03,4.205085138646464001e-03,-2.465990716413414205e-02,1.428904533386230469e-01
5.491057173530409230e-01,5.165063728376988461e-01,4.089363611148790767e-01,4.172652972866620381e-03,-2.311954894870933176e-03,-2.731942876946837420e-02,1.358236372470855713e-01
4.809550568281802385e-01,4.546981260267702329e-01,5.429610937113278357e-01,-6.454526706069658830e-03,-1.555699666255818325e-03,-2.504078561951701611e-03,7.945638895034790039e-02
4.670528618134696663e-01,4.585397471139107117e-01,5.420535923921980803e-01,-8.838007687615619112e-03,-4.282957122967857681e-03,-1.279382192408470148e-03,8.142693340778350830e-02
5.352013086682586573e-01,4.698920567588334984e-01,4.617859228396677396e-01,-1.394597803282948429e-03,-1.569367554060098697e-03,-4.284769730786064379e-03,7.020480185747146606e-02
4.572802548176836401e-01,4.244398775737996954e-01,5.500555690211804682e-01,-5.415298453710083726e-02,-2.659164871286177206e-03,-1.940241770463356518e-04,1.468042582273483276e-01
4.769345561249915266e-01,4.382139906619111902e-01,5.428339975822780161e-01,-1.727037677780226752e-02,-7.811716926724377374e-04,-7.401736805155841210e-03,9.723511338233947754e-02
4.822603076435379998e-01,4.518648534971473341e-01,5.182091673570798918e-01,-3.072072226272223178e-02,-2.691160554977007832e-02,-2.114191286704873371e-02,9.825385361909866333e-02
4.698276072479256604e-01,4.702983765822711382e-01,5.414659579846800019e-01,-1.289945196667001588e-02,-3.517694426283531940e-03,-1.715646166783765325e-03,7.512449473142623901e-02
4.804232958154369126e-01,4.571070578845401466e-01,5.165664441869504131e-01,-2.565334498630091747e-02,-1.928588684741946307e-02,-1.844968643479708362e-02,8.248628675937652588e-02
4.263236663705795015e-01,4.576731204933567332e-01,5.520857795701308302e-01,-5.445413355426530905e-02,-1.177037599945143960e-02,-6.844283588256630524e-03,1.493594348430633545e-01
4.570588966477053261e-01,4.964071973011320860e-01,5.274174414017268608e-01,5.375986264778895296e-02,-4.145591566103015713e-02,2.393315627818162761e-02,1.388332098722457886e-01
4.631933555462785512e-01,5.000570882004115036e-01,5.659261459123087201e-01,5.951500407150776828e-02,-3.081124583390594876e-02,3.543086173360013996e-02,1.592670381069183350e-01
4.380138180989086027e-01,5.339070804678146542e-01,5.641765659050830273e-01,9.011230290105796958e-02,-4.451916590190711787e-02,7.327765819117286472e-02,2.437822669744491577e-01
4.762092503390210618e-01,4.836326880295021002e-01,5.385651130993708291e-01,-2.767630721452758735e-02,3.030027698213044740e-02,2.404776002938517274e-02,1.013291925191879272e-01
4.386714969541405384e-01,4.828791406313967527e-01,5.224182948251914205e-01,-4.968947953039865723e-02,3.970316306424993141e-02,4.655530261646256135e-02,1.546089798212051392e-01
4.339790355271680444e-01,5.344126223286336241e-01,5.183488039036922013e-01,-7.648620437881739620e-02,2.909824299672199299e-02,4.004264905979761091e-02,1.833913475275039673e-01
5.422236062446644800e-01,5.157258052979314389e-01,4.368146558461729612e-01,6.866157663817597581e-03,-1.608940554010958529e-03,8.950657574413161885e-03,9.700317680835723877e-02
4.686640608621497339e-01,4.846259096947776457e-01,5.466326132111316571e-01,-5.125923379461074653e-02,1.333897516929070243e-02,1.751193558793747232e-02,1.201069056987762451e-01
4.389873663340577714e-01,4.484343763365736812e-01,6.097383526850874702e-01,-8.202203782477460181e-02,4.211647478454183524e-02,5.013547089595293826e-02,2.463269978761672974e-01
3.743311417299067245e-01,4.611934017365430516e-01,5.699710666176229790e-01,-9.251884965742336597e-02,7.190590773493058842e-03,4.798031035070492861e-03,2.339437901973724365e-01
4.311045009696276575e-01,5.169174737824067112e-01,5.806914285851092483e-01,-4.699169007383839636e-02,1.642713515802502952e-02,1.514609403577695315e-02,1.581961959600448608e-01
5.496484309939811963e-01,4.615949208997935926e-01,4.581516441084100832e-01,6.038118396164147798e-03,-4.924483563367380856e-03,-3.971707464932285742e-02,1.139426827430725098e-01
5.479366255141830955e-01,4.080966746045773252e-01,4.740023408737314980e-01,2.512073906748372651e-03,7.161085209204668539e-03,-4.835244165119729348e-02,1.478822976350784302e-01
5.484008905848228865e-01,4.240673934806111767e-01,4.675871659319580931e-01,-4.638947689367279442e-03,2.141042920767252059e-03,-4.879456522176511130e-02,1.384299993515014648e-01
5.655997323922168363e-01,4.970898801940900058e-01,4.227567654721934298e-01,-1.134081440184932232e-03,-8.426310046797003128e-03,-8.870883186383521357e-02,1.978287100791931152e-01
5.600030139164615672e-01,4.527631132536944492e-01,4.517952460640718981e-01,-1.604850716347113598e-02,-3.025862038530361189e-02,-6.700105997569387462e-02,1.690915971994400024e-01
5.474257136426099457e-01,4.791105435730225737e-01,4.628697794302245039e-01,-4.720294270751239016e-03,-4.948788322316258724e-03,-3.224354273268641852e-02,9.643375128507614136e-02
4.819066844450970999e-01,5.039190523009892120e-01,5.050457345053538383e-01,3.645058165231244984e-03,5.747511080276939029e-03,-7.244883843749628030e-03,2.840846218168735504e-02
5.483603003949256705e-01,4.588628309569099395e-01,4.837163591413032870e-01,-2.165066010501628859e-03,2.995487924875186656e-03,-3.020111550965553712e-02,9.581477195024490356e-02
5.451958757622111795e-01,4.453561106221887167e-01,4.611180764054900738e-01,-1.881212998809699000e-02,-1.784553258347842258e-02,-4.114814453303709818e-02,1.254564970731735229e-01
5.697162367284250850e-01,4.622077695140200948e-01,4.680996724250709451e-01,1.266278892863518114e-04,6.784057689540050513e-03,-4.495236380064521198e-02,1.309947222471237183e-01
5.633406365133518667e-01,5.445203894542705036e-01,4.330617539019371298e-01,3.415593961781068083e-02,4.683217087923818162e-02,-7.425756140993314269e-02,2.037083804607391357e-01
5.675608095094164529e-01,5.156385259451462533e-01,4.118808063431299571e-01,3.401091744006128764e-02,3.864060150828867168e-02,-4.884183229020518102e-02,1.842688620090484619e-01
5.547527487825036907e-01,4.979839188158384222e-01,3.952709709545575989e-01,2.372291122662290724e-02,2.366515226348489195e-02,-6.116640525443824833e-02,1.849215477705001831e-01
6.022054532731943022e-01,5.193175075692181286e-01,3.318717136842124216e-01,1.645665179652692350e-02,2.005548757226085013e-02,-1.061065568236966294e-01,3.055131137371063232e-01
5.896755332920402548e-01,5.201243276829972118e-01,3.325640356500685346e-01,2.245793678892285886e-02,2.381670933976343107e-02,-1.120246607225449526e-01,3.064712584018707275e-01
6.099035249331385966e-01,4.789952468447439271e-01,4.075195709162752200e-01,3.764369739884094318e-02,5.386467703500305571e-02,-1.041495758654446963e-01,2.776675522327423096e-01
4.516037927240688643e-01,5.439332784980741575e-01,5.010191189874569906e-01,-1.528978851579894990e-03,1.596446395077462041e-02,3.477964231513279089e-03,8.492355793714523315e-02
4.210207876473413546e-01,5.667306233376429025e-01,5.389911979108508167e-01,1.284181523148078584e-03,2.033840121205249263e-02,1.000466977547999001e-02,1.396606713533401489e-01
4.261764686077359476e-01,5.776077334376377159e-01,5.423000654732874626e-01,-2.201403212028461148e-02,5.141749427747980411e-02,3.809904471020252991e-03,1.681072562932968140e-01
4.407048538575528696e-01,5.882439771383736193e-01,4.910460231221147054e-01,1.758606700364271844e-02,6.429926564180843407e-02,1.243872607897048531e-02,1.751282215118408203e-01
4.756801478264563454e-01,5.500919696863091346e-01,5.077345267286744734e-01,6.350534830061277218e-03,2.901712562188823313e-02,7.764409824687367769e-03,8.370904624462127686e-02
5.433355617703462537e-01,4.817974985330368276e-01,4.441541158841804671e-01,1.789886728067356311e-02,1.614997509760247169e-02,-4.209394445291728126e-02,1.207465603947639465e-01
5.412538488901686984e-01,3.762647818585003745e-01,5.652616188761852012e-01,-6.386096411766238601e-02,-2.190074067035137698e-02,-3.603860829179995895e-02,2.221007049083709717e-01
5.323009092324750835e-01,3.341447561853702619e-01,5.667037023404473128e-01,-9.167961522262126073e-02,-4.654510894947141986e-02,-5.050334409381155437e-02,2.943350076675415039e-01
5.318554635954944043e-01,3.625073429753193910e-01,5.622400932227689108e-01,-5.520846331587523498e-02,-1.917244864354235301e-02,-3.971545362182576228e-02,2.229937613010406494e-01
5.573053440571855699e-01,3.275000123061878599e-01,5.983049108834652685e-01,-8.216267129237304900e-02,-1.111339585889463411e-02,-5.266001201001165033e-02,3.047215938568115234e-01
5.293856274304673537e-01,5.260895917637440355e-01,4.836688600591334541e-01,8.971503177224406100e-02,-3.414299193897213369e-02,5.159760910631506353e-02,1.938575059175491333e-01
5.509528217730810251e-01,4.326863409663658233e-01,5.050272784647982238e-01,3.635856713872154256e-02,-1.135081241851876137e-02,5.902345318475610281e-02,1.595879942178726196e-01
5.058301161039669980e-01,4.119146128827079201e-01,5.007477523145134057e-01,5.656500124968488058e-02,-3.323910663441236729e-02,6.786267412961392853e-02,1.873445510864257812e-01
5.508960665942788104e-01,4.630881247527309785e-01,4.811683180768155377e-01,1.676677434683188778e-02,-2.012684000213429969e-02,3.949124730395980887e-02,1.148340627551078796e-01
5.042829278498093259e-01,5.380815314374484126e-01,4.164892070339310526e-01,1.872854176657013162e-02,-3.793591256898111441e-02,1.994350095658807553e-02,1.355739384889602661e-01
5.243161384964132310e-01,5.699765771147075055e-01,4.024851837250215114e-01,8.868091201802687229e-03,-1.089002189380105234e-01,3.095344857639272321e-02,2.473430037498474121e-01
4.903088717274998176e-01,5.338640178453589735e-01,4.453725283070301688e-01,3.924984249448989354e-02,-6.288026063594062687e-02,5.556792647335836305e-02,1.778211146593093872e-01
4.889894548365605886e-01,6.126922507854694055e-01,4.195153333892595593e-01,4.480757558373781035e-02,-7.460635233324072746e-02,7.248226267252237676e-02,2.592405974864959717e-01
5.230174456529367299e-01,5.874745033747139633e-01,4.030395776213580028e-01,3.691123278111466816e-02,-5.791876082116168001e-02,4.257385481862733384e-02,2.141762971878051758e-01
5.403096801866485999e-01,4.806431322412186846e-01,4.405768745939213638e-01,7.734419589144781761e-03,-1.799436609028927294e-03,-2.010326222596466039e-02,9.464469552040100098e-02
5.264147023651543078e-01,5.284524890197231928e-01,4.186598636252427674e-01,3.114064708464260936e-02,-4.045522524108938894e-02,5.809999099603534861e-02,1.725710332393646240e-01
5.460492106023744352e-01,4.575060371812809112e-01,4.657674693421581802e-01,6.190060067331467708e-05,-9.914306921528668812e-04,-2.536981325749522800e-02,9.544891119003295898e-02
5.429698643138053393e-01,4.674915234802560771e-01,4.697950379866566162e-01,-7.364216645129219177e-04,4.847452270128835457e-03,-1.376739465552481723e-02,7.854402810335159302e-02
5.404929407607494962e-01,4.643815763126840634e-01,4.690928296139731390e-01,2.272175307872112762e-03,9.525023762838913432e-04,-8.517127632539235604e-03,7.544793188571929932e-02
5.415005747214709508e-01,4.608142637810755948e-01,4.837594374233641359e-01,1.435384152050884956e-03,2.740130174317160008e-03,-6.654349338727650470e-03,7.312282174825668335e-02
5.318555657518055924e-01,4.492696032793199179e-01,4.711982377351501272e-01,2.582923485897143170e-02,1.775069415218758634e-02,-4.515202933473078106e-02,1.206363812088966370e-01
5.368906863770415150e-01,4.608530095085913159e-01,4.943906745071586784e-01,7.359953561938224927e-03,1.053078600575965522e-02,-1.810419020711146604e-02,7.638626545667648315e-02
5.347696845958073153e-01,4.864717314401466597e-01,4.515864041758040348e-01,9.716433942448657324e-03,2.152945837813167226e-03,-1.234315554791559806e-02,7.738708704710006714e-02
5.429053955110135776e-01,4.617929065126312183e-01,4.284049711141601491e-01,8.449525289434812320e-03,6.347748212072712969e-03,-5.383199391531125200e-02,1.393947005271911621e-01
5.817748004784365490e-01,4.413233937897277359e-01,4.881807606285045731e-01,1.321989830407540104e-02,1.648264304211434841e-02,-6.759492783392846704e-02,1.743203401565551758e-01
5.528184485287306327e-01,4.269098184301430843e-01,4.639493711742198601e-01,-1.221425145123597325e-03,-1.343912259290336439e-03,-4.634513327158427953e-02,1.378942430019378662e-01
4.924577361025013200e-01,4.930391805170852293e-01,5.065300492925076670e-01,4.828009847579181938e-04,7.582453274268184619e-04,8.583676248114444074e-04,1.395780406892299652e-02
5.469731821449952403e-01,4.460276240661796288e-01,4.880769985764299990e-01,7.327342201942634199e-03,1.842417292229119735e-02,-6.394605840945770392e-02,1.454653739929199219e-01
6.303418420331140526e-01,3.134512160934332936e-01,6.212679653187391793e-01,-3.908447865330773839e-03,2.857749906149998492e-02,-1.770735467971203819e-02,3.179042041301727295e-01
5.768256698419104156e-01,3.736327813935423903e-01,5.685750481875847528e-01,7.860301392351949634e-03,6.259756804455183024e-03,-9.821018526244566088e-03,2.006769031286239624e-01
5.824879596483145683e-01,3.788432162714949758e-01,5.745151564744002126e-01,1.186665082281034012e-02,1.460956157611058466e-02,5.025040700381524410e-04,2.024219781160354614e-01
6.393958268238554288e-01,3.201391458971220016e-01,6.267117917094501278e-01,-1.222145241614695614e-02,1.955485749580241836e-02,-1.383615600701023664e-02,3.165530562400817871e-01
5.672283619250225728e-01,3.601675736837023356e-01,5.730317027529887586e-01,-4.629232115892421145e-03,6.678722149958999862e-03,-7.235476743766351042e-04,2.104974389076232910e-01
5.681198891843083354e-01,3.393004979489946393e-01,5.764496252024833289e-01,-1.992154288396521047e-02,2.196670072545992610e-03,7.773140470271653647e-03,2.360509485006332397e-01
4.989481941646042862e-01,5.002084134211084443e-01,5.030058437089214296e-01,3.820748734812093881e-04,1.190161195006780382e-03,-4.585515263589610367e-05,4.199148155748844147e-03
4.965023870343945878e-01,4.239432839744261550e-01,5.214503404380975704e-01,-7.026476708271242599e-02,-3.217550778807166251e-02,-5.720350375965520262e-02,1.882321685552597046e-01
5.224573351457768577e-01,3.957637732860457280e-01,5.301616888096707392e-01,-8.293239201281524253e-02,-7.515974116030813001e-02,-8.298055525851699699e-02,2.744527757167816162e-01
5.577822467347199886e-01,3.080248010559268890e-01,5.108497598714634158e-01,-6.400118009558383725e-02,-3.907059928052052794e-02,-8.428147452585547927e-02,3.017247021198272705e-01
5.235027643025575994e-01,4.312758287568349558e-01,5.097661478407934377e-01,-5.787526975819472230e-02,-3.659487844998254857e-02,-6.253079255278513882e-02,1.822748333215713501e-01
5.029362425388500535e-01,4.897687488294386604e-01,5.156428486164703617e-01,2.378682824516583066e-03,-6.671461638643468896e-03,2.380047111165476282e-03,2.587756514549255371e-02
5.187754474098711377e-01,3.893666972523215364e-01,4.747509075880501639e-01,-7.571056363327124950e-02,-5.567342215568962804e-02,-9.456161179524454063e-02,2.575037479400634766e-01
5.205451333601313069e-01,3.218205808702041537e-01,5.636344560492123623e-01,-8.220510161067333399e-02,-4.290831173388356956e-02,-5.439573774176666848e-02,2.908335328102111816e-01
5.616770825670810430e-01,3.823737491699512603e-01,5.232422933232969697e-01,-3.469578588677434822e-02,-1.350190368066156964e-02,-5.288131233137060433e-02,1.981994658708572388e-01
5.715730256193044534e-01,3.879721030023371431e-01,5.339875093061682287e-01,3.458957838503531196e-02,1.744386321751834491e-03,-8.214720670990266482e-02,2.281757444143295288e-01
5.429723970775173214e-01,3.824263372348677414e-01,4.911344103231122249e-01,4.182356309511617992e-02,2.956978716349910330e-02,-7.847589311409895740e-02,2.156060636043548584e-01
5.630117176078395236e-01,2.533076224299881107e-01,5.336610920392852453e-01,7.858367867060901679e-02,4.666298393415192064e-02,-1.326595584110226989e-01,4.068688154220581055e-01
5.941852952797317400e-01,4.421456974198723078e-01,5.602289107747413510e-01,8.464418322920676252e-02,4.634423407775140058e-02,-6.591984170294938605e-02,2.451120465993881226e-01
5.127928524131911692e-01,5.199848659352410696e-01,4.209628165153227464e-01,-1.843804712384352479e-02,5.423566460990986854e-02,4.974641352161103536e-02,1.625221371650695801e-01
5.090646594804760783e-01,4.544704382074319926e-01,4.793969451435453055e-01,-4.694452478977897969e-02,5.256875467623363385e-02,7.040864468738239346e-02,1.789271831512451172e-01
5.048126691778250796e-01,5.277334803665859608e-01,4.817967708053414455e-01,-2.107988057773151069e-02,2.277671880152169759e-02,2.528552507868621346e-02,7.993830740451812744e-02
5.375159468792799489e-01,4.582341358637539996e-01,4.793684043727487465e-01,-1.599747571226992245e-03,-7.666953216225486957e-03,-3.359048475354846960e-03,7.262625545263290405e-02
6.129191190743983331e-01,3.277635124049244064e-01,5.520605232356751157e-01,-4.635786982782910855e-03,-3.631460674016654538e-03,-6.790636879480438370e-02,2.856591939926147461e-01
6.209142058698980948e-01,3.267093038824965268e-01,5.670604896793635108e-01,-1.855734170417356471e-02,-1.562478419024659372e-02,-5.907433052853482830e-02,2.929975688457489014e-01
5.965226215024471701e-01,3.790795502418687901e-01,5.210199774958558239e-01,-6.597663021226958524e-02,-3.162503185146337686e-02,-8.131305415419176619e-02,2.691825032234191895e-01
5.586889907548140410e-01,3.835015347757023685e-01,5.132706205717059156e-01,-5.811341105602424451e-02,-1.764719290266532348e-02,-8.816296198327044920e-02,2.432707250118255615e-01
5.634151172697257071e-01,3.143300425789639085e-01,4.921018360176213635e-01,-2.677775284475883075e-02,-1.033992343459242021e-02,-1.163464243869935244e-01,3.040513694286346436e-01
5.695792414187978991e-01,3.452600898241947602e-01,5.490703384110627860e-01,-2.235834561355859798e-02,-2.510842042466159604e-03,-4.602007614926462847e-02,2.324033081531524658e-01
6.233076718306365116e-01,3.154815738926572410e-01,5.645641770751932409e-01,-2.547255528617697884e-02,8.966913255654719583e-03,-1.067405926592287224e-01,3.413112163543701172e-01
5.761040109060127090e-01,5.553756892451997551e-01,3.289961780727692631e-01,4.886570506476682618e-02,8.977711487270371993e-02,-9.235469703158095955e-02,3.366026580333709717e-01
6.170146919381451767e-01,3.431687879802471919e-01,5.877259723270698011e-01,-3.624880660422179907e-02,-1.141556177727837303e-02,-8.343608083722189872e-02,3.050351142883300781e-01
4.939643533830374023e-01,4.961425415967998798e-01,4.956310142691406351e-01,6.649722912490016978e-03,-6.214660751727897267e-03,5.724256280928867457e-03,1.872740685939788818e-02
4.799826283999313881e-01,5.370005382856058995e-01,4.346540348926715147e-01,2.051471344838974933e-02,-4.227097044800540160e-02,2.165703915365321114e-02,1.261761188507080078e-01
4.872631869552567774e-01,5.232369537868918341e-01,4.822557638911075806e-01,1.040845285115821021e-02,-1.003363855295153970e-02,9.544982665076313932e-03,4.898644238710403442e-02
5.147116154372455288e-01,5.151360032756158169e-01,5.028514706281957958e-01,2.297969099286095371e-02,-2.818387077227221468e-02,2.835943881105991785e-02,8.078267425298690796e-02
4.853205426281054224e-01,5.169920950208382049e-01,4.933331665498054130e-01,1.693834788314494896e-02,-3.119257817991677104e-02,1.986191180506314755e-02,7.600432634353637695e-02
4.636527470866710909e-01,5.282941411070788407e-01,4.905171522260580730e-01,1.739596514445817046e-02,-2.142263929199477931e-02,1.331825320146669787e-02,7.733322679996490479e-02
4.998324895634407850e-01,5.106976661012302410e-01,4.855658910611011514e-01,1.110256558715218105e-02,-1.466645896139773773e-02,9.261069627930822168e-03,4.182123020291328430e-02
5.182343307049577241e-01,4.404785550137450545e-01,5.183304971077038470e-01,4.039952080386202682e-02,-2.309405699078038304e-02,4.594854547783572274e-02,1.374177038669586182e-01
4.504577118692694726e-01,5.039640457896243930e-01,4.767819346043869477e-01,-2.735758645712290868e-02,-3.992138526393492620e-02,-3.318920919520523816e-02,1.117068231105804443e-01
4.973792104775882073e-01,5.020971557265702101e-01,5.343408944488167167e-01,8.132662287999203876e-02,-2.660598705556768348e-02,6.388157756372052354e-02,1.882081478834152222e-01
5.550527287810042010e-01,5.280769673227306837e-01,3.832940365192545884e-01,4.982375880982575778e-03,-4.003771683290904479e-03,-1.152970042488803137e-02,1.616068780422210693e-01
5.130431167690896466e-01,5.307301637450168030e-01,4.742044206143949392e-01,3.238284513094193823e-02,-3.897180778589105776e-02,3.052544124016377119e-02,1.140437498688697815e-01
5.147552609864999296e-01,5.099764433249065476e-01,4.915603733618710836e-01,3.565933602527668334e-02,-2.174557598412559661e-02,5.155217555675883911e-02,1.168599650263786316e-01
5.462281048753783175e-01,4.840581591500353609e-01,4.430408196439044044e-01,1.162224704270608047e-02,5.499320180551243477e-03,-1.507501376478782677e-02,9.630833566188812256e-02
5.122477170515069567e-01,4.721674902006150476e-01,4.822016276835669468e-01,2.939366658031577345e-02,-2.373168309246202062e-02,3.901837089312468893e-02,1.007659584283828735e-01
5.159540849725238187e-01,4.742200204305749289e-01,5.132425723006980300e-01,2.961415637345676463e-02,-1.958855300830097609e-02,3.903056972095789168e-02,9.994101524353027344e-02
4.969957330380582738e-01,4.732374105636768524e-01,5.264181533537852786e-01,3.247902814995385495e-02,-2.340358683674185689e-02,2.460797785785007533e-02,9.356103837490081787e-02
5.925446817231361241e-01,2.234969285737285760e-01,5.742098834451421219e-01,7.239315989555956954e-02,2.389421846426479507e-02,-9.924072570068451227e-02,4.204131960868835449e-01
5.750421354784274186e-01,3.174942227319674792e-01,6.125417110233468687e-01,1.136255495894475040e-02,1.254979672184064476e-02,-1.558683015976201208e-02,2.810404598712921143e-01
6.471468541128228003e-01,3.485355716860827346e-01,5.973054169576537120e-01,4.137876617350268182e-02,2.921386478959584962e-02,-3.206010731946312003e-02,2.958887517452239990e-01
6.168991759494263372e-01,1.912111212344181910e-01,6.165087489501783757e-01,2.275794431463481343e-02,3.397550701629078324e-02,-1.744508029999209536e-02,4.324049651622772217e-01
5.632548546917780508e-01,1.796296673428284252e-01,7.809628369564474148e-01,-2.290411005511868922e-02,2.416272738214189295e-02,-8.074068131134393145e-02,5.486034750938415527e-01
6.547543671337509030e-01,1.577186441707592035e-01,7.462771368313277920e-01,-3.092355136029903070e-02,7.539754140165222385e-02,-1.051758902598335793e-01,5.949958562850952148e-01
6.005248654891244264e-01,1.345445808925798126e-01,6.171561715402068549e-01,-1.000059674810194060e-01,3.104330432673615622e-02,-6.726987917925499744e-03,5.081284046173095703e-01
6.103524695098153652e-01,1.186130017149214511e-01,6.230850339615195965e-01,-1.084757822250327977e-02,3.348909444684725761e-02,1.515131825533948783e-02,5.026302933692932129e-01
6.272116861648916464e-01,2.876138378188572986e-01,5.919200837617811795e-01,-2.354315749806872721e-02,-1.033006120937542257e-03,-4.529893388738355509e-02,3.352749049663543701e-01
5.667379707163167080e-01,2.862849354906964461e-01,5.732611903671245290e-01,-2.812362737037440302e-02,1.360881510115622729e-02,-7.120039027158108977e-03,2.891477346420288086e-01
5.502408485819059170e-01,2.743372956832256238e-01,5.608331758314801796e-01,-4.654761650449742300e-02,1.892967256877710683e-03,-2.402019359207333352e-02,2.956334352493286133e-01
5.211993230945425326e-01,4.123159426830136920e-01,4.307553299797859947e-01,-6.357273541417027274e-02,-5.886917856334650950e-02,-9.922020724457959739e-02,2.494855225086212158e-01
5.133553753728689051e-01,4.649481637745983553e-01,5.147502849557356042e-01,-5.197917124364691277e-02,-3.464642425506124501e-02,-4.906240233459318451e-02,1.460846066474914551e-01
5.311869915877526216e-01,4.532680199956212741e-01,4.802821479036811780e-01,-5.143741303989294439e-02,-2.240018780245890684e-02,-5.301696016529976185e-02,1.502376049757003784e-01
4.846283957817401622e-01,4.697814255995491628e-01,4.904381570991185879e-01,-1.085633555310878962e-02,-1.363456922932952849e-02,-1.476059049399063364e-02,4.365034773945808411e-02
4.850007532540428490e-01,4.848647151652664133e-01,4.855718499474043770e-01,-3.116761333648501373e-02,-2.825983493267816490e-02,-3.123635091145155959e-02,9.076159447431564331e-02
4.925604956398099699e-01,4.737037614097427962e-01,4.909435219944955353e-01,-1.586012749017642193e-02,-1.522417544486395422e-02,-1.443613146295629271e-02,4.901900887489318848e-02
4.120956983932969053e-01,4.985606862601822398e-01,5.177862594270716823e-01,-1.088760800847479310e-01,1.411303543485891154e-01,1.072850724918732318e-01,3.733011484146118164e-01
4.677673625600601848e-01,4.780453508939894181e-01,6.048245211139027244e-01,-9.899743484988093867e-02,4.497042264526405347e-02,5.323288443580447699e-02,2.478938102722167969e-01
5.005920893834830965e-01,5.386633398792483041e-01,5.583117759592236551e-01,-6.447394581383228407e-02,9.531515377912097575e-02,7.936639789088240082e-02,2.473988682031631470e-01
5.514866433822258607e-01,5.551770932072283005e-01,3.332170253183201480e-01,4.238254399504187697e-02,1.149233356187050192e-01,-7.553687357898335175e-02,3.325495123863220215e-01
5.015812953246922001e-01,5.046442744563142124e-01,5.544143696892874784e-01,-6.695100688159419389e-02,9.496158392164033568e-02,7.565666038250049019e-02,2.455831766128540039e-01
5.253455712695094260e-01,5.221543366838117262e-01,4.535876447024964064e-01,-3.045737629029896323e-02,-5.254103478436150665e-02,-5.524527521867642066e-02,1.585911214351654053e-01
4.115172705522711638e-01,5.446552174674692548e-01,4.243257301384216751e-01,-5.202690013960915849e-02,-1.034426060653069884e-01,-4.788365218213099656e-02,2.515641450881958008e-01
4.344378849266782860e-01,5.340800652310493390e-01,4.656588269651895651e-01,-5.117998272180748764e-02,-9.778968799815929147e-02,-4.929439347088832024e-02,2.272198051214218140e-01
5.283298969016801960e-01,5.004485113858762046e-01,4.693049478335064584e-01,-5.056259830289021144e-03,6.260600764003489659e-03,9.973368938158972200e-03,5.575218051671981812e-02
4.911597479021890811e-01,4.799126934939055289e-01,4.085540929044811920e-01,-5.980232596722401262e-02,-8.299413312512203544e-02,-8.900883577286766712e-02,2.473496943712234497e-01
4.285674657091351203e-01,5.250158588714102237e-01,3.941925456746751544e-01,-6.244321368725069127e-02,-1.194530064819483428e-01,-7.054308403722339693e-02,2.885010242462158203e-01
4.652693138577748133e-01,5.370001122784234804e-01,4.811654098125698331e-01,-7.501822661326570940e-02,-1.145953286540880994e-01,-7.567966584336385805e-02,2.787820994853973389e-01
5.491578443588476244e-01,5.098995437417223053e-01,4.223264041530772062e-01,1.039216605146238166e-03,6.675546606571562160e-03,-4.161934433786911025e-02,1.340957880020141602e-01
4.875084002327128574e-01,5.192734093877383605e-01,4.474932488450737988e-01,-2.428144723732320043e-02,-6.427926021128027578e-02,-5.130431895183886620e-02,1.610650271177291870e-01
4.961071156227954693e-01,5.074510429708168902e-01,5.005023097578555902e-01,1.615424097741053385e-03,1.953337867703061614e-03,-7.587637485768132474e-04,1.091541070491075516e-02
5.037298774571512539e-01,5.285391984742179305e-01,3.966937962708160237e-01,-8.438869820969871482e-02,-8.870799544037080708e-02,-9.176045306127854351e-02,2.914778590202331543e-01
4.179152035676002019e-01,5.615677024517513605e-01,5.450224504266212300e-01,1.697847139630146926e-02,-3.248893239982665604e-02,1.576227226780110846e-02,1.526753604412078857e-01
4.186316452258900256e-01,5.247671130471524004e-01,5.609958952587890124e-01,2.358609516581555016e-02,-1.358609954855086177e-02,1.131868431382045126e-02,1.379471570253372192e-01
4.292318932122444197e-01,5.303906909567239758e-01,5.472713204992689651e-01,3.354018253572493141e-02,-3.819381885322006148e-02,2.163604980625706900e-02,1.462230235338211060e-01
4.203923227450098166e-01,5.654722332324385592e-01,5.650188195310272832e-01,2.055956569292060124e-02,-1.386948617296488231e-02,1.381453102813367216e-02,1.529715806245803833e-01
5.559149662856678331e-01,3.923896051765416448e-01,5.561814404877345464e-01,-8.839357717814340376e-02,-1.357506620882381436e-02,-5.070566686054148176e-02,2.418480962514877319e-01
5.315230555466182727e-01,4.556154602945129972e-01,5.048176890927020821e-01,-5.163770660056755252e-02,-4.033202531017507364e-02,-5.934374921130342734e-02,1.670102328062057495e-01
5.572090638595890155e-01,3.512876599845673464e-01,5.529530642015821895e-01,-4.713694741675700239e-02,-1.073997136388750440e-02,-4.668339709283631650e-02,2.347233891487121582e-01
4.683180943823939679e-01,5.382714820629280750e-01,4.677796389473365402e-01,7.664806610900756333e-04,-5.769748823583508573e-03,8.813519483050209768e-03,7.256790250539779663e-02
5.393835591824818199e-01,3.764432049625164312e-01,5.552272679194323324e-01,-4.421740616366769822e-02,-3.969491683963727140e-03,-3.825989122586570534e-02,1.992145180702209473e-01
5.243634922841025059e-01,4.302328543238300163e-01,5.063544732866260834e-01,-2.903266904335802950e-02,-3.665563958443535109e-02,-5.313669885124070597e-02,1.500660628080368042e-01
5.654084917573427571e-01,4.175669669485905788e-01,5.200046973346460488e-01,-1.370023306105055093e-02,-1.679215347084059284e-02,-4.679330402517294790e-02,1.586944013833999634e-01
4.678021162080118756e-01,5.387907932019280199e-01,4.510476367335581327e-01,1.396744121162691102e-02,-2.750346337529732330e-02,7.644148398956067750e-03,9.766970574855804443e-02
4.864710785400132576e-01,5.118176206602027545e-01,4.895535263487419964e-01,4.659199192536557163e-03,-6.806802702580423345e-03,6.177312748754083815e-03,2.987338230013847351e-02
4.801431676874147181e-01,5.005654697127936981e-01,5.417638121936467765e-01,3.619595717041783345e-02,2.540149075101726930e-04,1.202829549515296165e-02,8.555942028760910034e-02
4.226053180880106064e-01,4.707782176517347761e-01,5.653631072528317869e-01,6.838784250265587950e-02,4.624210640758181882e-04,1.725923545146178240e-02,1.753520220518112183e-01
3.779795243764757506e-01,5.298613860145413579e-01,6.054795003420715416e-01,7.879439105706773083e-02,-2.705421258544160861e-03,5.484769400524498739e-02,2.606600224971771240e-01
4.219266901220115051e-01,5.006508763543310314e-01,5.663738520092441719e-01,6.869904070229324033e-02,-1.966622892887158209e-03,2.062673922836218143e-02,1.764586567878723145e-01
4.880809961908098571e-01,4.990269670830196902e-01,5.447890303855993377e-01,4.033746511537902868e-02,-1.750462151019858623e-02,1.409670264237707082e-02,9.545475989580154419e-02
4.264283488115373499e-01,3.438781578791924032e-01,5.703614070734475128e-01,1.647057002245162216e-01,2.289616468943605695e-02,-1.578617915887816150e-02,3.508805632591247559e-01
4.075600705240224331e-01,6.187570443198062708e-01,6.127904305315217126e-01,1.481266720453639774e-01,1.105302478052367331e-02,5.882232231790836957e-02,3.463392257690429688e-01
4.587430741698041992e-01,5.498832942500819776e-01,6.100209475416517035e-01,1.254433482526796928e-01,-6.489872466772385329e-03,4.118268495865566592e-02,2.642471194267272949e-01
4.415268487932175745e-01,4.768336170497443627e-01,5.392108902296998130e-01,8.705498729268359992e-02,-2.411784222617676179e-02,3.163072934983435919e-02,1.866067051887512207e-01
4.591738248399046540e-01,5.391662594986118551e-01,4.608998929408388290e-01,-4.326270616854095696e-02,-6.446637431581365985e-02,-3.623045058370583799e-02,1.681795418262481689e-01
5.159556283361563800e-01,5.145023879562208302e-01,4.210243487446836963e-01,-3.519523509760607433e-02,-3.623735813103397263e-02,-3.966530357025586234e-02,1.457795053720474243e-01
4.668718559828859971e-01,5.217771665160017003e-01,4.398979677705876501e-01,-1.734045603714350417e-02,-1.993203786859953225e-02,-1.331562085998001278e-02,8.859482407569885254e-02
4.631955819123916851e-01,5.464840126440760892e-01,4.560381369565875698e-01,-1.266022049044817320e-02,-2.275634465333369397e-02,-8.209851859111513481e-03,9.910058975219726562e-02
4.892907515634096205e-01,5.284628922990565192e-01,4.473562419963625914e-01,-1.974702888017645930e-02,-2.516481676957285987e-02,-1.781019644800214963e-02,9.464075416326522827e-02
5.191893962349595215e-01,5.061332157060511872e-01,4.351340722011042828e-01,-2.288470169705924054e-02,-2.773492752120907887e-02,-3.135715565125866966e-02,1.138724759221076965e-01
5.168495437217066613e-01,5.676884969900088951e-01,4.240965689557958385e-01,-1.277118915414778531e-02,-4.497129238998646972e-02,-2.139722401764720602e-02,1.543802469968795776e-01
4.749559681410699952e-01,5.298491237320253067e-01,4.219342045671335417e-01,-2.567978972891447539e-02,-4.491454229845125157e-02,-2.307449776325942378e-02,1.355090290307998657e-01
5.015016599205159853e-01,4.775633069191022040e-01,4.729901731032008505e-01,-2.726919948690066653e-02,-3.691631579710831501e-02,-3.799059599018520667e-02,1.065483838319778442e-01
4.924586411643065986e-01,5.220876502118683149e-01,4.437885504413343618e-01,-2.164202815480134948e-02,-2.886675605037488171e-02,-2.776196481369200275e-02,1.044312417507171631e-01
3.923424254760725649e-01,5.312524267805424083e-01,5.520769414389790075e-01,-1.140877057842661774e-02,-6.760262715908663469e-03,-1.687253109894466677e-03,1.521791964769363403e-01
4.710706233139057564e-01,4.897302839475609071e-01,5.078564332770414413e-01,-2.145274348174068101e-03,-2.974850521402230656e-03,-8.087533992934603511e-03,3.537723049521446228e-02
4.844827013635663593e-01,5.413078243207405382e-01,4.699800886510836495e-01,7.872233581776988745e-03,-1.016138264595720792e-02,4.831974553672823032e-03,6.949283927679061890e-02
5.061211903371530818e-01,5.144313644149715037e-01,4.677840920390295976e-01,-2.827808328801231438e-02,-3.944796859638327602e-02,-3.394666023243465836e-02,1.112739145755767822e-01
5.076119019970274371e-01,5.170506542991999410e-01,4.572329990566958990e-01,-1.159955355167998151e-02,-1.673356655118486344e-02,-1.294853913784213550e-02,6.963704526424407959e-02
5.036999826658723478e-01,5.129416849870838124e-01,4.417598868709269322e-01,-2.763374187876673632e-02,-3.575781426600839474e-02,-3.277170421619937657e-02,1.176567226648330688e-01
4.853164854460250144e-01,4.909326550460343941e-01,4.875321684138019251e-01,-2.044123302689113131e-02,-2.344031882175394085e-02,-1.932651842694782171e-02,6.361153721809387207e-02
4.989958729575936225e-01,4.593502494079626519e-01,4.879538137214792237e-01,-5.581584260935024827e-02,-5.345951393454612122e-02,-8.036659278761809633e-02,1.963473558425903320e-01
4.666431900744000827e-01,4.672975062212512132e-01,5.188934118198391676e-01,-5.027087848277490834e-02,-3.524386775909070513e-02,-2.916771881636223696e-02,1.286719441413879395e-01
4.906584043980897758e-01,4.578658263038851151e-01,4.982123811810891811e-01,-4.442963133281249699e-02,-5.035164109787768766e-02,-4.298618773323820835e-02,1.430084109306335449e-01
3.985506674685882489e-01,4.099837545562418639e-01,5.418690532692566064e-01,-1.503358733915858558e-01,-5.258048553744541082e-02,-8.111089509196299507e-02,3.389188349246978760e-01
4.735941787445458462e-01,4.553347076207223676e-01,5.110899411994141994e-01,-5.480676898368613825e-02,-3.297556208796835475e-02,-4.662936281397004473e-02,1.456722170114517212e-01
4.799249056249905721e-01,4.453682011299912036e-01,5.131318269342848293e-01,-4.782625243482005462e-02,-2.915523746340153294e-02,-4.046604419472230041e-02,1.333004981279373169e-01
5.106210839683469338e-01,4.592658397630258182e-01,5.148555098813117903e-01,-5.628561269707061526e-02,-3.423165563151496504e-02,-4.611458309512837112e-02,1.492382138967514038e-01
4.745418309174700977e-01,4.380152472712511846e-01,5.295246001345038644e-01,-9.056872176611167891e-02,-4.637992206649435567e-02,-5.010773299393184166e-02,2.120362073183059692e-01
4.051354400251544474e-01,4.738136272661916393e-01,5.284543378562777116e-01,-1.038738463952746938e-01,-8.017440545832738019e-02,-8.510119916007803653e-02,2.912639677524566650e-01
3.841047359987981857e-01,5.700042747952706046e-01,4.582372471209592013e-01,-2.596428950406793820e-02,-1.000367486588302351e-01,-8.540029166655445717e-03,2.419428676366806030e-01
4.071245495846305684e-01,6.096534034281670955e-01,4.646333340367260756e-01,1.572497103612999431e-03,-1.038836977488733770e-01,-1.357723763039905135e-02,2.561521530151367188e-01
4.382632986413458331e-01,5.795220143074095720e-01,4.914125770358576673e-01,-1.550474650731109225e-03,-5.780359350264299007e-02,1.207994639002436896e-03,1.590799391269683838e-01
4.318128833593655180e-01,5.443984844991566208e-01,4.844511656950435396e-01,6.192629496634500727e-03,-6.060873848437462602e-02,1.317374499446603668e-02,1.455195546150207520e-01
4.007954654424318863e-01,5.676932039755436810e-01,4.349777520762297400e-01,1.538894432728779051e-02,-1.112930369998975239e-01,1.917896590810493074e-02,2.495810836553573608e-01
4.587090738785819521e-01,5.619127464991661158e-01,4.889782989724170692e-01,2.336295992013660491e-02,-5.876892091085275660e-02,1.404584628736912227e-02,1.450311243534088135e-01
4.799583384746396453e-01,5.376102806994825789e-01,4.569833928090176189e-01,-8.028515276907193963e-04,-5.165172313850216641e-03,1.383129275750525798e-03,7.255242764949798584e-02
4.755970429717307213e-01,5.494560391675312738e-01,4.124429973357275347e-01,5.373727097012562931e-03,-5.079242220030606020e-02,1.756126681101757674e-03,1.481336355209350586e-01
4.669294324651371841e-01,5.474981432169643281e-01,4.431493475565863593e-01,-7.124490345664572085e-04,-4.212255666809901905e-02,1.268019515152567960e-03,1.195910349488258362e-01
4.880497006365672186e-01,5.049361228738796781e-01,5.053572234843367594e-01,1.447273965750384399e-03,-2.238092890209232404e-03,7.494552992289164710e-03,2.196031436324119568e-02
4.896804467077833234e-01,5.010843892117188281e-01,5.051875485334312854e-01,2.366921066713598750e-03,-3.480119170203015144e-03,5.086784684865361915e-03,1.801235042512416840e-02
5.008801303458400023e-01,5.020181425732684888e-01,4.978246819644401855e-01,1.651915678916355103e-03,-2.393778161130811002e-03,1.888301592889043415e-03,7.083926815539598465e-03
4.980473459990454321e-01,5.000113525572053019e-01,4.973989817264078406e-01,3.561542396101124563e-03,-3.529054215185049685e-03,2.963763819470941960e-03,1.035949774086475372e-02
4.952861874732353842e-01,5.065654396209577914e-01,4.974921404396947522e-01,1.329205057441825788e-03,-1.199232509984338125e-03,3.855010674625080052e-03,1.270450372248888016e-02
4.792563105333962348e-01,4.514163432431395062e-01,5.362657761111944144e-01,-6.370518788619338596e-03,-4.761037264076853348e-03,-3.148063005553848820e-04,7.617305964231491089e-02
5.649688810612630840e-01,4.872819155874362762e-01,4.687056178979046583e-01,2.157347482960962279e-02,2.539024059973607819e-02,-5.235655152402228507e-02,1.392025202512741089e-01
5.271850381564932020e-01,4.996273061395021808e-01,4.806441743150797197e-01,1.365056187385224259e-02,1.410870480160197893e-02,-1.576296538587804857e-02,5.953581631183624268e-02
4.707453691948705332e-01,5.416290467173556777e-01,4.602731847578387381e-01,-1.507366844938884051e-03,-7.347885062302067331e-03,1.564047776652122980e-05,7.775127142667770386e-02
5.254435350503861013e-01,4.663484735812038484e-01,4.875004712442356780e-01,1.999313055721571586e-02,2.001889656054430672e-02,-2.705168106092206357e-02,8.536087721586227417e-02
5.256282078583253137e-01,4.869569235277332875e-01,4.781819654043337753e-01,1.615961771891320786e-02,1.350062672235637085e-02,-1.274919527779415883e-02,6.107072532176971436e-02
5.281791168624443422e-01,4.876374980430951966e-01,5.012848534030857062e-01,1.583073698829717130e-02,1.556999853060473359e-02,-1.310410011195056214e-02,5.719135329127311707e-02
5.874074398000076469e-01,6.318083393807042425e-01,3.158667657641439641e-01,1.998658636420888243e-02,-5.061460445306828482e-02,3.333485361257934598e-02,3.161960840225219727e-01
5.420184655052205924e-01,6.354216115142307109e-01,3.566255931184733052e-01,1.752866247902240548e-02,-4.990045689960177083e-02,-6.953082197849757597e-03,2.625793218612670898e-01
5.130037599786524405e-01,6.342390399083522867e-01,3.757462506910462796e-01,2.246131878994996056e-02,-8.068999463510957704e-02,3.506540246830682026e-03,2.669477760791778564e-01
5.043826366866707156e-01,6.171469274901950630e-01,1.736846681127466874e-01,-5.147415965438953411e-03,-1.879698325868366937e-01,-5.238738150239742597e-02,5.231430530548095703e-01
5.609274914640898224e-01,6.200992738642815416e-01,2.375603698028435351e-01,3.224319512712311986e-02,-9.846721840971248141e-02,8.187244484550705581e-02,4.236948788166046143e-01
5.075573439382881080e-01,5.660917391691249190e-01,3.998871110822900810e-01,2.203282024387707635e-02,-7.290123524686817347e-02,2.704546709944377625e-02,2.022771537303924561e-01
5.432323678322057425e-01,4.056854788771838694e-01,4.971075418964893133e-01,-9.723682749428123884e-02,-3.421086474621552742e-02,-9.994022081398890034e-02,2.766633629798889160e-01
5.530090332536961029e-01,4.735373745353798070e-01,4.806572244030347663e-01,-3.127028763601737149e-02,-2.938557159445315953e-02,-5.443216870292288956e-02,1.421732157468795776e-01
5.393789348400896966e-01,4.646617544752706941e-01,4.675752799892564093e-01,-1.985264166803416691e-02,-1.725507533302498772e-02,-6.255515838127125028e-02,1.385225355625152588e-01
5.645792313256661199e-01,4.627983884359518352e-01,4.689468137216979415e-01,-1.696621987631309614e-02,-1.687868856602749504e-02,-6.416602350520315967e-02,1.544066518545150757e-01
4.867750672423788449e-01,5.081331888959490506e-01,4.713731335945066658e-01,-3.907908752600743052e-02,-3.864418740739562763e-02,-2.965606404975875549e-02,1.127937808632850647e-01
5.310069582608510919e-01,4.751145054595089512e-01,4.345616793297367719e-01,-7.906956922464014603e-02,-5.769147863896909034e-02,-9.620124570581835288e-02,2.520714998245239258e-01
5.418635681179547747e-01,4.727717570523858326e-01,4.597296379964425084e-01,-2.601987391943990334e-03,2.628582402639821950e-04,-9.863128173874920190e-03,7.846809178590774536e-02
5.462673976526591924e-01,4.780981800110244984e-01,4.581814189833560147e-01,2.720004016826756176e-04,-8.447058047449816989e-03,-2.956343359005333959e-02,9.611295163631439209e-02
5.419394267541133292e-01,4.815228634853175316e-01,4.472703906826074327e-01,6.012273281069181220e-04,4.737665696508768474e-03,-6.127783500108561696e-03,8.410636335611343384e-02
5.134857556903542619e-01,5.238634882580008867e-01,4.812867906900776260e-01,-1.302435536559069275e-02,2.490006065381675238e-02,3.417665146836436352e-02,8.574201911687850952e-02
5.105247170491471476e-01,4.873481249345498756e-01,4.741971261567135554e-01,-1.823900720604882189e-02,2.439882845171127690e-02,3.236831170138699393e-02,8.331815153360366821e-02
5.198722988077824070e-01,5.047836220389505524e-01,4.948567262984933657e-01,-1.011984672398322065e-02,1.477399976596455167e-02,1.679303233120069475e-02,4.779184237122535706e-02
4.924880645284082648e-01,5.066247571644332259e-01,4.956787776270213941e-01,6.504505428950349251e-04,1.851446156859862203e-03,1.233985942662261560e-03,1.345516927540302277e-02
5.230780937100990569e-01,5.237640682558064587e-01,4.929670435454376332e-01,-6.896316691118355678e-03,1.511362279391051389e-02,1.447763026143115105e-02,4.883184283971786499e-02
4.530222693391739996e-01,5.102766138887503411e-01,4.877237821206067414e-01,-3.839406547978537615e-03,-5.944613922685596831e-03,-1.270351227546014442e-02,5.594478175044059753e-02
4.431676330885936377e-01,5.090868329747995080e-01,5.019190501133474758e-01,-7.037277549454261372e-03,-6.188686225038340927e-03,-1.557351808111838605e-02,7.010917365550994873e-02
4.477152936000110550e-01,4.804324266314344838e-01,5.094155696550558554e-01,-3.020770734885249928e-02,-1.992374548829974057e-02,-2.241340865821185580e-02,9.107219427824020386e-02
4.706421529884168842e-01,4.888329098124044592e-01,4.959158639407639235e-01,-1.754706986726319029e-02,-1.188479437357697378e-02,-1.491680385123432366e-02,5.024831742048263550e-02
3.462507494287330179e-01,5.538386274514476293e-01,6.323216806905099796e-01,-1.041187121186748776e-01,-5.132439438432207131e-03,3.110998587476470831e-02,3.178821802139282227e-01
4.359586913346441550e-01,5.091574594130744424e-01,5.103172442969978739e-01,-7.104807564491022812e-03,-6.734422837141768557e-03,-1.591706166819460005e-02,8.057201653718948364e-02
4.488486751145787657e-01,4.878099765930040133e-01,5.096018896362484174e-01,-8.874469095395371571e-03,-6.562142515854367877e-03,-1.431403382033361038e-02,6.182265281677246094e-02
5.338093820989346927e-01,5.168920596341899376e-01,4.514412159739455976e-01,-3.976385293427919104e-02,-4.692182940972574462e-02,-6.912254257858246875e-02,1.770861595869064331e-01
5.638814009223332979e-01,4.778376961179306992e-01,4.202898489894623668e-01,-2.483627432252931422e-02,-2.163449919045742909e-02,-4.924958740315167616e-02,1.618584096431732178e-01
5.928382993194135642e-01,5.328010967270484510e-01,3.892259522320095089e-01,-3.330195939335081623e-02,-7.159616881775375530e-02,-9.740944326967952704e-02,2.828586697578430176e-01
5.680287569446375029e-01,4.954471719130047469e-01,4.187435743949710076e-01,-1.641129340337023693e-02,-5.948484644208340555e-02,-1.193476702039645704e-01,2.662211954593658447e-01
5.188334593014142238e-01,4.944107038853053915e-01,4.136909001260694607e-01,-2.659118795604645258e-02,-4.119680149208571063e-02,-5.528860798966186291e-02,1.595833748579025269e-01
4.568028512203903269e-01,5.681532312229300441e-01,4.306712111602144510e-01,-1.701202565508369222e-02,-8.379818442730825601e-02,-3.730584317657297672e-02,2.051861286163330078e-01
4.992372735913991333e-01,5.759302586449599470e-01,4.188191226476916107e-01,-3.186285780423352143e-02,-9.120179364846348058e-02,-3.722224349260946225e-02,2.251042276620864868e-01
4.849808980075277498e-01,5.327438859127313631e-01,4.531632070276038204e-01,-5.174656593734798526e-02,-6.698593712918539389e-02,-3.478646236147683174e-02,1.730264127254486084e-01
4.287156210329919337e-01,5.628975663856216061e-01,4.694691138093859961e-01,-3.472123608061090938e-02,-1.126271501879254067e-01,-6.164530706094591139e-02,2.593626976013183594e-01
4.384318193485976511e-01,5.544426552148555842e-01,4.679988226744272173e-01,-3.323808704436859163e-02,-6.189245838891918594e-02,-2.355341214627420382e-02,1.654486656188964844e-01
4.758340883614843864e-01,5.332232982286240208e-01,4.480831182687528558e-01,-2.408299962257539131e-02,-6.320877195416375882e-02,-3.587310707564327766e-02,1.524562388658523560e-01
4.830456291726353824e-01,3.962291445535680579e-01,5.738019175822535178e-01,-8.385676901691616059e-02,1.005123309728856405e-02,-1.219945691955819783e-02,2.133035063743591309e-01
5.124730133487005457e-01,4.168164831434283957e-01,5.579119448600551312e-01,-4.941655474142921806e-02,-1.070670980975214730e-02,-1.460673643724748165e-02,1.545035839080810547e-01
4.539203837942526465e-01,4.232558209333179278e-01,5.738223552144383621e-01,-9.107022538490630592e-02,-8.478734395772373131e-03,-6.844739462648146647e-04,2.099808752536773682e-01
4.604000031608435073e-01,5.373945743255799101e-01,4.566911113197887340e-01,-8.253512121574588245e-03,-2.021779817723947520e-02,-1.084681358631820088e-02,8.950465917587280273e-02
4.591734140857093860e-01,4.691797583931391347e-01,5.560314469691856054e-01,-6.275494663673411577e-02,-9.011919760296300055e-03,-8.176772269922114728e-03,1.441221088171005249e-01
5.235869624336854100e-01,5.109647254728453269e-01,4.042829620086148545e-01,3.782231102716282489e-02,4.989422076146647622e-02,-4.973819561751159635e-02,1.790765970945358276e-01
5.148361707006322563e-01,5.119046477293931474e-01,5.067056511906483651e-01,1.551373467479182262e-02,1.889671981088552472e-02,-1.290573804491723306e-02,4.841306060552597046e-02
5.262437730916407208e-01,5.432050866311677328e-01,4.349431165224342255e-01,3.241058014597834186e-02,5.996571639024467215e-02,-7.866049745351440248e-02,2.065756469964981079e-01
6.171287510595898640e-01,3.954349028639781438e-01,4.705026498022388814e-01,4.064935219087231766e-02,4.811048761331596091e-02,-1.243967246598078891e-01,3.105895519256591797e-01
4.933783812703192995e-01,5.104746498075576344e-01,5.008473651019035300e-01,9.268947948264267059e-03,-9.259610544684819533e-03,1.065841384585666622e-02,3.280461952090263367e-02
4.984458987943748420e-01,5.035029480967059268e-01,4.910537338462206969e-01,1.331327565073359490e-02,-9.726328238972341278e-03,8.093925067939933271e-03,3.361055627465248108e-02
5.030396970869808193e-01,4.903697369988481158e-01,4.886791130992822474e-01,9.585406911605467636e-03,-8.772970230559786267e-03,1.219408180790761999e-02,3.372577950358390808e-02
4.935256320015576903e-01,5.010169604930764242e-01,4.914880068939251889e-01,4.746230065755563041e-03,-9.052099886977022294e-03,5.247887376311682027e-03,2.171541005373001099e-02
4.799561204556925254e-01,5.163355158212579177e-01,4.988967028958029570e-01,1.362529402150338027e-02,-1.547554061082139810e-02,1.700463702447536224e-02,5.600049346685409546e-02
4.997473299642977707e-01,5.043022096366696072e-01,4.775214281347098799e-01,8.755132523780908074e-03,-1.403361472442571367e-02,2.415034506925163669e-03,3.813469782471656799e-02
4.963136120018103448e-01,5.059908555533756402e-01,4.874647436209517681e-01,7.703820547067628290e-03,-4.499569424864925497e-03,4.703974185778362835e-03,2.372237853705883026e-02
4.994830567057422233e-01,5.146383549769397714e-01,4.796790065756158516e-01,1.569794996957427427e-02,-1.722728071589093787e-02,1.064689301448657269e-02,5.377455800771713257e-02
5.959286980023239533e-01,6.029787306317130335e-01,3.106971593224369110e-01,5.110241697868218684e-03,9.076917299346251577e-02,1.008997910023562428e-01,3.724988698959350586e-01
6.322663468442152324e-01,6.393357855111877486e-01,3.354130909518269754e-01,2.835522997947108326e-02,-1.393598915163147059e-02,3.004132327416142792e-02,3.097943663597106934e-01
6.066537338952455727e-01,5.753705813314935469e-01,1.818281777601556959e-01,1.186283553110435360e-02,-3.538828321383907100e-02,7.903463617702127797e-02,4.371316730976104736e-01
6.192496163569193302e-01,5.860229234982108348e-01,3.215192445287130552e-01,1.045481251567600620e-02,-8.535305886916276508e-03,4.470083299617768485e-02,2.939315438270568848e-01
5.096394676245754596e-01,5.090091429983443216e-01,4.906846920808501933e-01,1.319176953575463586e-02,1.298736632045715753e-02,-7.534213325447352769e-03,3.932060301303863525e-02
4.710640917764411517e-01,5.400191106489403703e-01,4.399464827104088704e-01,-8.420332321235815933e-04,-1.919378539904906603e-02,-4.310728821370827905e-03,9.503627568483352661e-02
4.956957711437848246e-01,5.214918336665013143e-01,5.050200075533884947e-01,1.391518410995647159e-02,1.942005563670540919e-02,-1.280677445126067286e-02,5.211720243096351624e-02
4.921539394341473139e-01,5.184251593008845083e-01,4.773403894228198108e-01,1.398113978275925678e-02,1.505444379501730094e-02,-1.189748221045839639e-02,5.467873439192771912e-02
5.144404865732786769e-01,5.041044735373400032e-01,5.024219846157248481e-01,3.938262548901797638e-02,3.954527914496383523e-02,-1.741832096041024194e-02,1.018906682729721069e-01
5.152986652350645125e-01,5.237616503321838035e-01,5.045384536003976184e-01,2.825429643181693803e-02,3.835198283633674265e-02,-2.203354830536258940e-02,9.242531657218933105e-02
4.910830635951671241e-01,5.048540505232690379e-01,4.882800151866841243e-01,1.095865391412146825e-02,1.081179189104734643e-02,-9.750933640849855644e-03,3.510414436459541321e-02
4.697042076774833874e-01,4.713739591890436786e-01,4.282276825510074048e-01,-8.405874311658355358e-02,-1.034813046814398035e-01,-1.002234989570131435e-01,2.919749319553375244e-01
5.413894651979127559e-01,4.633650776380544012e-01,4.222813554327832231e-01,-5.255898792939874692e-02,-5.766653706298024290e-02,-8.269079720243276144e-02,2.230653315782546997e-01
5.318038209242353931e-01,4.664626865649922904e-01,4.065915401115289818e-01,-7.306755470778412975e-02,-1.087437182017526455e-01,-1.155877920830155198e-01,3.214651942253112793e-01
4.954544509075179959e-01,4.503722840908698788e-01,4.460155391299459038e-01,-5.813035521508987807e-02,-4.996042994134942961e-02,-6.793291964720508946e-02,1.836245805025100708e-01
5.146863252918882914e-01,4.814878192264495649e-01,4.754313122145979453e-01,-3.341861953950710923e-02,-3.121362601603815817e-02,-4.238173968974792705e-02,1.140254735946655273e-01
4.922948717116669148e-01,5.555512239322648593e-01,4.645133308763622071e-01,3.937333694370053101e-03,-2.948339565886444816e-02,-1.859527999662441942e-03,9.589177370071411133e-02
4.790449027810566029e-01,4.930899857987315338e-01,4.348068868418736854e-01,-4.624469684903609323e-02,-6.333977791290724968e-02,-5.669344848615168186e-02,1.756972819566726685e-01
3.361091192904089864e-01,5.495519850474214207e-01,7.411527476062631514e-01,-2.178752291538040287e-01,-5.758974823167984508e-02,-1.046802473190302368e-02,5.252159833908081055e-01
5.395223255433012621e-01,4.658677620949976395e-01,4.088804878316686930e-01,-9.747641220138020257e-03,-1.859954832470828850e-02,-5.014956772956012665e-02,1.474372148513793945e-01
5.312656547925236339e-01,4.757925965017096859e-01,4.422219374932517266e-01,-2.488211645840503194e-02,-2.405221338332588776e-02,-3.514162573995673750e-02,1.156036481261253357e-01
5.302570664832100267e-01,4.866085108599284559e-01,4.630152702057486191e-01,-1.539716937438974365e-02,-1.637124999427841399e-02,-2.181509509887277071e-02,8.021605759859085083e-02
5.570580761406080939e-01,4.544561769513167926e-01,4.700274448329451737e-01,-1.710437293633732328e-02,-1.874996902011296512e-02,-6.676127603424662771e-02,1.564466059207916260e-01
5.306166834687290335e-01,4.414511838464298399e-01,4.564899567196895602e-01,-2.365111752545381515e-02,-2.375597054379348372e-02,-4.345900227379882047e-02,1.259878128767013550e-01
5.005342500130914862e-01,5.489176108693062384e-01,4.233798752737315541e-01,-3.681465659503808420e-03,-9.275155450048949701e-03,-2.435515666426779288e-03,1.111002936959266663e-01
5.281538036438423456e-01,4.580438138298865702e-01,4.618042229023722745e-01,-1.322254527123105719e-02,-1.537972879912240243e-02,-2.132218406149288467e-02,8.522869646549224854e-02
5.371428683780039570e-01,4.538077299436717449e-01,4.795368123749071398e-01,-5.655814991829791367e-03,-9.933522182280093982e-03,-2.748044989429007656e-02,9.011165052652359009e-02
4.651854811876939833e-01,4.695471377218538023e-01,5.380984243302050496e-01,-2.124870546166844013e-03,6.076197693359170187e-04,-5.774927277649259932e-04,7.094331085681915283e-02
5.380349868301995686e-01,4.698954149013383486e-01,4.667166770425594247e-01,-2.924117373223838936e-03,-1.643710108335757732e-03,-1.091394667172150557e-02,7.253139466047286987e-02
5.383112221491789251e-01,4.635077223852564487e-01,4.595785482593207072e-01,-3.713298137014259172e-03,-1.895870952040242885e-03,-9.650642949121022302e-03,7.897133380174636841e-02
5.391836760226201841e-01,4.784254999863359892e-01,4.543557224733946187e-01,-4.205149700102387561e-03,-1.994497475880895043e-03,-6.881938307337596115e-03,7.707407325506210327e-02
5.416154590467398000e-01,4.617786185012293654e-01,4.278879674811367773e-01,1.164344300182487343e-02,7.759563623481317493e-03,-4.667280145177690742e-02,1.317217200994491577e-01
4.419695098910947917e-01,4.872442427232302475e-01,5.362028518967769664e-01,-1.837076316528166858e-02,-7.522113569078918947e-03,-1.373899447516437576e-02,9.171595424413681030e-02
5.426403426070971481e-01,4.841949821534518028e-01,4.402839111128770133e-01,2.413385986735378940e-04,-2.050099399618604372e-03,-2.375085741483979468e-02,9.805882722139358521e-02
5.526631885207452521e-01,4.857565557144153945e-01,4.446921846410869517e-01,1.697825130087043596e-03,3.072312683246810044e-03,-2.295521898875385255e-02,1.026062890887260437e-01
4.941551767123826822e-01,4.969175752732623019e-01,5.137165081640634456e-01,-6.094462004437246720e-03,1.399273673106930446e-02,1.671469833933297150e-02,4.328049346804618835e-02
4.881968919585585875e-01,5.087871679160567151e-01,4.921565362157869217e-01,-9.229947756599519645e-03,9.530272126783466760e-03,8.859746902038450819e-03,3.349100798368453979e-02
4.998516462419788087e-01,4.943796783811567064e-01,4.782498802771680269e-01,-1.524681190278468629e-02,2.316426537364221425e-02,2.421232858057727894e-02,6.666506081819534302e-02
5.106884824460375949e-01,5.093960179339251937e-01,5.163704680786651569e-01,-2.064926885126077902e-02,3.596784670093271935e-02,3.278116221177756334e-02,9.178969264030456543e-02
4.952922657899737624e-01,4.965701325573222968e-01,5.016272434751665177e-01,-3.210528662189332527e-02,2.370126101957694895e-02,2.323855561106065448e-02,8.019512891769409180e-02
4.716404348532279300e-01,4.654882380576957912e-01,5.382616415695899992e-01,-3.139486905907481334e-03,8.726789377883161544e-05,1.499239166151657891e-04,7.011248916387557983e-02
5.105350244642814506e-01,4.954907661615401970e-01,4.943705858099299300e-01,6.365389402312217337e-03,-5.915852348281576412e-03,5.903122629163552217e-03,2.399007789790630341e-02
4.953168909284060284e-01,5.097681340260818983e-01,4.978845509403998504e-01,6.274640318598322802e-03,-5.800427910907715069e-03,7.534043179919819311e-03,2.382559701800346375e-02
4.826594360154454755e-01,4.549687428387714228e-01,4.817409338390662987e-01,-2.768396280301434545e-02,-2.854596144083071732e-02,-2.591862990375687695e-02,8.661022782325744629e-02
4.984178640841014918e-01,5.001908992261120401e-01,4.958035133596370714e-01,3.605406865367170085e-03,-2.212843515865788382e-03,2.173703755188094271e-03,9.081612341105937958e-03
4.982374679258230743e-01,5.065943007688045174e-01,4.930313303447487194e-01,4.127865648929762016e-03,-9.305458262179482944e-04,2.011883250035194706e-03,1.436335407197475433e-02
5.544975228407971191e-01,4.848477887063427083e-01,4.537217878487291856e-01,-1.093821255700020735e-02,9.276716564789202341e-03,5.006135916791761009e-02,1.269777715206146240e-01
5.296457080267107376e-01,4.972220876057008576e-01,4.803583843100409090e-01,-1.067721311869100458e-02,1.150912772469729096e-02,2.711673505558615319e-02,6.948236376047134399e-02
5.474207504259969159e-01,4.756494446819325428e-01,4.768598070496553043e-01,-2.366740911701678118e-03,1.482453477192882153e-02,2.688163726077485993e-02,8.893642574548721313e-02
5.461706923957984072e-01,4.615956853893198875e-01,5.025925557385271247e-01,-1.661375692851477237e-02,1.596409352041492855e-02,3.117674302499470404e-02,9.937272965908050537e-02
5.509662874119585219e-01,4.821507110917157002e-01,5.044417543121214598e-01,-1.444640902825323689e-03,1.737855681192018373e-02,3.479761736952406009e-02,9.079333394765853882e-02
5.277798803433263464e-01,4.780667650748101072e-01,5.011039327074442440e-01,-1.022195138023273241e-02,1.647512255451371449e-02,1.909638184430223831e-02,6.386411190032958984e-02
4.750886546476726369e-01,5.586332907759119504e-01,4.619015220723221016e-01,-2.856464697954960025e-02,-6.175129301547345462e-02,-3.430965849510010657e-02,1.602319031953811646e-01
5.426913556646274506e-01,4.879948227126371108e-01,4.795444047447199321e-01,8.349071909028768067e-04,-1.373983660106329089e-04,7.152449402849453408e-03,6.067082658410072327e-02
5.401060788869095353e-01,4.749536062970505235e-01,4.685781927945724123e-01,7.907337388980565165e-04,4.456401312391944369e-03,2.712596991316749626e-02,8.348517119884490967e-02
5.333234501306947095e-01,4.881348896096845968e-01,4.912873770928457562e-01,-1.174953849064472007e-03,5.389553623693933357e-03,9.541131168058001114e-03,4.768512025475502014e-02
4.863788583209002758e-01,4.129228087465390828e-01,5.476798059704321986e-01,6.562428445673547384e-02,1.770050062367975116e-02,-7.210141430600265286e-03,1.663491576910018921e-01
5.157140185344095684e-01,4.454248803394380007e-01,5.373380838126212700e-01,3.155579764741123922e-02,1.763915685791238655e-02,-1.005730416481079477e-02,1.056043207645416260e-01
5.264344083858720769e-01,4.183463043223252797e-01,5.605053027081180472e-01,1.916634939317755915e-02,4.381546148782521945e-03,-7.894578605081784342e-03,1.336904466152191162e-01
5.369790961712068711e-01,4.189133997533520670e-01,5.518182973443307437e-01,1.815403297019328732e-02,1.361705180733484288e-02,9.612869576125102067e-03,1.331687420606613159e-01
5.029134367678389506e-01,4.603534961830848538e-01,5.401842314255783650e-01,1.037710071575015207e-02,4.843474387137280956e-03,-1.685137370762574034e-03,7.203230261802673340e-02
5.110273239099674125e-01,4.721310108766787472e-01,5.499397352499680869e-01,2.615837064021330274e-02,-3.566727099643560769e-03,-2.081315917551967380e-03,8.151435106992721558e-02
5.036649674990457681e-01,4.586584287456628717e-01,5.389337525940135487e-01,8.963894904955227103e-03,6.053740340886587350e-03,-9.182906919470702712e-04,7.218261063098907471e-02
4.839459890316043511e-01,4.768704351534867047e-01,4.929190880161005150e-01,-1.116591678249586467e-02,-1.261188825738637775e-02,-1.063474387479572750e-02,3.720987960696220398e-02
5.557975946256351607e-01,4.262867544214571924e-01,5.398714610887523913e-01,3.798919306295903131e-02,2.791023373151680503e-02,-3.107359578064087038e-02,1.566118746995925903e-01
5.302299940879388052e-01,4.596314077169518231e-01,5.475184295789371491e-01,2.970592920896467787e-02,1.697182894273513085e-02,-1.715853904123389520e-02,1.043948829174041748e-01
5.747184246920433726e-01,4.237522362249001029e-01,4.991742505385810547e-01,7.679653951065215645e-02,2.270278518267889942e-02,-8.707906540125184836e-02,2.430653423070907593e-01
5.102485726839900426e-01,4.554253684258594004e-01,5.089567711097189306e-01,3.158379991639734957e-02,2.248331154231885884e-02,-2.168891896395494859e-02,9.411039203405380249e-02
4.823525946194117675e-01,4.560487467838215125e-01,5.091268911920705520e-01,7.422723642870117378e-02,5.891766121588820626e-02,-4.362762288293483420e-02,1.864565610885620117e-01
5.128260665563615373e-01,4.895580865615177246e-01,5.381862669029555679e-01,4.995328692100953899e-02,3.590272425277108576e-02,-2.076521846764323165e-02,1.200883463025093079e-01
4.495915216660956171e-01,5.009782539724385586e-01,5.473413994365227131e-01,3.074919352930177360e-02,-1.434596373808395137e-02,1.694780118533266433e-02,1.071831658482551575e-01
4.619851695562692817e-01,5.487451243234758858e-01,5.511182904525077086e-01,5.109040734923058630e-02,-4.267050745754139701e-02,4.218425799825333000e-02,1.623895317316055298e-01
4.641091732988267826e-01,5.482103328599609027e-01,5.403986362900697893e-01,5.013388757846205801e-02,-4.212938589059746913e-02,4.106366777753816394e-02,1.562069356441497803e-01
4.270184853608526288e-01,5.539492696185792653e-01,5.568641963912526194e-01,3.278260791786846706e-02,-2.767216948859177808e-02,2.882882251898153184e-02,1.565393358469009399e-01
4.943258989237297452e-01,5.051090503601995962e-01,5.260265004494970587e-01,6.111670135544654964e-02,-5.871373195576180815e-02,6.997642852370006272e-02,1.923983693122863770e-01
5.062122734048505324e-01,5.004805984781452999e-01,5.518714646031100957e-01,6.521461551788884647e-02,-1.464840018347933134e-02,4.745860954991099750e-02,1.501294225454330444e-01
4.442995025219315108e-01,4.744593414686104627e-01,5.561839761031347473e-01,9.657093981903004665e-02,-3.578214274563137898e-02,6.060272146171633706e-02,2.299789786338806152e-01
4.738745119156921870e-01,4.943929406888792899e-01,5.159896174312029737e-01,2.629937126555398005e-02,2.433758218848261837e-02,-1.835837825553813044e-02,7.869921624660491943e-02
5.208141642344100708e-01,4.985569798797837571e-01,4.764819583838746375e-01,2.041867226682738193e-02,1.886723047362030142e-02,-1.871239983304895729e-02,6.959283351898193359e-02
4.556877736534894474e-01,4.647733749313684992e-01,4.959778966352293428e-01,-6.196303723387791562e-02,-4.662445868272998423e-02,-5.537153701724491228e-02,1.690490394830703735e-01
5.119802475080005300e-01,4.175857107638731858e-01,5.127688189442588529e-01,-5.045286609196622529e-02,-3.199761341475657744e-02,-3.981334099972048957e-02,1.563608348369598389e-01
5.072691904697151921e-01,4.291233697226763399e-01,5.521547859468499686e-01,-4.798838423535299602e-02,-2.251441793258151039e-02,-2.732747928696616785e-02,1.493279337882995605e-01
4.651955977637850514e-01,4.319949992426773133e-01,5.285696591571144021e-01,-4.335048313966734929e-02,-2.418379296683490984e-02,-2.537762876218076918e-02,1.286353021860122681e-01
4.521893325423447796e-01,5.330511834891422662e-01,4.699131800838696194e-01,-1.004966825317611841e-02,-2.613517288712896222e-02,-8.829457704350583691e-03,8.947400748729705811e-02
4.654113720373863061e-01,5.361350057212944664e-01,4.662218875921108618e-01,7.542692967737509198e-03,-2.151546814474366090e-02,8.409890039452366448e-03,8.195589482784271240e-02
4.982379598984631452e-01,5.794414574075570368e-01,3.986620020445101331e-01,-1.938453848112120168e-02,-1.268534008764287679e-01,-4.242606018828797357e-03,2.721248567104339600e-01
4.776159670132513191e-01,5.445595277771612119e-01,4.782720862478025969e-01,1.318952505502226508e-02,-2.863374849083717352e-02,1.357769274534722723e-02,8.928927034139633179e-02
4.690048732500201045e-01,5.372262315770193197e-01,4.403628406496383763e-01,2.290786737461712741e-02,-6.043843638444384991e-02,2.304188346172996588e-02,1.468129009008407593e-01
4.665869645146824007e-01,5.415727337520777063e-01,4.768620828019259350e-01,7.696140606332814438e-03,-2.005435529057814428e-02,1.521591804947444726e-02,8.388534933328628540e-02
4.875248337175808189e-01,5.422728657408337760e-01,4.537566556666594586e-01,-4.513351805163263834e-03,-3.214871844234463288e-02,5.348361280231349671e-03,9.609331190586090088e-02
4.891889248266536039e-01,5.318437709826420168e-01,4.766655500372324328e-01,1.823364330927680979e-02,-2.563355552721270636e-02,2.048992303673655146e-02,8.208896964788436890e-02
4.339112769116271751e-01,5.726109188994314980e-01,4.599109008770941309e-01,1.135559431781507644e-02,-5.753448998397701908e-02,-1.140039171517402087e-03,1.631834357976913452e-01
4.268178738763276359e-01,5.010953475896958720e-01,5.361567810539812351e-01,-8.655122065206174997e-03,-8.064629007066151725e-03,-1.177666754312196168e-02,1.009288877248764038e-01
5.218648925810016603e-01,5.474925193321527050e-01,4.621923473019191597e-01,2.844921977704373273e-02,-2.375732464291552617e-02,2.620136121937446591e-02,1.092139780521392822e-01
4.787227542584721052e-01,4.704572782553845256e-01,5.145467061191082436e-01,-8.066388596511868403e-03,-5.931680258772032387e-03,-5.642693028395466374e-03,4.521116986870765686e-02
5.195365239802497426e-01,5.539258329865606179e-01,4.449772557347788648e-01,1.036348249679575929e-02,-3.475309546180627845e-02,1.491514950119270620e-02,1.179774329066276550e-01
3.702554230821074599e-01,4.766539521625451359e-01,8.027517945272418798e-01,-2.702806017745196798e-01,1.055765307761868388e-01,9.040034431280984106e-02,6.553376913070678711e-01
5.006058558508102996e-01,5.275309383329586099e-01,4.402473288139571173e-01,6.160184141390746826e-02,-8.213402256649768307e-02,3.604936899407729101e-02,2.037505656480789185e-01
5.171737323942626752e-01,6.173379815586056418e-01,4.524199502608212686e-01,2.422712322667843615e-02,-8.008603315635559605e-02,3.769722727030207221e-02,2.144233286380767822e-01
5.473653323125861059e-01,4.711046112896249971e-01,5.289623091550850198e-01,3.651113464644362150e-02,3.740626120539689015e-02,-6.986590109092026546e-02,1.661070287227630615e-01
5.559702167865057110e-01,4.438080080705401609e-01,4.088610178948953178e-01,2.410533742459629314e-02,2.783171244623008217e-02,-9.464598889826518480e-02,2.205946296453475952e-01
5.758228313427021794e-01,3.998260100507060044e-01,5.292176051112729152e-01,4.332367228593453357e-02,3.575970987951630764e-02,-4.879597211428912673e-02,2.038499116897583008e-01
5.421324594743368586e-01,4.335713172721836206e-01,4.796381615635122997e-01,1.060100432203885459e-02,1.272214534997107363e-02,-3.819775418980875248e-02,1.187708526849746704e-01
5.953686343630069100e-01,3.893763091872349813e-01,5.495985158769989276e-01,5.215386939803323685e-02,4.620065115737404665e-02,-9.325195528329356665e-02,2.752286493778228760e-01
4.001693523043393097e-01,5.245090213512415556e-01,5.427602737958061585e-01,-1.024540769766400239e-01,-9.296859454515152277e-02,-6.766236103262522616e-02,2.986928224563598633e-01
5.466005425463639211e-01,4.270875516049214005e-01,5.124558060277148996e-01,3.681412926086636422e-02,3.510672239045251053e-02,-4.865379241260826826e-02,1.619670987129211426e-01
3.863290527897043081e-01,5.019888097297161567e-01,5.518072139540179943e-01,-7.623162954579169870e-02,-3.916196223784575159e-02,-2.115935060888693778e-02,2.121295630931854248e-01
4.018818512062039550e-01,5.058617989522361524e-01,5.451371350321418952e-01,-1.074647463002313258e-01,-6.186395334062415319e-02,-2.446623911031604870e-02,2.536956369876861572e-01
3.438640032811323133e-01,5.096919881994745882e-01,5.720597844519440534e-01,-1.187606845935407079e-01,-1.729745493537877821e-02,-1.302957338600932782e-02,2.923186719417572021e-01
5.422954587889413647e-01,4.565019118180305702e-01,4.887586074623330723e-01,2.159292260975236022e-02,-1.425356056356769964e-02,4.442722544252657169e-02,1.164611577987670898e-01
5.407273837771359171e-01,5.127678516986119428e-01,4.213913772854017137e-01,2.533709678512606131e-02,-2.705274289064145063e-02,6.862389876471611250e-02,1.730185449123382568e-01
5.453066925489717942e-01,4.819388537200978706e-01,4.952029098796317252e-01,1.379638149962801250e-02,-6.448451326628097842e-03,3.186833699030165723e-02,8.422258496284484863e-02
5.344319899381825278e-01,4.891462922208761888e-01,4.862509169039110901e-01,9.672316627398440739e-03,-5.328238354033550638e-03,1.140842542436648448e-02,5.428245291113853455e-02
5.186718390927639311e-01,4.990502383512279150e-01,5.104572861660405803e-01,1.318341007871659705e-02,-7.982065062040624367e-03,1.720916888252245480e-02,4.350076988339424133e-02
5.430699434896130162e-01,5.041360129090827202e-01,4.487823721000131494e-01,2.599329546567160504e-02,-1.933737985945898491e-02,3.741142038089050048e-02,1.186701804399490356e-01
5.329201427769882926e-01,5.033570126157677072e-01,4.773552002890223966e-01,8.146932287931115541e-03,-1.302063056124823544e-02,2.002828341693672562e-02,6.503762304782867432e-02
5.189204252113867044e-01,5.067464961889550645e-01,4.984199846930951749e-01,2.164179950040699685e-02,-1.673175637910102181e-02,4.060979192373508073e-02,8.666790276765823364e-02
5.140787703549987153e-01,5.001203003176538653e-01,4.552134066979606208e-01,2.163052017843719935e-02,-1.859093778626477039e-02,3.301444693015914006e-02,9.245900809764862061e-02
4.087825735339188915e-01,5.040520692500490840e-01,5.340865160749750373e-01,-2.019697107187739399e-02,-1.121072295816810671e-02,-1.431950344255665704e-02,1.227014660835266113e-01
3.372401537505488878e-01,5.399505435207383464e-01,5.336305342771591187e-01,-4.706903959406023158e-02,-3.904363819357540427e-02,-7.931392830298074001e-03,2.264039218425750732e-01
3.924747560248708078e-01,4.498480221446826688e-01,5.327691713792459538e-01,-9.678547352986151264e-02,-5.838459091759026082e-02,-4.406332355556400598e-02,2.430604100227355957e-01
4.385783080578340432e-01,4.598416152837386806e-01,5.298674595881694982e-01,-4.210783745241405973e-02,-2.285477650583650835e-02,-2.277647044922237116e-02,1.236416697502136230e-01
4.178859463834001531e-01,5.152543990395327400e-01,5.022762803704793333e-01,-8.226122357035824117e-02,-8.050678680172146384e-02,-4.872355984029348719e-02,2.350576519966125488e-01
4.215025524222540398e-01,5.379226781891166542e-01,5.272495612483671934e-01,-3.281502181753048059e-02,-4.041649171787354416e-02,-2.088531577019038521e-02,1.478666365146636963e-01
4.575118052618276088e-01,4.890000536169610279e-01,5.225037640463050526e-01,-1.037474926450955570e-02,3.262028276094174149e-03,8.231850150368608815e-03,6.104998290538787842e-02
4.678407852940511535e-01,5.158535129617519699e-01,5.023726672627160106e-01,-6.596105623753790483e-03,9.644557226343473261e-03,1.290482708587458067e-02,5.242981016635894775e-02
5.132093227033538430e-01,5.062666430240838622e-01,4.635713763755449635e-01,2.330619107641107926e-02,-2.358158331187786352e-02,2.660193493491151695e-02,8.711086958646774292e-02
5.452594106547670183e-01,4.779591636590617143e-01,5.005715173675964191e-01,8.300933021511882476e-03,-9.615844959062576011e-03,2.540991193112188476e-02,7.707091420888900757e-02
5.562598185873983692e-01,5.118283738602984467e-01,4.547338086811207880e-01,3.911598115550020405e-02,-5.569109099980587216e-03,5.713835332527832100e-02,1.491587609052658081e-01
5.267183606102338045e-01,4.938803627763656001e-01,4.863709035639607325e-01,1.535555974099836289e-02,-8.427573878289251058e-03,1.253192424295638749e-02,5.265852808952331543e-02
5.284169308392219211e-01,5.097923992060504617e-01,4.897452399466884487e-01,1.573122650170218073e-02,-8.227389988651117453e-03,1.676884645630281889e-02,5.395551398396492004e-02
5.408366531126670429e-01,4.665658477094445367e-01,4.785073968001853917e-01,1.954070562470291983e-02,-1.548505706353991637e-02,3.666150490626534503e-02,1.032904684543609619e-01
5.283201766837375413e-01,4.954591876790804816e-01,5.027696624714264040e-01,1.475687644344881450e-02,-9.664077242580374275e-03,1.417071482659999597e-02,4.928453266620635986e-02
5.059236893068774776e-01,5.138834595501635683e-01,4.753646641994412336e-01,2.187682380585643724e-02,2.886582462294920437e-02,-1.560880901718804739e-02,7.685605436563491821e-02
5.207623387492197331e-01,5.248992395734682903e-01,4.672110137345427128e-01,3.526774170061015845e-02,3.375431327863791936e-02,-1.731975953098935025e-02,1.056211069226264954e-01
4.637368802169777871e-01,4.410960442319873387e-01,5.422548601862742235e-01,-4.859711537361148526e-02,1.407445448638727781e-02,1.411988798655513036e-02,1.293553858995437622e-01
4.733430271456761651e-01,4.738141619929883697e-01,5.779348643298368726e-01,-6.337620502692331570e-02,6.064465715363777550e-03,6.808396234900626273e-03,1.522807329893112183e-01
4.677492219402246687e-01,4.937584049251077523e-01,5.475299680942578018e-01,-1.754154449801437199e-02,1.034249412492379422e-02,1.312502527320981785e-02,8.201969414949417114e-02
3.191603029947983616e-01,4.445453560599713083e-01,7.117637670226523161e-01,-2.374019090385127984e-01,-4.713292999388917631e-02,3.999844476382172220e-02,5.487945675849914551e-01
3.059121234594421312e-01,5.073704423471298020e-01,5.516619189735147977e-01,-1.364560891542926924e-01,1.214078148147732655e-01,7.833634546917880859e-02,4.122622907161712646e-01
3.985730659450710811e-01,5.541001789059087912e-01,5.758326196346728043e-01,-2.172796510312109408e-01,6.912658090110647413e-02,4.874307628381135266e-02,4.371903836727142334e-01
5.181462010822482922e-01,4.288747603863091173e-01,6.208935385543351559e-01,-1.019492377822008300e-01,2.335602276375520897e-02,3.182665949548053874e-02,2.521013021469116211e-01
4.270766686795710032e-01,2.631893814636284135e-01,6.098944020363034069e-01,-2.082619920520043244e-01,-1.451201111199090441e-02,-6.378030901837137764e-03,4.702295958995819092e-01
4.139321866689655849e-01,2.886515521070547874e-01,6.210593037279664719e-01,-2.039050110018498785e-01,-2.426833257041443453e-02,-2.414539518531224130e-02,4.612954854965209961e-01
4.098402207828036325e-01,5.198369559158181330e-01,6.594949140226473716e-01,-1.126836599679275769e-01,3.057123602120735695e-02,2.503353553564865649e-02,2.995700240135192871e-01
5.157762539296913973e-01,4.261305714355806407e-01,6.027342092718421807e-01,-1.027213831259154858e-01,2.706724886757095119e-02,3.406713969162152023e-02,2.464307248592376709e-01
5.301137993519015046e-01,4.926942135475230189e-01,4.817567885403682415e-01,-4.360305347617572831e-03,3.269679093525937157e-03,7.414558143122564927e-03,4.672432690858840942e-02
5.492995778083430425e-01,4.997781415325651677e-01,4.718348616092883918e-01,-5.046704126177877121e-03,1.624054811766598508e-02,2.583427923983863672e-02,8.652684092521667480e-02
5.179493842424172101e-01,5.036820081287223250e-01,4.788288672866543583e-01,-9.983765885405249466e-03,4.912607224711997532e-03,7.831432786543754757e-03,4.160826280713081360e-02
5.252969951900025025e-01,4.889083149547963081e-01,5.026668908687704773e-01,-8.321896140412315956e-03,1.195396526558927322e-02,1.374489180047071442e-02,4.707438871264457703e-02
5.149308079519292480e-01,4.565932240604581582e-01,4.920340589299949108e-01,-2.083711416722966794e-02,1.772707505281084436e-02,2.622417534359198013e-02,8.306755870580673218e-02
5.407698064197233867e-01,4.360446702428287247e-01,4.861964502666417665e-01,-2.534976055183186736e-02,3.055282560306948197e-02,5.338587247223726406e-02,1.466588377952575684e-01
5.330764137076647868e-01,4.907411247071619687e-01,4.920384536714014212e-01,-1.917943695877141362e-03,6.480262429943909989e-03,8.068421172376898445e-03,4.551210999488830566e-02
5.259176511595933246e-01,5.071065816539019888e-01,4.990080823607976335e-01,-7.132151525620071542e-03,1.417691309017355891e-02,1.274316250484367440e-02,4.259701073169708252e-02
5.418450611566817399e-01,5.023115289051605092e-01,4.870300052328313534e-01,-7.480843706914648387e-03,1.297250883219057925e-02,2.421217006591088253e-02,6.951253116130828857e-02
5.395185736390978315e-01,4.919132523477475760e-01,4.501632258358604366e-01,-1.196006055263063722e-02,1.585024781138483566e-02,4.142887566883220185e-02,1.110348179936408997e-01
5.504940415077562710e-01,4.806978716714845334e-01,4.785331601873061835e-01,-2.426946129428483260e-03,5.772025333338114128e-03,2.304940421291287386e-02,8.208972960710525513e-02
5.470264764172527716e-01,4.393433253738888156e-01,4.709122944746894079e-01,1.410107321278632241e-03,7.361146461386016901e-03,6.637373883769390193e-02,1.502589732408523560e-01
5.429917514050528471e-01,4.375893334373763821e-01,5.344860292721812511e-01,2.322754521401512381e-02,-2.784197486842768764e-03,4.671048708752611328e-02,1.359151005744934082e-01
4.847995018542017309e-01,4.605323138293988539e-01,5.418313607850538949e-01,-2.868216749618534081e-02,2.271953174480326187e-03,3.612548564015799490e-03,8.802368491888046265e-02
5.588588201542534772e-01,3.805100498236261841e-01,5.663470874547773537e-01,-4.368458422377857493e-04,6.517057095597610268e-03,1.800997274573672841e-02,1.852051466703414917e-01
5.764237651970323117e-01,4.169992275393722414e-01,5.495792473272053114e-01,5.878837787780246543e-02,-6.633104697261697942e-03,3.233841506845209351e-02,1.884002983570098877e-01
4.886751651279900854e-01,4.636620120166198844e-01,5.038874424978325717e-01,-2.535593016286319390e-02,2.198535709780533032e-02,2.353279671422355002e-02,7.923252880573272705e-02
5.521220207619758069e-01,4.316622779362115359e-01,5.528289563624499969e-01,2.159025955459974860e-02,-6.973839073422521441e-03,1.285119142905204008e-02,1.289805620908737183e-01
5.472200318370101790e-01,4.344263850119984283e-01,5.367396748359197778e-01,1.134579315743666078e-02,1.684108901302305275e-03,2.084832325132644770e-02,1.155368983745574951e-01
5.501408026991809752e-01,4.538119556637748020e-01,5.419141093982290380e-01,2.517074312639179176e-02,-9.702321678896853527e-04,7.112662487709589358e-03,1.030036434531211853e-01
5.421950321603470346e-01,4.577143726081661645e-01,5.450352666291433668e-01,6.036791252696201322e-03,3.217521724526284984e-03,3.394534531640107378e-02,1.047961786389350891e-01
5.161985080645858925e-01,4.674566008351756508e-01,4.675511320679328064e-01,-1.049386063394812385e-02,-1.168452186404231839e-02,-1.461306069566632032e-02,6.125150620937347412e-02
5.341942792905409743e-01,4.773308075396565098e-01,4.725795556645143725e-01,-5.889588480892508394e-03,-7.449602990919234301e-03,-9.940130757124531619e-03,6.397789716720581055e-02
4.665970931879627193e-01,4.354804188082329608e-01,5.433595161432058784e-01,-4.683836042144374351e-02,1.180452480202359884e-02,1.098705485465709120e-02,1.288836300373077393e-01
5.511047803670011680e-01,4.299947323129114096e-01,4.997782785766121672e-01,1.188398009256194784e-03,4.743917370789648390e-03,-1.213537930785307459e-02,1.077007502317428589e-01
4.913670423006312737e-01,4.744348665206761240e-01,5.300100305501299625e-01,-2.285547801403526452e-02,8.524206271975526619e-03,7.243318900285312771e-03,6.615731865167617798e-02
4.851394792681065216e-01,4.785700121113642957e-01,5.241833814902394639e-01,-1.389550728831303802e-02,1.484340996808271133e-02,1.296983307357366111e-02,5.974083393812179565e-02
4.775481377367040148e-01,4.545216414040346153e-01,5.446541012924309699e-01,-3.750835965688081863e-02,2.735438053548349888e-02,2.843865311295003251e-02,1.243797987699508667e-01
4.862204683422288176e-01,5.039354798452579942e-01,5.272837090231258239e-01,-1.293133500186953964e-02,1.495500564202091424e-02,1.614464933946084535e-02,5.680791661143302917e-02
4.682116707493693686e-01,4.938816046455721254e-01,5.248173437836746169e-01,-2.481913720413971361e-02,1.956274992288567147e-02,2.176910230844467456e-02,8.263073116540908813e-02
5.492317779984278170e-01,4.222405446398373452e-01,4.731288019203944151e-01,-1.544460588986482433e-02,-1.206458405610243145e-02,-4.948598898375803495e-02,1.440586149692535400e-01
5.417590587567074900e-01,4.575223643759273595e-01,4.588353335472752370e-01,-1.307657380286309651e-02,-3.136892886722084280e-03,-2.719059627187328174e-02,9.872912615537643433e-02
5.472762177915443393e-01,4.807521085440361608e-01,4.597752608316701406e-01,-2.959675528746130366e-03,-5.980803867502338875e-03,-3.019972293959963250e-02,9.555422514677047729e-02
5.252139869303629194e-01,4.736654704776035452e-01,4.151642479468802271e-01,-2.743641780317485068e-02,-3.578046624681583548e-02,-5.040316476250114586e-02,1.510487645864486694e-01
5.537312728064112122e-01,4.653680264794590737e-01,4.557149563156431271e-01,4.387145317782212978e-02,3.949664575984240117e-02,-6.248626167242838508e-02,1.758462041616439819e-01
5.716322370694907340e-01,4.607046281821015610e-01,3.542024894970485227e-01,-2.533078536813761650e-03,-4.334707865565917695e-03,-1.032624318075339165e-01,2.598589658737182617e-01
5.519738116766342850e-01,4.259928305422176487e-01,4.810110549520612011e-01,-6.653014029565015863e-03,-4.810671051251218418e-03,-7.574934425336064814e-02,1.714148968458175659e-01
5.611625525648284984e-01,5.134592884165088966e-01,4.137298334383341936e-01,2.550671091438675916e-02,2.598753003419500274e-02,-9.820754258144444304e-02,2.233628928661346436e-01
5.766787585430538376e-01,4.695952970233096546e-01,4.251483642564347631e-01,-4.899477618417693095e-03,-1.116194260645775619e-03,-1.187558245045119837e-01,2.461432963609695435e-01
6.322281743755074901e-01,3.981736857230038229e-01,2.615185047063242063e-01,6.477208304831555755e-03,-1.313532242197100117e-03,-2.335659173518247755e-01,5.188748240470886230e-01
6.127788905801614394e-01,3.832112351236633963e-01,2.675885946025647888e-01,-5.051328049313934254e-02,-7.481764683622010859e-02,-2.422761244076916953e-01,5.414370894432067871e-01
6.465505109093276914e-01,4.457059065059124081e-01,3.154259624854347521e-01,-9.526088068094924755e-02,-1.132948529594045017e-01,-1.936762405045342750e-01,5.116053223609924316e-01
6.174402467881334733e-01,3.855229769902306924e-01,4.067629243220308166e-01,-4.525054564564495729e-02,-4.474410107322338015e-02,-2.654060521411219509e-01,5.222843289375305176e-01
6.187254395435510812e-01,2.816341785330722658e-01,3.828607180276740185e-01,-4.763930497913073520e-02,-4.335666430102506214e-02,-2.328092356465414903e-01,5.145902037620544434e-01
4.862132389837512392e-01,5.052039439019150313e-01,5.475851806390704679e-01,3.231136224194123413e-02,-1.575132689270818944e-03,1.490721874462186056e-02,8.226698637008666992e-02
4.766961690283096909e-01,4.743908656880109764e-01,5.500569151253725808e-01,2.395272975191821765e-02,5.940935680797850005e-03,-3.034422254082027714e-03,8.608680963516235352e-02
4.725903933822921399e-01,4.718666992109892266e-01,5.395998341660412922e-01,2.491738912714479628e-02,1.360767645549898399e-03,7.841068001642626656e-04,8.005817979574203491e-02
4.338217314835198235e-01,4.738745392717418348e-01,5.471638053327263496e-01,5.868156698053041825e-02,9.389984681662274027e-03,-3.394518410253536018e-03,1.433200836181640625e-01
4.656565597669667378e-01,4.912528126491830238e-01,4.985936904283951310e-01,-2.469784401841068275e-02,2.410319547246883576e-02,2.364762607380432868e-02,7.840554416179656982e-02
4.300323380333231360e-01,5.408188210878740465e-01,4.828198405521835768e-01,-3.058333961688557232e-03,5.820425501372082644e-02,1.446596694921807244e-02,1.415311992168426514e-01
4.780369250734917141e-01,5.393275644950263903e-01,5.056256535410627029e-01,2.781991196247364156e-06,2.920139961027354986e-02,-3.516573846902757827e-03,7.363432645797729492e-02
5.060349136648173429e-01,5.856373132305148221e-01,4.919640220024060762e-01,7.400687177673456220e-03,7.337006719181378422e-02,1.951037897951141478e-02,1.584625691175460815e-01
5.041533428370946757e-01,5.539421406183663299e-01,4.752870496284887780e-01,1.810289729825670900e-03,2.632704916179045423e-02,2.402416833122817362e-03,8.280031383037567139e-02
5.042789043169193519e-01,5.401379559936840824e-01,4.735245910149902260e-01,-6.228502752357874912e-04,2.686341634546675350e-02,4.173021190805126755e-03,7.451748102903366089e-02
5.722017356606936556e-01,4.260048020168125671e-01,4.735035179831050267e-01,-2.460368737095501926e-03,-9.310680600126828438e-03,-5.149986193208868496e-02,1.578620821237564087e-01
5.499915794174007333e-01,4.722685062415219459e-01,4.258517522373878594e-01,2.728286785922943384e-03,2.296863009737735474e-03,-4.375972720109366082e-02,1.326120048761367798e-01
5.164450961800930440e-01,4.615684610105013075e-01,4.374420350406960090e-01,4.832455360479807199e-02,6.281727453202071154e-02,-7.772433197066223876e-02,2.046571224927902222e-01
5.594516790998892430e-01,4.921560021515194450e-01,3.762483100877652697e-01,3.191939127866229731e-03,1.777275821641896049e-03,-7.134819538448783360e-02,2.026699930429458618e-01
5.354543884507586560e-01,4.723616448982779770e-01,4.671221550624377050e-01,1.254358562170374176e-02,9.212068031341332647e-03,-2.318938551283208568e-02,8.172254264354705811e-02
5.968377777419842101e-01,4.870941043209864318e-01,4.082835997108425485e-01,-7.675743234289158015e-03,-4.580711600757518716e-03,-1.026109112767467635e-01,2.423436045646667480e-01
6.058891156336134731e-01,4.246170825466956122e-01,4.450984777110406077e-01,7.724435679676557205e-03,1.794598557215144538e-02,-1.224843297300702849e-01,2.751703858375549316e-01
5.625464466828213883e-01,4.876110492548337283e-01,3.781380702340160771e-01,-1.035933110784368824e-03,-3.792441392136129685e-03,-7.291821486193060531e-02,2.044519782066345215e-01
4.983153065515605884e-01,4.935907873591467432e-01,5.490906712707265269e-01,7.949267478725279001e-02,-1.019136592529662315e-02,2.336689021842967146e-02,1.541013568639755249e-01
4.969766413569751129e-01,4.866035562929563740e-01,5.354991561415889390e-01,2.136237027847145975e-02,-4.371762451154968809e-03,1.047901900774068570e-02,6.121275573968887329e-02
5.312228166829413567e-01,4.338712072088573013e-01,5.433147888605192044e-01,4.928977297102613703e-02,5.075245011613982275e-03,1.974063926210741643e-02,1.390522271394729614e-01
5.277345276406280039e-01,4.686233972667259717e-01,5.432559796459212054e-01,2.929745959290436241e-02,-6.940667223400968054e-03,2.452015519034343727e-02,9.579033404588699341e-02
4.922278670327078776e-01,4.572051335794361515e-01,5.322471269593820331e-01,1.586314923429823706e-02,-5.692650257792161370e-03,5.721604834818028867e-03,7.197266817092895508e-02
5.383611904338401200e-01,4.284351542389749357e-01,5.671217062192057679e-01,2.512962001110456006e-02,4.110258675293283412e-03,1.778195128514936966e-03,1.342650055885314941e-01
5.207230397020536916e-01,4.401288630578636396e-01,5.325589166441979661e-01,1.705428219965062289e-02,-1.204821756818034821e-02,1.108003532783514468e-02,9.625869989395141602e-02
5.181359772099678462e-01,4.529917388110511478e-01,5.508029345658119746e-01,1.021067409162972929e-02,3.377298417699461323e-03,7.672250517887750296e-03,8.923311531543731689e-02
5.776390237731325872e-01,5.850357628861877490e-01,3.596019671278812835e-01,2.050651271681221913e-03,-1.096194703028536763e-02,4.035229742664842023e-02,2.333787977695465088e-01
5.817449482184503529e-01,6.097794041551458655e-01,2.169958641376528163e-01,3.448825460723927740e-03,-1.197010130856616117e-01,-1.677034239281489231e-02,4.334948360919952393e-01
5.779558534081378207e-01,7.626631838617984327e-01,2.356123587478083925e-01,9.764850507602670926e-02,-1.125387348834420431e-01,4.499378151116062430e-02,5.359320044517517090e-01
5.541589593006043257e-01,5.603552421501557523e-01,2.023201427882217462e-01,5.128444382724011569e-02,-1.078300702924273741e-01,8.996324173485735487e-02,4.393875896930694580e-01
5.687137076014502357e-01,5.716872579044286473e-01,3.840635331602813007e-01,4.137426176504157421e-02,-1.458922631118720128e-02,6.506159981629541789e-02,2.304922044277191162e-01
7.104538933811364032e-01,6.306553808480205303e-01,2.056276419933703581e-01,4.467406532177224665e-02,-1.311894677957938515e-01,-2.262383416409276954e-02,5.292332172393798828e-01
4.635002954444789047e-01,5.117451774600536574e-01,4.906811653879868396e-01,-1.032963300249927809e-02,-1.827355649928519288e-02,-1.201469329186973488e-02,5.924492701888084412e-02
4.869652233096536387e-01,5.015917820226535317e-01,4.854848633703660044e-01,-4.397821746710623564e-03,-4.969465122219662509e-03,-7.719101453898769179e-03,2.342313155531883240e-02
4.819194107667622018e-01,4.805528615896578759e-01,4.739104088861178510e-01,-1.144482062987316716e-02,-1.503935785273690685e-02,-1.257690396689439480e-02,4.001376032829284668e-02
4.840322022027117033e-01,4.715795278704210669e-01,5.016777277755786191e-01,-1.800628521990159728e-02,-2.110347992916122503e-02,-1.435528965468550744e-02,6.010940298438072205e-02
4.858419445304478779e-01,4.861143203771390864e-01,4.826393594780324925e-01,-5.849198130790867617e-03,-6.139748592873740113e-03,-5.360835791605646043e-03,1.769597828388214111e-02
4.825405909400133919e-01,4.791031358220696479e-01,4.936806233920337794e-01,-1.322464081732437069e-02,-1.455342388352236747e-02,-1.334796953072893942e-02,4.322955384850502014e-02
5.397799175085712386e-01,5.892436193346413109e-01,3.638641187437278712e-01,-2.166058871857009377e-02,-1.039464809806512069e-01,-7.951711967339449016e-02,3.080349862575531006e-01
4.364143560196545590e-01,4.789419204452531886e-01,5.422363002153524070e-01,-1.475988717288396687e-02,-1.511836648363566087e-03,3.838905452394514740e-04,9.574648737907409668e-02
5.652380490060848750e-01,5.995493423590717574e-01,2.186950856194621040e-01,-1.666428040049655959e-02,-1.363918965868273214e-01,-5.827438625678508372e-02,4.472009539604187012e-01
4.621312035240288663e-01,5.834886136547544622e-01,3.884431984543529892e-01,-5.767538675511468815e-02,-1.534402284102845127e-01,-7.134012583857322898e-02,3.535242974758148193e-01
5.025349310450426543e-01,6.075314531327581369e-01,2.810588381547579617e-01,-2.543158053828078677e-02,-1.633290519180868594e-01,-4.017367788581636956e-02,4.124819338321685791e-01
5.534867855721168350e-01,4.647489355789599652e-01,5.107043256898420314e-01,-9.121017536976373449e-03,3.500881746294775415e-02,7.367176273280087728e-02,1.616085916757583618e-01
5.395170520341937559e-01,4.617461804503137368e-01,4.956600158841752979e-01,-1.185836223590972655e-02,2.244620063348845909e-02,2.883836248753920972e-02,9.481170773506164551e-02
5.293324890978373665e-01,4.675549127984384157e-01,5.100159035379141503e-01,-2.371114256099743356e-02,3.011625037593677889e-02,2.322161842677883045e-02,9.498219937086105347e-02
5.230027469500888593e-01,4.627789511791762234e-01,5.331146474285554104e-01,-1.705787257296739745e-02,2.403055231668474803e-02,3.216470134989259100e-02,1.002354845404624939e-01
4.810517616106708139e-01,4.959142706901034092e-01,4.915563148657750570e-01,2.297273799739008027e-02,2.605828373795453581e-02,-2.047688557627853553e-02,7.108704000711441040e-02
4.844007987005319316e-01,5.108020436945180931e-01,4.706408437769422637e-01,1.843958465974175620e-02,2.262753015786028374e-02,-1.701973632278914322e-02,6.837197393178939819e-02
5.005298459946022627e-01,5.371101618551852308e-01,4.866630679304786988e-01,8.534659802945010476e-02,8.401284167968949002e-02,-3.569604374943604469e-02,2.211037725210189819e-01
5.148519417150236865e-01,5.215509131062701087e-01,4.492377571397021541e-01,4.103559272616304210e-02,6.194682506759964513e-02,-7.018767035712850100e-02,1.900856643915176392e-01
5.013895647393882271e-01,5.053751778116614135e-01,4.934402564052555729e-01,2.065846112284839067e-02,-1.542496440795941559e-02,2.438344790796180897e-02,6.235801056027412415e-02
4.855008129240873660e-01,4.964900111859785192e-01,5.231473693648327483e-01,4.051385891757284391e-02,-1.724708667154745134e-02,1.524440713160389420e-02,8.739565312862396240e-02
4.585457562224308226e-01,5.119713288774092597e-01,4.979908762630713137e-01,6.293688134505756593e-02,-3.986721814715642881e-02,5.246502067760827615e-02,1.649603098630905151e-01
4.617002595176737390e-01,5.041150776248182197e-01,5.641246086500948387e-01,6.881227293659988864e-02,-4.904727732631122133e-02,5.689258974257344753e-02,1.976816803216934204e-01
4.679256860083708114e-01,4.964585295993498293e-01,5.683109246541075965e-01,1.041826101545791777e-01,-2.013259766437776408e-03,4.939353254241820451e-02,2.189073264598846436e-01
4.242161229937490008e-01,5.267308928916876187e-01,5.260490785606392050e-01,3.538437887159335410e-02,-2.989030379197666829e-02,1.642209590643532377e-02,1.329863071441650391e-01
4.842844658344004349e-01,5.115583878468219492e-01,5.308793968306301236e-01,4.021860024230824310e-02,-1.651570801970617119e-02,2.402810099825468740e-02,9.511619061231613159e-02
4.978488319038146259e-01,5.202193362316606118e-01,5.298359241433406863e-01,9.041962942195902464e-02,-3.347425752540303390e-02,6.179257486537159672e-02,2.003789395093917847e-01
4.859680891726018137e-01,4.361362918237980946e-01,5.551768625934841994e-01,6.128224967815311397e-02,-1.031365146190184106e-03,2.613407994910500742e-02,1.550502032041549683e-01
4.659741758464495121e-01,4.916739468444953354e-01,5.392313978723906054e-01,2.534656100913595250e-02,-1.023693595464723362e-02,1.847161036366496908e-02,8.607982099056243896e-02
4.914435282289032481e-01,4.729188360250757284e-01,5.185823955890097592e-01,3.169566239317549161e-02,-1.797490174706705898e-02,2.523047023218575116e-02,8.645974844694137573e-02
5.557327526768217618e-01,4.961685183578375402e-01,5.265568754686094088e-01,6.306117933345573023e-02,-2.267318923812830511e-02,7.625629612041966154e-02,1.832449585199356079e-01
5.228721744162293517e-01,4.512090724487318738e-01,5.288365209918982623e-01,2.896239611892111390e-02,-3.290764950638518094e-02,5.405329880973043510e-02,1.418769806623458862e-01
3.263280075898981059e-01,5.440524756946911733e-01,5.618202676580943411e-01,-4.946687327879818047e-02,-2.224408425728761560e-02,6.218965839293560775e-03,2.460273504257202148e-01
5.059317253771307143e-01,5.009304212755132379e-01,5.151385875563698757e-01,-1.336544512732733281e-02,1.372515050748650788e-02,1.611895464835238004e-02,4.512574151158332825e-02
4.616182086575331689e-01,5.113386560652463109e-01,4.968781191581665979e-01,-2.325558067831915224e-02,2.847993588870029527e-02,2.639356914715496050e-02,9.004384279251098633e-02
4.859603746065660479e-01,5.236056042995332893e-01,4.955488090524377554e-01,-9.203037980529576653e-03,1.105948598765320312e-02,1.472751444791193035e-02,4.919213429093360901e-02
4.810387740130216971e-01,4.879428529825950434e-01,5.304297085817436530e-01,6.562616983180583237e-03,-9.327025548681710382e-04,5.127070994010269993e-03,4.854694753885269165e-02
4.722562963076544773e-01,5.321190127334761710e-01,4.896256113195537885e-01,-1.066861511887036602e-02,2.685464168394812237e-02,1.460320288924203506e-02,7.739636301994323730e-02
5.015334169695359057e-01,5.505063071275709818e-01,5.105757038395348779e-01,-1.287527139213968767e-02,3.999060277917834000e-02,2.708796940098439146e-02,9.764024615287780762e-02
5.009659225053139098e-01,4.340424532680999259e-01,5.132350559490093111e-01,-3.396495387631415230e-02,-2.549816551802144490e-02,-3.475261805384646796e-02,1.203533634543418884e-01
5.159695295521632419e-01,4.506625090963981561e-01,4.852472404816565166e-01,-2.392222617751767200e-02,-2.280805408858169181e-02,-2.646640643559991860e-02,9.263551235198974609e-02
4.837033580842692304e-01,4.983092635735490439e-01,4.906791317583160117e-01,-1.063326121269467066e-02,-1.249879349520379400e-02,-1.303663746099596385e-02,3.844250738620758057e-02
4.993410984884240067e-01,4.871895412709026374e-01,4.690449255728946776e-01,-1.680677009553761814e-02,-1.490332167639393281e-02,-1.667146034637494861e-02,5.518075078725814819e-02
4.743589747468104356e-01,5.379589920299089334e-01,4.662989379535705248e-01,7.269410477638652826e-04,-1.554194478594202525e-03,1.348250394465818898e-04,6.805461645126342773e-02
4.887973970756487874e-01,5.056338864417274648e-01,4.557959720080854704e-01,-1.741357171245813684e-02,-9.530474441038012251e-03,-7.512731889770508931e-03,5.726866796612739563e-02
4.997013818032253751e-01,4.936794125117226484e-01,4.673367525095222241e-01,-1.965998875103356150e-02,-1.706392174918609089e-02,-1.585382817263059074e-02,6.062956154346466064e-02
4.679058862421598408e-01,4.936354025171927340e-01,4.907215593094272910e-01,-1.781100176836013932e-02,-2.134418636443371348e-02,-2.213117492636098443e-02,6.620658189058303833e-02
5.101180051252748315e-01,4.886957296865945266e-01,4.550778125373122762e-01,-2.035985092641106470e-02,-1.893574142920408099e-02,-2.442839554760423137e-02,8.011708408594131470e-02
5.091821593795781142e-01,4.869613956192517801e-01,4.504316179276714460e-01,-1.354935360946191332e-02,-8.452356369668050790e-03,-8.182324958753888280e-03,6.004864722490310669e-02
4.826788829120320368e-01,4.971645452989835734e-01,4.611779796163312239e-01,-2.411570891756792748e-02,-2.785685506876326920e-02,-2.627737701945809592e-02,8.442626893520355225e-02
5.396124795936774188e-01,4.739224366981341086e-01,4.748173047909159394e-01,4.799594351645403677e-03,1.849537832882553346e-03,2.604513703079374201e-02,7.982240617275238037e-02
5.449343245445339434e-01,4.792900010228243746e-01,5.101188451542725266e-01,9.144295362383992806e-03,-1.073616032504927029e-03,2.982131020294281204e-02,7.847356051206588745e-02
5.713613127662838798e-01,4.337524901716195425e-01,4.858981511936649733e-01,2.683505242316559097e-02,-1.237138726293092635e-02,5.917784430617085284e-02,1.661481857299804688e-01
5.579916179291314338e-01,5.089919428454811046e-01,4.846906705119291559e-01,1.604220921775535366e-02,1.122295281188157544e-02,8.216118964671721703e-02,1.599486768245697021e-01
5.544492533055027650e-01,4.802057301416599033e-01,5.114016931331132332e-01,8.650871794065548639e-03,1.437645103820216078e-03,3.002212719057372955e-02,8.428456634283065796e-02
3.681673800699392096e-01,6.156118692937151415e-01,5.239964103095934300e-01,5.574296663694045320e-03,-7.484977635623177306e-02,3.727525270545015146e-02,2.608092129230499268e-01
4.305855309813468867e-01,5.566658161003746885e-01,5.064353557581851017e-01,-1.890688274603395669e-02,-4.385598319142918616e-02,-1.464677412024161310e-02,1.399010419845581055e-01
5.405444653289716017e-01,4.621580916199637401e-01,5.035571192864205514e-01,-1.924319003074719328e-02,2.324611874942463310e-02,3.084722753270311910e-02,1.009944826364517212e-01
4.257671192280890193e-01,5.992656248006953401e-01,5.142959678373553167e-01,-3.700446575364750579e-02,-1.157591874652463965e-01,-2.698663278353246806e-02,2.628171741962432861e-01
4.709536181275073008e-01,5.364383292361488698e-01,4.657779583995022010e-01,-1.264063228041248377e-03,-2.534938495905005029e-03,-2.247009987957965986e-04,6.839725375175476074e-02
5.442581557130290459e-01,4.926464848219548331e-01,4.779545800856512816e-01,-8.529223001708635676e-03,4.146362321966472197e-02,3.480442850249258063e-02,1.124627664685249329e-01
4.989848258220853094e-01,5.450908969454398845e-01,4.992417837372126188e-01,-2.894193017391934533e-02,5.542134276744583449e-02,4.549150016531636892e-02,1.415976732969284058e-01
5.419124842988538582e-01,4.553781984158835061e-01,5.038495769469059082e-01,-1.969674748858285182e-02,4.055969062507391171e-02,5.633466274373422067e-02,1.458189040422439575e-01
4.981626050564344488e-01,4.703743532147238171e-01,5.173977087155737786e-01,-3.872572845244846157e-02,2.687715270100298967e-02,1.807238078735288328e-02,9.655417501926422119e-02
3.847655830071657346e-01,5.885844343453283667e-01,4.973005832059127496e-01,-5.286122262015087447e-02,-9.031958075905642536e-02,-1.159722903653893043e-02,2.540251612663269043e-01
4.935016646693666797e-01,5.226485336449780972e-01,5.290116515862540725e-01,-3.747888900490031761e-02,6.810270885074748426e-02,8.294499968933477518e-02,1.996072381734848022e-01
4.845417265832456244e-01,4.913739558071474334e-01,5.402481572335973148e-01,-3.982121360259217174e-02,2.642545977585920511e-02,2.524216588013646415e-02,1.073912903666496277e-01
4.925004460337607526e-01,4.989594941455786081e-01,5.271041174621421410e-01,-3.210659726137479048e-02,1.987147283237919101e-02,2.201517797220651357e-02,8.213865011930465698e-02
5.073940104909300253e-01,4.212281485189305341e-01,5.167416206701407333e-01,-4.958118993144024211e-02,4.646410710054955928e-02,5.676652448963123015e-02,1.784273386001586914e-01
5.540836167676288504e-01,4.286549423456148533e-01,5.209245862848030928e-01,-6.028609741710366093e-02,4.417399030611447036e-02,5.751001965633565499e-02,1.983740180730819702e-01
4.893187981332229319e-01,4.636305367993039384e-01,5.239285028424758295e-01,-2.676477490507452386e-02,2.179919057014148911e-02,2.236491337947254382e-02,8.844220638275146484e-02
5.191830321422767902e-01,4.584429649582200117e-01,4.967330602752934587e-01,-1.716097271459078935e-02,2.148028296742074059e-02,3.146786323246498346e-02,8.982276171445846558e-02
4.876859400650583876e-01,4.670216448537342635e-01,5.237489137512538750e-01,-2.667470357722836680e-02,2.016699935345106151e-02,2.052302202506192663e-02,8.420863002538681030e-02
2.980582904054190352e-01,5.782572188078307640e-01,4.483680906682640521e-01,-9.710099692607250532e-02,-1.934545080753388990e-01,-6.025364274493789918e-02,4.587363898754119873e-01
5.311753766426905443e-01,4.719700952091461787e-01,5.356783681650043594e-01,-2.371202772019104926e-02,2.675644226522085056e-02,2.897364078124910897e-02,1.007226929068565369e-01
4.588320788985992271e-01,5.125738005001240216e-01,4.975962434004495005e-01,-2.571354202419566179e-02,2.657312050251282171e-02,2.743546658760574047e-02,9.310019016265869141e-02
4.899442859656585880e-01,4.848527730680361469e-01,5.056855660097253624e-01,-2.553782011798346255e-02,2.252058708300844203e-02,2.511145159729579954e-02,7.565503567457199097e-02
4.661373505111092164e-01,4.702936166901391379e-01,5.306720475033693818e-01,-2.374161925040912859e-03,-2.727773954860160735e-03,-2.468841251675341422e-03,6.301821768283843994e-02
5.216638134698099449e-01,5.242933770603683818e-01,4.675277676643314062e-01,-8.285762095994526899e-03,3.290709008915058270e-02,1.866510787488807194e-02,8.706164360046386719e-02
5.120034364425778417e-01,5.303215490467388937e-01,5.135384083801669552e-01,-2.034219821719286322e-02,3.754346919823043499e-02,3.505765211479338478e-02,9.729778766632080078e-02
4.575707825672839513e-01,4.730185125164524940e-01,8.141875041828581239e-01,-2.312637601440006019e-01,5.225288957243804516e-02,3.399637294762176964e-02,5.422290563583374023e-01
5.067974901304436175e-01,4.880619571122946088e-01,5.146297586548214120e-01,-9.011058040581257714e-03,1.241935572113895755e-02,1.105208156568086332e-02,4.039641842246055603e-02
5.239374689548247366e-01,5.335931086349400276e-01,4.803923023886970123e-01,-1.305614812319346070e-02,2.717411708054815606e-02,2.711782944869529921e-02,8.568947762250900269e-02
5.336746176852896761e-01,5.048675979446790585e-01,5.195984668657391836e-01,-2.173859206689754062e-02,3.006058394862203692e-02,3.578474255768254036e-02,9.269708395004272461e-02
5.193093031428025474e-01,4.421554102911157691e-01,4.887437069973302184e-01,-3.994833014657556830e-02,-2.315947529236750402e-02,-4.751156055226610220e-02,1.330318003892898560e-01
5.115917638253544286e-01,5.074692760967740579e-01,4.509310489683633905e-01,-1.435117062357978493e-02,-2.208940641482163084e-02,-2.417100527875332833e-02,8.532907068729400635e-02
5.216063296840919294e-01,5.691051367337205402e-01,3.839491845686965332e-01,-4.543330030866730290e-02,-6.840652969575576614e-02,-4.842967626226660216e-02,2.345450669527053833e-01
4.894562302616757288e-01,5.516802985952030669e-01,3.747096425131970499e-01,-2.630418878805186600e-02,-7.998857688793949150e-02,-4.185500067587857170e-02,2.251763492822647095e-01
4.915081963721558145e-01,4.669818301625882073e-01,5.050927396948482473e-01,-1.647680503109990452e-02,-1.651985347223669520e-02,-1.423220784347114208e-02,5.796638131141662598e-02
4.664833542664427735e-01,4.962600884310611193e-01,4.880059628962074014e-01,-1.233704681757078619e-02,-8.387254438706115076e-03,-9.207364054568354175e-03,4.038535058498382568e-02
5.162199318013709348e-01,4.880423969227464243e-01,4.900516364687278470e-01,4.404430532936427604e-03,6.337241894496018456e-03,-5.624115713230842285e-03,3.185853362083435059e-02
5.011681525682090133e-01,4.443960953000143377e-01,4.852759527242663795e-01,-2.785287402444052568e-02,-2.335552212906181688e-02,-2.835350266939370284e-02,9.459888190031051636e-02
5.078644215796304096e-01,4.671848984052444087e-01,4.777700921713932125e-01,-1.548384905360646047e-02,-1.799385107769401609e-02,-1.524125857192840626e-02,6.102247163653373718e-02
4.830696083243073424e-01,5.096247091423584674e-01,4.512701354862612702e-01,-5.063120850638682530e-02,-5.904402147439889031e-02,-7.142546702377507162e-02,1.897755414247512817e-01
4.532975764013584263e-01,4.571932846630159530e-01,5.296095699282422631e-01,-3.137769090695231161e-02,-1.220534781351255080e-02,-1.270085301260425077e-02,9.708724170923233032e-02
4.665026145629560528e-01,4.526714510320853924e-01,5.469147138743400971e-01,-6.963499095101549630e-02,-1.906369168660736538e-02,-2.654991761724133023e-02,1.597550064325332642e-01
5.542826090931862737e-01,3.551101291663174564e-01,5.528091899051078562e-01,-5.184004387383611689e-02,-1.462482229116795346e-02,-4.744270549638165274e-02,2.341679781675338745e-01
5.022515454095559662e-01,4.202005082584877593e-01,5.654635631423766684e-01,-4.813406780745706909e-02,-1.546405540356349077e-02,-1.826139214373604866e-02,1.567904800176620483e-01
5.138451455597640161e-01,3.985634861597203149e-01,5.394907532113633053e-01,-5.258318249775213032e-02,-1.778928210749295205e-02,-3.212256444299603497e-02,1.710086315870285034e-01
3.796636254180861814e-01,5.100576157086258444e-01,5.622233456881704505e-01,-1.492825687465132167e-01,-1.423395921942943732e-01,-5.584868524172658527e-02,4.043769538402557373e-01
4.310087999290803107e-01,5.120955378171926364e-01,5.632305093038219024e-01,-7.360444767671729671e-02,-4.866289226054829747e-02,-2.984178410609704749e-02,1.984058618545532227e-01
4.154944218164701164e-01,4.089896453570566748e-01,5.783494819773797868e-01,-1.122996921710524565e-01,-1.288190819788084286e-02,-9.282745837615935178e-03,2.573196887969970703e-01
4.940870844121838523e-01,5.029051691885343400e-01,5.030219686577006577e-01,-3.551593651153876069e-02,-4.981406293019976367e-02,-4.185841873433510801e-02,1.286998540163040161e-01
4.036850892799913604e-01,4.978528687278029330e-01,5.356710267842230699e-01,-1.359911524765038404e-01,-6.795617001005296864e-02,-6.242192791204545510e-02,3.080315291881561279e-01
4.998732957280752065e-01,4.818705168213569534e-01,5.377287403269813693e-01,-1.029689802490633965e-01,-8.969497858174552141e-02,-8.451706019439718387e-02,2.825091779232025146e-01
4.783080249338915735e-01,5.115355811009091314e-01,4.759140453697379147e-01,-3.595639904847863083e-02,-4.105810946549266066e-02,-3.372931298692436602e-02,1.163539439439773560e-01
4.599927906104767095e-01,5.217115474118558804e-01,4.805581095222501986e-01,-3.371218138714698626e-03,-8.505444296534379976e-04,-9.770418596884867385e-03,5.731945857405662537e-02
4.417156766516600053e-01,5.210219633014652185e-01,4.761764881230461377e-01,-5.610774814908898837e-03,-1.403710303061108527e-02,-1.535071672180977724e-02,7.833627611398696899e-02
4.342812894872738472e-01,5.392394479603073165e-01,4.732808730944922382e-01,-3.517868403355277080e-03,-2.184416234248023198e-02,-7.834059388668348362e-03,1.004818603396415710e-01
4.721789428248917564e-01,5.226864627227917337e-01,4.669890513426492307e-01,-1.103601165305151920e-02,-1.383710025740858031e-02,-8.893625539871942778e-03,6.338090449571609497e-02
4.716760002034371957e-01,5.287321126493160772e-01,4.706207651982051154e-01,-5.500271072830075457e-03,-9.153448477862938248e-03,-6.949395998366680698e-03,6.167430058121681213e-02
4.952308205244674300e-01,4.997996614772812207e-01,4.988280504643606283e-01,-8.076810368605169196e-03,6.097706794512065126e-03,8.766681635650738769e-03,2.356255427002906799e-02
4.973237246451088778e-01,4.964527336697185378e-01,4.957381312902662263e-01,-1.131481088151593817e-02,8.649613400075127981e-03,6.830789321606634858e-03,2.739330194890499115e-02
5.078871004553936475e-01,5.003755748468051712e-01,4.948970435633981424e-01,-4.972744384835974148e-03,3.735511398279140523e-03,5.137304779238721815e-03,1.796696521341800690e-02
4.992013379102253623e-01,5.015587713956222160e-01,4.974878070949777520e-01,-3.533010932033825175e-03,1.156434528551612655e-03,2.801765196736257825e-03,8.805759251117706299e-03
5.005413423805529227e-01,4.997201093174401532e-01,5.016430628279952009e-01,-2.750254759313829414e-03,3.111899020710609445e-03,4.124680457133503286e-03,1.027498859912157059e-02
5.925308036559454594e-01,4.472933028872125849e-01,4.312499533374704042e-01,2.480039484703740194e-02,4.216275241789377813e-03,-9.512816663652716442e-02,2.296258509159088135e-01
6.354775515698000143e-01,4.261820416315363902e-01,4.806968055710613141e-01,1.831294783989377215e-02,-5.317834128181327114e-03,-1.103286232974511616e-01,2.701387107372283936e-01
5.429723206899333965e-01,4.403651544963542719e-01,4.801057293998473030e-01,1.434893338332111565e-02,1.274494668684014211e-02,-4.136366618337400380e-02,1.194475293159484863e-01
5.602826976412529358e-01,5.040051682135670008e-01,4.122288493571316659e-01,-3.329371549078421338e-02,-4.423420979662649050e-02,-1.203016937044369961e-01,2.633778750896453857e-01
5.536834284524292382e-01,5.061894385642548011e-01,4.198487377493407280e-01,-7.776833857823074216e-03,-9.627307589410527208e-03,-5.008417780929299429e-02,1.476341038942337036e-01
5.685678541991012747e-01,4.055237776563581087e-01,4.673463625426849677e-01,-7.211999255401098027e-03,-2.194803681855381217e-02,-1.189854109852626490e-01,2.537702918052673340e-01
4.819775540999140517e-01,4.820623814398488083e-01,4.591198791435206483e-01,-3.405770299014836827e-02,-3.528426804593985666e-02,-4.403017396225827190e-02,1.164264082908630371e-01
5.352374794156398163e-01,4.163727872732562729e-01,4.590408047778953837e-01,-2.025269195657434726e-02,-1.761587409679050628e-02,-5.173052661131168767e-02,1.451456844806671143e-01
5.363960795636724121e-01,5.264677402037353238e-01,4.427584774358892528e-01,-4.969506419992012793e-03,6.115224227598247374e-03,1.813933958560566204e-02,9.544783830642700195e-02
5.428308234052332537e-01,5.285772289270359581e-01,4.254923471863802376e-01,-1.907494096688482424e-02,-3.555126800396493647e-02,-3.875798324576310711e-02,1.472710818052291870e-01
4.466088023087848025e-01,4.746497010939958461e-01,4.648262191704055635e-01,-7.553049042732419560e-02,-7.936214921813868062e-02,-7.177521847158978285e-02,2.281928956508636475e-01
5.369261988109327310e-01,5.582294326599859247e-01,4.375075349799366631e-01,8.221592207031360594e-03,4.140717744076750917e-02,1.430780836100855203e-03,1.334482133388519287e-01
4.972596044857081066e-01,5.002715253285404673e-01,5.053208257072729914e-01,1.019907347872378705e-12,1.437964283285553561e-03,-4.280508156532104695e-04,7.518517319113016129e-03
2.171845135550333483e-01,5.902725087145357374e-01,5.683376689484208599e-01,-9.571451210921858022e-02,-1.112265133131364742e-01,-2.141076478800179803e-02,4.443706274032592773e-01
5.366348562132704503e-01,5.707393031914540504e-01,4.208480307132527742e-01,4.275861211051485561e-02,4.148136438919294844e-02,-2.131418448006618810e-02,1.747238934040069580e-01
5.187864114260072324e-01,5.457714505664655880e-01,4.274915403172876438e-01,1.202432378081006413e-02,8.103314324174803671e-03,3.812872587005754037e-03,1.104576811194419861e-01
5.296938396774546476e-01,5.460380646738192123e-01,4.105320987450355452e-01,1.135774187846840845e-02,1.773406502126063933e-02,-2.676314620348847328e-03,1.332900375127792358e-01
2.680679384024037826e-01,5.985790365434614513e-01,6.226167969466869234e-01,-4.766177813725174656e-02,3.612851146873642671e-02,4.180223512370748878e-02,3.656954467296600342e-01
5.004532984310542387e-01,5.446225935151777220e-01,4.557930162146440756e-01,1.368776321590531829e-02,1.055418405309187062e-02,-6.994963158719393406e-03,8.343324065208435059e-02
5.892960846100240291e-01,6.101994548330985646e-01,1.572814092601662606e-01,2.861706891542245557e-02,1.110429456099165518e-01,-1.972625985106224878e-03,4.853496551513671875e-01
4.862970388343872963e-01,4.869620174259974843e-01,5.089904662564057602e-01,-2.774266987674400831e-02,2.186608225910716130e-02,2.191072490456527633e-02,7.539182156324386597e-02
4.986368130708897506e-01,4.968857693095207195e-01,5.074424025086284873e-01,-1.158170020030815234e-02,1.091538287059102413e-02,8.630139642464517563e-03,3.285278752446174622e-02
4.989316988630396188e-01,4.888483121081533822e-01,5.187446195694497275e-01,-1.185421681528761595e-02,1.140264591724310557e-02,1.452979010293705547e-02,4.624911397695541382e-02
4.669630275797320706e-01,5.354133188357367290e-01,4.919281612253871283e-01,7.841300664939350809e-03,-2.176069526695031606e-02,1.265930570351767037e-02,7.540322095155715942e-02
4.836914428620285311e-01,5.026292676271698623e-01,5.171984133142377704e-01,-3.980409576414576517e-03,6.903147808188704430e-03,1.289102941274235248e-02,3.918974846601486206e-02
5.119712623431693643e-01,4.873647126529510598e-01,5.017333786181307209e-01,1.628078723242463305e-02,1.477446150065685193e-02,-1.164899404989122415e-02,4.811986163258552551e-02
4.827813626344818476e-01,5.204080168719348309e-01,4.974104261598133458e-01,2.350989812607169951e-02,2.766231816997530985e-02,-2.282558797746776780e-02,8.121644705533981323e-02
4.885182502575176056e-01,5.388302079302332848e-01,4.993021302999335331e-01,1.153953052345623245e-02,2.746342711712037796e-02,1.803108110608853121e-03,6.911572068929672241e-02
4.833713846080645582e-01,5.507805614498111346e-01,4.986893508191004853e-01,8.422606108689452420e-03,3.146606872399567573e-02,-7.375315331400396400e-04,8.325178176164627075e-02
4.804152012705579788e-01,5.366013366671195106e-01,4.840337528535716971e-01,9.766355611407475865e-03,1.825967784678179592e-02,-2.492292506001128703e-03,6.535816937685012817e-02
5.061252110817109351e-01,5.491785081880429242e-01,4.710453562350265244e-01,1.531222748283571702e-02,2.689320011000847013e-02,-1.259682201813445458e-02,8.912716060876846313e-02
5.071395191689147541e-01,5.194813581187939233e-01,4.654839412459728654e-01,2.912519946837266102e-02,2.536299891477427487e-02,-2.308757436948640981e-02,9.206193685531616211e-02
5.566669469249558855e-01,3.812644047535713732e-01,4.896559077842605467e-01,3.328052867580998803e-02,2.922615388001095771e-02,-8.231795739384509258e-02,2.229723036289215088e-01
5.687084202400658484e-01,5.078344467332797096e-01,4.268530443423665388e-01,1.984641311612607342e-03,-5.968500761664122679e-04,-4.363386253339233273e-02,1.446302682161331177e-01
5.575853095279497129e-01,4.150333962396343668e-01,4.662229880329207821e-01,-3.051262263460479893e-02,-5.935888123785904719e-02,-1.084662598044245502e-01,2.535794377326965332e-01
6.289321795883099364e-01,3.559600809437654112e-01,4.388680370876680281e-01,4.278612736090758872e-02,3.612343111985141797e-02,-1.610837018763596196e-01,3.821079432964324951e-01
5.662420753972559062e-01,3.975241799602313719e-01,4.600498769548244105e-01,-1.963754046401518585e-02,-1.784168486065082146e-02,-1.178780378168561571e-01,2.561709582805633545e-01
6.035288165121255322e-01,3.853639262618043793e-01,5.295839349339422908e-01,-7.771109764969628443e-04,1.268012774248831326e-02,-5.900211464909888015e-02,2.187681496143341064e-01
4.966050895759674400e-01,5.693831709761482118e-01,3.532636704654791848e-01,-3.115761509252180927e-02,-8.987335857494901936e-02,-2.785084244187492272e-02,2.564109563827514648e-01
4.891139176634814456e-01,5.253792814799853605e-01,4.203428131988024563e-01,-2.564255276492648228e-02,-5.138165483033745040e-02,-3.348718081913054645e-02,1.476335674524307251e-01
4.316340138434854867e-01,5.561041617427645578e-01,4.063521312002169594e-01,-3.324330007676863652e-02,-1.257453167990010556e-01,-5.146163282873145173e-02,2.792395651340484619e-01
4.844757715912874629e-01,5.653022865668728691e-01,4.017813909710751807e-01,-4.939101828135850081e-02,-1.327492211434875002e-01,-4.841867964886822917e-02,2.954213619232177734e-01
4.873853480988617481e-01,5.073855980156529721e-01,4.996200331718100851e-01,-9.732273252534002009e-03,6.267655673986668140e-03,6.359453047482649911e-03,2.878073416650295258e-02
4.826815601425629709e-01,5.039785878116507245e-01,5.178304730397833566e-01,-1.012110395031865645e-02,9.825717454221200020e-03,1.200281569340746340e-02,4.438005387783050537e-02
4.938831154469288665e-01,5.155479429342585407e-01,4.921196554491916175e-01,2.072799484534921036e-03,1.030966402041736622e-03,-2.845494570365645400e-03,2.347441762685775757e-02
4.793424103795683733e-01,4.858465847923219560e-01,5.270684701150933904e-01,-8.312944122458500867e-03,6.328682104778904707e-03,5.348376360947132598e-03,4.922346770763397217e-02
4.836238449248930205e-01,4.686869770131741886e-01,5.241686260251213758e-01,-2.664741853570147187e-02,1.824506002737699695e-02,1.447751926416434784e-02,7.893224060535430908e-02
5.016228971104246259e-01,4.818557298803826661e-01,5.262471480355679354e-01,-1.126535715285588782e-02,1.431076295310636411e-02,1.273545422460183214e-02,5.445677414536476135e-02
4.806786749760839084e-01,4.987724015826199286e-01,5.181788996757336063e-01,-1.392707839144558847e-02,9.394535084487920865e-03,8.123424545166626001e-03,4.582317546010017395e-02
4.786817140108309832e-01,4.855616845077235233e-01,5.146656733630619041e-01,-9.227522841586522848e-03,7.032492316349072368e-03,6.646805353903086078e-03,4.038514941930770874e-02
4.909290808888710500e-01,5.472644383005238478e-01,4.709624028672662610e-01,2.670908837050975371e-02,-2.717916735051790003e-02,3.069763970968771016e-02,1.089974939823150635e-01
5.333480001231802881e-01,5.304835959269755818e-01,4.382910609081260844e-01,1.582677804615273756e-02,1.833390033934791108e-02,-8.008275885150947793e-03,1.035567447543144226e-01
4.780719980775754996e-01,5.436535965812483440e-01,4.415319367076051549e-01,6.410423413322346997e-03,-3.037353882672214067e-02,-1.544178023480488387e-03,1.045493558049201965e-01
5.445671433897416591e-01,5.521987768599483370e-01,4.318495898495984253e-01,1.702056967250620625e-02,7.416132225203860527e-03,4.475281124310581042e-04,1.210718974471092224e-01
4.615690761854592816e-01,5.739890920428604160e-01,5.086945817331612885e-01,3.836160451263473381e-02,-5.405686098983901455e-02,3.248842420398810604e-02,1.609626859426498413e-01
5.647892514004855258e-01,5.184616585313783776e-01,4.060777837759426134e-01,5.553431288676339943e-03,-4.620825861627748596e-03,-2.416269111631825367e-02,1.479558795690536499e-01
3.813950813443758858e-01,5.994778588809880349e-01,5.540149103165880051e-01,4.391480809702469346e-02,-8.078508388993370370e-02,3.352906688164129095e-02,2.616277933120727539e-01
3.581308896305900324e-01,5.506375156036663610e-01,5.258634149840292205e-01,4.683206068947558254e-02,-5.170696386259351213e-02,1.874642725583570285e-02,2.203592956066131592e-01
3.765801119835970878e-01,5.902626264077275309e-01,4.748476016783900189e-01,3.958515861584621653e-02,-1.105028043012757644e-01,2.072223465626495814e-02,2.773814499378204346e-01
7.817326206345651674e-01,7.181442765568012421e-01,2.330170180197442265e-01,6.567573413203943444e-02,-7.955163856174805870e-03,-8.999132420877953287e-02,5.546759963035583496e-01
4.248725804702113695e-01,5.363067120809662525e-01,6.019263577212254912e-01,-8.380621372850760586e-02,7.474409130247723632e-02,5.513745187963658284e-02,2.664332389831542969e-01
4.533577100165293028e-01,5.371585577234275766e-01,4.764865030090786324e-01,-2.857654355193304727e-02,7.300715301272828195e-02,3.856791451785538533e-02,1.688838452100753784e-01
4.742398486771975952e-01,5.396761727095717998e-01,5.364335894017649986e-01,-2.069963362752478761e-02,1.009542047245285540e-01,4.469844715131391505e-02,2.047798186540603638e-01
4.796900507621673082e-01,5.523099068687756796e-01,4.745729680224859415e-01,-4.701011118642014347e-02,7.574990087345374878e-02,4.003349327446530798e-02,1.852659285068511963e-01
4.286916132945758906e-01,5.025288217966398241e-01,5.257556708389797828e-01,-6.388326905865858441e-02,2.827103762404145626e-02,2.690475627632382682e-02,1.565854251384735107e-01
5.478711439653229931e-01,4.551879372787135392e-01,5.186155518135109332e-01,9.255603321579392029e-02,9.223720187412930149e-02,-4.644145596483033323e-02,2.538266181945800781e-01
4.930473113227166193e-01,4.850059651046689235e-01,4.725093032848721730e-01,5.670447073951102868e-02,5.994789682252327917e-02,-4.845621847498794710e-02,1.667116582393646240e-01
5.201149337374442183e-01,4.203630162862200259e-01,4.620437354838333177e-01,7.103557241346469819e-02,6.104600065337443399e-02,-8.112921017450246131e-02,2.315034419298171997e-01
4.578686588408892311e-01,5.204152882533913393e-01,5.160648226517169368e-01,4.741257870243686945e-02,5.572995003384818846e-02,-1.293467465991082754e-02,1.422046273946762085e-01
4.534033285915933797e-01,5.271677926598399289e-01,4.978648399818269565e-01,4.657780107503143446e-02,4.863970177467134837e-02,-1.792483338197979267e-02,1.367778480052947998e-01
5.051651669602427175e-01,5.516744948488730982e-01,4.806844285568961928e-01,7.357407473310510759e-02,6.012356369003758055e-02,-4.371501237948584306e-02,1.916193515062332153e-01
4.861345018732506906e-01,5.186936137503718180e-01,4.780793928808529936e-01,4.417235994053236858e-02,6.059670185551783994e-02,-3.552853281826252874e-02,1.484706997871398926e-01
5.541177233893053167e-01,4.599365064772721889e-01,4.340289227409782069e-01,-8.410131015774989505e-02,-8.683039871266304277e-02,-1.272220655630914299e-01,3.230716884136199951e-01
5.537422619657318412e-01,4.589938839415063088e-01,4.664739083097779737e-01,-9.542503918251158193e-03,-2.304327673511459215e-02,-5.019429412056053419e-02,1.332255303859710693e-01
6.241565850347872146e-01,4.645303430150960478e-01,3.663281774143848923e-01,-1.664136384763615154e-02,-1.152827047937346992e-02,-1.297341425767137291e-01,3.201908767223358154e-01
5.719177389491513219e-01,5.101491237828732483e-01,4.155605227387506040e-01,-1.076139019748148518e-02,-1.925201421761355697e-02,-5.121221415101473440e-02,1.671298593282699585e-01
5.332294607710142964e-01,5.339910591661116701e-01,4.129544264313670388e-01,-2.782624190595421945e-02,-4.191004254593353601e-02,-3.404124486613002709e-02,1.600841581821441650e-01
5.301710296948815015e-01,4.851685632482856669e-01,4.403255438081546402e-01,-2.209836049574291639e-02,-2.151545277318715407e-02,-3.510236900183393710e-02,1.122695431113243103e-01
5.119336321705594273e-01,4.889003335888753576e-01,4.624228338877257038e-01,-1.407994428834188558e-02,-1.182477970811099052e-02,-1.938252494538292292e-02,6.310873478651046753e-02
5.185207870916888062e-01,4.638355018372750660e-01,4.883115409794959172e-01,-1.253338206872697293e-02,-1.256461506103930675e-02,-2.204710274691876193e-02,6.822145730257034302e-02
4.928407099510075939e-01,4.864654592175713943e-01,4.803661221162060513e-01,-5.329843859173694076e-02,-7.688792707681198213e-02,-5.628272406394624339e-02,1.894132941961288452e-01
5.226291236131903606e-01,4.380126753449131716e-01,4.890755925641541713e-01,-5.580091575389651420e-02,-3.878862391150727368e-02,-6.035818412452881310e-02,1.738701611757278442e-01
5.321538848451858872e-01,4.356665795436723831e-01,4.838205716298306092e-01,-3.273759170783464845e-02,-1.962862077527298063e-02,-6.183093274653183452e-02,1.510716676712036133e-01
5.106869892927513588e-01,4.532720979772567604e-01,4.842686532993229487e-01,-1.940793829823990110e-02,-2.321578417559694296e-02,-3.009642901676272408e-02,8.911733329296112061e-02
5.145468909600046103e-01,5.025170951597167646e-01,4.838526553068020486e-01,1.035107348909836134e-02,7.366404899139498107e-03,-1.381767418830554678e-02,4.212620481848716736e-02
5.214967466608633195e-01,4.688287351300568506e-01,5.006888660240168543e-01,4.314608379273604868e-03,1.455886524949425234e-02,-7.185004944058723600e-03,5.438363552093505859e-02
5.193540556807945130e-01,4.708165004531114084e-01,4.914196280235310632e-01,6.015553224865882731e-03,1.093615589937643566e-02,-5.311668265066582691e-03,4.829449579119682312e-02
5.284850595086014735e-01,4.755737701395882366e-01,4.806624553766537522e-01,3.760140135171591291e-03,8.183017214866901076e-03,-7.772427751942046978e-03,5.459655076265335083e-02
5.360748653490066129e-01,4.744518369079218645e-01,4.735188658214155577e-01,6.478952918759725912e-03,8.064974356124547314e-03,-1.061334274910555493e-02,6.719189882278442383e-02
4.680569979705742623e-01,4.663090885315082090e-01,5.444652214401740631e-01,-3.272833542954180219e-02,9.297805393032768789e-03,1.414046747459206214e-02,1.002370417118072510e-01
5.204408957581809769e-01,4.871726502016594518e-01,4.850112781264837025e-01,1.073677927721855031e-02,1.089281897788820647e-02,-8.098160823303430719e-03,4.562772437930107117e-02
5.080569841028420575e-01,4.817330748096200765e-01,5.212700380777581799e-01,2.019333916961008751e-02,-9.665239074147576048e-03,1.521869137568473279e-02,5.842722952365875244e-02
4.926483013644424314e-01,4.866818629057716450e-01,5.235742334878983328e-01,3.553534718441792722e-03,-6.457202063410609656e-03,4.253864034311187134e-03,3.733342513442039490e-02
5.015206352926396827e-01,4.733490520000168122e-01,5.226568177811720117e-01,1.052397320077906942e-02,-6.450625781352427833e-03,6.957995777105580211e-03,4.937763512134552002e-02
4.923634868977522783e-01,4.901313891128204481e-01,5.156755219786484101e-01,2.647012677588925743e-03,-5.504825303068227281e-03,3.364484984740032190e-03,2.731952816247940063e-02
4.944253553421616987e-01,4.951494183784316272e-01,5.156676929646218932e-01,6.310834243082652506e-03,-5.672992457427605308e-03,5.605934721176566299e-03,2.732559852302074432e-02
5.297351472762106273e-01,4.925172239242936456e-01,4.712816319374957819e-01,8.738119300528833511e-03,6.925480996730813688e-03,-2.268654417706907761e-02,6.740517914295196533e-02
5.049461117076264882e-01,4.885033565538683398e-01,5.049980566763382361e-01,3.841012054668316734e-03,-8.099716304073762557e-03,3.240773933693964770e-03,2.331963181495666504e-02
5.099958902497188085e-01,4.963874517538596209e-01,5.087214035473471840e-01,1.392605724072636282e-02,-9.176360563083001826e-03,1.028289204156018072e-02,3.634701669216156006e-02
5.034202573024518790e-01,4.871556809766365292e-01,4.904319181658005622e-01,5.280464704546165150e-02,-4.629966027212303881e-02,5.375985810868030151e-02,1.539101004600524902e-01
5.827774583742001413e-01,5.097218148938430504e-01,4.909286896331884753e-01,6.262784934036511042e-02,-7.565547116361607573e-03,9.479971262751311911e-02,2.143890410661697388e-01
5.327508431005740785e-01,4.849960184155618359e-01,4.848521006257727195e-01,9.112208824417739050e-03,-3.906917544531290053e-03,1.404995826067222293e-02,5.634278804063796997e-02
5.615832229809052389e-01,5.073277876366407702e-01,4.829531051291397481e-01,1.553023051176110822e-02,-4.406860154304178233e-03,2.803205763979868190e-02,8.943964540958404541e-02
5.374149529576692785e-01,4.593313833560170867e-01,4.826820645445494828e-01,1.765207187753073696e-03,1.085204917408349361e-03,1.928213638761568788e-02,7.711859047412872314e-02
5.782121811816712809e-01,4.239836453415042339e-01,4.745263378425684797e-01,1.979962613709264699e-02,7.975271120488597321e-03,1.258956443445747586e-01,2.597343027591705322e-01
5.148513202281854717e-01,4.840938397247874225e-01,4.651656067001990191e-01,4.518566435152614191e-02,-4.256734922825047840e-02,6.398210593236650090e-02,1.604019552469253540e-01
5.668404595856506578e-01,4.834283632686518506e-01,4.478914503709200412e-01,2.071949223174233273e-02,-3.340910381925152849e-03,5.356934980748639247e-02,1.453102231025695801e-01
5.189974282746453449e-01,4.669248779943381833e-01,5.274790319031075203e-01,2.432686384061520310e-02,-1.192426923413052869e-02,3.109691274368868441e-02,9.125871956348419189e-02
4.771070146263808320e-01,5.056711393041352087e-01,4.974743569093609263e-01,5.198989906548107803e-02,-4.547708108018941320e-02,4.325114309656170192e-02,1.434374153614044189e-01
4.792154942406029461e-01,5.079333766347071677e-01,5.488014368130367249e-01,4.740319980209216355e-02,-1.912748669271550211e-02,3.461343384199679768e-02,1.228885725140571594e-01
5.043631172012008612e-01,4.124981227694226593e-01,5.509455022941328606e-01,6.299358574329801119e-02,-3.283434285761203941e-02,5.214485292272818401e-02,1.954085528850555420e-01
4.569966904653233741e-01,5.015165601489096625e-01,5.292259093955935523e-01,1.198967664905491691e-02,-4.918222357064127269e-03,1.220817203946271412e-02,7.024518400430679321e-02
4.742098404622470120e-01,4.684985603580770208e-01,5.307417547963844129e-01,-7.378314775031584449e-03,5.926861976142928055e-03,2.092686010891204023e-03,6.191272288560867310e-02
4.823847951003887302e-01,4.865518147610753963e-01,5.211144199378326958e-01,1.287161034519012336e-02,-7.669013207149093583e-03,9.280053312342925742e-03,4.783090204000473022e-02
5.103835915071468499e-01,5.090692210816033514e-01,5.730068713480359621e-01,6.929567107302286866e-02,-2.194852558774878712e-02,3.749169074676352020e-02,1.551562994718551636e-01
4.950582983626964917e-01,4.378174490869740643e-01,5.471054644529667055e-01,4.719844074745736806e-02,-3.849674827434030559e-03,1.157660526520164733e-02,1.268630623817443848e-01
4.965560852623810417e-01,4.992383153037903698e-01,5.247974119663250114e-01,3.937047900828778008e-02,-2.244747537500084433e-02,2.276313360298681115e-02,9.189814329147338867e-02
4.580485575449082525e-01,5.400144355399855156e-01,5.003204348451073535e-01,5.220793039676554191e-03,1.397560043169398906e-02,-8.565240320288589060e-03,7.699530571699142456e-02
5.101210644648643822e-01,4.745251158975598016e-01,5.522830490344207144e-01,2.735824449251348170e-02,4.142629450089970605e-03,2.973958543265655622e-03,8.287905901670455933e-02
5.585746184045207174e-01,5.365505144004844018e-01,4.275810942962033900e-01,7.511038080567941470e-03,-1.000133166158081663e-02,2.404049792438808092e-02,1.302402168512344360e-01
5.658267777091607886e-01,5.603336458418332056e-01,3.742162211460428045e-01,1.474036947166069110e-02,4.903926007627171918e-05,1.659775851030741156e-02,1.927966177463531494e-01
5.390230391652350850e-01,5.519070060969558655e-01,3.426403924602949846e-01,1.983798095528780878e-02,-4.316705899380541417e-02,3.314428737889178744e-02,2.265585660934448242e-01
5.554506603481653704e-01,5.594974055920912681e-01,3.901977627549729766e-01,1.388568887499082478e-02,-1.617307098990029834e-02,1.337086675457949299e-02,1.728962510824203491e-01
5.604074245803010168e-01,5.444496183760733077e-01,4.238486820331490712e-01,1.066100701952918915e-02,-1.734992586899498229e-02,6.913566506171212045e-03,1.345778107643127441e-01
5.625893796131178348e-01,3.981703943151083669e-01,5.050248324043626891e-01,-1.803179639627844680e-02,-3.821549674893163096e-04,-4.897326209176178224e-02,1.704511344432830811e-01
5.441081382445548398e-01,4.571461444953904829e-01,4.519062109763382629e-01,-8.200179629163051667e-03,-1.012232468377488939e-02,-4.995791991821122574e-02,1.266570687294006348e-01
5.133667857364763165e-01,4.986194748416203915e-01,4.757557549770591310e-01,1.076972148325442726e-02,5.874188107955255651e-03,-7.774947990330355850e-03,4.135504364967346191e-02
5.110412275022504502e-01,5.056509434201611475e-01,4.469181723236691495e-01,-2.203995977254524438e-02,-2.924840625530333166e-02,-2.284355437175946898e-02,9.687285870313644409e-02
4.893073807550507581e-01,3.984183298328267120e-01,5.145146555056074877e-01,-8.273409047537341743e-02,-5.598941724129009867e-02,-8.292215158266995345e-02,2.485050857067108154e-01
5.233546138814262338e-01,4.387561223147117828e-01,5.176442747260159294e-01,-3.365908573848606228e-02,-2.471520586754050869e-02,-3.486892417603843636e-02,1.248410120606422424e-01
4.085641115735232920e-01,5.649306897984647247e-01,4.660520660438767782e-01,7.413192229867736349e-02,-1.095635556464824301e-01,4.496123952240827643e-02,2.780824601650238037e-01
3.946560494740681824e-01,5.102967598144658723e-01,5.344852302254001764e-01,3.894508007324098270e-02,-3.591079320051315110e-02,2.283067270080740147e-02,1.635165363550186157e-01
4.148353790141616204e-01,5.293648636487586767e-01,4.726044513514582879e-01,7.115704940712869186e-02,-1.085777615026863735e-01,6.423013643501798708e-02,2.697626948356628418e-01
4.716812834180916236e-01,4.989533694795604268e-01,5.079667370597125142e-01,2.432734982132514143e-02,-2.130537980452947358e-02,2.049191817161027940e-02,7.394453883171081543e-02
3.547924086096284624e-01,6.084429770413870564e-01,6.053223984053860418e-01,1.569994266766814792e-02,-3.846058338165065510e-02,2.620160420803550883e-02,2.660704851150512695e-01
3.428247066092553474e-01,6.129029592089760836e-01,5.954004421883822840e-01,-2.897794059501755323e-02,-6.087337690945009844e-02,2.005981023214200784e-02,2.887293100357055664e-01
3.403081019352205416e-01,5.978688210064125874e-01,6.043900972813676109e-01,-3.691013492722836770e-02,-5.931039111778231565e-02,1.097089348494214092e-02,2.882030606269836426e-01
2.446695885607807208e-01,6.281744823963507640e-01,5.927438441759365073e-01,-1.459336409758196784e-02,-7.305596045868549548e-02,3.499000954074199532e-02,3.937852680683135986e-01
3.763779380196279334e-01,6.299535347190639012e-01,5.864487405291545219e-01,3.448771441386576375e-02,-4.496504178858634626e-02,2.116385591758810497e-02,2.571750283241271973e-01
2.386792950846575168e-01,7.451712936471093229e-01,5.755739051069339585e-01,-4.410241566261383778e-02,-8.988717506065824203e-02,7.568361958810646125e-04,4.790340363979339600e-01
4.880052461963375610e-01,4.622618989089759545e-01,5.187326286404295717e-01,-2.047971722550823506e-02,-1.239339995045615414e-02,-1.251916006216630302e-02,6.772851198911666870e-02
4.627583670014112083e-01,4.849568958869896473e-01,5.117705209073686312e-01,-2.044489392744238201e-02,-1.295964993108929438e-02,-1.214382762546165756e-02,6.330264359712600708e-02
4.783328725017160221e-01,4.400882843458501226e-01,5.085956253606965793e-01,-3.319030430692176958e-02,-3.605386652012729232e-02,-3.331824343921380854e-02,1.186196357011795044e-01
4.876125074674481641e-01,4.624545417917852452e-01,5.355059663239845058e-01,-2.391415424526886768e-02,-1.239602274592672623e-02,-1.258670205212061161e-02,8.236217498779296875e-02
4.883999092201690151e-01,4.497341913839422722e-01,5.079285536748101570e-01,-2.514030054664987204e-02,-2.221949512478652022e-02,-2.030285079035195825e-02,8.511953055858612061e-02
4.543477969908648051e-01,5.623504044897382759e-01,4.685466070899331203e-01,7.773619755233626347e-03,-3.791818233380635228e-02,8.503331955800467676e-03,1.226549372076988220e-01
4.125674520106137888e-01,5.934890799138943240e-01,4.167111666244774359e-01,-1.431903424938923280e-02,-1.374991557270532627e-01,-1.203598041305336749e-02,2.996128797531127930e-01
3.887138653926720533e-01,6.113740364726254484e-01,4.765430475467024030e-01,-3.446829207891798086e-02,-2.195913657675405972e-01,2.093802239841879159e-02,4.327539205551147461e-01
4.976065924012259001e-01,4.908062404273770274e-01,5.088223200495435306e-01,3.657026690848242615e-03,6.606899774668805077e-03,-2.096165712486918950e-03,2.079819329082965851e-02
4.631461346140338109e-01,5.422774104775710535e-01,4.929416282628620860e-01,1.520530463908471505e-03,-2.770078127033517509e-02,9.376285635133763119e-03,8.581640571355819702e-02
5.216429503552908464e-01,5.075851988405650772e-01,4.676680016981513699e-01,2.508981652963348033e-02,-1.866355839158333196e-02,2.731289255619671549e-02,8.673876523971557617e-02
4.911559588723097836e-01,5.053998484032008465e-01,4.912176561992870338e-01,2.619312698727394029e-02,-2.473250383480310802e-02,2.610778189000455621e-02,7.835938036441802979e-02
5.140506796376127507e-01,5.175710798794483924e-01,4.644524676753077896e-01,6.234434689742093111e-02,-8.590507842307293362e-02,4.918511093587903116e-02,2.090550363063812256e-01
5.303779671997123080e-01,4.885015384212819667e-01,5.140590376406164452e-01,4.264716335208957460e-02,-6.775788441561218789e-02,6.091875043207475166e-02,1.780437678098678589e-01
4.950630670261134680e-01,5.067471978059281401e-01,5.091470916837383953e-01,2.700681946450831511e-02,-3.007217630169758613e-02,2.433614849317305637e-02,8.275370299816131592e-02
4.827758808517999545e-01,5.480866747992173549e-01,4.441157417927567574e-01,3.362869682867961757e-02,-5.663701582075653801e-02,2.629094147437049597e-02,1.528875231742858887e-01
4.759122998489632161e-01,7.502245738710010547e-01,4.690214836702255585e-01,5.496169897069533294e-02,-1.984557197873586254e-01,4.423459831456776070e-02,4.585536122322082520e-01
5.630445460630326693e-01,4.814102926272895155e-01,4.539366688703957431e-01,2.270699533731586686e-02,2.406101089647384728e-02,-3.695315149631023255e-02,1.305448859930038452e-01
5.440732850654571573e-01,4.727955609614823418e-01,4.671839230850570734e-01,1.278347168759912632e-02,6.227117529963917264e-03,-1.831151046093607015e-02,8.440678566694259644e-02
5.403424271337287088e-01,4.488178958352694314e-01,4.910504850110100628e-01,2.173394951663389519e-03,1.324635071823951522e-02,-1.693642723897146110e-02,8.772747218608856201e-02
5.442467685965053370e-01,4.867341208422554799e-01,4.194290690507295749e-01,1.064172797680533814e-02,5.599206775768350401e-03,-4.095460873284495484e-02,1.310503631830215454e-01
4.991512905803337508e-01,5.096293647748051381e-01,5.002969127137895100e-01,7.353027157950282888e-03,6.776881934203827368e-03,-4.842603543149662411e-03,2.166634239256381989e-02
5.334764016228595862e-01,5.511004448949974321e-01,4.240250389085045701e-01,1.993127861981524272e-03,2.229724169387871727e-02,2.923789142929225301e-03,1.254920214414596558e-01
5.732318119989364691e-01,5.310885498432257323e-01,4.177437286127575478e-01,3.529141652448002098e-02,6.328316824971422228e-02,-8.824426137303151285e-02,2.418919205665588379e-01
6.085768481192991297e-01,5.104290431931799432e-01,4.190645148796871555e-01,2.837662404624288412e-02,4.074845562023795414e-02,-1.021453949264274214e-01,2.562142610549926758e-01
5.861378794823787208e-01,4.774496042111304739e-01,4.665052421079872724e-01,6.250452191152619519e-02,5.587870327326534964e-02,-9.101298738377600062e-02,2.430231869220733643e-01
4.221624226322369111e-01,4.334130578402895506e-01,5.511485577852912598e-01,-9.331875728116317825e-02,-2.612510550224554640e-02,-3.008840176480095246e-02,2.149453312158584595e-01
5.429933868074346970e-01,5.021870494894894454e-01,4.036409208107620272e-01,-1.059179514256111156e-02,-7.163097538380220827e-03,-2.864409623971905794e-02,1.354612261056900024e-01
4.289870984082299610e-01,5.004828447817131210e-01,5.632500906901752868e-01,-5.000204547516495096e-02,2.017684671040763725e-02,1.999964743928833721e-02,1.531693339347839355e-01
4.251060305374944059e-01,4.673885141146444933e-01,5.548465448149931811e-01,-5.407266645747037942e-02,1.631886385173952903e-02,4.253393893553012242e-03,1.508622169494628906e-01
4.231866362916604229e-01,5.125053916850658142e-01,5.684363511346643971e-01,-1.068291962343129037e-01,1.088938838585384525e-02,3.566039252895159689e-02,2.334736734628677368e-01
4.146254248224772176e-01,4.658654633694104263e-01,5.420062445928680583e-01,-4.882437548024476381e-02,-1.301171276914097827e-02,-1.090801176616502596e-02,1.426209807395935059e-01
4.127084828506445424e-01,5.126837374605985875e-01,5.763105382858548786e-01,-4.302991580215642653e-02,-8.070423303649400942e-03,-1.178730658801375878e-03,1.617368608713150024e-01
3.696780501089971249e-01,5.055295275399565025e-01,5.745813362123719514e-01,-7.468609502955539381e-02,-1.134982219744827200e-02,-1.228219329263161366e-02,2.240036129951477051e-01
4.439465203146144567e-01,5.641719354867037461e-01,3.921118374330847534e-01,8.912114795600726419e-03,-1.124240014087705408e-01,5.802199184114801601e-03,2.482530474662780762e-01
5.206905326188697725e-01,5.457819088084386872e-01,4.513850511066253568e-01,3.550808360310616502e-02,-5.809891263414686952e-02,3.528004285490977943e-02,1.575270295143127441e-01
5.431491715228926598e-01,5.154223713822261299e-01,4.762284856902369024e-01,6.148627348000180320e-02,-2.924715989917289066e-02,6.383764556576330962e-02,1.718291789293289185e-01
5.585408419411462821e-01,5.126571515370894616e-01,4.693421683997310856e-01,6.780673011378697546e-02,-4.804386136355506126e-02,6.904428907460745390e-02,2.024554014205932617e-01
4.971266667023405694e-01,5.060392197618471810e-01,4.964547784070970082e-01,1.226955606987273437e-03,1.623869513915553674e-04,-1.189817752527098493e-03,9.732196107506752014e-03
3.204761865534532239e-01,5.265841713638741428e-01,5.504365504856497671e-01,-7.080354352298733056e-02,-5.408565973894718243e-02,-1.625203195744827009e-02,2.693941295146942139e-01
3.456371440470338285e-01,5.594444346560722980e-01,5.623864601393683271e-01,-9.332432030426746072e-02,-4.199381827656464145e-02,-3.081767047408904073e-02,2.839351296424865723e-01
3.988249686432396857e-01,5.400178623688969282e-01,5.682578887963261050e-01,-4.931100968246449751e-02,-2.682781874762182883e-02,-1.633140918840958467e-02,1.870141476392745972e-01
4.155617260924173717e-01,5.447189064666313474e-01,5.096040624060788060e-01,-3.864670078471479225e-02,-4.976450803059496997e-02,-2.473420519989474528e-02,1.646962612867355347e-01
3.956413414392837558e-01,4.844342924738709866e-01,5.401563899809542768e-01,-1.037723733746069299e-01,-9.363167789389845175e-02,-6.345290312487877893e-02,2.943169474601745605e-01
3.956657021287324771e-01,5.015029002456682372e-01,5.295960222934930073e-01,-5.738856871597415588e-02,-3.752303569254655802e-02,-2.511792822230794406e-02,1.759575009346008301e-01
3.956187614774061556e-01,5.060629933003132352e-01,5.536206241496332003e-01,-6.040469857377317453e-02,-3.481068883025628669e-02,-3.447259531481311479e-02,1.945732235908508301e-01
4.611982092776865105e-01,5.169098220654881892e-01,5.269479863680518461e-01,2.438927796040895810e-02,2.377241413115205662e-02,-1.246266527754516171e-02,8.780454844236373901e-02
4.976856516301776945e-01,5.180372040424717772e-01,5.087006418183318557e-01,1.064989373354885589e-02,1.317065497570142282e-02,-9.386328028301820295e-03,3.789870813488960266e-02
4.957721762641331131e-01,4.968223919385150733e-01,5.031011403345305721e-01,1.051191571495566426e-02,8.661908847288315311e-03,-1.019763284139456501e-02,3.026023693382740021e-02
5.080562008245643746e-01,4.909171681799280873e-01,5.070111468251993214e-01,1.078977034425483532e-02,1.244166301228712308e-02,-7.629235703761249633e-03,3.556944429874420166e-02
5.122028905205846527e-01,5.099039240502438730e-01,4.910468625893799621e-01,1.266480456520619954e-02,1.119639703982980988e-02,-7.685292899761996498e-03,3.793002292513847351e-02
5.046728716205599596e-01,4.706332579028607022e-01,5.169834137975685140e-01,2.127559573584054953e-02,2.281214523502128957e-02,-2.111736573370074505e-02,7.737088948488235474e-02
4.747434158367848100e-01,5.221403823898620455e-01,5.010961563390784468e-01,1.641000048626635108e-02,2.235048772906018943e-02,-8.759125469559030097e-03,6.502740830183029175e-02
4.678565966682136645e-01,5.157569852806765942e-01,5.504691927107345784e-01,-3.146724026484402914e-02,2.342001979061298506e-02,1.696161033766438800e-02,1.031564623117446899e-01
4.692798545149707845e-01,4.701253563297046467e-01,5.420621185182390445e-01,-1.627284087968304885e-02,1.347910660888007768e-02,9.463528306358322956e-03,8.273200690746307373e-02
4.542472450534112971e-01,4.709268127783748925e-01,5.254266540747603020e-01,-9.882576979327274691e-02,6.307990840116946274e-02,4.631963883578716495e-02,2.276638448238372803e-01
5.282525087176469514e-01,4.203638892370495928e-01,5.541189271899723545e-01,-4.746709495732776701e-02,3.105670668769927242e-02,2.831447222235986688e-02,1.647961735725402832e-01
4.160359577936944553e-01,4.589584811815117793e-01,5.477963003639552131e-01,-5.537011151080312860e-02,-5.903392762095715021e-03,-5.200555203149524915e-03,1.514294594526290894e-01
4.983680151362850363e-01,4.179755506941897902e-01,5.484249891585953884e-01,-5.068248679213310098e-02,-9.976296045443155264e-03,-1.052371548505120179e-02,1.460473239421844482e-01
4.910192245015036483e-01,3.800164398387742559e-01,6.246423299297474419e-01,-8.909503269463249497e-02,-2.636136527228381821e-02,-8.815703893514154413e-03,2.667226493358612061e-01
4.220345119254967914e-01,4.111792720353061870e-01,5.683529305122362318e-01,-1.097659238523352870e-01,6.440403204986654313e-03,7.191177106589690185e-03,2.440091967582702637e-01
5.087808415711742027e-01,4.291359533698164141e-01,5.769813409309418883e-01,-5.140896347171305947e-02,7.876160639545262340e-03,2.608738199115614390e-03,1.567214131355285645e-01
4.243918452257287033e-01,4.148268022101342378e-01,6.314368190791952440e-01,-1.124926678578781619e-01,8.909175446876575755e-04,-1.277701718704385252e-02,2.887826859951019287e-01
5.610868000777263775e-01,5.465594558849929951e-01,3.955769219748112020e-01,8.547863879552039870e-03,1.485947344794633432e-02,1.908196202927488552e-02,1.648457348346710205e-01
4.922365566903852407e-01,5.084050405466672418e-01,5.027471036636490531e-01,9.391493748379460722e-04,2.578056672814761380e-03,-5.888761060035421248e-03,1.812648586928844452e-02
5.639984796678130241e-01,5.642703410135254671e-01,3.786519143341430804e-01,1.529384783765785905e-02,-7.228499016639258756e-03,1.395396515234096323e-02,1.893314868211746216e-01
5.581618582835684572e-01,5.501445476576645177e-01,3.162695168306428051e-01,1.410707309696763382e-04,2.608341790613223632e-02,1.682376018989847552e-02,2.439816892147064209e-01
5.531091441564855993e-01,5.314126129534419984e-01,3.657174131412767037e-01,3.026440184105099254e-03,-7.355222218513235086e-03,4.153928745480413992e-02,1.920597851276397705e-01
5.579871197423783569e-01,5.444685103469093512e-01,3.930843017516988946e-01,5.155654008906370399e-03,-1.276040492272179083e-02,5.247424210718747671e-03,1.606152802705764771e-01
4.639114763927361662e-01,5.402297491374558058e-01,4.618109624146354286e-01,2.036920670892888516e-02,5.386670691838281455e-02,-1.422446409288959795e-02,1.286304146051406860e-01
4.760148301591375364e-01,5.526178623972465287e-01,4.800272720496880918e-01,5.576487222034793960e-03,3.684496406666229462e-02,1.513863217019210256e-02,1.021285429596900940e-01
4.880039287087411526e-01,5.379944686397922782e-01,4.550696140645027477e-01,4.541263446496366166e-03,1.846736471785875508e-02,-1.043763736914287473e-03,7.948833703994750977e-02
5.062927638023716481e-01,5.347310039818043981e-01,4.809069281026424059e-01,1.021081567847178552e-02,2.327819310371771408e-02,-8.421580475747276334e-03,6.577444076538085938e-02
5.000100682335862912e-01,5.460502183183018055e-01,4.695050452133426311e-01,2.714656795975181267e-02,5.856367238625945909e-02,-3.716563906935474448e-02,1.452531665563583374e-01
4.800884470420671568e-01,5.317709002351537206e-01,4.765725874607285584e-01,1.098939456411365985e-02,1.829830411237686263e-02,-8.297141706899158198e-03,6.662175059318542480e-02
5.022393928035419064e-01,4.880256194209766085e-01,4.875900360661484800e-01,2.906937820891728960e-02,3.003871837552834698e-02,-2.913322197258963811e-02,8.942430466413497925e-02
4.601369342502468207e-01,5.941469100440774920e-01,4.946420480724191271e-01,1.918806140328302434e-02,8.290471819996642067e-02,1.262365115222428662e-02,1.916440427303314209e-01
4.824927127556672968e-01,5.391226818192939030e-01,4.727163977512135462e-01,4.200449551850130026e-03,2.454626847163837375e-02,-1.355095515562395030e-03,7.564496248960494995e-02
4.830354055173177175e-01,5.442439645134090620e-01,4.790648012944364598e-01,5.163175773324068726e-03,2.549735829862847039e-02,-9.274900522415136309e-03,7.933272421360015869e-02
4.997179198669400302e-01,4.862677591035948765e-01,4.811364911593550286e-01,-4.743760426013213065e-03,-6.063294273740241734e-03,-4.360600892508537628e-03,2.260747738182544708e-02
4.895574932863016593e-01,4.884321875260432821e-01,4.848362084328223798e-01,-2.445852211625134612e-03,-2.597085298504842217e-03,-3.303655870903259191e-03,9.442855603992938995e-03
4.882132552045154728e-01,4.944267059707140310e-01,4.625133498813735478e-01,-1.178102659161843306e-02,-5.991994871754264748e-03,-5.756658893500204814e-03,3.850044682621955872e-02
7.419846662472779908e-01,7.526265649917462941e-01,3.248097617058064990e-01,1.136622229699696535e-01,1.789007973311071698e-01,-3.006796008556325908e-02,5.622043609619140625e-01
4.935450912017223524e-01,4.904443827240049791e-01,5.218993054403407994e-01,1.010949383656786597e-02,7.378592805638684894e-03,-3.479213223451783649e-03,3.751993179321289062e-02
4.866509939423283027e-01,4.853906312323209016e-01,4.841038426547460416e-01,-4.835310094105670954e-03,-3.896302975423247307e-03,-4.545668185520576436e-03,1.351072359830141068e-02
4.867149790461026138e-01,4.961972336285687679e-01,4.727041383442328604e-01,-6.625709157192725442e-03,-3.326608338982986208e-03,-4.068351931454003770e-03,2.517190203070640564e-02
4.680963557748459292e-01,5.307103622606128557e-01,4.922769601011983132e-01,1.748451412922800378e-03,-6.239838472891461388e-03,5.515376231933682982e-03,5.664280056953430176e-02
4.893538225595125968e-01,4.954702890543410954e-01,4.704953859693247198e-01,-8.473203658850216036e-03,-2.129055971504782360e-03,-2.581737795188512440e-03,2.752052061259746552e-02
5.362133444140567695e-01,5.929383828371002085e-01,4.893104249121829619e-01,-1.845901576886027282e-02,8.745181312835378917e-02,5.818819369804378167e-02,2.054299116134643555e-01
5.045223431303210715e-01,5.059449165310534458e-01,4.872480687705673108e-01,7.582381352248433563e-03,1.871201923715254964e-03,-9.673856636660140397e-04,2.260060608386993408e-02
5.052429657019965603e-01,5.792462287333617343e-01,5.196156631339474696e-01,1.489291565432842267e-02,1.088198932370476324e-01,6.942873079477883402e-02,2.350982427597045898e-01
5.229872671409397933e-01,5.778192992879992440e-01,4.427779477888123538e-01,4.597463238062834620e-03,6.967485169801444778e-02,7.211478217320231587e-03,1.691783368587493896e-01
4.885593296303363808e-01,5.188992749308037888e-01,4.978722109927680162e-01,-9.696470878140394170e-03,8.084714773720403508e-03,1.290472392367352644e-02,4.126061126589775085e-02
4.910461689332231705e-01,5.205799838279228098e-01,4.633997264421079176e-01,-1.331310150105889656e-02,2.967521227399182865e-02,1.799580359362262100e-02,8.122926950454711914e-02
5.064177554618719546e-01,5.258186543167862048e-01,4.920943408610658487e-01,-9.306432748528888077e-03,1.300966213953970094e-02,1.291662064630240934e-02,4.612529277801513672e-02
4.871399325436343575e-01,5.176891728267500881e-01,5.051546589724055236e-01,-1.065764404996881465e-02,1.363379255850829912e-02,1.260248020343817353e-02,4.563238844275474548e-02
4.689930964551212722e-01,4.701485139725256057e-01,5.186153395651945663e-01,-6.202599750095018696e-03,-7.076811298898542761e-03,-7.175199350488038925e-03,5.316463485360145569e-02
5.105163469540958676e-01,5.335058152610334670e-01,4.880995260908539968e-01,-8.344706969288210804e-03,2.527510544412119725e-02,1.262529627795590595e-02,6.442026048898696899e-02
4.964638950721147470e-01,5.047849223866435198e-01,5.002055564159164636e-01,2.072478424166800635e-03,1.294520256879923758e-03,-3.672633840039279691e-03,1.051107142120599747e-02
4.983233272844171946e-01,4.989814009284335716e-01,4.998330068401853898e-01,1.342057935682711015e-03,1.643236435768742447e-03,-4.167554039672410719e-03,8.205380290746688843e-03
4.941965169882654441e-01,5.090943984991456173e-01,4.996973574866597212e-01,2.347014279440396301e-03,2.760269890895361046e-03,-4.859420234986947147e-03,1.674753241240978241e-02
4.990341763443055800e-01,5.106835645278549052e-01,4.953260745301802381e-01,6.086390504126802485e-03,4.698730619848557818e-03,-4.753972682661176258e-03,2.092421613633632660e-02
3.156486465401411867e-01,4.168097223074110347e-01,5.803538079728598476e-01,-2.198725091381671937e-01,-1.124587736644798719e-01,-9.312974433304530009e-02,5.123637914657592773e-01
3.392255814214009124e-01,4.991595089156243281e-01,5.574890649408973387e-01,-9.147560635898178971e-02,-4.243710854582210396e-02,-2.645076313992688818e-02,2.662988603115081787e-01
3.685536479817277389e-01,4.700981168956266942e-01,5.719892939727004855e-01,-8.897414561582642212e-02,-1.251478332495745312e-02,-1.008221266023426321e-02,2.357192933559417725e-01
2.736229525400146745e-01,5.226113796034299597e-01,6.501344800443075167e-01,-1.372593085336600016e-01,7.095595701104179601e-03,2.724484113417652981e-02,4.109834432601928711e-01
2.859066995250938992e-01,5.397340405814017306e-01,6.936979252740305135e-01,-2.147467052928359044e-01,-5.330423120849754615e-02,5.937564470894635821e-02,5.335375666618347168e-01
3.271596787830607367e-01,5.229345702557451903e-01,5.531244104955264085e-01,-2.334012266625442866e-01,-1.211148714548787864e-01,-3.552675818596881530e-02,5.063308477401733398e-01
5.001945192065273549e-01,5.041964962539163819e-01,4.962470983268728597e-01,2.145199781962488662e-03,2.168065302001740996e-04,-8.539555337468444571e-04,7.970559410750865936e-03
5.011500415475833581e-01,4.593860121953985964e-01,5.466739489216322356e-01,1.875976725445908933e-02,1.536819981411589832e-03,-6.148396528288700529e-03,8.303133398294448853e-02
5.322606582875575310e-01,4.530343663639708196e-01,5.394806778966064753e-01,2.558672224224694744e-02,1.559892840183313249e-02,-2.433386514551459656e-02,1.066366806626319885e-01
5.125425536587849829e-01,3.934186536084746111e-01,5.222285683548416602e-01,5.110530310132463394e-02,2.861407412509438253e-02,-4.751171612963681762e-02,1.802825480699539185e-01
5.310515789282577170e-01,4.222619248229756983e-01,5.341836966740184378e-01,2.899747832238881023e-02,1.960207707301307029e-02,1.735508158190801685e-04,1.259409189224243164e-01
5.211881856852172978e-01,4.648838354108801862e-01,5.622388981944466124e-01,7.867939430627547692e-02,6.000628133421329578e-03,-5.003056786979922718e-03,1.610004007816314697e-01
5.019489222762449909e-01,4.689491435191414093e-01,5.385024210770263942e-01,8.692818931825173345e-02,2.600305448739857403e-02,-5.707549854880430290e-02,1.951979696750640869e-01
4.837317527953606255e-01,4.772425091266197517e-01,5.427265397462873731e-01,4.148569306484051894e-02,1.936167102344315410e-02,-1.315639923676423760e-02,1.035007759928703308e-01
5.269745960066791746e-01,4.817080974446567576e-01,5.807285819986796049e-01,9.733814046311141388e-02,5.280191979262183199e-02,-3.415605433357620652e-02,2.183116525411605835e-01
5.383311862830547634e-01,4.552145502138261746e-01,5.912261182299366480e-01,9.079369779312798650e-02,3.150408215463551542e-02,-4.401342049759005004e-03,2.046187222003936768e-01
5.151266655339089562e-01,3.855198243154248638e-01,5.411913538406679658e-01,5.055120569130257951e-02,2.875120222469827388e-02,-2.830287274572161269e-02,1.827697753906250000e-01
3.835658182076315814e-01,5.938524758509241552e-01,5.104982019670284421e-01,-4.852137232924674110e-02,-8.182819747383397735e-02,-2.792254115879468437e-03,2.466050386428833008e-01
4.286981024564898712e-01,5.421606015272008028e-01,4.987411319814650801e-01,-5.382664609633669613e-03,-1.092640092829989980e-02,-5.180562721535891466e-03,1.017747521400451660e-01
4.697544140579160699e-01,5.337207788367264172e-01,4.647709215390459225e-01,-1.543649002650205162e-03,-3.493464227966029245e-03,-6.632924759796778773e-04,6.693570315837860107e-02
4.160701054026277323e-01,5.786686725176897195e-01,5.124966294060617766e-01,-5.317255238156758101e-03,-5.007139875147665481e-02,2.756842173206450284e-03,1.663929373025894165e-01
4.130349876324110325e-01,6.198705796008076030e-01,5.149581160782865652e-01,-1.852646826824853703e-03,-1.175883933412629756e-01,3.399975935733780784e-03,2.713190317153930664e-01
3.674900616375995632e-01,5.122164501989133756e-01,5.091810652919066538e-01,-7.123632486354218585e-02,-7.504889562226162159e-02,-4.596038183905793578e-02,2.428447306156158447e-01
4.222221572058869055e-01,7.092439492423291414e-01,4.726224953887381841e-01,-5.501928118547665114e-02,-2.196503458677987741e-01,-5.293683910076638077e-02,4.823720753192901611e-01
5.171677672110117641e-01,5.526527105732141898e-01,4.048725875185809064e-01,4.779789480970211141e-03,-2.047868859668450919e-02,-1.768248339869014484e-03,1.385287940502166748e-01
5.059095818598567940e-01,5.754226066305202503e-01,4.200948398036946640e-01,-2.012291917570747067e-03,-4.599804554653751792e-02,-7.538447757035592403e-03,1.571355015039443970e-01
4.664980663012990858e-01,5.484937535970975109e-01,4.792625270277502958e-01,-1.273581695285767347e-02,-2.988239516575624463e-02,-1.132218094887051107e-02,9.690017998218536377e-02
4.527340981252778729e-01,5.314592265892266187e-01,4.790985043073235916e-01,-2.148852828118390582e-02,-3.873516213574730582e-02,-2.514764344412992111e-02,1.122537627816200256e-01
6.311070965723596382e-01,4.740638508449230848e-01,4.163437019608775547e-01,-1.190036374587737956e-02,-2.276901048437670813e-02,-1.423961693942192575e-01,3.160204291343688965e-01
5.079506057130673824e-01,5.072627929536106528e-01,4.888220863902723590e-01,1.950496891215821454e-02,3.062396958965424992e-02,-3.473825717128096319e-02,8.904083073139190674e-02
5.330029110325205099e-01,5.283075408762117897e-01,3.374074685538946961e-01,-1.252086958564610844e-02,-5.554978037795464674e-02,-5.978791071701416993e-02,2.404426485300064087e-01
5.467884511278555681e-01,5.094542495877900645e-01,4.188427880543292292e-01,-9.507857377750977834e-03,-1.149714441666121155e-02,-4.879622795525167395e-02,1.442156434059143066e-01
4.654380810166258708e-01,5.381246828973574869e-01,4.719172002129616295e-01,-2.864979575230318701e-04,-2.277386715129670926e-03,-5.020182827304627568e-04,6.979210674762725830e-02
6.409595944166094350e-01,5.218399404536674391e-01,3.532735672382982250e-01,8.917412512116853693e-03,-2.333820551738658572e-03,-1.008535926021053575e-01,3.057007193565368652e-01
5.967917802280322537e-01,5.246601341591338175e-01,3.544463638664816507e-01,1.126013098111276756e-02,-2.201120908900089379e-02,-9.122995436617489795e-02,2.706585824489593506e-01
4.599067664801735345e-01,5.220928313808118615e-01,4.252513707478552396e-01,-6.702329727832959105e-02,-1.109568103819029705e-01,-8.282383443817942226e-02,2.796661555767059326e-01
4.748555555363820346e-01,4.833112202160202431e-01,4.736459552260003369e-01,-8.530097840202881254e-02,-9.574893537486253714e-02,-1.220105305048482386e-01,3.067168891429901123e-01
5.038701993161007753e-01,4.886039196134790985e-01,5.017620663159230165e-01,-6.384280968645224263e-02,-6.061168304795291895e-02,-6.310663385931604419e-02,1.881534010171890259e-01
4.250652196873609956e-01,5.254863830626644861e-01,5.136492633632154803e-01,-9.250700621123982004e-02,-7.352275892983188565e-02,-6.445915699518849074e-02,2.517741024494171143e-01
4.656015057868356788e-01,4.427832523629878780e-01,5.106077007694238556e-01,-1.054341795206711063e-01,-9.590577019253224145e-02,-8.143194459238448091e-02,2.905331850051879883e-01
4.835642662199436392e-01,5.389601932542429363e-01,4.359438771542835656e-01,-8.788785971296633748e-03,-1.452821669771205311e-02,-4.804389116971262592e-03,9.438520669937133789e-02
4.399783961687844247e-01,5.367294932558122067e-01,4.710888490549025587e-01,-6.137212664320864514e-02,-9.197864817948481209e-02,-5.933356277178971488e-02,2.335806190967559814e-01
4.350894955978917844e-01,5.493354849435720944e-01,4.661385013948323719e-01,-2.019478715503814775e-02,-4.559971353375014830e-02,-2.690220739360488222e-02,1.417802423238754272e-01
4.526894703658905228e-01,5.423004721081187141e-01,4.535285806618024051e-01,-4.604746310892262294e-03,-2.713534915777462281e-02,2.459873608105478740e-03,1.012244448065757751e-01
6.004176669280211209e-01,5.933019214457160295e-01,3.902962056399058577e-01,3.633521012124114186e-02,-2.106966007878767130e-02,5.290255498564015030e-02,2.374764531850814819e-01
6.006606592291036106e-01,5.700053865757596094e-01,2.886775210441476780e-01,-8.853339449186758969e-03,-2.489832889656018108e-02,-1.918707256922896204e-02,3.031643927097320557e-01
5.914954340282625456e-01,5.963388503743047853e-01,1.697335723099789306e-01,-1.378491524296304423e-03,-6.999398528848194134e-02,-1.058821214282931883e-01,4.777923524379730225e-01
6.471023500087497160e-01,7.302734370617138815e-01,1.935449700499392578e-01,7.294397041760815326e-02,-5.767941774171154307e-02,-8.340038620761502930e-02,5.451281070709228516e-01
5.766681276043837956e-01,5.692525402724182282e-01,3.112030307698543941e-01,4.863321162957123800e-03,-7.564377815872738720e-02,-2.062683294858800101e-02,2.950786650180816650e-01
4.841421438413712752e-01,5.008153288867706054e-01,5.344001168037971761e-01,-1.450795482152974006e-02,4.806054619596039981e-03,1.068008781930969951e-02,5.485278367996215820e-02
4.178623480190830630e-01,4.661276853100406736e-01,5.489625560789301861e-01,-5.372538598553153188e-02,7.523513834379178498e-03,4.524205634316957360e-03,1.485923230648040771e-01
3.352341809722586552e-01,5.518859174427137582e-01,6.046159354389036844e-01,-4.400878006096402284e-02,-9.355352059802099843e-03,1.861759211114781890e-02,2.612569928169250488e-01
4.100288311957303033e-01,4.602569025536653036e-01,5.750715692615329111e-01,-1.400195479229343065e-01,-6.892382915424089679e-03,-1.535922799678328225e-02,2.848488092422485352e-01
4.531637211980869551e-01,4.126362813179234035e-01,5.505475339934892132e-01,-6.100905291635308481e-02,-8.624062148096509062e-03,-1.298276723035216886e-02,1.642190366983413696e-01
4.549217434459212894e-01,4.858524039238982795e-01,5.280833311125988638e-01,-3.119747919940450004e-02,1.218585208644752324e-02,1.648203389922584319e-02,9.070111811161041260e-02
5.721907964176993211e-01,4.715077736582661827e-01,4.935802428747070314e-01,3.154420734271368848e-02,-8.029977767318525333e-03,6.701932511207399357e-02,1.582885533571243286e-01
4.621372959652862988e-01,4.833100049737367732e-01,5.562896388804526859e-01,-2.486692411886656101e-02,2.942158239456515220e-03,-1.030882751895724611e-03,9.593610465526580811e-02
5.572809030663861130e-01,3.919241935589745651e-01,5.338673234397666167e-01,1.175012378566818796e-02,1.859576276058903452e-02,-1.546266210460841943e-02,1.618280857801437378e-01
6.025458486893293664e-01,4.040651843978524393e-01,5.512599106754461076e-01,6.177520747440373022e-02,3.666247412173511550e-02,-3.454557452452720889e-02,2.256250977516174316e-01
5.248286776489449190e-01,4.837338177407083384e-01,4.793119452527150326e-01,4.833833129334846705e-03,3.820821930209560707e-03,-2.205127161525438292e-03,4.492814466357231140e-02
5.562881094754706934e-01,3.998613441166017357e-01,5.728629052996800919e-01,5.402967695878496679e-02,1.995214763948071832e-02,-3.971778176456685489e-02,2.049906998872756958e-01
4.726671310444526819e-01,5.359348898343786471e-01,5.188445925115935387e-01,4.279694668402386770e-02,4.248623360480757727e-02,-1.215085930296851482e-02,1.206918731331825256e-01
6.306912436077192208e-01,3.440683593312210409e-01,4.220381407140747498e-01,6.791232809508584989e-02,6.633682104425031589e-02,-1.727980255247360819e-01,4.271996021270751953e-01
5.486535861299910444e-01,4.506077179295706059e-01,5.141921870990504573e-01,1.406176612628618448e-02,1.347054741324171107e-02,-3.138546028434836821e-02,1.073055937886238098e-01
5.511452529245647325e-01,4.259658222803879846e-01,5.113971767587840445e-01,2.888870395180954259e-02,1.128302103433770701e-02,-4.764430329799765329e-02,1.482217460870742798e-01
4.588319750340910663e-01,5.318304937657279963e-01,4.546107172795135765e-01,-9.434232284436490715e-03,-2.145257011008618736e-02,-8.249564546381290067e-03,8.664044737815856934e-02
5.574779932993649822e-01,3.551365350495965245e-01,5.330586201633794596e-01,2.624414168955870388e-02,1.458667803223343516e-02,-5.850915708822129052e-02,2.226473987102508545e-01
4.857096504244307056e-01,5.183464445439216473e-01,4.653406980059234255e-01,-1.172533217388423664e-02,-1.826541940655295251e-02,-1.245886293112026186e-02,6.343365460634231567e-02
5.660672879553048098e-01,4.148306665632757184e-01,5.151165682772821386e-01,6.748780630028664886e-03,1.754890363495994685e-02,-5.095560921157245293e-02,1.631343960762023926e-01
5.545815424218484280e-01,5.536511036360524107e-01,3.350277518642763019e-01,-4.180867729933672103e-03,-1.288428707757660087e-02,-2.697638521543951201e-02,2.252422720193862915e-01
5.471100067665564115e-01,5.571058410612241829e-01,3.589727379423922615e-01,-3.414726481057120226e-03,-2.472491660081499454e-02,-1.770912377739583543e-02,2.004642635583877563e-01
5.568459059116332988e-01,6.115090007114395432e-01,3.455770513988920545e-01,1.408271203554611710e-02,-3.577620942821571615e-02,-5.106410264330708132e-02,2.672612965106964111e-01
5.829073242978973779e-01,6.112373448954737665e-01,3.559160857902126107e-01,1.448401669728671334e-02,-5.767834513268756125e-02,-3.288998110414909776e-02,2.694684863090515137e-01
6.156256540374553943e-01,5.796541383773690104e-01,1.804045765979591098e-01,2.243944392938160975e-02,-1.371259241594605105e-02,-9.988927762530236398e-02,4.550429284572601318e-01
5.843182185354638403e-01,5.588193062642073938e-01,3.459118288205049185e-01,6.239024155839057936e-03,1.472376486688505319e-03,-1.353429581154272712e-02,2.282137423753738403e-01
3.122450845875500702e-01,6.752442315051149224e-01,6.028945454973392293e-01,-1.180884486189846261e-01,-1.701638682661828217e-01,-4.726073780773855371e-02,4.961276054382324219e-01
5.909910678000117601e-01,6.153058442170986631e-01,3.184659893797431307e-01,4.044418373658245983e-03,1.550860063605886564e-05,-1.505942904025893252e-02,2.867349684238433838e-01
5.042036832886058750e-01,4.738921378938489304e-01,4.890700000500602385e-01,-2.846187719138449854e-02,-2.321586072292642494e-02,-3.442677391694123207e-02,9.105967730283737183e-02
4.844012699032082536e-01,5.370355404277603606e-01,4.693649065928994779e-01,3.591391098631731456e-03,-3.495204740833159594e-03,-1.179680465673677253e-04,6.215522438287734985e-02
5.458164508344929278e-01,5.530821560481713473e-01,4.243137158938993236e-01,-1.516196285307259452e-02,-4.960767038426792258e-02,-4.536588760995052816e-02,1.730465739965438843e-01
4.408849842485950132e-01,5.380534799553338132e-01,4.783042146478455603e-01,-4.399388743783096134e-02,-6.291637402007925484e-02,-5.727144576241013224e-02,1.863539516925811768e-01
4.665661971674542330e-01,4.368345481893590176e-01,4.584387910798963239e-01,-9.852092338877233013e-02,-9.111544082234965258e-02,-1.005126687117277873e-01,2.916195392608642578e-01
5.538847629811740614e-01,4.640351058903854908e-01,4.179158144222808735e-01,-8.016566472230629570e-02,-9.237540566361118755e-02,-1.262836502243964987e-01,3.272089362144470215e-01
3.744398529681638443e-01,6.212433181077372524e-01,5.258175064971971624e-01,1.928700859297301923e-02,-4.910505558319559066e-02,2.835418138221891537e-02,2.392245382070541382e-01
4.587564105422482497e-01,5.573739368060923738e-01,4.042072718897922190e-01,-1.399427261412086905e-02,-6.400387082897486535e-02,-2.366770887367221007e-02,1.806599348783493042e-01
4.672442717815364355e-01,5.326141262792366549e-01,4.182419583969809174e-01,-2.285472814276714656e-02,-4.366155813874546265e-02,-3.005849972349333363e-02,1.409761309623718262e-01
4.334566524693041489e-01,5.383458086716745861e-01,4.416808540520133497e-01,-1.418008431242517332e-02,-5.525635531704974068e-02,-1.801264139154471269e-02,1.447174102067947388e-01
5.512961266241064306e-01,3.920984988893286838e-01,5.696367011700270711e-01,1.657936785270690619e-02,7.633381195353995848e-03,-1.967272989772072406e-02,1.753867715597152710e-01
5.713327437617725657e-01,3.886870912455420157e-01,5.022235470125634427e-01,1.409103404761047861e-02,1.780349189854881983e-02,-7.055366661548556628e-02,2.049220502376556396e-01
5.502130474418592820e-01,4.329416579510758090e-01,5.929203803489269120e-01,6.711444554882702029e-02,2.977064269478349109e-02,-3.650405252150388385e-02,2.018771916627883911e-01
4.308882424326308525e-01,5.365778637974035759e-01,5.059157345854691235e-01,-2.553998559298956486e-02,-4.008738124043586398e-02,-1.152831647933745367e-02,1.266742497682571411e-01
5.926880182114642182e-01,6.088919696001433568e-01,3.568575723247552345e-01,2.467509689083971849e-03,-5.074082722270997076e-02,-4.153718347853935233e-02,2.694775164127349854e-01
5.176228618830087669e-01,5.423812570678194778e-01,4.380616489447690665e-01,-9.146149505485237988e-03,1.664695256910600496e-02,9.589602488120860593e-03,1.013458073139190674e-01
5.812986908098116690e-01,2.071471628935250553e-01,5.315309977320541446e-01,8.390618097769696193e-02,6.616316842119891739e-02,-1.440127949276612251e-01,4.693804681301116943e-01
5.623581489090391239e-01,3.816017935658937987e-01,5.688973647271238221e-01,3.510573781595366372e-02,2.567975411753354795e-02,-2.448152044376843139e-02,2.033992409706115723e-01
5.890346242343229566e-01,3.563929266055949063e-01,5.775878324342458292e-01,3.631126945150937174e-02,4.512906170380210497e-02,-3.577994831032286355e-02,2.559222877025604248e-01
5.444688071324131906e-01,3.854879735007373243e-01,5.239327779340148261e-01,1.793941699053541380e-02,1.819312370789258684e-02,-2.399894094207445303e-02,1.616109013557434082e-01
6.115808966463679441e-01,3.141472394486898301e-01,5.816335807867066832e-01,3.895570352141622828e-03,8.555787634830650315e-03,-5.598173316917804537e-02,3.002053797245025635e-01
5.489506293401079651e-01,5.081088634181331054e-01,4.198058137474331986e-01,1.437119826645368373e-02,7.214801750042886160e-03,-2.021134780219096747e-02,1.227728798985481262e-01
4.876724666602024749e-01,4.705621978946721296e-01,5.589281888003774235e-01,6.960633407448246768e-02,-1.163437557813388600e-03,2.083058149507980780e-02,1.497673839330673218e-01
4.776723090395964544e-01,5.020720064894245160e-01,5.202357856621977472e-01,2.280980765113071324e-02,-1.751590504701786705e-02,1.462192791947773511e-02,6.701599806547164917e-02
5.084642717316540939e-01,5.127620572978922597e-01,4.942653539179455713e-01,1.446123496726677352e-02,-7.800873288795778793e-03,1.269696890188591436e-02,3.968231379985809326e-02
4.259232806237787661e-01,5.301844938608090141e-01,5.018844045284365230e-01,3.443794843819951434e-02,-3.786685538703594284e-02,2.782087297645765081e-02,1.374856680631637573e-01
4.928387608741681691e-01,4.957694943628048745e-01,5.046548474688359320e-01,8.067909041870871198e-03,-7.712963145672989927e-03,7.718800249550338347e-03,2.580817230045795441e-02
4.864770595518120300e-01,5.094775900953630865e-01,4.969634140084840390e-01,1.194039777134004408e-02,-1.112486467402859155e-02,1.447640368432447262e-02,4.272589832544326782e-02
4.994810469058756364e-01,4.774001474287841162e-01,5.104269412762295621e-01,2.303075797855289042e-02,-1.874626617200041839e-02,1.731872343234303752e-02,6.629029661417007446e-02
4.907529350332344165e-01,5.084810496109651856e-01,5.091258743352967686e-01,1.173277447004527317e-02,-1.179661916996013922e-02,1.418119588419418549e-02,4.195124655961990356e-02
4.114100583532423472e-01,5.292412964946858756e-01,5.423572199881631084e-01,6.616926472471583442e-02,-4.479933761120410973e-02,4.060864259551391631e-02,1.992609798908233643e-01
4.883962682189966209e-01,4.897727280033699615e-01,5.260409272066588482e-01,4.210541357448737131e-05,-8.339256805457738236e-04,1.807354249463493214e-03,3.713610023260116577e-02
4.932284457739619654e-01,4.952950457466945289e-01,5.088567566239396989e-01,7.818793393036064729e-03,-6.642466262238451088e-03,9.069526011613017469e-03,2.790616452693939209e-02
5.012275197138656990e-01,4.957213962833939558e-01,5.277176635301277230e-01,1.970198049130195833e-02,-6.743157562587058160e-03,1.181609035584884476e-02,5.096741765737533569e-02
4.864541042337452992e-01,5.349382342427225767e-01,4.727731645768082913e-01,1.066800368951076675e-02,-1.871405217975118107e-02,3.423250180209713549e-03,6.803241372108459473e-02
5.363247334833859403e-01,4.697263007853120231e-01,4.759301873640139902e-01,-1.025795194172512433e-04,3.137923114465149092e-03,-2.833828176779791368e-03,6.414306908845901489e-02
4.261833682242322507e-01,5.249742454598922414e-01,5.094408546405442273e-01,3.295985909557488241e-02,-3.900568313087072331e-02,3.042876839125389921e-02,1.380850523710250854e-01
4.854860492606773992e-01,4.905269741467582212e-01,5.195722487871999862e-01,1.362826956492984264e-02,-1.013082595764339469e-02,1.031275337706614829e-02,4.689992219209671021e-02
4.076797913390758921e-01,5.982333148660906597e-01,4.768791221966947602e-01,1.298904747662245340e-02,-1.116663965761884869e-01,4.921005405884992107e-02,2.703557014465332031e-01
4.415714289606231802e-01,5.224151899322041492e-01,5.608628283594631059e-01,6.434956677996689356e-02,-6.420265467744828980e-02,4.015596333348507574e-02,2.018619179725646973e-01
4.664844038767883561e-01,5.180719421346796638e-01,5.387771656043920387e-01,2.425067441137166921e-02,-9.327500780036988848e-03,1.703301420112941778e-02,8.398675173521041870e-02
4.324523260603326813e-01,5.573013894958478431e-01,5.061325736697070976e-01,2.405389640455891931e-02,-3.601738001362075198e-02,2.215466756094609108e-02,1.375396996736526489e-01
3.633116853118843470e-01,5.917971301716341559e-01,5.721952539187261655e-01,3.048095969399114424e-02,-4.362093547337875243e-02,5.320209137437962449e-02,2.551432847976684570e-01
4.054845915159459024e-01,5.988976872964754117e-01,5.525014488592688844e-01,6.621434877607430824e-02,-5.377765699227108481e-02,6.776679003857501160e-02,2.572814524173736572e-01
3.961167498586224411e-01,5.195728385154880780e-01,5.584143073865375229e-01,9.633424282555323737e-02,-5.214180262090600121e-02,8.160947259318075686e-03,2.402961701154708862e-01
4.027970706580193405e-01,5.490724091362738646e-01,4.191170509635012142e-01,-3.467701290317574264e-02,-1.095612724026168716e-01,-3.438860385344304216e-02,2.498836517333984375e-01
4.337865973490264704e-01,5.601951693218888417e-01,5.454794811533358878e-01,2.643069380410197761e-02,-3.885922653446766128e-02,1.730160486309427481e-02,1.478492170572280884e-01
3.990165615758249906e-01,6.200903743998815720e-01,5.884214252351462893e-01,5.562068810301813021e-02,-5.884234053265702258e-02,3.548349978515186881e-02,2.575283646583557129e-01
5.819488580007688983e-01,5.529046207735451857e-01,3.629567149267694526e-01,7.614240055360617376e-02,7.623135106193250354e-02,-1.308082108756250528e-01,3.586079776287078857e-01
5.866713487392509752e-01,5.418410070616251906e-01,4.358451737208839383e-01,7.351329445281633290e-02,1.306712179853241063e-01,-1.294148561670633024e-01,3.683460950851440430e-01
5.316660910448259836e-01,5.479832849685747354e-01,4.306719747597989589e-01,2.251900418176460902e-02,2.452812840641143202e-02,-8.420935802466158679e-03,1.251117289066314697e-01
7.337451709128137711e-01,4.369057511952600392e-01,3.153477357617737731e-01,6.389094564118326380e-02,7.364954655512231940e-02,-1.814259328342762712e-01,5.159828066825866699e-01
7.881562223686440216e-01,5.304665844261979846e-01,3.248012356522664290e-01,1.245030937170160668e-01,7.830369358284813841e-02,-1.741663577815519559e-01,5.635594129562377930e-01
5.358557366587098914e-01,5.464068082185840058e-01,4.363199999814156849e-01,9.118829737646008682e-03,4.037433859580265988e-02,-1.499859409073974956e-02,1.299364864826202393e-01
7.552637095690303282e-01,4.564704036081499994e-01,4.593501406402485943e-01,5.786888556248320076e-02,1.082820195418696951e-01,-1.881055686572320196e-01,4.896915555000305176e-01
8.533565272361716136e-01,4.706283700301953643e-01,4.373743086856927142e-01,2.826282467703072204e-02,9.951870610914814730e-02,-1.722624942066099951e-01,5.305141806602478027e-01
4.744268368849502426e-01,5.145229183604778100e-01,4.784157690216910841e-01,-1.354370837871911835e-02,-1.663982896823779090e-02,-1.012483628540112451e-02,5.614402517676353455e-02
4.834018993702894340e-01,4.994241577559018763e-01,4.926556326367980132e-01,-8.207421467443106258e-03,-1.496010060165168035e-02,-1.431750739897162672e-02,4.101890698075294495e-02
5.443853870305492837e-01,4.992982695345342115e-01,4.300051548109497523e-01,-5.621347405419340956e-03,-7.818451376579656914e-03,-1.158003639381816746e-02,1.031459420919418335e-01
4.729466625708444449e-01,3.988004109841086220e-01,4.762362729873482192e-01,-9.219108250000540572e-02,-6.298056661153114688e-02,-8.781851587563355155e-02,2.574605047702789307e-01
4.734626625941064648e-01,4.899237905950199479e-01,4.848793449937085498e-01,-4.757311616165019880e-02,-3.453258979469197437e-02,-3.055438420062188062e-02,1.156771034002304077e-01
4.725805555718205486e-01,5.165382541964108620e-01,4.705485755033446127e-01,-1.268073168879245254e-02,-2.427132869074218394e-02,-1.658197724860500585e-02,7.141645997762680054e-02
3.690152194257272922e-01,5.123195206127696411e-01,6.377200269680547429e-01,-2.223824306186146238e-01,-1.190829279008151637e-01,-8.064831709821920769e-02,5.144398808479309082e-01
4.669332380803875582e-01,5.432648384591201030e-01,5.112364453855836599e-01,1.209372267051564073e-02,-1.862096595062878723e-02,1.574396862141414638e-02,8.142583072185516357e-02
4.869104969015440876e-01,5.263580337807565179e-01,4.749098287499541882e-01,-2.644937665062258025e-02,-2.879110424025509499e-02,-1.021133381025509171e-02,8.409415185451507568e-02
4.968694296061723081e-01,5.177477917257026219e-01,4.903051544409655071e-01,-4.752995278506196020e-02,8.140629186538152207e-02,4.983556593207012775e-02,1.863465607166290283e-01
4.513874174539591611e-01,5.136533523223165698e-01,5.416547120240807756e-01,-3.431556794573621672e-02,1.220657053915108307e-02,1.655008809807990977e-02,1.058586090803146362e-01
4.176258129435203026e-01,5.223023219108339221e-01,5.256018121814384214e-01,-4.747935654389820459e-02,5.464929395214464941e-02,3.249172459184888201e-02,1.737903207540512085e-01
4.129227093561320672e-01,5.196006605175930160e-01,4.990655108500164916e-01,-4.832713840556009804e-02,4.766147643135747181e-02,2.894783476097613495e-02,1.610793173313140869e-01
3.698976340457119649e-01,5.009097000047555426e-01,5.819590656090948277e-01,-1.298952199999389989e-01,8.225537515042265213e-02,6.970954862736503110e-02,3.461878299713134766e-01
4.191984494526398430e-01,5.426789272229506356e-01,5.826033095353831959e-01,-5.153936022536532297e-02,4.600553135782745745e-02,5.869626581437819429e-02,2.154656946659088135e-01
4.367071579209544918e-01,4.888099780127179161e-01,5.168743110204351288e-01,-3.740490257557254478e-02,-2.938526058426014012e-02,-3.545496320648006822e-02,1.245936006307601929e-01
4.312475451826701112e-01,5.077155955591814429e-01,5.271183788802157322e-01,-3.434355718499611243e-02,-3.017795974474100223e-02,-2.266164267397128423e-02,1.245742440223693848e-01
5.114126983660161052e-01,5.453699330220753705e-01,4.793509929288916616e-01,1.493542064778274718e-02,2.748791233227512384e-02,-1.082034303559547585e-02,8.097511529922485352e-02
4.664882758178280353e-01,5.341743419192445108e-01,4.609336573400130699e-01,1.013612811226725051e-02,-2.879460392074015621e-02,1.074768908402012890e-02,9.016860276460647583e-02
4.964857014367891619e-01,5.252221283797642304e-01,4.560416776112864445e-01,1.387806332455684272e-02,-1.630274441625658918e-02,1.608601760388604987e-02,7.599432766437530518e-02
4.908334073931167052e-01,5.420407939318717672e-01,4.542964647447953475e-01,3.083515480482205886e-03,-3.122644438526360477e-02,1.102379066226144219e-02,9.563720226287841797e-02
5.008143269407886455e-01,5.411791827302059321e-01,4.293729140784333653e-01,1.143777297634930058e-02,-1.078143855155364733e-02,1.142282199620484051e-02,1.036800295114517212e-01
4.929227776659202420e-01,5.275895689734442229e-01,4.672917670777785304e-01,1.143897265675297183e-02,-5.086359381775511744e-03,1.177741617692629195e-02,6.027906760573387146e-02
4.732658059211021784e-01,4.724027857047325973e-01,5.372579478365619998e-01,2.562275042416982049e-02,1.535145439303138700e-03,1.020510733581618708e-03,7.829901576042175293e-02
4.550922210661261236e-01,4.834703694773330729e-01,5.767197461084673238e-01,5.550214697123927871e-02,4.346623589725522735e-02,-8.370809153495726435e-03,1.651261001825332642e-01
4.909895929778256840e-01,5.085880117608865270e-01,5.226488678350834638e-01,3.537197384726203236e-02,1.992739840290978087e-02,-2.723150623242393334e-02,8.901886641979217529e-02
4.829332683707404650e-01,4.468211286217466660e-01,5.432855774949639782e-01,5.205608055960222330e-02,-1.203059065091565370e-02,2.050933793604244049e-02,1.301981210708618164e-01
5.065572262654869373e-01,4.729469078761387446e-01,5.512276292571172132e-01,6.862826131865641666e-02,2.043440429214866613e-02,-3.717072397254419375e-02,1.554145514965057373e-01
5.159133749438764571e-01,5.048725502407231946e-01,4.860152646385363373e-01,-4.353303317047774526e-03,3.850457740984465898e-03,5.007518589276883231e-03,2.936417236924171448e-02
4.886386830069343601e-01,4.624449901203806501e-01,5.303916263323077418e-01,5.888195718091314423e-02,3.569373088624135798e-02,-2.622840676852381675e-02,1.407488882541656494e-01
4.682677711695953926e-01,5.238846098566797282e-01,4.749984909451078208e-01,-2.128215988863039337e-03,-1.151841906570270262e-03,-5.329275981578265355e-03,5.354405194520950317e-02
4.784938327547624271e-01,5.065658395055021579e-01,5.496490809534867461e-01,2.835203793804352834e-02,8.953412855869225320e-03,-8.899406780228672148e-04,8.067228645086288452e-02
5.737042016583075998e-01,4.899328762136120341e-01,4.585906666805921739e-01,-1.411927141292894927e-01,-1.649818432780262301e-01,-2.171964180969993830e-01,5.418593883514404297e-01
4.557681256641963330e-01,5.336347778117364049e-01,5.555011631124319171e-01,3.524024057071072774e-02,-7.329090873534977769e-03,1.238963858232225088e-02,1.122109442949295044e-01
4.610912322642908290e-01,5.033536121721187140e-01,5.297406033555331906e-01,1.869349137732401189e-02,-1.356715420292446510e-02,8.222647517105627010e-03,7.349107414484024048e-02
4.563773849963851936e-01,5.051830529350962440e-01,5.404042097385729493e-01,2.439292703390149447e-02,-2.490130005120079829e-03,7.370358472890779084e-03,8.548759669065475464e-02
4.990399342216191858e-01,4.637709111585829325e-01,5.474204846083903231e-01,6.536005962070089159e-02,-1.545266312805991527e-02,9.265598872035568645e-03,1.381326764822006226e-01
5.101706901292109020e-01,4.663279862511661711e-01,5.591411926653172548e-01,2.620170104369919442e-02,1.318749886429648049e-02,2.877412786894213074e-04,9.512548893690109253e-02
5.018324461327802188e-01,4.614582577751579762e-01,5.392454216455240257e-01,2.156855237201948938e-02,-1.009311339867610333e-02,1.892401024166920408e-04,7.900412380695343018e-02
5.062153196373235797e-01,4.547038038029593832e-01,5.435654577212718497e-01,1.398605410689457429e-02,4.928168433127883951e-04,2.629633016765118084e-03,8.112172037363052368e-02
5.114414962662995334e-01,4.608733046374217102e-01,5.535411540670943653e-01,2.081958267798391868e-02,1.710792015224164506e-02,5.096876253384907858e-03,9.335292875766754150e-02
5.318913952167865222e-01,5.100974943991285482e-01,4.438565864148680817e-01,1.770981329245516211e-02,2.026390330996491462e-02,-1.750244903971379801e-02,9.694471210241317749e-02
5.558605328362564713e-01,5.602603746383169048e-01,4.251252486470457059e-01,5.663006112267881566e-03,2.813667118545610038e-02,4.226209157792180232e-03,1.421657353639602661e-01
4.972444956145383177e-01,5.060181630184786838e-01,4.961287785936640549e-01,1.695799736816731981e-03,6.532734179477284327e-05,-7.505939264224737026e-04,9.916712529957294464e-03
5.414347322278055819e-01,5.715402878886827187e-01,4.112302110953291456e-01,-2.384343591650036395e-03,4.445939518149439468e-02,2.750370429089732047e-02,1.731928735971450806e-01
5.583900398046650615e-01,5.988098648056796591e-01,4.556570343070038831e-01,6.142559156884996874e-03,7.238919529967677291e-02,3.042619629969463193e-03,1.794486939907073975e-01
5.218083595379965356e-01,5.756670757696980001e-01,2.910767324252783173e-01,1.576220204441798958e-02,1.241195377774932940e-01,-2.488004489342232964e-02,3.426136672496795654e-01
5.570962115804098946e-01,5.951531132709353411e-01,3.660223665869390408e-01,1.995575536269252395e-02,5.637414041388803115e-02,2.756382839787279923e-02,2.413241416215896606e-01
5.698644710464118024e-01,5.927259356447189820e-01,2.170620686650572839e-01,2.421935102382249440e-03,7.186244948907802299e-02,-9.017247244036409939e-03,3.857614994049072266e-01
5.052819034287157063e-01,5.361466445417605309e-01,4.812999680415561699e-01,-8.402646017627778130e-02,-9.635049556938510285e-02,-8.869857056706620391e-02,2.736820578575134277e-01
4.989143022505808656e-01,4.718442430937789811e-01,4.738138169478525730e-01,-6.878577129386968803e-02,-9.821649475946124530e-02,-7.888374433397246643e-02,2.499703466892242432e-01
4.741941121474678167e-01,5.096389274195711749e-01,4.553284939459532610e-01,-1.660120863779935424e-02,-1.087972162451382625e-02,-9.313135883727601677e-03,6.101674959063529968e-02
5.314873696177826456e-01,5.545137514022083769e-01,4.187605560198714993e-01,1.263965063763462793e-02,1.884140122093147518e-02,6.542391825709622903e-03,1.323099583387374878e-01
4.890722408648073283e-01,5.062096684793134793e-01,4.606345205178419278e-01,-1.281367970280898778e-02,-5.373099934557926810e-03,-5.152922536839861511e-03,4.741923883557319641e-02
4.791455250986814685e-01,5.239183881975343349e-01,4.579976204439908383e-01,-1.029875332140941201e-02,-8.830817823915789247e-03,-5.677238299781057866e-03,6.362020969390869141e-02
4.609133895741034381e-01,5.217634540169860946e-01,4.511461379113677617e-01,-1.421016822973671448e-02,-2.292995764695518815e-02,-1.544498261663639765e-02,8.538878709077835083e-02
4.559013131878213443e-01,5.404111427856781447e-01,4.714200119236310327e-01,-5.420859860769420245e-03,-2.085974061062027124e-02,-3.768448965914182602e-03,8.664529025554656982e-02
4.867496430126355134e-01,5.484971553507000941e-01,4.515399756858943792e-01,-8.710628265582524496e-03,-2.471861905557568365e-02,-6.930436435124407747e-03,9.711505472660064697e-02
4.668319569269279157e-01,5.408763113697966363e-01,4.562697398673644655e-01,-1.878225960251028379e-02,-6.606817231754712194e-02,-2.636903023630974424e-02,1.503845304250717163e-01
4.546546045653842016e-01,4.848445424252294522e-01,4.835498360927391603e-01,-2.776804781342827322e-02,-3.339981791769749964e-02,-2.822618725518981006e-02,9.446698427200317383e-02
4.792656335742688789e-01,5.287362302144876791e-01,4.546213443478231420e-01,-1.076864415009155980e-02,-8.414361530535546460e-03,-6.216933380384704645e-03,7.035691291093826294e-02
5.099605090993192258e-01,4.679770109011195944e-01,4.929182277507869747e-01,-1.564460685100370688e-02,-1.498420536836735789e-02,-1.769375095403727394e-02,6.070095300674438477e-02
4.836194791548823479e-01,5.063050723864279679e-01,4.902329151427616272e-01,-2.214463902279549881e-02,-2.336779838463563796e-02,-2.360086940413658532e-02,7.203238457441329956e-02
5.072694248629734393e-01,4.443985170501403292e-01,5.147935319708505375e-01,-3.154121692466579224e-02,-1.699274817654764999e-02,-3.214420958796183891e-02,1.069250553846359253e-01
4.706692530377599715e-01,4.688504379156391288e-01,4.950617470300923140e-01,-1.379006575710923707e-02,-1.327950353826972893e-02,-1.658223786176428807e-02,5.066667869687080383e-02
4.623175711098534979e-01,4.961883932841609779e-01,4.594760727713120274e-01,-8.255056798065524282e-02,-1.398175083054343792e-01,-9.491396417281246223e-02,3.276707530021667480e-01
3.875883009469385243e-01,4.944640433459165374e-01,5.983460775244823227e-01,1.801538390217150010e-01,4.152754778116225093e-02,-7.659186313461320561e-02,3.917334973812103271e-01
4.924336579073735343e-01,5.130106075498490625e-01,4.661870207199969585e-01,-1.377167744752941583e-02,-1.575563736244490684e-02,-1.176697237569931422e-02,5.815028026700019836e-02
6.711161717247441372e-01,3.585290530298337330e-01,5.032059063432479107e-01,1.617618376946102499e-01,6.573543250529113868e-02,-1.756594544003218517e-01,5.073961019515991211e-01
4.747048558951194042e-01,6.184109403152668882e-01,4.869128271017633125e-01,4.253924097757940531e-02,-1.023142916195990682e-01,5.048528900570943556e-02,2.520432770252227783e-01
4.454168314984480181e-01,5.978185960328304960e-01,4.276032514765836234e-01,5.458721801700755841e-03,-1.066147133709016009e-01,-3.431833221113923110e-02,2.529450058937072754e-01
4.684388491883277883e-01,5.646683324700505491e-01,4.322680537824077907e-01,-9.456442450843521169e-03,-4.961270748461649865e-02,3.429491577968520489e-03,1.474345773458480835e-01
4.621417092216702494e-01,5.437659388383603298e-01,4.639575944677974406e-01,2.082201074629545703e-03,-2.002005348285825631e-02,4.156240778575639137e-03,8.823168277740478516e-02
5.472493346161435568e-01,4.230307666678223555e-01,5.610038143452570347e-01,5.729324002739592456e-03,7.260796634310789574e-03,-1.403337173877609173e-02,1.348163187503814697e-01
4.314886170565845891e-01,5.095875689289538490e-01,5.026866551888040657e-01,-3.210674634617807083e-02,-3.320969458515208445e-02,-1.903730647410031146e-02,1.144401729106903076e-01
4.244919225360865855e-01,5.392184264352518630e-01,5.082502498350182085e-01,-3.580767548603341205e-02,-4.045790319928922740e-02,-1.265017583751352169e-02,1.407320201396942139e-01
4.831768332472735628e-01,4.883127379084948871e-01,5.322019419341006419e-01,1.914035201926739607e-02,9.822327861785983341e-03,-1.485206211637072650e-02,6.502534449100494385e-02
4.813003294612560601e-01,4.633529096985279372e-01,5.386655530227237865e-01,-2.931924775311592346e-02,-8.013037752683525514e-03,-8.343827823127659624e-03,8.730851113796234131e-02
4.059567286843027700e-01,5.037628792792253618e-01,5.429432184117510829e-01,-4.829003041289600673e-02,-3.523202326860973288e-02,-2.155546737079162486e-02,1.644591242074966431e-01
4.683112699056034556e-01,4.933184890779757081e-01,5.160150031395951409e-01,-4.676246792152366494e-02,-3.867738502124144079e-02,-3.553963365544146602e-02,1.286284178495407104e-01
5.154105019016620437e-01,4.564809183827026606e-01,4.562642459195060396e-01,2.987148935435613925e-02,3.664284613933405099e-02,-6.220212715022786082e-02,1.476408988237380981e-01
5.295300061853216445e-01,4.703407024980748585e-01,5.289807227486219565e-01,3.092185150138078084e-02,2.290817061737076762e-02,-2.153608339068435046e-02,9.646454453468322754e-02
5.649255749125838832e-01,4.871847201811403960e-01,5.623461961785576335e-01,8.615515803767838376e-02,5.670821000340361268e-02,-4.010198970308873068e-02,2.063731551170349121e-01
5.141168768933525035e-01,5.194893998973429960e-01,4.659561638151089036e-01,2.534526615730640919e-02,2.318310447897087984e-02,-1.985195560175575732e-02,8.560887724161148071e-02
5.262755131443472845e-01,4.649968622766247894e-01,4.891794480859590344e-01,1.870459934187626919e-02,1.880971259952062338e-02,-2.618968309448218429e-02,8.382537961006164551e-02
4.844698976109249600e-01,5.515801145630498947e-01,4.403142692590757412e-01,1.351442976389464513e-03,-1.634481867540066996e-02,2.740281434692055582e-03,1.012238115072250366e-01
4.350054803834493278e-01,5.452327682025154276e-01,4.485732751128367335e-01,4.126213939256956711e-04,-5.171746152283011877e-02,1.150413025528878143e-03,1.373578011989593506e-01
5.020750137510324729e-01,5.529432276504097077e-01,4.311797309599778583e-01,5.169584625333896281e-03,-1.065912825065515497e-02,2.266374903198986775e-03,1.079651191830635071e-01
5.032785677982790640e-01,5.519145433974664838e-01,4.104906481236058058e-01,3.210008905489639955e-04,-2.869419730446458316e-02,1.432203789397868202e-03,1.340314149856567383e-01
5.184772102827550633e-01,5.626127694483475938e-01,4.176818787096140406e-01,1.062298535091489755e-02,-2.165981362516915254e-02,7.430770030398584428e-03,1.358968019485473633e-01
4.759832416292443802e-01,5.749815586116395760e-01,3.640652381097354562e-01,-1.587686695477149440e-02,-9.210775462572468042e-02,-9.407132186974391172e-03,2.447023093700408936e-01
5.334203480207357906e-01,4.852759195427401306e-01,4.900397677062263146e-01,1.829323764560088087e-03,1.460978663947933996e-04,1.993630519386042563e-03,4.618716984987258911e-02
4.793390924712738754e-01,5.737978382209678596e-01,4.247208190167793274e-01,2.778198663971134130e-05,-6.100573085444459254e-02,-3.692230408970648917e-03,1.681391745805740356e-01
5.645386384676260860e-01,5.043083324366073317e-01,4.324510539752420835e-01,-1.261181709664383616e-02,-2.039234061903968248e-02,-4.809750258158609210e-02,1.475939303636550903e-01
5.231020245149199388e-01,4.723125839162482520e-01,4.603386162758267286e-01,-6.153743523145526612e-03,-3.788607262791413022e-03,-4.907233247521074378e-03,5.966576561331748962e-02
4.688024129226058268e-01,5.222826362396167932e-01,4.747154078608429306e-01,-1.983362356644311972e-03,-2.858080438179002019e-03,-1.937591428244847579e-03,5.124880000948905945e-02
4.418754762619111487e-01,5.379266703011240658e-01,4.260583051172154301e-01,-7.569079037401546528e-02,-1.364119930410739312e-01,-5.249974783095529007e-02,3.037695288658142090e-01
5.518363758453587176e-01,4.477720735708403677e-01,4.277643659802715659e-01,-5.164527017638065841e-03,-5.902191677920793494e-03,-5.793704660902010417e-02,1.535135358572006226e-01
6.119775054377931678e-01,5.057260681545632242e-01,3.483686877902765211e-01,-1.858795325125282838e-02,-4.878685277751898530e-02,-1.099196034039900405e-01,3.117597103118896484e-01
6.090009051912016469e-01,4.106484047110607327e-01,4.653363032909899610e-01,-4.297715057581815573e-02,-1.560424517958153290e-02,-1.380702091796295605e-01,3.081375062465667725e-01
5.478386281847200667e-01,4.514758987419005831e-01,5.050897902258594252e-01,4.896516745561729604e-03,5.021965665674137103e-03,-2.153421094639571681e-02,9.237206727266311646e-02
5.218522837964498784e-01,5.048095941132164644e-01,4.630033333733981626e-01,-3.716757822245767701e-02,-5.202508023056760106e-02,-5.734818918284471240e-02,1.577379703521728516e-01
5.353753871668767150e-01,4.418951231487896480e-01,4.857425558715240954e-01,-3.279743641461513141e-03,-1.726094996911382851e-02,-1.734783794446040014e-02,9.160360693931579590e-02
5.424471055556356891e-01,4.569441788721080311e-01,4.858268741165250870e-01,-1.197012822781249632e-02,-1.000977456909792930e-02,-2.486409365065666080e-02,9.088736772537231445e-02
5.317488831699211937e-01,4.692429485048417170e-01,4.631074668634705405e-01,-1.189603251333085955e-02,-1.014621524200063490e-02,-2.286364183348374435e-02,8.142334967851638794e-02
4.649101132287870586e-01,5.469116302346436198e-01,5.463239744630762340e-01,5.426303456190060409e-02,7.067341037103828938e-02,-1.921453807924942969e-02,1.777684539556503296e-01
5.040839171710377320e-01,4.877197855515155167e-01,5.043976364651950872e-01,-6.550982560360275658e-04,6.567030769042232416e-03,8.870958525501205236e-04,2.015050686895847321e-02
5.370475196459394418e-01,5.020539863782296219e-01,4.291822077916415124e-01,-9.788547391154003158e-03,-2.472084703193906316e-02,-4.710749184839580633e-02,1.336526870727539062e-01
4.909776060790571606e-01,5.278792169525887701e-01,5.000313547551379356e-01,-1.560464164550786834e-02,5.425163376435906265e-02,4.150925270786186977e-02,1.258526444435119629e-01
5.019871221323589650e-01,5.242574288403873961e-01,4.892599244668638381e-01,-1.145269447264362153e-02,1.976817012621902639e-02,1.332013758406829819e-02,5.513165146112442017e-02
4.926218142002292133e-01,5.266956052591675874e-01,4.956045347703737503e-01,-1.371700815297092514e-02,1.726651951761749154e-02,1.736626876531990188e-02,5.858255922794342041e-02
5.201885832288382083e-01,4.879082401479079567e-01,5.053489214073690894e-01,-9.724124116472256107e-03,1.151702652919590203e-02,1.441510246616940424e-02,4.569675773382186890e-02
4.956541488760054515e-01,4.923828217494571335e-01,4.990892334836597444e-01,-1.985342710938809221e-02,2.833779480092332367e-02,2.212606087187155013e-02,7.137221843004226685e-02
4.913040784766745106e-01,4.682630180637549766e-01,5.158034442389242136e-01,-2.847969912839306422e-02,2.480588997338121354e-02,2.220225812978197932e-02,8.633480221033096313e-02
5.062949404095320460e-01,4.568379218060350522e-01,4.999538443192524384e-01,-2.579013326842494527e-02,2.384810113082224889e-02,3.097445081869064365e-02,9.355443716049194336e-02
5.183989152603424300e-01,4.667487880857187355e-01,5.068834976627050182e-01,-7.451277600501863586e-03,1.331771153069761376e-02,9.358542178737392150e-03,5.627578124403953552e-02
5.039939404177172788e-01,5.144754252338588074e-01,4.734924712367777899e-01,-8.303510568143716158e-03,1.455280464818869100e-02,4.389428485456021642e-03,4.753840714693069458e-02
4.933849737774043120e-01,5.251251156377526597e-01,4.793447117631824406e-01,-6.030341517618014249e-03,1.579251817959744647e-02,1.313738850581333550e-02,5.500258505344390869e-02
5.075003133881786921e-01,4.849285434680875029e-01,5.073987833085756849e-01,-1.099059807098630090e-02,8.762575779014099633e-03,1.021248377701021622e-02,3.758744150400161743e-02
5.019853516560730533e-01,5.222576071058356861e-01,4.906086960427735733e-01,-7.004404381384705600e-03,1.379788120505661547e-02,1.412698621721074702e-02,4.569538310170173645e-02
4.922441633450437837e-01,5.225574988443503210e-01,4.979827849299076070e-01,-8.130054342962956052e-03,1.215439273930054957e-02,8.481523851765980157e-03,4.043715074658393860e-02
4.825101647608706079e-01,4.319507428172296715e-01,6.220878844130404151e-01,-1.186593897470722553e-01,1.254351421944991524e-02,1.605084266333131615e-02,2.694071829319000244e-01
5.423458354395422898e-01,3.898878362796958097e-01,5.873978246019033733e-01,-3.429878894092965730e-02,2.536075988707478870e-02,3.332071993480506533e-02,2.023146003484725952e-01
5.124427480140678615e-01,4.009480952111951768e-01,5.882373155925426644e-01,-9.629834971469931892e-02,2.208632904213221962e-02,4.947203039043642642e-02,2.515005767345428467e-01
4.798313533487184035e-01,5.777526447425219702e-01,4.559254306912082777e-01,-5.248927709230587907e-03,-6.173240409146433377e-02,-1.755443691635751036e-02,1.579264700412750244e-01
4.667735242227683545e-01,5.332025890004548074e-01,4.858112967823026151e-01,-1.245283463264175092e-02,-2.223365571267752611e-02,-1.233795011046288567e-02,7.691226899623870850e-02
5.307828277009517537e-01,4.995352253048216395e-01,4.201205323937456382e-01,-3.726242492319423172e-02,-5.070752717319651492e-02,-5.112488089964498800e-02,1.717122942209243774e-01
4.216641085402478284e-01,5.385985642831168096e-01,4.674506697002406841e-01,-4.755614982094227838e-02,-1.000384467546757694e-01,-4.790677979584700291e-02,2.326135486364364624e-01
5.382746969499738743e-01,5.377170734301012223e-01,3.475502485762346216e-01,-1.671869857092315309e-02,-6.007674178350459748e-02,-4.035388623211372955e-02,2.298287898302078247e-01
4.753275173673810472e-01,5.437103405479579710e-01,4.280093022213114495e-01,7.036381933133194818e-04,-1.823682730179619280e-02,-1.271833639073760916e-03,1.056175231933593750e-01
4.541140437775412209e-01,5.234033704940286302e-01,4.506968597157827161e-01,-3.697764576995710845e-02,-6.047403649704855694e-02,-3.631611304413295827e-02,1.551754176616668701e-01
4.841588126032152495e-01,5.327574635437264394e-01,4.626145181727218669e-01,-1.315070435284743273e-02,-2.118775478573356810e-02,-1.358705554960615292e-02,7.932477444410324097e-02
5.110574013165551932e-01,4.969097223437501376e-01,4.817645826664393449e-01,-1.575576745386854383e-02,-1.784504029360859528e-02,-1.938756415762607488e-02,5.891945958137512207e-02
5.370349667909437574e-01,5.362879282928185720e-01,4.145080316529408115e-01,-7.209718813795808201e-02,-1.068622571356745848e-01,-1.177152602786533525e-01,3.261060714721679688e-01
5.181973780907149774e-01,5.257148184612785435e-01,4.107489879986281345e-01,-1.760822383090047613e-02,-4.876369260768424058e-02,-2.626896739763870392e-02,1.501446664333343506e-01
5.248570093370911183e-01,5.231190375160752470e-01,3.841670619631117889e-01,-3.342010547482988925e-02,-6.554417987121680111e-02,-5.929202260112767520e-02,2.152617722749710083e-01
4.513858328097464234e-01,4.158628416237379888e-01,5.555344198646687826e-01,-5.993325709436971016e-02,-6.329128308713325574e-03,-9.403317534537271663e-03,1.642251759767532349e-01
4.258885032723540021e-01,4.642842022248645506e-01,5.519931196194045597e-01,-4.982353706389298920e-02,-3.099130707670361834e-03,-9.589257778665562920e-03,1.424308866262435913e-01
4.711389901437587069e-01,4.678261896260280661e-01,6.093293573563667298e-01,-1.189661381118535671e-01,-4.211762297132890659e-02,-4.352521933764745554e-02,2.702391445636749268e-01
4.318954860472042356e-01,4.681888965598818841e-01,5.603236089622154470e-01,-4.235068343024230714e-02,-3.254593221547542187e-02,-1.278774027229243396e-02,1.489930599927902222e-01
5.171559470709148343e-01,5.054587096253765344e-01,5.193761967047748618e-01,4.350601918729222334e-02,2.715425142486365545e-02,-1.899782303993137814e-02,9.560783952474594116e-02
5.196609209719473821e-01,5.288783190676109580e-01,5.048717598616463409e-01,3.201619696344300964e-02,3.971294841060073189e-02,-2.026580081183203957e-02,9.735795110464096069e-02
5.127159039697737342e-01,4.854476268493958524e-01,4.821563179934488796e-01,8.846611855627848839e-03,8.122957206601671629e-03,-1.053742186995549474e-02,4.012463986873626709e-02
5.459225656074147004e-01,4.911386206221902140e-01,4.630508785058788379e-01,1.200194311065474508e-02,1.245002896788994888e-02,-2.760511529706715858e-02,9.226177632808685303e-02
5.580208489315497955e-01,5.192942578552288690e-01,4.822185220625092028e-01,-4.378890326572504321e-02,6.190778265682377046e-02,6.767035784224763317e-02,1.878779679536819458e-01
4.966754762771332654e-01,5.162275177609453314e-01,4.923333612803371673e-01,-1.275127834304485338e-03,3.134968766874161525e-03,9.610837073080565800e-04,2.287283353507518768e-02
4.940385739739145965e-01,5.093114199491259875e-01,4.963365329697495554e-01,-1.533356536754611503e-03,1.151887529806119208e-03,4.255922987154148011e-03,1.639563404023647308e-02
6.345257285173193651e-01,3.745574841256200660e-01,5.379674768267299623e-01,1.183925608528298840e-02,2.922390498530790665e-02,-1.101370130455796015e-01,3.019569516181945801e-01
4.680109546780862884e-01,4.814147153684244507e-01,5.376621258146477844e-01,8.638620259074181185e-02,7.030531977787836395e-02,-2.499421873806559335e-02,2.078165858983993530e-01
5.540543792755137087e-01,4.963426504812828988e-01,4.992399636815679775e-01,7.177254938943719575e-02,9.976858842121572035e-02,-4.038378432929711631e-02,2.310402393341064453e-01
5.145171297864751248e-01,4.671644906716495016e-01,4.868699936246641546e-01,2.347724212722059750e-02,-1.903780721369839959e-02,3.695403550432239947e-02,9.238576889038085938e-02
5.563200299306700902e-01,5.172530584918260121e-01,5.201839433014079361e-01,6.432131442159515211e-02,-4.465920546633615762e-02,8.892488275276264065e-02,2.086582183837890625e-01
5.071705406184494613e-01,4.947203251199122076e-01,5.078887760234552795e-01,1.584586570599398614e-02,-7.177374682946662150e-03,1.650746925558120234e-02,4.347153007984161377e-02
5.207694397563544797e-01,5.491645160162675898e-01,5.154248271984901431e-01,8.377121414937985233e-02,-3.422926340270923684e-02,7.784664449554952459e-02,2.091283947229385376e-01
4.039359076457645914e-01,4.108966375399283888e-01,5.777016254632693082e-01,-1.508089342961183854e-01,-6.955088122628426406e-02,-7.405206922733269248e-02,3.580873310565948486e-01
4.061453774726513366e-01,5.020190345899679940e-01,5.738407491101942259e-01,-6.064683047175057490e-02,-8.669835344923642467e-03,-6.861395533630576526e-03,1.806565076112747192e-01
4.045178732712610969e-01,4.745118847384089400e-01,5.703273792659939723e-01,-1.021914354778746953e-01,-2.736847584931726557e-02,-1.345100640397996206e-02,2.343190908432006836e-01
4.091949158668236053e-01,5.007262267450979243e-01,5.884548515700210869e-01,-1.152451133542959222e-01,-3.385904857191690542e-02,7.430541986986060297e-03,2.599104940891265869e-01
3.757974120569993470e-01,5.390132274882321051e-01,4.681239994595624010e-01,-4.331541148976345706e-02,-8.507918515835283246e-02,-4.371154419873156394e-02,2.305875420570373535e-01
4.364313892985595689e-01,5.054870536993232299e-01,4.717197681394377784e-01,-5.318770769527010611e-02,-6.103428899935074703e-02,-4.803541594029302197e-02,1.736710816621780396e-01
4.435729335057125300e-01,5.109094117612084096e-01,5.117367238986920697e-01,-2.283025167041728004e-02,-2.201107989948281052e-02,-1.516315544516902945e-02,9.109051525592803955e-02
4.379588459719954141e-01,5.309444554044755460e-01,4.720210056254321440e-01,-2.169315022760168188e-02,-3.843839002037131164e-02,-2.303332919101415757e-02,1.186388358473777771e-01
4.795098086711121477e-01,4.758620227439147587e-01,5.335272286017667120e-01,-6.163398692896290831e-02,-2.569880662478976965e-02,-1.970066564701540568e-02,1.329289674758911133e-01
5.233709204443910412e-01,4.870925485649617581e-01,4.812306528814516149e-01,1.239113687724502019e-02,8.637240367920054687e-03,-1.149367448495596661e-02,5.141869559884071350e-02
4.386327649695310194e-01,5.517601898312105568e-01,5.000807490078469364e-01,2.457259450013167187e-03,-7.743230976897823303e-03,1.517451438282931605e-03,9.913179278373718262e-02
4.563163915144743954e-01,5.613716461997564355e-01,3.993252721900058533e-01,4.249057783311649579e-03,-6.721319427044711303e-02,9.996793457603410371e-03,1.848746091127395630e-01
4.845332867006082456e-01,5.403439403779436434e-01,4.169301350383369242e-01,-3.386015902619172319e-02,-5.630830182312236004e-02,-4.789918996875938001e-02,1.768965572118759155e-01
4.712868175780693392e-01,5.905157430706127197e-01,4.776085113361092649e-01,-1.010838527398987170e-02,-7.745696014821390474e-02,1.038267718454126409e-02,1.792496889829635620e-01
5.314874796220717679e-01,4.824310827637205978e-01,4.868334092255720558e-01,2.057532706562588756e-03,-1.383019211920316453e-03,6.182055201989205412e-03,4.840496182441711426e-02
4.170200509687270740e-01,5.128947372827292739e-01,4.608055539702615722e-01,-1.145061315857304751e-01,-1.285466339077640796e-01,-6.954997053086595105e-02,3.321603238582611084e-01
5.592004547214765031e-01,3.848529337738735290e-01,5.283898364501886658e-01,-3.047318756606244919e-03,4.184167268794299240e-03,-1.405777918233793236e-02,1.632416695356369019e-01
5.410340412918326347e-01,4.867573569199593053e-01,4.988302616537819700e-01,-4.384826159966433851e-03,1.646322642297501360e-02,3.433100215277720690e-02,8.272293210029602051e-02
4.236864548773777162e-01,5.066208697262469807e-01,5.002380313878318496e-01,-3.382563471333527305e-02,-5.067443020039840568e-02,-3.174946015880253380e-02,1.433520168066024780e-01
4.295667354294999130e-01,5.360978384675945119e-01,5.095272371299690572e-01,-2.954494439663755273e-02,-3.645253704972555020e-02,-1.294862701128772497e-02,1.277980953454971313e-01
4.822304780821023429e-01,5.054586959808212709e-01,5.320245600542524711e-01,1.911291618782818419e-02,-7.289504627834178345e-03,1.202330960872517555e-02,5.959340557456016541e-02
4.892223607685127762e-01,5.095209006496725923e-01,5.161438341628888926e-01,1.302373022202842762e-02,-8.475772526569256421e-03,1.370991817236874404e-02,4.334263876080513000e-02
4.884616222938242824e-01,4.941235825577315333e-01,5.060954972509184024e-01,1.261966187019803419e-02,-7.285203131752909442e-03,1.047204555019984502e-02,3.477283939719200134e-02
5.195394215279107719e-01,4.840413562801262337e-01,4.842378915574470089e-01,8.661671323572988843e-03,-6.682579994357801950e-03,1.497326896085166524e-02,4.779973998665809631e-02
4.996536802743266614e-01,5.124551046978520485e-01,4.921429048059869915e-01,1.085112673190554052e-02,-9.833194407305489645e-03,1.123535518404789567e-02,3.658486530184745789e-02
5.671989176251315268e-01,5.216516494016453231e-01,4.855852914552843402e-01,3.071703433818709014e-02,-1.868509505228899831e-02,7.587521363437385591e-02,1.617628186941146851e-01
4.920379626930895256e-01,5.087969674545692600e-01,5.012382978076823647e-01,8.002458465446653929e-03,-9.495088107048150344e-03,1.023602060309483468e-02,3.143626078963279724e-02
5.016531345528556507e-01,5.155139670496610149e-01,4.870911404884469831e-01,1.607017853026185619e-02,-1.412707745484232530e-02,1.225876245859188439e-02,4.929830133914947510e-02
4.283509570402155298e-01,5.421664173967222222e-01,5.363163442120122415e-01,3.695232116090015062e-02,-3.531905775672845860e-02,4.192397602567718429e-02,1.594802290201187134e-01
5.456482324940029605e-01,4.837688695433149944e-01,4.513517977961188921e-01,2.506384546008105091e-02,-1.110316434428891205e-02,5.098017431770020952e-02,1.301431357860565186e-01
5.409240089818032615e-01,5.204669552112703990e-01,5.338134188216170362e-01,7.891818976987653722e-02,-5.078426731052389231e-02,7.256378828714118989e-02,2.062558233737945557e-01
4.633342851712681787e-01,3.624400150980369162e-01,5.580972639112437017e-01,-9.352574745750678875e-02,5.892958656200324337e-03,1.068311413526826584e-02,2.353900671005249023e-01
5.131866553195918446e-01,4.552470040966757892e-01,5.479333169838355166e-01,-3.739233865621732072e-02,2.721670107487804413e-02,2.792481247219499862e-02,1.238294616341590881e-01
5.030267511109280942e-01,4.111365460455155829e-01,5.447024766716140887e-01,-5.580173643293001584e-02,2.952328426522867616e-02,2.406678992115294374e-02,1.664460003376007080e-01
4.821719919469440452e-01,4.241121766729910036e-01,5.734900579022292888e-01,-1.255687648599446982e-01,6.752582606270786207e-03,6.963304812945119229e-03,2.541587054729461670e-01
5.035784803462632908e-01,4.920578865676668023e-01,4.961485015111636865e-01,1.062500732611181518e-02,-1.052048813166917354e-02,1.008169304720615660e-02,3.283240646123886108e-02
3.245513044206326247e-01,6.075348986496891257e-01,4.096184758977912677e-01,-5.286873795963675099e-02,-2.039904415516896052e-01,-3.605244162237762617e-02,4.476208984851837158e-01
3.289434334592573617e-01,6.211963262584643264e-01,5.081332524101451753e-01,-6.506731794211839670e-02,-1.959410828280137573e-01,-8.429848242553458770e-02,4.629802405834197998e-01
2.925344554000041675e-01,5.758943528568319925e-01,4.835675366608665482e-01,-1.004344691387874661e-01,-1.684218539362387912e-01,-5.369350040716176081e-02,4.320455193519592285e-01
4.106094461415874530e-01,5.623268417564225574e-01,5.123182459180459780e-01,-1.461793417430061470e-02,-5.615952295789729959e-02,-1.789520500722456293e-03,1.674639880657196045e-01
3.850694627008499626e-01,5.496708057906865008e-01,5.305587470170682884e-01,-1.856347233339941498e-03,-1.334571602648537171e-02,5.346005907552494121e-03,1.579348146915435791e-01
2.806793346515068510e-01,5.919354191203446414e-01,4.868858784785196070e-01,-6.614109626107353423e-02,-1.589481017344805680e-01,-3.558033167298416122e-02,4.097972214221954346e-01
3.605172208474158868e-01,5.572854962324509387e-01,5.118163502178726398e-01,-2.511558571546454108e-02,-7.631726038344045782e-02,-1.157696213635536243e-02,2.271689623594284058e-01
4.653075458566427458e-01,4.678895300825693382e-01,5.338262694967488287e-01,-1.765812024117832668e-02,-6.845927955011703314e-03,-8.383258353844080107e-03,7.623275369405746460e-02
4.378733978209444766e-01,4.766592131635549734e-01,5.467967145648071625e-01,-3.727413786167017157e-02,-1.211536670106583106e-02,-2.055479243821503599e-02,1.225556135177612305e-01
4.996347204737837111e-01,5.146594140088783798e-01,4.950364324702491436e-01,-1.103921475926513893e-02,1.382601901392008746e-02,1.153733750464727877e-02,4.067398607730865479e-02
4.757196887614117409e-01,4.878404730598638328e-01,5.218943373220051862e-01,-1.881571328266797363e-02,-1.181452628925031521e-02,-1.524629272687007611e-02,6.243019551038742065e-02
4.694739852302796113e-01,4.712312509690575468e-01,5.141355867477355179e-01,-1.131648491556574813e-02,-1.209769408886141560e-02,-1.176540524490763545e-02,5.619421601295471191e-02
4.709011319174221111e-01,4.699049254021768207e-01,5.186237307488933412e-01,-1.271530006048203661e-02,-1.422975660949686409e-02,-9.938982992035157865e-03,6.094936653971672058e-02
4.809675132520543905e-01,4.748742897495156767e-01,4.790887063701176896e-01,-1.045623156657367464e-01,-6.422218811540095218e-02,-8.631479844181683125e-02,2.599100768566131592e-01
4.753404000661000661e-01,5.118796522709223584e-01,5.351390695985577262e-01,4.361321661733116861e-02,4.820059404367645767e-02,-3.780450400027837721e-02,1.403202414512634277e-01
5.612020996620097346e-01,4.122942622268976898e-01,5.293223327183286253e-01,3.942421789869977183e-02,1.597580489631229492e-02,-4.155474978170886624e-02,1.704452782869338989e-01
6.440371152414323674e-01,5.357032585352459186e-01,3.743258398760633265e-01,1.234580089083877480e-02,-5.356590623961931218e-03,-1.163081582513915968e-01,3.104635775089263916e-01
6.701390263895082855e-01,4.858580710680518999e-01,1.660351546451871996e-01,2.537679128632679137e-02,-7.000409577682495388e-02,-2.384888954016047280e-01,6.184237599372863770e-01
5.442342213538329254e-01,5.171756731598525780e-01,4.537186527081769061e-01,-3.248638151489451498e-03,7.436769115168774882e-03,7.932426140590734601e-03,8.283936977386474609e-02
8.062476555064976846e-01,5.984698536603022534e-01,2.877700984557026720e-01,6.498197573685145223e-02,2.612535405728960355e-02,-2.186436924929543169e-01,6.019910573959350586e-01
5.911759689912284843e-01,5.197504520131591699e-01,3.576714258896742660e-01,3.308041745355586732e-02,1.722171082833670944e-02,-1.289175197500764536e-01,3.114156126976013184e-01
6.050266791971727898e-01,5.607600603957441088e-01,3.493393978597988392e-01,8.338760349720791831e-02,6.708874464759209677e-02,-1.206820829115470561e-01,3.661594986915588379e-01
7.811468376196849528e-01,4.887127520599576225e-01,3.304211393883971781e-01,2.193867842328669007e-02,4.810166602162693761e-02,-2.153104643372542315e-01,5.516564249992370605e-01
4.601133030662485357e-01,4.815733674616372584e-01,5.396552240887441121e-01,-2.546510252558968276e-02,5.177370436503146711e-03,6.274579323995417915e-04,8.430591970682144165e-02
4.746616734685435435e-01,5.097437597070388904e-01,4.647776366573807549e-01,-2.122281724355398400e-02,-3.998092303950621235e-02,-3.357649163694504529e-02,1.058488935232162476e-01
5.507162326947150355e-01,3.826541584940801322e-01,5.894220450736573635e-01,-1.114649003584231440e-01,-3.167004696732043934e-02,-7.531472314598459949e-02,3.058547973632812500e-01
5.281722788282668946e-01,4.795559107706121593e-01,4.525496827296796032e-01,-2.757664189700494844e-02,-3.671734274033815193e-02,-5.933772103042235513e-02,1.459268033504486084e-01
5.052346689978008953e-01,4.361998515296139911e-01,5.333600689716271326e-01,-4.405961112469224811e-02,-1.473488692517977219e-02,-2.634636240059347323e-02,1.267121434211730957e-01
5.217830754917205383e-01,4.154065895278969966e-01,5.111326046873307938e-01,-4.138165829977046017e-02,-3.545092322873864138e-02,-4.930237313785430786e-02,1.627766340970993042e-01
5.951196951175214966e-01,5.117094455672531739e-01,4.198965532928852218e-01,-3.367846463978560467e-02,-6.396493534147136562e-02,-1.158477892835081957e-01,2.810416221618652344e-01
5.281267947784693551e-01,4.859254057123188475e-01,5.001311784521240700e-01,-9.252758254499109103e-03,1.218767659703638012e-02,1.775377294393697472e-02,5.505729839205741882e-02
5.229552147717841937e-01,5.044583626256313735e-01,4.887894294982371157e-01,-7.336868621617747589e-03,1.212481275218729726e-02,2.091216576233702329e-02,5.283893644809722900e-02
4.997700527466791276e-01,5.137739903796297858e-01,4.968260814357420285e-01,-1.029084025530514410e-02,1.281930188198144270e-02,1.154059912588595652e-02,3.816108405590057373e-02
5.460180100055470609e-01,4.949627850387834926e-01,4.636031758897734001e-01,-2.548532198570483201e-02,3.565107205094407428e-02,5.511533264407472710e-02,1.416535675525665283e-01
4.481634540382498089e-01,4.411259886805853347e-01,5.202738732364701191e-01,-8.041930528315489879e-02,4.991813709020352652e-02,5.811424247384102543e-02,2.067993283271789551e-01
4.978871189424292076e-01,5.150977095503073144e-01,4.933454178201566731e-01,3.660140753068195571e-03,3.935931682449050656e-04,-1.098923962962483538e-03,2.095887437462806702e-02
5.290060368395517187e-01,4.354504739320199103e-01,5.260233484241847446e-01,-7.514699397020634802e-03,1.439147478024732987e-02,1.024791031431906106e-02,9.791990369558334351e-02
5.155587082568886537e-01,4.494786672788029791e-01,5.263383745608960496e-01,-2.330600428338234706e-02,1.611101838579468565e-02,2.159498033558086838e-02,9.488059580326080322e-02
5.025992528068077281e-01,5.580830689890793339e-01,4.669588263046433041e-01,-1.417131568248295500e-03,3.137892981632877526e-02,9.768272527822164167e-03,9.783840924501419067e-02
5.135005915277578437e-01,5.449487644548390852e-01,4.654468208538647955e-01,-3.425522243546248041e-02,3.373311628181830529e-02,5.411566103934559863e-02,1.432791054248809814e-01
3.728777511628316721e-01,4.923446698130944932e-01,5.530799493691764823e-01,-7.187066757894723656e-02,1.093989818963927996e-02,1.962888554419056283e-02,2.054947167634963989e-01
4.773250872658412747e-01,5.457196206669814309e-01,4.817546149443300840e-01,-1.402490273478756294e-03,2.273113004940840662e-02,1.238721660505900067e-02,8.006759732961654663e-02
4.382652965236361053e-01,5.917266905112629205e-01,5.188763693226219331e-01,-1.025077542006947069e-02,6.063559166728808847e-02,5.308282729829384011e-02,1.935884207487106323e-01
5.056444903308516814e-01,5.428769873967015380e-01,4.630878040032837539e-01,-4.202144760148613972e-04,2.802049997254852862e-02,1.735575533306822626e-02,8.967421203851699829e-02
5.474399869840884669e-01,4.861440683105943128e-01,4.712151047364333545e-01,7.767900808396053548e-03,8.099433312211176683e-03,-2.488351494489024138e-02,8.444251865148544312e-02
5.421377846425269320e-01,4.310583058430395020e-01,5.176980268558302178e-01,1.722007933756412520e-02,2.015377052565275884e-02,-3.208448966467486452e-02,1.241674572229385376e-01
5.420989516456177215e-01,4.174456302547729925e-01,5.324984585250669422e-01,1.772537825285605551e-02,1.952225892088766887e-02,-4.022082435916000953e-02,1.461949199438095093e-01
5.594437924983707289e-01,3.700330234806435969e-01,5.106979466312884242e-01,-2.876571366367605340e-02,-1.122434995066120753e-02,-6.800004137693375916e-02,2.138971239328384399e-01
6.123627520238781319e-01,3.517554112957708146e-01,5.077358012585787561e-01,-1.097659332940247555e-02,2.777790455991122759e-02,-1.013721055340126437e-01,2.917218506336212158e-01
6.378712079706998495e-01,4.741317171591010737e-01,4.379175085813986623e-01,1.179700197405119159e-04,-2.056365221271808097e-02,-1.211436346457481772e-01,2.816873490810394287e-01
6.225395170892461527e-01,4.743887418468507589e-01,4.403626712987234737e-01,-4.740109438352039725e-03,1.792055859558940381e-02,-1.174391076383651811e-01,2.656202018260955811e-01
5.714463162490434067e-01,4.276801448511980408e-01,4.639714136948016598e-01,-3.067792494243238525e-03,-8.401246529007021582e-03,-4.313999960291720059e-02,1.503045856952667236e-01
4.543764803892656468e-01,4.866700355523321253e-01,5.485879365907654348e-01,-2.438274263760320873e-02,-6.601842544082127569e-03,-5.808337679609702937e-03,9.429616481065750122e-02
4.134575949905188175e-01,5.074914829029829599e-01,5.515075050900974940e-01,-2.169193130185809865e-02,3.283788946817724208e-03,-4.038383203420928638e-04,1.279188692569732666e-01
4.343413628600166776e-01,4.783282218651239703e-01,5.393337156749320460e-01,-1.389535594443586618e-02,7.840072778413541754e-04,-1.528702894881959172e-03,9.448836743831634521e-02
4.352719233159155765e-01,4.805546792948352519e-01,5.476422174223311012e-01,-1.179169807303371599e-02,-1.284850777847406419e-03,-5.737823230278746994e-03,1.005486324429512024e-01
5.110496744390213841e-01,3.687052012295777836e-01,4.823741705662278889e-01,-1.469352579333305375e-01,-1.029006694721602416e-01,-1.636642906389137453e-01,4.403362274169921875e-01
4.602405594578103942e-01,4.883627608066429260e-01,5.504602404465959165e-01,-2.576902451154922807e-02,5.964429625157994207e-03,7.997581295435068904e-03,9.318802505731582642e-02
4.037261522710612893e-01,5.095058569541347504e-01,5.507718080147736561e-01,-4.418756068135702014e-02,2.866710715095051494e-03,1.038790883860051927e-03,1.521276980638504028e-01
4.185281915318502799e-01,4.655228492761162573e-01,6.276880889064099245e-01,-1.363661880618339262e-01,6.536751890757365804e-03,-1.106996024064108887e-02,3.039901256561279297e-01
4.894559170981735985e-01,5.098221993538613050e-01,5.113549036579000395e-01,-7.917730646004683334e-03,9.783059661871183060e-03,1.289965982024282240e-02,3.771935775876045227e-02
4.836410453596139969e-01,5.015452715263485350e-01,5.075181832671381565e-01,-1.318019432278765696e-02,6.754539183926311190e-03,8.973518735983707778e-03,3.691576048731803894e-02
4.830698243704937833e-01,4.828276897523250399e-01,5.119088370583020353e-01,-1.265128275965386045e-02,8.960884483033055084e-03,8.524494590959628970e-03,4.216383025050163269e-02
4.740064375180931266e-01,5.143649803355487826e-01,4.657865335912620974e-01,-3.551735100424070757e-02,7.090936479109191670e-02,5.275523993631666547e-02,1.710155755281448364e-01
4.837005501932847840e-01,5.294312687179415500e-01,4.944192410931355641e-01,-8.817675170819012226e-03,1.445424396887031761e-02,6.023452938853935887e-03,5.181593447923660278e-02
4.709484657819272280e-01,4.747587316601989404e-01,5.096156178434243511e-01,-5.024875095916900986e-02,5.386555743806539787e-02,4.827350592888670494e-02,1.569478660821914673e-01
4.686814061702790357e-01,5.508648838557035354e-01,4.250261510612250992e-01,-1.221785868113816308e-02,-4.256944702042798206e-02,-1.357871174468110349e-02,1.366934180259704590e-01
5.391490395361697718e-01,4.859171742596231636e-01,4.557149327660020566e-01,-1.816088000434024421e-02,3.160089388539596283e-02,4.743958891066273054e-02,1.268478333950042725e-01
5.059228969020129751e-01,4.850175611719769186e-01,4.940304206165476719e-01,-9.344160564664617807e-03,1.098029541532502713e-02,1.033310429360172200e-02,3.569044172763824463e-02
5.214589535080093041e-01,4.788667247312605735e-01,4.927527253021005693e-01,2.182874722390414080e-02,-1.679191000503115969e-02,2.626295349238314675e-02,7.589531689882278442e-02
3.822137348666665990e-01,5.505807096233544806e-01,4.625639221257015765e-01,4.088680978936882343e-02,-9.702466126065023566e-02,2.728648643988664316e-02,2.382550686597824097e-01
4.832711733512355945e-01,5.056713989673966569e-01,5.052503416915613554e-01,4.449467160792121290e-02,-7.295954798346021564e-02,4.700744694010802055e-02,1.703826040029525757e-01
4.897061123426972307e-01,5.397207172670128728e-01,4.959075280746920722e-01,5.486941079708178987e-02,-7.668908758059302111e-02,3.180896034855632687e-02,1.787198632955551147e-01
4.572954448162045993e-01,5.051673538297559718e-01,5.410806692556275888e-01,2.412580416980899395e-02,-1.046438833767061004e-02,1.430078889676180201e-02,8.938084542751312256e-02
5.208005823766101994e-01,5.450708192586345424e-01,4.439557677412071524e-01,3.109689367123980031e-02,4.239948196612195602e-02,-4.291153767454158191e-02,1.489214897155761719e-01
4.835306709323100582e-01,5.052344993839865683e-01,5.368141754492828932e-01,1.670114430478612452e-02,1.124920552275668686e-02,4.356102792915962098e-04,5.805790051817893982e-02
5.115413659409371316e-01,5.061655343496292980e-01,5.092490481612037545e-01,1.661915819331866162e-02,1.149633110914757318e-02,-1.260503607893555950e-02,4.151599854230880737e-02
3.025917406003814647e-01,4.683884096722629731e-01,5.335270388200700209e-01,1.824802721448200993e-01,8.839822524878612753e-02,-3.550972358934990220e-02,4.118908345699310303e-01
5.809348734479711229e-01,5.027925086472959659e-01,6.008085403406954184e-01,2.032143658546643472e-01,1.823350999304854392e-01,-2.001641509322837909e-02,4.825791418552398682e-01
4.982496556586247238e-01,5.200831964694734300e-01,4.873056269092866932e-01,8.054594449351309624e-03,9.654292334740495821e-03,-7.970554551276421568e-03,3.873315081000328064e-02
4.808210121835235773e-01,4.964069978988015497e-01,5.180328231694504293e-01,2.516512018750229410e-02,2.437795729681368345e-02,-2.041821236679820795e-02,7.733739912509918213e-02
4.770295731465055145e-01,3.407116194255560560e-01,4.747440723747529678e-01,1.097980830965166743e-01,1.042291111004109566e-01,-1.406695638557962647e-01,3.826199173927307129e-01
4.691805073726905140e-01,5.645763606023376235e-01,5.455728011480721618e-01,7.455728645654995101e-02,5.966928866741663673e-02,-2.107761973326370900e-02,1.906281262636184692e-01
4.937100495699920377e-01,5.054639284954393075e-01,4.870510897706248898e-01,8.514468957652095507e-03,1.222813680595670818e-02,-6.290144078643493744e-03,3.233469277620315552e-02
5.099528084437102704e-01,4.843045055835382140e-01,4.827810114397975694e-01,9.208368916848565580e-03,8.644497288283890801e-03,-1.135769342949901825e-02,3.955739364027976990e-02
5.148518895562180786e-01,5.055521847137260938e-01,4.975228492040675854e-01,3.696806749785434831e-02,3.244240540521927535e-02,-1.716608116660649219e-02,9.147180616855621338e-02
4.985460010134590836e-01,5.097498870937948734e-01,5.091519327446651921e-01,1.098688219810778181e-02,1.188111477091809663e-02,-9.388497005592013819e-03,3.419406712055206299e-02
4.954989394851963547e-01,5.009034457373261473e-01,5.069743104987094462e-01,7.208400448442050211e-03,1.026050315540960774e-02,-1.393277484754552702e-02,3.395523130893707275e-02
5.059908803204109518e-01,4.897730111756002924e-01,5.053531430614089937e-01,1.194838148371141391e-02,1.093568743747295145e-02,-6.726683481226286045e-03,3.429121151566505432e-02
4.188927081289063326e-01,5.594622259073718240e-01,4.777261454996445389e-01,-4.784171407311858110e-02,-1.096220402374060293e-01,-6.886549682051638921e-02,2.685066163539886475e-01
4.622320689281089745e-01,4.634110892336242848e-01,5.365765988737710712e-01,-2.526106093523512383e-02,-1.092451976688782293e-02,-7.074449264445839373e-03,8.867574483156204224e-02
5.139683008866511305e-01,4.940637935605028952e-01,4.994774641551286143e-01,-8.273754438916784693e-02,-8.301582866071452460e-02,-9.937951780864157092e-02,2.667545676231384277e-01
4.913915504994143535e-01,5.115263579556765805e-01,4.720169314734403709e-01,-1.423688542421143108e-02,-1.470791744729137152e-02,-1.478349162367757416e-02,5.552999675273895264e-02
4.630015444116042378e-01,4.597945181941974768e-01,5.326040835216734326e-01,-2.080069176248013074e-02,-1.568412537485605607e-02,-1.198404480461957508e-02,8.686108887195587158e-02
4.679970850701957730e-01,4.338864310446007844e-01,5.353500971676140585e-01,-4.947539176787534715e-02,-2.358806021825614330e-02,-1.987330651148426497e-02,1.348884701728820801e-01
4.662233702600633301e-01,4.743596099764623153e-01,5.144743395049187207e-01,-3.907694022479276524e-02,-1.848561362248564779e-02,-2.585923996585599502e-02,9.805125743150711060e-02
4.402228935212149641e-01,4.617214494649962142e-01,5.227341650318181321e-01,-5.908277542338482430e-02,-6.491138920139814805e-02,-4.507619068913898408e-02,1.862922459840774536e-01
4.752520539791915133e-01,4.343408521689780533e-01,5.358142188462740041e-01,-1.645166803193828450e-02,-1.076860007663166599e-02,-2.144722632093391899e-03,9.483055025339126587e-02
4.162247279527943045e-01,5.180327227978174243e-01,5.533622573365107877e-01,-4.812466805206148945e-02,-6.544403206430539181e-03,2.328693016477787620e-03,1.493404805660247803e-01
4.564416606237917118e-01,4.586604483056373471e-01,5.395775320260856045e-01,-2.377865867301856215e-02,-2.586758045985906689e-03,1.459185966255266875e-04,9.191543608903884888e-02
4.586838583918214085e-01,4.592669015923360187e-01,5.527155356552403420e-01,-3.101414468950208086e-02,-3.023621175217864731e-03,-9.194644473959283359e-03,1.093350574374198914e-01
4.382037060556325803e-01,4.754849426441640770e-01,5.431601147887561432e-01,-3.838314607968957431e-02,1.368925068475706185e-02,1.752635222479116683e-02,1.199847385287284851e-01
4.861839111663411317e-01,4.285517471278500468e-01,6.366339459194090278e-01,-1.276526107306631408e-01,2.943113067367325933e-03,-1.322322556831401728e-02,2.899371683597564697e-01
4.252670803705662639e-01,4.575504792818801958e-01,5.438326212055724085e-01,-5.869755049379080103e-02,-2.751206988727229394e-02,-2.700573408882405574e-02,1.614533513784408569e-01
4.728008686898122481e-01,4.152389738938397357e-01,5.462307496597241796e-01,-4.803041071343620849e-02,-8.448710713703771330e-03,-1.111717274483346035e-02,1.429606974124908447e-01
4.878709116708833116e-01,3.688792504855123999e-01,5.591725704255390283e-01,-8.771816995580786203e-02,-1.781337695874430152e-02,-2.372048240262974658e-02,2.311938852071762085e-01
5.094136605190148215e-01,4.922452594972492323e-01,5.024331199374348911e-01,-1.641726539482197232e-03,6.867942411886031502e-03,4.529528365576834109e-03,2.085134945809841156e-02
4.681401363768292745e-01,5.342699717300501971e-01,4.586056732584437023e-01,-5.018005562782164482e-03,-8.325594959021277719e-03,-2.292058402878224301e-03,7.344264537096023560e-02
4.984978016369737697e-01,5.191024086347080235e-01,4.872803100877667881e-01,8.796249133614493509e-03,-3.212286882261025916e-03,5.562184917082239541e-03,3.372545167803764343e-02
4.989173355088830086e-01,4.927240660111977255e-01,5.041870066884511781e-01,3.973008425822877922e-03,-5.060549989931829341e-03,3.881598186958962193e-03,1.637512817978858948e-02
4.942939621571281750e-01,5.019106612666458522e-01,5.195152617281221241e-01,3.670145667256392592e-03,5.824981979848988314e-03,-6.936989586521782707e-03,2.808187343180179596e-02
4.784306064742036568e-01,5.048317783417445304e-01,5.177942460845299522e-01,3.798417652116534930e-03,3.544382689963550704e-03,-6.890922362847915622e-03,3.782457113265991211e-02
4.625699313421245407e-01,4.954550181381734419e-01,5.195391128645128198e-01,-7.915091175662501005e-03,4.284123280216683115e-03,1.207893200958114199e-02,5.598382651805877686e-02
4.706795029153812426e-01,4.578661873131511517e-01,5.411556965779533712e-01,-7.450864673701978504e-03,2.533314453112563581e-03,2.049359334540591952e-04,7.886718958616256714e-02
4.570054536432273107e-01,5.123107343925694668e-01,3.991542467116329096e-01,-7.012724681007297123e-02,-1.061892566133715299e-01,-7.022763988554966974e-02,2.701530158519744873e-01
5.038294373581798657e-01,4.007544850555326832e-01,5.442942861359747475e-01,-2.397582170942134591e-02,-8.933122622311677821e-03,-4.886357245588241610e-03,1.358981728553771973e-01
4.698787973319382139e-01,5.320097742293434795e-01,4.675419103650492736e-01,-3.403874291520878059e-03,-1.484072149982879974e-03,-9.043901070673642309e-04,6.367678195238113403e-02
4.602758869435201183e-01,5.302568202625161931e-01,4.716240971582424391e-01,-4.531859006114168260e-03,-6.146961330444389131e-03,-6.218235020992916515e-03,6.725267320871353149e-02
4.742178131299501498e-01,5.146758018654066236e-01,4.726709282909197785e-01,-3.893417655174256139e-03,-1.138430138780794536e-03,-1.020013706531596202e-03,4.188449680805206299e-02
4.697019947964110043e-01,5.219233845058736110e-01,4.627196466293456156e-01,-6.287363188263593756e-03,-6.834943745980389014e-03,-3.256493409213961823e-03,5.857483297586441040e-02
4.709210742338119648e-01,4.664379422530945951e-01,5.364648323211232972e-01,-1.176475925582522869e-02,-3.862447049816583773e-03,-4.631806613869578898e-03,7.165381312370300293e-02
4.708724517403206078e-01,4.672801360356450551e-01,5.316188477658092548e-01,-1.919175075037009553e-03,-3.534278848923961582e-03,-1.233894010234055710e-03,6.304236501455307007e-02
4.690229159923943736e-01,4.673374409194528400e-01,5.381764956956884838e-01,-1.421356210127444663e-03,-2.913993134259693345e-04,9.522184957853099515e-04,7.007603347301483154e-02
4.574173939017878165e-01,4.660065105945554453e-01,5.355659075015066772e-01,-9.670430168405949600e-03,-2.223220218531311680e-03,-3.195766487083662091e-03,7.639211416244506836e-02
4.833501349425191607e-01,5.254422563713785355e-01,4.807458566717671133e-01,3.439158188509526884e-03,-1.141976788135230531e-03,1.995171253438659392e-03,4.403959959745407104e-02
4.819345829652955659e-01,5.300677600681366064e-01,4.738922927040401523e-01,4.980609284069045621e-03,-2.951986285880477037e-03,1.647371445011055688e-03,5.364033579826354980e-02
4.825861474970539744e-01,5.362457982243441501e-01,4.809738571861564838e-01,5.639139837432524845e-03,-7.828913577230776910e-03,4.390852203733265277e-03,5.749423056840896606e-02
4.805964348391212893e-01,5.344030721065968770e-01,4.680950128591899739e-01,6.205496295479550999e-03,-5.786281682904874032e-03,1.300766960069326197e-03,6.281037628650665283e-02
5.514565233433326163e-01,5.185823214199645204e-01,4.186730227086588596e-01,5.671104741923696253e-04,5.207984412956747494e-03,2.370722661063597719e-02,1.269466429948806763e-01
5.591299207716915465e-01,5.359014816157771088e-01,4.215812778107520531e-01,9.529544773939664995e-03,3.334051794571770561e-03,2.045038865529297256e-02,1.335087567567825317e-01
5.685740696518118975e-01,5.494297863495619660e-01,3.392837440747878963e-01,3.615789471386372540e-03,1.973266729019185900e-02,1.858273304303009743e-02,2.253758311271667480e-01
5.476897606061067458e-01,5.165390206844227006e-01,3.737249098141358639e-01,-9.310658755256682583e-04,-5.723613780022861197e-03,3.314749745529763786e-02,1.709156334400177002e-01
6.012864520665570645e-01,5.557807691837554076e-01,4.219388354223092552e-01,7.427979780189061278e-03,2.748084365956237826e-02,6.911128864358699608e-02,2.069667279720306396e-01
4.618868035159747754e-01,4.698742449029660873e-01,5.362479499185245357e-01,-7.932777133700037384e-03,-2.382699809614404439e-03,-7.400506353246412428e-03,7.327718287706375122e-02
4.632307335418484606e-01,4.703336417990225393e-01,5.342241303875413516e-01,-2.802897073825474320e-03,-1.661151546583933530e-03,-1.818998505646266450e-03,6.802960485219955444e-02
4.687720014245336797e-01,5.368933360572065716e-01,4.601304934986452100e-01,1.262997813070116954e-03,-7.134319322691192421e-03,4.384211314017274802e-04,7.390480488538742065e-02
4.630806729690296053e-01,4.689415280942396125e-01,5.342091978641987371e-01,-2.622421330181669546e-03,-1.645262979560818727e-03,-1.247592086566170523e-03,6.863063573837280273e-02
5.268168354407709586e-01,4.081671024066735320e-01,3.755037005811973083e-01,-1.123141663791387274e-01,-1.359782367298107142e-01,-1.826735830523302517e-01,4.609151184558868408e-01
5.928788704471835702e-01,4.221311379944153730e-01,4.591690399770567699e-01,-4.302956161597230184e-02,-1.191593250270758103e-02,-1.274885774809387251e-01,2.809680998325347900e-01
5.639996281979858805e-01,5.086599223725392083e-01,4.230743309136020813e-01,-4.662908900921798432e-03,-5.399940242021041871e-03,-4.573245736629456132e-02,1.468016952276229858e-01
6.046429048671195794e-01,4.005695948004076024e-01,3.950432147987538722e-01,2.158028613224022979e-02,1.425726964516867319e-02,-1.401269638996546218e-01,3.220525979995727539e-01
5.625442342257033213e-01,5.273883448663891915e-01,3.812412924654529633e-01,2.934585055383964747e-03,1.745587077346780073e-03,-6.675144175871033925e-02,2.028178274631500244e-01
5.594223118990133692e-01,5.343997046169858267e-01,3.761168505353785219e-01,-4.717731094461943137e-02,-4.957491855583460311e-02,-7.890313103170806808e-02,2.497347891330718994e-01
4.999278425834864370e-01,5.519323826566466806e-01,4.691231484538405661e-01,5.672541853549563362e-02,-8.755899596818464414e-02,5.779778515189503557e-02,2.189296483993530273e-01
4.028873298662311586e-01,5.554393791717420203e-01,3.728091122634600851e-01,9.522128144178822196e-02,-1.732103760261551051e-01,8.205672436070225728e-02,4.076420366764068604e-01
3.013650976149148120e-01,6.749139230166659731e-01,5.256610960730033755e-01,5.402380631628032198e-02,-1.812664680533830064e-01,-8.404490471139992175e-03,4.621711075305938721e-01
2.920768565355278956e-01,6.167283596303317905e-01,4.600025870954362883e-01,3.997188949779162392e-02,-1.636571633750569521e-01,4.791666285652737556e-02,4.136575758457183838e-01
4.784176940591589045e-01,3.856243207121288208e-01,5.502723467209822417e-01,-8.427930824822051081e-02,-2.197207052716323300e-02,-3.579217032953404404e-02,2.168914377689361572e-01
3.185953109563122720e-01,6.737144182491521249e-01,4.904654808493589258e-01,8.964401597095386642e-02,-1.397567043583805291e-01,8.897159747798220886e-02,4.484042227268218994e-01
3.985462298837965656e-01,6.192924316876913249e-01,5.567216245006756381e-01,6.702337722465616376e-02,-7.118558546390588160e-02,3.619749783044711594e-02,2.672846019268035889e-01
4.708744000633396931e-01,5.344805896712424564e-01,4.698428554249319822e-01,-5.125534033903678642e-03,-1.047731176669587476e-02,-4.187503259910782538e-03,6.762517988681793213e-02
4.566582792361121856e-01,5.355199269932742201e-01,4.686140619031303745e-01,-2.616188992314658155e-03,-6.897512686977079997e-03,-2.056502161625983413e-03,7.480104267597198486e-02
4.963213593306718407e-01,5.060356816872870755e-01,4.912171483590058729e-01,1.399125963341682011e-03,-8.117297675746591810e-04,4.005095226217938661e-03,1.503252238035202026e-02
5.239053002342941578e-01,4.582238449713551542e-01,4.846300754683049439e-01,-3.479441077373436435e-03,-8.311140258298295794e-03,-6.475901414678121755e-03,6.038459762930870056e-02
4.715842162457565268e-01,5.300158264409532416e-01,4.694903470607206808e-01,-6.868959016177615673e-03,-1.032115493270214200e-02,-4.196097895478529197e-03,6.367836147546768188e-02
5.294515235457813995e-01,4.144380389643618212e-01,5.487633578935564582e-01,1.138484336124568480e-02,8.382401113953169211e-03,5.049683367127813082e-04,1.281505823135375977e-01
5.568736370004006009e-01,3.891686930382717846e-01,5.707917015176078301e-01,1.696739345668510715e-02,1.271981104630958218e-02,3.120550785062621828e-03,1.789722293615341187e-01
5.419066636304824547e-01,4.401157861094527335e-01,5.585919820619958953e-01,5.396436443250718362e-02,-5.155673505001613817e-03,1.277156037499208377e-02,1.471180915832519531e-01
5.250040689887228718e-01,4.073346050567201448e-01,5.651692305259168325e-01,-2.420851118482122283e-02,5.982466920862858275e-04,1.983910329543168386e-04,1.481381207704544067e-01
5.264992398603304258e-01,3.655973731075765620e-01,5.536065967399028676e-01,4.690437715916741940e-02,1.000927577180446733e-02,-1.279067446786005466e-02,1.959011703729629517e-01
5.356207246084447871e-01,4.141078390416669253e-01,5.569212254754267732e-01,7.955442043855090462e-02,1.233455027789314394e-02,-1.827275086832363948e-02,1.955816894769668579e-01
5.420628579726105567e-01,3.926151288818326424e-01,5.639897003456878499e-01,6.800690751427097488e-03,2.693409874616446882e-03,6.368300848965822904e-04,1.620310246944427490e-01
4.996336320738626879e-01,4.326499730254038667e-01,5.327071648245401692e-01,-8.363821943604642789e-03,-1.261292805245826237e-02,-8.090063981104112650e-03,9.316394478082656860e-02
4.840249551793944227e-01,5.431515093175803832e-01,4.354427137462697495e-01,1.502165947376908227e-03,-1.609489280945049922e-02,-2.394647459883929297e-03,9.762065857648849487e-02
5.365454091561067118e-01,4.247585309799098985e-01,5.513821966449614642e-01,1.945175198199225117e-02,6.899401941536461094e-03,7.954546585850972825e-04,1.251191794872283936e-01
5.501352995828986403e-01,4.890120269079621940e-01,4.378749934441262814e-01,1.139148664719392794e-02,1.092798019633704678e-03,5.243798531771143995e-02,1.346061676740646362e-01
5.901897775669268098e-01,5.265884506297817680e-01,4.634482861709215973e-01,1.368039725767146268e-02,4.134316946593506042e-02,8.533461913489839845e-02,1.989543437957763672e-01
4.847936929425545327e-01,5.176742785652889145e-01,4.793197302613578792e-01,5.956378299072757031e-03,-8.285093435487701774e-03,2.078961126317565179e-03,4.020465165376663208e-02
5.484554013795400751e-01,5.284241751851787017e-01,4.276688943638685680e-01,1.132549978833943469e-02,-6.740307876808254543e-03,4.174569623007927388e-02,1.353526264429092407e-01
5.005278035069122833e-01,4.964164315460555810e-01,5.056294522191456808e-01,1.748740105345501132e-03,-2.651908667967164349e-03,1.604611128869674408e-03,1.009462401270866394e-02
5.509081577750476466e-01,5.357652636404026669e-01,3.992065304875275777e-01,3.613466307077128556e-03,-3.180059866019842307e-02,5.931033171879972893e-02,1.859345138072967529e-01
5.360534665977260138e-01,4.452100513800348325e-01,5.219642991185090564e-01,6.890573948805661306e-03,-8.198167094273831057e-03,1.417835125290651394e-02,9.010144323110580444e-02
5.631370486642138795e-01,5.448738444222694932e-01,2.551051978408989118e-01,3.811969313939742726e-02,-8.653882426278364237e-02,8.257356931145405643e-02,3.699634373188018799e-01
7.281494834472674871e-01,6.266385916387264832e-01,4.062689317504177833e-01,1.202264324966333398e-01,3.589953028502066573e-02,1.535179583036652418e-01,4.462846219539642334e-01
4.161314253216753523e-01,5.161720960894938814e-01,5.405660588821366019e-01,7.516915285046015319e-03,-6.228437144605396096e-03,6.226136203984497866e-03,1.159559264779090881e-01
5.829171018490091338e-01,5.397210782467094514e-01,5.056072067022265859e-01,5.871609164214107446e-03,2.245214071055538427e-02,1.018610941534729558e-01,1.929922401905059814e-01
6.119504658670785746e-01,4.108540091456698296e-01,4.168674229793959962e-01,4.303366751108321508e-02,-1.211858826143511272e-02,1.545143214045215374e-01,3.418873548507690430e-01
5.321161405552004009e-01,4.834239407557718859e-01,5.000257522976485625e-01,1.396150084419988443e-03,-3.456844123338701381e-03,4.817018483820078786e-03,4.415291175246238708e-02
3.809672534144503131e-01,5.019685216751387236e-01,5.117608053957952707e-01,-1.357184996600521443e-01,-1.208395837372939347e-01,-7.439333322437759188e-02,3.627538084983825684e-01
4.747075168211694063e-01,5.015668552716645578e-01,4.892516500320536754e-01,-5.027945739574505614e-03,-2.423844063384853875e-03,-7.292520705272254912e-03,2.820139005780220032e-02
5.300778143352130600e-01,3.875873089708768426e-01,5.156964197193403265e-01,-3.563199277864666920e-02,-2.740888167144529472e-02,-4.999238840302903247e-02,1.789456009864807129e-01
4.576160406901750854e-01,4.970054957649255867e-01,3.985407557161709247e-01,-1.098379943888798116e-01,-1.501604486542719719e-01,-1.598560966190359367e-01,4.334373176097869873e-01
4.150085204142118234e-01,5.499873359886814361e-01,4.127301698474887814e-01,-1.742769324112112828e-01,-1.906726705372586150e-01,-2.055099090324625510e-01,5.877248644828796387e-01
5.192172673660478965e-01,4.930199362589387513e-01,4.845053025016679560e-01,4.981863982471240217e-03,1.723390965684341077e-03,-1.680028038250247393e-04,3.263911232352256775e-02
4.715945684348702982e-01,4.665899410682853854e-01,5.366127101632351959e-01,-2.279579278322590562e-03,-1.040165694167174710e-03,1.423151956605874180e-05,6.779847294092178345e-02
5.008147634579495078e-01,4.989710633373076187e-01,4.988328132995221709e-01,4.033750560579612578e-04,1.194010755850758002e-04,2.196034233267330068e-04,2.085381420329213142e-03
5.162111103646163102e-01,4.677896603922178098e-01,5.401157623625125748e-01,7.084988602668545674e-03,-5.947766535349147989e-03,5.564264762512984366e-03,6.650690734386444092e-02
4.083270612002757871e-01,5.284539986710089510e-01,5.045271547844623061e-01,-1.319629481241916744e-02,-1.809197354720779721e-02,-1.729464677915924439e-02,1.205421760678291321e-01
5.624677477042673290e-01,4.202480934922714351e-01,5.566356855848839658e-01,3.958910088643749405e-04,8.107807048352186699e-03,3.601199478020714745e-02,1.533599644899368286e-01
6.046057642150556299e-01,4.104213337821182583e-01,5.735199882274896188e-01,2.697213929258493806e-02,1.716909516016433893e-02,7.542662626123219916e-02,2.297213375568389893e-01
4.286860977141885853e-01,5.100982093092970571e-01,5.360885605425352862e-01,-3.660195819760385383e-02,-2.811480676500917666e-02,-1.572638841424978118e-02,1.286536157131195068e-01
5.746138353684866473e-01,3.684191191042178182e-01,5.546300941158724962e-01,-1.433483800885512055e-02,1.896298387141910581e-04,5.397777627891480606e-02,2.194366455078125000e-01
5.279445365298089943e-01,4.884596294670229266e-01,4.887272039575790150e-01,2.135091670072549949e-03,-1.917754966916614514e-03,2.147311520035018358e-03,3.983850404620170593e-02
5.643317531834972645e-01,3.978720754131961912e-01,4.990313424135762177e-01,1.278750240663393395e-04,7.241993889687556654e-03,-2.848312709615054283e-02,1.539296507835388184e-01
6.986502806474350624e-01,2.525576401805579296e-01,5.574493528559807398e-01,-6.970617050763185107e-02,4.923926146082961003e-02,1.168280575167429947e-01,4.677011966705322266e-01
6.000695476256928673e-01,4.494096983533815148e-01,5.047469837398507186e-01,2.641912253018031606e-02,1.713419483736364907e-02,6.907259433831315631e-02,1.863094717264175415e-01
5.250313309503608084e-01,5.008409144285953518e-01,4.519132159725214315e-01,3.018793720414644083e-02,-3.398896485516812727e-02,3.647762215578208289e-02,1.198090612888336182e-01
5.783278513306965296e-01,4.455814758569532907e-01,4.932953861706649290e-01,-1.749938997739884997e-02,7.684246737729737153e-03,6.841853637414395395e-02,1.694210320711135864e-01
5.407507941465781176e-01,4.788106535330434177e-01,4.565656898229800142e-01,-3.517697146139471369e-03,-4.363972474764629228e-04,-6.265844054052930982e-03,7.658167183399200439e-02
8.094550591512150728e-01,3.917372440986672810e-01,4.319639374357056028e-01,1.053437989475713155e-01,7.735092533642350110e-02,-1.770257669012989532e-01,5.518684387207031250e-01
5.840763835533068216e-01,4.329991612416018709e-01,4.624858812591032264e-01,3.794401772419948166e-02,6.407611075868578643e-02,-8.751118754673264943e-02,2.425904721021652222e-01
5.619050100270436277e-01,5.622845777418539193e-01,3.868371886171965701e-01,3.062317958873655554e-03,-5.705970748616801674e-04,-1.796413829797046530e-02,1.780802607536315918e-01
5.637575892569751668e-01,5.687922269844650769e-01,3.073653424516560317e-01,2.081310006869407665e-03,-1.572763146417844801e-02,-3.012099375896593392e-02,2.655749619007110596e-01
4.913609109536674624e-01,5.148023346963943592e-01,4.942828928247115505e-01,2.869358467296687261e-03,3.482999798891985195e-03,-5.141042949922328478e-03,2.509835362434387207e-02
5.651051819961662170e-01,5.681781964478905822e-01,3.188829963892275687e-01,9.276040205401406974e-03,2.525631155368202041e-02,1.536471086199464250e-02,2.535181641578674316e-01
5.693141423754970454e-01,5.694033915809246782e-01,3.329116053432206179e-01,7.073370816131712389e-03,7.453535341000378824e-03,1.482796468306543311e-02,2.385029047727584839e-01
4.762561427263726777e-01,5.298046866738848060e-01,4.743413477253614619e-01,5.109937555964982978e-04,-2.773212391659974577e-03,3.664334881016446423e-03,5.511610582470893860e-02
5.865781919742821815e-01,5.841644970153545557e-01,3.623925135052701307e-01,-4.811161087770288863e-03,-1.317556089540587554e-02,3.811060774444188087e-02,2.338191866874694824e-01
5.208030350709783596e-01,5.074003994991522770e-01,4.947649691029028518e-01,-8.690293239238696538e-03,1.473751873104957311e-02,1.738574047432489555e-02,4.789124801754951477e-02
4.944112120897667384e-01,5.267159311874285432e-01,4.961107186750443598e-01,-4.432154456418320454e-03,6.933713833508494198e-03,5.988514695620222351e-03,3.608779981732368469e-02
5.418827048909676813e-01,3.993468762275192430e-01,5.356366637403545683e-01,4.419156264366217758e-03,-3.307913065254255232e-04,7.926988598697693247e-03,1.404016315937042236e-01
4.867464436052002519e-01,5.239112455224360643e-01,4.944098592947567261e-01,-9.769714778029209290e-03,2.002580697589500386e-02,1.648024683830540127e-02,5.881647393107414246e-02
4.918392482797755982e-01,5.156512161817505824e-01,5.002367452157183703e-01,-6.371198493606671821e-03,1.101517879569312644e-02,8.227712114968902327e-03,3.356235474348068237e-02
5.289439278024813396e-01,4.737486671772457858e-01,5.212010103804959327e-01,2.564930485747906816e-02,1.685193222869977789e-02,-2.266839269353619971e-02,8.394217491149902344e-02
5.301255148478157819e-01,4.747974211869034900e-01,4.750575963174553107e-01,2.176840486095488929e-04,1.340035721797003081e-03,-1.517612429659672205e-03,5.531102418899536133e-02
5.022416431753073951e-01,5.423426846505965404e-01,4.753754075460721595e-01,7.760470450438207565e-04,5.634011851377199176e-03,7.112971634012297791e-04,5.920982360839843750e-02
4.893301255453271215e-01,5.104513782559672030e-01,4.957450555419843918e-01,-6.102401699342228578e-03,4.484040677361780282e-03,7.743508113098230075e-03,2.652717195451259613e-02
4.721409728912536186e-01,5.012635159411932273e-01,5.353800745143209028e-01,3.754881292443286878e-03,-6.792545031895109043e-04,5.369797431354799908e-03,5.599829182028770447e-02
4.943916454715837072e-01,5.156884784240134412e-01,4.938647300171238874e-01,2.327969138872334684e-03,1.377815790736374444e-04,-6.958404620462666770e-04,2.197321504354476929e-02
4.903352720671900755e-01,5.071977269450952397e-01,4.998080211588259436e-01,-2.982276048351646322e-03,4.268105719609307375e-03,6.591142508012969720e-03,2.063984237611293793e-02
4.860660142849659304e-01,5.249627592216763450e-01,4.979352117490641882e-01,-6.748132379270247805e-04,2.887799994514120717e-03,5.967510266770031067e-03,3.640576079487800598e-02
4.838816001093415031e-01,5.163494125952683422e-01,5.016626788363404144e-01,-3.082960713078744530e-03,3.276909032514875499e-03,7.420121998947053557e-03,3.192046284675598145e-02
5.687038345226858027e-01,4.834360775158672574e-01,5.907833872902663597e-01,-5.784050003192862943e-02,1.943282708060750652e-01,1.993013049777287715e-01,5.021262764930725098e-01
4.702849020894367404e-01,4.877264695207597645e-01,5.053508244927606974e-01,-2.509967872947110965e-03,-1.878788646925660987e-03,-1.076055052192589900e-02,3.604275733232498169e-02
4.927543479188967179e-01,5.064821615617900452e-01,4.010265474052591705e-01,-5.990821486829179393e-02,1.366186954947025411e-01,1.255644472030921777e-01,3.520254790782928467e-01
4.983676157936909323e-01,5.008818013681101133e-01,4.992858674538407926e-01,-1.167905692502064732e-05,-1.128491171360843911e-04,1.075874556566302044e-03,2.892540767788887024e-03
4.852434045192351442e-01,5.278886378939656732e-01,5.029847186076820131e-01,-3.116821158260085897e-04,4.286937040852469190e-03,9.298209569319468293e-03,4.112885519862174988e-02
4.891383065068210523e-01,5.044632619070990032e-01,5.059810926643689699e-01,-6.585815972450458338e-04,1.951812459866246029e-03,6.273644218677919618e-03,1.977939531207084656e-02
5.201033614256082016e-01,4.472778774291663595e-01,4.063449352883433119e-01,-8.271976799262760471e-02,1.184126068698434092e-01,1.367848409804649779e-01,3.587235808372497559e-01
4.582429102442298063e-01,5.192709066340609469e-01,4.938784405402238398e-01,-8.335476484193464486e-03,9.622203093695009396e-03,8.445031916737285455e-03,5.932705104351043701e-02
4.490642374250108926e-01,5.624804623559620520e-01,5.667373943480831233e-01,-6.431841140852320726e-02,8.661885978847934375e-02,6.225409068441686844e-02,2.447650581598281860e-01
5.359405807432522373e-01,5.598394318260939695e-01,4.454062336777469544e-01,1.641188258826715724e-03,2.555219120029397772e-02,2.066231947639489766e-02,1.190752238035202026e-01
5.747955115810805538e-01,5.305019761889767649e-01,5.392258260256365121e-01,-3.806551691792054576e-02,8.171536249645931782e-02,7.895544167679757752e-02,2.115009427070617676e-01
4.987754103779313830e-01,4.793332729181659646e-01,4.735359109618069162e-01,-8.271892515548417632e-03,-3.987272173439120743e-03,-5.622247775027389843e-03,2.953160740435123444e-02
4.886849274722627756e-01,4.861131178308725209e-01,4.839639956372527863e-01,-2.560392266341431858e-03,-1.508643144615757787e-03,-7.701520492571011867e-04,6.710760295391082764e-03
4.963734703015877381e-01,5.323189488260203772e-01,4.057617950821081898e-01,-1.890335694952165885e-02,-2.558488708161136063e-02,-1.281647153530049779e-02,1.276251822710037231e-01
4.548487803292109999e-01,5.023572665662421333e-01,5.052333880090469354e-01,-5.528293581404281586e-03,-5.377638615249349420e-03,-1.375113657750233649e-02,5.610430240631103516e-02
4.992226188304431100e-01,4.787160041315589587e-01,4.807645424052619521e-01,-1.920971024272726240e-03,-4.286863032546407541e-03,-1.414578303146903950e-03,2.132871933281421661e-02
4.926004550170808849e-01,4.862258124697941275e-01,4.802300440129023129e-01,-4.354296165373037000e-03,-1.856113708924981166e-03,-1.500738503445884098e-03,1.373965013772249222e-02
4.462708016053255067e-01,5.431967234743219075e-01,5.021974894722203153e-01,8.765317302525841084e-03,-1.630957375249470279e-02,8.176045384764088486e-03,9.127280861139297485e-02
5.387473673600128299e-01,5.046432077516331827e-01,4.842059923725303139e-01,1.320843366045302246e-02,-1.090325078200970674e-02,2.163218513294727641e-02,6.754000484943389893e-02
4.817340192498366647e-01,5.168481064441423634e-01,5.016378916791488507e-01,3.122669044772256441e-03,3.716055916812439127e-03,-6.312213170137917322e-03,3.347341343760490417e-02
5.378430517232162256e-01,5.218410554093144693e-01,4.152245818950184852e-01,2.184930398671794741e-02,-2.529058171720112436e-02,3.985974166939185853e-02,1.464466750621795654e-01
5.427568220891764161e-01,4.987284897000341943e-01,4.551522656021386726e-01,1.472097838219337809e-03,-4.031481685267131188e-03,2.058852934939521540e-02,8.415991812944412231e-02
5.676914359933878940e-01,3.357620479162305438e-01,5.180136132994886955e-01,-1.733135384500526094e-02,-1.409238898750518609e-03,-6.300852280539323558e-02,2.399055808782577515e-01
4.390140080285173108e-01,7.754575498866524974e-01,6.130308864790667833e-01,1.417838418182556515e-01,-1.761743669964546399e-01,1.446725099039133655e-01,5.487621426582336426e-01
5.335936637476734745e-01,4.914837142550330107e-01,4.522391582112569308e-01,7.955355482736785333e-03,-1.187229374707609707e-03,1.824613598044106874e-02,7.847818732261657715e-02
5.520449796746766946e-01,5.043831438590694605e-01,4.659463679443373585e-01,7.522315781486745880e-03,9.664310261839089214e-03,3.285894344473486856e-02,9.628129005432128906e-02
5.481908103784659536e-01,4.876449552217503869e-01,4.793612638004332571e-01,1.498411477509797862e-02,5.827139634302638468e-03,2.717750672903358755e-02,8.501324057579040527e-02
5.813940259809891042e-01,5.046511467975036691e-01,4.485828608833163367e-01,2.200332355098509954e-02,1.480424489697561991e-02,1.160298572490330998e-01,2.362936437129974365e-01
4.297777404069448304e-01,7.004843823325643815e-01,7.487954398119213151e-01,2.115389144795668253e-01,-5.815877956957377082e-02,1.169079186848942520e-01,5.235360860824584961e-01
4.860376073674290143e-01,4.900788386048110512e-01,5.361949990995256154e-01,1.870177936022354888e-03,1.514292121707426454e-03,-1.041378009100328485e-03,4.847703874111175537e-02
4.708375966740667717e-01,4.637384334700817012e-01,5.344379204447751164e-01,-3.897742920291904362e-03,-1.451401633880278728e-03,-1.448225417266335449e-03,6.786086410284042358e-02
4.753702959486914015e-01,5.385322183303925536e-01,4.751204483832415781e-01,1.647240364918985556e-03,1.671368988511914895e-06,2.188594669217239219e-03,6.346480548381805420e-02
4.947192695510925220e-01,5.107459343590561307e-01,4.972003118304537672e-01,-8.075109717971421051e-04,5.869761411089426855e-04,3.151105477933839605e-03,1.600077934563159943e-02
5.006607134980868290e-01,5.009116823347334879e-01,5.032891218734196759e-01,-2.163464704494762799e-03,2.648255894571042643e-03,3.736727302494014229e-03,9.125939570367336273e-03
4.996273646262488488e-01,5.053403226458501596e-01,4.959746386356146397e-01,-3.182828416892369543e-03,1.391465025022975378e-03,1.273155425691965392e-03,1.038800552487373352e-02
4.994722213393346100e-01,4.999618105704673465e-01,5.000802721774925130e-01,8.851896295182201972e-04,9.035349175608727674e-04,-1.188429692940059026e-03,3.057553200051188469e-03
4.039314243602146748e-01,5.515404723391124087e-01,5.290736500387810404e-01,-2.277243067808418578e-03,-1.064248593529805616e-02,3.290290372071526769e-03,1.391571313142776489e-01
4.943506504312599192e-01,5.277418657901965515e-01,4.886130534564488981e-01,4.401525434343451712e-03,9.631407867500425260e-04,-1.197444456913791941e-03,3.747910633683204651e-02
5.349361738079660977e-01,5.024029215260947812e-01,4.497528550364905398e-01,7.986483486898995898e-03,2.665205971627682309e-03,-7.566620434571007248e-03,7.699183374643325806e-02
4.980465087848767736e-01,5.026643167163998838e-01,4.997697130199991733e-01,-4.548366186407997412e-04,2.550130313454670268e-04,2.098590167658502537e-03,5.510365124791860580e-03
5.955976190613239130e-01,2.607498811056834231e-01,7.558370075248457276e-01,1.205636790937420905e-01,1.227689800203459955e-02,1.002653142258575769e-01,5.154355764389038086e-01
4.477009497358515056e-01,4.862099047051662293e-01,5.104555928705142298e-01,-9.849785417936940055e-03,-1.266633289318982135e-02,-1.587339215657760857e-02,6.732551753520965576e-02
4.933161238558962380e-01,4.822464119107977565e-01,4.794258583853657774e-01,-1.652237271692127973e-03,-5.010763259778451030e-03,-2.276468883409607860e-03,1.614857837557792664e-02
4.931700091753113413e-01,5.114370888448058761e-01,4.900165637084856196e-01,3.431415427668847978e-03,-1.633142918460227331e-03,2.234261085252033704e-03,2.143678441643714905e-02
4.858523295593863978e-01,5.271941730090614620e-01,4.892531988927846243e-01,8.311826649671155004e-03,-4.406119915467477006e-03,8.356197528151722981e-03,4.533315449953079224e-02
5.189018623863236312e-01,4.692366563441224270e-01,4.942791230638482469e-01,5.313779487523356132e-03,-8.190513355953729993e-03,1.159941706936276282e-02,5.039464682340621948e-02
4.743142208244714442e-01,5.239407174172694415e-01,4.788083227187140967e-01,2.027932392613421893e-03,-7.105928738896933293e-03,4.826311280151430495e-03,4.993655532598495483e-02
5.232512575756503859e-01,4.994328838115256186e-01,5.676847436144668579e-01,-6.533644564338801641e-02,5.973522417626951631e-02,6.657066949735318540e-02,2.010134011507034302e-01
4.982713843722165747e-01,4.986333623127276460e-01,5.005974038017262373e-01,4.692365778492464440e-05,-1.511920935965245180e-04,7.035795281863448884e-04,2.501935698091983795e-03
4.674065874000549181e-01,4.699315249156031937e-01,5.353191558784266002e-01,3.510028725241915132e-04,1.123649675876599481e-03,-1.080598287716025372e-03,6.674337387084960938e-02
4.879576860395397064e-01,5.178131647937505022e-01,4.887246230179618234e-01,6.885353087681719830e-03,-3.889557015633115546e-03,5.715196802903229657e-03,3.398001194000244141e-02
4.824527266929559133e-01,5.185573921700699085e-01,4.884234025290860592e-01,2.384518112000547693e-03,-4.027898275455063515e-03,6.073179301841933990e-03,3.605560585856437683e-02
5.204774949523692795e-01,4.338132125487504376e-01,5.428395519254320956e-01,1.849196677234319144e-02,-9.952695689984726590e-03,1.157398945311504876e-02,1.080446690320968628e-01
5.831473959824718944e-01,4.673936204933265004e-01,5.705729531257934806e-01,5.594169434135532609e-02,-5.493897622613317863e-03,6.777569670370559018e-02,1.880455166101455688e-01
4.916838763096920140e-01,5.133319220266039373e-01,4.942084455622382522e-01,-5.143671288161096380e-03,5.800472130096076366e-03,5.730100265209661647e-03,2.644182182848453522e-02
5.212893934442450750e-01,4.127672778673329712e-01,5.358554262538633983e-01,4.220587561443351482e-02,-1.184249028606648366e-02,3.036458273131335470e-02,1.486631184816360474e-01
5.598788075144354170e-01,4.567632374783854310e-01,5.330953698786391470e-01,4.896603316627779617e-02,-2.908781661199407592e-02,5.709452947788212773e-02,1.676277369260787964e-01
4.998689787327141865e-01,5.347520708608571871e-01,4.760518353775975431e-01,-2.082312111253400815e-03,4.116098635501767855e-03,2.248549512417782111e-03,5.190284177660942078e-02
5.178300396924242488e-01,5.082204880714634720e-01,4.912002639801284487e-01,1.453868076433942683e-02,-1.140323369629589814e-02,1.673578832179979659e-02,4.909245297312736511e-02
3.943668954060118859e-01,5.314319608616678847e-01,5.590555871678206667e-01,-1.204172443801033478e-02,-1.167323796214640068e-03,5.281532009918141202e-03,1.544633060693740845e-01
5.191106083682532901e-01,4.488545314138211451e-01,5.195631797929408657e-01,1.600503488042925165e-02,-1.189620331162852089e-02,1.323417798122281802e-02,8.177034556865692139e-02
5.021442963148591287e-01,5.003814078722182979e-01,4.981273364693306616e-01,1.411631819204960591e-03,-2.478667989807652850e-05,6.285401807280838887e-04,4.396297968924045563e-03
5.083985771123668007e-01,4.975777945655769363e-01,4.937956889519215520e-01,3.024174241328154208e-03,-6.309305501574491437e-04,1.074412272296857871e-03,1.429731398820877075e-02
5.052849498464148104e-01,4.971700186921313436e-01,4.982294888184238824e-01,2.220160609148105323e-03,-3.326849039342372888e-03,1.116173495119324047e-03,1.049312669783830643e-02
5.281874449354562184e-01,4.781547398660853654e-01,4.925301327660472350e-01,-4.253138925482299361e-03,5.221552825105543749e-03,4.704863044807811208e-03,4.683110490441322327e-02
5.235215300633141444e-01,4.889031449805506524e-01,4.886688399750962475e-01,-5.710745316985454088e-03,3.200465202914595277e-03,2.485648178202148374e-03,3.679267317056655884e-02
4.930784134184539313e-01,4.987352963214355395e-01,5.068241620526588997e-01,8.514042950702716786e-05,7.814726541442198722e-04,3.244747343117433420e-03,1.329010352492332458e-02
5.257646270451149517e-01,4.886399682444387271e-01,4.857617022909075377e-01,-3.546392308134057106e-03,2.899223574057435519e-03,4.694706411360102978e-03,4.027961567044258118e-02
5.573774728416117652e-01,3.676807907073778026e-01,5.631226364673606044e-01,-5.250795385344984812e-04,6.321805098063000214e-03,-1.592947023190814659e-03,1.929663419723510742e-01
5.213606538476694974e-01,4.927669846072777471e-01,4.923115251909423451e-01,-2.039018084367716019e-03,5.982747732690350513e-04,8.946593739784065250e-04,2.909942343831062317e-02
4.807827797972678563e-01,4.367534752551796573e-01,5.314475352933478725e-01,-1.148759596952367290e-02,-1.323300467246747887e-02,-8.494003658061004963e-03,8.873503655195236206e-02
5.002765953885977002e-01,4.213240553563039059e-01,5.223607192232087026e-01,-2.282348703755733565e-02,-1.711050032881303654e-02,-8.913875712452296735e-03,1.055662035942077637e-01
5.257354592602468957e-01,5.387689575205593107e-01,3.790590777544819989e-01,7.645721975086418321e-02,1.552897156541769019e-01,-7.279991249328847391e-02,3.596898913383483887e-01
5.012736994526082457e-01,4.282533298506908670e-01,5.029242156063390423e-01,-1.890457076097258951e-02,-2.395698921066672510e-02,-1.943603462724408787e-02,9.686309099197387695e-02
5.084841897812384381e-01,4.328775701280962451e-01,5.073474975000555887e-01,-1.329748115184850935e-02,-1.803016348570517582e-02,-1.123156814330265700e-02,8.669420331716537476e-02
4.832311176443042089e-01,4.506393827947747788e-01,5.174987714695803431e-01,-9.602145366639957408e-03,-1.322596873368503921e-02,-6.507053397129223225e-03,6.543502956628799438e-02
4.995936134763324099e-01,5.071233489313886622e-01,4.965206529712899441e-01,-8.462500478244050234e-04,1.585751956107786303e-03,1.833332071583818100e-03,1.044289954006671906e-02
2.461573703929555434e-01,6.247184258096174503e-01,6.090488935790979719e-01,4.640323204095502668e-02,3.387727187332837536e-02,-1.474423341617153282e-03,3.840982317924499512e-01
3.230774070669276687e-01,5.698972787235137005e-01,5.739322158650679295e-01,-3.993138652566007724e-02,8.646088935878280812e-03,2.234728113335464686e-02,2.616070508956909180e-01
3.383496753439775295e-01,5.887977222878348904e-01,6.040105929132645324e-01,9.899970725979574324e-03,2.213903038676229632e-02,2.866268064607363497e-02,2.664484381675720215e-01
3.717704821314039565e-01,5.686694006003897295e-01,5.658577596086951100e-01,4.263875034200735430e-03,1.363709052760684465e-02,2.605587837258348076e-03,1.971200108528137207e-01
4.856216078679521098e-01,4.899197236765954200e-01,4.839312569625534022e-01,-1.758679766231493373e-03,-4.833429185668966944e-04,-1.182749732232247358e-03,6.540093570947647095e-03
4.892844311458255380e-01,4.872398659323502468e-01,4.877433851103450957e-01,-4.163137191817117659e-03,-2.812341288708539600e-03,-3.430538091306663956e-03,1.069733593612909317e-02
4.851693284360035774e-01,4.845641510270365937e-01,4.867173485079994699e-01,-6.802565885242999998e-04,-2.185661729371222474e-03,-1.789648989937242659e-03,5.387723445892333984e-03
5.570589117805582191e-01,7.495890123941418848e-01,4.539404071421475062e-01,1.292862839691054921e-01,-1.750080599870816045e-01,1.411266849870161932e-01,5.189732313156127930e-01
4.839103683256452682e-01,4.865216155786258323e-01,4.868157270075481047e-01,-9.202436913966023559e-04,-1.688388156302088328e-03,-2.342072165811065129e-03,5.934772547334432602e-03
4.868009385944388479e-01,5.320156993631310893e-01,4.899552031438088040e-01,1.629921098382058247e-03,1.291992012717674840e-03,-1.462588374109240891e-03,4.394428059458732605e-02
4.945264303555280128e-01,5.346528565111695608e-01,4.905315547872806103e-01,8.319228488899318291e-03,7.105025479410695226e-03,-5.565769022517770559e-03,4.731168225407600403e-02
4.849605195416011316e-01,5.275769133461488680e-01,4.878404073012481690e-01,2.077788943612655145e-03,7.103653281582794111e-03,-3.251580771700600999e-03,4.356347024440765381e-02
4.910206386668322653e-01,5.191114680020496586e-01,4.927767034720036965e-01,1.492930626549638295e-03,1.566632931406350144e-03,-3.169952213872806370e-03,2.805431373417377472e-02
4.960230564709050549e-01,4.973055683510387293e-01,5.013920935150428804e-01,-2.989174651722569399e-03,4.699685850123524848e-03,2.802311917862816172e-03,1.184107363224029541e-02
4.812941691129280497e-01,4.883107635135044422e-01,5.344073717114975475e-01,7.693162746301975864e-03,1.711802518227719533e-03,4.940065993876709388e-05,5.180659517645835876e-02
4.641300203140820146e-01,4.969154891483925640e-01,5.329347329643172593e-01,-7.806053926281059097e-03,2.645968641371991385e-03,1.177179468378263157e-02,6.459654122591018677e-02
5.082101837606033401e-01,4.928348625469117228e-01,4.920740920228687809e-01,-5.002153808918182072e-03,3.129986453765954031e-03,3.550063765680989102e-03,1.977221108973026276e-02
4.914684997963361668e-01,5.158728074394747232e-01,4.939929826385749956e-01,-4.623155277497715990e-04,7.824247133752190199e-04,2.018791478772370956e-03,2.355927228927612305e-02
5.053844399473016447e-01,5.004289204368973509e-01,4.968680936583629859e-01,-2.851693467314458160e-03,1.620278132713184145e-03,1.802928551380384575e-03,9.844106622040271759e-03
5.107611125455396861e-01,4.952395922770637671e-01,4.977606683301237789e-01,-1.580668136470348665e-04,3.012192330846037106e-03,6.670997896503289481e-04,1.538741122931241989e-02
5.447888368330222608e-01,4.631263177381071405e-01,4.988975052286594436e-01,-1.498831672374648094e-03,-9.568588968113659818e-03,2.311982983063714039e-02,8.313947170972824097e-02
4.554984323779805444e-01,5.296620943189901398e-01,4.945355843007139818e-01,-7.874648336327361511e-03,2.071290395428511746e-02,1.156395061840091720e-02,7.748088985681533813e-02
5.353974453062697592e-01,4.796373099630893977e-01,4.879894405432327331e-01,1.613196128026867654e-03,1.633038267914722051e-04,8.576577615526824114e-03,5.423831939697265625e-02
5.310006436426198961e-01,4.588191570376380923e-01,4.930203285094452714e-01,4.286976967998262777e-03,-3.595063393418859894e-03,1.382793267439959284e-02,6.766638159751892090e-02
5.343861067331611148e-01,4.887373444077028894e-01,4.978783234003187896e-01,9.466904837288122460e-03,-2.301504177726146089e-03,1.937825547862135483e-02,5.622633546590805054e-02
5.742476475831446159e-01,4.010533138178977164e-01,5.634805640557082329e-01,2.359653933224900926e-02,-8.565281613688023252e-03,7.712947552487543768e-02,2.190542370080947876e-01
4.890022794558943620e-01,4.791509181299771769e-01,5.346148164027793026e-01,5.493038928414756099e-03,4.001446275723221681e-03,-5.515284921743390670e-04,5.259625613689422607e-02
5.567124150763688162e-01,3.783209352298527728e-01,5.596986224160384049e-01,3.955558536654087826e-02,4.979944000099288670e-03,6.326831090272590219e-02,2.216802239418029785e-01
5.612380373625138752e-01,4.208539413356019998e-01,5.237235949540846036e-01,4.446520036278900053e-04,1.137802765107306588e-02,2.174558803538890681e-02,1.328765600919723511e-01
5.690605856582107158e-01,3.841452405214377253e-01,5.672513141098017853e-01,-4.784005267945870381e-03,5.937826873529979468e-03,1.803478072403009308e-02,1.871165186166763306e-01
5.668082823101971979e-01,3.764661281298848916e-01,5.656010216952671588e-01,-1.902268709233845972e-02,1.417496480931604470e-02,6.909085806658719908e-02,2.280588001012802124e-01
5.633606844246448198e-01,3.114615399599272028e-01,5.571518761047565826e-01,-2.458291294955164061e-02,8.486743034991420936e-03,3.269656576542687848e-02,2.591601014137268066e-01
4.787848705033629915e-01,5.346015398708541255e-01,4.989695785696123820e-01,-3.460794347681338799e-04,5.247951203410036909e-03,3.129798980469436151e-03,5.008641630411148071e-02
4.077550553903074859e-01,5.097855679482790059e-01,5.450022301114871848e-01,-4.480699101248716149e-02,-1.594612896184609621e-02,-3.620475645345011106e-03,1.485556215047836304e-01
4.997836478279285566e-01,5.005428927715855902e-01,4.995221114821642994e-01,8.715923110723101897e-05,2.977586891538445773e-04,-4.784718702743051013e-04,1.348703517578542233e-03
4.990889910241911309e-01,4.995528651986293478e-01,5.008515925469733121e-01,7.554563426044991854e-04,7.434511945383058280e-04,-1.749182927717159554e-03,3.879889613017439842e-03
3.426521899879119704e-01,5.543786811716194807e-01,5.576065992116934211e-01,-9.379575975340387686e-03,-2.007287978061671543e-02,-3.093973628199195541e-05,2.167825102806091309e-01
4.795319736162293456e-01,5.409045993213276171e-01,4.996601924370226433e-01,-1.808108589831553285e-03,5.248794848573459966e-03,5.903962392824954435e-03,5.597722902894020081e-02
3.159103714807743879e-01,5.544901143035108060e-01,5.247204894842611989e-01,-3.291828676191300290e-02,-6.337084318668055605e-02,-7.428672536623214494e-03,2.572315633296966553e-01
4.848363350990201881e-01,5.329480659421067523e-01,4.906933257513796942e-01,1.083799258319149365e-03,2.102534375708234576e-03,1.066724331293704479e-04,4.565164819359779358e-02
3.746477712080271694e-01,5.628981251151450316e-01,5.518030243136887725e-01,-5.051039847982763224e-03,-1.978237858421337883e-02,5.552844842978171998e-04,1.863441169261932373e-01
3.665427027136864413e-01,5.425355701623739701e-01,5.537419682018878131e-01,-2.704898712149751347e-02,-1.123286205104384421e-02,-1.325850384052276905e-02,1.901897937059402466e-01
3.820606010869129765e-01,5.291492264731113560e-01,5.320298350749609329e-01,-1.943603002909244024e-02,-1.912141809960313590e-02,-1.601933989375919215e-02,1.583258956670761108e-01
6.328885554072551933e-01,3.250038316067182520e-01,4.022581265028835062e-01,1.960223517238147278e-02,3.101965153935344263e-02,-2.160316797463220084e-01,4.701321721076965332e-01
4.806949804896030742e-01,5.235021657912176662e-01,4.945329991882199128e-01,-5.469087948525044179e-03,1.288389330676175878e-02,8.189148286901037910e-03,4.712199792265892029e-02
4.897366422160485677e-01,5.319444730407696387e-01,4.868101795120353126e-01,-5.092260628787011537e-04,1.947884643083553627e-03,8.021588643596753868e-04,4.390530660748481750e-02
4.868378140791549402e-01,5.319880542139848734e-01,4.887726119826588667e-01,-5.277035423958684798e-04,9.538004305756513958e-04,1.702137603717687221e-03,4.435298591852188110e-02
4.931613999550493177e-01,5.242040670679384284e-01,4.914199494322157302e-01,-2.775340871849832618e-03,1.064217882535536735e-03,1.784486461074633176e-03,3.250842168927192688e-02
4.987365563881835939e-01,4.942796591253209026e-01,5.060977333561198499e-01,3.606519747603693991e-04,3.745427669943958340e-03,1.171567244328688669e-03,1.238755322992801666e-02
4.900358776367969571e-01,5.270118371327612294e-01,4.825775236547271696e-01,-4.067300319511125278e-03,6.341487138121450727e-03,2.336910831925886889e-03,4.341985657811164856e-02
4.748679650259307050e-01,5.260531316436773963e-01,4.883312057981577525e-01,2.988245894034772046e-03,-6.530794471070485926e-03,8.738811849133958434e-03,4.995903372764587402e-02
4.973281960536590773e-01,5.056526965746348523e-01,4.971901714850397447e-01,7.717184518182802419e-03,-5.665746935442822312e-03,9.072036286848392597e-03,2.433799020946025848e-02
4.993925664541441489e-01,5.192140906829584290e-01,4.692512693737676543e-01,1.106399461834353844e-02,-4.098238257809429762e-03,3.934132306079377028e-03,4.860958456993103027e-02
5.012718852518314172e-01,5.165742640669728214e-01,4.806570061243791714e-01,1.213310514752819272e-02,-1.025443403898415769e-02,9.003880086160919241e-03,4.443983733654022217e-02
4.903268332782282357e-01,5.255524849365651452e-01,4.875609706037540292e-01,1.994433871472758857e-03,1.447774729627986318e-04,-3.934716787028471794e-04,3.685629367828369141e-02
4.808677641499925492e-01,5.283462386209006878e-01,5.027103389347723494e-01,2.673437741697283314e-03,4.682354796183505960e-03,-3.835119765497790705e-03,4.272693768143653870e-02
4.851960643482737257e-01,4.928614488718688347e-01,5.154917341993076052e-01,5.696381492543560986e-03,-1.809438211894007133e-03,5.297496428122016633e-03,3.058948554098606110e-02
5.046869798263616813e-01,5.128179339921854485e-01,4.896305580833226756e-01,7.979603931916897860e-03,2.651646650052155024e-03,-8.116742856122518071e-04,2.508632466197013855e-02
4.790250333327682464e-01,5.334821989503085726e-01,4.448657884566967757e-01,4.894236915059164451e-03,-1.193751909005766505e-02,4.913879252966455412e-03,8.102138340473175049e-02
4.290947909300260599e-01,5.354484050328182088e-01,4.591732569768408601e-01,1.414135807163596943e-02,-5.605263374411322691e-02,1.774466788319655625e-02,1.413757354021072388e-01
4.994815228514796757e-01,4.988505209140590146e-01,5.009118713540997581e-01,1.694886355438517318e-05,7.014640877031389724e-04,-4.416303513444497751e-04,2.325670327991247177e-03
4.845639242079844422e-01,5.317261631658266596e-01,4.536703774810536549e-01,6.419684768074093197e-03,-1.809651779550400241e-02,7.106313366089309210e-04,7.578457146883010864e-02
4.901790864950492099e-01,6.237389526675305440e-01,4.790363036068347458e-01,5.293278546469944862e-02,-8.869172005503192513e-02,5.123800276410064858e-02,2.435794174671173096e-01
3.727245871387496745e-01,5.970189375158357903e-01,4.165920249996403757e-01,8.344353450558464336e-02,-1.723967306763024288e-01,9.016750212588725555e-02,4.205163419246673584e-01
4.359459452886909059e-01,5.896627049310874114e-01,4.771787375796218700e-01,7.689270628567516919e-02,-7.940847550031790436e-02,4.002320245228176837e-02,2.458677887916564941e-01
4.609104522198554377e-01,5.328766232774672096e-01,5.027963798949101060e-01,2.198974076371599390e-02,-4.642602561460199700e-02,2.577883247495454597e-02,1.175993606448173523e-01
4.960882240372896934e-01,5.336493512844361353e-01,4.927301408296816954e-01,7.388574634049870082e-03,9.263199112867524093e-03,9.538048466836807310e-05,4.437870532274246216e-02
6.477692097002635263e-01,3.000893899472215631e-01,4.701217938250492612e-01,1.939530492783621968e-02,3.910869970819507574e-02,-1.938945330491925745e-01,4.573594927787780762e-01
5.484578193215448039e-01,5.257926049863614892e-01,5.205910633005367272e-01,6.064005856699761915e-02,-3.299728960021620222e-02,8.510568129481742294e-02,1.915351301431655884e-01
4.655340001933200855e-01,5.616645446210620785e-01,5.078120125894697301e-01,2.941827068344566448e-02,-4.843469868541246809e-02,1.915476553257394049e-02,1.330378949642181396e-01
5.333227785782778119e-01,4.901966663774918187e-01,4.866068149359212280e-01,3.150355639155162039e-03,5.415103300244570331e-05,1.745121053964614980e-03,4.545859992504119873e-02
5.358589248869070065e-01,4.800613141718758081e-01,4.871786925466031759e-01,1.004771540827835213e-03,-6.055443417210940905e-04,6.097402572799498835e-03,5.368949100375175476e-02
5.372306773136334979e-01,4.855897576560077034e-01,4.904684936786686822e-01,2.729170865139174656e-04,4.452136734044839978e-04,1.707764244145801953e-03,4.947940632700920105e-02
4.997360307687505054e-01,4.987190923842624302e-01,4.993773604580452052e-01,4.264752262866507150e-06,1.928748341514426588e-04,-3.955864763479151770e-04,1.174387172795832157e-03
5.414369728518665381e-01,4.985701981753304368e-01,4.746280556414485541e-01,3.404088257495433822e-03,1.383671210288320388e-05,3.916391433990141537e-03,5.931178107857704163e-02
4.855497821844665385e-01,4.905520952509654364e-01,5.314951782924728363e-01,1.314017910470378133e-03,-1.354082669829760827e-03,2.623025892637637600e-03,4.401693493127822876e-02
4.932704028107257055e-01,4.924047547805832648e-01,5.219727736373946936e-01,1.320181881231881002e-03,-2.579869920487782610e-03,1.703808848350067727e-03,2.972080558538436890e-02
4.913491945031909780e-01,4.852036737761044050e-01,5.266165947216272514e-01,5.905063566890151466e-03,-3.429084624337289545e-03,1.692612474499977093e-03,4.058045521378517151e-02
4.987803130951538044e-01,5.186934573717453256e-01,4.961559427338383399e-01,6.839697761552807412e-03,4.564583283703451018e-03,-6.019496988671122449e-03,2.769898623228073120e-02
4.683320798330757317e-01,5.317917223694725859e-01,5.165117501345358741e-01,5.023966532655439222e-03,9.410660396663486291e-03,-4.649076280705679437e-03,6.080449372529983521e-02
4.936922940502171953e-01,5.207268765047495807e-01,4.952853133255454843e-01,6.437023458578114768e-03,6.148787461084181429e-03,-5.553289082182093911e-03,3.194660320878028870e-02
4.755587533175295589e-01,5.082229540008387225e-01,5.541370332425270551e-01,2.994396621207778483e-02,4.015216730375574528e-03,1.020374907637311770e-02,8.789446949958801270e-02
4.976142887101817069e-01,5.091801645686011568e-01,4.907283419758044496e-01,5.122318805129501967e-03,4.023350321576120957e-03,-2.625914356858621672e-03,2.021856792271137238e-02
4.978147808428765031e-01,5.146573317330476183e-01,4.890529109885123349e-01,5.507917825850033519e-03,3.414321103273540870e-03,-2.221007077491799972e-03,2.547149360179901123e-02
5.353017201115931600e-01,4.471134650809441280e-01,4.738104006543902291e-01,3.042644612323902684e-03,5.266049027657415497e-03,-1.695955615991784696e-02,8.431717008352279663e-02
4.964165949408009260e-01,5.356781508330956676e-01,4.937597582355776060e-01,6.685844949110915543e-03,9.951037280610088367e-03,-1.114118136701394658e-03,4.569173604249954224e-02
5.085645524068670431e-01,4.856392752255893064e-01,4.985528077310726336e-01,3.637527755004204763e-03,7.806725055653768522e-03,-2.052877112233714770e-03,2.512874826788902283e-02
4.842089262325481869e-01,5.274820250503715613e-01,4.905375136127871905e-01,3.143661976136973620e-03,6.015226737102823476e-03,-2.926755651019659690e-03,4.245761409401893616e-02
4.909439994553854159e-01,5.316837058207042332e-01,4.874147974143078210e-01,3.924899056310668724e-03,1.514889810144755050e-03,1.039466049578587938e-03,4.327006265521049500e-02
5.108994527133413621e-01,4.672051777319187194e-01,5.224177783889095705e-01,2.874139429320689276e-02,3.119915344028819162e-02,-2.036871941820998094e-02,9.585491567850112915e-02
5.289255916080384257e-01,4.687912195891737466e-01,5.172192010956713215e-01,1.888732428732661436e-02,1.543620641466246154e-02,-2.928657343578740940e-02,8.606601506471633911e-02
4.799790591933416617e-01,5.153920345797428082e-01,5.186874981950027053e-01,5.805535497461163097e-03,3.963721863590699730e-03,-5.842409327811416697e-03,4.040158912539482117e-02
5.718341240108217871e-01,4.181967307893870167e-01,4.732043033348283245e-01,6.298582710350877564e-03,1.481345136580077687e-02,-4.909016944389166248e-02,1.618206650018692017e-01
5.471445217098364067e-01,4.503555118175687766e-01,4.795517411134902486e-01,8.342550824447054689e-03,-2.153063029797590809e-03,-1.927012606886751439e-02,9.344181418418884277e-02
5.249356204006341287e-01,4.380712176435250238e-01,5.074748611569970258e-01,1.338556472245019079e-02,1.760118591855335327e-02,-1.673925364392516921e-02,9.295760840177536011e-02
4.810888992414791288e-01,5.020327604947252276e-01,5.159925625041534847e-01,3.345377375169803717e-03,3.337050883679594927e-04,9.519697173367175358e-03,3.509524464607238770e-02
5.363140688727211502e-01,4.213629033413379688e-01,5.098782515509207025e-01,3.174498182225705002e-03,1.132044803214072269e-02,-2.401107519994490763e-02,1.140967980027198792e-01
5.279430635801509730e-01,4.846462907470323045e-01,4.947620133696036815e-01,1.789694679117595499e-02,2.067551675381188933e-02,-3.647482694963600364e-02,8.816763758659362793e-02
5.461053261729744701e-01,4.385800586856443140e-01,5.002104570925967053e-01,3.362899386101262430e-03,7.989277349308781043e-03,-9.253572654314918058e-03,9.599719941616058350e-02
5.114941067694431798e-01,4.497663901792711694e-01,5.240369810584253329e-01,-5.192365229395445869e-02,3.324092141587989963e-02,4.672382035318240617e-02,1.506462693214416504e-01
5.137200610976471182e-01,4.678131843075166718e-01,5.485532733531932603e-01,-5.058727452650347428e-02,4.287297421042571277e-02,8.841968185145922254e-02,2.038761675357818604e-01
5.015068275698335576e-01,4.967682436692381631e-01,4.998285877485671436e-01,1.472663849226082174e-03,3.414310500042484677e-03,-1.992566431284625503e-03,8.408799767494201660e-03
5.640955325839535073e-01,5.028974861144452912e-01,4.931031381565093574e-01,-3.487680022641471110e-03,2.342739731881361698e-02,8.014900612618885978e-02,1.593585163354873657e-01
5.612454710738919994e-01,5.308794656842911186e-01,5.006554779458995963e-01,-2.515549013989737751e-02,6.882997320169904898e-02,9.436715405422431424e-02,2.134945839643478394e-01
4.997427165988603259e-01,4.995296589849558266e-01,4.986318961020503315e-01,3.533934489266423026e-04,-1.389525791246729340e-04,-3.820239036315397100e-04,1.383133349008858204e-03
6.151932739051731991e-01,1.446419103703056597e-01,5.838054788781785742e-01,-4.517675794855592619e-02,2.450589426379525676e-02,-1.354032585780020059e-01,5.201545357704162598e-01
5.302102267502093458e-01,4.321060049721932028e-01,5.279737844240365296e-01,-9.823620836864686845e-03,1.837530255186086564e-02,1.630376931067961319e-02,1.072843894362449646e-01
5.211116313311363601e-01,4.646841319752928468e-01,4.986881052281753601e-01,-3.461407086262003729e-03,1.131080467041535240e-02,1.278206259923468473e-02,5.771883577108383179e-02
5.194368081159971284e-01,4.339931183932191905e-01,5.222338107056702095e-01,-1.483187804503455741e-02,2.509137026145363825e-02,1.889647183741504505e-02,1.056756749749183655e-01
4.849541766569490653e-01,4.935445943276588476e-01,5.191828276479838467e-01,-5.326523827827617816e-05,1.323805860937713429e-03,5.146918722321014092e-03,3.218843787908554077e-02
4.993582831817003909e-01,5.039125519276191900e-01,4.980971955641309012e-01,2.227611058579252994e-03,4.779458748594107376e-04,-7.998034064470389750e-04,6.750269792973995209e-03
4.833968781041873553e-01,5.308078875372321814e-01,4.874146202336838707e-01,2.553960455130624137e-04,6.934271485698890493e-03,2.918445989371665304e-03,4.736518487334251404e-02
4.908563359150850403e-01,5.303688066364748988e-01,4.827088133899740119e-01,-3.208981208807431054e-03,6.090521546790978596e-03,1.972686339699650758e-03,4.586280509829521179e-02
4.873167040698302976e-01,5.316942826247922360e-01,4.923074124913808247e-01,5.250688810970949782e-04,2.431323446606503940e-03,2.661837248474059267e-03,4.257485643029212952e-02
4.896780108349212401e-01,5.311362523895851728e-01,4.870428646362776615e-01,-1.199229469868429978e-03,1.365561973686933543e-03,6.560515040631509712e-04,4.296717792749404907e-02
5.590646669943334368e-01,3.649530158131438773e-01,5.651961411084232001e-01,-1.885791735250476608e-01,-1.174347092335947251e-01,-1.657061709820710216e-01,5.189814567565917969e-01
4.882665265924441278e-01,5.362925252640506901e-01,4.869038614119690633e-01,4.137181597310245619e-04,1.338769434232053813e-03,1.021733990008949966e-03,4.881412535905838013e-02
4.872854864932979480e-01,5.245712451914760210e-01,4.960008442188456046e-01,-3.269975770677403457e-03,3.893611543404823690e-03,7.608173655633540707e-03,3.731539100408554077e-02
4.938038231266783651e-01,5.092460014129820411e-01,4.951229953741305700e-01,-6.834849501359333002e-03,6.242607981668557050e-03,6.709363066397420854e-03,2.473727613687515259e-02
3.493633631217955005e-01,7.064114645035393103e-01,5.519370890221841908e-01,-7.716836803422681690e-02,1.462937677587297924e-01,1.589308035014541931e-01,5.040221810340881348e-01
4.852926407596825920e-01,5.156433853651002375e-01,4.931117470200837571e-01,-3.652986516542411702e-03,3.919889953665436737e-03,6.162965898840437259e-03,3.074193187057971954e-02
5.332850927492340798e-01,4.882247807093272329e-01,4.857104435160246592e-01,8.925614335748690903e-04,-8.373411202787072599e-04,1.622085378179588012e-03,4.650201275944709778e-02
4.944161566139228525e-01,5.108167708030978416e-01,4.937610419255138994e-01,-5.821164236702910943e-03,3.039743982152626287e-03,2.437414827238039948e-03,2.067255601286888123e-02
4.942104217915756492e-01,5.154414457822853457e-01,4.918616354070429741e-01,-4.876927618810090494e-03,1.940786327367940382e-03,2.793618224593911060e-03,2.474280633032321930e-02
4.410824324692157461e-01,5.493030171178573395e-01,4.708291207235322240e-01,2.332853848955360188e-02,6.667680626900839014e-02,-1.066350517827647018e-02,1.571258753538131714e-01
5.708370110995626412e-01,5.770616292342041209e-01,4.159533892852940173e-01,3.182084999820949944e-02,7.413541932378049648e-02,-3.223207657232740608e-02,2.182530015707015991e-01
5.038572916680033043e-01,4.895784662672635346e-01,5.167696700513952912e-01,4.349979998284928158e-03,-4.587676756636824976e-03,3.904224498018349192e-03,2.684444375336170197e-02
5.636938213658604369e-01,5.199086701326529614e-01,4.455514138835645066e-01,6.147085792038395335e-02,7.976420390465176202e-02,-7.592160928368676953e-02,2.416963875293731689e-01
5.695116732262218706e-01,5.177654416964984074e-01,4.099288173279206360e-01,4.043287462695380197e-02,5.019269030811965987e-02,-5.286352111543841936e-02,2.018231302499771118e-01
5.264061517809238699e-01,4.228062138510442214e-01,4.992231110915511527e-01,-5.870253906344768957e-03,-1.226808115564561978e-02,-1.250900314384263516e-02,9.838712215423583984e-02
5.535357311599737873e-01,5.611571468944182017e-01,3.577258325405650030e-01,7.741448149367100018e-03,-1.145191454234248049e-02,-2.005453134431646293e-03,2.011895775794982910e-01
4.772059643549577124e-01,5.354957501223117644e-01,5.006322320690860250e-01,3.488072109411118776e-04,3.774783996015367710e-03,-1.611024314764089973e-03,5.130180343985557556e-02
5.223193054588564088e-01,5.548803928882984904e-01,4.628738454617378206e-01,6.313671371774405572e-02,8.455677335597461264e-02,-5.025352113438447121e-02,2.179773449897766113e-01
4.889227514079763637e-01,5.044549560048028347e-01,5.134566011264206642e-01,2.852214894577183649e-03,-1.016153421343474867e-04,8.728219649651291698e-03,2.674090862274169922e-02
5.440302356033929199e-01,4.288049263612037643e-01,5.070281427586563749e-01,1.026543828761402807e-02,1.290663414879589591e-02,-3.703660744938008786e-02,1.237475723028182983e-01
5.682446043395982249e-01,5.218642994882046748e-01,4.034688633400214108e-01,3.014103239031408824e-02,5.583490339115471796e-02,-4.808772968311135487e-02,2.016808688640594482e-01
5.598362254066877597e-01,3.949986457794028016e-01,5.518369865773266048e-01,4.720296695983195595e-02,5.353443933664599197e-02,-6.170646397254807985e-02,2.293950170278549194e-01
4.293087728158356819e-01,4.985312676105582153e-01,5.404552627281400401e-01,-9.550582217802848842e-03,-3.627202668033750656e-03,-7.286113965271837599e-03,9.961842745542526245e-02
4.650323850206422582e-01,5.336413083773396959e-01,5.217033351743428637e-01,-4.406954652126551797e-03,5.826110727307970590e-03,1.363434344976872242e-02,6.890884041786193848e-02
5.449858114869556847e-01,3.718328151690246108e-01,5.542740992812191791e-01,3.368445020345950044e-03,7.399125607873237309e-03,-5.834972911503894834e-03,1.788209974765777588e-01
4.918648329923492879e-01,5.158118142930046002e-01,4.967645460681939795e-01,2.502729654038254089e-03,1.445265183626870051e-03,-3.526338252177276845e-03,2.329150773584842682e-02
5.495875716790404875e-01,3.938044231386233496e-01,5.542053975310147207e-01,1.657190843500964614e-02,7.334832715980216418e-03,-1.727221271975292599e-02,1.639797687530517578e-01
3.974680028046679303e-01,5.430762143933099972e-01,5.469505452080823948e-01,-6.381317248693525040e-03,3.413979583013837440e-03,5.280273367416456025e-03,1.483969986438751221e-01
5.202475809531181827e-01,5.296379249572941150e-01,4.563122882108262557e-01,1.159623702843953080e-02,5.891168427202529007e-03,-6.003054748807480287e-03,7.342969626188278198e-02
4.846777339005000629e-01,4.842506079809145159e-01,5.373813415905736024e-01,1.444334038582468713e-02,9.267810643386864208e-03,-1.363029264550427331e-03,6.074079871177673340e-02
4.985335185751707532e-01,5.417301606637081601e-01,4.766483305678705373e-01,1.573594813477881889e-04,4.797957733906469714e-03,-5.499619042113951592e-05,5.796052515506744385e-02
5.019282646793004066e-01,5.200828867744682338e-01,4.836016923995347105e-01,8.140289725030579182e-03,2.988141012895954417e-03,-1.178446859836840711e-03,3.504157066345214844e-02
4.883151482287535483e-01,4.859984896272722676e-01,5.211840852706167704e-01,5.262140548840957277e-03,-3.795414126346253764e-03,2.578387934838165772e-03,3.616780415177345276e-02
4.889996409059056415e-01,5.067811104559498681e-01,5.052731949841773318e-01,3.009312422756868239e-03,2.761565363046252029e-03,-3.365003153879310427e-03,1.938189566135406494e-02
5.589247337110577751e-01,3.963021313908500765e-01,5.404428474038551755e-01,1.739239008398059741e-02,1.651122055056225210e-02,-3.498761723293090237e-02,1.708211451768875122e-01
5.329209747905443439e-01,4.276308924793483235e-01,5.514732628402846393e-01,2.881609203429934610e-02,1.674266382593804503e-02,-1.265214749983811955e-02,1.311329156160354614e-01
5.117199692582112824e-01,4.993098068737447104e-01,4.856795849425277201e-01,8.172023125642897609e-03,2.373059649317788185e-03,-3.218525108533477636e-03,2.751845121383666992e-02
5.453616872784943226e-01,4.168105707120116077e-01,5.608069974438130156e-01,2.157458017350107754e-02,6.745392234261186198e-03,-6.569900143964755961e-03,1.428700089454650879e-01
5.118277311176967492e-01,4.916825061072686021e-01,4.923477594711648253e-01,2.241813923139708879e-04,2.861067075557564236e-03,-1.027317635486997257e-03,2.051207050681114197e-02
5.741158411632547587e-01,6.478011527859557361e-01,5.655817377988435757e-01,1.861625889918746279e-01,2.220242186492146497e-01,-7.296071443113280597e-02,5.234069228172302246e-01
4.065997028772278532e-01,5.111630716495884075e-01,5.447897177418665748e-01,4.618794638050946477e-02,-1.120899723497158218e-02,2.241648039712026974e-02,1.544822454452514648e-01
4.809761838510469012e-01,4.996629814821385573e-01,5.303122139507291388e-01,7.522207362747260553e-03,4.250137985160884480e-03,-4.617171181006558475e-03,4.635951295495033264e-02
2.776660414861201742e-01,5.470972353681394784e-01,5.277144049188804420e-01,1.186013029658638251e-01,-1.557864993254048647e-01,5.343211301160025184e-02,4.373998343944549561e-01
3.153891472220307635e-01,6.244960682969293853e-01,7.229487008909407653e-01,1.402695930080787856e-01,-3.874290894149672558e-03,1.290670722051294184e-01,4.946908354759216309e-01
4.997807657661529346e-01,5.017901261082368114e-01,5.012447181630289572e-01,1.320573883738133687e-03,1.148543656235896052e-03,4.678875513272310619e-07,3.525376785546541214e-03
3.459501279983656086e-01,5.247456400501788742e-01,5.876855895938811747e-01,1.560472964759282433e-01,2.315588847618945539e-02,2.691040545450334998e-02,3.521590828895568848e-01
4.531024249422678785e-01,5.149898237026836467e-01,5.289965171605087724e-01,7.441858109275494015e-03,2.650146269980852703e-03,-8.149379464693202318e-03,7.266034930944442749e-02
4.998982801318860303e-01,6.340706518398576685e-01,7.308942318286432149e-01,2.256773953335878824e-01,-4.442631391985508993e-02,1.138725291106306992e-01,4.878328442573547363e-01
4.608204492883561376e-01,5.757787054492686796e-01,6.037462546146524778e-01,8.436786963921646954e-02,1.458749727445700362e-02,2.751492289990545292e-02,2.036568075418472290e-01
3.657042692835833497e-01,5.748956858859525232e-01,5.801221320757589117e-01,4.666827647982667304e-02,-4.668400139125321313e-02,2.590384206213967866e-02,2.448809742927551270e-01
3.658897907482747680e-01,5.566349283301410544e-01,5.556490060608784143e-01,4.797680752242314967e-02,-4.387221593912450646e-02,4.563993211081438656e-02,2.347877025604248047e-01
4.853585293612405205e-01,5.037597587446071001e-01,5.153331648608041604e-01,1.060236557621030504e-03,-5.155877669052420786e-04,9.549748221004870918e-03,3.103669919073581696e-02
4.571373681542883483e-01,5.479757984325004383e-01,4.930360252568204427e-01,-2.729698278812289249e-04,1.352181322003592409e-02,3.325620509945373306e-03,8.283282816410064697e-02
4.342046877842823949e-01,4.748391428418724525e-01,5.055876398972871666e-01,-3.516683306037066137e-02,-3.146799794037099390e-02,-2.515147949503683533e-02,1.114661023020744324e-01
4.060164698669532779e-01,5.364467055956327890e-01,5.270994595095306323e-01,-2.573886625395559527e-02,3.545388987474188541e-02,1.297873968278946515e-02,1.488085985183715820e-01
4.694085831526120800e-01,5.408748030594566769e-01,5.039926386031085004e-01,-1.719770081509281985e-03,2.382195943597758409e-02,2.970472908740552902e-03,7.463033497333526611e-02
4.624607186994236230e-01,5.967708684157566612e-01,5.335169907755777929e-01,-1.393214448031272930e-02,8.748685561885442830e-02,3.686886396719384063e-02,2.028958648443222046e-01
4.825460135200161371e-01,4.633284175458645127e-01,5.227162441780652813e-01,-1.291594228089883341e-02,1.245789403675135951e-02,6.636897173845415603e-03,6.207371503114700317e-02
4.818412700807999105e-01,5.548962610605538970e-01,4.910613872486112585e-01,9.914265645559501919e-03,3.458464821092673003e-02,-1.012661738417670355e-02,9.454778581857681274e-02
5.049233495273690586e-01,4.818001876634078195e-01,5.157185439909810487e-01,8.847005140270836412e-03,-7.833600202682703545e-03,4.771021417009139315e-03,3.725625202059745789e-02
4.676241677516330686e-01,5.390114262193027583e-01,5.037811862562625587e-01,-6.344874815746141990e-03,2.412114950910893701e-02,5.646635730300416170e-03,7.605416327714920044e-02
4.198567958111812382e-01,5.375343462949825346e-01,5.286584106934724137e-01,-4.262293196088891116e-03,1.930591074414229197e-02,1.312014317224578612e-02,1.207118928432464600e-01
5.271103235627406791e-01,4.838206214845816033e-01,4.856998978914832121e-01,-9.456580798620110168e-03,9.319966199149492744e-03,1.511790731634945172e-02,5.486981198191642761e-02
5.227555532683770823e-01,4.666030381274788863e-01,4.991045281693531899e-01,-8.544755898248360473e-03,1.130765350174224755e-02,1.044679589026143926e-02,5.757122114300727844e-02
5.277097345559265129e-01,4.827214093315543297e-01,5.037618212293518694e-01,-5.296313803001417722e-04,8.839602306004916074e-03,2.646546379536756678e-03,4.214671254158020020e-02
5.286039460927514089e-01,4.853459968905046162e-01,5.003338733114832682e-01,-9.632871743400183958e-04,1.190954446140312165e-02,1.175214653604366929e-02,4.785578697919845581e-02
4.604589391377595931e-01,5.108962668446339617e-01,5.442261900357647786e-01,-5.671808468174726822e-03,1.242081421351455160e-03,1.469835735249184171e-02,7.800731807947158813e-02
5.266019440842164556e-01,4.988209750453193592e-01,4.958278600339426356e-01,3.898299248672489059e-02,-2.486970431409658497e-02,2.135042920379226494e-02,9.298355877399444580e-02
5.283727985648549730e-01,4.460891478876747307e-01,5.145996309846236905e-01,-9.572253703158388471e-03,1.301402055387983897e-02,9.563078919532669656e-03,8.297185599803924561e-02
5.413859814468648946e-01,4.681480114829197903e-01,5.585073120993055973e-01,-2.575597700521414443e-02,3.946454363862417214e-02,7.980055618570384979e-02,1.807698011398315430e-01
5.147103528358617508e-01,4.414118090322881605e-01,5.250693085764205348e-01,-1.130134677544900046e-02,1.636288404145467765e-02,1.007424631091004101e-02,8.792124688625335693e-02
5.414250304498857691e-01,5.413294336981757660e-01,4.232770133761687426e-01,1.197930555395335453e-03,7.250384806693456301e-03,6.846351379667113372e-03,1.193746030330657959e-01
4.697892613907751480e-01,5.257244884433087684e-01,5.000759253879492050e-01,-2.055222700637479236e-02,3.733465831306273519e-02,3.306915567926173305e-02,1.052685156464576721e-01
4.969479371651951971e-01,5.048365032378793194e-01,4.862378855426859880e-01,8.201389232881948002e-03,-3.167946541268685298e-03,3.459543898849929203e-03,2.300484664738178253e-02
5.333919002301112933e-01,3.841249832745484705e-01,5.366510396375627767e-01,-1.411988992820071426e-02,-1.279402255016776589e-02,-1.292545211635328685e-02,1.561028212308883667e-01
5.206792707150749155e-01,5.040166675132816687e-01,4.659406537797430858e-01,1.390483775776714739e-02,-7.195482630532446140e-03,9.396311287473721116e-03,5.798362940549850464e-02
5.127848214863958143e-01,4.956805709001722571e-01,4.959847119330389464e-01,4.981866533156805756e-03,-4.239764913856977104e-03,4.104514891846738033e-03,2.159561775624752045e-02
4.865066702783945596e-01,4.909889028706026504e-01,5.356890405471717020e-01,1.344780857321693085e-02,-4.268726065614198567e-03,6.511368252244797115e-03,5.424886569380760193e-02
4.794431744216215430e-01,4.909909668689781403e-01,5.309349409480190740e-01,7.135182096227202751e-03,-2.308562697349054917e-03,4.739766707644000980e-03,4.925702139735221863e-02
4.773142018212637727e-01,4.914221923919961932e-01,5.349356200469824740e-01,7.103786720946388480e-03,-1.469204742295797308e-03,3.776741334887535363e-03,5.391659587621688843e-02
4.447719275226872937e-01,5.452766572026290781e-01,5.192798336540074278e-01,-2.104679799716967052e-03,8.017553844488026563e-03,8.407924376738947977e-03,9.264148026704788208e-02
4.144190149619804697e-01,5.308292963137737352e-01,5.467318649740811054e-01,-1.121295475569374436e-02,4.566234650663671124e-03,1.355779899230304814e-02,1.290219128131866455e-01
4.845994054324302969e-01,4.893433759155836338e-01,5.375470262176530456e-01,1.615823389866494512e-03,1.254435244343708386e-03,7.630888556144030952e-04,5.088294669985771179e-02
4.456362124540124703e-01,5.553669913823447990e-01,5.134630300884148735e-01,2.359017803494485241e-02,6.811799495594825227e-02,-2.160206343204322532e-02,1.618278473615646362e-01
4.994629957989873970e-01,4.996904935329724573e-01,5.097936265356053376e-01,4.673587284635436628e-03,-3.353001066746930017e-03,6.395040800961664454e-03,1.806566491723060608e-02
5.021574304267959477e-01,4.991371428818333067e-01,4.995021303052725736e-01,-3.339346768536506876e-05,-1.469420862712819079e-03,6.804258911817264149e-04,4.002856556326150894e-03
5.007081396591063216e-01,4.998984427347700765e-01,4.994313250450792552e-01,2.493754661584182867e-05,-5.314385805816264656e-04,-8.855557351341652127e-05,1.457636593841016293e-03
4.560786910044925535e-01,5.425390643066999585e-01,5.176555843915260358e-01,3.084600440377294368e-03,9.010468390733817473e-03,-1.572425891693038109e-03,7.888393849134445190e-02
4.968196526769648735e-01,5.388090544440928831e-01,4.216611758123975928e-01,-1.012845741179890617e-02,-1.089385332380154482e-02,-3.770874935683704576e-03,1.061800792813301086e-01
3.609833815315077188e-01,5.529721931466495821e-01,5.579291819335536751e-01,-8.000050954616188051e-03,-3.007296304330944574e-03,4.239304340885061660e-03,1.952152997255325317e-01
4.984483060959900014e-01,4.999897895048898144e-01,5.003403052104180571e-01,4.622603823462880217e-04,-1.198356201729152131e-04,1.626498267359620430e-03,3.414670238271355629e-03
4.818970573261243673e-01,4.992204232457045920e-01,5.264935820337802719e-01,2.809106681490137342e-03,-1.699378941654355706e-03,6.953483697004217250e-03,4.115552082657814026e-02
4.998069470790912905e-01,5.013083920629283208e-01,5.008898845072845551e-01,5.975793382885922263e-04,-5.349482203571042423e-04,-9.859635188261588250e-08,1.931561972014605999e-03
4.991269891125106883e-01,5.398131462404831549e-01,4.567020498725721245e-01,-1.664999137346715070e-03,1.688315854443305647e-02,1.193410499469964737e-03,7.777569442987442017e-02
4.986332186927086574e-01,5.013243073585600396e-01,4.972303573613392480e-01,1.341372944037347607e-03,-4.240218661899857432e-04,1.255173597703585896e-03,4.863004665821790695e-03
5.736308004947778816e-01,6.213873802864497975e-01,3.759639923667459360e-01,2.095678767139441331e-02,-6.786508929547169222e-02,2.763137169837890511e-02,2.611853778362274170e-01
5.535262466698558370e-01,5.600752483665203396e-01,3.312671033922804931e-01,8.317835560876040910e-03,-3.484643310164307201e-02,2.017694994565565406e-02,2.365783154964447021e-01
7.380709363794828448e-01,7.697932019199907883e-01,2.566020305446659600e-01,8.282210205070919540e-02,-1.072695094046836745e-01,3.825754559096902069e-02,5.546003580093383789e-01
4.751371678077941918e-01,6.198881904283106703e-01,2.744318081017286803e-01,2.338632216306129469e-02,-1.775364385121742383e-01,3.725912506577482713e-03,4.318886101245880127e-01
6.260070209898097593e-01,6.389126149289842127e-01,2.889116631714997441e-01,5.981859471884180823e-02,-1.634547775564537397e-01,3.521508900424891782e-03,4.572468101978302002e-01
5.755907316235542304e-01,5.987545855897438152e-01,2.740355821396474045e-01,8.425141373774850187e-03,-8.270950861545547927e-02,-5.132782263704244868e-02,3.565058708190917969e-01
5.593626682739578637e-01,5.541020525628204130e-01,2.655214225529883842e-01,-1.416815738433402881e-02,-7.272087555011594318e-02,-3.306940704723763946e-02,3.233767449855804443e-01
5.366266215849313514e-01,3.466303886424652037e-01,5.307411987259232911e-01,-1.905235138283881136e-01,-1.115052690082560249e-01,-1.171240560782440543e-01,4.715580940246582031e-01
5.588022479475693860e-01,6.218432241163160956e-01,3.390637160998440369e-01,2.383965764155373049e-02,-4.171365102287710042e-02,6.895173671626710944e-03,2.705169618129730225e-01
5.275559685105235541e-01,5.005784726320404721e-01,4.817334393852802377e-01,1.414432290749612249e-02,1.331018973132952476e-02,-1.662590169373978286e-02,5.960069969296455383e-02
5.622425837265263571e-01,5.597522732387775202e-01,3.247107441721170940e-01,-6.041595944163852261e-02,-1.287629116440493771e-01,-2.037366890224076299e-01,4.909703433513641357e-01
5.393657584547962847e-01,3.829642181762745179e-01,5.414886264550279327e-01,-3.975092330870809432e-02,-7.933521555794988828e-03,-3.495956553827996027e-02,1.827394664287567139e-01
5.331558522734791694e-01,5.327971807733989928e-01,3.571968139418461030e-01,-7.166858799867630025e-02,-1.047567599365439583e-01,-1.133671703464761982e-01,3.431997001171112061e-01
6.013508288964708459e-01,4.294350485503086734e-01,4.957828900522595061e-01,-4.559184781559975919e-02,-2.893781930402569008e-02,-1.182250398578992695e-01,2.706110775470733643e-01
5.676590581385015932e-01,4.363534448492599749e-01,5.129015107943750706e-01,1.842963507972916748e-02,2.111053642640230849e-02,-5.465387891651644209e-02,1.560981720685958862e-01
5.870830412221225147e-01,4.792345660474625624e-01,3.519888930232650259e-01,-4.658301973135661571e-03,-2.111253682648051716e-02,-9.077927741626021230e-02,2.601364254951477051e-01
5.306789036996776288e-01,3.951907677935836416e-01,3.784905900675832879e-01,-1.326869420813416300e-01,-1.143558720663892386e-01,-1.980395929289795465e-01,4.802154898643493652e-01
4.863586986419027314e-01,5.308968551907654598e-01,4.789856642354459737e-01,5.055804336624798029e-03,9.511396871771491887e-03,-2.332810343167837945e-04,5.210217833518981934e-02
4.853938492955057193e-01,5.359137091260379737e-01,4.901872848507848324e-01,4.263113198015922224e-05,1.899484652146965231e-03,-2.233006130655901082e-04,4.841537773609161377e-02
4.892702505056480411e-01,5.418377146311355030e-01,4.941091912926734442e-01,2.757453928623247296e-03,1.307850626945037710e-02,-1.401083456604728815e-04,5.539308860898017883e-02
5.190857719670846082e-01,4.880139458794477969e-01,4.927066878687272888e-01,1.651252402933139516e-03,5.197691460107971631e-03,1.297521867210972351e-03,3.059324622154235840e-02
5.282937225661157310e-01,4.693348895071175475e-01,4.628718033075566729e-01,-4.387159085088229715e-03,-9.683457122676253186e-04,-2.466713171274298715e-03,6.306964159011840820e-02
4.755199572510314110e-01,4.843194314303863601e-01,5.312929668618652235e-01,-1.261898213851997104e-03,1.501064625256515487e-03,4.627176644054501777e-03,5.265980586409568787e-02
5.057682071081350816e-01,4.997594335297771972e-01,4.991504836072290230e-01,-8.089566680631851735e-04,2.090155147790375648e-03,1.768711637263370830e-03,8.036772720515727997e-03
4.801959028408536168e-01,5.350443701395702911e-01,4.929443805225424691e-01,1.730277891581604181e-04,6.119854488042959437e-03,3.871235029797016306e-04,5.083838105201721191e-02
4.961126583247026933e-01,4.958277827365287771e-01,5.119779548716415496e-01,9.520092454274694431e-04,-2.371960504331951415e-03,1.228167342658950537e-03,1.674607954919338226e-02
4.954120225628767527e-01,4.987425816736791861e-01,5.014132355364678828e-01,3.842426812959211149e-03,-2.836732305082289522e-03,4.701411146365742401e-03,1.272255741059780121e-02
5.550113010284870585e-01,4.038643476413265598e-01,5.444381312371179282e-01,-4.121449672094911962e-03,6.826297282430756133e-03,6.456871953227553626e-03,1.472240388393402100e-01
5.012875840805814942e-01,4.996759378998599788e-01,5.017655190446189684e-01,5.360011324165480512e-03,-1.810879106886136708e-03,5.297166860428512147e-03,1.355739776045084000e-02
4.919554763601476366e-01,4.988877733676190251e-01,5.049666940946838656e-01,3.717328138332948607e-03,-2.350625773842682925e-03,5.405840007762219984e-03,1.651823706924915314e-02
4.548692784520786958e-01,4.799151857257410447e-01,5.377029064130496305e-01,-4.727325504936611723e-03,3.398740043614218061e-04,-3.468210425301007302e-04,7.403927296400070190e-02
4.902522327377168421e-01,4.901227364121930052e-01,5.431076910978345218e-01,1.124413031933379700e-02,5.528917871153073670e-03,-5.362787582090822744e-04,5.720508471131324768e-02
4.584555871980078856e-01,5.036944769913467290e-01,5.330282453923100849e-01,-3.645363533546887216e-03,4.855888220788946198e-03,7.318993463419727272e-03,6.712199747562408447e-02
4.590105570800951940e-01,4.544340207752168292e-01,5.399632951920686486e-01,-2.319329735802504525e-02,2.265835137099827916e-03,1.869579033824650231e-03,9.265229851007461548e-02
4.787939500667171000e-01,4.863445537553834908e-01,5.366825940133859163e-01,7.381240995609087210e-03,1.061563352429053132e-03,1.131924135228909532e-03,5.605073645710945129e-02
4.797646186562343762e-01,4.868218580536612383e-01,5.352601629551246853e-01,8.054767764963752935e-03,6.138799163114926202e-04,9.106470728298228989e-04,5.418644472956657410e-02
4.877579969262722526e-01,4.898390235609747512e-01,5.320677580709781695e-01,1.824234944914412656e-03,1.671610557656018391e-03,-1.112711186620946079e-03,4.356095194816589355e-02
4.698669334733805991e-01,5.063910072485364733e-01,4.835057502223407688e-01,-2.517914996145807337e-03,-3.434835240253018233e-03,-1.123544894055544113e-02,3.814446181058883667e-02
5.427432380467366313e-01,4.894280049733674143e-01,4.934845684437669799e-01,2.069386924949952883e-03,4.328139560401340728e-03,1.247092460276123110e-02,5.637650564312934875e-02
5.377209373179449026e-01,4.887743990264972749e-01,4.909853664160722664e-01,-6.395212116917048471e-04,7.088484526498218218e-03,1.389454578095228668e-02,5.498704314231872559e-02
6.026674044970182775e-01,6.619357213309888799e-01,6.187423222242685039e-01,2.124669642414351023e-01,-8.465848401714427818e-02,2.035234588266050249e-01,5.329273939132690430e-01
4.743369757335127446e-01,4.741735697018606976e-01,5.098438920050987200e-01,8.961080755946652778e-08,-2.038893385855246147e-03,-1.586138918982811464e-03,3.586904704570770264e-02
5.333503057614522591e-01,4.916707342364145528e-01,4.932031765495019093e-01,-2.953093053611239964e-03,5.766890369510520482e-03,1.004775925189996949e-02,4.587449505925178528e-02
4.339320597579157113e-01,5.403080183613399035e-01,5.023322129751521814e-01,1.423813741904872594e-02,-5.793104351924593942e-02,2.947112373352077028e-02,1.483244001865386963e-01
5.395204836388629577e-01,3.911432365665356015e-01,5.539918622838131412e-01,-1.556841595981842304e-02,1.480346057982729301e-02,1.051653279804152553e-02,1.615202724933624268e-01
4.684748201661588785e-01,4.617062499800349551e-01,5.222503970652272454e-01,-6.361042577556341206e-03,-6.976470316268057990e-03,-4.395341244513039682e-03,6.022432446479797363e-02
5.349197258698192847e-01,4.873019868393292930e-01,4.795446506510334661e-01,1.562384420804589682e-04,1.117523167987328732e-03,8.957609068683061032e-03,5.423604324460029602e-02
5.270975662104641080e-01,4.766739650842456433e-01,4.768947713284796830e-01,-7.786568241665675107e-03,1.268015594841906922e-02,2.231504613523198344e-02,6.848057359457015991e-02
5.513900827509232716e-01,5.172909731882071593e-01,4.435543863908966711e-01,4.122970960901252771e-03,9.531560252264204003e-03,8.276028217396718192e-03,9.819985926151275635e-02
3.994716370516416815e-01,5.594607829916938835e-01,5.485597857915134323e-01,3.896404023336100210e-04,5.782672246567357663e-03,7.085319008371294622e-03,1.556364148855209351e-01
5.491697013645950864e-01,5.192621989151686712e-01,4.258781942034929879e-01,1.533955255246359463e-03,2.409291808945488757e-03,2.257678596663573872e-02,1.181588768959045410e-01
3.892100820782392612e-01,5.777217616021176338e-01,6.235021208194988507e-01,6.820714207997216616e-02,6.352986496281937123e-03,2.453527314210872390e-02,2.492915689945220947e-01
5.426014101806178047e-01,4.084624768517332583e-01,5.746034298088529280e-01,-1.845639809187145097e-01,-1.216281512194637843e-01,-1.840151686452980717e-01,5.210246443748474121e-01
5.398452136656991529e-01,4.953062237072108354e-01,4.612355496315175274e-01,-6.389265652104635573e-04,2.251251736380449793e-03,1.348260197386848096e-02,7.227569818496704102e-02
5.412817869284964889e-01,4.950635794115487709e-01,4.596521661316760321e-01,1.064099867941975443e-03,2.646753355480583290e-03,1.205729880592837540e-02,7.407625019550323486e-02
5.419699691799167995e-01,5.066094734115633713e-01,4.970126497948109678e-01,-3.633655962881890411e-02,3.097910128233285348e-02,7.080489392743398447e-02,1.534990668296813965e-01
5.432009736581571158e-01,4.988542475314227675e-01,4.738851421609107106e-01,2.824315435779316697e-03,8.802554466127987531e-04,3.948533124153954209e-03,6.140369549393653870e-02
4.327512277950363306e-01,5.312949810425129371e-01,5.502383459459501136e-01,2.459709298273725017e-02,2.498223984291561388e-03,1.275282875535926940e-03,1.173674836754798889e-01
5.669500789494635873e-01,5.550687207749968044e-01,4.027499241769172400e-01,1.897458940031576105e-03,1.793655458069650169e-02,1.740144312858533937e-02,1.644272804260253906e-01
6.397761754287987213e-01,2.895412050629421197e-01,4.361748325686570227e-01,9.674806407760966689e-03,1.493359500903481372e-02,-2.078301305353689732e-01,4.725882709026336670e-01
5.009400268906549769e-01,4.779618589484147528e-01,5.272942334553948340e-01,2.608826340972366948e-03,6.713129575089754435e-03,-2.319007630797414402e-03,4.471981152892112732e-02
5.065307058046897293e-01,4.767657575713136198e-01,4.959146120094526378e-01,6.257921274138017464e-03,9.906869026166749762e-03,-6.918034448542538170e-03,3.518759086728096008e-02
5.670889074346361358e-01,2.711930103227121469e-01,4.155871170082347521e-01,-1.047139450906924979e-01,-5.286075277922779730e-02,-2.162857486300485133e-01,4.972874522209167480e-01
5.660622378632043095e-01,5.174274541959933416e-01,4.521135585598481388e-01,2.209410049225424971e-02,2.314518140995358575e-02,-3.604756517229228130e-02,1.295283734798431396e-01
5.154000043752391402e-01,4.618851414249554033e-01,5.414845235033516335e-01,6.172062635918436346e-02,6.047234667591113583e-02,-2.036598575393164245e-02,1.690665334463119507e-01
4.794984367654248625e-01,4.859073617417870028e-01,5.179029597848567867e-01,-5.712623788393850210e-03,1.506763035881482620e-03,5.523227150095110297e-03,3.828944265842437744e-02
4.905503826685088109e-01,4.923256937905661768e-01,5.262896833229250282e-01,2.179182676662264409e-03,2.472594424077332112e-03,-2.056540386656019904e-04,3.535131737589836121e-02
6.512867714904445604e-01,4.920734352624694385e-01,3.546790497377755313e-01,3.200402266579793070e-02,3.740613963467323555e-02,-8.946309038358253585e-02,3.120616674423217773e-01
4.763873965225091656e-01,5.008225135827909513e-01,5.356302345083325811e-01,5.145466282085123071e-03,-2.306338594455292507e-03,1.859699368899317157e-03,5.258272960782051086e-02
5.636695860585376749e-01,5.001631653164292368e-01,4.702134841511057539e-01,-3.542017214536270775e-02,6.084402967995905520e-02,5.041621065024834425e-02,1.712518036365509033e-01
6.542178963150911963e-01,5.957684250362325074e-01,3.788790476046526301e-01,2.936220738837506949e-02,3.241302669491027272e-02,-5.898126196354409878e-02,2.816185653209686279e-01
5.517172308393369917e-01,5.108626008753026637e-01,3.750448759924968067e-01,-1.533773448344888379e-02,-2.234968043444640270e-02,-7.327449175467513898e-02,2.097046822309494019e-01
5.913973442428441807e-01,4.875045782288280338e-01,3.545325839006766566e-01,2.785584567723378702e-02,2.991786828918999164e-02,-8.903353150219060763e-02,2.666159868240356445e-01
4.466096363807497416e-01,5.342228629571260656e-01,5.170314668390039170e-01,8.167489280701297275e-03,2.003697609360358817e-02,-6.329461911752222100e-03,8.938780426979064941e-02
4.535038390297496114e-01,5.094260256338675186e-01,5.263478261761780352e-01,4.804169143065444014e-02,2.491330800387808048e-02,-2.707766025125502365e-02,1.238772496581077576e-01
4.463622613300126662e-01,5.141048163308488128e-01,5.279983200109725772e-01,1.984991917946257040e-02,1.202316797431323553e-02,-1.869641491727430660e-02,9.158416837453842163e-02
4.788465521371797484e-01,5.196651474460853848e-01,5.226503848447472400e-01,1.644617157830502094e-02,1.042220229300774674e-02,1.048984960760131809e-03,5.419889464974403381e-02
5.191291131131688941e-01,5.472309320913797404e-01,4.647694903179746539e-01,1.454597764830854213e-02,2.063403405938351101e-02,-6.571414225824393288e-03,8.552123606204986572e-02
5.222002067778848122e-01,4.189101775936682204e-01,5.123529553430197225e-01,5.649000489863530150e-02,3.447223462154534734e-02,-4.230586830853199504e-02,1.680964082479476929e-01
4.262025788605342536e-01,5.377711864066130332e-01,5.313547345591158599e-01,2.739540772512530885e-03,2.465975185546537621e-02,-8.465999766766711416e-04,1.167125776410102844e-01
6.454664248970536367e-01,5.296942315091690556e-01,1.851190401469023361e-01,5.591439428785610448e-03,-1.835745691192806547e-02,-1.470729050832609019e-01,4.878766238689422607e-01
4.298417744166138643e-01,5.024670934481506590e-01,5.517805557959344354e-01,-9.613482003524303696e-03,5.847413401066395245e-04,3.716934934162320278e-03,1.077376008033752441e-01
5.301628495290543475e-01,4.285142178149734526e-01,5.432224089638206799e-01,-8.905781444793170812e-03,1.047672222661888419e-02,4.572837836161754155e-03,1.116263344883918762e-01
4.849123299520162744e-01,5.395044503292093507e-01,5.159700081122289284e-01,2.992634507416901818e-02,3.718249561247750912e-02,-9.236551855969906896e-03,9.664206206798553467e-02
4.886605609510782378e-01,5.352596860845669768e-01,4.801732018876215258e-01,-2.416990189958319302e-04,7.840568916428510352e-03,5.912494830797216955e-04,5.314757674932479858e-02
4.899447943439225184e-01,5.360287588728850361e-01,4.886602505046716560e-01,-1.862631617309617712e-03,1.477830656100079590e-02,5.360869026939475701e-03,5.418854579329490662e-02
4.915960454558876425e-01,5.325877890438686091e-01,4.893104251730457377e-01,-3.883074193633367401e-03,1.313496061705577041e-02,5.119673704546696090e-03,4.920049011707305908e-02
4.885647472097686128e-01,5.342161160030304279e-01,4.796245310540225293e-01,-1.122042048362657590e-03,8.283197052405752436e-03,1.199654587407991257e-03,5.278291925787925720e-02
5.048971430100532842e-01,5.020041900849147032e-01,4.980295732737547443e-01,-3.516464802803904478e-03,2.225547452971274234e-03,3.034504173126565101e-03,1.073524728417396545e-02
4.647648448038515512e-01,4.697723921766330246e-01,5.365617484478253374e-01,-2.380794849432131717e-03,-1.202559722976652033e-03,-9.780900045680931184e-04,6.960285454988479614e-02
5.004839672974973341e-01,4.164483687851111005e-01,5.451534527746343395e-01,-1.430963884146537260e-02,6.037878014804257641e-03,-3.207039131720905521e-03,1.164718493819236755e-01
1.851101873929411057e-01,5.649844985706864442e-01,6.132641192070004132e-01,-1.249355156480112250e-01,-5.674863338915701882e-02,8.871497255009849064e-03,4.708498418331146240e-01
4.925820370811903604e-01,4.732292323446890547e-01,4.428817621197069232e-01,-2.975112469080833100e-02,-2.516047376210269609e-02,-3.306708149056219320e-02,9.857809543609619141e-02
4.799403529808023428e-01,4.810781148344408509e-01,5.397974637315346991e-01,-9.093439734331727406e-03,5.647901096238282410e-03,7.095959864842412736e-03,6.333159655332565308e-02
4.287212840143990178e-01,5.004859832222964267e-01,5.433913133777651394e-01,-9.858578081946374819e-03,-1.099940403478621162e-03,-5.085610188172370871e-04,1.018140837550163269e-01
4.718423211922869176e-01,4.742130617290838956e-01,5.367232682585478809e-01,-1.213324482294616787e-03,1.944508064239612718e-03,3.194218470702294387e-03,6.409142166376113892e-02
4.842167709657910213e-01,4.823767910115023261e-01,5.256510097808453352e-01,-1.513978310670369880e-03,3.495321923945671292e-03,2.192519285093060249e-03,4.306238889694213867e-02
4.773311615972566369e-01,4.709195606993143990e-01,5.303412403796301522e-01,-7.812571398822647575e-03,3.389778665594442384e-03,8.891199129862526352e-04,5.840384215116500854e-02
5.293001133865598007e-01,4.816363463698095648e-01,4.769981370620834382e-01,5.946267663599272627e-03,3.589581964456870812e-03,-4.101152730548203798e-03,5.205391719937324524e-02
5.391175551461818705e-01,4.809090442046725644e-01,4.796836839580315148e-01,5.937702782500171861e-03,6.471082170996038906e-03,-6.862226896617841521e-03,6.191706284880638123e-02
5.554406368266613381e-01,3.687826808792209476e-01,5.630677815670042108e-01,-7.220463314129493132e-03,5.385159916030700551e-03,-1.090903024455709865e-03,1.912328600883483887e-01
5.303845964462233775e-01,4.793850497343803974e-01,4.714320148117033815e-01,4.610483878834089125e-03,1.008606844487295196e-03,-6.911750213497149138e-03,5.727079510688781738e-02
4.855800932660699898e-01,5.003897681541988884e-01,5.173799721803827856e-01,-3.551135526097307180e-03,3.112872156146318132e-03,8.013261831060226534e-03,3.192415460944175720e-02
3.476533190244723293e-01,5.551258634724344221e-01,5.537225578258933023e-01,2.908030864797903764e-02,-1.246175455235147035e-02,9.958873006946377532e-03,2.146068364381790161e-01
4.439888614258968857e-01,5.587826908676321036e-01,4.411439356706715054e-01,-1.984122111223486917e-01,-2.208372836394235372e-01,-1.893918489605495026e-01,6.209103465080261230e-01
5.234453756007571013e-01,4.849857715446294626e-01,4.792688190147280647e-01,3.674758406015609345e-03,1.931631870555954858e-03,-2.086212039999770906e-03,4.238464683294296265e-02
1.978998929956981845e-01,6.000041824813928670e-01,5.219737405373781058e-01,-5.709412719155596699e-02,-1.624423461732667495e-01,-1.734397832760858210e-02,4.756515920162200928e-01
5.577408400315323478e-01,6.560794183234500698e-01,6.262742456028324023e-01,2.069787268252825663e-01,-8.408480531828714521e-02,2.062081004361482894e-01,5.337831974029541016e-01
5.661388304002148431e-01,5.565391702695627885e-01,3.872691922082275306e-01,1.285365942866897350e-02,5.736045138738567022e-03,-1.294128707422134185e-02,1.773871481418609619e-01
5.411732963461696189e-01,5.680526756469865823e-01,4.270510984178135239e-01,8.703060210148785836e-03,2.096234179848525947e-02,5.727266658676992243e-03,1.358595043420791626e-01
5.451384787523984032e-01,5.650171715522861460e-01,3.972460342751775730e-01,7.862882044091641653e-03,5.752245353239210900e-03,1.909278523980065647e-03,1.596963405609130859e-01
5.708115685594400412e-01,5.622128101394218147e-01,3.667843080008639789e-01,1.404163536442784056e-02,3.154063221463077743e-02,-1.241500494930241477e-02,2.097260504961013794e-01
5.472894352701130893e-01,5.386489476348371719e-01,3.656238254117021858e-01,1.486037660047529428e-02,1.933687513869954827e-02,-4.357828327966979665e-02,1.974558383226394653e-01
5.626801457400769646e-01,5.651909251762506914e-01,3.774377694977545938e-01,1.527722987125999972e-02,1.745033615421953330e-02,-1.331566326113740569e-03,1.908014416694641113e-01
2.496664413622202705e-01,5.922107768695037411e-01,5.700607315481194259e-01,-2.097538835008227673e-02,1.019990923369868546e-01,3.044257388618612503e-02,3.815120756626129150e-01
4.996872508556146619e-01,5.464094556819352189e-01,4.187778127197351319e-01,-4.598338541279906738e-03,-1.103580447906208316e-02,-7.153423556760104066e-03,1.144197732210159302e-01
5.196604815768884889e-01,5.474357638980097418e-01,4.128151103271402445e-01,-1.553517304123223745e-02,-4.762694502497975130e-02,-2.411690802655188856e-02,1.562975943088531494e-01
4.043291020473449571e-01,5.476571781619526957e-01,5.549617189974869191e-01,1.367554832350612731e-02,1.691805666749485485e-03,1.260441487834845949e-02,1.506303548812866211e-01
3.831829682224842659e-01,5.558425602243005637e-01,4.448063349843858760e-01,8.464605306309001820e-02,-1.755266628451344624e-01,7.054903331844014636e-02,3.896461129188537598e-01
4.810921935917066294e-01,5.459068016115191657e-01,4.290561980863706326e-01,-5.831853206608997829e-03,-1.626785285723863356e-02,-5.859733791470351713e-03,1.062089502811431885e-01
4.784011797624629359e-01,5.320775118032212703e-01,4.371640486991848484e-01,-1.045429721285981960e-02,-1.332559468439907351e-02,-4.448707706626351711e-03,8.783548325300216675e-02
5.007016606218090971e-01,4.822377824302186977e-01,5.282726495691031365e-01,4.863350512278804237e-03,-4.223657366764902756e-03,2.439096679994180727e-03,4.186243563890457153e-02
4.755118106789558152e-01,5.455466755702200743e-01,4.541531338940153484e-01,-1.357150778543489769e-02,-5.803078124373786673e-02,-1.088770154786024812e-02,1.336705833673477173e-01
5.057123299806104422e-01,5.273059495860437096e-01,4.120937064529351934e-01,-1.657186472970853530e-02,-2.032451864471037511e-02,-1.636677678959932991e-02,1.188236027956008911e-01
5.028630001995267884e-01,4.981454140148564025e-01,4.996398773696840157e-01,1.245080840692470688e-04,1.723229293602417935e-03,-1.159451173846251992e-03,5.516051780432462692e-03
5.008702758596541571e-01,4.985565157063177599e-01,4.957045106091612641e-01,3.080167714734751393e-03,2.177117123708547427e-03,-2.009165066683322315e-03,8.653226308524608612e-03
5.025941070027959423e-01,4.996999143811800548e-01,4.974446494588669054e-01,1.118728659966242503e-03,6.541506886263674528e-04,-7.449010339368670585e-04,5.166504997760057449e-03
4.563704322952344405e-01,5.214331139035049967e-01,5.517504039864176146e-01,7.708727711258332900e-03,-2.633194965085181960e-04,6.287501510566447654e-03,8.615041524171829224e-02
5.123728847251696195e-01,4.941504182934136069e-01,4.906072943882772153e-01,2.576701723457744918e-03,9.351623109493563402e-04,-1.059494005709321271e-03,2.085871063172817230e-02
4.741009735680160597e-01,4.713281690188635964e-01,5.360589846844665551e-01,-2.266063144183868856e-03,-1.476130880483266026e-04,-9.286425455989526852e-05,6.351202726364135742e-02
4.668561869135413600e-01,4.893094839138680818e-01,5.309855770543205900e-01,5.718425761391537779e-04,4.332186577656269195e-03,6.945513761175748681e-03,5.812760069966316223e-02
4.847091778873773849e-01,4.601870516237802633e-01,5.567533569531424309e-01,-2.987343507184423569e-02,-9.242080306398102810e-04,-1.038259710964610678e-03,1.011999920010566711e-01
3.858800091684506661e-01,6.045549732845195701e-01,4.633558633326325116e-01,-3.153840634971145224e-02,1.392175010238689559e-01,7.108439592265163032e-02,3.364026546478271484e-01
4.872430984580524149e-01,4.793766430580022608e-01,5.361104965772283126e-01,7.452086322526457057e-03,6.354921768456932340e-04,8.020456673284584795e-04,5.480929836630821228e-02
4.614143360325640431e-01,4.845540494434648626e-01,5.241867540700239081e-01,-3.308682179932759086e-03,-2.887085259400185532e-03,-8.266724993470947469e-03,5.732496082782745361e-02
3.215508368884197332e-01,5.451583771970048842e-01,5.651413285112766305e-01,-3.964205149763151692e-02,7.409544103053532400e-03,9.226444281149945650e-03,2.449541836977005005e-01
4.704385547972966819e-01,5.274472946157623410e-01,4.591367869951368252e-01,-5.528800196112699378e-03,-6.515283859328241563e-03,-3.779578160906375481e-03,6.545174866914749146e-02
5.123362060533129814e-01,4.114860210919868977e-01,5.369933139334407413e-01,-2.143564056393312475e-02,-1.037542586657543529e-02,-1.134167951073459558e-02,1.239060759544372559e-01
5.860453072219240500e-01,5.736369821933641200e-01,4.075196933305226810e-01,7.846908559431308230e-03,5.427178719699151527e-02,6.177709636768231871e-02,2.242328971624374390e-01
4.302497871917457251e-01,5.009384363755041703e-01,5.467092547340574038e-01,-9.324704796134803547e-03,-2.895377190876995827e-03,-3.744403994087524418e-03,1.032249554991722107e-01
5.046847011117310267e-01,4.553665870546349526e-01,5.043820709228969967e-01,-4.478085472359545280e-03,-1.246514850537530986e-02,-5.143498396607729117e-03,5.498280748724937439e-02
5.447930051721860956e-01,5.389295872174626467e-01,4.376968695640941487e-01,-2.726480449517424895e-02,3.091828950180584498e-02,3.397032598737591974e-02,1.394126713275909424e-01
4.911562171279270639e-01,5.441430673531775231e-01,4.526913316135044996e-01,-1.456100312244323555e-02,4.708413733018410041e-02,1.868731818794407140e-02,1.210774555802345276e-01
4.645457464821722282e-01,4.693530754250379022e-01,5.348067712886123148e-01,-2.350548722662731786e-03,-9.635721570238443357e-04,-1.856109713380841696e-03,6.820300966501235962e-02
4.961808217001706378e-01,5.869349958392546807e-01,4.313338034632520634e-01,3.986837015349789168e-03,6.284260894227117200e-02,2.829591359724914490e-02,1.806207001209259033e-01
5.312165012514710183e-01,5.113264713164852315e-01,4.512407731808562028e-01,-1.858284453169092854e-02,3.572092651361614274e-02,3.326739655692459441e-02,1.156939491629600525e-01
5.169337450787763188e-01,5.981498950287135186e-01,4.787616896075512218e-01,1.232002593454536478e-02,1.066647909910826836e-01,5.174510675608650495e-02,2.318911552429199219e-01
5.360180810020997999e-01,5.869058251439329688e-01,4.019928077077785100e-01,4.964066163341870896e-03,5.388645744496847051e-02,3.290867319910116551e-02,1.985112130641937256e-01
3.693770969262777371e-01,5.403390485788595043e-01,5.559511519598634433e-01,-2.085769236973930574e-02,-5.534001135107866932e-03,-1.952569086325658780e-03,1.831645369529724121e-01
5.256148961342252957e-01,3.874267542955358579e-01,5.540314163413643245e-01,-1.409925643980565642e-02,-5.568988264441389335e-03,-9.757705363494035417e-03,1.574970930814743042e-01
4.690000132741088956e-01,4.749019366335290870e-01,5.231527386969884175e-01,-2.738444180862073182e-03,-2.089829482905788353e-03,-2.245625347013912622e-03,5.194683000445365906e-02
4.035675250329793240e-01,5.226742476811647720e-01,5.283457674017747463e-01,-1.847314150372631955e-02,-1.745641059742304366e-02,-1.425306240119206432e-02,1.320662498474121094e-01
4.991585604967572198e-01,4.026757540102629540e-01,5.563166526586040828e-01,-2.649565807389097152e-02,-8.066614366568516589e-03,-5.863841565113271127e-03,1.431613713502883911e-01
4.081840660195248383e-01,5.316813843996700539e-01,5.302470504214208402e-01,-1.317500428921777010e-02,-1.947328701627479633e-02,-1.677796648259402904e-02,1.325872540473937988e-01
5.515767370075167486e-01,5.558832429016327126e-01,4.254766241982911867e-01,-1.496528688837811816e-01,-1.983052654981820040e-01,-1.969258669823636121e-01,5.638839602470397949e-01
3.939425792338875354e-01,5.318879776118741187e-01,5.577270977407298158e-01,-1.070931313547304926e-02,-3.620607354750248787e-03,-1.073722631033161750e-03,1.537785232067108154e-01
3.237292305690612215e-01,5.343980950300490917e-01,5.516561633382672802e-01,-5.547648544684208316e-02,-2.781371360764713085e-02,-2.203524826380958996e-03,2.447105348110198975e-01
4.164345684360882260e-01,5.061042646425162328e-01,5.629515699544287433e-01,-4.366324833329519178e-02,-2.218748133625358943e-02,-1.228983121292604418e-02,1.549811661243438721e-01
3.892023515106813325e-01,5.283919757453462429e-01,5.269763309300189436e-01,-1.075504859629074564e-02,-7.371432889575676821e-03,-1.124407951132284228e-02,1.416616737842559814e-01
4.086612455153761925e-01,5.010889626314438683e-01,5.301413188647444708e-01,-4.596373528331387098e-02,-3.263523214219182095e-02,-1.860693081270879679e-02,1.504791975021362305e-01
4.099700159841508373e-01,5.026183933571714002e-01,5.288001075612019930e-01,-2.093233516253564450e-02,-1.349870964200684809e-02,-1.922145263923282638e-02,1.210967525839805603e-01
5.049628527196432515e-01,4.994992704977436748e-01,4.923585710894405332e-01,-4.887617099499271152e-03,3.689918123855246736e-03,3.897195087856482072e-03,1.667127385735511780e-02
3.898885281543555403e-01,5.592362430697782605e-01,5.562282972138536952e-01,2.519877156636758046e-03,-6.987731549922119624e-03,5.957219556664458161e-03,1.686721891164779663e-01
5.356961939425535224e-01,4.708857302688959079e-01,4.645043557660974431e-01,-8.761203564367518390e-04,-1.015696104223392463e-03,-2.416305348523242486e-03,6.839306652545928955e-02
5.095604416313346263e-01,4.932004990737839933e-01,5.025134956794035102e-01,-4.828913991211420884e-03,6.806332310349464017e-03,3.808200619548435424e-03,2.131807804107666016e-02
5.254061055660653734e-01,4.924667493040706390e-01,4.946004059719615320e-01,-7.162421391472495458e-03,6.747433430055017368e-03,-8.255074796976187134e-04,3.621879592537879944e-02
5.225452965588216481e-01,4.868460456249057988e-01,4.919244137586269994e-01,-2.592617122363417761e-03,8.022703104973251398e-03,4.105103084371775762e-03,3.718527033925056458e-02
5.374392956264215648e-01,3.410279374681054465e-01,5.658328433155813686e-01,-6.648862075766583113e-02,1.198168523965753053e-03,-2.558228090624462686e-02,2.453371286392211914e-01
5.139099055930030913e-01,4.209944977578840564e-01,6.394983941487202284e-01,-1.199872817311110201e-01,-1.183966552451642083e-02,-2.690073441641113033e-02,2.861069142818450928e-01
5.142251591695480295e-01,4.879701611793219596e-01,4.950704972897010392e-01,-2.813990929048602960e-03,5.413591213617460242e-03,2.950270105340419176e-03,2.628895640373229980e-02
5.090265192311667075e-01,5.459940763719790535e-01,5.217169185889601879e-01,9.512207718963147651e-02,-6.459862256209489284e-02,7.955942276046210071e-02,2.443587332963943481e-01
4.201738712256968267e-01,5.443746271692839755e-01,5.475077771267747861e-01,5.686161813317620189e-03,-4.705838193734901767e-03,6.617572185714443340e-03,1.269629597663879395e-01
4.836963838457413178e-01,5.249917742200376214e-01,4.809823846461823149e-01,4.266424861993638358e-03,-1.682135279988485705e-03,1.988626813282594764e-03,4.358566924929618835e-02
4.908022938190018114e-01,5.128783784057130424e-01,4.913418092521880109e-01,1.112681626531131793e-03,-3.425691552353293985e-04,3.522716158695956071e-03,2.273827232420444489e-02
4.858071008299547633e-01,5.170720358608628109e-01,4.809252778664950267e-01,6.089425175734519691e-03,-4.272747124533509723e-03,1.582966562087549569e-03,3.643471002578735352e-02
5.190117419733177861e-01,5.191980912694618144e-01,4.679351617241808148e-01,-8.007789544751701613e-03,2.303322229597723828e-02,2.308027453493680797e-02,7.746243476867675781e-02
5.208307935283833512e-01,5.019423463695326104e-01,4.908821224944330264e-01,-7.372189010849603680e-03,1.480500498287782261e-02,1.303628714107616174e-02,4.492726176977157593e-02
7.350617986952552307e-01,5.303688478888312074e-01,3.285697741195853783e-01,1.330956583376967095e-01,4.780256177095557751e-02,-2.140697812913629206e-01,5.669260621070861816e-01
4.363590366409773047e-01,5.280472247767549199e-01,4.737926015480471986e-01,-9.180207679144191529e-03,-1.997533906397037928e-02,-1.284446196857930329e-02,9.121727943420410156e-02
5.160780088248395625e-01,5.179590842912639159e-01,4.655384965483441162e-01,-9.562134918429074024e-03,4.968210936105548793e-03,6.876965818202846262e-03,5.606317892670631409e-02
5.149117678884985727e-01,5.152673098256667084e-01,4.480354007420010443e-01,-9.741745571791591077e-03,1.768714979071341412e-02,1.814955816938491201e-02,8.190105110406875610e-02
4.880321040210704453e-01,4.594353599535527244e-01,5.038676312255145895e-01,-7.381073910452355148e-03,-1.403733335898071748e-02,-5.846528978852915531e-03,4.876995831727981567e-02
4.694120635154500620e-01,4.730445910722408387e-01,5.072187199851884154e-01,-2.237727880943288054e-03,-5.309794310379522056e-03,-4.132409304855651222e-03,3.815808147192001343e-02
4.765101783191747487e-01,4.775743962958084454e-01,4.985719011326521510e-01,-3.432208852014053888e-03,-3.225598225916429321e-03,-7.098735478045815721e-03,2.611711062490940094e-02
4.359906100815180707e-01,5.340847972346688399e-01,5.025576896411964034e-01,1.462427067784054496e-03,-1.027696604116217459e-02,8.316755946752810158e-03,8.974726498126983643e-02
4.789375079451250183e-01,5.199969402218802550e-01,5.012218174792393288e-01,2.569605579758783495e-03,-3.645861189634829348e-03,9.030869998470468160e-03,3.964645788073539734e-02
4.253569810622518932e-01,4.770387493994515671e-01,5.310547773837489549e-01,-3.673074736437831334e-02,-2.398350754681720029e-02,-1.855675393353050512e-02,1.232335567474365234e-01
4.802996753392155260e-01,4.828833004448560007e-01,4.988131139362523836e-01,-3.769078207238067343e-03,-6.377180390286269103e-03,-5.431660973774932698e-03,2.355255186557769775e-02
4.718371178714058090e-01,4.916371065276830543e-01,4.995240508426306847e-01,-1.685418824640529806e-02,-1.114267742131019694e-02,-1.330889266161531040e-02,4.864620789885520935e-02
4.997165401201655310e-01,5.547635552676279946e-01,4.799173268235931711e-01,1.417504947910594795e-02,2.529605557245910227e-02,-7.586580524717450799e-03,8.489526808261871338e-02
4.978295097616782239e-01,4.975089091595249480e-01,5.008447820106508575e-01,2.002146922400394134e-03,-2.838675935148162605e-03,1.338061143441622060e-03,7.192537188529968262e-03
4.979322496848599955e-01,5.016779604586181218e-01,4.949321537980403418e-01,2.552637897595403348e-03,-2.218722641172552780e-03,1.647204071902717707e-03,8.759242482483386993e-03
5.251752158151562488e-01,4.810296608595458490e-01,4.564493425301491825e-01,-8.863121634575015645e-03,-2.646661474310284864e-03,-4.213370309861517657e-03,6.283367425203323364e-02
4.916143606242673880e-01,4.962976738020512535e-01,5.153939431372165370e-01,6.271861471570429510e-03,3.687762802338214775e-03,-3.138325886189000189e-03,2.577575482428073883e-02
5.015570250266205843e-01,4.976276955275427127e-01,4.983562247796677336e-01,1.639004002280733873e-03,-3.271975319746365553e-03,1.723375450791105046e-03,7.886336185038089752e-03
4.988088708314997732e-01,5.134823860836732479e-01,4.934280023413439853e-01,7.448017267542543160e-03,-1.209796740983077809e-03,6.905647078049029046e-03,2.524075284600257874e-02
4.610809242889942761e-01,4.804764474177694034e-01,5.252116119216674317e-01,-4.249467313248444372e-03,-2.562680604935989662e-03,-9.510261313936325608e-03,5.991906300187110901e-02
4.983038020697754811e-01,5.128765563892382362e-01,4.880265119348063396e-01,7.543657183944155534e-03,-3.729551404616407873e-03,2.670583623308845321e-03,2.648775652050971985e-02
4.416367848681154173e-01,5.038460408446444605e-01,5.254978412306324786e-01,-6.909753089057840345e-03,-4.838134804603262500e-03,-1.222279914793497971e-02,7.967045903205871582e-02
4.991107901116775269e-01,5.068167456268453108e-01,4.963855239608169767e-01,3.360015064110880283e-03,6.437013060703956945e-04,1.333935665255424168e-03,1.132518984377384186e-02
4.972324187947774754e-01,5.074051406601745029e-01,4.986284544503274407e-01,1.421270203575666176e-03,-1.147523470024004863e-03,5.078953059305707680e-04,1.010029856115579605e-02
4.926425351399706387e-01,5.130633567696438746e-01,4.908320126657321758e-01,3.598237672519897633e-03,-8.001456307077975567e-04,1.180978678230142683e-03,2.240997739136219025e-02
4.898200200253035597e-01,4.839923566863001403e-01,4.978160642341678543e-01,-5.263167566769979926e-03,-8.826716369620648400e-03,-5.253940294439112327e-03,2.332689240574836731e-02
4.833603049751974412e-01,4.872773729806675891e-01,4.951170993222566152e-01,-1.693960278017856130e-03,-2.367902039879432510e-03,-8.384450033061790607e-04,1.162117999047040939e-02
5.001166216633436967e-01,4.809543718807766655e-01,4.795107413617009651e-01,-3.961073036405067180e-03,1.706107747781022109e-04,-1.206928566839718733e-03,2.117703296244144440e-02
5.057993671355781595e-01,4.775544663011889179e-01,4.703733317628553401e-01,-6.951903847463337949e-03,-3.357342746657266102e-03,-5.514192936296487615e-03,3.636199608445167542e-02
4.844156729895181535e-01,4.855406276377927655e-01,4.885524984791038694e-01,-5.150446060447396585e-04,-3.605896172257143590e-04,-1.377954668838645954e-03,4.539523273706436157e-03
4.852236593893777261e-01,4.835258347757849240e-01,4.902578276083178754e-01,-1.916340434211919993e-03,-5.563934790874200745e-03,-3.500731756871568873e-03,1.332017872482538223e-02
3.970908440929445948e-01,5.534923666152652411e-01,5.285464800534802610e-01,-6.730616470224392439e-03,-1.143231201584983883e-02,-2.811330742946359720e-03,1.474241018295288086e-01
4.890404679601094706e-01,4.759671438865528126e-01,4.925813387847811642e-01,-1.153854602024285188e-03,-7.278424863338447959e-03,-9.115259712176460721e-04,1.987847313284873962e-02
4.888554889093786882e-01,4.852628492498693435e-01,4.828920296520803901e-01,-1.971734787013628473e-03,1.061663846003127378e-04,-7.409513534518645658e-04,6.355265621095895767e-03
4.844633365921181545e-01,4.871974378664644667e-01,4.851864903389856987e-01,-1.384949392943168140e-03,-9.549558500618190657e-04,-1.716457584992813964e-03,4.832167644053697586e-03
5.327533357715360518e-01,4.112209644726836366e-01,5.232941216865957257e-01,-2.762224838824592701e-02,-1.591789287511052170e-02,-3.402078374274500328e-02,1.422369033098220825e-01
4.873236433883355034e-01,4.857106328281362018e-01,4.873772778244427339e-01,-5.444875322576190146e-06,4.715435096271057016e-05,-9.363819366272961402e-04,2.308329567313194275e-03
5.392336381979850879e-01,4.310752585753252486e-01,5.134829910243577933e-01,2.831315575728751612e-03,1.432320894270720096e-02,-1.419292642555498515e-02,1.040192842483520508e-01
5.532641031227493178e-01,3.587442058004346457e-01,5.546784129545927478e-01,-1.043832519821879211e-02,6.007149152499754400e-04,-9.719395159054396854e-03,1.967903971672058105e-01
4.888716570938033690e-01,4.875619962693319431e-01,4.854463185607319486e-01,1.931815259079178209e-07,-6.351534287726331302e-04,-9.902607805944913574e-04,3.621357958763837814e-03
4.899282740351043053e-01,4.580548085175446538e-01,5.046992522731662545e-01,-5.427610404157526269e-03,-1.244861197489425392e-02,-4.990598870913006378e-03,4.830010980367660522e-02
4.938196800796755270e-01,5.344625364427825209e-01,4.642244435463964702e-01,1.163286834599022192e-02,-1.010244645352244980e-02,7.751153476552355079e-03,6.799224019050598145e-02
3.852895120473063817e-01,5.527520600262977313e-01,4.887200680543420939e-01,-1.795102379616821814e-02,-7.064456240556876709e-02,4.046744160777748442e-03,1.934131532907485962e-01
4.043957196013753252e-01,5.581353491673438638e-01,5.267294803511480827e-01,2.704055922932419422e-04,-1.174913895520960858e-02,5.026885531526320387e-03,1.424220204353332520e-01
4.811314804633909370e-01,5.508883217132863885e-01,4.611303407716878522e-01,4.582701384201617358e-03,-2.208608213926994968e-02,4.006767941666707772e-03,9.075147658586502075e-02
4.325288701310626704e-01,5.571721855275741930e-01,5.063140265753857117e-01,-3.913989513466076611e-03,-4.242494034612120934e-02,6.587094486844510821e-03,1.317540556192398071e-01
4.689293319320152476e-01,5.333274765483575486e-01,4.748951505286437280e-01,2.539896418257981889e-03,-2.470512487349779251e-03,3.066355504969629255e-03,6.216426193714141846e-02
5.416354858012932816e-01,5.549764233832762406e-01,4.008942952109215141e-01,1.022323537891704250e-02,7.094299709569696494e-03,-5.927436722006846140e-03,1.497785598039627075e-01
4.624928550870623378e-01,5.381882588121024158e-01,4.754568485439965575e-01,4.168414860539422333e-03,-1.998886699795829683e-02,3.448652187362266728e-03,7.875922322273254395e-02
5.451513215015219016e-01,5.007497594030557719e-01,4.285880218462136959e-01,-5.201902590484446497e-03,-4.181319771494090148e-03,-1.008979194007034348e-02,1.040286049246788025e-01
4.408737998141327719e-01,5.251263258904093068e-01,5.031530689883754182e-01,-5.608742273231546657e-03,-7.708060960352944822e-03,-1.183106777660796957e-02,8.014080673456192017e-02
4.524867663225883851e-01,5.068706276773716768e-01,5.066729913400873642e-01,-4.851695837515602495e-03,-4.825643211612080409e-03,-1.137880411776445375e-02,5.895594879984855652e-02
4.710511233496122441e-01,5.246903358244199289e-01,4.779153458331808491e-01,9.768788340288344849e-03,-1.467984356302655218e-02,9.748601267177326238e-03,6.143271178007125854e-02
4.648896523363728051e-01,5.250078550839311076e-01,4.867616797308757515e-01,7.437695002050419973e-03,-1.055201655214116178e-02,1.442141551334681290e-02,6.246280297636985779e-02
4.748918875951923524e-01,5.237216279286430742e-01,4.664105526829278037e-01,-1.865525693820052882e-03,-3.191448967592829585e-03,-2.306243806527213426e-03,5.410518497228622437e-02
4.447660951842879462e-01,5.333943746788919471e-01,4.857038960008351891e-01,1.610594787721383913e-03,-1.951728474490017906e-02,7.949293721489504930e-03,8.510439097881317139e-02
4.827747623936465282e-01,4.844925886652967639e-01,4.826055942470341975e-01,-2.589159183312991688e-03,-3.445870864608684310e-03,-7.426899524084745047e-03,1.498265564441680908e-02
4.773415491656428644e-01,4.671758238495780091e-01,5.365113469657862844e-01,-6.885673901792870553e-03,3.501785552492479598e-03,2.447840764106222478e-03,6.635443866252899170e-02
4.691706921661841223e-01,4.720993271431299654e-01,5.418288711857724982e-01,-1.336382467071390787e-02,-2.895087625827531472e-03,-1.223409669600685997e-04,7.507305592298507690e-02
4.602987961299376263e-01,4.693315366831534718e-01,5.376409014903442696e-01,-6.838660984056560942e-03,-2.252705849885213178e-04,-2.430730043627031111e-03,7.431662082672119141e-02
4.674318023439210656e-01,5.231587997848933247e-01,4.676603336395552812e-01,-2.131507079958893172e-03,-1.007551441081169178e-03,-2.062736826801179948e-03,5.587714537978172302e-02
4.693136804031837750e-01,4.595549875583893606e-01,5.379215126578023032e-01,-1.094868835295221762e-02,-7.319627403759351031e-04,-1.551784856504752601e-03,7.642147690057754517e-02
6.479061174265673406e-01,5.090356012106835859e-01,3.967538417452629029e-01,2.638609698348689039e-02,3.661914138048824596e-02,-1.121247602597585935e-01,3.021792173385620117e-01
4.539059022779950991e-01,5.383623012350237103e-01,4.863266987390639229e-01,5.728745132189450723e-03,-6.638181050714135958e-03,5.564525485200028446e-03,7.595650851726531982e-02
4.926441484566002615e-01,4.890948839528804770e-01,5.266637698532811163e-01,1.850609481550296621e-03,-1.217823133959493277e-03,1.609199642941906705e-03,3.623766824603080750e-02
5.416319852132072121e-01,5.070880249403221240e-01,4.624167306449417647e-01,-1.036755711782743998e-02,2.467770942577054635e-02,7.799528775511929690e-02,1.585280895233154297e-01
4.731184790602375179e-01,5.173103528789804173e-01,4.748589947966624369e-01,-1.313843552178943714e-03,-2.063509952291740519e-03,-4.430777121561290006e-03,4.422536119818687439e-02
5.401047489627385234e-01,5.197518431614354117e-01,4.502437450548302245e-01,9.612372217567032636e-04,1.339524819090987320e-02,1.847298009654969875e-02,9.069251269102096558e-02
5.893165456047487760e-01,5.673719281038839268e-01,4.827102913790031202e-01,-9.782349033158198488e-04,6.454811521575100353e-02,6.202839844059263030e-02,1.831716150045394897e-01
5.881098625787811729e-01,5.090110489448989028e-01,4.163862619078673166e-01,1.359805332611622834e-02,2.093829311206099261e-02,4.280411117977167557e-02,1.718400865793228149e-01
4.926877663390147877e-01,4.928442707708199366e-01,5.109855920393475692e-01,3.873991377983223086e-03,-6.075535476498914074e-03,3.191119579680670292e-03,2.276578173041343689e-02
6.641525580858397282e-01,4.538660794154448785e-01,3.584964127408112877e-01,-5.660974701693970851e-02,5.175137509574440769e-02,1.969538717711305231e-01,4.554029107093811035e-01
4.912997657381201200e-01,4.921689524584403341e-01,5.162652204291119373e-01,1.347470215745047721e-04,-1.305225231901330088e-03,1.826767869506787075e-03,2.484967373311519623e-02
3.609898004462290810e-01,5.537681952995485712e-01,5.530219174303654395e-01,-9.084641860385893677e-03,-7.573958430279043724e-03,2.205313577494474094e-03,1.935315877199172974e-01
5.931528391457743243e-01,3.747055433746411812e-01,6.260756064715120583e-01,4.237851694237471101e-02,1.206288161210956715e-02,5.053994445132576480e-02,2.635948359966278076e-01
5.820825713014592395e-01,5.421040285321534480e-01,4.161078187850507093e-01,1.634808337086635782e-02,3.116758508657143517e-02,5.714109187324620254e-02,1.897941529750823975e-01
6.897814237106496549e-01,5.319615560692532164e-01,2.398821046947570701e-01,4.681704553722221274e-02,1.704210644743636704e-01,-1.477004453174573517e-01,5.616629123687744141e-01
4.843913981679772163e-01,5.122432786614411482e-01,4.261641468778932240e-01,-7.043887870502144044e-02,1.594812139534703965e-01,1.149561344054069872e-01,3.696218430995941162e-01
4.988861316865398354e-01,5.007076600914837083e-01,4.980551373965332873e-01,3.404120158176453768e-03,-4.182981734831051589e-03,3.936471448645189990e-03,1.180109009146690369e-02
4.982700830701879413e-01,4.993270028264923388e-01,5.026332230454342298e-01,5.444164684014881012e-04,-1.285117702777659968e-03,1.631964594483227473e-03,5.419986788183450699e-03
4.813853514589086502e-01,5.081904842375246645e-01,5.002957860763568299e-01,3.212737756160050605e-03,-3.962928033546505961e-03,8.413274353015186627e-03,2.931982278823852539e-02
5.079156915901311686e-01,4.971053326835338515e-01,5.115551742315731509e-01,1.755112782861497148e-02,-8.915861663375263327e-03,1.410628913187422610e-02,4.392061010003089905e-02
4.538907490470818762e-01,4.893192175953838818e-01,5.354777648683414215e-01,1.700717980306137855e-02,-7.106829653289368186e-03,1.560708195179393888e-02,8.228676021099090576e-02
4.743136445568195692e-01,4.808383845704055637e-01,5.086986240935361669e-01,-2.966395702910507720e-03,-2.428632791636156814e-03,-1.621873310562184280e-03,3.244272992014884949e-02
4.661227450305713838e-01,5.295543349872902095e-01,5.203450500989046379e-01,2.560880377999710800e-02,-1.672572977176760289e-02,1.953673516933749840e-02,8.646359294652938843e-02
4.874631981595318186e-01,4.939070645451376640e-01,5.145728142242260716e-01,1.099548039879187644e-02,-9.398035053918953399e-03,1.107420827648513371e-02,3.996685147285461426e-02
4.853556320978045791e-01,4.890030551201996478e-01,4.875250285588644816e-01,-3.588009430611259834e-03,-3.002500382516066525e-03,-3.310611914570434338e-03,1.042325235903263092e-02
4.905006647489013050e-01,4.944775097135908348e-01,5.151715910578275048e-01,3.540573232256170010e-03,-2.862672087062104621e-03,5.727766971160595973e-03,2.621013298630714417e-02
4.696332405910220165e-01,5.054190055067305787e-01,5.136806193372973617e-01,7.333688981886311506e-03,-5.213608566574694930e-03,1.450542649760573968e-02,5.018605291843414307e-02
4.193569526922185653e-01,5.506339234058083010e-01,4.958268747739467686e-01,5.888633351081275918e-03,-2.303266922236849382e-02,2.308568889074375798e-04,1.214011982083320618e-01
4.704102056938931353e-01,5.298726447600590195e-01,4.789833322865470477e-01,1.018341174210477288e-03,-6.781923389717671793e-03,5.289952846124944090e-03,5.765888094902038574e-02
4.826766062962450365e-01,5.246225055113256097e-01,4.799172540744876536e-01,6.697114558459699163e-03,-8.232027421384199503e-03,4.398568690986807972e-03,4.773584753274917603e-02
4.639668428381560905e-01,5.391143848487862655e-01,4.624725881757636992e-01,-2.576648866923471337e-03,-5.568957609935927533e-03,-2.833527768221710819e-03,7.680311799049377441e-02
5.039222300696938328e-01,4.911637953226553055e-01,4.530101299015546479e-01,-1.413449599380259269e-02,-6.156420867509253790e-03,-1.138951149265043407e-02,5.663461983203887939e-02
4.406809399429787444e-01,5.279688016519068494e-01,4.986588464184589231e-01,-4.941049871337382764e-03,-8.679708310426470508e-03,-1.251136062171688199e-02,8.178445696830749512e-02
4.776554093739766027e-01,5.289184094737990893e-01,4.754489636289587207e-01,5.064266753829019816e-04,-3.675493746170654507e-04,7.312964110744243776e-04,5.242758616805076599e-02
4.640349063003503249e-01,5.366560207756077006e-01,4.690734347028904239e-01,1.143337655670373810e-03,-8.973556801908472505e-03,-4.622287284819639325e-03,7.240788638591766357e-02
4.826371565979124534e-01,5.515281751830940493e-01,4.460117191102389578e-01,7.861554427697311359e-03,-3.785110483549842392e-02,1.060148492814046856e-02,1.158933266997337341e-01
4.755707424852001486e-01,5.066137604660235771e-01,4.738807880118888205e-01,-2.213945208659130921e-03,-1.775825747931761203e-03,-4.984470448299227127e-03,3.343181684613227844e-02
5.258168469806615564e-01,4.158163771212580739e-01,5.240431207106485134e-01,-1.040649762547950392e-02,-1.159276347148687457e-02,-1.026753663216536418e-02,1.138089075684547424e-01
5.268953267034879318e-01,4.887500078322205566e-01,4.924156714319318784e-01,1.931538511770375865e-03,-8.624322062881574534e-04,2.671185889370022038e-03,3.692565858364105225e-02
4.668925753323957539e-01,5.328633622534665326e-01,4.592584818886360498e-01,-6.176274906313878807e-03,-8.149413545632424108e-03,-2.128494755393958195e-03,7.239696383476257324e-02
4.781968156823011018e-01,5.507152997889380730e-01,4.393970488413462827e-01,8.480310884031746696e-03,-5.818853548651212876e-02,1.111488787427195556e-02,1.425557434558868408e-01
5.427563171392664199e-01,4.330695953253579367e-01,4.769549386570734462e-01,-1.412897930680258752e-03,-4.826550794765298151e-04,-1.665546056345517875e-02,9.991177171468734741e-02
4.718377605630030835e-01,5.474779101871258824e-01,4.485908872481639831e-01,1.213584354488962160e-02,-1.277168838616122432e-02,-1.880328883710028235e-03,9.466803818941116333e-02
4.781758502519067311e-01,5.394597842608758187e-01,4.616461570196009889e-01,1.025865315892510654e-03,-1.095965753103453864e-02,-1.722635633999793992e-03,7.358232140541076660e-02
5.598530136424517689e-01,5.548161968223831453e-01,3.998024396718011242e-01,9.520647963101881717e-02,1.669326058526976464e-01,-1.964634582425526521e-01,5.014193654060363770e-01
4.914807279882771884e-01,5.309384384631269382e-01,4.884263040301723424e-01,-3.275394092057535254e-03,8.815154725428304625e-03,2.951297333785564588e-03,4.447692632675170898e-02
4.996747297663276521e-01,5.268443895749620465e-01,4.834541073658593646e-01,-1.084280997454485293e-02,2.286729457760373896e-02,1.159125199681394942e-02,6.137196719646453857e-02
4.641604436088127561e-01,5.340166609457404068e-01,4.951562207023034179e-01,-7.626221550340580918e-04,1.070408752438895689e-02,9.174452054942838081e-03,6.537102162837982178e-02
4.859418888841013362e-01,5.353716879709892185e-01,4.997873993366224177e-01,-2.076061167584059182e-03,2.759254317053737911e-03,8.375169527688294119e-03,4.687028378248214722e-02
4.930677695745739331e-01,5.209005369156243237e-01,4.898793141967989206e-01,-2.247901240107885897e-03,1.790326256394036497e-03,1.637683995258315019e-03,3.010637313127517700e-02
4.903096247709337052e-01,5.217310047702475861e-01,4.944733107399487682e-01,-7.049840043619321189e-04,1.821688120565525138e-03,4.067937397328562181e-03,3.057616204023361206e-02
5.900018858809916722e-01,5.864151487514679406e-01,3.137160681986145283e-01,-8.093093738924002703e-03,-1.652528047993236668e-03,-1.986339374321077073e-02,2.770272493362426758e-01
6.256334574358809464e-01,6.328947487912611747e-01,3.364555195660954290e-01,3.119661034480593689e-02,2.714480515328490662e-02,-3.991386020639681349e-03,3.015864789485931396e-01
4.373603684057180141e-01,5.409865044005209844e-01,5.083228680868573379e-01,2.852985488102179057e-03,-9.145618496314541004e-03,1.345652955262944574e-02,9.612004458904266357e-02
6.530793850603255901e-01,5.709053250243315558e-01,2.733784194044091564e-01,3.483241710229779270e-02,5.308945011327338183e-03,-2.564282620226123605e-02,3.541481792926788330e-01
6.222611491627034752e-01,6.689313220923066572e-01,2.146220921230342360e-01,2.163418012641344854e-02,-1.650177643334068550e-02,-3.922803165143328580e-02,4.406924545764923096e-01
4.478592401686335434e-01,5.536752607072691346e-01,5.056292265417239307e-01,4.063835462163895712e-03,-5.136204652390874079e-03,7.098130356450198589e-03,9.328047931194305420e-02
4.825969319552727010e-01,4.483143370653399629e-01,5.234955695948660948e-01,-7.761965331860290994e-03,-1.254760318860219555e-02,-5.104482083936811958e-03,7.057864218950271606e-02
7.398225028178624374e-01,6.295044453064556622e-01,2.009669369512214199e-01,-1.359985387652542848e-03,8.442724472625545706e-02,-1.491653968605400477e-02,5.149241089820861816e-01
5.009902871758062926e-01,4.990699283657605290e-01,5.001096957375310570e-01,3.009264697186141927e-03,3.026285370306379396e-03,-2.430616546526485986e-03,8.668223395943641663e-03
4.976253685276238459e-01,5.038688588989916894e-01,5.058663272202831296e-01,3.734826054162922095e-03,2.571177368956015924e-03,-3.504504966464944832e-03,1.240832451730966568e-02
4.996211417882888695e-01,5.038298773356808535e-01,4.976682316712320864e-01,4.671810957320792282e-03,4.424065800213934641e-03,-2.680620981575859534e-03,1.324757747352123260e-02
4.991773946302476284e-01,5.014742891883927634e-01,4.987734651644391559e-01,9.013522479464193765e-04,-1.342893616331765035e-04,-3.937158216100232282e-04,3.053377149626612663e-03
4.985030858447958568e-01,5.039476301254650625e-01,5.003901933325680673e-01,1.277529071859773461e-03,1.118002142935901715e-03,-1.625777125127206681e-03,6.285322364419698715e-03
4.709370020232007681e-01,5.229650383500014099e-01,4.622898851432901690e-01,-6.002215595715132586e-03,-5.083605629384001234e-03,-3.364614106686186941e-03,5.874650925397872925e-02
4.877531308891083217e-01,5.059745476576867906e-01,5.007195249507430113e-01,9.872465671400534534e-04,-1.246361200945483427e-03,5.293184862498074086e-03,1.885521039366722107e-02
4.669480971205380859e-01,4.785565250602397680e-01,5.122658365962474702e-01,-4.630213792549898316e-03,-4.587792101032668601e-03,-7.740433544234406361e-03,4.438004642724990845e-02
4.354778369885990430e-01,5.470837899116186565e-01,5.298167044217686472e-01,3.178442205854810267e-03,-8.807018267732991817e-03,1.218546748289607747e-02,1.074029132723808289e-01
4.718441088653733684e-01,4.798918041752627262e-01,5.070058768242087233e-01,-2.181371539148989867e-03,-3.245615982832517933e-03,-7.477781721832809855e-03,3.509662300348281860e-02
4.750077548966907259e-01,4.722178538997973130e-01,5.166484367492686358e-01,-1.538468372377570486e-03,-4.262586127624552919e-03,-1.774907495148844933e-03,4.391996935009956360e-02
4.110687409226490563e-01,5.852931701823455013e-01,4.365792464073570689e-01,8.874705172077085313e-02,2.052713861027748443e-01,-2.206586221451114008e-02,4.219694733619689941e-01
5.001757749675416198e-01,4.891000909874479441e-01,5.159892607782525786e-01,4.427484353669596841e-03,-6.366783708880102179e-03,3.915276318660102298e-03,2.782599627971649170e-02
5.270318311631332353e-01,5.581450442637878595e-01,3.588291657567973525e-01,1.293188464830745746e-02,4.222806797784341842e-02,-1.191838156800791720e-02,2.019182145595550537e-01
4.919924334987257342e-01,4.982735834618473580e-01,5.167143451317794955e-01,-1.058032335610807980e-04,-1.294177794696459117e-03,4.435603002623455041e-03,2.365218289196491241e-02
6.124943573849923606e-01,5.855843458004746926e-01,3.379664246420942542e-01,2.541109271139831843e-02,6.763468440366448946e-03,-5.829721647150434144e-02,2.845562994480133057e-01
4.999913474165159077e-01,4.981126036621053021e-01,5.067113351097569662e-01,1.879865546935429333e-03,-5.590618097403807782e-04,1.853149464966263307e-03,9.118929505348205566e-03
7.094734199358017079e-01,6.808500643916491901e-01,2.749192271124198950e-01,4.575618705739108172e-02,-7.490235006963039122e-02,-6.444863826561490761e-02,4.612928628921508789e-01
5.587610347088350915e-01,5.689555314209892023e-01,3.695385924565814384e-01,5.597581401924261145e-03,2.132119450651846001e-04,-9.300964393951773003e-04,1.947686225175857544e-01
5.736746812752719915e-01,5.678173268607316082e-01,3.558798042119764582e-01,3.838447669332749421e-03,2.218085008141995607e-03,2.794873444822962554e-03,2.151176631450653076e-01
5.590677120128303423e-01,5.582721255200582267e-01,3.963619583300257987e-01,2.039786659347199264e-03,7.245672279770330043e-03,2.543546270149877123e-03,1.628918051719665527e-01
5.643440816885145761e-01,5.596150781839144273e-01,3.658644750581964145e-01,1.096653635405619304e-02,-8.585884512345122932e-04,-7.513975728411894164e-03,1.975102275609970093e-01
4.839426013167580920e-01,4.956610146523183769e-01,4.866226529319963023e-01,-1.920283036509050833e-03,-2.709081583976625206e-03,-8.550846292653535704e-04,1.218077447265386581e-02
5.757980453245379326e-01,5.820518815999395912e-01,3.841542640281334631e-01,8.678129730277733822e-03,2.639927952451784701e-02,1.939103266681886390e-03,2.007309943437576294e-01
4.766639699342410386e-01,4.936978670826462912e-01,4.933593010067506834e-01,-3.223002375250074488e-03,-4.002312687004851502e-03,-5.991687031175804874e-03,2.171222865581512451e-02
5.478019779654589305e-01,4.159723671017372393e-01,6.691927770977723622e-01,-1.552742064126111550e-02,1.064800247178715464e-01,2.651086588022376622e-01,5.419434905052185059e-01
5.146328271003778321e-01,3.906771303225565761e-01,6.119529912545055295e-01,-7.240358871317492673e-02,3.207752626771975812e-02,1.821535022767497083e-02,2.381360083818435669e-01
5.342860333932639705e-01,3.829391114835021259e-01,5.153751054880580940e-01,-3.086570669922438642e-02,1.645325807241184574e-02,3.960393238404223692e-02,1.696379184722900391e-01
4.851096357306842743e-01,4.865440002276888998e-01,4.858448392915987180e-01,-6.227341912087762475e-04,-6.504571629224770602e-04,-1.698906101312814285e-03,3.554560244083404541e-03
4.993800333852130291e-01,4.275400153447460050e-01,5.394303506920025137e-01,-1.017200657590899143e-02,-4.822361977703541226e-03,-4.311551758858061731e-03,1.003901138901710510e-01
6.009427412361987297e-01,4.208843035670418731e-01,5.398417997713392813e-01,1.074358238152410723e-02,3.379247955531830550e-02,5.873102614489891793e-02,1.981733888387680054e-01
5.334276554642759516e-01,3.642809379670197689e-01,5.570136751203097480e-01,-4.714022892809659193e-02,9.344585501169771352e-03,1.201261814358295030e-02,2.012905478477478027e-01
5.142017485421931378e-01,4.871467727893630251e-01,5.044248765065413309e-01,1.575547385001234424e-02,1.805603412312437733e-02,-1.427761017721895960e-02,5.382715165615081787e-02
4.993963318390458039e-01,4.975871236847153600e-01,5.014537515971707604e-01,9.334643088479134499e-04,-1.768289080020138881e-03,6.715429865184526642e-05,4.820440430194139481e-03
5.692371596038027226e-01,3.195427414891865991e-01,6.065640986128209011e-01,-9.065162862367372176e-02,3.013419141685473503e-03,-1.418764528587340180e-02,3.136003613471984863e-01
5.359766179628779881e-01,3.824846406271649180e-01,5.172362916969408531e-01,-3.317778121728743451e-02,1.963044557084982211e-02,3.934383457734340339e-02,1.735991537570953369e-01
5.057832346807724644e-01,4.963466433869057060e-01,5.013282698881929011e-01,1.788551374457640879e-03,-3.154299134597450972e-03,1.327398095567190045e-03,1.056351233273744583e-02
5.032477195535893788e-01,4.972561529535272085e-01,5.022575602224970126e-01,2.718793231598518306e-03,-3.938741002081673319e-03,2.906848298816933508e-03,1.118090003728866577e-02
4.706033823392274384e-01,5.076057360414527597e-01,4.894255880026668337e-01,-2.356374319610122711e-03,-1.885385668927758076e-03,-8.343418885883418720e-03,3.554072603583335876e-02
4.989703481485464609e-01,5.027267445206071717e-01,4.966471731436408188e-01,1.855492346144737258e-03,-6.942854861101570079e-04,9.391149884671210965e-04,6.531070917844772339e-03
4.991068462310937481e-01,4.998416880280488472e-01,4.982107967926731606e-01,4.273848810446876723e-04,-1.853853612399879362e-05,3.998822473924596582e-04,1.740710693411529064e-03
5.007086221662707670e-01,4.977355802755401570e-01,5.009533776754138135e-01,1.268871695716097337e-03,4.825963806565419518e-07,1.233046089498372917e-03,4.360947757959365845e-03
4.955814350457621864e-01,5.025780216165949277e-01,4.978246737133251720e-01,2.873952274425154406e-03,-3.197049905536555013e-03,3.401659742647744969e-03,1.133337523788213730e-02
5.027825500551094118e-01,4.946439090159357455e-01,5.326016851677781716e-01,4.920485937904592322e-02,7.251408034761486210e-02,-6.841847008631687932e-02,1.956517249345779419e-01
5.357173854226412457e-01,5.032185921850235166e-01,4.455752474309860323e-01,8.246293956404873726e-03,2.816719306152770750e-03,-8.158078879480388720e-03,8.172964304685592651e-02
5.045794371422230862e-01,4.915452049022474013e-01,4.911337249093443158e-01,2.463127277462180686e-02,2.035974774293571390e-02,-2.515113910529624339e-02,7.167161256074905396e-02
4.861379588385340567e-01,4.826012874376381379e-01,5.258107825587079454e-01,-8.510585923677656262e-03,5.478897946146514368e-03,5.803761145594160155e-03,4.620764777064323425e-02
4.532285938739575304e-01,5.362098948569570256e-01,4.798723247416059046e-01,-1.542095309382096385e-03,-5.328041833084193150e-03,-4.182311261195368474e-03,7.436145842075347900e-02
4.883062823608648739e-01,4.915666533937127491e-01,5.136924160502760461e-01,-7.222195861469813717e-03,7.140936152087427359e-03,6.433748855057738573e-03,3.171681240200996399e-02
4.924464494265565206e-01,4.913896041315475305e-01,5.121981932487383871e-01,-1.192935661495212341e-03,3.693348571238716863e-03,2.236941839929106838e-03,2.173306979238986969e-02
4.839375937586070098e-01,4.915485021452056791e-01,5.188288099722238034e-01,-1.871012281124706219e-03,2.255586790137811479e-03,6.544067307840260861e-03,3.411756828427314758e-02
4.721916991771294980e-01,5.258971954735900400e-01,4.995849915696508048e-01,6.969641087224880127e-02,8.905406011436582669e-02,-2.951171245565182774e-02,2.077040523290634155e-01
3.296251797755401225e-01,5.719541754924728494e-01,5.508419755476284818e-01,-3.926502077213021684e-03,-6.955006677668094939e-02,-1.234807238036835560e-03,2.619454860687255859e-01
4.815035643642203711e-01,5.242642130981393089e-01,4.761976127264286873e-01,6.429960670178112847e-03,-4.640439193609024321e-03,4.050875390664653193e-03,4.818065091967582703e-02
2.482128078308732944e-01,6.206780686449611117e-01,5.442755180186641395e-01,6.617707726675023383e-02,-1.032158047168431209e-01,3.163567137036525645e-02,4.052303135395050049e-01
4.432641392209876741e-01,5.377329614538068903e-01,4.796109240969169130e-01,8.811318370389253181e-04,-6.951691269068851695e-03,-2.086151802632600692e-04,8.342210203409194946e-02
5.532340595300906383e-01,5.028536568892603142e-01,4.264649295031098242e-01,5.782837393022673307e-03,-3.323130402401201972e-04,-1.066781660478537119e-02,1.125343441963195801e-01
2.485060669756441465e-01,6.403560127568527216e-01,6.150364342575869170e-01,6.462700885472667800e-02,-1.006610715211997131e-01,1.682317234004967002e-04,4.326591789722442627e-01
4.889755690784414188e-01,4.831832518151992217e-01,5.309289464355261279e-01,4.899023789407806230e-03,-3.668368069642273261e-03,2.133046413268973717e-03,4.650447145104408264e-02
4.468736255165038362e-01,5.250482628106214467e-01,5.233167844911777999e-01,3.229731061814308801e-02,-2.648979272092023482e-02,2.276946201773805828e-02,1.129988282918930054e-01
4.702958484066041001e-01,5.151267737259483948e-01,4.644070643015656974e-01,-7.727312744246962739e-03,-5.830573063976962969e-03,-2.602576885274646666e-03,5.108747631311416626e-02
2.335841183540342259e-01,5.549302144250458646e-01,5.376903080015803527e-01,8.870715475880869283e-02,-1.080052407099102163e-01,4.334355978976556223e-02,4.028136134147644043e-01
4.863468752897613934e-01,5.192895508709044483e-01,4.919835291035050129e-01,1.656146286957671000e-03,-2.144663174404141134e-04,4.605058629885886053e-03,3.167477622628211975e-02
4.705065889906256960e-01,5.739876417018975330e-01,4.408412586414883760e-01,-4.061484371252490309e-03,-8.490960498942168311e-02,3.047361997994937899e-02,1.977940648794174194e-01
5.523812360972586433e-01,4.551360715769329213e-01,5.149302234320849436e-01,5.520283059975550745e-04,4.539085666914734370e-03,1.159188306331340908e-02,8.765335381031036377e-02
3.896501062635856494e-01,5.921056311797652238e-01,5.479076211413124176e-01,1.890779286615528257e-02,-6.831643981919899300e-02,4.118074127526468592e-02,2.327123880386352539e-01
4.834972193930228146e-01,4.947411145260404708e-01,5.245225133295797759e-01,1.254465451546737075e-02,-7.868439231168491976e-03,1.327814255446081206e-02,5.034863576292991638e-02
4.650051106934023903e-01,5.372779100203372016e-01,4.717875299236475861e-01,2.130295692678817448e-04,-2.385885735568409050e-03,-3.837656621617224761e-04,6.925915181636810303e-02
4.617642205432606062e-01,4.617064297855125732e-01,5.163297015581181926e-01,-1.908463360930272301e-02,-1.245489932467361630e-02,-1.270558863760620771e-02,7.087233662605285645e-02
5.006658157639799489e-01,4.972848239800835568e-01,5.007090734691669320e-01,2.647790915724524113e-03,-2.223601010576034369e-03,1.019670280009599139e-03,7.110837381333112717e-03
5.038097001531356423e-01,4.990936391378406611e-01,4.939055091502952410e-01,4.625992391110790233e-03,-2.526170746095332542e-03,3.910747454310247416e-03,1.424258854240179062e-02
4.893404450882866685e-01,4.928086864265472933e-01,5.228453137675540541e-01,7.190110000112636887e-03,-3.464705333516037485e-03,6.636066694889077196e-03,3.662812709808349609e-02
5.595847618211313712e-01,5.292211510266934260e-01,3.910494978321089610e-01,5.114173261938500907e-03,1.043272945330562780e-03,-1.137347566590108175e-02,1.570940613746643066e-01
4.962489671463659602e-01,4.924132281896539398e-01,5.167850417935512253e-01,2.459722221746488482e-03,-9.939865943584199909e-04,2.170158167251600746e-03,2.346183545887470245e-02
4.942707906573671206e-01,4.979938553019298553e-01,5.116667169588637876e-01,1.045756635530184584e-03,-2.584453044047442462e-04,3.261228899800541065e-03,1.694406569004058838e-02
4.457577983607028393e-01,4.854076020122741753e-01,5.495114884530692967e-01,-1.504068382579839755e-02,1.720702578974147657e-03,7.660276141495099209e-03,9.532424062490463257e-02
4.993307231698895787e-01,4.992656205178088169e-01,5.009694095151049353e-01,4.155375411179945992e-04,1.841181817780595929e-05,1.266838439112007771e-03,2.851295284926891327e-03
4.537748218089325269e-01,4.888535732689084368e-01,5.383116344273087828e-01,-2.909190192458028026e-02,1.217112197642955355e-02,1.057124953692368911e-02,9.343566745519638062e-02
4.957546614644240401e-01,4.993505242311053749e-01,5.053969471611895470e-01,1.671727127473616103e-04,-7.935062859307613018e-04,2.103912415306834812e-03,9.299661964178085327e-03
4.648106098658359997e-01,4.703652020817714607e-01,5.353375773309066998e-01,-7.202609962020041327e-03,1.671512637284859647e-03,6.742743990097322532e-04,6.912696361541748047e-02
4.755344063804143873e-01,4.800764370400120717e-01,5.311819946601498144e-01,-8.368117676203908409e-03,5.687027948251430383e-03,5.690363355747843008e-03,5.717319995164871216e-02
4.615917104641852342e-01,4.836014474018081599e-01,5.391379149968568152e-01,-4.234822840425067278e-03,2.148317193361105187e-03,3.774952736924944933e-03,7.001049071550369263e-02
4.898059274032457444e-01,4.870640737186626157e-01,5.313446878917501559e-01,1.548621538316050181e-03,-1.656198532295920451e-03,1.128717468908486477e-03,4.319867119193077087e-02
4.540808830891862602e-01,4.955089544374277066e-01,5.315336640984283934e-01,-6.447921976105096611e-03,5.472299661621168355e-03,1.124607319443489059e-02,7.141768932342529297e-02
5.174781744208938328e-01,4.482313108299862958e-01,4.860958520116561710e-01,-6.164410083463978292e-03,-1.230852176213380333e-02,-1.028246816417644101e-02,6.702639162540435791e-02
4.776401721802660538e-01,4.936215880510370080e-01,4.144293274063514110e-01,-4.519065493006723527e-02,-5.677302273816021289e-02,-5.203818766941708390e-02,1.708251982927322388e-01
5.308146876409749471e-01,4.687446662379207707e-01,4.724324810886623149e-01,-4.977234843153980313e-03,-6.875125066681416625e-03,-1.049823209220005632e-02,6.468495726585388184e-02
5.311277671002716527e-01,4.858592331735615555e-01,4.523835922421719502e-01,-9.861424476408591974e-03,-9.960609240691300700e-03,-2.972818337102587152e-02,8.902769535779953003e-02
5.351674058831802361e-01,4.598810882569809855e-01,4.865844815289226966e-01,-1.370404623573572359e-02,-1.518459181781431876e-02,-2.571964997979960324e-02,8.723714947700500488e-02
5.227100663686974347e-01,4.635296075140179495e-01,4.716749914315166992e-01,-3.175741960434884988e-03,-6.913147667975240787e-03,-7.351171737164616769e-03,5.850107967853546143e-02
5.222977461319634473e-01,4.442170916820201154e-01,5.080237142063575018e-01,-3.398883080422094444e-02,-1.888882916286407226e-02,-4.971684203642784405e-02,1.309090852737426758e-01
2.822308369610089795e-01,7.406074525633816741e-01,7.011741767159598293e-01,1.001328007328269321e-01,1.041034871102700099e-01,1.149712967820977066e-01,5.439084172248840332e-01
5.091257130664590402e-01,4.105197015682094941e-01,5.329975402476716528e-01,-5.596697605148100857e-02,-2.678139539686136272e-02,-3.629859252074315451e-02,1.677746027708053589e-01
4.502437369821675750e-01,5.168892858721776395e-01,3.913055915716505684e-01,-1.199511617284237108e-01,-1.816489167765719115e-01,-1.371730482689894060e-01,4.587444365024566650e-01
4.680442685772164824e-01,4.687800546244965116e-01,5.417260277994297990e-01,-1.293188475857312038e-02,-2.452989783511661838e-03,-5.402311392221305266e-04,7.678513228893280029e-02
4.300671116710987896e-01,4.240043341169556501e-01,5.191195562941696151e-01,-1.836523482308475563e-01,-1.733792564814640724e-01,-1.878638235845734861e-01,5.529476404190063477e-01
3.967698815731946493e-01,5.087134868247747965e-01,5.975994176794876545e-01,-1.106201130193276982e-01,-5.246589424475137792e-02,-2.645848814914424085e-02,2.782999873161315918e-01
5.640470838305443602e-01,2.771857260601316986e-01,5.847679211245253583e-01,-3.307328616453851511e-02,-1.446212526894270767e-02,-4.779032775093738222e-02,3.153149783611297607e-01
5.776700895259090363e-01,3.940237093021701775e-01,5.752220062615635010e-01,1.168290718049951916e-02,6.474222492877736851e-03,4.796892409906028908e-03,1.840832829475402832e-01
5.642480041181155981e-01,3.600295760928922673e-01,5.698584341577824786e-01,-2.855957568980313065e-03,-7.138272588092886648e-04,-1.530871374082065813e-02,2.088335752487182617e-01
4.655760686121733771e-01,5.393601762106849939e-01,4.751322884306012906e-01,-1.566261299349935247e-04,-3.035021789324743313e-03,1.808515562436227055e-03,6.976989656686782837e-02
5.766631391880766566e-01,3.879590889098025741e-01,5.812724884166795558e-01,2.169909189991828073e-03,1.210880291633608698e-02,1.489241096897277530e-02,1.939577609300613403e-01
4.853746623357295120e-01,5.126020710387380053e-01,4.630969080836710439e-01,-9.995715031134578057e-03,-3.336920354177423664e-03,-2.661715384960668205e-03,4.688920825719833374e-02
6.046114985621957594e-01,3.505763153975962609e-01,6.313852054332866892e-01,-4.914208011084250649e-02,2.160271147640578648e-02,2.578112915984925868e-02,2.875604927539825439e-01
5.550656934256661401e-01,3.486933489210184978e-01,5.666502651885291231e-01,-4.225718662869068498e-03,2.757664801794138519e-04,5.092825403167971707e-03,2.127112895250320435e-01
4.651713798688247858e-01,5.338291214771841986e-01,4.705440120542003779e-01,-9.239028039801512170e-04,-1.899544200165149835e-03,-1.583431338210680109e-03,6.629317998886108398e-02
5.678168894491278929e-01,3.683845420340398080e-01,5.741334824262457337e-01,-1.607687326022003496e-02,7.193106872123940232e-03,-3.551566876896251716e-03,2.050398886203765869e-01
4.779966046620716114e-01,5.310565892829380852e-01,4.838880885485208894e-01,6.592696796873156323e-04,-9.631841843936332420e-04,4.750583700043131165e-03,5.108092352747917175e-02
4.811448420065045362e-01,4.922490942350810639e-01,5.307493367857304412e-01,5.879090906716536932e-03,-1.658311374535291222e-03,6.407538962775388008e-03,4.762562736868858337e-02
5.731871935838974697e-01,3.689831325186343491e-01,5.690538743797421972e-01,-7.184483097423196435e-03,5.049272011742446040e-03,-1.467730447682405286e-02,2.043280452489852905e-01
5.362920756816615953e-01,4.675075152666584577e-01,5.034139545853338893e-01,4.163756548305833256e-03,5.693795448451264597e-03,3.816053348771220911e-03,6.118606775999069214e-02
5.066444198022529433e-01,4.904885706874720919e-01,4.953611657229985421e-01,-1.930633241642319827e-03,7.474165029490172953e-03,4.727534309844430745e-03,2.125683240592479706e-02
5.206122245223313572e-01,4.850127620480115254e-01,4.850902103643213725e-01,-9.440706801247681149e-03,1.148363991058450571e-02,1.624099128317710999e-02,5.214290693402290344e-02
5.297476225717708820e-01,4.916544973082405123e-01,4.950006844353933566e-01,-4.748652647075101742e-03,5.156680246427048329e-03,8.238310520904033873e-03,4.105909168720245361e-02
5.049976244249815283e-01,4.968891608313302233e-01,4.963754229560877751e-01,1.600142047984468106e-03,-1.089802427565422262e-03,-5.419337886751203572e-08,9.023364633321762085e-03
5.105396597724820573e-01,4.748176160249075184e-01,5.100446714318609409e-01,-3.575360774589615188e-03,1.165415616299822141e-02,4.664008241570948010e-03,4.206773266196250916e-02
5.245368817751051571e-01,4.920681166462657630e-01,4.957655082925045420e-01,-5.154222235967619546e-03,6.590684368208048552e-03,9.502146506208654364e-03,3.779845684766769409e-02
4.426041508011986925e-01,4.785174099078022270e-01,5.305060923416864416e-01,-3.142885335775889855e-02,-1.243341840306363272e-02,-1.318770970385111339e-02,9.903788566589355469e-02
4.991833457158451059e-01,4.974324435218803742e-01,4.995296866194268715e-01,5.497732418047227660e-04,-1.172726849159041063e-03,5.736215469332369430e-04,3.132373094558715820e-03
4.884133950002099156e-01,4.898061532096496529e-01,5.263157011650668737e-01,5.655463019589877577e-04,-9.460596247025304445e-04,1.872630298531164110e-03,3.741524741053581238e-02
4.801050496187139749e-01,4.739846364150729907e-01,5.086515777035262031e-01,-3.708450868362988574e-03,-8.275633182272408225e-03,-3.117545904580746458e-03,3.609644994139671326e-02
4.899804152343379959e-01,4.838614360317252117e-01,4.917351301106823724e-01,-4.124700335627408919e-03,-3.581759743070715967e-03,-4.783565292789892197e-03,1.447176374495029449e-02
4.950481793651367313e-01,4.758395427508551601e-01,5.138078684285470876e-01,-1.578356320048203768e-02,-1.624292471913092381e-02,-1.451884802422506206e-02,5.703066661953926086e-02
4.853969969104562354e-01,5.188207470610174399e-01,4.834347258594592356e-01,1.570622891498039703e-03,1.401591853504546977e-03,1.000919651471340486e-03,3.468261286616325378e-02
5.317683871504107485e-01,5.203192442834523312e-01,4.593806301581942475e-01,1.243120047393226832e-02,-3.921588299241649846e-03,6.185119016982452110e-03,7.188045978546142578e-02
4.562440223613341006e-01,4.791459080263296144e-01,5.365952463987169185e-01,-4.802742328302907898e-03,-2.409529862060658632e-03,-6.870175701170323258e-03,7.327233999967575073e-02
4.616952497410184431e-01,4.691991612327874317e-01,5.230341514870835429e-01,-8.824904425449841758e-03,-4.612373858862810205e-03,-7.166669870388636676e-03,6.172544136643409729e-02
4.456845549974014498e-01,4.858910857241304226e-01,5.167550366352517965e-01,-1.568416999116442959e-02,-3.865663881949304471e-03,-1.725215309082249460e-02,7.406619191169738770e-02
4.940631042150673280e-01,5.065510158065157365e-01,4.914897970220636902e-01,1.141808892793419938e-03,1.350758319786530886e-03,7.924599536396438387e-04,1.435178983956575394e-02
4.904379394463774799e-01,5.086312927457072863e-01,4.687416564114238460e-01,-7.410235563351666790e-03,-2.631670598704291889e-03,-2.496742881702483739e-03,3.742549940943717957e-02
4.336904493163200591e-01,5.588587676254496150e-01,5.636066546235730668e-01,1.868527902354081768e-02,7.116636967578185077e-03,4.411975661162673493e-03,1.324450522661209106e-01
4.014108862815463086e-01,5.478967637148620673e-01,5.514840495704542711e-01,5.218056540376867815e-03,-3.668783364666503271e-03,7.408406917385972935e-03,1.492755413055419922e-01
3.337706946476345360e-01,5.989740522456933336e-01,6.046476132152591720e-01,1.758046779756994304e-02,3.938512243431215726e-02,3.850296484906910038e-02,2.861780524253845215e-01
4.988196744768587099e-01,4.998008427980035751e-01,4.980984657029561835e-01,3.632519294965896504e-04,2.368794656992373178e-04,5.234025828030268272e-04,1.891164458356797695e-03
3.506120874333120141e-01,5.740592040398639906e-01,5.769173654320587374e-01,-2.214518048569293508e-03,4.101881984483962164e-03,1.253548572708488434e-02,2.260797023773193359e-01
3.802047488711632894e-01,5.593039684756948571e-01,5.690873679409076402e-01,-1.026391889149561899e-03,5.715781479525003546e-03,3.895330227294726676e-04,1.844615638256072998e-01
3.816993379615890025e-01,5.688048838750721092e-01,5.627630268574937977e-01,-4.695770343495138735e-03,3.004063970811033952e-03,2.328570050036614467e-03,1.844559907913208008e-01
5.060868565025280486e-01,4.938736510718579886e-01,4.941246497834175244e-01,4.450550176655401736e-04,1.104128144347991686e-03,6.922633379653581010e-04,1.232270617038011551e-02
4.069483202703694236e-01,5.463399864564928432e-01,5.619239411299774556e-01,2.364742057133790726e-03,1.847646116105077993e-02,7.627728463863737637e-03,1.518572717905044556e-01
5.270954356047096168e-01,4.478714279564354750e-01,5.120457610805438931e-01,1.912662648005610672e-02,1.868196796795139683e-02,-3.148270953296302549e-02,1.021207869052886963e-01
6.135640652850909982e-01,3.959453315318424704e-01,3.792085689063638965e-01,7.544996210110123738e-03,2.082718142198242226e-03,-2.081225234007011426e-01,4.259213805198669434e-01
4.982306095982312333e-01,5.031600442775019388e-01,5.067522974197072871e-01,1.308493878591691917e-02,1.048664484700490875e-02,-6.371588015560068936e-03,3.194149211049079895e-02
5.364837491615583875e-01,4.675892909385785390e-01,4.712839204649138525e-01,6.361891416993773873e-04,-1.050193336247054986e-03,-1.900609553391037574e-03,6.723776459693908691e-02
5.632022214090466328e-01,4.260457046968347261e-01,4.799250813742826360e-01,2.179483976286862926e-02,1.514214471929011679e-02,-4.212549172087788618e-02,1.475179940462112427e-01
4.664930882186134609e-01,5.235644496311676610e-01,4.837810052899376156e-01,-1.640377488897688167e-04,-4.661277849217743997e-03,-1.126909922205012772e-02,5.491455644369125366e-02
5.607351319551866498e-01,3.673479176261010282e-01,5.087478472997689627e-01,-2.000971422043920644e-02,-5.056839400437283631e-03,-6.672160004454186222e-02,2.113783657550811768e-01
5.199101842166711229e-01,5.105379740932262100e-01,4.068427110006980207e-01,3.885789402327168018e-02,5.286872677236052753e-02,-5.067166624855283519e-02,1.800843328237533569e-01
5.598295802133812504e-01,3.726320794202035991e-01,5.417684727135863021e-01,-3.134037565450925773e-03,2.963014708632932966e-04,-1.952139079635755239e-02,1.821018904447555542e-01
4.712691205316368870e-01,5.340510338723464256e-01,4.666723295457541054e-01,-2.650425638862928361e-03,-1.609333571748216164e-03,-1.441576896759390347e-04,6.542324274778366089e-02
5.256766879426013617e-01,4.885466814148441972e-01,4.792950893159173553e-01,5.223392114771194597e-03,4.260047909611013560e-03,-6.640662929139637058e-03,4.556678235530853271e-02
5.055998129411682918e-01,4.951941528156068584e-01,4.980226029197559190e-01,1.774733918578091322e-03,4.407014536495542333e-03,-4.415620014497981520e-05,1.243246626108884811e-02
5.731875401482169341e-01,5.342764228148630945e-01,4.136807478211776967e-01,2.510930771857840249e-02,5.280663924157458916e-02,-6.752624159201460474e-02,2.113914340734481812e-01
3.710736007238568113e-01,5.444510212349120692e-01,5.566430209207788860e-01,-5.336830764993490822e-02,1.239323519449818563e-02,1.720619501924419009e-02,2.054644972085952759e-01
5.237317795542104637e-01,4.710692120948951622e-01,4.697599831788118463e-01,-2.310678162596311019e-03,-3.695238881527864155e-03,-3.205117020593169046e-03,5.414617061614990234e-02
4.863024416869769495e-01,5.242621338292851041e-01,4.612357146184909440e-01,-7.119559694749648567e-03,-4.861868402228655857e-03,-2.893330458718400017e-03,5.717426165938377380e-02
5.199674667768863223e-01,4.713062217256583919e-01,5.126933459179257024e-01,3.979205411030360337e-03,1.156157247554457854e-02,-4.482952398496862362e-03,5.075100436806678772e-02
5.365321566816382282e-01,4.690737613235361758e-01,4.933117385479208195e-01,2.422671488825975297e-03,7.713755857728489020e-03,-4.553432318919392249e-03,6.133005023002624512e-02
2.967516204172570005e-01,4.513267603033911390e-01,7.994476740850486873e-01,-1.923743067134515705e-01,9.572895794212223086e-02,8.755588062765179425e-02,6.003385186195373535e-01
4.987522090073731595e-01,4.990034021484083260e-01,4.988153892985946469e-01,-2.546374015270372760e-03,1.321027235102356862e-03,1.058559715882373279e-03,5.300968419760465622e-03
4.757339166380196716e-01,4.927721114974593641e-01,5.336733845983356872e-01,-4.289924247978342368e-03,-2.396345924869423914e-04,8.632440597015143824e-03,5.421289429068565369e-02
4.876250193202040228e-01,4.893880721206240181e-01,5.351381149789280478e-01,1.870869920377082971e-03,1.393264605200188536e-03,7.075551956255597078e-04,4.684720188379287720e-02
4.751736410447339742e-01,4.996831831410462610e-01,5.211780998548750654e-01,-9.241582995190322000e-04,2.416444759363696286e-03,1.002461718997130387e-02,4.371656849980354309e-02
5.117247530206888717e-01,4.894369518604171354e-01,4.897363705590137561e-01,5.644575384797934602e-03,3.934996079000083885e-03,-3.235269710171410646e-03,2.576042525470256805e-02
4.895093191456918458e-01,5.147165209950010922e-01,5.022344115735438708e-01,2.550621423707490846e-03,2.568257121960103480e-03,-5.496279504605906287e-03,2.462720312178134918e-02
4.118610896678677191e-01,4.994519294079724503e-01,5.510747431265144991e-01,-9.052321002315347198e-02,7.538732851826601689e-02,1.510816299820907059e-02,2.391163408756256104e-01
3.452270818568944355e-01,6.475656089611184774e-01,7.080925352856904942e-01,1.730428758673172307e-01,1.172580685812504575e-01,9.721791169120122533e-02,5.223079323768615723e-01
4.178585262756933094e-01,4.548856367703393300e-01,5.077943758040388555e-01,-8.849789281455082424e-02,-7.425145371838604014e-02,-6.396167821997833514e-02,2.417398542165756226e-01
3.070193958288612857e-01,3.633226125119493055e-01,6.193737200871365367e-01,-2.391306361007110026e-01,-4.012705416173278916e-02,-3.754308704748512276e-02,5.135738253593444824e-01
4.786001018368941096e-01,4.772850969476730709e-01,5.238398425784686063e-01,-1.854745680664078231e-02,1.011302946892192120e-02,8.919112015234527055e-03,6.070708483457565308e-02
4.210599461874110494e-01,4.599238821582565806e-01,6.764126511241654871e-01,-2.438579197302811197e-01,-1.227011867576929122e-01,-1.282179497171563876e-01,5.741757154464721680e-01
4.274026856093652849e-01,4.701822384886977790e-01,5.746175091280686376e-01,-5.128829609580382032e-02,-4.739714129073040356e-03,-4.688286381926487566e-04,1.586317569017410278e-01
5.319318815532947387e-01,4.785360373437352877e-01,4.829848667150586361e-01,1.113320171131445928e-03,4.115368082555084621e-03,-1.225472708610261200e-03,5.188826099038124084e-02
5.000605817040397749e-01,5.012393673309217812e-01,4.978875352134717325e-01,1.676740014593148436e-03,6.053653280598329496e-04,-7.525748687083536189e-04,4.461625590920448303e-03
4.353555894635682266e-01,5.294391555017770035e-01,5.578916853204402004e-01,1.859941073043520909e-02,1.155990035147943032e-02,6.921833168573662690e-04,1.173811107873916626e-01
5.020108160264982189e-01,4.969674345208295874e-01,4.982466518742598161e-01,5.387891152953436062e-03,3.459693627386891367e-03,-4.312474718665395591e-03,1.412123907357454300e-02
5.063675871622025371e-01,4.995447714810242745e-01,4.932416421380072524e-01,5.175086987027085680e-03,1.490122795120431059e-03,-2.465396515089768054e-04,1.471304427832365036e-02
5.065542060159125004e-01,4.998325661550047649e-01,4.947908014354151507e-01,3.002386021085311999e-03,1.088975305551281598e-03,1.087904421325828390e-03,1.177454646676778793e-02
5.385665805729125122e-01,4.466593732450850895e-01,5.077008570996935921e-01,2.937133817867379915e-03,1.088595572928346966e-02,-8.326531079329567084e-03,8.457086235284805298e-02
4.737422025545008908e-01,5.008308017713670734e-01,5.385204949569624144e-01,5.935159967731358337e-03,1.604934640121795115e-03,1.559833187478514103e-03,5.741054937243461609e-02
5.010685930623233197e-01,4.996346546567538294e-01,5.006427122380271433e-01,5.143470694066934598e-04,-1.148561445219722342e-07,-7.240734196858341449e-04,1.998342573642730713e-03
5.093548663957898626e-01,4.967965311398900297e-01,4.976997162523465468e-01,5.198952758402603479e-03,5.591760992472801298e-03,-3.158056461973857837e-03,1.876154728233814240e-02
5.123349052959380590e-01,4.897578036512621469e-01,4.918120175309300124e-01,1.482763905073413574e-03,3.533003657215150195e-03,-8.024000879862778655e-04,2.266143821179866791e-02
5.067233400989172853e-01,4.930395366140944979e-01,4.977519234724900321e-01,1.349135329747598805e-03,3.813707202919511870e-03,-1.315876724710941760e-03,1.411587279289960861e-02
4.840632771260172662e-01,3.979014334943015152e-01,5.605537325062359688e-01,-7.315868407668303652e-02,-3.560862173432595423e-02,-4.498463196859309177e-02,2.140013128519058228e-01
4.639666870067024607e-01,4.837129326911167038e-01,5.127000577590806740e-01,-2.414395728016809333e-03,-3.696186297932492655e-03,-1.008527859363680945e-02,4.654209315776824951e-02
4.530880597699740164e-01,4.569328361991895626e-01,5.279479169415396411e-01,-2.419639500310967126e-02,-9.856909803390467503e-03,-9.919626215613416842e-03,8.760154247283935547e-02
4.168701859619961536e-01,5.185103324255817547e-01,5.449239969817107898e-01,7.981288924857374290e-03,-5.187346307360147547e-03,8.965083532656301438e-03,1.192729473114013672e-01
5.369872179297457970e-01,4.890975952898402035e-01,4.855504059520027171e-01,1.259164863948521130e-03,1.221799715407802418e-03,1.766281864549662300e-03,4.994463175535202026e-02
5.351086733768252168e-01,4.588062767985537915e-01,4.702187352857143399e-01,-2.006576644313891235e-03,-7.572686326918047234e-04,-5.287788295909332491e-03,7.196654379367828369e-02
5.412657381782015609e-01,4.921103583628778644e-01,4.898687370909973748e-01,3.797313858424467437e-03,1.086189839260456695e-03,1.270027398182015793e-02,5.533672496676445007e-02
5.299222145088267055e-01,4.774885070625936034e-01,4.751114833441257845e-01,1.338876381724852811e-03,1.490130332698693944e-04,2.057294429198144132e-04,5.371360480785369873e-02
4.690933171978222127e-01,5.366422344482865148e-01,5.184670615807682736e-01,4.345226125906044914e-03,9.194763045422302966e-03,-1.930774704650728077e-03,6.314220279455184937e-02
5.331328572265566779e-01,4.912537031429783929e-01,4.861549033565570888e-01,2.895290900461130155e-03,3.998168686359568325e-04,1.834942899813651754e-03,4.504579305648803711e-02
5.119860969040139764e-01,5.032322340804566974e-01,4.846150392914692628e-01,9.757415302977082844e-03,8.451608704548042514e-03,-1.299481179922933743e-02,3.990875184535980225e-02
5.855387878160944748e-01,2.941814088604549626e-01,6.176516329557656393e-01,-8.712386712886167894e-02,-4.526268458297181413e-02,-1.974582551347801584e-01,4.910843074321746826e-01
5.354157629826430398e-01,4.900929134011887678e-01,4.787315913292148895e-01,3.930571246809640325e-03,-3.483399546051544455e-04,8.010234425765049709e-03,5.419752374291419983e-02
4.959229828501685589e-01,5.036792284958143684e-01,5.103982246945584222e-01,4.656723191891456483e-03,3.902711427777889614e-03,-4.316071856888390422e-03,1.800145953893661499e-02
5.363305377364937510e-01,4.663975015290417470e-01,4.755742478740164758e-01,-8.859725950496905728e-04,2.251735004893634206e-04,-4.457122035533655872e-03,6.629621982574462891e-02
5.101491981794378239e-01,4.983396229870405980e-01,4.991270517617195090e-01,5.472331053291665769e-03,6.283698400362421055e-03,-3.978519722329052280e-03,1.966129615902900696e-02
4.947225734707992872e-01,4.863258526093530154e-01,5.034831313480063741e-01,7.104725041842642301e-03,8.007204801447745379e-03,-7.696561513075361044e-03,2.724519744515419006e-02
5.038839139928018573e-01,4.912234405641880408e-01,5.057806407633084200e-01,1.686712280749391550e-03,7.574312661875764845e-03,-2.442287059964604046e-03,1.965804025530815125e-02
5.000635613721262640e-01,4.966315125251105078e-01,5.036095232110245901e-01,2.766626461099232041e-03,4.930082213648856113e-03,-1.348461736892363769e-03,1.174127589911222458e-02
5.358259685555141205e-01,4.922859106788845529e-01,4.687100828890358173e-01,9.348116842818453981e-03,2.156956649806062495e-03,-2.592391743129268504e-03,6.143557652831077576e-02
4.898812082080898356e-01,5.163469685919325203e-01,5.040848173811925959e-01,2.085909491319956448e-03,2.025994173169646737e-03,-4.110145949215905474e-03,2.454213798046112061e-02
5.001430121362144821e-01,4.793369582953868058e-01,5.450753981701019768e-01,8.547275150629100871e-02,8.053686551146944927e-02,-4.086656451288137731e-02,2.230969220399856567e-01
4.912001480217401683e-01,6.484002626493878818e-01,4.317250383935813951e-01,-1.008397090589268665e-02,-1.256356249912906897e-01,-2.129539476673899742e-02,2.943078875541687012e-01
5.087626973649523876e-01,5.730126564979693971e-01,4.359090976716194499e-01,1.743192766535762994e-02,-5.261166885578472119e-02,2.122120578193115864e-02,1.571086943149566650e-01
4.989845450607285349e-01,5.698080906234989085e-01,4.197125206714019674e-01,2.033981096671827818e-02,-3.993770902842320308e-02,1.481979755387863480e-02,1.536210179328918457e-01
5.035280782175078906e-01,5.519749784682099758e-01,4.177374612777850493e-01,-7.995205410292465387e-04,-4.627109208241865501e-02,-1.358031200141180186e-02,1.443663984537124634e-01
5.109013901834911220e-01,5.587315154136012207e-01,3.792914410000780556e-01,1.197578566776621306e-02,-7.366126286670877932e-02,6.953806075546067542e-03,2.067778706550598145e-01
4.842980474540422020e-01,5.722497670108437351e-01,4.755818790207395064e-01,9.090370619464134896e-03,-5.331600090142194631e-02,1.774782923086159342e-02,1.352727860212326050e-01
4.935572359865882941e-01,5.851389385941774268e-01,3.997928865442517132e-01,3.489776054288930979e-02,-1.079107367481434987e-01,7.320300966699421971e-03,2.539971768856048584e-01
4.648323779648447784e-01,5.473168836466285603e-01,4.133094350779278336e-01,-1.011657121648543156e-02,-5.061781259024530910e-02,-1.366917370149729923e-02,1.492052823305130005e-01
6.153510584860942823e-01,6.133679873238725433e-01,1.457258325903852403e-01,3.769709645082112981e-02,7.320906661500777013e-02,-2.283363292694743502e-02,4.914534687995910645e-01
6.166866530141300595e-01,6.240594556117105007e-01,3.802366492000327503e-01,2.169215072590234897e-02,6.812334081416940301e-02,2.230788446062273098e-02,2.730076909065246582e-01
6.045014047356761511e-01,5.994921508487728312e-01,3.826207066085877129e-01,5.175306528108757076e-02,6.519721866065157634e-02,9.196586528450644005e-03,2.630315124988555908e-01
5.517227288674562136e-01,3.810389945506417186e-01,5.236175260846667179e-01,-9.512130174743015781e-03,-3.169874722564594138e-03,-1.444666014243177823e-02,1.614107936620712280e-01
5.770835750305968181e-01,5.897943946342482091e-01,4.086037745122469977e-01,4.223049209827117734e-02,5.743993284151163725e-02,-4.178948390062589557e-02,2.262208908796310425e-01
5.468136765541516953e-01,6.066366406082829288e-01,3.742611637581962358e-01,3.022923381131380552e-02,1.659838092158709699e-01,2.319490418156450184e-02,3.615011274814605713e-01
5.324367645901121326e-01,4.605011266227222455e-01,4.705546558561059522e-01,-3.718945835403811209e-03,-7.524883597212354662e-03,-7.582128533038806281e-03,7.025974243879318237e-02
7.529716293854159526e-01,6.963693357980723642e-01,3.176704489433575529e-01,1.227894602184409906e-01,2.066684218587096500e-01,-6.365530707002101107e-02,5.946218371391296387e-01
5.373125765294459733e-01,4.683422975538628075e-01,4.618285418108544760e-01,-1.172309018366372293e-03,-1.855566884645211585e-03,-4.062464681813309809e-03,7.288721948862075806e-02
5.281619927530586400e-01,4.583754398305602273e-01,4.820006593544335360e-01,-3.453494034391229109e-03,-7.656006678082653318e-03,-6.491184852040714562e-03,6.416869163513183594e-02
5.573994793198192577e-01,5.872396687617199573e-01,3.719216373889900340e-01,2.078818311118556944e-02,3.221182695119285955e-02,-5.721316439635373147e-02,2.346411049365997314e-01
6.290206889323795014e-01,5.855815646887497783e-01,3.760196877373562785e-01,1.655425071118882263e-02,2.963274882738714186e-02,-6.208086933681705027e-02,2.644330859184265137e-01
6.257297895570596014e-01,1.441094530233344995e-01,6.002671149860318023e-01,-5.077503254209933536e-02,1.215057765789069079e-02,-1.284439075154993337e-01,5.272701978683471680e-01
4.868298209371136887e-01,4.838644109117377634e-01,5.257251058573859659e-01,-7.935152645532501589e-03,7.238118512453622054e-03,7.491476961299135297e-03,4.638334736227989197e-02
5.688101999506190998e-01,3.401052632664434694e-01,5.372544031888377702e-01,2.174414839091005913e-02,2.217812589082836239e-02,-5.576000024035437930e-02,2.414669990539550781e-01
6.205920313024049229e-01,2.209753356250543366e-01,5.865759530955103607e-01,5.975138679901729338e-02,2.312706735319897816e-02,-1.191068843700019975e-01,4.495907127857208252e-01
6.274539220397511441e-01,1.224701929373964715e-01,6.022690696441450608e-01,1.136104430873679932e-01,6.085238883681929473e-02,-4.886403859271546551e-02,5.476486086845397949e-01
2.620488863663641976e-01,5.290833663336825810e-01,6.744310865248351883e-01,-2.024623304636372634e-01,1.860243870569482094e-02,-4.081759137342681060e-02,5.101525187492370605e-01
4.826088688176417563e-01,4.508362882597869992e-01,5.473069596997413022e-01,-2.862607394102318487e-02,-2.861136953839412637e-03,7.161431426349440348e-03,9.943710267543792725e-02
4.626236080566740183e-01,4.641761754238841187e-01,5.448981772588316064e-01,-5.637949946126019629e-02,4.987247280605612738e-03,1.708460166516777290e-02,1.308815926313400269e-01
4.711849956284910323e-01,4.638696546383199726e-01,5.353828808431958519e-01,-3.925428802547437264e-03,-9.291109859828613560e-04,-1.556209944519247341e-03,6.856087595224380493e-02
4.052699176303961592e-01,5.061239220261712912e-01,5.472517234139701037e-01,-1.944185034824128314e-02,-3.898705244052162299e-03,-1.933438276907565234e-03,1.311552524566650391e-01
5.067603467546936136e-01,4.756568439520391101e-01,4.742171611284634603e-01,-1.968595804447767147e-03,-4.516716998075720642e-03,-1.414035072803169210e-03,3.306216001510620117e-02
4.063163435772618182e-01,5.220037161480767240e-01,5.601176225333259762e-01,-4.280272165031718395e-02,4.161664443989631333e-03,1.058998356364965546e-02,1.585249453783035278e-01
4.849164615983796445e-01,4.925386530363197179e-01,5.261341751551171786e-01,4.558341486134489910e-03,-2.276839629274313333e-03,5.813778943074612675e-03,4.027549922466278076e-02
4.118187096884985410e-01,5.042529709136763794e-01,5.371701057363243992e-01,-2.195390523692843446e-02,9.632429252135636666e-03,1.756249704496478173e-02,1.237735748291015625e-01
4.582013824767108279e-01,4.705079932649843255e-01,5.998814747327689822e-01,-7.431636929173114636e-02,2.429421296226872209e-02,2.684486537558956887e-02,1.974397003650665283e-01
4.033591349343362831e-01,5.061453971432789967e-01,5.496704103681242515e-01,-2.051518598819579084e-02,-2.133800129050848499e-03,6.166074502287429869e-04,1.349467784166336060e-01
5.485850138131317388e-01,5.456952898254558981e-01,3.976457354908883857e-01,8.128530139078802425e-03,-3.440353280352300130e-03,6.894709204949334147e-03,1.507686376571655273e-01
4.892587341379355248e-01,4.887950987614313458e-01,4.760369944034194556e-01,-9.132803669410046593e-03,-2.762574269982907404e-03,-2.690993695989348650e-03,2.153470180928707123e-02
5.628470614484738510e-01,5.623409664959317933e-01,3.733071382261025084e-01,1.622233167923461603e-02,-1.188052892326695899e-02,3.252768678712803646e-02,2.005412578582763672e-01
5.080718730874960176e-01,4.816142508624462470e-01,4.783103377607175744e-01,-1.648630436942781540e-03,-2.046604810559713578e-03,-3.259634937756385100e-03,2.917071618139743805e-02
5.648030631766767229e-01,5.246701954858503658e-01,4.162026700990666406e-01,-1.286325587497052780e-01,-1.697649547781761026e-01,-1.920824766245117221e-01,5.143106579780578613e-01
5.631299792296046158e-01,5.778936471197065883e-01,2.389333758203038283e-01,4.086637665016640275e-02,-9.119522179115061022e-02,7.394833391091203134e-02,3.955662846565246582e-01
4.852897666651448394e-01,5.065502663591606725e-01,4.679958872134118431e-01,-1.034123301208883863e-02,-3.675889655134274413e-03,-2.826846786610691560e-03,3.878268599510192871e-02
6.124575372954573771e-01,5.596075034277600002e-01,3.675409095179497099e-01,2.795287063291398283e-02,-1.406697476565189724e-02,2.245597952339078995e-02,2.329892069101333618e-01
4.881895157300809585e-01,4.795261015489023504e-01,4.923849676076883508e-01,-8.902179540014097756e-04,-6.175234038586186261e-03,-3.496406303475779308e-03,1.680642925202846527e-02
4.951945919980843547e-01,4.831843152415868370e-01,4.870086416804876306e-01,-1.688376568025370993e-03,-1.195133514669322267e-03,-2.544207320124290943e-03,1.204976532608270645e-02
4.989473041434029366e-01,4.785810978186469944e-01,4.796082831695569482e-01,-1.308981862683975981e-03,-2.693225188911698830e-03,-1.732241234972050909e-04,2.054040692746639252e-02
6.214670511930702190e-01,6.186818598955577952e-01,3.085290986436348692e-01,2.996983782572668065e-02,-3.581255978461373585e-02,2.157867549614440883e-02,3.240454196929931641e-01
5.822714022625047336e-01,6.315281289709698820e-01,3.279678833462867926e-01,2.962998804454293131e-02,-5.290653052032489624e-03,-6.750154794697333510e-03,2.871883213520050049e-01
5.459359437752362432e-01,5.727888652251189594e-01,3.735301595064992597e-01,9.458370896298826623e-04,-1.793334409972306698e-02,-6.485882406499321289e-03,1.901792138814926147e-01
5.207820097728775854e-01,4.877184885288560201e-01,4.930858339843493532e-01,4.021753369669726560e-03,-5.077011728106130273e-03,4.406317312567626168e-03,3.359523788094520569e-02
5.116150331571271970e-01,5.094141340535842666e-01,4.885641889995611664e-01,1.063915836847095092e-02,-8.688301707904208179e-03,1.504619061296097460e-02,4.160109534859657288e-02
4.802254068693811440e-01,4.875910212687099565e-01,4.937607219161246341e-01,-1.225174599815216691e-03,-1.594516534350692632e-03,-7.342411306381264186e-03,1.765289530158042908e-02
5.056496798717231567e-01,4.954401097122685393e-01,5.010084465742364879e-01,4.106011977401195258e-03,-3.603885450824746706e-03,4.858804088101583742e-03,1.545177306979894638e-02
5.229532885141283671e-01,4.943039042331457966e-01,4.900623092931565838e-01,4.028521569813574114e-03,-1.288611922724128495e-03,1.265049509400448767e-03,3.191813081502914429e-02
5.137414875047767726e-01,4.950288394969038497e-01,4.878287712395069087e-01,5.888691168922162433e-03,-2.506358500237943713e-03,4.228940890299442285e-03,2.670700103044509888e-02
4.811812141368067564e-01,5.390982377479250909e-01,4.546675049347312370e-01,8.161216580197690456e-04,-5.048085017183050888e-03,-1.627480520547950824e-03,7.536144554615020752e-02
6.130117663251504201e-01,6.177628253270105452e-01,7.209741099256256058e-02,2.785229293946352852e-02,-1.177452011187682217e-02,2.563388441980183480e-02,5.476269721984863281e-01
4.889121744478222009e-01,4.858739357662266722e-01,4.875484755342819332e-01,-5.542303630386438088e-04,1.530579671480848172e-07,-8.991715650390616965e-04,3.208483802154660225e-03
5.202886756190483464e-01,5.822910012418517356e-01,1.921088481296587824e-01,-2.351415019546580429e-02,-1.682080628676235479e-01,-9.486857772927573262e-02,4.954138994216918945e-01
4.902407084414420746e-01,4.926856489066950284e-01,5.223783269620311254e-01,1.029126790546352772e-03,-1.382972889653347410e-03,3.562207675938387254e-03,3.173661604523658752e-02
5.817954951700290422e-01,6.070494007882870635e-01,3.498817776838932248e-01,-2.127242920743181026e-03,-6.531936718215471116e-02,-5.127161056709898107e-02,2.845667302608489990e-01
5.446851120986458961e-01,5.495065456815694249e-01,4.357234952140112139e-01,8.954749716173222851e-03,8.122087932004083341e-03,-1.995278143632458340e-02,1.185497343540191650e-01
7.048376566108059960e-01,3.250435898836058213e-01,5.480684891691507410e-01,-8.913835250642651586e-02,-4.338627822477617024e-02,-1.978262468342033009e-01,5.061322450637817383e-01
5.803121996835270968e-01,5.691795639475752955e-01,3.199324470299046430e-01,2.224999849220964457e-02,-2.385261752850240460e-02,-6.250356052426365994e-02,2.827276885509490967e-01
4.936479266631513263e-01,4.832830120768852322e-01,5.182655166298374416e-01,-4.197784368334929808e-03,8.813520550782417973e-03,2.023248165195127603e-03,3.559207171201705933e-02
5.146966237627861318e-01,4.788615492206191870e-01,4.812654586746056840e-01,-6.930374556291362363e-03,-5.193050744577790319e-03,-6.720291652788003105e-03,3.955082222819328308e-02
6.013536840961627439e-01,5.808535407843044007e-01,3.405267914588977485e-01,9.475595831865083613e-03,-3.974015941824475193e-03,-7.264360781351078544e-02,2.815172374248504639e-01
4.982270451986802184e-01,4.940772321893169838e-01,5.049278379176648235e-01,8.621975545863760481e-04,2.377335733421577328e-03,-2.526588497032465283e-03,1.132540870457887650e-02
4.217095187814758894e-01,5.269379301901226942e-01,5.071720947874696073e-01,-7.111815696826258651e-03,-1.486446682200431163e-02,-1.512416130602230353e-02,1.043292433023452759e-01
4.839212415213937080e-01,4.829950246084564469e-01,5.016895220880112083e-01,-2.546780858579196158e-02,-2.212403481482699830e-02,-2.501915743155853911e-02,7.500098645687103271e-02
4.357115769980297038e-01,5.296520505676906021e-01,4.824190777515636186e-01,-8.351000128214051271e-03,-1.343951736805627448e-02,-1.459559614598471278e-02,8.949219435453414917e-02
4.439518241039106528e-01,5.027029882271365491e-01,5.104745450213967750e-01,-5.714138193192583141e-03,-6.182041040993060607e-03,-1.510276584747179476e-02,6.975365430116653442e-02
6.172901052906949459e-01,4.255539791277885842e-01,3.544357517562500837e-01,-1.869055210842136133e-02,6.847481030599446294e-02,1.750551870536983523e-01,4.031176567077636719e-01
5.314051847723949562e-01,4.679746504146548580e-01,4.881014643423804977e-01,2.427619184511981432e-03,3.566262126685226276e-03,-4.562738862058635624e-03,5.718528851866722107e-02
4.773763393921873210e-01,5.006332510694609939e-01,5.450656415473119631e-01,5.123048557194276667e-03,-2.201210527949636151e-03,5.529104661543185646e-03,6.110210716724395752e-02
5.036972484546266005e-01,4.786327855948692700e-01,5.307903540085643357e-01,2.605635617698750031e-03,9.202975408987802350e-03,-2.316170480321561812e-03,4.828958585858345032e-02
4.878999145504374080e-01,4.791961981781918123e-01,5.350870706822636880e-01,8.142107325664270714e-03,-2.806863673442006198e-04,1.227209262498978439e-03,5.400668829679489136e-02
5.545798638729038110e-01,5.055342899086556763e-01,4.811805411470591043e-01,3.227810301807370122e-03,7.539508509868853188e-03,2.791849649017572391e-02,8.205567300319671631e-02
5.636986240738465215e-01,4.713378595535325233e-01,4.861584280719948303e-01,4.673170489279315776e-02,-1.150001812914537395e-02,3.616137888012391916e-02,1.351020485162734985e-01
5.410264724345454912e-01,4.886643313694524204e-01,4.785975975466492116e-01,3.994756158856325144e-03,8.326496898246935454e-04,6.758598257486766493e-03,5.964259058237075806e-02
4.739084825537667744e-01,4.909896784829766991e-01,5.178502231807784462e-01,-3.355609246377110402e-03,1.719163922426735153e-03,5.209772172465516361e-03,3.995170071721076965e-02
5.417824053161640618e-01,4.813053864917937741e-01,4.921290720627274351e-01,1.326779983739698578e-03,4.208439824887617864e-03,7.754569187360100743e-03,5.795560032129287720e-02
5.429859992123613477e-01,4.577273963779209254e-01,4.881492994309909461e-01,3.701852873016644812e-04,4.338436558824537194e-03,-6.180598001652742868e-03,7.597544789314270020e-02
5.678968506530646110e-01,4.427411325699012190e-01,5.386450701995371126e-01,1.695668872754671486e-02,2.276552509278424816e-03,4.514626193897600809e-02,1.408945769071578979e-01
5.433446083421981099e-01,4.536278251005528839e-01,4.621225313545906932e-01,-8.011596831112544406e-03,2.063533000600880490e-02,6.109914682825725446e-02,1.415219753980636597e-01
5.352007434292130883e-01,4.969472986456530683e-01,4.571036464537480692e-01,2.639153830062277903e-04,2.251204983027048356e-03,1.536760496872345907e-02,7.279355823993682861e-02
5.390585048128762047e-01,4.566275722438155604e-01,4.818425318598537066e-01,4.109252826471228564e-04,2.024465315420485823e-04,-6.122647810267988280e-03,7.392732799053192139e-02
4.880923233130497474e-01,4.834351918269088610e-01,5.178079792139104187e-01,-8.858235149923493219e-04,6.058784216131626703e-03,1.939058947755735451e-03,3.415932133793830872e-02
4.736945463393609224e-01,5.062628770847340531e-01,5.120993941058568089e-01,9.325533182669727000e-03,-4.510431757223053867e-03,1.382831347755818577e-02,4.669520631432533264e-02
5.191986109959086937e-01,4.819733175558910121e-01,4.992464557459344032e-01,1.729597319061104178e-03,9.636612358258671990e-03,-1.145201218926905672e-03,3.650462999939918518e-02
5.379606398350490482e-01,5.008010430137070923e-01,4.813155108964452533e-01,-2.019813714482831483e-03,4.506314094757177778e-03,4.308041871099323183e-03,5.112174898386001587e-02
5.088253061378109621e-01,5.055962041211143898e-01,4.288905395043708380e-01,-1.445568555910269233e-02,-9.046125563934520955e-03,-1.256455989206458831e-02,8.653253316879272461e-02
5.178289618044236153e-01,4.587435915035170675e-01,5.301576521410236165e-01,6.063163399529269797e-03,1.179074399906132609e-02,-3.993031621147123504e-03,7.033282518386840820e-02
5.363983183189391379e-01,4.603185734685383834e-01,4.829966246933513063e-01,-2.428439704188477613e-03,-3.384438888353664965e-03,-4.351101302505694553e-03,6.845387071371078491e-02
5.378094334853888991e-01,5.197767096864625014e-01,4.890657166998908512e-01,-2.366671372734068662e-02,4.499843275598068570e-02,6.296592761436359265e-02,1.465305089950561523e-01
5.049551657770051660e-01,4.713678070300764689e-01,4.841445615798380397e-01,-4.056125559418963245e-03,-1.137542129023793279e-02,-4.800280733572081203e-03,3.699870035052299500e-02
5.514790708254937446e-01,4.094620405404927888e-01,5.263893867959249517e-01,3.686203732649578901e-03,1.468725408202629402e-03,-8.727027008560794483e-03,1.323287039995193481e-01
4.573792945166155754e-01,5.054147723086098720e-01,4.870942616282580850e-01,-5.600237960220218539e-03,-6.688365865177902346e-03,-1.366111848629725407e-02,5.050923675298690796e-02
5.414741221407020078e-01,4.607878328409621416e-01,4.825185235188357291e-01,-5.525583608771141931e-04,-1.534153181335788521e-03,-4.723001885021717479e-03,7.282876223325729370e-02
4.539328880388026066e-01,5.511440599525644357e-01,4.775431295361688977e-01,-7.063183919150697182e-03,-3.325682852292336650e-02,-8.047082328949234711e-03,1.066501662135124207e-01
4.725411729425221252e-01,5.108057619943077166e-01,4.667633965067652380e-01,-1.249411300733259574e-02,-1.626538730151968690e-02,-1.281412208421322044e-02,5.893426761031150818e-02
4.820879739114354301e-01,5.136958522944812255e-01,4.776471734440964068e-01,-6.965189649250269101e-03,-7.946535586761551903e-03,-7.999118928006952040e-03,4.106196016073226929e-02
4.613035938174884221e-01,5.227383327939498781e-01,4.693839572410204997e-01,-2.823302627493564677e-03,-7.887782218049952526e-03,-6.729149609610952237e-03,6.074136495590209961e-02
4.451833742556088880e-01,5.211783584635165667e-01,4.790682776001495835e-01,-4.367506797183702896e-03,-1.659342597840121267e-02,-1.637071327729040099e-02,7.768908143043518066e-02
4.964623290715623471e-01,4.987210713958917796e-01,5.032689547168773814e-01,-7.480315849442883405e-04,1.115989934657523643e-03,2.305912351773965665e-03,7.577882613986730576e-03
6.342619668849205361e-01,6.568949212165406948e-01,2.951162904215902660e-01,-3.511736258863689536e-02,-1.613788336038431970e-01,-1.575514150286559945e-01,5.286816954612731934e-01
3.786989237301023881e-01,5.250175294027810136e-01,5.510598712144080258e-01,-1.498014009304404585e-02,-1.772773291737725354e-02,-6.780803455632573515e-03,1.662882566452026367e-01
4.912741856716287270e-01,4.715905631440650003e-01,5.090691235806595882e-01,-3.007400408269141501e-03,-7.452900062131027036e-03,-3.636003963744196491e-03,3.588601201772689819e-02
5.436767953132241038e-01,4.472813505941572454e-01,5.979925670309113039e-01,8.200546183350447549e-02,1.632732817638723327e-02,1.343076018030540247e-02,1.974681317806243896e-01
5.571703851071895253e-01,3.712910936391369265e-01,6.069874859946784440e-01,1.515326571197365968e-01,6.089601762728563510e-03,5.265801319759706028e-02,3.515808582305908203e-01
5.222485315427145558e-01,4.166493165126349818e-01,5.209719025837120654e-01,5.761886987101590835e-02,3.370513835628322769e-02,-4.230840381117299820e-02,1.724990606307983398e-01
6.279911872044057208e-01,3.168581133018240625e-01,5.844780311550521468e-01,4.325783146752610470e-02,2.340961478205235563e-02,-5.386095785912945605e-02,3.179930150508880615e-01
5.909151536295635943e-01,3.350741963624814801e-01,5.760010428931230386e-01,4.635277965388513721e-02,-3.336898253803584954e-03,-7.323596990005335448e-03,2.617277801036834717e-01
5.536801882020901955e-01,3.691817795719077311e-01,5.580805361332882297e-01,4.272232530306684095e-02,1.809560274746473824e-02,-1.477040459962436492e-02,2.048983126878738403e-01
5.428853667322313115e-01,5.234127885609902719e-01,4.319390673823197413e-01,-9.182695731196503786e-03,1.869047593337192989e-02,4.068581851449812326e-02,1.295948624610900879e-01
5.313392483693702983e-01,4.902167858030960779e-01,4.892835620366642879e-01,-1.670805140984384573e-03,8.255537951543315137e-04,1.273049669274454489e-03,4.178020730614662170e-02
6.822631095765219200e-01,3.177536979976268161e-01,7.453525617587075658e-01,2.557983953455387205e-01,1.121439059026733132e-01,1.161908333005845159e-02,6.279142498970031738e-01
4.873051049645257815e-01,4.874128537376579695e-01,4.854854282705102775e-01,-1.455224654387778311e-04,-1.053362160297115983e-04,-8.601488086073831238e-04,2.415633760392665863e-03
3.520531665587472991e-01,6.105501278762881512e-01,5.473924777647515283e-01,8.560063072189380909e-03,2.773179554980149258e-02,-7.233851378647081047e-03,2.390972077846527100e-01
2.671309371204539374e-01,5.607394502523910251e-01,5.706135315467956159e-01,-1.996741128248802344e-02,2.831139793862906279e-03,1.032150479491084072e-02,3.012346327304840088e-01
5.720860313766595873e-01,5.005033265630202122e-01,3.566092774335422599e-01,-4.401824503399334731e-02,-3.795946708973286371e-02,-8.900402730402377782e-02,2.646330296993255615e-01
3.314101169760529375e-01,5.668796896023198251e-01,6.051045601900469917e-01,-1.994566455454300363e-02,4.126563828733915973e-02,1.169144184505154470e-02,2.694809436798095703e-01
3.405782687970145273e-01,5.647589784620662412e-01,5.604239840281723950e-01,-1.517063180260504879e-02,2.734647724933561216e-02,1.591162281456650479e-02,2.302117198705673218e-01
5.422692765039520690e-01,5.546407836447804218e-01,5.096543597431234529e-01,-3.665885007011632224e-02,7.319449550598530752e-02,8.112796370952216063e-02,2.036404609680175781e-01
5.651612024508064769e-01,5.356413690996419952e-01,4.372465241609787001e-01,-1.618733183993583194e-02,1.384174672717221159e-02,5.926795389407668591e-02,1.592372655868530273e-01
5.789278486976003890e-01,5.228343654946912000e-01,3.139507453909734513e-01,-6.189294168747307492e-03,7.862696423176256111e-02,1.232301709634649189e-01,3.503061532974243164e-01
5.807681928635973767e-01,6.022689670280012564e-01,4.213095128098457987e-01,1.690180905588742344e-02,8.656877283112018873e-02,2.480850447727511385e-02,2.334602624177932739e-01
5.258866163628220791e-01,5.661496120105234953e-01,4.210213694050770616e-01,-2.092746392108205469e-02,8.499790803150571172e-02,2.712914545240466963e-02,2.050263434648513794e-01
5.031358486885628700e-01,4.891642781373282678e-01,5.142904031900524808e-01,1.561336448776710645e-03,7.838487567734076650e-03,-1.505657365720255818e-03,2.595988288521766663e-02
5.044007106585940425e-01,4.891598354710943175e-01,5.129687526390690477e-01,1.561344228397697122e-03,7.818028120289402874e-03,-1.505664964579459799e-03,2.517457492649555206e-02
5.189534907543859044e-01,4.707260145375566363e-01,5.082949467678797850e-01,3.997309236823653675e-03,9.401150334742962994e-03,-4.377467980844248173e-03,4.791687056422233582e-02
4.856172952466781267e-01,4.920367890204955241e-01,5.224630950985921229e-01,4.748753250826315102e-03,-2.752016879621245991e-03,6.609510602692649991e-03,3.719840198755264282e-02
4.229347721768262347e-01,4.411311382227994238e-01,6.009472654493124288e-01,-2.358648571001810412e-01,-1.083697904556026187e-01,-5.994843382761727568e-02,4.916203320026397705e-01
7.426187677782318808e-01,4.191769462249099742e-01,4.525396827153350121e-01,-2.278927626749345861e-02,-1.353492007167216016e-02,-2.158869479924992174e-01,4.866887629032135010e-01
4.374308324063116427e-01,5.610059125475461705e-01,3.932311258673549803e-01,1.275440950370224369e-01,-1.467569161643939024e-01,1.209236313993881928e-01,4.242278039455413818e-01
5.348667268410279840e-01,4.454011289600867118e-01,4.998594643720161157e-01,3.121076344620680922e-03,6.219578889227863998e-03,-7.894345309082647158e-03,8.018659800291061401e-02
5.412778807714097029e-01,4.288792719198793457e-01,4.991153897356755964e-01,-7.555353332333278630e-04,4.721420035329028592e-04,-1.208907466192790138e-02,1.005630940198898315e-01
7.056226461387145044e-01,3.651906188188430713e-01,7.083991359373790209e-01,2.043353542673228829e-01,1.179283084799956638e-01,-6.679869182471062650e-02,5.451725721359252930e-01
4.173310994035723809e-01,5.100363415334324690e-01,6.305385205594662423e-01,-1.244797537563241546e-01,-5.399867646796417675e-02,-1.368216725654780239e-02,3.001350164413452148e-01
4.158320171245322161e-01,3.822219136978649012e-01,5.180015593430961074e-01,-1.838977952108126479e-01,-1.391135905355914970e-01,-1.547154628617573024e-01,4.963121712207794189e-01
4.887783240554280373e-01,4.929601204722255936e-01,5.265570553950276178e-01,1.219611945730832842e-03,-9.679822142583086216e-04,3.225830826623385904e-03,3.640368580818176270e-02
4.281079431533563739e-01,4.129292072140426373e-01,5.650167725014886289e-01,-2.131372263800211941e-01,-1.087195165756851406e-01,-1.891320496691147046e-01,5.478207468986511230e-01
6.398233948274315575e-01,3.331236875756340421e-01,5.747964811355492643e-01,4.353294955116088390e-03,3.358461554570395247e-02,6.941207771542104443e-02,3.102325201034545898e-01
5.392507511655616481e-01,4.237761304953924224e-01,4.956414201758981841e-01,-5.277929662290104483e-03,-7.773528411393340436e-03,-9.934165017691941671e-03,1.037367209792137146e-01
5.277558730918993080e-01,4.133009859889126281e-01,5.390739307850619388e-01,-7.861986902216733242e-03,9.730346685887434482e-03,2.414646930949298012e-03,1.225168928503990173e-01
5.371616932707771186e-01,4.086353306936887919e-01,5.334488253488881560e-01,3.595933079406964453e-03,1.024335858253051269e-02,-1.130270266138645556e-02,1.295856237411499023e-01
5.635981745125592246e-01,3.497220568811063579e-01,5.582500338067983847e-01,1.285269669852708539e-02,2.678066850678828374e-03,2.633139350035496040e-02,2.173128575086593628e-01
5.564945622671207959e-01,3.837894887789980447e-01,5.430881012549064746e-01,1.250443145057450467e-02,9.744626781157618781e-03,4.540523887015627917e-03,1.688407957553863525e-01
5.622525902123981512e-01,4.215903301431567218e-01,5.522232987420735428e-01,2.792614342558142454e-04,7.202663148633822038e-03,2.184512232524460015e-02,1.416446715593338013e-01
5.171739980264065117e-01,4.479919354713767232e-01,5.390545129403195856e-01,6.447082437336528783e-03,5.332718021513076223e-03,-1.437106742871090657e-03,8.363527059555053711e-02
5.253155033241260208e-01,4.895897652944809497e-01,4.936744046070433711e-01,-7.066076150279437676e-04,1.967312529545127506e-03,1.245113996715145263e-03,3.412983566522598267e-02
5.274145323475787350e-01,4.223960270636581971e-01,4.944627093259004180e-01,-6.304728836705973498e-03,-1.382146378677701938e-02,-1.109757339222170076e-02,9.856963902711868286e-02
5.665565283057997226e-01,3.623151445940007154e-01,5.653526566963508193e-01,-1.288305676545656829e-02,9.009109771456020113e-03,-1.142492478952159343e-02,2.064052075147628784e-01
4.241022146196386511e-01,5.322482065588031164e-01,5.465287428828541350e-01,2.478127521438775252e-02,7.127055427234484965e-03,5.548004315883965729e-04,1.242558434605598450e-01
5.254012379881414230e-01,4.930528082870349604e-01,4.910707778229260745e-01,-1.059397185190749354e-03,1.584150766196959492e-03,1.822688908897396624e-03,3.369461372494697571e-02
5.420090889823231395e-01,2.483975504508695864e-01,5.709707117353495232e-01,-1.448238687626240973e-01,-3.190325143561021509e-02,-1.255779966329832742e-01,4.569844603538513184e-01
5.818964025301676113e-01,1.283486575328267598e-01,6.094281769460300202e-01,1.503602214343846277e-01,4.222406543740461760e-02,-8.762467868552540132e-03,5.406977534294128418e-01
5.053978516947938981e-01,4.556613768581626034e-01,5.051052912771092362e-01,-5.947419260872801455e-03,-1.199885942714243488e-02,-6.809299932654784560e-03,5.600343272089958191e-02
6.330926228413734647e-01,3.062189230568636011e-01,6.197767847747823744e-01,4.557772244277659424e-02,3.792237240898509859e-02,-1.913000005067701584e-02,3.381054699420928955e-01
5.372478980997507092e-01,4.429465936192910624e-01,5.631202625622515612e-01,3.126329328333050939e-02,7.356356390780969742e-03,-3.629962388353907225e-03,1.230283379554748535e-01
5.291426735221099742e-01,3.952592388719399219e-01,5.453354140301053254e-01,-9.662421643009958677e-03,-5.962385481972463409e-03,-6.616075805018456317e-03,1.444748193025588989e-01
5.882114405780376476e-01,2.963361181649339926e-01,6.183940153325315769e-01,5.908805099120358235e-03,3.386536821145856579e-02,-1.342603879691319814e-02,3.146392405033111572e-01
4.791153773853913944e-01,4.591476649497789886e-01,5.249525895227367123e-01,-5.755570954082528043e-03,-9.747240524450351967e-03,-3.709206673109259351e-03,6.197341531515121460e-02
4.497382093654407886e-01,4.593204262087808853e-01,6.067726193700465620e-01,-2.316449925759594408e-01,-1.274587128990329332e-01,-1.451770314192700195e-01,5.442346930503845215e-01
5.291012188543369188e-01,4.098845346590088701e-01,5.281462214336969385e-01,-9.533116700761266188e-03,-1.082226642367707659e-02,-9.186141701419124270e-03,1.223798990249633789e-01
5.684173318578991108e-01,3.055263039329207952e-01,5.664896112339196099e-01,1.754661904097390770e-02,6.247458611831103147e-03,8.041718475704352428e-03,2.642789781093597412e-01
5.689656804306302273e-01,3.555201441939122020e-01,5.562616271283651326e-01,3.223747794994979467e-03,-1.072962241983691905e-04,-3.763938557900063046e-03,2.075631916522979736e-01
5.586293141928493355e-01,3.648686053390385320e-01,5.614499325567874344e-01,-3.725408708563682485e-03,1.352405296876747071e-02,-1.047285241573976677e-02,1.975273936986923218e-01
5.594066729860243115e-01,3.863357526349337490e-01,5.604824445235609964e-01,1.437497132136126080e-02,1.280244246308638936e-02,-1.301175905710719866e-02,1.782145649194717407e-01
4.764565966747087433e-01,4.673850024856776031e-01,5.392837936455139314e-01,-2.904833062575009738e-03,2.000368414619885064e-03,-2.891812847304613848e-04,6.809598207473754883e-02
5.739587538491681684e-01,3.932752074620123328e-01,5.652109435898599044e-01,1.614545114522664832e-02,1.115981424115702024e-02,-1.720044176319636756e-02,1.821694225072860718e-01
4.325146468734038518e-01,5.076810972324763416e-01,5.093969880340273315e-01,-3.214855085016206371e-02,-3.139881353346258425e-02,-2.047497622829722377e-02,1.144457757472991943e-01
4.702745969864538522e-01,4.721607565752065083e-01,5.209057356851231058e-01,-3.445106025182377747e-03,-3.899064957209207125e-03,-5.517420653294864696e-03,5.142092704772949219e-02
4.341912202054821757e-01,5.295264692978401966e-01,5.045830007842014853e-01,-2.892082836809154248e-02,-3.320282883981891253e-02,-1.886222167696286270e-02,1.192345246672630310e-01
4.018570284809505067e-01,5.273878967603614631e-01,4.983817451381610808e-01,-1.947102226459717159e-02,-2.476652853203810747e-02,-2.014873292175691638e-02,1.309717744588851929e-01
4.291974194394690967e-01,5.097573783303356310e-01,5.109172662422247768e-01,-1.503518665267962462e-02,-1.423622678430531106e-02,-1.881082402215569771e-02,9.451145678758621216e-02
5.599054123782447601e-01,5.336521937865476017e-01,3.754799278714983646e-01,7.853005427981471151e-03,7.738002796007830732e-03,4.376106066751232065e-02,1.896574795246124268e-01
5.482291868387690892e-01,5.654451396285596898e-01,3.914696257948912517e-01,1.412379139082418390e-02,-8.703698925311463899e-03,1.234702540481025408e-02,1.698580831289291382e-01
4.562099554793573875e-01,4.832212429712243185e-01,5.248921965476170959e-01,-5.402122274684199518e-03,-4.009668472265783858e-03,-1.109673870085556117e-02,6.400670111179351807e-02
4.731556388024779625e-01,4.992551974507849488e-01,5.346672875187785667e-01,5.824842748517632639e-03,1.226609601731290912e-03,-6.086532124559033627e-04,5.446884036064147949e-02
4.813400386292446265e-01,5.058033409616151665e-01,5.273683285054472369e-01,6.411854805892337923e-03,4.868792305329524076e-03,-3.333675292892579033e-03,4.264790564775466919e-02
6.123194600322918735e-01,7.809843539605340057e-01,2.365427407902493950e-01,1.082012469643990893e-01,-1.232783420509363931e-01,1.680845521920765195e-02,5.608913302421569824e-01
5.947881081896500000e-01,5.828981837297709800e-01,3.921684324967772417e-01,-4.771956451584567424e-03,2.909614283917065503e-02,6.994174423497186155e-02,2.367922812700271606e-01
5.164449500029546503e-01,4.447861106598703929e-01,5.425043235026669741e-01,6.189871942294697567e-03,-9.883721699577754493e-04,1.161673740185938802e-03,8.833678066730499268e-02
5.021142010336921979e-01,4.764493517167088799e-01,5.404610449856825927e-01,3.176424532307943992e-03,6.726174449419928050e-03,-1.066295427936092468e-03,5.729515850543975830e-02
4.870333781931521222e-01,4.895199666665784322e-01,5.370350070855059998e-01,1.724962093802335063e-03,1.748818417228785015e-03,1.016892605052186448e-03,4.902261123061180115e-02
5.964743161150626305e-01,5.602786635994425612e-01,3.860955219529880189e-01,3.254319425187157666e-02,-1.916832968388679573e-02,6.603767367264364030e-02,2.351955324411392212e-01
5.433195969555809635e-01,3.939608902996167838e-01,5.497976590888463688e-01,3.727113714729352306e-03,8.569033538614517775e-03,-7.710022610184317105e-04,1.535619944334030151e-01
5.256933500747359433e-01,5.688970949460687709e-01,3.547540869494096305e-01,5.716806265304376355e-02,-8.740998233835244047e-02,1.316306464531241394e-01,3.509671986103057861e-01
5.368987868229508909e-01,5.584122801275773762e-01,3.491768953817473431e-01,9.669015927235421679e-03,-4.556136138875462732e-02,7.245775826204250286e-03,2.154213935136795044e-01
5.273430842567788934e-01,4.985977832132258980e-01,4.421505018914366758e-01,-1.154290030442286542e-02,-5.541840305987966869e-03,-7.915063110033628002e-03,7.946683466434478760e-02
5.181904487310229346e-01,4.460244572987741574e-01,5.518427514607288087e-01,6.297160383282417520e-03,3.476740180285351617e-03,2.672710027271037007e-03,9.458126127719879150e-02
3.973488995710524052e-01,5.557081647637284183e-01,5.832436224284770487e-01,1.802546744741019211e-02,3.312425131483684448e-02,-6.435132806818811071e-03,1.859757751226425171e-01
4.611815240675424810e-01,5.191725214337555849e-01,5.221151685288080158e-01,4.385718937589487207e-03,-7.295372205109469828e-03,1.293806045585002215e-02,6.528256088495254517e-02
3.514981388958836606e-01,6.001885022765466315e-01,5.823265762141007773e-01,4.180586358362636812e-02,3.410738341878242347e-02,-6.353490297831333213e-03,2.580273151397705078e-01
5.462836403745018332e-01,3.808030384198401452e-01,5.268212613997603766e-01,-9.428037659759814712e-03,-4.101687571632301084e-03,-1.450855207558467662e-02,1.596577465534210205e-01
4.500762321242180453e-01,5.069283529708461522e-01,5.399941302685236089e-01,-7.348829752569669208e-03,3.825429459043915682e-05,1.070602750770848280e-02,8.192219585180282593e-02
4.340660543389448511e-01,5.416700500256673712e-01,5.621913715072855977e-01,1.827325616791136698e-02,7.726847612574310083e-03,4.561467537132187292e-03,1.243028119206428528e-01
4.272857190538798533e-01,5.577198277487134259e-01,5.589977441148874515e-01,6.892368344382576728e-02,-6.473488647103680001e-03,-8.520178273136367469e-03,1.782590597867965698e-01
5.122503851215832738e-01,4.547676824412905661e-01,4.867902946301331246e-01,-5.422489171551529014e-03,-1.478042922795222945e-02,-7.089500783593269580e-03,5.816647782921791077e-02
5.431922760369033432e-01,3.937344076922915659e-01,5.479491668110847424e-01,3.707835396153479849e-03,7.758349025698742067e-03,-8.127708825019833546e-06,1.526206284761428833e-01
5.632602560244830414e-01,3.671359633950667112e-01,5.488708785869843565e-01,-8.764980226067751448e-05,6.349944925803977479e-03,-8.604856192288358116e-03,1.902440637350082397e-01
5.609721686030715304e-01,4.116421918339648323e-01,5.358378219872066417e-01,1.297141418649423207e-03,9.209818742893675220e-03,-1.103055819579677917e-02,1.407209783792495728e-01
4.567141520478075756e-01,5.165047882703799331e-01,5.406108666891278336e-01,9.000549137276638023e-03,9.594518526147134338e-03,-6.359956300702719612e-03,7.898026704788208008e-02
5.491214794620367101e-01,4.223730633399287449e-01,5.289047355781475446e-01,-1.192403343280059973e-02,1.632370700809755715e-02,1.716311486942498354e-02,1.265744566917419434e-01
4.296599068511855468e-01,5.295781136843213943e-01,5.392836650111276775e-01,2.010930064475905873e-02,1.022195743572653324e-02,-8.600416705430677031e-03,1.131199598312377930e-01
5.563781259507837307e-01,3.527811652262346498e-01,5.599544470770090321e-01,-7.974242220481717394e-03,4.042795665324704253e-03,-5.612435252729895858e-03,2.062205970287322998e-01
5.269013228052314979e-01,3.959866661741615612e-01,5.540861068412904489e-01,-1.022764125837823806e-02,-3.276049366893137461e-03,-4.929921325391151826e-03,1.478359550237655640e-01
4.558005044258134353e-01,5.640668586072762336e-01,5.804348884389055607e-01,7.341238336503091988e-02,3.141279691092609822e-02,1.850129633522050194e-03,1.813844442367553711e-01
4.703237608695099436e-01,4.622470893048407636e-01,5.359433561783384370e-01,-6.288027937594891335e-03,-4.005807703428279284e-03,-2.538379558551582486e-03,7.132488489151000977e-02
5.289841968975312891e-01,4.097329233095177159e-01,5.269210686138109390e-01,-9.535024179588163368e-03,-1.137656602564923909e-02,-9.445116706061563311e-03,1.220973059535026550e-01
4.963073168310727645e-01,5.087921897203403487e-01,4.542762481712376843e-01,-1.321568269503013010e-02,-1.366149227772985204e-02,-1.100363688542785497e-02,6.240470707416534424e-02
5.564588466548572310e-01,3.686842931016629521e-01,5.600533396589106871e-01,-1.024744738889905166e-02,6.985305167604631375e-03,-1.342519246371345768e-03,1.908244639635086060e-01
4.566629028026065185e-01,4.868168010446234928e-01,5.343546596588545361e-01,-2.212895128911909412e-02,-1.280035047585827319e-02,-1.193163499113973625e-02,8.360782265663146973e-02
4.715650325022485156e-01,4.725798123307992649e-01,5.353410036237810088e-01,-1.161327265343754973e-02,-5.239091643067971676e-03,-6.060829110298301958e-03,6.782945990562438965e-02
4.536463406114255026e-01,4.809883454284893389e-01,5.420402303252512821e-01,-2.472445019706726380e-02,-6.432041826351983689e-03,-8.190842245144216820e-04,9.002344310283660889e-02
5.267822475537947691e-01,3.941879247659565988e-01,5.544011678221598682e-01,-1.377569664963488455e-02,4.664681430268536461e-03,-2.903569494831783563e-03,1.505524814128875732e-01
4.163270517964210993e-01,4.225875415543274838e-01,5.564756106195908325e-01,-1.004629983923488179e-01,-1.703164344817413578e-02,-2.023852837751083725e-02,2.262319177389144897e-01
4.822885039761892201e-01,4.546549075031967035e-01,5.381557131921983483e-01,-2.944438117439306807e-02,-9.637787936912025483e-03,-7.894088601872925257e-03,9.216886013746261597e-02
5.002906533338034034e-01,4.303907704553675551e-01,5.392072053388947683e-01,-9.985270841878144538e-03,-6.310937160864837914e-03,-5.287605639079883540e-03,9.809806942939758301e-02
4.594103543782681598e-01,4.687980274022816030e-01,5.376208585753042835e-01,-6.507430234030534347e-03,-8.817942668440076999e-04,4.334371961531257558e-04,7.483804225921630859e-02
4.742431788213571919e-01,4.729768016680362952e-01,5.357048819270099349e-01,-1.073456155449309867e-03,1.807188032849542034e-03,9.958397057535657137e-04,6.223510205745697021e-02
4.590791219534990364e-01,4.700299545914135013e-01,5.372004805054976240e-01,-7.100295949622334284e-03,-4.590976335455822601e-04,1.235101029270551862e-03,7.432243973016738892e-02
4.257711248782714009e-01,5.463140827108441400e-01,5.378244907339869707e-01,9.585927088863754192e-03,1.469423546760894976e-02,-4.620070086214881147e-03,1.206929311156272888e-01
4.895232229476288444e-01,4.458956286831459170e-01,5.333526205809020482e-01,-1.380456800095862871e-02,7.199364786739131071e-03,1.623477324475949488e-03,8.044657856225967407e-02
3.876754456370656854e-01,5.713060555391981099e-01,5.698061532244742544e-01,1.627977399868653363e-02,-3.384758715944085998e-03,1.258568100992474466e-02,1.864180415868759155e-01
4.259006394222273895e-01,5.508826924801385472e-01,5.462985233842284627e-01,-8.619221086474967639e-03,2.088213800621068275e-02,1.320709867920701400e-02,1.308546364307403564e-01
3.994098772766018213e-01,5.497382337011217368e-01,5.646757135688975637e-01,9.158217560734290344e-03,1.187875010284689635e-02,4.379017966550897284e-03,1.606229394674301147e-01
4.997389267523766887e-01,4.690956943133237078e-01,5.394712914652138869e-01,2.248920448337526218e-02,5.359678913101410987e-03,2.429277180682638641e-03,7.318723946809768677e-02
4.893748901798899986e-01,4.140379909142172243e-01,8.055009275627273979e-01,-2.201217615554287854e-01,5.322632352567034653e-02,1.504097082412755512e-02,5.328844785690307617e-01
3.613130613278402459e-01,5.921969710363076400e-01,5.608369397007333390e-01,4.578091794600356451e-02,3.679733433871353043e-02,7.349355775771280672e-03,2.399211376905441284e-01
4.032846342917368876e-01,5.490788960338686131e-01,4.941987108718324251e-01,-3.542248970202057159e-03,-2.189573338148611409e-02,1.922300181141054030e-03,1.332425773143768311e-01
4.986826674928437342e-01,4.741677077606364366e-01,5.356373596346891697e-01,4.940776397683701096e-03,-1.622108079857812997e-03,5.630526692730605581e-04,5.435672774910926819e-02
5.030334390790353050e-01,4.946717076052845052e-01,5.035278849609500229e-01,2.035391071335568638e-03,-5.829466945573236192e-03,1.486027813372310918e-03,1.397493481636047363e-02
3.593774550754572639e-01,5.362945364901431367e-01,6.393959421700226020e-01,1.295807642579095975e-01,5.039551973396195345e-02,2.374886519049165465e-02,3.462002575397491455e-01
3.702090038947481454e-01,5.294185372224704533e-01,5.559825153616438920e-01,3.781075621013937210e-02,9.754305886157051825e-03,5.388306469572278455e-03,1.869333088397979736e-01
4.177715183004331312e-01,5.562156422721949989e-01,5.342939909861584846e-01,2.193077693554557062e-02,-3.962799436208622184e-02,1.607405476647361803e-02,1.534325480461120605e-01
3.425878261237817468e-01,5.480158831289375643e-01,5.598009788884280580e-01,2.267755054510140270e-02,-1.948043076645424032e-02,6.849799670031053375e-03,2.181343585252761841e-01
4.935016213739578661e-01,5.091336390249320276e-01,4.936217612856229620e-01,2.174149606934062257e-03,3.352297490819568758e-03,-3.857783945584357822e-03,1.830405183136463165e-02
5.584883439192127597e-01,3.674862277905384667e-01,5.566072130002448493e-01,1.051918125497548328e-03,7.569580214065906726e-03,-1.029736008103494457e-02,1.913618743419647217e-01
4.970533912832550971e-01,5.074886143035313157e-01,5.040903683641158040e-01,9.662016779577373843e-03,1.295079750281954815e-02,-8.357789406320320288e-03,3.282943367958068848e-02
5.028833041378040214e-01,5.327790598034931602e-01,4.471205659914158637e-01,7.283607553940932289e-03,-1.022386539093268765e-02,3.943019806376235723e-04,7.838054746389389038e-02
5.056544771736983801e-01,5.170803401225189111e-01,4.702556003958692776e-01,1.259350350672603334e-02,6.580328833950716515e-03,-4.859682480731195020e-03,4.964508116245269775e-02
5.390133867488664521e-01,5.800398031010756128e-01,3.721643318559930136e-01,-3.172855116007003429e-02,-1.208480413116288926e-01,-8.275766565561239185e-02,3.220967948436737061e-01
4.773276543861569854e-01,4.736191525205217245e-01,5.437708519105775018e-01,2.033282441349316960e-02,-3.069686917537643375e-03,9.327834305520643632e-03,7.876814901828765869e-02
5.077097038127856843e-01,5.208031518455980002e-01,4.686290681257966328e-01,1.016633662257086790e-02,9.117663801633139886e-03,-7.775764025805837615e-03,5.432569235563278198e-02
4.991397085115183430e-01,4.786894900132994124e-01,5.353378086426677784e-01,4.142566864706812534e-03,-2.456848934530303594e-03,2.338711499921110847e-03,5.054475739598274231e-02
5.029865846167040910e-01,5.176973898454491074e-01,4.809827325413323362e-01,9.436814533903745833e-03,3.174644555660573447e-03,-2.035445845254898935e-03,3.652528300881385803e-02
5.077440785059748052e-01,4.851899994884610323e-01,4.913800254311959104e-01,1.106726533364575660e-02,1.137018042644614285e-02,-1.009391420869756167e-02,3.831905499100685120e-02
5.045704486456148441e-01,5.022433684590745795e-01,4.760535868381666202e-01,1.088349158192191725e-02,7.170794014020679882e-03,-5.836015801372246292e-03,3.693311288952827454e-02
4.798126856031728060e-01,5.372725751945939265e-01,4.979593740826980808e-01,2.479248499106845565e-03,3.318557007865944198e-03,5.283462985709988296e-04,5.138628557324409485e-02
4.348128216343855601e-01,5.425539599116553369e-01,5.284512831913471542e-01,3.177963342399143989e-03,-8.817477310380621158e-03,9.803139249669612018e-03,1.041126623749732971e-01
5.446675195690722227e-01,3.956656960255270361e-01,5.630245013177255231e-01,4.021396963253895049e-03,6.785871716760225568e-03,-2.337786132264804695e-03,1.596145331859588623e-01
5.036360721694129738e-01,5.454542272892783927e-01,4.574829760774989373e-01,1.660892231924184295e-02,2.244544925371363964e-02,-5.614016559445741164e-05,9.026558697223663330e-02
5.520352150651293144e-01,3.593819980556515192e-01,5.527325816471164721e-01,-1.057380660696199612e-02,-2.343145452625946742e-03,-9.068384775679646029e-03,1.945473998785018921e-01
5.996448298809907707e-01,4.342310495321068387e-01,5.768211682679391661e-01,4.783816068884576278e-02,2.683666568726959540e-03,7.554572182006787096e-02,2.193532139062881470e-01
2.753025783471256260e-01,4.087541702847393710e-01,5.901327262441966592e-01,-2.291587307079732683e-01,-6.635194241482544886e-02,-4.591059051738170804e-02,5.019810795783996582e-01
4.560681029629659600e-01,5.343880337212355558e-01,4.908176383765445738e-01,3.032263447420582674e-03,1.570917686561130663e-02,-4.419581297726881460e-04,7.340616732835769653e-02
5.318219145727303143e-01,4.556292297714046868e-01,5.202741891456235113e-01,-3.999429191957676842e-03,1.163248464408339622e-02,8.210536646554489684e-03,7.559756934642791748e-02
4.994447092262980226e-01,4.310351762954556243e-01,5.461336719772519332e-01,-1.029562222934851320e-02,-3.830218241221392071e-03,-3.831730565081432806e-03,1.022729277610778809e-01
5.019714123401469719e-01,5.365586250872120821e-01,4.836506667973395901e-01,-8.052128448869461325e-04,3.045271470478603387e-02,8.347100980386056718e-03,7.182380557060241699e-02
4.802409281021079446e-01,5.357197462308007641e-01,4.934210029010278054e-01,2.152796320711527654e-05,6.333469342957696521e-03,-1.073322304014248760e-04,5.138845369219779968e-02
4.597662535931157923e-01,5.398936539070990914e-01,5.020989408850751179e-01,4.082922577706670484e-04,9.133693946542313299e-03,2.728481881317085765e-03,7.136914879083633423e-02
4.700230877470227275e-01,4.527664712518080226e-01,5.349396099457668363e-01,-1.129095901588651751e-02,-9.158089406984020603e-03,-7.130209161679635158e-03,8.011724799871444702e-02
5.405049557874854749e-01,4.107265949726660037e-01,5.423765196777772246e-01,-1.309652008332476587e-02,1.215531335739056598e-02,6.039748875997875965e-03,1.347444355487823486e-01
5.429527726370584340e-01,3.597464402642623349e-01,5.051234848527352828e-01,-1.887200422590511462e-01,-1.458459584193558256e-01,-1.560599589565286605e-01,5.213329792022705078e-01
3.977255753729361798e-01,3.527867325398730824e-01,4.974390635524246762e-01,-1.915257561955986398e-01,-1.462552287197931011e-01,-1.624692416833067032e-01,5.194710493087768555e-01
4.301916357161150728e-01,3.313081932904813343e-01,5.900687334785457150e-01,-1.795764278944251002e-01,-5.522582395224644169e-02,-7.419210131544241860e-02,4.165981113910675049e-01
5.258928826037296833e-01,3.189256990447696394e-01,6.108783792184762085e-01,-1.836396509178286618e-01,-9.737736677297537113e-02,-5.976287681958313697e-02,4.560477733612060547e-01
5.320277844847890458e-01,4.306023092424087761e-01,5.450624501702215907e-01,-1.042722526855729831e-01,-6.696033961328110018e-02,-1.100243994355845772e-01,3.068621158599853516e-01
5.277737634240577957e-01,4.900815843534495064e-01,4.579774939791630417e-01,-1.180032609430907431e-02,-1.310561278743163638e-02,-2.542918930724534510e-02,8.083558082580566406e-02
5.441152027519093881e-01,4.448833783266794017e-01,4.017662008892030623e-01,-4.474096568356684955e-02,-4.621839953470748691e-02,-9.981692566564315250e-02,2.414302825927734375e-01
5.079296793257713771e-01,5.054309622809082247e-01,4.615414055978961372e-01,-1.250905405984256182e-02,-1.353846943402128682e-02,-7.218544795711809292e-03,5.672588571906089783e-02
5.265329604950349518e-01,5.044518936685828958e-01,4.188353075775433920e-01,-1.910244849719905727e-02,-1.138454244023927135e-02,-1.511794006621397513e-02,1.089837998151779175e-01
5.245769943350684361e-01,4.846419352321499896e-01,4.356056843650472077e-01,-1.353155303530924683e-02,-8.937361892699984683e-03,-1.141701562741494723e-02,8.448438346385955811e-02
4.706564020729561149e-01,4.654603582762819602e-01,5.307343956696295439e-01,-2.295540063620528544e-03,-3.780940794412310235e-03,-1.610382082965266864e-03,6.336408108472824097e-02
5.033885711119857609e-01,5.108371276321361787e-01,4.414125042819677658e-01,-1.528869888710802580e-02,-7.204772553728929808e-03,-4.868802862840978553e-03,7.270640134811401367e-02
5.499518718206565238e-01,5.574552566427869449e-01,3.948414726010627263e-01,1.117286067987931361e-03,3.517498230868834619e-02,4.174530249921179492e-02,1.849945485591888428e-01
5.552887524701709543e-01,5.464260972433747643e-01,4.286236990660081125e-01,1.962737911201716933e-03,6.403719880678394351e-03,6.971749347903116213e-03,1.236138716340065002e-01
5.399469674458269308e-01,5.244529672005980858e-01,4.371383001356334286e-01,-1.177322848032492496e-03,2.354433921952615513e-02,4.912609286214082716e-02,1.346255987882614136e-01
5.860590261400154821e-01,5.865642993500777003e-01,3.323048784122034638e-01,1.877192467501473394e-02,5.566865184918021485e-04,4.286566777216321150e-03,2.561890780925750732e-01
5.672688378756844951e-01,5.697213609193898520e-01,3.907356713644540847e-01,1.557117734157366026e-02,-2.347009025880677537e-03,3.188093599677761097e-02,1.881382912397384644e-01
5.669984674807452274e-01,5.725851851492808064e-01,3.562267417709047423e-01,-1.708362506232435560e-02,-1.363792061256174741e-02,3.813284401175529720e-02,2.267803400754928589e-01
4.997248886798462131e-01,4.751714710046033296e-01,5.439311585607582433e-01,4.931304596190096493e-03,2.097868570087192859e-03,5.009572734802371623e-04,6.106872484087944031e-02
4.120283825760138186e-01,5.529535892248611528e-01,5.133009567093566039e-01,3.799889896074608048e-03,-4.367898506491968424e-02,-4.959134805831229460e-03,1.472577601671218872e-01
4.174672969961086277e-01,6.256663524930918818e-01,5.287041486149191005e-01,1.046675327218283928e-02,-1.086536789642693207e-01,1.339502310015944393e-02,2.623830735683441162e-01
4.896423039400836785e-01,4.888923302353141431e-01,5.278441945290844872e-01,1.821724765487741163e-03,-1.946291395629121210e-03,1.624245954576718958e-03,3.895936533808708191e-02
4.126470803268915133e-01,5.573393426649844162e-01,5.386545676673575311e-01,9.831602588169452428e-03,-1.973216527616070137e-02,1.473743900824537809e-02,1.438438743352890015e-01
7.026912848554947022e-01,7.543497274954886755e-01,1.995254490878858311e-01,4.366057933692269605e-02,-9.533979604355360959e-02,-9.398183425946987635e-02,5.842283368110656738e-01
3.699912564945788684e-01,5.833982416802485638e-01,5.294018833148201875e-01,3.347450349480241699e-02,-9.044530694953599459e-02,-1.904028542133330136e-04,2.546325623989105225e-01
5.181035823655107952e-01,4.647963843207553736e-01,5.377030590068231364e-01,6.451109993107047996e-03,-2.817666255148600085e-03,2.422482028696307590e-03,6.660978496074676514e-02
5.321079159742017062e-01,4.867897771008918295e-01,4.802974799231289338e-01,-1.602144868038768476e-03,1.290529198430090613e-03,8.943468793541466469e-03,5.140774697065353394e-02
8.321243037892520622e-01,4.215674799350301871e-01,5.609278338118871554e-01,8.841129451223521396e-02,1.290241859334318175e-01,-2.015083788683672827e-01,5.709388256072998047e-01
3.543548230095054929e-01,5.706264247092935893e-01,4.759427177219131000e-01,-1.361727773883645090e-02,-8.994651075567197673e-02,-5.603839318609807156e-03,2.453214973211288452e-01
3.620248471642573684e-01,5.547633320833759152e-01,5.645596884954504624e-01,-7.717852640139014585e-03,-3.550899841090972633e-03,3.862787076655425835e-03,1.984779834747314453e-01
4.768511943323444635e-01,5.288281678280776221e-01,4.752903743398645964e-01,8.195327910716838395e-04,2.752687819791330251e-05,4.043604259727888190e-04,5.279844999313354492e-02
5.371613619231949688e-01,4.419956443138780555e-01,5.371906290401172734e-01,7.708786144707859000e-03,-4.779478300442007409e-03,6.550133533323496994e-03,9.713299572467803955e-02
4.287616554489716014e-01,7.833595956151884199e-01,4.210172526791974290e-01,5.955597871420053452e-02,-2.472330038807683261e-01,5.335380113758580317e-02,5.754119753837585449e-01
3.645350044079035401e-01,5.548027227084627588e-01,5.697928806125537315e-01,-6.225021130470304552e-03,-6.577180784543021005e-03,-2.894568872889684286e-04,1.988087892532348633e-01
4.780640826106166696e-01,5.186948970126836755e-01,4.942716522690313585e-01,2.628638933946128315e-03,-2.977016004932198610e-03,5.735164370107874963e-03,3.743013739585876465e-02
3.899554257334570950e-01,5.566057432803581673e-01,5.681325814459692314e-01,-8.222193395263477367e-03,1.101993493077626889e-02,3.958518681666452731e-03,1.744714528322219849e-01
2.219576742453695517e-01,6.133503323793785267e-01,5.063908223739134185e-01,-2.790022887410665078e-02,-1.571940708619078142e-01,-5.223383612934892790e-03,4.464442133903503418e-01
5.317862857391882914e-01,4.632462718991108286e-01,5.175315616505948846e-01,4.109021907903870167e-03,-5.872431032399834556e-03,7.409504361247685328e-03,6.513618677854537964e-02
5.014027294531040457e-01,5.538195670262073822e-01,4.240458729151723727e-01,5.733959247860027052e-03,-1.013420004816900817e-02,-3.359726168273095815e-04,1.148629188537597656e-01
4.372625301040472534e-01,5.233862188545078675e-01,5.176453328024800404e-01,1.425802923790401612e-02,-1.502431510269857350e-02,1.906816659877656056e-02,9.661092609167098999e-02
8.197020019586774842e-01,5.846188139893295777e-01,2.718021730168876382e-01,5.130374514877858450e-02,-5.735605442389117917e-03,-1.414087963467146880e-01,5.428079962730407715e-01
3.514497460363371073e-01,4.048707485972450337e-01,5.805389313507062221e-01,1.792894909758214472e-01,1.894426720188977648e-02,1.532601240098922270e-02,3.759161531925201416e-01
3.767154521988292926e-01,5.491843395254026872e-01,5.656862477870219230e-01,-1.404283630475343381e-02,1.167161876737280758e-03,5.351682656252132464e-03,1.831543296575546265e-01
3.878088543512341335e-01,5.580672366183978550e-01,5.606220579484832989e-01,-2.228438030101260320e-02,6.666670619380934536e-04,7.160323284244964520e-06,1.758423596620559692e-01
1.977535319684715076e-01,7.205600210041313014e-01,6.551490379737419101e-01,-1.058644911575171987e-01,-1.777682092709103046e-01,5.001680823169991040e-03,6.098437905311584473e-01
4.991872032181645658e-01,4.296467309399494838e-01,5.447255118358800274e-01,-1.142756283657877722e-02,1.103924862540109266e-03,-9.229176123782979052e-04,1.023442670702934265e-01
2.252615488013693934e-01,6.597787225259117427e-01,7.202760629064827169e-01,-8.568372741057111996e-02,-1.462094554067935523e-02,9.528421267717168686e-02,5.183202624320983887e-01
3.633347861983869942e-01,6.285091145135022206e-01,6.115854108184582971e-01,3.365279430317893311e-02,1.538550389707718860e-02,2.008018311219974053e-02,2.672702968120574951e-01
5.519832449253798679e-01,3.686255681442442977e-01,5.640716993218692910e-01,-9.951654125464863207e-03,6.799187664307169109e-03,-1.614374956704173799e-03,1.908567249774932861e-01
5.246823202079266002e-01,4.881566236907317613e-01,4.886629624147254547e-01,-6.010557400922917834e-03,7.372941381881282716e-03,8.886612326591970812e-03,4.271141812205314636e-02
5.462865728452185321e-01,4.039213331165286136e-01,5.442145431670722955e-01,-5.894881882989788310e-03,8.429297868681266334e-03,6.365918347243373736e-03,1.428851038217544556e-01
4.839913843790149550e-01,5.300868052792567786e-01,4.720376363881898518e-01,2.610232394979224331e-03,-2.178231042454627578e-03,3.193088085025080469e-03,5.370246246457099915e-02
3.247931035302897840e-01,6.052490264679452059e-01,5.884386175560967214e-01,-3.007944636443419043e-02,5.811018953954420925e-03,2.424938163072053003e-03,2.775910794734954834e-01
3.614213295217388877e-01,6.106220446144712266e-01,6.140927068160650926e-01,3.216807430599442907e-02,1.459166119935293750e-02,2.831924479028831779e-02,2.629200816154479980e-01
4.923479481094926724e-01,5.190376374134573201e-01,4.841826507007409020e-01,6.412784279644732216e-03,6.072538340898250321e-03,-1.883489772499189526e-03,3.523609042167663574e-02
3.260914314079937926e-01,5.719217177715834044e-01,5.890115717753288127e-01,-8.080852301683505781e-03,-5.275004492351095114e-02,9.021046859938784690e-03,2.715023756027221680e-01
3.319923558600968994e-01,5.990552960886371681e-01,5.621441032513525560e-01,2.353989178048677619e-02,-1.424139877817146016e-02,1.464702989448363538e-02,2.564017772674560547e-01
4.666584966078732855e-01,6.260126183059079308e-01,4.166828377432743036e-01,-2.361546876694577482e-02,-1.010217421534987808e-01,-3.709157508693920052e-02,2.688340246677398682e-01
5.790359299737565246e-01,5.275864375384328175e-01,3.436466791549610544e-01,-2.404289582453322804e-02,-5.335326844660824575e-02,-4.963554574676545122e-02,2.522091269493103027e-01
5.038054493298554926e-01,4.313663089564799269e-01,5.559019084578740166e-01,-1.076422480732140349e-02,7.529319651470450098e-03,1.052681976983523351e-03,1.107081547379493713e-01
5.270723847779599236e-01,5.474832791623733819e-01,3.823217611174982711e-01,-1.570946389972326454e-02,-1.155123825345558131e-02,-1.820112930799807488e-02,1.626601815223693848e-01
5.562335117946192176e-01,5.227447942841895179e-01,3.829747343854416619e-01,-1.714623437006960321e-02,-1.637014895965405170e-02,-1.391905258910870573e-02,1.661476194858551025e-01
5.657466690197464620e-01,5.312914168632596468e-01,3.777610561189058136e-01,-1.202490139506599267e-03,-4.216636043255519127e-04,-1.444135389653883328e-02,1.751547753810882568e-01
5.440017347058123676e-01,5.191743138524530510e-01,3.279832679656955463e-01,-1.154966327199752514e-02,-3.628940066875557813e-02,-5.699028521874465597e-02,2.366681694984436035e-01
4.804366957774819369e-01,4.539342951343361965e-01,5.384087204817975536e-01,-6.608055582807515621e-03,-1.242128459213120333e-03,-1.322292007350083518e-03,7.576545327901840210e-02
4.997499013720492766e-01,4.788966059806064601e-01,5.264526577747363767e-01,-1.664558488283353344e-02,1.476211374556931320e-02,1.520008374347975137e-02,6.231253221631050110e-02
4.866964572493824304e-01,5.094302971777876499e-01,5.216871043532191887e-01,1.229139639990331663e-02,-1.078689416060999058e-02,1.271896905765032559e-02,4.725806042551994324e-02
4.659406627134640710e-01,5.064177536877080277e-01,5.104380193438177171e-01,2.319337490812156330e-02,-1.611842361262288623e-02,2.177451243558081728e-02,7.505253702402114868e-02
5.021732455551958241e-01,4.811567701161131305e-01,5.146956525463194376e-01,6.084355002058068618e-03,-8.896939159772642575e-03,4.582044555218455807e-03,3.568178787827491760e-02
4.548240000203797040e-01,5.064364441714103160e-01,5.009203050276255231e-01,-5.587446850557341825e-03,-5.439516449316401936e-03,-1.365639651056493181e-02,5.613809823989868164e-02
4.955849746743352657e-01,4.704961984631791938e-01,5.240853020979960863e-01,1.193967914216065469e-02,-8.311691249323386113e-03,5.453837392316266720e-03,5.367408320307731628e-02
4.991424016809320463e-01,4.823993967135772887e-01,5.314038222006203238e-01,5.150273227376653447e-03,-3.600357058854210344e-03,1.939652102208057815e-03,4.462097212672233582e-02
5.154364868251064546e-01,4.423405145844337971e-01,5.332047637628190007e-01,-1.155058894276736470e-02,1.973751306806965575e-02,9.885627532911311563e-03,9.391301870346069336e-02
6.056557094190783141e-01,2.037352397256889103e-01,5.559617077932358375e-01,-1.142044832091053397e-01,-2.179620156890758192e-02,-1.573470286615519798e-01,5.087867975234985352e-01
6.019279951128547745e-01,3.539854915703491978e-01,5.482502372896302933e-01,-4.503460654044277867e-03,1.668734425072974578e-02,-4.185493470565176954e-02,2.391642630100250244e-01
5.007781903924832800e-01,5.139646299974712784e-01,5.215533534130274429e-01,3.144068733515828495e-02,-2.294774469119983604e-02,3.124268567434367039e-02,8.834706246852874756e-02
5.453452064820883960e-01,4.435675774187037845e-01,5.424651125315733680e-01,6.265935893751740406e-03,6.379704047795561926e-04,5.713216663918079495e-03,1.014434844255447388e-01
6.256117223121679949e-01,3.011133719374070039e-01,5.718914274513350327e-01,-2.024884421737635151e-02,4.253027712504725186e-04,-3.403891810677402846e-02,3.089651167392730713e-01
5.700272998096642674e-01,2.925776247588750545e-01,5.669437724160691916e-01,-1.271304288143331428e-02,8.913523688670856038e-03,-3.565712385304074111e-02,2.840243279933929443e-01
5.912305873316971994e-01,1.541387622869481722e-01,6.079526487375989108e-01,-8.480310701589359457e-02,9.532248212243745258e-03,-3.595862830493481294e-02,4.736711084842681885e-01
5.170760873744378872e-01,4.779780095830946096e-01,5.176100614321270665e-01,5.101489832515579761e-03,-6.974247073171811750e-03,4.730054223541759785e-03,4.290615767240524292e-02
5.725814811032478024e-01,3.599620311371958259e-01,5.675314477026441873e-01,-2.427064170069446851e-03,1.301032104627077761e-03,-9.773701221063482714e-03,2.108746618032455444e-01
4.637199348846950397e-01,5.299473056317037800e-01,4.865411240646878022e-01,2.518282418004810612e-03,-4.938798970233669768e-03,3.250583049746289151e-03,5.932439118623733521e-02
5.608174625240965883e-01,4.111217667886272187e-01,5.462188347692554791e-01,-1.653786013070762326e-03,8.724342487420747375e-03,5.315573765465679210e-03,1.440759599208831787e-01
5.966968020099830960e-01,3.134342906669798090e-01,5.550178314625369147e-01,9.779406217947386737e-03,-7.199440770771062086e-03,-6.022066448201928573e-02,2.854657471179962158e-01
4.937656062365531340e-01,4.947934321008898850e-01,5.235578913466436557e-01,4.922143485091733627e-03,-5.523195649456634146e-03,7.601994030068731298e-03,3.457724675536155701e-02
3.971439569574473083e-01,5.442308614807300771e-01,5.337907794170091424e-01,3.917493260770894825e-02,-3.757235925207499938e-02,2.485308265827242818e-02,1.757841110229492188e-01
5.619882420273112356e-01,3.741006227085734714e-01,5.500871290351422305e-01,-3.796009138387838877e-02,-1.133490861496012567e-02,-4.103067502704224601e-02,2.072829455137252808e-01
5.630906788225351622e-01,3.596429291040000864e-01,5.666019865052157600e-01,-3.158546446043391381e-03,5.080040894838887093e-03,-1.062436646596959765e-02,2.063096314668655396e-01
5.032603397597009698e-01,4.968433278724954660e-01,4.912221296104809509e-01,3.636683124182998449e-03,-3.788080725171728315e-03,1.952251065448755256e-03,1.424802187830209732e-02
5.723544253214557509e-01,3.745486423768378259e-01,5.567596601804852829e-01,5.429568246310991636e-03,1.227647517148349951e-02,-6.298672065771602525e-03,1.922113001346588135e-01
5.332462350766735693e-01,4.855349591813407084e-01,4.904353072244314604e-01,6.935642648147073556e-05,2.337432466700371889e-03,2.045501109420931867e-03,4.577701166272163391e-02
5.539352345200314609e-01,4.049191078215264028e-01,5.452223829499851515e-01,-6.550065361087049898e-03,1.195908048044837593e-02,6.333449013868664573e-03,1.471783667802810669e-01
5.501261429268894387e-01,5.850664388187876153e-01,4.158918724881858209e-01,1.631333921180946889e-01,-1.755798829686366358e-01,1.066737042257670381e-01,4.799896776676177979e-01
5.692724439615954868e-01,3.743215664272809828e-01,5.464362558818107729e-01,-2.396262652437289222e-03,-6.180635977793126276e-03,-1.983894536606340547e-02,1.881169229745864868e-01
5.732871664756522545e-01,3.896642397390887025e-01,5.538294730406150279e-01,9.922483247744076293e-03,1.361103108688420035e-02,-1.291655576245869831e-02,1.785350441932678223e-01
5.492752890112124753e-01,5.042846280276872539e-01,4.815449645567535519e-01,4.685563556195702570e-03,4.402561182943717615e-03,2.857729397540244645e-02,7.834743708372116089e-02
4.469056497985613996e-01,5.182457081991426184e-01,5.456427548428226526e-01,3.046610362774197778e-02,-1.090629610107901777e-02,1.857599130472676469e-02,1.094125360250473022e-01
5.034703526795123452e-01,5.492934337601205197e-01,4.379196860065350250e-01,8.306334636455215206e-03,-1.060539134969810428e-02,8.341911734006375242e-03,1.007648184895515442e-01
5.620053210343962657e-01,5.546035213174325129e-01,4.233785733918501437e-01,5.385634714774201019e-03,3.136012099519133040e-03,2.231309277412460434e-02,1.409120857715606689e-01
5.551190747910517143e-01,5.268937916311078329e-01,3.998918624764944418e-01,1.233772203585735416e-02,-1.457109883411445046e-02,3.895659393251015706e-02,1.617321223020553589e-01
5.683277993578766951e-01,5.341397778861373125e-01,4.158278022142068986e-01,1.466912524522357309e-03,-2.773145542630984714e-02,4.659511785679194135e-02,1.674463152885437012e-01
5.500456340314583414e-01,4.090555432657278501e-01,5.393495740649059123e-01,4.301336965641665592e-04,1.538275737855711615e-03,6.529060795972544545e-03,1.364555358886718750e-01
4.684741632515158072e-01,5.377541867531434594e-01,4.658392536675926010e-01,-2.317252155189672370e-04,-2.121000518069027837e-03,2.187118374307802521e-04,7.073196768760681152e-02
4.845406185789701281e-01,5.288657116043071760e-01,5.011632033739774617e-01,-8.785752386172894848e-03,1.692801019307149310e-02,1.239292534173403945e-02,5.528310313820838928e-02
4.553094191993162232e-01,5.481360748786470172e-01,4.802950944402727962e-01,-3.690779254952000418e-03,-2.835523286810129329e-02,-6.193730094408360191e-03,9.741532802581787109e-02
4.620233008243127548e-01,5.418194817950182651e-01,4.762904467514444407e-01,-1.285288977081471386e-03,-1.097562169750046848e-02,6.767081297012087979e-04,7.615931332111358643e-02
5.357349446638749457e-01,4.730751014848056379e-01,5.024554631745689059e-01,-7.476622804393998501e-04,1.947282201777783550e-03,5.354918673306480192e-03,5.520480871200561523e-02
5.592124557626932946e-01,5.203906984460553442e-01,4.546049953506256514e-01,2.981450226164904238e-02,-1.095282422420527750e-03,5.639344300579377661e-02,1.435262262821197510e-01
4.591547567860539414e-01,4.613344022945162770e-01,5.360511105367607998e-01,-2.516595253558327749e-02,3.585732688878792013e-03,5.045047411823358821e-03,8.811979740858078003e-02
4.320729273733135423e-01,5.402713397607304957e-01,4.728704873207019155e-01,-5.090920810841814345e-03,-1.779733711493310805e-02,-6.246573030340432479e-03,1.005094647407531738e-01
4.692491327576221449e-01,4.750581748247679204e-01,5.242537137968030780e-01,-1.835817867221875696e-03,-2.693156544121452257e-03,-3.552087384848772421e-03,5.300421640276908875e-02
4.338937965541900810e-01,5.279910478200695589e-01,4.716165857322539567e-01,-6.008445801899594749e-03,-1.648729563506049281e-02,-9.996879886948696961e-03,8.917006850242614746e-02
5.122931495874614161e-01,4.703011730812552971e-01,5.410585229233078053e-01,3.399808880311207954e-02,1.274284078518425796e-02,-1.911281516054630716e-02,9.407091140747070312e-02
3.898637060182304492e-01,5.935646441496771342e-01,5.209724867178276986e-01,8.806848376404646794e-02,-1.617751536657582867e-01,1.147617001038612194e-01,4.162560701370239258e-01
4.757123911960831619e-01,4.740513114559111729e-01,5.309241317834878515e-01,-1.980378073661695319e-03,8.096111850172131499e-04,4.332068542681374347e-03,5.668191239237785339e-02
6.862140075003402284e-01,3.009373830463217825e-01,6.469284655533231732e-01,2.752890739617653293e-01,1.169607373061312960e-01,5.528836527708052423e-02,6.421898007392883301e-01
5.105963441978262907e-01,4.499809971805539544e-01,5.410985993773146374e-01,-8.489360883055340271e-03,1.208451716563171963e-02,2.227726932106992904e-03,8.439618349075317383e-02
4.905914919042692612e-01,4.321887157515880151e-01,5.886993644103338807e-01,5.482807256601505280e-02,4.435999654303180578e-03,6.790993498721946062e-03,1.672768741846084595e-01
5.364378577427237893e-01,4.262040063441335791e-01,5.600536746070734484e-01,6.251387933242850969e-02,5.090577000871639168e-02,-3.121975097220014428e-02,1.942540556192398071e-01
4.942294989357247648e-01,4.789003883517062854e-01,5.465941398695375320e-01,2.706934580795885420e-02,-6.448249204013060433e-03,7.461430967803445689e-03,7.918173819780349731e-02
4.890600948221420219e-01,4.259880704636991311e-01,5.854938847648925027e-01,1.614990751785318757e-01,7.901714752870384051e-02,-2.592497551022961838e-02,3.440248966217041016e-01
3.671596597121851158e-01,6.248401030090677821e-01,5.635782997124069160e-01,2.971737060779792994e-02,-5.686205005539314572e-02,1.433350492291914774e-02,2.594838142395019531e-01
4.415753409652388717e-01,5.287224854503433935e-01,5.384788871188623816e-01,2.695106397445010821e-02,-1.705722426542566339e-02,1.670417803044369279e-02,1.114857345819473267e-01
3.388954681756208287e-01,5.214033809988144474e-01,6.904293548909817835e-01,-1.744773574886168133e-01,8.470454568365952397e-02,1.504417165782504506e-01,5.229505300521850586e-01
3.489365536868154760e-01,7.143593783364849958e-01,4.889893829920690105e-01,2.055413127018571040e-01,-3.482127658944575432e-02,-2.823189638351974312e-02,4.845002591609954834e-01
3.371458073825998047e-01,6.185297891693986028e-01,5.562814563628505349e-01,-2.286821395915512867e-02,-8.082796674879025312e-02,1.371500953818478863e-02,2.954128682613372803e-01
4.651891418049983185e-01,5.062309643949182147e-01,4.880099674525256725e-01,-3.480640720546447717e-03,-2.562692677409118911e-03,-1.111275498510793346e-02,4.117207601666450500e-02
4.063757347541330223e-01,5.821650491776975134e-01,6.105840584034089025e-01,7.323877757649496778e-02,2.179954748901012998e-02,2.163216101982192233e-02,2.358528077602386475e-01
3.838264036823522130e-01,5.586010234960500087e-01,6.096199034108129577e-01,3.370786566406105966e-02,2.425467249307807979e-02,1.202903436552908364e-02,2.183426618576049805e-01
5.362329065104876058e-01,4.862874025364496422e-01,4.898295068938505747e-01,1.158335977318741914e-03,1.141956811971733083e-03,2.166085843223519974e-03,4.849949479103088379e-02
4.755691931716183318e-01,4.754087497597792034e-01,5.211036119846367276e-01,4.536750463886371594e-06,-4.565234132214166310e-03,-5.637314859030440571e-03,4.731360077857971191e-02
4.704573112338573670e-01,4.670554792318296067e-01,5.128994620208832123e-01,-8.805133015721527956e-03,-7.488431046282567442e-03,-1.166065959275094065e-02,5.259300023317337036e-02
4.918159775866887129e-01,4.918400295047709592e-01,5.157885571309888117e-01,1.421596185549624724e-03,-3.158292577705872767e-03,2.051619556909817493e-03,2.495442330837249756e-02
6.308583493072325021e-01,5.287243809328091571e-01,3.747492908034233960e-01,-2.098513959039212395e-03,1.619292803111136011e-03,1.459083475763020554e-01,3.372752368450164795e-01
2.942786108942676560e-01,5.691808916877720836e-01,5.572141852696546049e-01,-4.396703916915560041e-03,-2.221941814330261403e-02,9.855894676641739627e-03,2.724982798099517822e-01
4.134217844627322558e-01,5.273418783108203556e-01,5.500157219559408395e-01,2.449823051281864450e-02,-2.110320141282669322e-03,1.455717862556596583e-02,1.361046731472015381e-01
5.223329995967289641e-01,5.595316915940931057e-01,4.982799309486961037e-01,1.092727655289283534e-01,-6.749865987961575775e-02,8.175380261841000418e-02,2.690685987472534180e-01
5.028040081109194093e-01,5.042543654609568105e-01,5.029045662335221989e-01,1.270585999904751129e-02,-1.520268455806503965e-02,9.957860265830779933e-03,3.843339905142784119e-02
5.189023070958409534e-01,4.495380215454646278e-01,5.512714416386942373e-01,6.387269107088621931e-03,1.092142268865951837e-02,-2.726416411629497584e-03,9.277365356683731079e-02
4.999889627633741784e-01,5.004383009956824280e-01,5.057667833725842943e-01,5.106887638002369743e-03,-4.793852636505525726e-03,6.932952979813999071e-03,1.795467548072338104e-02
5.006528196741086845e-01,4.855879022078041785e-01,5.243122991095120478e-01,4.022970043862453444e-03,-5.757601677668505724e-03,4.466097592655226579e-03,3.675583750009536743e-02
4.147361016531214140e-01,5.374395993249523329e-01,5.518365868548674724e-01,2.520042676351366348e-02,-3.314050698164556791e-03,8.440849729247657321e-03,1.384985893964767456e-01
5.558215588811284968e-01,6.185363856436685293e-01,3.240281506949722057e-01,-7.347145857761209521e-03,1.232227808338463709e-01,8.243954167210668094e-02,3.718878328800201416e-01
4.553463723396425911e-01,4.972695437140842722e-01,5.522047831707317389e-01,2.918010902197529580e-02,-5.994093026945453498e-03,5.872914098881509663e-03,9.921789169311523438e-02
6.469585219512581364e-01,3.538541940461962243e-01,6.364666280359916328e-01,2.091736720141786337e-03,3.546155899118606097e-02,3.817812960086840179e-02,3.018334209918975830e-01
4.700042644803260616e-01,4.665923466935139041e-01,5.228257533699035564e-01,-2.218247460378461929e-03,-3.655307387639650848e-03,-2.604647494647814327e-03,5.529169738292694092e-02
5.498713626822329115e-01,4.087644463180225562e-01,5.214513578329380561e-01,-1.707101734722832418e-03,6.206323267162974604e-03,4.804388198835792684e-02,1.541348099708557129e-01
5.286646743618481636e-01,4.831997903525308002e-01,5.013330843291675665e-01,2.203162651181389022e-03,-4.306930630826009097e-03,4.438211522883797958e-03,4.124012216925621033e-02
5.276485301099718139e-01,5.275962505657358914e-01,3.987771372435417461e-01,-8.965090803007665782e-03,-1.177063183699899804e-02,-9.497962681237634430e-03,1.323952376842498779e-01
5.531746372185070149e-01,3.625890289608858508e-01,5.535733109247551464e-01,1.960865512445974720e-02,-4.627641230032687389e-03,3.395141980149200822e-02,2.026693224906921387e-01
5.555357797182151058e-01,3.897857062948790752e-01,5.493212207218747256e-01,1.778064252391966041e-02,-2.483452658531763984e-03,1.799105716937340199e-02,1.685812473297119141e-01
3.457743553900179956e-01,6.211466710756287091e-01,5.297269548295180375e-01,1.668983218823233139e-01,1.507083480498145056e-01,-8.737430457086525770e-02,4.833425283432006836e-01
4.947736396427218630e-01,5.064589837951114504e-01,4.984436841957348707e-01,1.211991647271302031e-03,7.773106204807920952e-04,3.523901806980176549e-03,1.227207481861114502e-02
6.062674528699183440e-01,2.122411338002992975e-01,5.372988749342386683e-01,1.510253023055979464e-02,2.228791252593869190e-02,1.333314596483336778e-01,4.339865446090698242e-01
5.156313803890667513e-01,4.916790426182919282e-01,5.045064550882545351e-01,3.260732940306743620e-03,-5.585353424960969558e-03,2.931237722526882673e-03,2.413032576441764832e-02
5.868766596099963540e-01,3.996823903702731440e-01,3.822879400890147328e-01,-3.430941856016511693e-02,5.008717517729993629e-02,1.912510448383336337e-01,3.992353677749633789e-01
5.550473149043261278e-01,4.044664820452124609e-01,5.819628302904975570e-01,1.910593422589141818e-02,6.607369860423224946e-03,7.730952302225785333e-02,2.158896923065185547e-01
5.530423344481808501e-01,4.214882493009415865e-01,5.320125821947803146e-01,2.889454591404321850e-03,3.185905913311183352e-03,2.486834975221821620e-02,1.299729943275451660e-01
5.507434215619620987e-01,5.319624817948246376e-01,3.357490244488053333e-01,-5.624504620201128957e-03,-3.925668152896499147e-02,-5.628304533523952047e-02,2.382415384054183960e-01
4.667146478173552215e-01,5.034884524627510904e-01,5.211594578963087976e-01,1.080576250436209376e-02,-7.493183522350425549e-03,1.312541488728685528e-02,5.787895619869232178e-02
5.279860533668671030e-01,4.551711105265907609e-01,5.199173373875872750e-01,-3.381255896179422883e-03,9.954831763755542240e-03,8.208001735149690614e-03,7.289242744445800781e-02
6.182271077919379021e-01,6.104077881838118058e-01,7.739811798760043438e-02,2.292358561654712565e-02,-3.778328850669344929e-02,-1.318965943782954807e-02,5.428713560104370117e-01
5.618431717187799546e-01,5.375731075286146465e-01,3.339479106582676771e-01,1.027853470890511579e-02,3.727673806214766420e-04,-5.127925013081948563e-02,2.349474430084228516e-01
5.410942484488254767e-01,4.541225949410693796e-01,5.169882605318705249e-01,2.783278381557315832e-03,8.553151666521267155e-04,1.097262555501691585e-02,8.022007346153259277e-02
5.640804559186314293e-01,5.459558649283857701e-01,3.757921240867144741e-01,2.528112535424830668e-03,-4.109945020214601091e-03,-1.906986908527813496e-02,1.831097453832626343e-01
5.368674976508354124e-01,6.771514339661677262e-01,2.358421314854718398e-01,1.844344656270498553e-02,-1.233620818320313312e-01,-6.871182144428959748e-02,4.619133174419403076e-01
3.625043618802716305e-01,5.565508448952409815e-01,5.228566155153152595e-01,-9.651198710330202366e-03,-2.996212607201087161e-02,-7.405260335073016523e-03,1.881175935268402100e-01
7.884465462193608332e-01,7.683323604197225265e-01,2.499706739218296447e-01,7.579155873977425073e-02,3.788603170990079844e-02,-6.626933805555795809e-02,5.605745911598205566e-01
5.363631561963735361e-01,4.738010219806436663e-01,4.704319480445167123e-01,6.281375237948390658e-03,4.358763751582119331e-03,-1.251571102110952093e-02,6.914795935153961182e-02
5.746447594216679278e-01,6.351767885037546968e-01,3.230624599195748847e-01,1.361746148228943666e-02,-7.695913547683087830e-02,-5.725158084756642399e-04,3.170362412929534912e-01
5.516309660538576409e-01,5.412698951326551100e-01,4.302983465934189233e-01,1.380851008877361820e-02,-7.951708785013146541e-03,1.718224399481342590e-02,1.233662143349647522e-01
5.637066678406943421e-01,5.426784315435856376e-01,4.113433102825367893e-01,8.526445602395512496e-03,1.051868140916863842e-02,2.018375114984772775e-02,1.490806043148040771e-01
5.474449787914397181e-01,5.360035731461857411e-01,4.230849836764572491e-01,1.018891174901678277e-02,-1.704780547313499133e-03,2.246146969946192715e-02,1.265194565057754517e-01
4.967495554619038578e-01,4.927776418062805863e-01,5.128475043942681832e-01,-5.541075182885388598e-03,4.590882037107005958e-03,5.804343430182869364e-03,2.439815737307071686e-02
5.650902309395677836e-01,5.733814200135333161e-01,3.710941344861523605e-01,1.289569382612076355e-02,3.770113623337012498e-03,2.525409767285007392e-03,1.996806412935256958e-01
4.822640227955277692e-01,5.158094756513222912e-01,5.048137949286666259e-01,-2.758177501384352116e-03,3.233151253792291950e-03,7.639317309301218821e-03,3.326570615172386169e-02
3.901356874076251091e-01,5.577869279513797407e-01,5.386346137045803228e-01,2.336798615724823298e-03,-1.282001323796313000e-02,7.169042853657063910e-03,1.610169708728790283e-01
4.376756026824525359e-01,3.664955534355837652e-01,5.895377614718129156e-01,1.776590349533022362e-01,3.435948259476699629e-02,9.042142079705215926e-03,3.706932365894317627e-01
4.372473631473642319e-01,5.451090858205035472e-01,5.747907844197597260e-01,5.656058605720211407e-02,3.898985015133075299e-02,1.493485851308074680e-02,1.747677028179168701e-01
4.867529976965928595e-01,4.737310604174460593e-01,5.591139503670115030e-01,1.726185376381232650e-02,1.105526490377197607e-02,-5.027162599671752309e-03,8.766040205955505371e-02
4.547858933865112085e-01,4.821209309979189173e-01,5.414919966345664859e-01,-4.771067760655923161e-03,-1.651787258477053827e-03,-7.831210365815342552e-04,7.728746533393859863e-02
3.509418305422010720e-01,5.199580685862382756e-01,5.773691446610192957e-01,1.365013871798866352e-01,5.901511394500977281e-02,-1.019228870730557162e-03,3.285046219825744629e-01
5.057738127784769944e-01,5.058909115214597074e-01,4.952240869438933046e-01,-3.493732734711815519e-03,1.287814698410403918e-03,1.126144025823886579e-03,1.256758905947208405e-02
5.105989735256224460e-01,4.704400130559696636e-01,5.192539191302008028e-01,-4.111288811201595748e-03,1.085475220575145977e-02,2.685369467918108290e-03,4.960889369249343872e-02
4.032991223534291292e-01,5.079997219431897637e-01,6.140694935370419882e-01,1.736746476934126759e-01,3.604664847216242627e-04,4.979615690445500509e-02,3.622797131538391113e-01
4.928343170814183383e-01,4.772596433948230188e-01,5.761626308546792252e-01,7.558714814192556142e-02,-1.644814015865483231e-02,1.289512525063249600e-02,1.641179919242858887e-01
4.891376139716370752e-01,5.460194735449471759e-01,4.629416954132317130e-01,-5.230261117345920245e-03,-2.865120604038061056e-02,-5.343302832696613346e-03,8.967853337526321411e-02
4.928091885471267419e-01,4.881958560472721698e-01,5.190219012787226083e-01,-5.409417605654808989e-04,4.666049962108884119e-03,1.766530973753742666e-03,3.008110634982585907e-02
3.589737014131939574e-01,5.138633905433918070e-01,5.460073899627869709e-01,7.050827318855129588e-02,-3.468683279791260482e-02,2.882391066854093561e-02,2.258739918470382690e-01
4.778367948675512622e-01,5.967799146460999182e-01,5.516940024142289456e-01,-1.299251251786011536e-02,9.544950715444598666e-02,5.443590440008858750e-02,2.180495113134384155e-01
4.604096070757519588e-01,5.565596695095080815e-01,5.053928464270229792e-01,3.644003039346809057e-03,1.493197696595425020e-02,9.886699058530231538e-03,8.913559466600418091e-02
4.228830441260204021e-01,5.447341532084639670e-01,5.402633058259460608e-01,-6.001416696512088325e-03,2.352339789173907292e-02,8.425003855468685826e-03,1.276869177818298340e-01
5.418947715912642016e-01,4.751484657532948352e-01,5.033032421599803463e-01,-8.828780109570836827e-05,3.156945414435489809e-03,4.340766015391762760e-03,5.877909809350967407e-02
4.774189707073081546e-01,5.329469170548849499e-01,5.030102491097769857e-01,-1.152544006606881846e-02,3.142566123819114793e-02,9.937982554011841330e-03,7.729650288820266724e-02
4.141327968406189886e-01,5.883419817043991085e-01,5.585602708392851667e-01,8.637493250796792615e-03,6.150177330036393775e-02,4.438653528055394593e-02,2.086366713047027588e-01
5.546580608115547761e-01,5.576328884944088404e-01,3.608457211431113087e-01,4.727077570997530176e-03,-7.854786953938173999e-03,-1.289675704764650448e-04,1.959612518548965454e-01
5.154689762482690396e-01,4.936955609679739565e-01,4.915897892593716900e-01,2.001266188164561866e-03,-1.117574484009286077e-03,1.873221324896086597e-04,2.324291504919528961e-02
4.805237767497363421e-01,5.597148743943520799e-01,5.074788911984147166e-01,-9.199682629847962239e-04,2.892325402717062580e-02,4.361572243709925696e-03,8.621180802583694458e-02
4.238162610481037706e-01,5.389211985211289635e-01,5.298964394566141323e-01,-8.875996453607395281e-03,2.315794360491928855e-02,2.589370360924239667e-02,1.270766407251358032e-01
4.169630420914507418e-01,5.442045550258365338e-01,5.381224386228449230e-01,-3.713946203736387657e-03,2.034243377470640671e-02,1.088501628638571632e-02,1.307355016469955444e-01
4.027875202507327224e-01,5.482731177742682371e-01,5.015849311370322861e-01,-3.727337419872605272e-03,-2.597620665311224653e-02,-9.239201756575088006e-03,1.373879313468933105e-01
5.416104512379920077e-01,4.380805642456332416e-01,5.120713926307920438e-01,-2.850948395249962818e-03,3.478615418057496612e-03,9.960057296121914774e-03,9.429269284009933472e-02
3.041694751899821636e-01,5.531493824815677529e-01,5.556329759010379954e-01,1.142534690420010136e-02,-2.781102597809217286e-02,1.260986249226925607e-02,2.565239369869232178e-01
3.848344226815111346e-01,5.608472535382609259e-01,5.685585939549122614e-01,1.130024486309163904e-02,-4.696988664854259352e-03,1.110319684882734442e-02,1.822536438703536987e-01
5.288001311077107358e-01,4.800977828752230891e-01,5.022824827098434364e-01,-2.115423054015686411e-03,9.322532363413942730e-03,3.745260093687104771e-03,4.582431167364120483e-02
3.886917177216319130e-01,5.693668590930760498e-01,5.536612989865449252e-01,1.438308087647622788e-02,-8.404725758446507031e-03,9.246939946614874187e-03,1.764698922634124756e-01
5.720223093603626907e-01,5.882193603957533989e-01,3.476574811487326278e-01,-1.149563851079626843e-03,3.988347058019946212e-02,8.213528259043957613e-03,2.433400750160217285e-01
5.271532430170761119e-01,5.441267368105987545e-01,3.791648319116477928e-01,-5.464175940675296272e-03,-1.290675278718904362e-02,-7.074444543991617422e-03,1.594992727041244507e-01
3.705574378814868175e-01,6.168136328232283194e-01,5.993468304174262018e-01,3.432622462720526929e-02,-4.834468459744487023e-02,3.108573455306028882e-02,2.647477388381958008e-01
3.626320247354998250e-01,5.495152889612667790e-01,4.974727513932936662e-01,3.440815905350635973e-02,-9.183996120099389981e-02,2.788087900798234126e-02,2.430955171585083008e-01
4.510921314015452488e-01,5.329205181821692339e-01,5.423006680139343949e-01,4.303774437777088679e-02,-1.291701574420817990e-02,2.357613791246553070e-02,1.235970407724380493e-01
3.877777662185831753e-01,5.435894565542939150e-01,5.588115310657895130e-01,-6.788793352134466711e-05,-2.169097408407335333e-03,2.244951190792805751e-02,1.685432940721511841e-01
4.116253203054665577e-01,5.592007071599706114e-01,5.255668972128516581e-01,1.748977455545193405e-02,-2.499588163127054383e-02,5.236726979225444362e-03,1.442932188510894775e-01
5.402775811198538003e-01,4.607052424107627164e-01,4.580136330269171108e-01,-1.161224178142598353e-02,-9.142216209917494729e-03,-2.892547368817171075e-02,9.858246147632598877e-02
5.330744232508536351e-01,4.844921680413644127e-01,4.893066896331020876e-01,-4.587279052464031479e-04,9.234591690771176047e-04,1.786094654257337115e-03,4.650026559829711914e-02
5.421334164138051914e-01,4.859183281556456735e-01,4.642503111432497720e-01,5.349428708976590799e-03,2.475632454181941802e-03,-4.551297815990913882e-03,7.081022113561630249e-02
5.225289172014527805e-01,4.868868758931623741e-01,4.960985510082288052e-01,-1.544448109302824735e-03,7.142237341344314858e-03,2.719076241888872605e-03,3.477438539266586304e-02
5.343636519844323640e-01,4.818209154414184181e-01,4.406435736285013727e-01,-1.447958820768135112e-02,-4.962235386726646970e-03,-1.197403124379897710e-02,8.805033564567565918e-02
4.922013753759380550e-01,4.943843523663206119e-01,5.067617189542042988e-01,6.112886704626433907e-04,7.422165326347407530e-04,1.184865301594451026e-03,1.385530550032854080e-02
5.384672933883747348e-01,4.719916017128649721e-01,4.375781328443160700e-01,3.760524420039018656e-03,8.731190395321865522e-04,-2.064679371542671449e-02,9.599242359399795532e-02
5.083337818773209227e-01,5.055007292583890699e-01,4.967376125469246673e-01,-8.862602710807293907e-03,1.243163225430704913e-02,1.258422949785859002e-02,3.583304211497306824e-02
5.425288202687487127e-01,4.592845992034866875e-01,4.626665001487691997e-01,-1.917241225219461871e-03,-1.079012441777049041e-03,-1.998275363260818005e-02,8.872409909963607788e-02
5.132142341437958555e-01,4.870729909826860826e-01,5.052523395159104203e-01,-1.224081567287093513e-03,8.905528452208924181e-03,1.601180820808369848e-03,2.808441407978534698e-02
5.414306968441532364e-01,4.744539358608281798e-01,4.680202891229907625e-01,3.486361491965862466e-03,3.414435556068353209e-03,-6.495318885482739141e-03,7.180661708116531372e-02
5.418207433521580185e-01,4.746925435302017937e-01,4.720770589598574651e-01,3.493362286123743912e-03,3.780040296125248590e-03,-1.054569397053921678e-02,7.142633199691772461e-02
4.732617857191223631e-01,5.100962752927348243e-01,5.191572370498114264e-01,-3.271912578998358457e-03,4.079494178298297483e-03,1.197672585428062597e-02,4.780172929167747498e-02
5.404528609431197284e-01,4.704914753563468888e-01,4.716266912552085078e-01,-4.129152777638505755e-04,1.950924733458390525e-03,-1.133252995842560888e-02,7.220575958490371704e-02
7.811447371482689306e-01,2.208646041288231388e-01,5.820820299943232357e-01,6.267682291769800795e-02,3.507165569605984884e-02,-1.066690845239907925e-01,5.400176048278808594e-01
6.009774181714283570e-01,2.039045043842950267e-01,7.254116080173274028e-01,-4.078782659393221516e-02,-3.001481944682831901e-02,-1.069482417198571456e-01,5.143613815307617188e-01
5.878644669261235967e-01,3.877817332209796963e-01,5.912896538840690663e-01,3.141649198545215516e-02,3.184827620725140529e-02,5.250729807382101266e-02,2.345317155122756958e-01
5.643873287346041767e-01,3.163640399003161408e-01,5.664920580912029546e-01,1.268127570272016731e-02,7.903249242561721788e-03,8.058340385600829686e-03,2.508119642734527588e-01
6.125559958736057631e-01,3.283115237173768741e-01,6.160702890526940090e-01,3.705582201083152533e-02,2.344243960491317058e-02,4.999281018156578622e-04,2.959307134151458740e-01
5.726995572977704452e-01,2.932610057798096248e-01,5.622193680635267921e-01,-3.720996194931584788e-02,6.952700948552409388e-03,-3.009065355280529652e-02,2.868488729000091553e-01
5.719402502307220360e-01,2.946269386874322271e-01,5.667910568779016556e-01,-3.642701829495291477e-02,6.586173151879820206e-03,-3.220662400880481419e-02,2.876177430152893066e-01
6.085012232025633905e-01,3.917175187744472709e-01,6.108924747936130828e-01,5.812325439792619813e-02,1.401835297064568144e-02,3.528204010316215306e-02,2.489542663097381592e-01
5.633756875003052000e-01,3.590233926543625609e-01,5.707744068176255903e-01,-3.530194487371698941e-03,1.182195060579060639e-02,-1.949609539992018048e-03,2.092716246843338013e-01
5.054361659700216114e-01,4.977623065756581755e-01,4.965120906280343638e-01,1.120692196171089961e-03,-2.115741586240992792e-03,1.396203340578674361e-03,9.648327715694904327e-03
5.716141174809451497e-01,4.042707165714283235e-01,5.603039714568889273e-01,2.097650196581279936e-02,1.207018026590275968e-02,4.810211292224197098e-03,1.675278395414352417e-01
5.630745138169319652e-01,3.126298563062550606e-01,5.548490295945699424e-01,-1.146105655400998791e-02,9.992299245442185299e-03,2.194533096295916974e-02,2.507360279560089111e-01
5.071748725926593648e-01,4.472458874284147012e-01,5.095239354404741405e-01,-2.542485021686707522e-02,-1.847193693812210907e-02,-2.196793071732860286e-02,9.026879072189331055e-02
5.606743221923929932e-01,4.027971630689916593e-01,5.416044553007002271e-01,-3.415024144233771205e-03,6.372968415174847965e-04,7.448616742981274512e-03,1.499360203742980957e-01
4.951194494962190551e-01,5.110772965283330027e-01,4.960491384509497226e-01,1.290556965632273572e-03,4.000615804642375524e-04,-2.050382001337888900e-03,1.608633995056152344e-02
4.949388884350303108e-01,5.144290027968856371e-01,4.909708420261533757e-01,5.171663358275417101e-03,3.019036881793909707e-03,-2.121886724024956653e-03,2.437287196516990662e-02
4.947523535166910569e-01,5.218805676328904797e-01,4.912423057657713255e-01,3.421638016032759605e-03,1.140979580631530134e-03,3.608664054844228910e-04,2.971364557743072510e-02
5.975244206948456815e-01,4.150422998956095899e-01,6.813035981454180767e-01,7.374873894638803162e-02,5.542474264784540139e-02,2.724407802755762775e-01,5.511906743049621582e-01
4.964092478291332045e-01,5.205787352693888037e-01,4.940898135487717391e-01,5.126683140370040179e-03,7.316424384709938576e-03,-5.305537518780584390e-03,3.113660961389541626e-02
5.283195119513922622e-01,5.561212256821670419e-01,3.867791977898635825e-01,6.646895265197720441e-03,-1.300952064751086448e-02,-3.333460339956722824e-03,1.594217121601104736e-01
5.334532045044945159e-01,4.886257754234657469e-01,4.845753274542085598e-01,8.175212658956071627e-04,-2.011302960179845866e-04,1.466842803607102839e-03,4.707501456141471863e-02
4.756720771419690186e-01,5.156231384012271990e-01,5.056218954716822367e-01,6.515384383424357301e-03,5.190745122615973012e-03,-9.463239302066970421e-03,4.211166873574256897e-02
7.388203561422967969e-01,1.414713716790028664e-01,6.106383922581407608e-01,-8.091168856588698555e-02,7.340929597127754738e-03,2.584945585347511732e-03,5.625911951065063477e-01
7.137309840604495470e-01,2.507600851296484246e-01,7.177935762716891599e-01,9.658793976007300219e-02,1.228261638506972370e-01,9.728925613427123753e-02,5.638098120689392090e-01
5.357590192801977569e-01,4.849165825581148170e-01,4.906272028922990525e-01,-1.059783428695291221e-04,2.516985200881747230e-03,1.923634851933749045e-03,4.855268448591232300e-02
5.972639144617295504e-01,3.501874936912720560e-01,5.739453371599918530e-01,2.123679714358269258e-02,3.675300259309813300e-02,6.311644960742228416e-02,2.705281078815460205e-01
5.583135469549260765e-01,4.372530099971158046e-01,5.344605073986513633e-01,1.348056152170982146e-02,2.423518754564320254e-03,2.212596590142106717e-02,1.198683902621269226e-01
5.844025208692636975e-01,3.151215072896532132e-01,5.869412938649120060e-01,1.322378092582685294e-01,-1.462474387138317823e-02,1.190491934650654005e-01,4.108803272247314453e-01
6.345039497831626019e-01,3.905904258235548543e-01,6.026485286129619201e-01,6.611791109102742314e-02,1.247538288838468540e-02,4.114267184104715425e-02,2.672047913074493408e-01
6.009932562422141133e-01,4.304284334304518400e-01,5.244963116049092822e-01,2.421563499607955194e-02,9.265139971584512857e-03,5.146530857669751047e-02,1.784914731979370117e-01
5.534034787140124090e-01,5.548112757142752427e-01,4.400369833315688761e-01,1.510174828836990946e-02,7.929807384126394409e-02,-1.566034698941606851e-02,1.824774593114852905e-01
5.268422406049438900e-01,4.859157393609019326e-01,4.941538409043725322e-01,-8.452507234630112594e-04,4.106943297123445691e-03,2.044263217993645861e-03,3.835321962833404541e-02
5.497452406637615141e-01,6.089101728188540674e-01,4.589963036771616545e-01,1.805891005066537561e-02,6.678335753017751453e-02,2.282764675329170684e-02,1.817326098680496216e-01
5.581478087891810214e-01,5.645803539679675742e-01,2.935942113279514931e-01,4.887234937703745924e-02,9.849386374155748303e-02,-6.954522312606079004e-02,3.500142693519592285e-01
6.117732586938258166e-01,6.293455503215079627e-01,3.352129887180329004e-01,3.655622947965751768e-02,3.387652606585829507e-02,-7.648895755312623383e-03,2.988002896308898926e-01
5.180270439994308918e-01,5.041188965500611463e-01,4.900737056813415093e-01,-4.578989843872984834e-03,3.059662788711025629e-03,3.287742175018932688e-03,2.663569711148738861e-02
5.882722020019668374e-01,4.295397511517700107e-01,4.943094782616531679e-01,-1.455539143051775598e-02,4.075313848494131752e-02,1.154320132920571146e-01,2.543653547763824463e-01
5.638851081159365064e-01,5.671394097260733513e-01,3.763901065000347934e-01,1.090657924818143505e-02,1.893717894552047337e-02,-3.216676208469041592e-02,2.007783502340316772e-01
5.424184149346967798e-01,5.854784044459405701e-01,3.772995886426117607e-01,3.116697524795077404e-02,4.159262583836017407e-02,-2.974499494279083875e-02,2.167641073465347290e-01
5.261920859725862654e-01,4.853672398082325423e-01,4.896918335067042549e-01,-8.508656809437539856e-04,2.067117220546352708e-03,1.917860002825042681e-03,3.917709365487098694e-02
5.167960432855794872e-01,4.996374525351525153e-01,4.894592255944573700e-01,-6.855056449498363007e-03,3.255194958626442432e-03,4.441881041145821080e-03,2.836569771170616150e-02
4.905340962578161879e-01,4.995806134555301758e-01,5.108693419482019937e-01,3.821273883454797630e-03,-2.263673473654076364e-03,6.501790868490100496e-03,2.230240963399410248e-02
5.000694365469322555e-01,4.994068838176197733e-01,4.993426938262650605e-01,-1.714695338722832356e-03,8.845251568765852279e-04,5.490629315102075201e-04,3.543688915669918060e-03
4.955931998175716613e-01,4.975028618316586493e-01,5.052378694369549228e-01,1.307994858646464734e-03,-2.894055283593972069e-03,1.723169382917101328e-03,1.083584595471620560e-02
5.257114800076938543e-01,4.332091294697270056e-01,5.272843485076899039e-01,-5.583936574333644293e-03,-1.133400999344546037e-02,-3.249528305461698695e-03,9.599610418081283569e-02
4.956548469319976280e-01,4.975779988588559521e-01,5.062145995164701873e-01,-1.496012965189838455e-05,-6.941377845663078069e-04,1.723573849148865101e-03,1.025949046015739441e-02
4.915696771306400370e-01,4.769618512660686038e-01,5.177922475458844875e-01,-3.098787603313290801e-03,6.122099286097816215e-03,1.744234907918514998e-03,3.787402063608169556e-02
5.094084187900064231e-01,4.904781240386720809e-01,4.857793103299268833e-01,9.620142135518171267e-03,-9.050449123758637360e-03,1.135337303914268556e-02,3.714102134108543396e-02
5.147630763585842040e-01,4.868449440720458710e-01,5.015701197050163040e-01,-1.629585007286499330e-03,8.053232902945546903e-03,2.398445288335216731e-03,2.837149053812026978e-02
4.890930235222664124e-01,5.330081653077149983e-01,4.868156929649859466e-01,4.907213982433157725e-04,1.958885860258482558e-03,-6.768741317774485972e-04,4.524758458137512207e-02
5.005484162518702984e-01,5.273984581900253987e-01,4.790286270237457122e-01,7.370215575588428755e-03,3.012424108535918625e-03,-2.276125395930521812e-03,4.435718432068824768e-02
4.836323736558513220e-01,5.172667043519633134e-01,4.498890715856213030e-01,-1.166634713922524991e-02,-1.247725012825003782e-02,-7.967470479013218781e-03,6.686262041330337524e-02
5.115112664659876573e-01,5.478089176848155439e-01,4.011943021805282061e-01,-1.010235349957284458e-02,-2.243560748320072573e-02,-5.961669316086902481e-03,1.393357962369918823e-01
4.859118292426900521e-01,5.487654405256549017e-01,4.520606959623744703e-01,-4.660783351889047355e-03,-2.396396010166365262e-02,-8.570369425128981922e-03,9.608578681945800781e-02
4.839266686119350624e-01,4.871387648472951248e-01,5.178418895993315285e-01,6.681049679704380555e-04,6.490316841933882518e-04,1.799028710372284259e-03,3.261798992753028870e-02
4.654644594031028260e-01,5.225045905665569590e-01,4.719718224511479931e-01,-3.744090443949787787e-03,-4.233714687673000542e-03,-7.127237005800019995e-03,5.632904917001724243e-02
4.623226632076269937e-01,5.313011149538474642e-01,4.785640865298163016e-01,-9.869533678456823486e-03,-2.661637567617433295e-02,-8.894065843710082311e-03,8.097118884325027466e-02
4.859402927887405133e-01,5.203366206076773803e-01,4.634603474673085755e-01,-7.919529007770221771e-03,-4.589306508653474836e-03,-3.629539028063600258e-03,5.246470868587493896e-02
4.721897708877306754e-01,5.316341465744719441e-01,4.728547687304873737e-01,-7.827631818578316067e-03,-9.299716754179808420e-03,-6.179033449701188188e-03,6.365812569856643677e-02
4.985452614180094777e-01,4.991732808957879408e-01,5.007647448683720803e-01,2.431539535530502082e-04,4.264711429307850360e-04,-8.322947437623704826e-05,2.161115873605012894e-03
4.693111071162891501e-01,5.952937463684654373e-01,4.946025327945667294e-01,-6.477876827044560040e-03,8.127338642712532424e-02,1.912945886728758399e-02,1.853774189949035645e-01
4.908236742961140098e-01,5.870285249258178073e-01,4.192281454976778954e-01,9.153505474445337853e-02,1.645847227022029791e-01,-2.983423538188576321e-02,3.610259890556335449e-01
4.134016986466950705e-01,5.196417067344719642e-01,5.194439675730666561e-01,2.856533763691779595e-02,-2.345506716490302832e-02,2.136109610038615728e-02,1.293569356203079224e-01
4.991182237103565789e-01,4.873757164172036194e-01,5.060524981990620619e-01,-1.381944592266704614e-03,5.248815780166345146e-03,1.199358244881088475e-03,1.897607184946537018e-02
5.285677441079639216e-01,4.554569738846662164e-01,4.525055812137336320e-01,-1.015720577996216678e-02,-1.044322498005205609e-02,-2.508628914319821837e-02,8.996848762035369873e-02
5.262101431484832448e-01,4.823930216632345558e-01,4.912489489768289141e-01,-1.964457100132370460e-03,6.806839578734214490e-03,5.905537677057334442e-03,4.319176822900772095e-02
5.236846382941411360e-01,4.872163774168064010e-01,4.967880661562608657e-01,-6.571790828526196532e-03,1.419661177304552303e-02,1.079049778615469475e-02,4.643263667821884155e-02
5.271792396947425630e-01,5.000234380279453550e-01,4.830486269720872250e-01,5.029364157113915229e-05,1.823770987526175148e-03,5.208766057747210750e-03,3.972311690449714661e-02
5.366054209009006870e-01,4.829243451942312748e-01,4.899138701412243391e-01,-3.048688297614561820e-03,3.786197205943869423e-03,6.911215143657225939e-03,5.262594670057296753e-02
5.371560763135453387e-01,4.883618000766710709e-01,4.901611304704722172e-01,-2.959533794759429577e-03,3.777586212947908317e-03,1.174011562209870130e-02,5.271527171134948730e-02
5.183834377542545502e-01,4.908658566039466598e-01,4.781659323421128538e-01,6.549860472492641597e-03,1.927192807768632462e-03,-2.775403342482927506e-03,3.782762587070465088e-02
5.000918362180196697e-01,5.005124547881707464e-01,4.989170418138039742e-01,7.285572787484529333e-04,1.633657079401923135e-04,1.401223779948819882e-04,1.944879768416285515e-03
5.223553735432073797e-01,4.882486446836444838e-01,4.904555040997671811e-01,-6.027975068145010121e-03,8.601548051582122781e-03,9.464363250336935152e-03,4.114076122641563416e-02
5.565378698601186613e-01,5.261778944855469708e-01,3.822861923129330375e-01,7.568206352681884630e-03,7.810764124979747026e-04,3.997947485876553186e-02,1.759654432535171509e-01
5.433442447180298895e-01,4.927522863020379895e-01,4.884131420883653929e-01,-1.686887608533632968e-02,3.519201223810719537e-02,5.627356858262110018e-02,1.298736035823822021e-01
5.561699540348945536e-01,4.828179448657047845e-01,5.083838690669060245e-01,1.100590357321431807e-03,9.154018755621825404e-03,3.473206585494497539e-02,8.962585031986236572e-02
4.600930448856372923e-01,5.223816543622827879e-01,5.158684618447151315e-01,1.558801516936918728e-02,7.068068650235850674e-03,-1.065250164783792912e-02,6.881754100322723389e-02
5.410736669485031181e-01,4.476695770660063523e-01,4.961207468191939918e-01,-2.480336105112525974e-03,4.280652158387005142e-03,1.796260154661443245e-02,8.710738271474838257e-02
4.973391337078036933e-01,5.048231267899802033e-01,4.997098728826594449e-01,1.355334836244345177e-03,4.378413638981719152e-04,-2.000467776173945993e-03,7.872705347836017609e-03
5.382978658139940809e-01,4.750464894349749612e-01,4.766141771734417332e-01,2.790143655673430183e-03,2.305700816932302992e-03,2.511338346026564111e-02,7.638969272375106812e-02
5.310682934025708901e-01,5.402804399084866205e-01,4.102978517301829053e-01,1.055217582785365066e-02,-9.766832132674893238e-03,2.636740913033295067e-03,1.281561255455017090e-01
5.393778516793941158e-01,4.576797077902734490e-01,4.949016498870407732e-01,2.633738489219224210e-03,4.384725913057409968e-04,1.450605325114699522e-02,7.531108707189559937e-02
5.190591203139806042e-01,5.135573505496650037e-01,4.696880445071493493e-01,1.242910360054504462e-02,3.815404692898826961e-03,-3.740157896891806947e-03,5.239494517445564270e-02
5.373702738429519954e-01,4.798974053466225631e-01,5.014217394431165209e-01,-6.168519789225426243e-03,6.471424528426194221e-03,2.713758721187338463e-02,7.055847346782684326e-02
4.788377714343813318e-01,4.732496855336612573e-01,5.352118060290147472e-01,2.333310130882069663e-02,7.547466366710534405e-03,-2.945442155924266059e-03,7.317446172237396240e-02
4.645179320889943897e-01,5.085510217790981669e-01,5.383419434385319224e-01,9.502972024817285535e-03,3.457201146149304054e-03,-1.063254012357649865e-03,6.669607013463973999e-02
5.060605819545390682e-01,4.988855809392069296e-01,4.904170889651650600e-01,5.166952066958990265e-03,1.434032717599853686e-03,-1.484196607026306734e-03,1.663813367486000061e-02
4.872987821223085381e-01,4.949012045656349668e-01,5.367444906275468108e-01,9.758151955127447250e-03,3.594223372645132756e-03,-1.106405023739768807e-03,4.954654350876808167e-02
5.066971820377283997e-01,4.928423955386769806e-01,4.950329796328599707e-01,7.563820760200855135e-04,9.611022027677744960e-04,7.860272302689086648e-04,1.314323768019676208e-02
4.570565980561407948e-01,4.938060950774747493e-01,5.403284918323739694e-01,1.725316610896309236e-02,6.643091720303874112e-04,2.831390671417518407e-03,7.837679982185363770e-02
4.883120668853738189e-01,4.895028933758263645e-01,5.365350618584235898e-01,9.983052925264284533e-03,5.406173713406166835e-03,2.325515139614603086e-03,5.169466510415077209e-02
4.877838612565408294e-01,4.800959269070492752e-01,5.286021619998199084e-01,5.051577111575812629e-03,2.124912375315871332e-03,-2.043762634403395451e-03,4.627827182412147522e-02
4.906998049740152745e-01,4.900773783557827445e-01,5.407052989119847108e-01,1.124922619327781668e-02,2.871770816807831927e-03,-7.048656572976761347e-05,5.418904870748519897e-02
5.285606291253542866e-01,4.002351192207896924e-01,5.243405192130284886e-01,-1.922863767698903409e-02,-1.643913665312337832e-02,-7.718701452740183572e-03,1.343219578266143799e-01
4.947823613198177872e-01,4.912042921099974424e-01,5.342025336136489999e-01,9.717077712198493936e-03,6.218629287873837438e-03,-3.533347954820118420e-03,4.630910605192184448e-02
4.993309580411762205e-01,4.751800177603708319e-01,5.400801505171487493e-01,4.006484574393116664e-03,3.933161237923356486e-03,9.727230515635306709e-04,5.766541138291358948e-02
5.035018395123849189e-01,4.724486358258823682e-01,5.530806806707629919e-01,1.978766824055258611e-02,1.024957116860209308e-02,-2.750360418907430750e-03,8.046399801969528198e-02
5.037544421913603410e-01,4.584034624207635189e-01,5.493298301113175297e-01,1.070067221790378838e-02,2.352338630521231405e-03,-1.126138149626946085e-03,8.102242648601531982e-02
5.735559869306370295e-01,5.736378984859864527e-01,3.762492118427183119e-01,6.820018859567715357e-03,-1.372293139882248703e-03,5.947536904978804363e-03,1.979834288358688354e-01
5.457489516302658217e-01,5.083565259828296545e-01,4.820336755186279687e-01,-2.689911112257764407e-03,1.307762953621972694e-02,2.667267686223336737e-02,7.579205930233001709e-02
5.511581385910040431e-01,5.346819952866415093e-01,4.341051782442164608e-01,-2.218176608572472886e-03,4.509365840720843191e-03,1.202803030901254851e-02,1.120449081063270569e-01
5.067079266738455656e-01,4.177715470211785798e-01,5.655137310541245022e-01,-5.220421824810144579e-02,8.259903536197793494e-03,1.180976308020227974e-02,1.593634486198425293e-01
3.914730855573396173e-01,5.301212787815793304e-01,5.455859733000234524e-01,-1.155916880916338721e-02,-8.463859736852067869e-03,-4.840664395051745388e-03,1.493073403835296631e-01
5.192755750911010049e-01,5.098619749074753127e-01,4.693142805363412218e-01,1.104087874091427141e-02,3.833810435390360045e-03,-3.837816383769615015e-03,5.067953094840049744e-02
4.683124913794867727e-01,5.225597955359956304e-01,4.697732334386028885e-01,-2.125756742087496834e-03,-1.976531835478662937e-03,-3.831476805130944879e-03,5.417545139789581299e-02
5.294103327787382796e-01,5.015583753903903874e-01,4.702758573555708144e-01,1.567097083913861211e-02,1.689052757967226398e-02,-1.885479128053026837e-02,7.269610464572906494e-02
4.763876163518356854e-01,5.078165856635084019e-01,4.807465718611460548e-01,-2.225045323917274227e-03,-1.978516818855425782e-03,-1.721064770699265271e-03,3.008762933313846588e-02
4.851257598720777886e-01,4.510648411731030816e-01,5.343179027836261197e-01,-1.253704315077604041e-02,8.035790534358464715e-03,2.125526825551378972e-03,7.703473418951034546e-02
4.823986666654425659e-01,4.800782638666457047e-01,4.926044384397862963e-01,-1.344943706550621749e-03,-2.283962576599061958e-03,-4.754133344425825330e-03,1.490318682044744492e-02
4.290793434818517826e-01,4.659236398784230571e-01,5.760959093106472473e-01,-4.986704954565208958e-02,1.722478098446349887e-02,1.192371001769251988e-02,1.622695922851562500e-01
4.844065469815129754e-01,4.428054770518924932e-01,5.456640260254647101e-01,-1.517031647261511511e-02,8.571951775912587182e-03,3.868129975026038739e-03,9.480106830596923828e-02
4.641993246892712754e-01,4.793552908390414924e-01,5.381613931565153441e-01,-7.596375746034915097e-03,3.574021273208125536e-03,7.045417788759843029e-03,7.028138637542724609e-02
5.313695137907782362e-01,5.184206654990048957e-01,4.730723434014292295e-01,2.391778418535765727e-02,-4.495657141394813344e-02,6.384602420974200276e-02,1.510621011257171631e-01
4.655809564287534674e-01,5.366060662610387944e-01,4.717826430598886511e-01,-7.104766437402595903e-04,-1.824156229265771903e-03,3.761961685830833666e-05,6.822062283754348755e-02
5.409821248966303342e-01,4.890891047828405669e-01,5.035621166848502916e-01,1.128244997926254253e-02,-7.238956721936229931e-03,1.754115009441147011e-02,6.011214107275009155e-02
4.795386355409372303e-01,4.997834560198167742e-01,4.802784642659522207e-01,-2.150676752363421746e-04,-6.856947906360346540e-04,-3.012076047506279542e-03,2.059586159884929657e-02
5.304565218551822170e-01,4.703946966912931904e-01,4.830665314710160807e-01,1.768887647702021594e-03,3.501991306426896857e-04,-5.995184530952791906e-03,5.589710548520088196e-02
5.348740541558947292e-01,4.993455850636703275e-01,4.536696458137635668e-01,1.442852654209300298e-02,-5.861880700321936595e-03,1.541490957184289343e-02,8.007402718067169189e-02
5.321840473784744674e-01,4.806155143998888102e-01,4.871543566897140742e-01,1.664403269977624954e-03,-1.238791591974220448e-03,8.231544621000333115e-03,5.080414563417434692e-02
5.328058430411339863e-01,4.805010922986063249e-01,4.898427085485964616e-01,3.585010913169516585e-03,-2.426258291766400683e-03,5.984560644385897819e-03,4.998103529214859009e-02
5.244765405379749890e-01,5.047995925704443776e-01,4.868878397156682913e-01,1.216893503444296462e-02,-5.964532311214672776e-03,1.939638420781961484e-02,5.234593525528907776e-02
5.353397009109788218e-01,4.912242112723684828e-01,4.687276728213654042e-01,6.828100473640213129e-03,-4.112975373836448394e-03,1.919071921112412704e-02,6.884901225566864014e-02
5.082430283356546008e-01,5.078128169022844141e-01,4.253766269680196443e-01,-2.778963168684846219e-02,-3.312863964581315435e-02,-3.952068212210133047e-02,1.308676451444625854e-01
4.733821931766030722e-01,4.737369407041137626e-01,5.065737832472806401e-01,-1.674734092225287942e-03,-2.170167245795713833e-03,-5.357312147778889311e-03,3.462193533778190613e-02
5.303923325602656336e-01,4.669886652806242711e-01,4.991246780784491244e-01,4.030171679467527308e-03,-6.119930915824478741e-03,1.164547808272622942e-02,5.985938757658004761e-02
5.400680599412673866e-01,4.233764148597441435e-01,4.984872458683408114e-01,-4.988447986123332317e-03,-3.639281036028658208e-03,-1.049317713065447272e-02,1.045871749520301819e-01
5.233754899170743879e-01,4.913396236005400097e-01,4.890798762677477374e-01,7.517872089643252119e-03,-5.070174675638678026e-03,8.739738762290083854e-03,3.974444046616554260e-02
4.635785595987071961e-01,5.234750512240833320e-01,4.845113413813550429e-01,-3.375064441965451318e-03,-4.441579863480087965e-03,-7.804778322138885942e-03,5.520933493971824646e-02
5.440679626879991737e-01,4.570140966257903448e-01,4.592197509016765489e-01,-2.705609546893966949e-04,-6.937210565051375559e-03,-2.379431592981820845e-02,9.609543532133102417e-02
5.514843422894669667e-01,5.417594475061477954e-01,3.876693922969692285e-01,1.179305142033236151e-03,-1.950035083443362252e-02,-2.436415369197487274e-02,1.681149303913116455e-01
4.665233354197628746e-01,5.332757484561103656e-01,4.604804489063059614e-01,-5.561526214481615424e-03,-4.979412861677608507e-03,-2.960868803398038814e-03,7.133901119232177734e-02
4.540672263689800592e-01,5.429452363640545620e-01,4.812413040090730010e-01,-1.891267243729745449e-04,-5.190619813417497903e-03,-9.007186934048974159e-04,7.940983772277832031e-02
5.217706078746892073e-01,4.966606122602780227e-01,4.940037766787478968e-01,7.140097019622209870e-03,-5.167557932673653293e-03,6.115632595918864788e-03,3.239661455154418945e-02
5.193088983509114298e-01,4.681980395294665365e-01,4.978645089515381095e-01,4.943199117169689433e-03,-7.948789805476063827e-03,1.146961126365428525e-02,5.131911858916282654e-02
4.749866459740426650e-01,5.001835016553377589e-01,5.403991363037803364e-01,4.414624763596448898e-03,1.861170389422871002e-03,4.953261707718532685e-03,5.837764590978622437e-02
4.797928166273893735e-01,4.916271559756302256e-01,5.400671716176524972e-01,7.922544803802993030e-03,1.473301773421990726e-03,4.465715008276881226e-03,5.757066980004310608e-02
4.807112447979536851e-01,4.734375795295779343e-01,5.334667361517608786e-01,2.196812113802325619e-02,-4.885832229280002645e-03,7.042508226034704250e-03,6.991404294967651367e-02
4.579698138071640612e-01,5.015923550488768923e-01,5.313491614022792797e-01,1.063929850422731284e-02,-6.005067096850243320e-03,7.992829593503966365e-03,6.874506175518035889e-02
4.594688749223510005e-01,5.026197668121969997e-01,5.400461879022275813e-01,1.077174323727827718e-02,-5.030122766670726622e-04,8.940384235480866582e-03,7.393484562635421753e-02
5.243274219269571379e-01,4.824600822592241545e-01,4.457059424352609600e-01,-1.206035216800147893e-02,-5.303334464246544679e-03,-9.006122318712166119e-03,7.352960109710693359e-02
5.374634132491589167e-01,4.853664030258769690e-01,4.585254906092286475e-01,-1.318298309897584890e-02,-1.337958983138410121e-02,-2.308858949980364256e-02,8.654782921075820923e-02
5.241163277533384957e-01,4.851834601487025611e-01,4.607567597430795581e-01,-6.941551726492458003e-03,-3.473927734387583649e-03,-4.147949702520294275e-03,5.740914493799209595e-02
5.358589836266897111e-01,4.809853081797481611e-01,4.563055758169257126e-01,-4.610682165871757797e-03,-1.444872390875936476e-03,-5.740398200948828612e-03,7.171730697154998779e-02
5.340002365275062779e-01,4.703860106090810844e-01,4.642822351924720814e-01,-1.763040241152262228e-03,-8.039665469979571629e-04,-2.377422162312479558e-03,6.708601117134094238e-02
5.178114774477857729e-01,4.810488180351354393e-01,4.923316338447380480e-01,2.530265757420882382e-03,1.025542248432746197e-02,-4.669571591155858604e-03,3.826422989368438721e-02
4.515681515716847283e-01,5.026845207609843547e-01,5.021501570061548403e-01,-5.593330108029921470e-03,-5.640536204572514124e-03,-1.493272330423927284e-02,5.868658795952796936e-02
5.300658391615845622e-01,5.538595612052980011e-01,3.805826775854662669e-01,-1.883213860160431606e-04,-1.321249839460773845e-02,-8.642661857699702327e-03,1.649727821350097656e-01
5.169321199767741293e-01,4.843778517004484474e-01,4.633091109206401437e-01,-9.116457160137876603e-03,-4.577457306673876451e-03,-3.264588394007332962e-03,5.033598095178604126e-02
4.872663912992752366e-01,4.862401694341127456e-01,4.858189359008626140e-01,-7.426230884838352843e-05,-9.203699145101598570e-04,-1.360681571642096647e-04,2.067892346531152725e-03
5.520886271877274432e-01,5.309248827571914076e-01,3.939511890748141343e-01,-2.103254923359871350e-03,-7.736779153436307982e-03,-1.268561663186087637e-02,1.509443372488021851e-01
4.993298944109009208e-01,4.803092177001387353e-01,4.793690344909872780e-01,-6.827550783375676766e-03,-8.225612040060861080e-03,-7.416379001315010454e-03,2.980586327612400055e-02
4.893279127567871090e-01,4.923576384475486512e-01,4.704507243691685159e-01,-1.727081838670190689e-02,-1.449134558686022457e-02,-1.650548791968396017e-02,5.258188396692276001e-02
4.904097335801247959e-01,4.970403924750845248e-01,4.793443934911118531e-01,-1.120095874408393553e-02,-1.017568248865896932e-02,-1.007135704600145912e-02,3.508692979812622070e-02
4.987139637108734536e-01,4.743754453635058987e-01,4.670797894574619802e-01,-1.398553081288725353e-02,-1.584068951744485240e-02,-1.404635889973562465e-02,5.248450860381126404e-02
4.653329808721187177e-01,4.810079193414918963e-01,5.655922022888856260e-01,-5.679670072622235860e-02,-1.739880591948367652e-02,-2.056278448407787909e-02,1.434583365917205811e-01
5.136589702068450336e-01,5.090067333646445258e-01,4.299792093503485568e-01,-1.781162137977559262e-02,-1.299601502491438618e-02,-8.575468463875699290e-03,9.117957204580307007e-02
4.749983026992070090e-01,4.672273148593830139e-01,5.239528369523120954e-01,-2.933119003698866824e-03,-1.171820351799341894e-03,-2.693446107169915251e-03,5.374990776181221008e-02
4.947139177444164759e-01,5.215971287914747956e-01,4.912655322773927247e-01,5.801719584227990958e-03,9.880582660657702757e-03,-4.584854848083065766e-03,3.583604842424392700e-02
4.701502458205459867e-01,5.300950277530466215e-01,4.970532310989876912e-01,4.459487250108693131e-03,1.125635071555379681e-02,-6.234503140185509648e-03,5.710374936461448669e-02
4.999107968485581588e-01,4.808400795077412693e-01,4.847337940494532704e-01,-7.993065954988368485e-03,-6.349715939734208552e-03,-7.315870210124191843e-03,2.788883633911609650e-02
5.226148587026222536e-01,4.689198516171592668e-01,4.698101236064086694e-01,-2.215405738397206378e-03,-2.013454391181060225e-03,-5.905745660081739923e-04,5.351705849170684814e-02
4.785255496342810111e-01,5.349140632283801988e-01,5.007156388445370698e-01,1.427704809375466080e-03,3.655943152986639456e-03,-1.850351258379911079e-03,4.977230727672576904e-02
4.686431798734698173e-01,4.698663290528345970e-01,5.236149589019019057e-01,-1.536215304879509072e-03,-2.703032908883476037e-03,-1.192258721796972528e-03,5.467556416988372803e-02
5.051634220586499469e-01,5.212916419136988111e-01,4.923949976412806961e-01,1.256754284585242382e-02,1.703560707619227940e-02,-6.621307859028790696e-03,4.588108882308006287e-02
4.715289089578953985e-01,5.234160644552464658e-01,5.200395805912059188e-01,1.729397066770616692e-02,3.282904383724347813e-02,-1.160542876202803886e-02,8.404178917407989502e-02
4.948006271500302589e-01,5.195317228967639700e-01,4.852109400182372245e-01,5.338440330724542222e-03,3.547554939189186563e-03,-2.575912742040584007e-03,3.292280063033103943e-02
4.752248004673508275e-01,5.335411967331673555e-01,5.004008960577611687e-01,1.412950583124805183e-02,2.331947415889258635e-02,-4.410005821116933823e-03,6.967873126268386841e-02
5.157673999561790401e-01,4.726239736142526238e-01,4.749412461304191035e-01,-1.507567171042183260e-03,-4.151198023376608849e-03,-1.566775069894692533e-03,4.280922561883926392e-02
4.803384189505593427e-01,5.317221662941191695e-01,4.765274876140195293e-01,1.279592521743764394e-02,2.306709067389902529e-02,-6.915659714149050008e-03,7.128527760505676270e-02
4.227244315591234258e-01,5.330454734644417547e-01,4.961339323892095532e-01,3.616064855924385618e-02,-3.875410065527468834e-02,2.922816253854615062e-02,1.430117040872573853e-01
4.729710426494738162e-01,5.021826097238113462e-01,4.435229066568337486e-01,-2.359221162480933803e-02,-3.225095701936654680e-02,-2.263189254645938883e-02,9.437951445579528809e-02
4.913263678274045199e-01,4.916624100764825922e-01,4.709405667425216047e-01,-8.125652323852873907e-03,-5.652495566086473272e-03,-3.682450084704316350e-03,2.751647494733333588e-02
4.775651190357058096e-01,5.337827260532027607e-01,4.699939961955770240e-01,4.615359788776398665e-03,-4.399871778499361841e-03,1.020533174386601630e-03,6.138792634010314941e-02
5.087677431508144110e-01,5.314512505669189979e-01,4.399514592370162291e-01,1.808386942970485398e-02,-1.773407275550739279e-02,1.128221623539244801e-02,9.548640251159667969e-02
4.853677637976662185e-01,4.859221189796424922e-01,4.853157267881915149e-01,-1.958122296042775438e-03,-5.840217738410743336e-04,-4.904075174836364497e-04,3.685964737087488174e-03
5.128385858082216142e-01,5.389376235389364833e-01,4.368123525541106056e-01,1.329589638574455064e-02,-1.216048618675194710e-02,3.051948695795300790e-03,9.719710797071456909e-02
4.820474545903740693e-01,5.350510334119366052e-01,4.596565002171653092e-01,4.808714831502431536e-03,-2.180916977351053665e-02,4.310410999785894461e-03,7.777895033359527588e-02
4.645321066795200515e-01,5.337567121162493100e-01,4.785009396167586027e-01,2.585873426424898681e-03,-5.653952428608046039e-03,4.775489004390206897e-03,6.484261900186538696e-02
4.977044414984335696e-01,5.496394657645508053e-01,4.547571049117281605e-01,5.802143669385396128e-03,-2.741201215258491988e-02,6.191352900205179290e-03,9.613760560750961304e-02
5.137627313507906468e-01,5.475555929119415577e-01,4.127809633916808552e-01,1.007044380768487221e-02,-2.043861882965312959e-02,3.046197982933869768e-03,1.278163939714431763e-01
4.166041198810492840e-01,5.545307267989311173e-01,5.634077229369465201e-01,2.850800349207885387e-02,3.145840177464762771e-02,4.569505851617647676e-03,1.606131345033645630e-01
3.885600428172973908e-01,5.595086321268263330e-01,5.317299216570392506e-01,2.352704919587262841e-03,-7.983060767079427911e-03,1.489035682080844941e-02,1.616146862506866455e-01
5.065677224665627865e-01,4.708714262240787929e-01,4.760229384928809648e-01,-3.437087297142769286e-03,-7.365842916178490761e-03,-6.658222648147808093e-03,3.805360943078994751e-02
4.886871402110464224e-01,4.832962141408938539e-01,4.870727560915150689e-01,-1.637902255112929587e-03,-3.043526780973066555e-03,-1.956956091571433742e-03,8.384012617170810699e-03
3.722583518585428353e-01,5.571538907422972642e-01,5.479687458113493559e-01,-1.622140041504509028e-03,-2.129672730122156993e-02,2.994021864414926713e-03,1.843037456274032593e-01
3.154544550368638678e-01,5.527472196003431204e-01,5.281280049279266642e-01,-3.454887301368204933e-02,-6.203512897064622500e-02,-7.923280650132652134e-03,2.576553523540496826e-01
3.548193937583445923e-01,5.578151542099116789e-01,5.819212922389511711e-01,-7.489475749845292407e-02,-9.240951113316091259e-02,-2.581357093025084606e-02,3.018726110458374023e-01
3.424441288928324334e-01,5.595820441131248435e-01,5.553555646854380079e-01,-1.008393432367253768e-02,-1.856523251669430288e-02,-1.493452974595098348e-03,2.181622385978698730e-01
4.811525290462360660e-01,4.938550026321880670e-01,4.811114562541318196e-01,-3.673447096581229816e-03,-1.069995177728392784e-03,-1.553742747539478336e-03,1.459574978798627853e-02
3.492045629667731577e-01,5.627694465821739822e-01,5.373708972410305984e-01,8.739142536149343762e-03,-4.951064101855008615e-02,6.658016284113154985e-03,2.203334420919418335e-01
4.869031343029194270e-01,5.164527329611638962e-01,4.509816510297611214e-01,-1.314587889898040200e-02,-8.477489349725935222e-03,-1.289813978060612432e-02,6.676921993494033813e-02
4.379448385330180216e-01,4.827639918781369555e-01,5.311738776292179720e-01,-1.021841722999020270e-02,-5.851759761793738114e-03,-1.343035998184626857e-02,8.648158609867095947e-02
4.732843111800157931e-01,4.737410845605891097e-01,5.312800646785722503e-01,-9.431047793085841485e-03,-7.979020244745008844e-03,-8.034649495772049760e-03,6.315631419420242310e-02
4.718673946254375307e-01,4.679347595052637532e-01,5.185079204867669711e-01,-5.833682042604284440e-03,-7.384029104857556085e-03,-3.851792760881795653e-03,5.181119963526725769e-02
4.462161253616370171e-01,4.828163392844632140e-01,5.240603284131937212e-01,-9.240946599974987977e-03,-4.969229062719719529e-03,-1.197286821464031009e-02,7.287314534187316895e-02
4.545176813602275767e-01,4.802667526219472349e-01,5.301504008628973308e-01,-4.073451364907874385e-03,-3.236085001661247185e-03,-9.350664385163321227e-03,6.913284957408905029e-02
4.373452926641753780e-01,4.793550920034419516e-01,5.285187915318506624e-01,-1.128169949689222795e-02,-4.784823124472160558e-03,-1.094819790646878351e-02,8.400805294513702393e-02
4.601740542994121608e-01,4.557613006561750946e-01,5.536591436423838886e-01,-2.390999929463150792e-02,2.856253744357113711e-03,-1.849236414493344357e-03,1.045048236846923828e-01
4.872176461421466320e-01,4.602318462229001428e-01,5.343262506019597069e-01,-2.298114367232215183e-02,-1.201989168807449104e-02,-1.406556849226953988e-02,8.264423906803131104e-02
4.723582810997155601e-01,4.737909023466433944e-01,5.188890063349569370e-01,-1.007166449102033824e-02,-7.529246439730217372e-03,-7.632832893008678274e-03,5.243724212050437927e-02
4.939877589140264091e-01,4.865462090270726847e-01,5.265352061484991353e-01,2.194694990689364817e-03,2.146943952993302877e-03,-5.932527377711217060e-04,3.723238408565521240e-02
5.286115549373356925e-01,3.323312569571111874e-01,5.709491417812615488e-01,-8.279854772226311055e-02,-4.878236769677555401e-02,-5.298629847035170315e-02,2.911306619644165039e-01
5.625236306266306885e-01,3.959735797568466609e-01,5.260166820321815484e-01,2.349914317129146984e-03,-5.154886471562916336e-03,-1.569427846728720793e-02,1.543588638305664062e-01
5.670569467046415735e-01,3.697697332175323703e-01,5.532111429261303837e-01,-9.638199155888026518e-03,-3.026906218294204542e-03,-1.844068406820177988e-02,1.941872835159301758e-01
5.354754337261790065e-01,4.076886545269706730e-01,5.140284939535231246e-01,-1.279882968087705727e-02,-1.326668238861875883e-02,-2.050086769474440684e-02,1.277853548526763916e-01
5.041132334040322460e-01,5.279769729195350481e-01,5.057289464963781178e-01,5.148065858873666217e-02,7.947124342545668074e-02,-2.355239383071808246e-02,1.705739945173263550e-01
4.876226584036287282e-01,5.266777159719451262e-01,4.999790337099386806e-01,2.979458883853639949e-03,3.273748182645876224e-03,-7.143763195493110438e-03,3.751376271247863770e-02
4.937105579543225597e-01,5.263727091237596634e-01,4.908382625030435209e-01,7.591229375975423223e-03,7.501849463668446190e-03,-4.881394141951633445e-03,3.977535665035247803e-02
5.032479725624703359e-01,5.149135505121927858e-01,4.861808309281653862e-01,7.809177470633386908e-03,1.565541174540823572e-03,-1.074548261806408406e-03,2.863978967070579529e-02
4.880838051935875166e-01,5.876890632992211039e-01,4.523003138093407705e-01,2.243307817394477044e-02,4.986826149379004758e-02,7.525267006238328844e-03,1.546157747507095337e-01
5.368419903529321191e-01,4.916728341281372816e-01,4.683646837614666714e-01,9.451006133129491449e-03,1.948228883345899448e-03,-3.221851789998851461e-03,6.282375752925872803e-02
4.548956565899477944e-01,5.404382231237380152e-01,4.912026794781489958e-01,2.758788513493637667e-03,1.479271463931653222e-02,9.578628798507789026e-04,7.881619781255722046e-02
5.923248989985810953e-01,5.676625780178099490e-01,3.584497805260139502e-01,-3.144697055746843890e-03,-5.013855470553057027e-04,-5.878158157497714864e-02,2.448145002126693726e-01
4.931046746835271444e-01,5.333323866633452592e-01,4.786577506308987706e-01,8.287100271839358684e-03,7.051146634655744080e-03,-2.077779913042426905e-03,5.269046127796173096e-02
5.225149953105677758e-01,4.254743964346733298e-01,4.732045799076531334e-01,-2.913570247084020653e-02,-2.755762426049040981e-02,-4.135025856052271936e-02,1.304520964622497559e-01
4.983569184131430019e-01,4.950691463745784948e-01,5.214482836838734148e-01,5.750915403529590492e-03,7.501033763374179673e-03,-5.815116466577330973e-03,3.145476430654525757e-02
4.125601567793357183e-01,5.492881913590914600e-01,5.485114178266070617e-01,4.704526389799909905e-03,8.580266567002319683e-03,7.188036779218229082e-03,1.379536688327789307e-01
5.430420084135707537e-01,4.765679947465452648e-01,4.517790142138791709e-01,2.413126153594078241e-03,-1.213049724058001605e-03,-1.130357553302076962e-02,8.418020606040954590e-02
5.256541980793293378e-01,5.018822492422199133e-01,4.458325407774674787e-01,-1.217761320797355884e-02,-4.847536572201132342e-03,-7.356382523442096810e-03,7.560961693525314331e-02
5.083931579600422523e-01,4.931568544384886121e-01,4.695575741628452704e-01,-7.051767921822795632e-03,-4.017914826155342088e-03,-4.036770528198271868e-03,3.735152631998062134e-02
4.928241274460652965e-01,4.892018233658380622e-01,5.312239601269701517e-01,7.575747644887646619e-03,6.505435795289201198e-03,-2.816514658058869979e-03,4.415541142225265503e-02
4.917112077458603570e-01,4.797750369761537015e-01,5.301205857844646374e-01,7.384698713662999660e-03,6.504789897788586933e-03,-1.770123271472374494e-03,4.874578490853309631e-02
4.921492313302379129e-01,4.836629318970612768e-01,5.209120371764421886e-01,6.452726213758207090e-03,6.544834012355524831e-03,-2.018791474923185662e-03,3.753731772303581238e-02
5.021384712501724135e-01,4.664764113021407921e-01,5.189604395871868503e-01,8.762689018822811954e-03,1.233325036939534811e-02,-5.599398752023431597e-03,5.417940765619277954e-02
4.347060327628974874e-01,5.199158766702797196e-01,5.401393476653590930e-01,4.380690562837625396e-02,2.183323743735983077e-02,-9.427874264698309428e-03,1.297952383756637573e-01
5.234781920505791053e-01,4.801948719334189208e-01,4.601575045438189848e-01,-9.229452334134646135e-03,-3.500955514047209786e-03,-5.039039689733440866e-03,5.925132706761360168e-02
5.130123623603933813e-01,4.707785792190651852e-01,5.199975795918725385e-01,-4.230162389972765002e-03,1.211514368014981677e-02,2.658536948886815448e-03,5.140733718872070312e-02
4.889547437685354825e-01,4.889015392378292524e-01,5.238773365015816363e-01,3.965841129191639489e-03,2.547775284425524318e-03,-4.552450755351447609e-03,3.674615547060966492e-02
4.535875460735563358e-01,4.870467545169607781e-01,5.339894985195788868e-01,2.136807059160993408e-02,2.129155303191306459e-03,-7.076461817025528865e-04,7.923819869756698608e-02
4.858325189545024125e-01,4.878609451810200226e-01,5.372947308620410478e-01,6.887354266428251034e-03,4.312075495051959778e-03,4.740722584463074023e-04,5.241039767861366272e-02
5.407846196388553794e-01,5.473655577969157582e-01,3.977160116794865585e-01,-7.059982472671008907e-04,6.735133152872448126e-03,-4.972641573027435048e-04,1.469414383172988892e-01
5.627327622779110250e-01,3.429803328967813703e-01,5.393643456826143767e-01,-2.111665752694264625e-02,4.309389390775193729e-03,-4.775656635183955778e-02,2.278979271650314331e-01
5.132960067014959993e-01,4.801545350376875687e-01,4.773460698972909477e-01,-8.100740682109865490e-03,-7.396044764549009227e-03,-7.563182363265210338e-03,4.161606729030609131e-02
5.244782700814319965e-01,5.057607985822207830e-01,4.461350989183819338e-01,-1.107390136955633576e-02,-5.477139379070823134e-03,-5.753284909366013916e-03,7.469137758016586304e-02
5.757874169913698159e-01,3.197833183335838658e-01,5.712312899073299644e-01,4.088074978580153243e-03,1.401526638354807890e-02,1.374155822926360904e-03,2.550246119499206543e-01
6.141331062015444875e-01,3.459163781445577790e-01,5.897359800919371731e-01,-3.900545175179389451e-02,-1.027353762424131414e-02,-8.575846200215712922e-02,3.048543334007263184e-01
5.005342565765689145e-01,4.433093624863522764e-01,5.276301104203073855e-01,-7.419967169444970610e-03,-1.187864074517090522e-02,-5.356042978889121765e-03,7.895547151565551758e-02
5.557295847449486015e-01,3.645778493170286350e-01,5.716902073098686365e-01,-7.458347191143788885e-03,5.677712079409427508e-03,-2.247137868024595524e-03,2.003081738948822021e-01
5.011119935541457071e-01,4.699255863643940767e-01,4.923187118372230331e-01,-1.214243301408549428e-02,-1.225917124941710776e-02,-1.604316462205111066e-02,4.940658062696456909e-02
5.467819401253988243e-01,3.860804836222735958e-01,5.453699087976299209e-01,-2.068650868483627031e-02,-5.927250064998054041e-03,-1.859968702400542975e-02,1.674128770828247070e-01
5.041491011305749836e-01,5.033574490234047349e-01,4.437405079226918736e-01,-1.360560068257359902e-02,-6.449591798958990291e-03,-5.916139077258147742e-03,6.623543798923492432e-02
4.874994199240925141e-01,4.886548616299797310e-01,4.857917502950918065e-01,3.182610280696827164e-07,-9.910739205660258361e-04,-1.045634449747637066e-03,3.528601722791790962e-03
4.845505618436535822e-01,4.885016398073588895e-01,4.819000964814470489e-01,-3.694292611778133856e-03,-2.028899710306170025e-03,-2.669920626208093731e-03,1.038201805204153061e-02
5.307981132688250892e-01,4.711998596792253413e-01,4.605328503994176037e-01,-8.159005948070962438e-03,-4.742882710239113529e-03,-9.183554334988068557e-03,6.943830102682113647e-02
4.738399179208691581e-01,5.066181451036334549e-01,4.766630529198651600e-01,-5.548592042697960379e-03,-2.695678009716221714e-03,-2.294218145746226498e-03,3.346335142850875854e-02
4.805043918880329001e-01,4.576207722472716566e-01,5.373597913915769686e-01,-4.248191736742495256e-03,-7.982433870259200356e-03,-1.233700874926244202e-03,7.284997403621673584e-02
4.900061775104502249e-01,4.923223274515512449e-01,4.790278169759266125e-01,-6.915376259759255760e-03,-2.213475724059906988e-03,-2.654486721958458900e-03,1.818298920989036560e-02
4.900115438424954561e-01,5.070077573411129190e-01,4.647886665559442521e-01,-7.127129803765724393e-03,-6.427042513848523625e-03,-5.099587732600040571e-03,4.132897406816482544e-02
4.859696286319177827e-01,4.746951700852030664e-01,4.973800217074847430e-01,-4.654757725139372845e-03,-7.782035011522837886e-03,-3.951356004529379962e-03,2.606677263975143433e-02
4.855232549969111244e-01,4.886714252605169340e-01,4.879383269400817680e-01,-1.050915456557003280e-03,-1.070022666527639405e-03,3.453911989635196206e-07,3.858575830236077309e-03
5.131083312407083152e-01,4.964374363311760407e-01,4.918522086780223734e-01,5.765954039049262306e-03,6.251066406068188190e-03,-4.129290054690479446e-03,2.536734566092491150e-02
4.785072026622709807e-01,4.804831413186497202e-01,5.007300220527630685e-01,-7.235252391050810399e-04,-1.355432334483213427e-03,-4.048792150167217045e-03,2.258555591106414795e-02
4.798720904607398086e-01,4.830958369549510634e-01,4.943765180905894674e-01,1.378813892508150502e-03,-1.840481815640986323e-03,-1.376838854825818224e-03,1.398445293307304382e-02
4.862559063396691972e-01,4.908629733624192415e-01,5.305537285665961056e-01,7.849159402197143295e-03,1.750117370865189939e-03,-5.232939418067977626e-03,4.533879831433296204e-02
5.040446213915155127e-01,5.295785507449385365e-01,4.796401232284989158e-01,9.630865384290827197e-03,3.066380721721313415e-03,-2.241728920489656409e-03,4.682145640254020691e-02
4.849090799095935322e-01,4.894104173256786372e-01,5.261073002340015403e-01,6.753764548872794211e-03,3.461268808844743337e-03,-3.187747105990187003e-03,4.165782779455184937e-02
4.135835140333455895e-01,5.606197968515425067e-01,5.458303210151234097e-01,4.932133012487217860e-03,8.644327420488606001e-03,3.657324489899708899e-03,1.414251923561096191e-01
4.785891384936541981e-01,4.956749709435366302e-01,4.840127178974030220e-01,-2.983316764447760481e-03,-3.503574024887854983e-03,-6.218994601672550582e-03,2.020464837551116943e-02
4.911624700887504136e-01,4.917449198104102970e-01,5.200319933975668940e-01,5.582233715232455974e-04,1.246779527800817317e-03,-2.459215453045011934e-03,2.899508550763130188e-02
4.936946872477413484e-01,4.814853807915704942e-01,5.331132007351334634e-01,6.413613238167460012e-03,6.217620653849668944e-03,-9.249975302252668981e-04,4.925551265478134155e-02
4.934420718382463433e-01,4.826574186431561997e-01,5.270253182972183259e-01,5.806446850819118981e-03,6.542689319312131394e-03,-2.399784477174534119e-03,4.304844513535499573e-02
5.165070669664828529e-01,5.535137803807164136e-01,6.045949882620514915e-01,-4.795992098078648291e-02,2.245867634601576290e-01,1.751280934034147030e-01,5.060600638389587402e-01
5.189080682436369996e-01,5.181038675542009031e-01,4.645930847030417254e-01,-8.484311992820304724e-03,4.264536164784189093e-03,5.801245248911864223e-03,5.725868418812751770e-02
3.083676878015855216e-01,3.772823736641882086e-01,6.229141661730359658e-01,-2.260405978286090245e-01,-2.909714678851770681e-02,-2.203410798790422093e-02,4.891741573810577393e-01
4.581647888130140900e-01,4.909427052736292652e-01,5.079728229702853426e-01,-2.402709015222088615e-02,2.184891474283853774e-02,1.919823952618426866e-02,7.869163900613784790e-02
4.289155204573624758e-01,5.418749168772201141e-01,5.371676476609866802e-01,6.667031229356731870e-03,-7.104729751990065435e-03,1.158385683955035460e-02,1.137435287237167358e-01
5.204175338896975811e-01,4.860679897839893515e-01,5.087233835650590841e-01,-1.073731614779150842e-02,1.342958463105641854e-02,1.529134014034187403e-02,5.003360658884048462e-02
4.887240213821641976e-01,5.213947874401150262e-01,5.132819944948644464e-01,-3.710818228869513461e-03,1.840087270468776862e-02,1.569420606472541821e-02,5.161546543240547180e-02
5.182698386988372485e-01,5.281021515195556404e-01,4.513221286447598457e-01,1.185300425564907688e-02,4.916844180576030766e-03,-3.095843530412153901e-03,7.589256018400192261e-02
5.027924728571117052e-01,5.283350346320903057e-01,4.754027682977507996e-01,-7.152810632850106418e-03,1.280861580113142398e-02,9.821289554988258882e-03,5.511138588190078735e-02
4.766663403930964105e-01,5.336890448908189200e-01,4.887406225666232618e-01,-2.084849976451134956e-03,9.778661769990452599e-03,3.462782923578280013e-03,5.517923459410667419e-02
4.490430216131194863e-01,5.171793378465023849e-01,5.515606069782542642e-01,8.935434323962286596e-03,-4.988849117555235139e-04,9.073857256674667041e-03,9.302967041730880737e-02
2.341121168625179272e-01,7.621147046944420911e-01,7.748167471946320051e-01,9.871985131421018300e-02,8.615794295217862886e-02,7.708943127810378992e-02,5.958099961280822754e-01
4.919946748906796619e-01,5.249683428945082220e-01,4.875075390209386850e-01,-5.552890485652906341e-03,3.719644837818599468e-03,3.776269478237792750e-03,3.784370794892311096e-02
4.978313121923951812e-01,5.142508011784382438e-01,4.866189637688485559e-01,-7.670893345544499940e-03,5.376938369998191317e-03,5.176658357132993098e-03,3.038211725652217865e-02
4.982010283208651580e-01,5.283765560523179250e-01,4.872664730321237259e-01,-1.779214509265430923e-03,3.276189348290941324e-03,3.105800001179247812e-03,3.782483190298080444e-02
4.778110816671258809e-01,5.284957618111690847e-01,4.928838580608216891e-01,-4.854893576296160848e-03,6.852136826590258904e-03,6.427534515046096422e-03,4.865872487425804138e-02
5.113767677615844720e-01,4.869475203014504983e-01,4.501253860141300467e-01,-1.335100536091640873e-02,-7.947416164248608320e-03,-7.790744070611046145e-03,6.130672246217727661e-02
5.164964209268945172e-01,5.499432526232760354e-01,4.461671868762825954e-01,3.464135062844023952e-03,1.022810170533331939e-02,2.267733683149071675e-03,9.371473640203475952e-02
5.081509262680152794e-01,4.945011980698280629e-01,4.647929960008203021e-01,-1.644149297149307895e-02,-1.115296772992561969e-02,-1.531428218534565747e-02,5.798376724123954773e-02
5.359571403684252333e-01,4.740734180316938939e-01,4.994046435347005986e-01,1.147182206506148182e-03,-7.653648763141686221e-04,5.066014939994312183e-03,5.464773252606391907e-02
5.044998860926561690e-01,5.232780649796998640e-01,4.412359334095738439e-01,-1.273742078460436342e-02,-8.274252415424274143e-03,-5.626591056712818700e-03,7.956142723560333252e-02
5.575882609565872006e-01,5.311827388371186398e-01,3.930797820269187337e-01,5.674220984372722876e-03,-1.616693052879994647e-03,-1.312418039328613548e-02,1.550403833389282227e-01
5.072330748588123051e-01,4.789109443940932076e-01,4.714023697991189255e-01,-8.128872598746693379e-03,-3.505379820971948283e-03,-4.025279839984007360e-03,3.680880367755889893e-02
4.933782740460139760e-01,4.948893149566209182e-01,4.796248823091299740e-01,-4.519438422709496500e-03,-1.760974640414537376e-03,-2.330912110998408469e-03,1.729449257254600525e-02
5.130731139044403255e-01,4.843540116287143871e-01,4.629915632256267899e-01,-9.159244691933667026e-03,-3.562567164554629462e-03,-2.956992724698260903e-03,4.701737686991691589e-02
4.750538393266248161e-01,5.060011258376454490e-01,4.687788992325453430e-01,-7.955675315243337237e-03,-5.602896306327610418e-03,-4.566347267910221899e-03,3.921622037887573242e-02
5.005314488061641809e-01,4.798798360377021233e-01,4.779899108648260619e-01,-8.862102112137663912e-03,-8.134230707068311125e-03,-8.885441827803073483e-03,3.376465290784835815e-02
4.066355511534593958e-01,5.095091321503540938e-01,5.562367871784512641e-01,-2.096423834942187647e-02,-2.312379246853061687e-03,-7.063145768906937960e-03,1.380496025085449219e-01
4.857173321512098241e-01,5.230098337860815683e-01,4.587792290154129038e-01,-7.273477637103077306e-03,-5.224456948975655587e-03,-2.762124069218050478e-03,5.817615240812301636e-02
4.843769862670197490e-01,4.640094680541539396e-01,5.462631749272791604e-01,-2.740351104638646257e-02,-4.012134561290459089e-03,-2.109220577354099183e-03,8.842906355857849121e-02
4.832278974735048083e-01,4.654081809415048232e-01,5.074030558768570787e-01,-3.246981941419971405e-03,-8.496937201817258631e-03,-3.297910844808891063e-03,4.016996547579765320e-02
4.524327938438482688e-01,4.854099811521928043e-01,5.533313651309712533e-01,-2.852768364991772193e-02,-3.425169017577618658e-03,-3.704065814428465948e-03,1.022668406367301941e-01
4.800933735952678805e-01,4.618701504454528206e-01,5.321548245360910867e-01,-2.909252269487161511e-03,-3.953095020317305350e-03,-4.319804651381169819e-04,6.374981999397277832e-02
4.646809239965442595e-01,5.384177032032699817e-01,4.756314946094616913e-01,4.021144837943310159e-03,-7.105306015839723231e-03,4.004336675496732167e-03,7.069396972656250000e-02
4.395382810617435299e-01,4.826852723540681622e-01,5.404806719489849698e-01,-1.120508797557679369e-02,-1.711426959102020726e-04,1.455523145236086195e-03,8.988200128078460693e-02
4.334717346986615150e-01,4.789312031000555470e-01,5.408030378672529226e-01,-1.637479320767103522e-02,-4.757609716512484210e-03,-6.037599553971951041e-03,9.843277931213378906e-02
4.630169969726697921e-01,4.182521852199672652e-01,5.476450152011346217e-01,-5.374062982492910229e-02,4.052962072673131633e-03,5.801473751765818566e-03,1.475417315959930420e-01
4.859426653278071107e-01,4.519224263968416033e-01,5.505327616801058976e-01,-3.070536938809641236e-02,-3.891263278574658407e-03,-8.011739624680337332e-03,1.029226705431938171e-01
4.914602800840691676e-01,4.491918952874609516e-01,5.420213831739482124e-01,-1.723754626109321245e-02,1.483559229908907109e-02,-2.290938743897241725e-03,8.970845490694046021e-02
7.727798401863568145e-01,7.712452618906403545e-01,2.968397870351170975e-01,4.465446289582215150e-02,1.093841484951934145e-01,6.842605980832082435e-02,5.307673811912536621e-01
4.535817192868901726e-01,4.551408157619393768e-01,5.399016909246672213e-01,-2.450171774088417270e-02,-5.168059469609601227e-03,-4.165224633408771970e-03,9.618816524744033813e-02
4.593638560911469382e-01,4.723320267712810550e-01,5.298782833839443818e-01,-7.340696213869769837e-03,-3.948938829484979762e-03,-7.914966512805892210e-03,6.798819452524185181e-02
4.702579264959407257e-01,5.196644540110584298e-01,4.686957460522566121e-01,-7.775613229786908047e-03,-5.209080286420346255e-03,-4.910802259465610158e-03,5.343930423259735107e-02
5.057942963881839615e-01,5.088594298937691995e-01,4.483122349491880376e-01,-1.665408387606841234e-02,-2.066735553623606086e-02,-2.006866012230974425e-02,8.253193646669387817e-02
4.843766016987398615e-01,5.034643971678534058e-01,4.638521613706855229e-01,-1.086032065022018642e-02,-5.922992687430417465e-03,-4.817859118488922524e-03,4.130476340651512146e-02
5.367921124668678656e-01,5.168591543596419147e-01,4.636327993047009155e-01,-3.064042493633505927e-03,4.211313474238526436e-03,8.101652555794102567e-03,6.759887188673019409e-02
4.833700881969464902e-01,4.567990810005500002e-01,5.421177789712811057e-01,-1.017182512934861754e-02,3.243793100023859444e-03,5.980088937286580537e-04,7.785455882549285889e-02
4.452063671080992435e-01,4.795039920190535820e-01,5.383655903808215459e-01,-1.458625882066131446e-02,9.733407332956675161e-04,4.653358328208884675e-04,8.544938266277313232e-02
5.369329629659247427e-01,4.993084171157197160e-01,4.404443492637249435e-01,-1.044232282948874026e-02,-3.254802408059540367e-03,-6.969580568966198333e-03,8.717770129442214966e-02
4.351990758046895280e-01,4.803685630472182000e-01,5.394313361794597084e-01,-1.313366688447284436e-02,-3.938347988919407329e-03,-6.626725996894390798e-03,9.429889172315597534e-02
6.093216675237603797e-01,3.350838935309909949e-01,5.791975866723264588e-01,-1.458901843842801485e-02,1.413263382498220920e-03,7.039325443928831985e-03,2.620034813880920410e-01
4.767112482731918899e-01,5.111501065562862323e-01,4.806115937688986151e-01,-7.221159205729916174e-03,-6.940515069756666121e-03,-7.340325210721541753e-03,3.910898789763450623e-02
4.765785731882359877e-01,5.176627856798888816e-01,4.730264435660106459e-01,-6.938917090155769310e-03,-7.155922251692676574e-03,-7.539120584192474626e-03,4.811495542526245117e-02
4.815500309324534101e-01,4.998771994261245744e-01,4.792067323213022867e-01,-3.387629078217249592e-03,-8.129174825867733004e-04,-3.200869263417733873e-04,2.051926217973232269e-02
4.890269012674746119e-01,5.268403680623443552e-01,4.879446343487950921e-01,1.922093381138729670e-03,-2.004880840823162461e-04,-1.269398079549515120e-03,3.857449814677238464e-02
4.714434037286588386e-01,5.066379843335220290e-01,4.782579070108312624e-01,-3.300193548408600526e-03,-1.934469815991095082e-03,-6.146733136308820712e-03,3.467722237110137939e-02
4.758050435320090865e-01,5.036324454299787590e-01,4.794550827150603767e-01,-6.370834839883381291e-03,-6.792353557696338001e-03,-8.789967291261307700e-03,3.432312980294227600e-02
5.335894658524047429e-01,5.847187797394163278e-01,3.464089569669484003e-01,-2.962630502454065284e-02,-5.279349304755622668e-02,-4.208740724837480712e-02,2.520512342453002930e-01
4.741885508168941499e-01,5.412230809951580346e-01,5.009178315168444362e-01,1.874552468203128860e-03,3.332052880154503811e-03,1.171998713760016419e-03,5.885803326964378357e-02
5.444081400846502161e-01,5.010377793927685008e-01,3.993674940886053903e-01,-1.028315816680137537e-02,-9.363283834693611127e-03,-2.671360415108704756e-02,1.390985399484634399e-01
4.655507261969614730e-01,5.336448193103857651e-01,4.691549013571770232e-01,-3.676759309760249282e-04,-1.866405217627533850e-03,-1.273416101112163218e-03,6.648378074169158936e-02
4.677352403937852787e-01,5.336924698572677039e-01,4.687237996754558544e-01,-2.268354780196569175e-04,-1.160732367979300933e-03,-2.345905657323969253e-03,6.562649458646774292e-02
5.482882411179045290e-01,5.429992254581156308e-01,3.863316111130380426e-01,-3.796975544825350810e-03,-2.327992172002746676e-02,-2.455477984013648696e-02,1.699389815330505371e-01
5.058477517294988068e-01,5.370757887652993778e-01,4.462937226975668414e-01,-8.345976584320000113e-03,-2.248214186348780619e-02,-1.157082420303099171e-02,9.224199503660202026e-02
4.834180370708836549e-01,5.170887852672843010e-01,5.029440729958944978e-01,1.404366817395200258e-02,-1.223640104745210046e-02,1.772316914037030955e-02,5.329843983054161072e-02
4.786349964993804607e-01,5.672643135217503296e-01,2.839368715903814455e-01,5.888752615264813278e-02,-1.422283064885332404e-01,1.109685026287962062e-01,4.135823845863342285e-01
5.287557693828370819e-01,5.280174134341537595e-01,3.988464812994474418e-01,-1.663184118018477473e-02,-1.663710025668847445e-02,-1.329994965772215640e-02,1.377387046813964844e-01
5.427228798384464703e-01,5.460639589820939221e-01,3.891695633509980046e-01,6.199858090018422335e-03,4.276297851949129383e-03,-8.232621442869561199e-03,1.564490944147109985e-01
4.386446229840106348e-01,5.513443645901058288e-01,5.392987656477021829e-01,2.782270003784908380e-02,-1.922710326615569010e-02,1.565786566831264479e-02,1.251225471496582031e-01
4.503665804059009403e-01,6.966718732633647715e-01,3.760530961380342263e-01,2.155461995804481071e-02,-1.739927315452979573e-01,1.107092238070439411e-01,4.620350599288940430e-01
5.109782147022754462e-01,5.455018386551255816e-01,4.421865519589374127e-01,1.479053769503057940e-02,-8.313289900386031106e-02,6.333264095983406894e-02,2.042589038610458374e-01
5.616070377496782395e-01,7.582016857725941694e-01,4.026178744361615935e-01,1.089853808815574865e-01,-1.915819120260333075e-01,8.679140303474409956e-02,5.133478045463562012e-01
4.929388647368285192e-01,4.895281531816522147e-01,4.918845871474112896e-01,2.497603058810811058e-02,-2.237259158979946691e-02,2.386483553186728723e-02,7.134945690631866455e-02
4.827138418210630832e-01,5.035955550802723169e-01,5.297234467806952729e-01,3.196065170039311294e-03,-1.427509991523526678e-03,9.978045743180122967e-03,4.471856355667114258e-02
4.958457805022558063e-01,5.307628801090891191e-01,4.341506019747352618e-01,1.286123729005825798e-02,-2.322650233109602169e-02,1.330827703738761067e-02,9.912462532520294189e-02
5.016913258800419495e-01,5.246865714072550535e-01,4.410774310814724042e-01,-1.331238250598152338e-02,-8.889034586227358842e-03,-5.275961158863383405e-03,8.030483871698379517e-02
5.016729377412765256e-01,5.387075494565699563e-01,4.282245518174546128e-01,-7.095294096589641920e-03,-1.047736358570425068e-02,-3.979011154258839389e-03,1.000710427761077881e-01
5.403955419202940424e-01,4.364925959330435701e-01,4.809281584268035314e-01,-1.578016229466170034e-03,2.302771383057988439e-03,-1.780428028515199795e-02,9.553905576467514038e-02
3.835142755708567663e-01,5.264793053022297498e-01,5.324328021855647686e-01,-5.792407910775244223e-02,-5.470841711446072786e-02,-1.721710341351292625e-02,2.031243443489074707e-01
3.461715606994687500e-01,5.741886117663006495e-01,5.616112625164569883e-01,-2.862656064850110926e-02,-2.771430062380985868e-02,2.623236859001625183e-03,2.325197756290435791e-01
5.225724011172991901e-01,4.654668724298124394e-01,4.959541234228074802e-01,5.420377065027535968e-03,1.127214100205470824e-02,-4.964414774513450229e-03,5.470634624361991882e-02
5.181368845900660158e-01,4.980906762507887331e-01,4.719099132365360827e-01,1.091530703533572476e-02,3.046414373685377239e-03,-4.273267896251279653e-03,4.530081525444984436e-02
4.442170961710418808e-01,5.407475495808274912e-01,4.855354967596241522e-01,3.604741565553680124e-04,-8.118373094001010010e-03,3.434737396033061153e-03,8.526641130447387695e-02
5.144847990685039729e-01,4.932030050363392926e-01,4.916100646191852719e-01,2.456058951944793071e-03,-3.296225053343597184e-03,1.300699817478500036e-03,2.334781177341938019e-02
4.616912593683327182e-01,5.046017184050179960e-01,5.183125403708263024e-01,1.883979168389603859e-02,-1.745923595828505898e-02,1.303262935164307794e-02,7.145955413579940796e-02
3.646586043577616509e-01,5.531756574178731123e-01,5.533454916867863727e-01,-7.766794722174875064e-03,-1.220420325579552739e-02,-2.747833561756233851e-03,1.903186142444610596e-01
3.460624956075393222e-01,5.661990032004627915e-01,5.363047599302847024e-01,-3.553687261634028149e-02,-3.900586820861263321e-02,-8.891876256518041130e-03,2.266343086957931519e-01
4.689868291721130955e-01,5.223424790507599225e-01,4.680515398290007179e-01,-4.059305209016655577e-03,-1.863420086991732791e-03,-2.232354461755528541e-03,5.451976135373115540e-02
3.615280155742532919e-01,5.459429412934464487e-01,5.389344211686128983e-01,-1.526716315142600394e-02,-2.690797257116441660e-02,-1.125039958094268926e-02,1.897803992033004761e-01
5.428818454432658980e-01,5.334320368201322937e-01,5.313906653567708194e-01,6.804499483062702303e-02,-5.273226881156906076e-02,7.982957046001906698e-02,2.036258280277252197e-01
4.916161020141888160e-01,5.060011062243595648e-01,4.970795779364771128e-01,1.805042114163495472e-03,-1.552528565648213883e-03,4.424604391367834358e-03,1.529453229159116745e-02
4.803795748041113645e-01,5.342440105669030714e-01,4.577656846967784743e-01,-7.890216985902582039e-03,-4.148397165930871322e-03,-1.776470816961596725e-03,6.984777748584747314e-02
4.792960641970304692e-01,5.225863084261627156e-01,4.580513214878590422e-01,-1.006263327077108576e-02,-5.177107574000618107e-03,-2.768162268507877617e-03,6.043376401066780090e-02
4.802135695425869266e-01,5.362789114777902766e-01,4.542686083813072262e-01,-5.471185061728104336e-03,-6.791174019688297515e-03,-1.451460365615240677e-03,7.419945299625396729e-02
4.714096896723712904e-01,5.191912253309156622e-01,5.006851711126772964e-01,3.775052675436334562e-03,-8.224744951713621952e-03,1.075020310836961868e-02,4.830832779407501221e-02
5.228856789841197505e-01,4.722385245217471939e-01,4.922943655688882814e-01,3.541592129114165630e-03,9.376920130722821850e-03,-3.734710484808364487e-03,4.790461808443069458e-02
4.637901280032127316e-01,5.372177917340557052e-01,4.878318423831489725e-01,1.255734796008201558e-02,-1.809029328275233925e-02,7.477820888797667882e-03,7.633406668901443481e-02
5.023152203052012599e-01,5.171904959556899994e-01,5.014970791380287674e-01,1.647723595531921589e-02,-1.712874123815744110e-02,1.665996096711400490e-02,5.254955217242240906e-02
4.929595670710448796e-01,5.262881850616371038e-01,4.875285262411376275e-01,-1.210668634489780841e-03,2.532268521738381076e-03,8.852322765487871366e-04,3.670541197061538696e-02
4.332104915010825952e-01,5.021696508688729965e-01,5.555120611403213671e-01,-1.156864547240139471e-02,-3.168447333835804937e-03,1.810164337952870940e-03,1.082620620727539062e-01
4.810891480005843879e-01,5.251812016931873828e-01,4.836240980637314113e-01,1.176814987546361078e-03,-1.422670427866271070e-03,4.078227884267011417e-03,4.357621446251869202e-02
4.832536648797737255e-01,5.188736531082424053e-01,4.861235883222548848e-01,9.141592779552334827e-04,1.033713000171697632e-03,1.617256851861970796e-03,3.447249159216880798e-02
4.936883442370019748e-01,5.193263645902487236e-01,4.872716470781837672e-01,5.261773671967779134e-03,-5.387860792233468239e-04,1.718269200928430277e-03,3.091569989919662476e-02
5.414703901991569923e-01,5.812429885857898215e-01,4.080017983625747191e-01,4.274541077599686156e-02,-3.259063895736594857e-02,5.623705417275506879e-02,2.070263177156448364e-01
5.377389964216980900e-01,5.243930157782007440e-01,4.237463292880883636e-01,2.123699154466083400e-02,-4.589753342020614323e-03,2.295353114996796784e-02,1.210285946726799011e-01
5.537454446267778829e-01,5.510834809152707070e-01,1.818196687385710553e-01,4.560306957517911569e-02,-7.495311049055719543e-02,1.136416900302531785e-01,4.462980329990386963e-01
5.856293759868151927e-01,4.554987254392749985e-01,4.276544352559799589e-01,8.896424746085827839e-02,-4.889954353342269161e-02,1.317116045491084908e-01,3.229457139968872070e-01
5.972052372197975689e-01,5.112002196843704604e-01,4.542775680755334888e-01,3.193375888481873176e-02,6.885676868320873834e-03,1.122138706816475651e-01,2.377184778451919556e-01
5.062819415065432649e-01,5.000128374402523779e-01,4.990140595350279207e-01,-7.717630524198224604e-04,1.731124291973171019e-03,1.100253661144822304e-03,7.808301132172346115e-03
5.459345367718508868e-01,5.554966883364225172e-01,3.906265942854342255e-01,1.140557786979643287e-02,4.565234319819978272e-03,-7.034156412898526743e-03,1.621674895286560059e-01
5.342334784134233905e-01,5.174334988436507521e-01,4.332202610901656481e-01,1.537810868368269177e-02,2.351847840409508963e-02,-3.577712189219051792e-02,1.224651485681533813e-01
5.298501951551150002e-01,4.901125013421842036e-01,4.761560282152524359e-01,3.582207931764279374e-02,4.749045881564745164e-02,-4.866303496561250053e-02,1.415924876928329468e-01
5.552652078978240757e-01,5.485901041505645281e-01,4.434101405186400280e-01,6.912407984895560520e-02,7.993966501646440626e-02,-2.247727171012307845e-02,2.164038270711898804e-01
4.869764795857087769e-01,5.471062385790571581e-01,5.068945829362535571e-01,1.497649126406977622e-02,2.576081006653537994e-02,-5.153026004100914707e-03,7.455234974622726440e-02
5.440148966819409182e-01,4.737297927814110854e-01,5.003993069868873933e-01,-2.648602284492402627e-03,4.411649547583962674e-03,6.016139415287780935e-03,6.296668946743011475e-02
5.157847651633162833e-01,5.415665168326699863e-01,4.471203527382763276e-01,4.435231476354069453e-03,8.343314983498471143e-03,-3.872403767697252079e-03,8.638647198677062988e-02
4.770722989099497324e-01,5.055356177141069329e-01,5.336480906651026590e-01,1.949826854368315668e-02,-4.910596610530774953e-03,1.304090432583047271e-02,6.421627849340438843e-02
4.923067568409237316e-01,4.904962325328069972e-01,5.219461167600607521e-01,1.097497403371887770e-03,-2.599634084159570344e-03,2.001615469105785024e-03,3.116632252931594849e-02
4.787567960660510380e-01,4.857957927779881779e-01,5.297477318191555762e-01,1.502414224518441518e-02,-7.867758145635792358e-03,1.006162572734885415e-02,5.879869312047958374e-02
4.888268984386752725e-01,4.848723020313787657e-01,5.273678200298229646e-01,5.221294441475969952e-03,-3.871724717021161194e-03,2.637453082613312998e-03,4.243913665413856506e-02
5.019116429783407884e-01,4.690549908226742670e-01,5.303407832298516755e-01,1.030118605706279236e-02,-5.725729615951060704e-03,3.804227908460601753e-03,5.728851258754730225e-02
5.572880972979012970e-01,5.541215209376476603e-01,3.665524104683977602e-01,5.558869003678532442e-03,2.054181050508347751e-04,-7.051050900487340622e-03,1.898107826709747314e-01
5.652105984921006465e-01,5.488708839877700640e-01,4.433637117617197920e-01,9.532675182679825263e-03,3.266995588734175615e-02,8.731106583915610939e-03,1.297150552272796631e-01
7.900791461563976270e-01,5.646894233952874931e-01,4.641395860344095237e-01,9.013930730266400682e-02,5.978226056375171571e-02,3.005166756519828120e-01,6.241807341575622559e-01
5.524346327277497304e-01,5.308207090412847551e-01,3.924570944489390589e-01,3.401895819778979341e-03,-2.562726869087425269e-03,-1.311260130903409322e-02,1.522250771522521973e-01
4.880311199515058873e-01,4.953985747147550134e-01,5.136952137971312338e-01,-2.865549796685936627e-03,2.304012532715704695e-03,6.111052615798968739e-03,2.600846998393535614e-02
4.912396815871564182e-01,4.907872587668145603e-01,5.138358709758699128e-01,-7.099680355257785569e-04,3.274569150691149406e-03,1.873203862731401877e-03,2.377441339194774628e-02
4.854178229491771801e-01,4.765283495307527373e-01,5.251129457927454780e-01,-4.902906597972474766e-03,7.510471222606902864e-03,4.052810051323164908e-03,4.793962091207504272e-02
4.834010551444955506e-01,4.808015515960226693e-01,5.259589969107104634e-01,-1.196322531071046828e-03,4.060056730437362760e-03,2.502483080860871609e-03,4.473363608121871948e-02
4.910458635684372131e-01,4.845386908085606015e-01,5.183690929604488629e-01,-3.219680072440540917e-03,7.555191761479106713e-04,1.185483671818621330e-03,3.168164566159248352e-02
5.346519253419563800e-01,4.041443681077828698e-01,5.069610433995385135e-01,-2.548646327999922259e-02,-1.131945357716533825e-02,-4.256394858504242845e-02,1.481663882732391357e-01
5.501906792783517464e-01,5.190001278059478418e-01,4.380634818773891936e-01,1.140198835124913053e-02,-2.771785004193625182e-03,8.561226440902770796e-03,1.033489108085632324e-01
5.518742312246917026e-01,5.449063247905161500e-01,3.867984332528637270e-01,6.053660343457788889e-03,3.887212656351141321e-04,3.846911212970416643e-03,1.621823906898498535e-01
5.007455364209630888e-01,5.464751580156126387e-01,4.289512386799169130e-01,-4.303086037829901775e-03,-1.077271251112325336e-02,-2.563569874171317282e-03,1.046525910496711731e-01
5.334002045545804815e-01,4.770420617295419441e-01,4.994635192642650767e-01,3.427609870541151182e-03,-2.731787050222358234e-03,4.091779854248055355e-03,5.023138225078582764e-02
4.662863223351501052e-01,5.352851465934912456e-01,4.569380605827959574e-01,-3.115957594366673428e-03,-7.670027042948518274e-03,-2.597932084704781663e-03,7.562480121850967407e-02
5.538254551495878086e-01,3.734585725692732838e-01,5.448637682496528800e-01,-7.657478948527863573e-03,-4.285495320394408329e-03,-1.885340944157675933e-02,1.797039061784744263e-01
5.316495179851851161e-01,4.081068969149315162e-01,5.112711655843698022e-01,-8.098979083229134596e-03,-1.254953074327741502e-02,-1.758653860386730564e-02,1.214807480573654175e-01
5.226464061609790157e-01,4.690335577270067224e-01,5.032005289869183606e-01,9.513466315640857138e-03,-1.144184743207466055e-02,6.931022062608070862e-03,5.493918061256408691e-02
5.236312313506180649e-01,3.751959642948187734e-01,5.326482915588606204e-01,-4.433384153961689861e-02,-1.948533745095791872e-02,-4.002430195748435393e-02,1.878672987222671509e-01
5.019264325944418070e-01,4.432379383542234264e-01,5.255227860499513959e-01,-7.082692529903279917e-03,-1.216906822517842615e-02,-5.830218395798158863e-03,7.799158990383148193e-02
4.689564428076860580e-01,5.002119498566149902e-01,5.385432052718116536e-01,2.717585712625820299e-02,-1.133924369268850610e-02,1.125670367228567489e-02,8.139847218990325928e-02
4.803937048031351464e-01,5.213580337705948642e-01,4.951499448898097344e-01,2.359880866238270314e-02,2.688223094346437608e-02,-2.618793336704946031e-02,8.477877825498580933e-02
5.098478427796346857e-01,5.029630421760070691e-01,4.953594850084508394e-01,1.697566826230676243e-02,1.185312203495251029e-02,-5.091163247522205969e-03,3.900426626205444336e-02
4.682129632027272614e-01,5.361635426840059004e-01,4.648475397481438565e-01,-1.184459536047006815e-03,-3.313745501781163380e-03,-9.238723902192783922e-04,6.997857987880706787e-02
4.739692924258208651e-01,5.206516046338111048e-01,4.978238153531142629e-01,6.383528237809743544e-03,8.303248202530973815e-03,-1.051719671118227228e-02,4.791248962283134460e-02
5.906582878859805152e-01,5.598388145663460991e-01,2.251558174852218985e-01,-3.847882856345569494e-03,-4.982580068421529895e-02,-1.116217342043699656e-01,4.100582599639892578e-01
4.720744303959981125e-01,5.223546942347088162e-01,5.159650328319330681e-01,6.515529614447994160e-03,7.024147733703606233e-03,-9.006737485280863140e-03,5.259653180837631226e-02
4.457283810665642054e-01,5.192326960361820509e-01,5.107164322764565778e-01,1.101126429634468641e-02,2.099001814950627112e-02,-1.424862208391121550e-02,8.452209830284118652e-02
4.779390004608826681e-01,5.400029560528203376e-01,4.677242323583173378e-01,4.622817774419978216e-03,-4.394317117348631695e-03,-2.713658616862506473e-04,6.864770501852035522e-02
4.994753494579078357e-01,4.931935198249746133e-01,5.189504931452462166e-01,1.515549151867872160e-02,1.027838416836085282e-02,-8.727272012233572990e-03,4.213763400912284851e-02
5.034337252903883231e-01,4.856009699118207790e-01,5.017035102615631237e-01,9.203338197396705028e-03,-1.021403150401306928e-02,7.343066204577299201e-03,3.192165121436119080e-02
4.798808817906716206e-01,5.047537882876989013e-01,5.363779938785623314e-01,1.479976574563271648e-02,1.452938797508156014e-02,4.670584618945249739e-04,6.079803407192230225e-02
4.812045666881084593e-01,5.393421152809979580e-01,4.546902747286933888e-01,-3.826968851080149534e-03,-6.815374441551925143e-03,-1.584823776573534822e-03,7.625797390937805176e-02
4.700850729381402249e-01,5.300114889406682961e-01,4.607232340893315237e-01,-5.918459436753715705e-03,-6.151672738431373730e-03,-3.708511553202907800e-03,6.707990169525146484e-02
4.775927021098703706e-01,4.970344838435010182e-01,4.838733172283423145e-01,-9.484396851989469399e-03,-6.622502806558669408e-03,-8.869397855548452614e-03,3.054104186594486237e-02
5.440283712420921347e-01,5.090861078491877301e-01,5.045368062299232514e-01,-1.167667310655187175e-02,2.205463180998084444e-02,3.949615736328745269e-02,8.915556222200393677e-02
5.014672928135532892e-01,4.809634326194186515e-01,5.227145683695541001e-01,4.499850403898743301e-02,5.496360597923726637e-02,-5.658650480275743272e-02,1.614038199186325073e-01
5.058537859273357640e-01,4.973628197031347287e-01,4.974769262949316206e-01,-8.662729526712120622e-04,1.639518281093237844e-03,-5.548476272333639032e-04,9.076318703591823578e-03
4.961073712160223859e-01,4.882024101321169041e-01,5.181223698264559863e-01,7.189186763370365371e-03,7.822126803816440918e-03,-9.419582283858519284e-03,3.641390055418014526e-02
4.922231379756936698e-01,4.928064980703301123e-01,5.219624951693838666e-01,1.614116006485926237e-03,1.721665271237754740e-03,-2.944830324310489331e-03,3.016861714422702789e-02
4.736311490203465313e-01,5.124610804807112618e-01,5.201602101138630418e-01,-2.848404107979005204e-03,3.938332881364929941e-03,1.062365096647700617e-02,4.770172387361526489e-02
4.978464100683850924e-01,4.896702904468105411e-01,5.150877453706819153e-01,2.996960325357643506e-03,6.696106187222562386e-03,-2.443018579355448958e-03,2.616187371313571930e-02
4.848727935901961938e-01,5.316975099661387372e-01,4.730406228671303337e-01,7.121568823340155598e-03,-8.218295999368078336e-03,8.882292930459794464e-04,5.695375800132751465e-02
4.923899462251779546e-01,4.671094328581993915e-01,5.365055383395402888e-01,-3.322555101802652719e-03,7.974533141890460114e-03,2.099913179824544271e-03,6.275094300508499146e-02
4.379247486626108854e-01,4.418426459356265545e-01,7.702243209511671074e-01,-2.369825306625155947e-01,1.053055300440406197e-02,2.884566113724549782e-02,5.295729637145996094e-01
4.763716853226135362e-01,5.247302140388631075e-01,4.866192523651948210e-01,8.788983658311219985e-03,-9.048821245360140486e-03,7.140395462119860509e-03,5.077736452221870422e-02
4.994350750868848388e-01,4.779104543853641696e-01,5.189189631156889693e-01,-1.364530245627120723e-03,9.719210048500724966e-03,1.803728581547368957e-03,3.951012343168258667e-02
4.585004199815121972e-01,4.694392970614726379e-01,5.337170182312921396e-01,-7.425809690983134655e-03,-2.339860854303163398e-03,-3.319744000251814535e-03,7.189802080392837524e-02
4.864892434218873740e-01,4.658699062564411464e-01,5.307196329568825144e-01,-4.505036751778878322e-03,3.279524408703020453e-03,9.407279102748112914e-04,5.821762979030609131e-02
4.670208770325428027e-01,5.487495928150322166e-01,4.943114811417022580e-01,8.372857885059091163e-03,-2.123266781404590381e-02,8.802764562049349151e-03,8.360139280557632446e-02
5.513777197960744170e-01,5.542275636130121752e-01,3.661428765131742868e-01,-1.195190391135805439e-03,-8.633092396724576997e-03,-1.012467070091058359e-02,1.881046593189239502e-01
4.556762812808912710e-01,5.331952750596776758e-01,4.884833432310005108e-01,2.696733931857586090e-03,-1.007825374558066547e-02,8.183280042770940677e-03,7.120221853256225586e-02
5.170525442901195978e-01,5.378087705449340339e-01,4.651704506707297071e-01,-2.809917090233319831e-03,1.033416938582576786e-02,1.207877526391176954e-03,6.743810325860977173e-02
4.649328337092505370e-01,5.300774022173236899e-01,4.908465296638477304e-01,1.127420836843007895e-02,-1.536940478739482439e-02,7.502726130085022975e-03,6.697797775268554688e-02
5.571026880369951417e-01,5.560237545521339309e-01,3.609416710350699109e-01,5.072023658604660548e-03,-8.545479418929663451e-03,3.601232441942301115e-04,1.963805109262466431e-01
7.364700510855364257e-01,6.076838618775650680e-01,2.662734420351599574e-01,5.592286985453324977e-02,4.463188100740781566e-02,1.061685544000098291e-01,4.756987690925598145e-01
4.958159739102616093e-01,4.956513642780854823e-01,5.073769786918324032e-01,-4.283415028343793077e-03,5.604990525211033317e-03,6.128506114966572431e-03,1.993874274194240570e-02
5.440103219377918631e-01,5.174276752542528168e-01,4.622913427307965284e-01,-2.280068479788885816e-03,4.553946767991644794e-03,7.700832655222629962e-03,7.394620776176452637e-02
5.151759206830321958e-01,5.405472341918036161e-01,4.449772959050693477e-01,-8.541937895427668308e-04,1.020261962530943055e-02,8.546500216032697217e-04,8.757421374320983887e-02
4.905758817209877609e-01,4.957464918250498176e-01,5.139873386066338146e-01,-4.698915893593365659e-03,6.003091898788170955e-03,6.053833756360290155e-03,2.716758102178573608e-02
4.939386121488342773e-01,4.946853512540024811e-01,5.025709416519256179e-01,-3.565433642833742197e-03,2.048813421167509745e-03,4.377406537518532641e-03,1.329825352877378464e-02
5.001924974486936515e-01,4.953990710863211966e-01,5.032768646209226926e-01,-3.517260346920797996e-03,3.553631085213105039e-03,4.350131503719180219e-03,1.338073704391717911e-02
5.446878040850233749e-01,5.573358084341774044e-01,3.993278246884626737e-01,4.991672076572702121e-03,7.149344461691089191e-03,9.206255042924890632e-04,1.528353393077850342e-01
4.904219623852587584e-01,4.948088971437600292e-01,5.061619269219193029e-01,-2.830731080007608137e-03,1.758758668593441701e-03,5.410923554965829142e-03,1.786321774125099182e-02
4.847973460348226626e-01,4.997229771747107030e-01,5.087724486858246076e-01,-1.340026606996434473e-03,2.814250843379164594e-03,7.525359153601849684e-03,2.527403086423873901e-02
4.837941144111813641e-01,5.266315204632481262e-01,5.039145309098392866e-01,1.056644082946882508e-02,2.483551207660622887e-02,-8.429062540898582187e-03,6.145301088690757751e-02
5.328748597118043717e-01,5.237083938401321248e-01,4.609659101258409275e-01,3.002306128298711310e-02,3.561634380823297530e-02,-1.888508607840325149e-02,1.103423461318016052e-01
4.684747318237120206e-01,5.937242052634152945e-01,5.302526514723255868e-01,2.415058672456137437e-02,7.188279605437418451e-02,1.090314161825354762e-03,1.703555583953857422e-01
5.141947471083908594e-01,5.026521813613940015e-01,4.847637304063016628e-01,7.802143856137124835e-03,-1.552518966420293961e-03,2.472002738889024671e-03,2.945997007191181183e-02
4.393473264206775308e-01,5.786735438415184785e-01,4.095170026869632274e-01,7.870387609367493487e-02,1.530153100340244654e-01,-3.396378406796684429e-02,3.416758179664611816e-01
4.992514068860555154e-01,5.446227738085680503e-01,4.158229257097108000e-01,1.992361425481628014e-03,-1.263934389438554212e-02,-2.004692721169975492e-03,1.153575330972671509e-01
6.153986087055343113e-01,4.177066524006115000e-01,5.094527306144642775e-01,7.543611824549614764e-02,-8.389222677959555508e-02,2.010427425456799422e-01,4.345136284828186035e-01
4.027875972625020173e-01,5.486266211502995871e-01,4.948859592134685625e-01,-2.250008128943772282e-03,-2.173500221199737778e-02,3.024564049926881191e-03,1.333396285772323608e-01
5.227867336407688859e-01,4.675314447483771008e-01,3.410384449591816747e-01,1.055266708926276414e-01,1.575488005308152972e-01,-1.481182215980443306e-01,4.469144940376281738e-01
6.438841190627788702e-01,5.902956042232084810e-01,2.972097934333068348e-01,4.931389150071953387e-02,1.289141566763971625e-01,-1.818859798440533582e-01,5.107609629631042480e-01
5.572879654715043873e-01,5.369808746836629565e-01,3.262298273512516111e-01,5.483619001037413204e-02,1.037889569217303048e-01,-8.933491902118256833e-02,3.382126092910766602e-01
5.878007690011355368e-01,5.078143012275369017e-01,5.167093765707183595e-01,1.525493832068330058e-01,2.352991354479384012e-01,-7.908413058644471472e-02,5.103325843811035156e-01
4.684715165997550557e-01,5.371061516015755988e-01,4.664106806298535801e-01,-3.683753231384857461e-04,-1.986469067153983151e-03,2.465447037340547706e-04,6.977701932191848755e-02
4.043578384540411630e-01,5.636667456379143015e-01,5.301633753534867877e-01,-4.736868086723803182e-06,-9.948396987830853549e-03,-1.068107200434349887e-03,1.465085446834564209e-01
4.200842570937726173e-01,6.422852464847740306e-01,4.902347749347709671e-01,9.236613736341900416e-02,1.550872043119896904e-01,-1.027857887922788427e-01,4.100637137889862061e-01
5.248641019778826911e-01,4.869737730855856483e-01,4.770393578917307420e-01,5.928750598967912587e-03,2.596236250600537747e-03,-3.234086282494390893e-03,4.547347873449325562e-02
5.276742949587184262e-01,4.861277588802553895e-01,4.554979671404954522e-01,9.703119806135560715e-03,4.060892186068859079e-03,-1.411973443745825549e-02,6.976306438446044922e-02
5.321449820293339128e-01,4.740883236913389642e-01,4.734585865382136549e-01,-7.227397483877944645e-03,-7.498456275358401577e-03,-9.303622658149853300e-03,6.318695098161697388e-02
5.184251169313387475e-01,4.729848457662172989e-01,4.728757018702481330e-01,-8.089862644224871113e-03,-7.165775806532258610e-03,-9.836709653361749156e-03,5.206203088164329529e-02
5.233794327205816277e-01,4.731716222525638726e-01,4.646143508555125590e-01,-6.879885698397881708e-03,-3.513112162925330437e-03,-5.451207710014441786e-03,5.737477168440818787e-02
4.839116630570650668e-01,5.469390211434008719e-01,4.557723372117078453e-01,5.081970584066105266e-03,-3.875266059105621046e-03,3.112541517625626308e-03,8.178883045911788940e-02
5.309454614614064205e-01,4.679236409907832073e-01,4.705222116228572338e-01,-8.557987126250349991e-04,-3.603868337203915053e-03,-1.670543891841696441e-03,6.216324120759963989e-02
5.417203851080663046e-01,5.184565659335604870e-01,4.293932493035321207e-01,-3.121635611621178174e-04,9.658309350522189737e-03,2.374961219600025056e-02,1.118825525045394897e-01
4.433495215351958008e-01,5.395662695008017762e-01,4.846582405351043121e-01,3.132532778138370517e-03,-1.764238387393964741e-02,8.480685545668147779e-03,9.037946164608001709e-02
5.005776022510348700e-01,4.991920158801427254e-01,4.982162718079127806e-01,8.198212566855962637e-04,-4.747201237471165391e-04,8.384143888998653272e-04,3.004183527082204819e-03
5.654881141754654061e-01,3.611045828955097847e-01,5.720439579931498875e-01,-6.145465351645429918e-03,5.277829820505400109e-03,-2.963680251534301854e-03,2.082756161689758301e-01
5.088817910818573820e-01,4.914551647238963872e-01,4.949760041605851812e-01,-2.219605596748983924e-03,5.430809902643460828e-03,3.488229360203035177e-03,1.986181177198886871e-02
5.540675944805074638e-01,3.055555011708137592e-01,5.624637448763030179e-01,-7.947401025824489540e-02,-1.234996712286957725e-02,-2.640631628287797017e-02,2.922551929950714111e-01
5.368461496668527344e-01,3.648346162437892670e-01,5.443922836908018370e-01,-4.904629469244554257e-02,-2.265980631622176861e-02,-3.509112813540092579e-02,2.083125412464141846e-01
5.964395171224102787e-01,3.231049776748406432e-01,6.245517534469968712e-01,-2.077736827726572866e-02,3.565259683803809199e-02,-2.159960865756989585e-04,2.971442043781280518e-01
5.540565847204559358e-01,3.802957879459938906e-01,5.602705539118509881e-01,-6.609542973843957232e-03,9.667559906277361365e-03,1.111437019004967927e-02,1.791457533836364746e-01
5.424297591334934499e-01,3.726958082698264008e-01,5.716590456819496957e-01,-1.512082731503388601e-02,2.642166195794984438e-03,-4.889042193327017066e-04,1.879700720310211182e-01
4.475228030592509620e-01,5.116811639716639659e-01,4.858412485014323989e-01,-1.224201693501626373e-02,-9.776382966475543820e-03,-1.759102091260382472e-02,6.921572238206863403e-02
5.787099192704137085e-01,3.746368287042598499e-01,6.028150777376419800e-01,-5.578910205929368815e-02,3.050103504527649709e-02,4.584096711563405814e-04,2.434644550085067749e-01
5.460551859457831725e-01,3.906208059654908693e-01,5.605622195824511156e-01,-1.602438351671684261e-02,9.198827736443144013e-03,1.100569548921944904e-02,1.673701405525207520e-01
2.775168878001683104e-01,4.567647652948911841e-01,7.827042435564590672e-01,-1.527522712856739795e-01,2.312771231070880756e-02,-5.159587382449937198e-02,5.257196426391601562e-01
4.167609453956305776e-01,5.307317237411851574e-01,6.070007173834515157e-01,-1.280010706732418457e-01,-5.725023516311798788e-02,-2.353810012459006673e-02,2.968946695327758789e-01
3.541978233682773203e-01,5.877488138384787675e-01,6.410112247514415662e-01,-8.292758287675137951e-02,-2.191701374206422859e-02,6.469480602266781261e-03,3.033480048179626465e-01
3.432056165038469553e-01,5.528399860418615752e-01,5.985330182981321023e-01,-7.937907891824418083e-02,-2.829214195124437822e-02,4.241353142106559643e-02,2.869049012660980225e-01
5.170596335375402530e-01,5.399961107021600260e-01,4.633047791363862911e-01,-7.104297643998839368e-04,8.645477462371492158e-03,1.515883227171569087e-03,6.986597180366516113e-02
4.902337895255133859e-01,5.237263435547381274e-01,4.851551830651809616e-01,-4.080835675393168147e-03,1.328567436765277013e-02,8.633031591657640627e-03,4.605120792984962463e-02
4.826112277738617284e-01,4.972737281674973753e-01,5.491329311313229988e-01,-4.053882002970818355e-02,2.647601486042101132e-02,3.141826062212571546e-02,1.168725714087486267e-01
5.022507867211951638e-01,5.311490832256585692e-01,4.796773218374504877e-01,-1.942994165584894725e-03,4.285251033012623355e-03,2.307687816396746753e-03,4.560043290257453918e-02
3.833203778171336840e-01,4.922079465112961238e-01,6.194503912018954894e-01,-8.811241868978809955e-02,1.149904567786270461e-02,3.956119561328665796e-02,2.651143372058868408e-01
5.169654298879842180e-01,5.308198063319807813e-01,4.622767319197768621e-01,-4.421100124987268655e-03,8.507021621106366019e-03,3.037112969752920992e-03,6.514517962932586670e-02
4.383167202427474818e-01,5.409926692796606096e-01,4.813059771563095168e-01,-7.933235677968785565e-03,5.990494610018094052e-02,1.629611932427257881e-02,1.404555886983871460e-01
4.327891817170345101e-01,5.457793111591751067e-01,5.351760447208538940e-01,-3.548052101016899162e-03,4.653136338620654511e-02,1.565157486196828984e-02,1.376565247774124146e-01
4.894644529246315878e-01,5.393530588387586144e-01,4.790840860831164782e-01,-1.292460522796868780e-03,7.612184051250861332e-03,1.815972580551304628e-03,5.747371166944503784e-02
5.001061734297355121e-01,5.455052123561243693e-01,4.036746440890122689e-01,-1.288549060422783561e-02,-2.449586893574718163e-02,-7.720545443558048462e-03,1.349632591009140015e-01
5.476597300061933904e-01,4.396680110797797081e-01,5.201769939215229455e-01,-2.872378380190549266e-03,9.206589424680632072e-03,9.891367480804083914e-03,1.001107245683670044e-01
4.933929855060356084e-01,5.274334407251241030e-01,4.802291987966956777e-01,-5.663205938856943726e-03,5.838596034228011634e-03,5.472998987761814801e-03,4.548058658838272095e-02
4.842908007444906571e-01,5.354444551492352211e-01,4.985259678782427151e-01,-3.496090285959797383e-03,1.925474396463045315e-02,9.760158924565942584e-03,5.937879160046577454e-02
5.540010772634299530e-01,4.467437621064438980e-01,4.697916805886305225e-01,2.794667949992714687e-02,-1.578970953510317604e-02,6.984803356894425663e-02,1.651984304189682007e-01
4.821641340454855817e-01,5.384151615349110909e-01,4.913075966939279282e-01,-3.201606438199200628e-04,6.398113665091253316e-03,2.862751317196613344e-04,5.344916135072708130e-02
5.433874603200353759e-01,4.802738693933947256e-01,5.084369480168647870e-01,6.551782920876305684e-03,7.747228652266279283e-03,3.363261819013083076e-02,8.186151087284088135e-02
5.324669861473446675e-01,4.348258481793484398e-01,5.257043620225718694e-01,-6.533558382877694033e-03,1.950361578495524162e-02,1.485566549995583248e-02,1.041658371686935425e-01
5.361687578427659640e-01,4.872578239345107809e-01,4.783862658856469219e-01,9.381596162876873739e-04,1.936132684220207099e-03,8.522390681653616712e-03,5.600607022643089294e-02
5.390501413154934474e-01,4.511853160395191131e-01,4.950956984108008663e-01,-4.374428085264843880e-04,5.398608868060650323e-03,1.567643226271363613e-02,8.133530616760253906e-02
3.587156579968864833e-01,5.457584915580921958e-01,5.413623028396458148e-01,4.242556625785580404e-02,-5.297338478906582493e-02,3.123924397161424032e-02,2.256724834442138672e-01
5.370781705601891387e-01,4.857219380399768749e-01,4.898549107649935452e-01,1.324959456457744985e-03,1.290793007078779335e-03,2.066107955363112592e-03,4.965240880846977234e-02
5.305427830040271298e-01,5.165705342593402971e-01,4.629077948099247775e-01,-5.683886787878750929e-03,4.439282530695157214e-03,8.097335479876758765e-03,6.463315337896347046e-02
5.392622454113875641e-01,4.506245429592076190e-01,4.964735148197573777e-01,-1.174112440097559466e-03,6.480878968103986545e-03,1.564954083707561713e-02,8.221732079982757568e-02
5.373367794989479806e-01,4.884651447737871077e-01,4.872848187284474775e-01,-6.274743760312280092e-04,5.212578113648214800e-03,8.065658705830919609e-03,5.220510438084602356e-02
5.188175985018956826e-01,5.414707688717907974e-01,4.320252718414769877e-01,1.492444621399376982e-02,7.808839205214714724e-03,-2.102995831040323574e-02,1.104088947176933289e-01
5.929665831578951884e-01,5.476757656121192808e-01,2.605615685142291804e-01,-1.012511473345987199e-02,-4.349496019422905563e-02,-1.299172818351307657e-01,3.925658464431762695e-01
4.953552090687239340e-01,5.122700529991210949e-01,4.894896920479610558e-01,4.805905317466001477e-03,-5.701366372043618382e-03,5.048602711955977804e-03,2.574883773922920227e-02
5.284365964778287017e-01,5.190988771882621977e-01,4.588817562372873859e-01,1.061132687688296460e-02,-3.503230167963853735e-03,6.303748051631648253e-03,6.906095892190933228e-02
5.371429869439068305e-01,4.887633375663413826e-01,4.869778648418920941e-01,8.935401583789889194e-04,1.199072282976843158e-03,1.621670960885021042e-03,4.944448173046112061e-02
5.874333983448043472e-01,4.777372951369093235e-01,3.760126929702633514e-01,-2.238557523862987064e-02,-3.296689428259906574e-02,-1.149114527457758689e-01,2.791373133659362793e-01
4.924725606342717499e-01,5.013356123208037030e-01,4.998995370988367215e-01,7.552753190533914758e-03,-9.377739312214769182e-03,1.146855484377822844e-02,2.995712682604789734e-02
4.994692921907045169e-01,4.316827430259160270e-01,5.288343294981113774e-01,-8.790893545264900216e-03,-1.372865990067033241e-02,-1.138378388340281419e-02,9.291886538267135620e-02
4.936450486169965957e-01,4.848414050163221134e-01,4.784371459851546882e-01,-4.899268432571345956e-03,-2.404802358555297587e-03,-9.399981166456202950e-04,1.633731834590435028e-02
6.031759044103059964e-01,5.703508847059467479e-01,3.626952621669220500e-01,-8.349913796184013290e-03,-3.342612278651302393e-02,-7.652753230584381783e-02,2.685984075069427490e-01
5.375312787186461438e-01,4.639010486252445054e-01,5.176665131410009835e-01,2.658619813366035201e-03,-3.519837845324852270e-03,7.529430978883360805e-03,6.768915802240371704e-02
4.833689613354937853e-01,5.304235975591971020e-01,4.762134567976281652e-01,3.407258744059614083e-03,-1.167444536368148584e-03,5.984908581142377865e-04,5.140069499611854553e-02
6.016038210008737286e-01,5.330309736634436524e-01,3.399179706497905684e-01,-1.909259266597698040e-02,-2.298205859250179034e-02,-5.350605286236253394e-02,2.578836381435394287e-01
5.405321457152351128e-01,5.259094836728839262e-01,4.805742140575476884e-01,-1.706266312267823090e-02,4.341418309606225046e-02,3.531773193558469109e-02,1.148992404341697693e-01
5.154102021382257481e-01,6.034963920676134075e-01,4.494559314309614639e-01,2.552585862364682712e-02,-8.010069934944698267e-02,3.349320590623493937e-02,2.061243802309036255e-01
4.940691012236241852e-01,5.345253376259585520e-01,4.735871187309303454e-01,8.425624472200174409e-03,-4.703118828058783056e-03,2.283491935535460204e-03,5.638986453413963318e-02
4.969495478526930743e-01,5.192787548102303363e-01,4.723057468040425255e-01,8.886822130112447676e-03,-3.133224859926909620e-03,2.265802093075185066e-03,4.402234405279159546e-02
4.799131403143092056e-01,4.474535836834028224e-01,5.123931834700418131e-01,-1.197799904384178049e-02,-1.471268016048511186e-02,-6.012740173361984415e-03,6.596308946609497070e-02
5.126003102739444817e-01,5.317199477300397215e-01,4.410845638113932154e-01,1.994921817499920036e-02,-3.320918153956783914e-02,1.161824571977806801e-02,1.084197014570236206e-01
4.956869476690661802e-01,5.050475014382068695e-01,4.970343435998421100e-01,-2.929385285670862895e-03,8.648661887143453079e-04,1.152148504151968844e-03,1.043040212243795395e-02
4.942029442540993855e-01,6.494772399892672077e-01,3.456384369272387236e-01,-7.253921083198970610e-02,2.193116388935531513e-01,6.266897775245015845e-02,4.910300970077514648e-01
4.555818862820337767e-01,4.052704383606391403e-01,7.966137613823314201e-01,-2.471726680591354308e-01,6.400460467618793170e-02,7.372793343484523865e-02,5.898067355155944824e-01
4.973179864163090880e-01,5.343867423050585597e-01,4.801330905257454873e-01,-8.908763294761718604e-03,3.077162240830762924e-02,1.945655409857303259e-02,8.075200021266937256e-02
5.035180653489851332e-01,5.841057732496297561e-01,4.431442859644914578e-01,-1.897789052864231642e-03,7.310344568108187446e-02,7.852614232927412549e-03,1.767283082008361816e-01
4.963596363897597730e-01,5.155059127997075885e-01,4.931729435343089052e-01,-1.338874391384677802e-03,2.256771845979755730e-03,1.904750780965520744e-03,2.166308462619781494e-02
3.542782436703494353e-01,5.764523104846854817e-01,3.966469612549140544e-01,2.396657430438257561e-02,1.771212034242326538e-01,-1.393057363292678989e-03,3.709285259246826172e-01
4.756791329019942616e-01,4.697568188551825008e-01,5.280528043713180741e-01,-1.450955543503935040e-02,8.981058978715893149e-03,9.939961627249046736e-03,6.525501608848571777e-02
4.818311678480821092e-01,5.216705001153897348e-01,4.975581882717425297e-01,-9.370622010530554186e-03,3.825864529802690261e-02,2.691374436322003724e-02,8.964153379201889038e-02
4.233729553780510857e-01,3.983461368119375900e-01,6.261276252302603318e-01,-2.516427993740408819e-01,1.071545786132432941e-03,-3.093159651920709269e-02,4.895468652248382568e-01
3.988119721748933921e-01,3.717299554667859995e-01,5.523079437621969401e-01,-2.120211434659443062e-01,-8.697792714789850943e-02,-1.161510253985336139e-01,4.758980870246887207e-01
4.283328067094489544e-01,4.663058257793956107e-01,5.555360284305279617e-01,-7.864617817799325616e-02,-4.831856962028408670e-02,-1.826833276575376766e-02,1.983764916658401489e-01
6.195368523654726234e-01,6.238853448391104006e-01,6.514488813639917053e-01,-8.483760717438226795e-02,2.322147034610053673e-01,1.889231799218770991e-01,5.397570729255676270e-01
5.039967805900568143e-01,5.164166991760487102e-01,4.917593273624017991e-01,-4.802660501388129194e-03,2.983826416992356196e-03,2.821936179794377018e-03,2.399571053683757782e-02
5.030313849946419502e-01,5.241217771539279369e-01,4.711368722619317384e-01,-9.882642015293749416e-03,7.763680423358091005e-03,6.428697439969036607e-03,5.227370932698249817e-02
4.724497927047262569e-01,4.771446631404938632e-01,5.074696870249228997e-01,-5.326931465546709717e-03,-3.780228110880534849e-03,-7.035547948519570681e-03,3.688518330454826355e-02
5.007467328177834798e-01,5.165519890280958482e-01,4.914235206247771215e-01,-6.042929191344561558e-03,3.693139612323657287e-03,2.713839294538708969e-03,2.562513947486877441e-02
4.372705193694126358e-01,4.975241060014214955e-01,6.406633626974017615e-01,-1.207393537105187487e-01,-1.724950225621964522e-03,3.599790023955148910e-03,2.766329050064086914e-01
3.746324871853185523e-01,4.779325576580080170e-01,5.402094765040064139e-01,-1.138423181070266632e-01,-7.502989857114382433e-02,-5.075607477846309085e-02,2.906540036201477051e-01
3.984358804816615640e-01,5.140103546728702621e-01,5.588986176070807055e-01,-5.074340515424938247e-02,-2.592961963895626040e-02,-3.919697615644947113e-03,1.742072254419326782e-01
4.702655350245898980e-01,4.419487618664069695e-01,5.626495192855645033e-01,-5.646724050202722722e-02,-2.326742109108377241e-02,-2.230495978838293453e-02,1.569552719593048096e-01
3.568089339416304906e-01,5.511153904991568098e-01,5.350311850535539593e-01,-5.627779962851862938e-02,-4.759558936687063174e-02,-1.755970719001187855e-02,2.282784730195999146e-01
4.990873014209828984e-01,4.097231648826272776e-01,5.374240105818598456e-01,-4.421301716896610529e-02,-1.275286181714760901e-02,-2.581973208737669764e-02,1.457183361053466797e-01
5.325107634539724133e-01,4.878224424225020561e-01,4.905605079340304431e-01,3.387781857319319134e-02,4.100455650785151535e-02,-2.628779480710986480e-02,1.115462630987167358e-01
5.417896837166248369e-01,5.169785595289024815e-01,4.601317116287273468e-01,-8.697616985633958592e-04,2.188241532491829334e-03,8.293267177679019067e-03,7.403080165386199951e-02
4.205836756635687457e-01,4.580214685666622598e-01,5.688014266731966639e-01,-6.135630253814136625e-02,-1.313102063655912505e-02,-1.908760689789877271e-02,1.752860844135284424e-01
5.830968881238618451e-01,3.951404600117464083e-01,4.523630831274572106e-01,1.005114729330373602e-01,-4.389938475847185440e-02,1.538404667523621538e-01,3.673370182514190674e-01
5.355530354181297081e-01,4.979200704204396200e-01,4.724080271138308973e-01,2.558813342392491589e-03,-1.072138713300200413e-03,3.852267168071827220e-03,5.563100799918174744e-02
4.977945571607914066e-01,4.950394837025058892e-01,5.046243677663372340e-01,6.880924654718263180e-03,7.163892507708698697e-03,-5.928416256405176325e-03,2.178295515477657318e-02
5.053914511834605161e-01,4.920737499025480965e-01,5.035015912646558789e-01,2.389559432518259356e-03,-6.785620846218717514e-03,2.342036554177960063e-03,1.809650473296642303e-02
5.012556753952243094e-01,4.990523940509732914e-01,5.054297768903831534e-01,3.883981263163188181e-03,4.800075142532209994e-03,-3.770699028817044857e-03,1.372978184372186661e-02
5.020878551421710245e-01,4.949086549726540718e-01,4.981987300771998362e-01,1.859470921223354547e-03,2.799137253118118632e-03,-2.581843659320855622e-03,9.624009020626544952e-03
5.008323528982181472e-01,4.950012815992062554e-01,5.008592352644127832e-01,2.848355123342486295e-03,3.329794884396983234e-03,-1.622213098193906302e-03,9.982763789594173431e-03
5.002697958573640857e-01,4.905419356600843606e-01,5.045059711167126926e-01,3.517472944346812774e-03,4.826177696693399223e-03,-2.718527599231286649e-03,1.682112924754619598e-02
5.016907782976329777e-01,5.022354405296662883e-01,5.016413889777374679e-01,3.782641415226517881e-03,3.342915120292696066e-03,-2.168642809520332851e-03,9.533383883535861969e-03
5.305177649648771254e-01,5.520844847083514750e-01,3.865816734758861783e-01,5.883190236830758077e-03,-1.348534299171933772e-02,-2.554877889465166554e-03,1.579744666814804077e-01
5.230380740692927022e-01,4.918614367756563577e-01,4.923501644852808501e-01,2.540566872222691820e-03,-2.906500254126804465e-03,1.101307080820864695e-03,3.170694038271903992e-02
5.231101341903536817e-01,4.911987592753462861e-01,4.864931852795110201e-01,7.487293897556111799e-03,-3.240090862408024491e-03,5.218653064797923284e-03,3.836685791611671448e-02
5.134768749907387964e-01,5.195230973934650276e-01,4.689287162454268687e-01,1.208566900122244776e-02,-3.917566071169865938e-03,4.375534740913926066e-03,5.321758612990379333e-02
5.010892391492217657e-01,4.993408389737791775e-01,5.001776101823400822e-01,4.424612497778509027e-03,3.999682337480792507e-03,-4.133633135811052781e-03,1.266012713313102722e-02
4.923725873107936968e-01,5.117939476195156878e-01,4.878262726115343839e-01,5.831671439552405835e-03,-3.404707109310830659e-03,3.502554213696286965e-03,2.568576857447624207e-02
5.008736172343447590e-01,4.938616193198627768e-01,5.043942119289849257e-01,2.315352426629321836e-03,3.732008804612909486e-03,-1.315748964109723961e-03,1.221920363605022430e-02
5.453822292922896331e-01,4.192689150173323220e-01,5.699315875874982895e-01,5.608276799318857170e-02,-1.000617995916446533e-02,4.635686073383761541e-02,1.891727149486541748e-01
4.442733012500316159e-01,4.882477540265558469e-01,5.492164683098837985e-01,5.335076804906211528e-02,-3.188750297159002444e-03,1.389864372272232688e-02,1.322154998779296875e-01
4.286262253695078961e-01,5.107941333723847732e-01,5.054639736792949645e-01,-1.448797329883737967e-02,-1.511286972961732068e-02,-1.728045085624005384e-02,9.248107671737670898e-02
5.163464353620146330e-01,5.251366455805877020e-01,4.401663422275211013e-01,1.819655168986572188e-02,-1.402466627419429387e-02,1.473742774605379599e-02,9.372996538877487183e-02
4.731639640938156144e-01,5.065053303798716655e-01,5.044049176856072458e-01,2.071279408444916259e-02,-2.100581768139494349e-02,2.454730647982290154e-02,7.392247021198272705e-02
4.861527047810794699e-01,4.834014528901035557e-01,5.491139008766786622e-01,3.286923774033478213e-02,-7.020571635759469131e-03,1.278770687520263891e-02,8.957960456609725952e-02
4.993062884994235451e-01,4.973462493833987197e-01,4.910969879465892918e-01,5.867324213687532403e-02,-4.898285248867349090e-02,5.115421718421791358e-02,1.594710350036621094e-01
4.540546696127752413e-01,5.363973295167215882e-01,5.048141218609876191e-01,4.813573305424509452e-02,-5.245069082929154636e-02,2.628926774884510903e-02,1.498496383428573608e-01
4.975292872206286132e-01,5.062718717266727619e-01,4.905534889003261845e-01,4.875284250171907190e-03,2.926218463808202093e-04,1.233243334620058411e-03,1.619276963174343109e-02
4.847788306280464976e-01,5.084607458139775993e-01,4.964718392687874626e-01,4.266065787592678016e-03,-4.542589451599523924e-03,7.810601314687727614e-03,2.683591842651367188e-02
5.006137187580187442e-01,4.993125619600280451e-01,5.000505754721015217e-01,2.508444788747752415e-04,9.644103692967000629e-04,-8.663681260515948719e-05,2.068562433123588562e-03
5.574768189496294157e-01,4.859557522282556552e-01,6.048064832479045361e-01,1.046202180062146131e-01,5.156446672876060285e-04,6.110746494371937371e-02,2.340507656335830688e-01
6.077141363324317647e-01,4.258871016162218970e-01,5.979915737282950339e-01,1.066858891437488521e-01,-4.789387999283933883e-02,1.125580520848678545e-01,3.322992920875549316e-01
4.282906891480280920e-01,4.396984325986055819e-01,5.971446537192323101e-01,1.458586053955586714e-01,-3.907695859240301745e-02,9.077055202731457162e-02,3.461772203445434570e-01
5.160910627930472838e-01,4.963158901739385676e-01,4.942864265878896823e-01,-1.096302104983173150e-03,2.039129863203566120e-03,1.621950563285495762e-03,2.143084444105625153e-02
4.761030243170903953e-01,4.816505670115555082e-01,5.246925734500031968e-01,-5.680479316340231351e-03,2.399984658465335180e-03,5.747069407591613721e-03,4.832532256841659546e-02
4.988639572478770767e-01,4.985630697737348793e-01,4.994332201765580015e-01,-3.143423559705902509e-04,5.701696042327896932e-05,1.716051131959658383e-03,3.118742955848574638e-03
4.992029572466584741e-01,5.028898344636801854e-01,4.993396018433846617e-01,-1.934309656216009858e-03,5.420128921744719148e-04,6.316795072954821053e-04,5.139162763953208923e-03
5.112399398253791860e-01,5.261132607304348507e-01,4.584506410499108453e-01,1.589458304922604023e-02,-2.185831172680787610e-02,1.643744430465497730e-02,8.243128657341003418e-02
4.957039992969757281e-01,5.177482441814628134e-01,4.701653525147732604e-01,1.131226652190428852e-02,-6.854515616232225231e-03,3.353197284808137613e-03,4.753670468926429749e-02
4.862833725434049237e-01,5.104634857922955016e-01,4.827590792212855808e-01,1.002029704963952085e-02,-1.071215473550909264e-02,9.343821982513269078e-03,3.987113386392593384e-02
4.829655691820026187e-01,5.402560386843902052e-01,4.533223820137577964e-01,1.898640946906529278e-02,-2.587793523472313451e-02,1.408128701909093679e-02,9.769590944051742554e-02
4.881187805584632500e-01,5.251998236714829904e-01,5.014003099911402694e-01,1.022716116887641136e-02,-1.137669992244345722e-02,9.705918516135923074e-03,4.520615935325622559e-02
5.050525819703111097e-01,4.956108772116982752e-01,4.984291513479747748e-01,-3.010158048222765816e-03,1.698077000776660296e-03,8.962789999115663335e-04,1.042701490223407745e-02
5.149553198965757250e-01,4.924340978873076868e-01,4.978974474576056686e-01,-1.014479388774157820e-03,3.575617830696659581e-03,5.459055728909608654e-05,2.134159952402114868e-02
4.877612318520502255e-01,5.296262897131933656e-01,4.821596366562838631e-01,2.423208590695317358e-03,-1.042806640481338393e-02,8.609909591655603642e-03,5.084105953574180603e-02
4.996436499832527245e-01,5.472491013589978470e-01,4.558474914302749204e-01,1.064746260764370261e-02,-2.415177216796870335e-02,1.308415048881988139e-02,9.419624507427215576e-02
5.155983562746503379e-01,4.920519105369274837e-01,4.936515038241322539e-01,-9.830167079992759276e-04,2.140573886775729885e-03,-6.937536198259459366e-05,2.315142937004566193e-02
4.845524485745364429e-01,5.265376049357086696e-01,4.783317646680084745e-01,5.908590978036139078e-03,-6.547972422562160603e-03,5.737011126900400972e-03,4.893596470355987549e-02
4.753899029907236451e-01,4.876607257632538106e-01,4.993881745688850127e-01,-3.384804556956872920e-03,-1.940957000861575016e-03,-9.812285636338929917e-03,2.768622525036334991e-02
4.957512972365445969e-01,5.576172466864823818e-01,5.680676251453256054e-01,-4.705007529122989113e-02,7.421769195143831932e-02,5.961213030322977391e-02,1.959843635559082031e-01
4.921228777503151020e-01,5.196155580915009509e-01,4.750802360343469033e-01,-1.352761689431391384e-02,2.959582329769544495e-02,2.021043650373585687e-02,7.692177593708038330e-02
5.312037316481669214e-01,4.984648264748863800e-01,4.869670272193333815e-01,-3.258981099536263117e-03,1.271526084323233111e-03,2.121048078787782665e-03,4.038156196475028992e-02
5.267137365968578289e-01,4.795500356584848634e-01,4.992672795897962201e-01,-1.724305383743951524e-03,7.290283650038850705e-03,4.369408900255800435e-03,4.369079694151878357e-02
4.395371618666514268e-01,4.082562839358532258e-01,5.114327168868441076e-01,-1.371648198985119804e-01,1.188671010174377762e-01,1.451425854492889300e-01,4.128271639347076416e-01
5.407842572209162757e-01,4.741266138640625183e-01,5.030805275366050378e-01,7.543265833387102770e-04,2.076754503254416104e-03,5.413174176544073395e-03,5.877179652452468872e-02
4.159286290359982541e-01,4.769894855922250376e-01,5.834581084499325110e-01,-8.660068671949326669e-02,7.547125385061667635e-02,2.698264844589230368e-02,2.516664862632751465e-01
5.238489056199936433e-01,5.181326495139557675e-01,3.824253520239971893e-01,-4.553465786229689283e-02,1.301041031485105637e-01,1.608092061789586635e-01,3.921799659729003906e-01
5.364346615022388409e-01,4.897917360087552519e-01,4.792502260536110059e-01,3.378269127470364709e-03,2.675695641355312570e-04,7.745371404659030269e-03,5.470647290349006653e-02
3.354495122867323653e-01,5.206226687506452233e-01,4.853008267017041577e-01,-1.034256412828911120e-01,1.790743494744818087e-01,1.098286654898655290e-01,4.398596882820129395e-01
5.415218271675455997e-01,4.987986074952469040e-01,4.749052740816022133e-01,1.046120503464142548e-03,9.046561961300837382e-04,5.428797460522762248e-03,5.925469473004341125e-02
5.376820371429353873e-01,4.917707252964865217e-01,4.900356864193916584e-01,3.544750128462160338e-03,2.861376090562435266e-03,1.261351568368259193e-02,5.225014314055442810e-02
5.361853874467116254e-01,4.914618837987362321e-01,4.851711927111012068e-01,3.034602424389270213e-03,5.049878307630186483e-05,1.724624799071066382e-03,4.855577647686004639e-02
5.244198154447216043e-01,5.176438142433175127e-01,3.678355000992651891e-01,-2.358339495830599070e-02,-5.954342438594031894e-02,-7.095220057590446994e-02,2.256346195936203003e-01
4.823845162689919808e-01,4.937654199676659861e-01,4.781731349813151399e-01,-1.514211843335941214e-02,-1.462514476242562401e-02,-1.963558189937970877e-02,5.178217962384223938e-02
4.798671787039947567e-01,4.960975823643625215e-01,4.772139763127976608e-01,-7.396551898272481912e-03,-6.607248678609126818e-03,-5.266026771982044302e-03,2.630238234996795654e-02
5.445893985145789928e-01,5.020118892189576743e-01,4.738283798876788411e-01,7.789479234526289209e-03,-2.860406856490713655e-03,3.207680977051224295e-03,6.359700858592987061e-02
5.287365004032337223e-01,5.033047897151108341e-01,4.770187206945447622e-01,8.915607616191792775e-03,-1.746202985434950304e-03,4.193463107641311367e-03,4.802703857421875000e-02
4.743540425984381081e-01,4.893762971674316953e-01,5.008106011200198493e-01,-1.868939336923500618e-03,-5.172965652309674013e-03,-8.663938771278150222e-03,2.905390597879886627e-02
5.833867260537460853e-01,5.781159499339776353e-01,4.039934457318362648e-01,3.427076735166593308e-02,-2.906275927393409467e-02,7.126748382395063641e-02,2.292569279670715332e-01
5.136916783603413528e-01,5.051517811279164771e-01,4.849758868458829975e-01,8.599501387647996015e-03,-1.377204487175787704e-03,1.899223239640403672e-03,2.984396368265151978e-02
4.495081598413865898e-01,5.078106573031991866e-01,4.810283057206072854e-01,-6.838162495190341916e-03,-9.846774796633168264e-03,-1.623093564877418210e-02,6.145311892032623291e-02
5.266728043306585505e-01,5.004909431088889749e-01,4.764943579140131780e-01,6.969937529611085723e-03,-1.354451267668445790e-03,4.773990981939102603e-03,4.592622071504592896e-02
5.155176872384300557e-01,4.804073481150545888e-01,5.025764009029034529e-01,4.806777143474055478e-03,-8.516206575989946834e-03,7.448869769861189878e-03,3.740574046969413757e-02
5.026507296283944104e-01,5.005093817100040310e-01,5.013138392015420441e-01,4.383806241044512983e-03,-1.267666069256869529e-03,4.525823901505170860e-03,1.128863822668790817e-02
4.649174014156708390e-01,5.106337343265860973e-01,4.834135321440761190e-01,-2.719710598021278514e-03,-2.930758400481319869e-03,-1.075211039249584014e-02,4.451176151633262634e-02
4.259080924393129353e-01,4.779348326809278458e-01,5.411555069157398812e-01,5.936973193242058022e-02,1.622763276022059012e-02,-6.679933216607316163e-03,1.465979814529418945e-01
5.143807334246800478e-01,4.973813782149524299e-01,4.918665191478474030e-01,3.036971983935341478e-03,-1.156627948767315495e-03,2.875934998344272073e-04,2.109672687947750092e-02
5.115020755340204950e-01,4.995793027853847046e-01,6.006044992448980047e-01,7.953530143593710855e-02,1.055537537289348918e-02,2.057719999606542893e-02,1.724118441343307495e-01
5.111129544036906447e-01,5.053744142696036112e-01,4.896213562756274174e-01,8.126522120405946237e-03,-2.197918369508495944e-03,2.364999235571739206e-03,2.451290562748908997e-02
4.456177484506215758e-01,5.126794150143947348e-01,5.005908712267287397e-01,-1.110262097518168942e-02,-7.078803407316807718e-03,-1.648786766604984355e-02,7.189161330461502075e-02
5.051968557590204023e-01,4.971278629484354172e-01,4.984775865291493080e-01,1.328164821313787547e-03,-4.662860786247347076e-04,-3.896673153279345617e-04,7.901856675744056702e-03
4.121011085147809894e-01,5.385015667569574838e-01,5.488866827510289204e-01,6.586539706862890899e-03,2.261858801869095267e-03,7.883822158820532429e-04,1.324574202299118042e-01
5.979765905438215734e-01,4.009397263816071311e-01,5.880724777751473731e-01,5.312786657545705282e-02,4.039966225628860430e-02,-5.429677058091140346e-02,2.432666569948196411e-01
4.982211837133811994e-01,5.036148855185171858e-01,4.985073049600344253e-01,1.683134984855504199e-03,-5.621530834507285556e-04,2.077853800809760249e-03,7.073184475302696228e-03
5.036167081749283181e-01,4.559506162409111552e-01,5.424041946116109347e-01,1.122218540914132236e-02,4.793375389034474558e-04,2.083585832679566135e-03,7.756867259740829468e-02
5.040591906976142900e-01,4.947754375772251967e-01,5.042533618007539742e-01,1.170341776538083925e-02,-9.277280000097230112e-03,1.376117576196507139e-02,3.640400990843772888e-02
5.007863056689473291e-01,5.004024874660845112e-01,4.996865570192441375e-01,9.043119514492422911e-04,3.478848469552924308e-04,2.129539258254347549e-04,1.971577992662787437e-03
4.914917229590597403e-01,4.715854349920652333e-01,5.491181144431847017e-01,5.508860610127743612e-02,-4.848251628897515264e-03,2.107444421211946556e-02,1.239813119173049927e-01
5.037350791061360189e-01,4.593137715275965594e-01,5.389141497564245986e-01,9.267608363130166657e-03,6.358817926126808170e-03,-6.654665896534469206e-04,7.179009914398193359e-02
5.566929444843735642e-01,3.769598997805682083e-01,5.843831048339602763e-01,6.819498827324671497e-02,2.085607170238304095e-02,6.959571694923789853e-03,2.311913818120956421e-01
5.886812127408365125e-01,4.659659601546421448e-01,4.771328966079534939e-01,-1.222548596920845602e-02,4.562805085715683495e-02,1.064936484780313330e-01,2.335170507431030273e-01
5.366453370964647807e-01,4.891296190602800187e-01,4.861540725039648070e-01,1.697642211249662748e-04,9.983340554555650802e-04,2.615356066000926183e-03,4.931104555726051331e-02
5.330658459869997978e-01,4.901794316275958630e-01,4.860978423421383754e-01,-1.187447849300988156e-03,6.944584652818065838e-04,2.459120716455022882e-03,4.532954096794128418e-02
5.333003703204713952e-01,4.901847773777433526e-01,4.859208852396483258e-01,-7.375419162106855312e-04,6.390841262494699124e-04,2.765240444085656675e-03,4.568120092153549194e-02
5.358323051948942206e-01,4.870833191502046966e-01,4.799243212799496616e-01,-1.367112782852925468e-03,1.695827858369440642e-03,8.756607076691515570e-03,5.496342107653617859e-02
5.349194173049991452e-01,4.783019378104990116e-01,4.886976968560624579e-01,-2.735272611348079220e-04,2.893195119302161781e-03,8.309996589939017825e-03,5.438321083784103394e-02
5.250485225000246503e-01,4.973769427215926076e-01,5.067281083898103056e-01,1.454688929575066042e-02,-1.024127006435698178e-02,1.363035580029947451e-02,4.583934694528579712e-02
4.501086960929523983e-01,5.167745801890124557e-01,5.462745766556649230e-01,7.797828848716046798e-03,-1.788402972890935699e-03,7.759476104931893430e-03,8.748643100261688232e-02
4.834428417735975314e-01,4.927659847668998117e-01,5.213450929883817198e-01,7.177122654647219435e-03,-2.443239253134543536e-03,8.030411303410520119e-03,3.919231519103050232e-02
5.166333726307503760e-01,4.951000786105067553e-01,4.970400025343288952e-01,2.035796852705793001e-03,-3.112469561839577552e-03,7.111195955259286662e-04,2.164915576577186584e-02
4.948372267523711288e-01,5.083985761275517934e-01,5.060377026314276661e-01,1.042497644114000546e-02,-7.220171262908700073e-03,1.037644509529497133e-02,3.103082627058029175e-02
4.984973234801794439e-01,5.018899187950962570e-01,5.001475432569033597e-01,2.547307351280077032e-03,-2.397903127564037298e-03,1.159155590137306898e-03,7.027194835245609283e-03
5.062628767673015284e-01,4.828781701353753730e-01,5.002442036907136513e-01,4.607953011780045391e-03,-7.352770326889981022e-03,7.027995192197006996e-03,2.857256680727005005e-02
4.974772465626854379e-01,4.947715605575340736e-01,5.154972372544361914e-01,8.057095653224834262e-04,-3.057642498546488119e-03,2.143424902079304160e-03,2.060521952807903290e-02
5.074579284489233455e-01,4.928045126755190020e-01,5.021027302877431042e-01,2.617926156495189224e-03,-5.345164834781651261e-03,2.348655525093432117e-03,1.696320436894893646e-02
4.956896713298600821e-01,5.011961993733412557e-01,5.007962302367936491e-01,1.955372185940888914e-03,-9.072695719347685780e-04,3.376077094656182963e-03,8.741448633372783661e-03
5.110459299105477582e-01,5.045673281145128808e-01,4.890509944043296975e-01,7.937783288329303480e-03,-2.628803800330955023e-03,2.063987130324800631e-03,2.461280487477779388e-02
4.407105021183772564e-01,5.368071174388262534e-01,5.091443559777424355e-01,5.589430535388888871e-02,-4.900571871810284474e-02,3.016020474301757751e-02,1.632409393787384033e-01
4.862120674199902903e-01,5.119033824794981813e-01,4.893847020198547892e-01,2.668759059494678863e-03,-4.428540525064131837e-03,6.169591263384263495e-03,2.798203751444816589e-02
4.857789512311998514e-01,5.085929051135530399e-01,4.968182934248974725e-01,4.612253604174245541e-03,-2.901873140764543810e-03,5.814548432280111125e-03,2.410395629703998566e-02
4.953155064467590352e-01,5.011779951410536560e-01,4.971742957593426882e-01,5.283696980697976005e-04,-2.336627216853441862e-03,1.928721687792576576e-03,7.436641957610845566e-03
5.049548830377236230e-01,5.004871487436632904e-01,4.963587645630156420e-01,2.262782463903778313e-03,-4.386494356686423783e-04,-2.218688714998206981e-04,8.457789197564125061e-03
5.750174219187980107e-01,6.066983962561369736e-01,3.209731172533716315e-01,5.205130482395950962e-03,1.520766443770136256e-01,8.666620680379423514e-02,4.069236516952514648e-01
4.991114743811730925e-01,5.099503604749795471e-01,4.983884551369878180e-01,5.966184747775524905e-03,-3.605261025614489058e-03,5.733330236065749437e-03,1.924146525561809540e-02
5.044269624625656867e-01,4.988558213837032684e-01,4.927880304650206211e-01,4.227325940058853336e-03,-2.398266075363576083e-03,1.840929725830922972e-03,1.351640373468399048e-02
5.122261660121706361e-01,5.004620658327205707e-01,4.669864840020391261e-01,2.356672033124392746e-02,-2.155007039761761695e-02,3.169324718663372314e-02,8.789534866809844971e-02
5.091491265755979656e-01,4.926158882861461086e-01,4.893263655731887596e-01,8.655908515226223149e-03,-8.984104369750755756e-03,1.022816036230479383e-02,3.345620632171630859e-02
4.993496572018558122e-01,5.122434671880151669e-01,4.856694845191075194e-01,8.348599511557973016e-03,-2.536116197680157117e-03,1.645920718267929878e-03,2.768225409090518951e-02
5.057037749765734835e-01,4.971250620670376041e-01,5.023709374749200096e-01,1.599117797943906856e-03,-4.564318774517189467e-03,1.574522356310086545e-03,1.156367454677820206e-02
5.065195403540049268e-01,4.981368224208151951e-01,4.963131425551460252e-01,1.027590191309375994e-03,-1.134940708811348021e-03,1.674678774864101879e-05,9.793676435947418213e-03
5.100158703485667688e-01,4.957106625895793539e-01,5.059512909772519995e-01,6.638287103355768048e-03,7.495041566550202615e-03,-5.872208497854927711e-03,2.381577529013156891e-02
4.926840917604379810e-01,5.061106990899865155e-01,5.125865748578762870e-01,1.583226987157461754e-02,1.148599253258992051e-02,-7.515114694805289514e-03,4.032811522483825684e-02
5.093974550875457474e-01,5.074157000463920264e-01,4.901679831281116062e-01,1.378223209286932004e-02,1.342996535149125134e-02,-9.154183137900510220e-03,4.120595380663871765e-02
5.013804748064140115e-01,5.078458035595949660e-01,4.933684530694270598e-01,5.993917196229817633e-03,5.468448050313299419e-03,-7.043275045411703794e-03,2.245238050818443298e-02
5.028498327326499373e-01,4.640110814684547669e-01,5.275838398303380750e-01,9.482402778545008862e-03,1.039952206939734336e-02,-4.119572390178760125e-03,6.104071065783500671e-02
4.931805030803189660e-01,4.935611891341372126e-01,5.220583786847161623e-01,8.104424533577618550e-03,6.600718685073884116e-03,-4.737040086385684717e-03,3.490208461880683899e-02
5.202521314535110131e-01,4.492965776681922541e-01,5.175507165389385822e-01,1.054690332431821621e-02,-1.154227681625434425e-02,1.878200264456997975e-02,8.149836212396621704e-02
5.076015663626466390e-01,4.669076264069163540e-01,5.168393235862814850e-01,7.201830310023474985e-03,1.358731591929404625e-02,-7.039435210907908462e-03,5.454685166478157043e-02
4.961956211287937291e-01,4.963969534882636259e-01,5.089712060111580838e-01,1.115971393558414047e-03,1.334520091917161880e-03,-2.465947745644914754e-03,1.371151581406593323e-02
5.255289707053552029e-01,5.043593366891572227e-01,4.690994339479649944e-01,1.414171928466522246e-02,-4.609496387693140865e-03,9.115647216593070895e-03,5.788648873567581177e-02
5.163681532986734712e-01,4.937194978690158664e-01,4.927779192863881441e-01,2.038949882969867764e-03,-1.208282983656132435e-03,-4.386182334084809593e-04,2.350750006735324860e-02
5.066091812217307089e-01,4.745273717829570082e-01,5.120034940405951973e-01,6.244181507661140246e-03,1.036595699153674416e-02,-4.174307380669200519e-03,4.150907695293426514e-02
4.875002230060797581e-01,5.021974040259573613e-01,5.258147904013631413e-01,1.864974637898111562e-02,9.655548886350511992e-03,-6.430442909614354947e-03,5.067619681358337402e-02
4.899101542069271842e-01,4.801293771954991407e-01,5.342435499490844064e-01,6.315136847552487234e-03,3.433471427333777744e-03,-9.155689687979546871e-04,5.150002241134643555e-02
4.731076535052584631e-01,4.981181823038040024e-01,5.288187773564807515e-01,1.033181940550222458e-02,3.832868091570402428e-03,-6.183958070060433833e-03,5.305588990449905396e-02
4.797761033236609407e-01,5.006787334715260274e-01,5.164868012072746373e-01,6.638093384891002174e-03,4.770624776475947126e-03,-7.990025409401710008e-03,3.753979504108428955e-02
4.950207498065202216e-01,4.970338785362186096e-01,5.163350396333061809e-01,7.088076271238076282e-04,2.254432089746511228e-03,-3.068024905369498914e-03,2.145777642726898193e-02
5.276295877847677618e-01,4.865116086421316655e-01,4.928926746198905584e-01,1.719661472483360529e-03,-2.865087860930758644e-03,3.660516559927409069e-03,3.927754610776901245e-02
5.274158560419989206e-01,4.895729552272974905e-01,4.864760845503463549e-01,2.081096921478936285e-03,-1.051418766045803107e-03,1.129902695005217993e-03,3.973675519227981567e-02
4.964358392150541310e-01,5.073845431001319239e-01,5.049706887524239018e-01,9.950814945064558395e-03,1.774063881326367123e-02,-1.187599755944297904e-02,4.199568182229995728e-02
5.137555550047691044e-01,4.891244047877633117e-01,5.184216707511599687e-01,1.636846937385421155e-02,1.377804756690239642e-02,-8.928942045541201494e-03,4.853720217943191528e-02
4.944578296305989218e-01,4.923891941517640203e-01,5.156423859181169522e-01,7.856501777241226242e-05,2.280503225836388783e-03,-9.469003630823649318e-04,2.269797958433628082e-02
5.376494195088949990e-01,4.885529071415400937e-01,4.891063312808849317e-01,7.589105544505083019e-04,1.726156636994081761e-05,1.038029910952383179e-02,5.204404890537261963e-02
4.970473191805996338e-01,4.835944677668914671e-01,5.201610991183177601e-01,4.945030510484190074e-03,7.474005251391021426e-03,-3.453001808886909524e-03,3.609548881649971008e-02
3.840214444207024069e-01,5.740026369378777860e-01,5.653188217305399332e-01,-4.700373807878913818e-02,3.519223487448368964e-02,1.474267927203393690e-02,2.133402824401855469e-01
3.552375122582877021e-01,6.159608902329786195e-01,6.169193303207530787e-01,-4.561979311325296133e-02,3.119672640027099098e-02,2.658181067548472457e-02,2.819760143756866455e-01
2.417997150322040156e-01,5.557663463135764648e-01,5.721241062377169229e-01,-9.873635672749403458e-02,7.677842783137353577e-02,4.110643698677316632e-02,3.949417769908905029e-01
5.514858394087426285e-01,4.409920840850738433e-01,5.173487904905771373e-01,2.903206869791361087e-03,-3.819879917791931955e-04,7.781132311750688264e-03,9.904362261295318604e-02
4.894888324961707560e-01,4.879799062589026959e-01,5.132901097508277832e-01,-3.408124704231651082e-03,6.252913981460021461e-03,3.347515937024743080e-03,2.811498381197452545e-02
4.837654646338869768e-01,4.838107910474027107e-01,5.175904630565212328e-01,-5.338308266072603589e-05,1.326906427232792856e-03,6.177308458040377389e-04,3.389741480350494385e-02
3.565112799766252394e-01,5.670594935685441262e-01,5.956861752782255381e-01,-6.167900717169774033e-02,1.140283458591431348e-01,6.069670571506104867e-02,3.356335759162902832e-01
3.795134163854343434e-01,5.636638509061966396e-01,5.802754179519986621e-01,-6.524752774192163485e-03,8.034402487479525012e-02,2.445617627219655310e-02,2.419377416372299194e-01
3.380644053031695018e-01,5.595595486010139785e-01,5.520266411380689853e-01,-1.022436488208837424e-02,3.330105567882942624e-02,1.046510233558319188e-02,2.267540246248245239e-01
4.116212049478796819e-01,5.517854487768708571e-01,5.419253779606344468e-01,2.195569395795666720e-02,7.536837727469150247e-03,1.868253781326309048e-03,1.413798034191131592e-01
1.858863559468388327e-01,6.107469060896271174e-01,5.576430758847812363e-01,7.908157840124234797e-03,1.291758976230099332e-01,2.541568118904145857e-02,4.614645242691040039e-01
5.227860580793163292e-01,5.090027508947577717e-01,4.884053349531952137e-01,1.326613630630681800e-02,-1.026564376529730087e-02,1.631313374160678342e-02,5.040446296334266663e-02
5.350117564240955970e-01,5.340618980135481975e-01,4.217088312883365275e-01,-4.380469272806381334e-03,6.513727758528063683e-03,5.983289000068075028e-03,1.141187250614166260e-01
4.743307744294819606e-01,4.751682711486519550e-01,5.292275209659262902e-01,-4.829496495150656333e-04,1.602489057219139926e-03,1.185022881228420434e-04,5.456028133630752563e-02
5.169832129410445454e-01,5.419795418187034475e-01,4.509678776873597972e-01,-3.443246578560022440e-03,7.940058302678538321e-03,7.347622354975985939e-03,8.378332853317260742e-02
4.705233490345644976e-01,5.320188574582077612e-01,5.089135043114441093e-01,2.053659085593678019e-02,-1.832971580003282461e-02,1.578527215704875197e-02,7.691159844398498535e-02
4.959383705554321620e-01,5.044903902615143210e-01,4.994053171274107084e-01,-5.162717225754374223e-04,1.969640668985511180e-04,2.601746514695245892e-03,8.759601041674613953e-03
5.235781725127244268e-01,4.965059766557844978e-01,5.100676922242336486e-01,1.403067211967436861e-02,-1.047620626417171928e-02,1.640544910927264899e-02,4.771715402603149414e-02
5.102518933376409827e-01,4.951301478265878742e-01,4.921703817984021678e-01,6.445463670122996390e-03,-2.854692970587316934e-03,3.660143229438288497e-03,2.171299234032630920e-02
2.200767604023682877e-01,6.259045291793685628e-01,5.942718816861938258e-01,2.273655509031511160e-02,4.986107099191956077e-02,1.639474016842470266e-02,4.033298790454864502e-01
5.135319965922874319e-01,4.968244925946980750e-01,4.922242961932359884e-01,3.859271153003844459e-03,-2.408022632848786076e-03,2.501650895398513808e-03,2.140123210847377777e-02
5.317783099231260246e-01,4.787048689107974986e-01,4.911660373664404888e-01,-1.871250487517652850e-03,6.002839290816624519e-03,6.839644865333479110e-03,5.069184303283691406e-02
5.329680180625040453e-01,4.901504841479421559e-01,4.871184764479937757e-01,-4.580097761219280631e-04,5.286781775230675173e-04,2.427633913546910650e-03,4.462628439068794250e-02
5.228470576218017252e-01,4.958568073412183419e-01,4.866326387198165460e-01,6.362180764947383479e-03,-2.309484040990189644e-03,4.323440257792691283e-03,3.544053062796592712e-02
3.722292598798738750e-01,3.192735859230841911e-01,5.533559041338045326e-01,-2.213048262010983425e-01,-1.004051543068297941e-01,-1.227128700897345270e-01,5.172516107559204102e-01
5.270650075409386570e-01,4.894358410221725797e-01,4.905698588446928965e-01,-8.245019407005823708e-04,2.509909773466325114e-03,1.061011851034649378e-03,3.740165382623672485e-02
5.214474486111010387e-01,4.864509965301817007e-01,5.013066966147399217e-01,8.425815676044168256e-03,-7.492786699049767268e-03,1.747859556510187803e-02,4.715356975793838501e-02
4.926150393184723919e-01,5.181926648556397508e-01,4.855810310490720205e-01,4.791393398970810076e-03,3.146961271264632704e-04,8.231456889199057761e-04,3.089996054768562317e-02
5.268635734413728011e-01,5.008917622604712738e-01,4.604590410476493423e-01,1.070905209265976543e-02,-3.480301366321858145e-03,1.168839355929165123e-02,6.441812962293624878e-02
4.578615178131121288e-01,5.122426483912015938e-01,5.188943501511520395e-01,-3.988889400666280338e-03,3.667429448395926120e-03,1.342246229074782644e-02,6.318109482526779175e-02
5.261041873552216863e-01,4.899649707383109676e-01,4.811394352048967149e-01,5.912800261088792253e-03,-1.878457270740418626e-03,7.578624677576677009e-03,4.461678117513656616e-02
4.542420486963458237e-01,4.801817131072086964e-01,5.411795602980303821e-01,-4.465814304603578713e-03,5.518401247157776919e-04,-8.957167606793929159e-04,7.771112024784088135e-02
5.368979646979854525e-01,5.350862623306076316e-01,4.147390283050054194e-01,-7.186707130878573768e-02,-1.073047682082538534e-01,-9.780825349932580071e-02,3.056823611259460449e-01
5.519316313235776983e-01,5.663816034849253889e-01,3.785896416719586322e-01,-4.838276534689771313e-02,-1.105212067556930883e-01,-8.624152636946948169e-02,3.142313361167907715e-01
4.684715926831081734e-01,4.722115254677762275e-01,5.380929135374722394e-01,-1.172847852247681406e-02,-1.782352908078744863e-03,6.941121879997984659e-05,7.087279111146926880e-02
5.958202311611539015e-01,6.033618197973656949e-01,3.536473252291448821e-01,1.547558727345390173e-03,-5.468973560536754402e-02,-5.438064434110616296e-02,2.799693048000335693e-01
3.934188246523080967e-01,5.312654547852661002e-01,5.508279125985123814e-01,-1.194700960476750666e-02,-2.650002064987547288e-03,1.824806476817260586e-03,1.501341164112091064e-01
5.281128553386051916e-01,5.235661979735883875e-01,3.388238475134339178e-01,-2.374049743946645211e-02,-5.207402728330436797e-02,-5.027801441416548944e-02,2.289103567600250244e-01
5.815488564871288402e-01,5.739996825254384261e-01,3.751382489480235005e-01,-2.222657347726541763e-02,-5.623416196808433964e-02,-8.020317533927653897e-02,2.671528756618499756e-01
4.472383910693188414e-01,5.417406758716820647e-01,5.447152924135894025e-01,6.986142010939837450e-03,8.583041254562428016e-03,5.364159981021810299e-04,9.792306274175643921e-02
4.683736078921647561e-01,4.644585749333046687e-01,5.347110088663094007e-01,-2.001300094654024329e-03,-1.143731534454840888e-03,-1.672564207554083160e-03,6.855671852827072144e-02
4.860791285722620980e-01,5.064517144602448395e-01,5.058685744570643461e-01,-1.058626287401375279e-03,3.082033358250316647e-03,7.400731665024206513e-03,2.448823302984237671e-02
5.474107976846319668e-01,4.225723716411857178e-01,5.499397886704998628e-01,-1.443689390115764776e-02,1.112837453058316065e-02,1.497837810158567963e-02,1.325767487287521362e-01
5.153867136152890938e-01,4.814864673078729229e-01,5.044456700806680960e-01,-3.638603282726453163e-03,7.620266044071169996e-03,3.534196265923292800e-03,3.390316292643547058e-02
5.510907806175479040e-01,3.909018344075313456e-01,5.271810924460168524e-01,-2.058915143958859467e-02,1.706086491005347899e-02,4.244873031174502959e-02,1.730686128139495850e-01
5.199511166519913408e-01,5.022747006521230961e-01,5.007509031265598987e-01,-2.067088586369722827e-02,1.745927422778657812e-02,3.723887540627744686e-02,8.184283226728439331e-02
4.886356534210928304e-01,4.723334374570777872e-01,5.214623628665384647e-01,-9.915926429171675882e-02,-5.959339937590273084e-02,-7.333070696130943034e-02,2.411689907312393188e-01
5.235019395962698940e-01,4.849598805756782927e-01,5.022616969197229997e-01,-1.951620133260883712e-03,9.769721624083665262e-03,3.300937084742950386e-03,3.805854544043540955e-02
5.928182202272448409e-01,4.763408298390044981e-01,5.530436962101028531e-01,-4.408201175688718221e-02,5.111285858780474645e-02,8.477488357619311632e-02,2.138778865337371826e-01
5.059247679031061429e-01,4.997193040602582181e-01,5.163566780970443304e-01,-1.379296427706772597e-02,3.274171324596614197e-02,3.449809633854249852e-02,8.700126409530639648e-02
5.154430118473475320e-01,4.968770060067267402e-01,4.935055738088504063e-01,-1.254772290280124943e-03,1.871488186462760741e-03,2.149125086291577610e-03,2.115996554493904114e-02
5.052864024489210903e-01,4.938613862486598283e-01,5.003442268886022504e-01,-1.485346383244767103e-03,1.649911142730377646e-03,1.283678101260544773e-03,1.087292656302452087e-02
4.972223514704909864e-01,4.985625071039510026e-01,5.000035168503037530e-01,-3.556186776622755064e-04,1.868840071952068086e-03,4.573794821211253029e-04,4.157929215580224991e-03
5.108836425585201457e-01,4.699902399627458593e-01,5.186155287002347514e-01,-4.680054951893647570e-03,9.836941535838295697e-03,2.863061860443055426e-03,4.928318038582801819e-02
5.590660677026194625e-01,4.488130021543676462e-01,4.784053247194167136e-01,-1.077000959942253991e-03,2.359081322313185888e-02,6.094111071341730412e-02,1.502774655818939209e-01
5.329629045020589651e-01,3.795960305299018178e-01,5.355997121685058815e-01,-3.895550322986187503e-02,1.985330960789230895e-02,3.519668249061731757e-02,1.827135086059570312e-01
4.683112396286805978e-01,5.880846676401473294e-01,4.691011069938921807e-01,1.362214164784125020e-02,5.371424321432179821e-02,2.288460838536823772e-04,1.531802862882614136e-01
4.884013508592317532e-01,5.377665020909070392e-01,4.926332299517250379e-01,5.500795833295031231e-03,1.168366878071283588e-02,1.597922406550350994e-03,5.247742682695388794e-02
4.906694472104434213e-01,4.937385941442153370e-01,5.052308131520814038e-01,-9.905650786682213514e-04,3.751456500439139148e-03,1.174198470881797525e-03,1.503536570817232132e-02
4.886824723062258014e-01,4.996010495527451467e-01,5.064660132521177083e-01,-1.703356771784265890e-03,2.172149696411431515e-03,4.530711418286773907e-03,1.804826036095619202e-02
4.940932413188391381e-01,4.699231909301905263e-01,5.445712612126559771e-01,-2.150241332981451051e-02,9.585170067527938598e-03,8.971579387366044114e-03,7.909762114286422729e-02
5.004113616688451449e-01,5.446217338734444802e-01,4.657565296023439827e-01,5.307451031708192851e-03,2.107842308142113263e-02,8.287312219988270459e-03,7.944219559431076050e-02
3.973438219075763889e-01,5.495136504271314060e-01,5.403425849464550401e-01,1.738127126672297336e-03,6.867051096123442423e-03,-3.661138759207012016e-04,1.483075916767120361e-01
5.026398165063389323e-01,5.363563868450067496e-01,4.783567631305222223e-01,-3.020065207628447584e-03,4.839771720794056042e-03,2.704727898576508860e-03,5.162164568901062012e-02
4.711312752673825210e-01,4.649577888934414149e-01,5.367710024446588069e-01,-2.260783723097632269e-03,-3.091713956744882377e-03,-1.484537604055492007e-03,6.930030882358551025e-02
5.111237400660055830e-01,5.092345499468506898e-01,4.930250988451542749e-01,1.227360054367312991e-02,-7.850216802821668657e-03,1.501628026575447736e-02,4.012736678123474121e-02
4.907445333095685203e-01,5.420252832908800666e-01,4.927299466028077224e-01,1.653619941737013944e-03,1.312040150245762093e-02,1.026741703950918459e-03,5.531405285000801086e-02
5.104036665129206840e-01,5.461544258496122684e-01,4.542809751448457778e-01,-3.380038283003535243e-03,3.377156449750326472e-02,9.994210721447760806e-03,1.009444594383239746e-01
4.978050706007764448e-01,4.974341230063952790e-01,5.038770333516868760e-01,7.823206251181183792e-04,-8.807565303873510177e-04,3.293034311981774855e-03,8.715171366930007935e-03
4.821939834879468423e-01,5.002319634870004972e-01,5.107579710521861216e-01,7.807165659410660215e-03,5.964075793224615438e-03,-9.374327729314442179e-03,3.433997184038162231e-02
4.928742868161268831e-01,5.024317398395649059e-01,5.125700543107637452e-01,2.441076770058744558e-03,2.502504557825320670e-03,-5.972059538108314032e-03,2.084915898740291595e-02
5.021849403248982435e-01,4.989440951702819871e-01,4.972007056521734469e-01,2.162581263030851665e-03,1.111213072353692917e-03,-7.919009542372972563e-04,6.229648366570472717e-03
4.923600324050918520e-01,5.049772215392399621e-01,5.249925163515355431e-01,1.564957444531499611e-02,1.245614676126931795e-02,-8.284479863885545539e-03,4.710025712847709656e-02
4.998608095798795503e-01,4.980753418863718696e-01,5.009564905150767355e-01,3.889194927380484369e-04,1.741794103993419846e-03,-9.063274558709100972e-04,4.285360686480998993e-03
4.984675138607092548e-01,4.963334123798560649e-01,5.060606715327563565e-01,-1.328132004192995278e-04,1.222754464375864526e-03,-1.024188027072974816e-03,9.279018267989158630e-03
5.026542071513887544e-01,4.971242528388008508e-01,5.054117364390465772e-01,1.599119943292432421e-03,-4.560726873475723364e-03,1.574524431390292951e-03,1.144303288310766220e-02
4.510172593619062864e-01,4.615027299434869557e-01,6.443239535054383627e-01,1.674752472936339442e-01,3.241601910406571863e-02,-5.670748724335435142e-02,3.638598620891571045e-01
5.165192821333706164e-01,4.912634181254351695e-01,4.997540035002876468e-01,2.757185605068508856e-03,-4.884358134249638418e-03,1.843047477603749736e-03,2.449651435017585754e-02
4.974252571914486443e-01,4.940379087499279787e-01,5.089216623230807812e-01,6.738608093666460536e-04,3.226449866912052718e-03,-5.921647442540524343e-04,1.470469217747449875e-02
5.243254613144068266e-01,4.895143240975510790e-01,4.896979549651067076e-01,6.540267421094068251e-03,7.866525062384869052e-03,-5.308614785020346165e-03,4.004962742328643799e-02
5.508961379129894143e-01,5.423178789034003300e-01,4.244975960205783494e-01,-2.237400682190830205e-04,5.778042118526084507e-03,7.319334979551176540e-03,1.233974248170852661e-01
5.238531097028870098e-01,4.967632186153950746e-01,5.015467651940228588e-01,1.395335403954230287e-02,-5.605759566015933865e-03,2.159779841481171414e-02,5.200880020856857300e-02
5.339636589973993930e-01,5.176425400634760976e-01,4.701502176892484175e-01,1.263479810477951930e-02,-3.756194207589901024e-03,4.701348775344805012e-03,6.232637539505958557e-02
5.005462903982917933e-01,4.815514041226628406e-01,5.322576741562876634e-01,2.931526546800458481e-03,-5.480936572566086178e-03,2.983600197285580114e-03,4.594976454973220825e-02
5.403051663589757414e-01,4.665480010761498542e-01,5.151878303657505542e-01,5.735247593926923008e-03,-4.850271314003691721e-03,8.713085538915711289e-03,6.793691962957382202e-02
5.295200730401329325e-01,4.821169971633192941e-01,4.788690741283578856e-01,5.898404645311540635e-03,4.895819692524469233e-03,-7.684838663521311938e-03,5.258339270949363708e-02
5.109132208527091823e-01,4.854281708023703290e-01,4.899898854903337320e-01,1.966481020676674740e-03,4.605092791051972057e-03,-4.468202456598647891e-03,2.625181525945663452e-02
5.319868507470929542e-01,4.659624838890963905e-01,5.181142656258108659e-01,5.383765767097896046e-03,-2.705052933413090634e-03,8.562669543722801341e-03,6.296508014202117920e-02
5.090648150716740039e-01,4.970331638025907717e-01,4.897504252823839388e-01,5.749385309624169271e-03,2.597076394537775525e-03,-2.291038029349044911e-03,2.050779201090335846e-02
5.368042592581101502e-01,4.777125667903087680e-01,4.992909264315485429e-01,2.504961184938941758e-03,2.411884991361111247e-03,5.440966121024393837e-03,5.298528447747230530e-02
5.182059599807995465e-01,4.830116793634280370e-01,4.887701970748263847e-01,2.219797330388384969e-03,5.774045085580946195e-03,-2.235807964227817628e-03,3.462555259466171265e-02
5.226778730822400076e-01,4.740421675626164677e-01,4.882817424408121831e-01,4.029144034274173905e-03,8.402929109075684203e-03,-4.827992006050005683e-03,4.696917906403541565e-02
5.264608168363240637e-01,4.722197319150545081e-01,4.931620142062409506e-01,1.313166165392147186e-02,1.310123018276506020e-02,-2.168380645956937552e-02,6.846570968627929688e-02
5.232493000409776940e-01,4.678940254420971279e-01,5.008824063144893257e-01,6.669215443079994608e-03,1.103141378861411011e-02,-1.707774392316377052e-02,6.082613393664360046e-02
5.006659100896766468e-01,5.223173038959822989e-01,4.851056353329774029e-01,-5.379494126317600766e-03,3.033075344056339936e-03,3.054633603259745717e-03,3.449948504567146301e-02
5.285209120886084078e-01,4.550573217796207159e-01,5.013451096979849586e-01,-4.406137849588298225e-03,6.968059593671883760e-03,4.863619671500510160e-03,6.643687933683395386e-02
5.050899250780619409e-01,5.066127806743353501e-01,4.953173958012139222e-01,-3.036454129197139161e-03,2.545431836504902148e-03,2.340047073672149158e-03,1.327512226998806000e-02
4.854939422445490038e-01,5.731652066142775004e-01,4.575512971570258602e-01,-8.737202636833396249e-03,5.734311775575869075e-02,9.871692181133753449e-03,1.459550410509109497e-01
4.683244057963727447e-01,4.754524892096236299e-01,5.385341508079318773e-01,-7.889199335124386959e-04,5.290610986390196363e-04,2.444654451616479988e-03,6.708496809005737305e-02
4.997717567257178306e-01,5.387029316027395209e-01,4.841443811403113306e-01,-7.954196648726241312e-03,1.988368929751240313e-02,1.297052904254155682e-02,6.518311053514480591e-02
5.227144777284613575e-01,4.268211778457365879e-01,5.592786923488916040e-01,-8.004734413897772460e-02,2.904673932785416246e-02,5.018425262757324201e-02,2.082017809152603149e-01
4.776742694426948099e-01,5.309680896286742557e-01,4.872119989502418091e-01,-2.198033540633757225e-03,9.455389682767514209e-03,5.288970636574662383e-03,5.281594768166542053e-02
5.001019799995923831e-01,5.224686713468509325e-01,4.865114550395658877e-01,-5.971008318222860260e-03,1.754747109807984137e-02,1.000996845530769883e-02,4.816891998052597046e-02
4.991414069671158416e-01,5.294956841316398322e-01,4.661006020979595044e-01,-3.245883918268563807e-03,1.102724390484541121e-02,3.559196035081294354e-03,5.874025821685791016e-02
4.966070489671525756e-01,5.423047710252933973e-01,4.801716440429593669e-01,-1.595723945058108439e-02,3.456889066503127800e-02,1.612974726907025896e-02,9.076836705207824707e-02
4.866757235670046700e-01,5.360837161863244438e-01,4.883142184733449409e-01,1.877161747342959890e-03,1.141746795509817648e-02,2.735324028483767777e-03,5.279178544878959656e-02
4.915346963287671178e-01,5.332909544144492919e-01,4.880614709590267997e-01,-3.835553713352841433e-03,1.316582658032062515e-02,4.938975614121846221e-03,5.037865787744522095e-02
4.813453234445950746e-01,5.280779098294841045e-01,5.001929778813638539e-01,-1.617349797733856316e-03,1.091664172262715900e-02,1.286385033072396517e-02,5.020131170749664307e-02
4.516537353728702353e-01,4.805633114549429097e-01,5.363376804618191773e-01,-6.380036522369474453e-03,-1.487952832611175603e-03,-4.674182891175011206e-03,7.585023343563079834e-02
4.931884099619042172e-01,5.250660217138299890e-01,4.869908130512938804e-01,-8.788870737646760790e-04,2.964091971725813391e-03,1.626235334579137579e-03,3.589938208460807800e-02
5.048912222036404662e-01,4.944871642182138705e-01,5.067447254316995719e-01,-1.000743621470294182e-03,4.344462671186455696e-03,7.917769621658548055e-04,1.387343183159828186e-02
5.022597590176132165e-01,6.254469572753889040e-01,4.742142319191000044e-01,4.959118833198264409e-02,-9.002205951523069294e-02,5.139193190602360517e-02,2.429601848125457764e-01
4.779673603133181570e-01,4.346777862052505492e-01,5.382465454839724384e-01,-1.724564171140440319e-02,-8.623677156319516091e-03,-2.817358629224546007e-03,9.620904177427291870e-02
4.559497055617434680e-01,4.835100786683096952e-01,5.444078772315092962e-01,-4.198036940712747758e-03,1.503046866671108863e-03,3.817549092954982629e-03,7.905600219964981079e-02
4.756706194718980374e-01,5.740074211131553916e-01,4.669310611607445649e-01,-5.704135575104762358e-03,-6.085840971977634489e-02,-1.147872026454244826e-02,1.490304023027420044e-01
1.888320768245401182e-01,5.971129506198644687e-01,5.349718454777204757e-01,8.929859212759683196e-02,-1.380156296584456044e-01,5.196404239740748388e-02,4.840993881225585938e-01
5.014877754333558757e-01,4.312192009152825412e-01,5.396788559828590293e-01,-1.042202540705308884e-02,8.496628436071920754e-03,7.862703301676505357e-04,9.810276329517364502e-02
4.114423455297830934e-01,6.226147592288117094e-01,5.850636226389150929e-01,7.046242218236793697e-02,-5.847668862985180849e-02,4.476781821047984972e-02,2.631349563598632812e-01
6.760492786260092757e-01,3.608945699304079158e-01,5.119160483055309463e-01,3.963048035788527268e-02,1.205905732662590213e-01,-2.025624482443841579e-01,4.959510862827301025e-01
4.233053292448006877e-01,5.447075148340464468e-01,5.008621097320840043e-01,-4.838681253640967446e-04,-9.683913809275013912e-03,4.373198784675681218e-03,1.080619916319847107e-01
5.002067457653641691e-01,4.773467601829798901e-01,5.364075009161353158e-01,4.241010073376572098e-03,-5.948489435200712654e-03,4.816439222394934550e-03,5.376177653670310974e-02
3.384004421009381147e-01,6.348403616441691266e-01,5.501515726551806651e-01,1.774967828207548171e-01,-1.624746998461082670e-01,4.374230272773960843e-02,4.993928968906402588e-01
3.613141781409146547e-01,7.365622583498900866e-01,3.994492753762883819e-01,1.127829220619450679e-01,-2.171440930605598729e-01,3.211634478665897907e-02,5.573726892471313477e-01
5.296944893773555263e-01,4.311902084284175429e-01,5.496783603470152268e-01,2.259448310467349758e-02,-2.561070019446917961e-03,1.292264070258332918e-02,1.188408136367797852e-01
5.127282590087315350e-01,5.486729146741010643e-01,4.550158552114407229e-01,1.304672498110211708e-02,-2.343578988857961815e-02,1.390388313162811348e-02,9.713653475046157837e-02
4.936224316746429253e-01,4.904741120964679624e-01,5.273686628911306018e-01,7.407741826785188295e-04,-3.442049196393541163e-03,1.701133623227782605e-03,3.606708720326423645e-02
4.927920845894206425e-01,4.942700612502409774e-01,5.154364378502269695e-01,3.507393648909318457e-04,-1.170847062462330047e-03,2.099899907664627176e-03,2.234264463186264038e-02
3.489519189836505220e-01,5.672304175646086799e-01,5.149930642687318150e-01,1.939199391645632375e-02,-5.891613821010459329e-02,1.451861660471732637e-02,2.261543869972229004e-01
2.572928315978922909e-01,6.078326797816928639e-01,4.176862555921421194e-01,1.303619930999721328e-03,-2.217833430928995431e-01,6.209537418498468735e-03,4.899635314941406250e-01
4.419998086453489350e-01,5.085972434587999746e-01,5.080167798973072024e-01,-2.901283268256363984e-02,-2.827746382123626917e-02,-1.749907115962251111e-02,1.011910513043403625e-01
3.999664073963697941e-01,5.435047973531785814e-01,5.437477446997553976e-01,5.761682123609204211e-03,-3.363739824283772020e-03,1.533773074891532813e-02,1.465519517660140991e-01
4.558810003883238537e-01,4.310835294701766962e-01,5.983205796658159770e-01,-9.492032056651715510e-02,-5.049254127718508928e-02,-2.444735382013676905e-02,2.467938363552093506e-01
4.860768519497416507e-01,5.057916324807445463e-01,5.158439398965152245e-01,1.395213149336012272e-03,-1.771019739478151001e-03,7.586690817192347745e-03,2.959431521594524384e-02
5.001112866851004091e-01,4.689560980957856451e-01,5.443982506721041226e-01,8.920510146258458020e-03,-4.695127017104740695e-04,3.434277551483963433e-03,6.772385537624359131e-02
4.761563638782140284e-01,4.985799902829323726e-01,5.448103815102217640e-01,5.677528079586147830e-03,3.383026280368821824e-03,-2.428137539273742332e-04,6.170847266912460327e-02
4.709768309564001942e-01,5.196174962053279334e-01,4.714865911803962639e-01,-7.809267163765281662e-03,-9.515245493323141318e-03,-8.294694258431767331e-03,5.479378253221511841e-02
4.665480782069501564e-01,5.150864540732817964e-01,4.715500907856554624e-01,-2.499257410380454399e-03,-4.827970316249477999e-03,-8.130477606065099686e-03,4.924616962671279907e-02
4.665902049630556436e-01,5.099758399188357716e-01,4.783724928816669442e-01,-3.747567248170348680e-03,-3.838693379821741559e-03,-8.234253909220962814e-03,4.242289438843727112e-02
5.095655173480991840e-01,4.639254731457292391e-01,4.616153961762257119e-01,-1.278754544281662103e-02,-1.213387843179695308e-02,-2.031861336324586667e-02,6.606494635343551636e-02
5.149993228820569646e-01,4.793845729525514354e-01,5.157882597561574967e-01,4.518779090209980656e-03,-7.746961514636335408e-03,5.013630587491471960e-03,4.017268121242523193e-02
4.819936509170307248e-01,4.841856677777143236e-01,4.614864080809850111e-01,-2.161382257784977279e-02,-1.170027391749242814e-02,-8.512612793654323814e-03,4.999859258532524109e-02
5.367025487414970319e-01,4.856381582190857915e-01,4.902157423882820830e-01,1.428788417127994752e-03,-1.227662752694177193e-03,1.967373379052499583e-03,4.916332289576530457e-02
4.864218386677232053e-01,5.031047955937741900e-01,4.579638397199207733e-01,-1.395325886870091292e-02,-9.140207578527535792e-03,-6.895584460562335406e-03,5.040138959884643555e-02
5.301813642080500655e-01,4.568270227192985367e-01,5.158780456275003923e-01,-3.718872947193842694e-03,1.095169958434407884e-02,7.880503622306685857e-03,7.158107310533523560e-02
4.737492909920220097e-01,4.968004108746220671e-01,4.688817042460606821e-01,-1.226239757870140404e-02,-1.214649062688410823e-02,-1.373243990279022012e-02,4.611617326736450195e-02
5.537336622480857340e-01,4.247010545063062970e-01,5.219764963533577440e-01,2.537293696772292481e-02,-1.782910412671863875e-03,5.227028675816383640e-02,1.539404541254043579e-01
4.885132055734539569e-01,4.714594979459444946e-01,4.949077758266438032e-01,-3.402722084170557021e-02,-2.589840103887733336e-02,-3.307711977671355663e-02,9.596246480941772461e-02
4.683647142601758961e-01,4.686378304892525604e-01,5.233729439954247775e-01,-1.871048034058243794e-03,-2.212860409036135345e-03,-4.699318720519639683e-03,5.569919198751449585e-02
4.886620448315469045e-01,4.845407777130508742e-01,4.857890165636322699e-01,-1.443641331664985688e-03,-2.556333513284867343e-03,-9.306185604874857688e-04,6.469435524195432663e-03
5.304443040443697077e-01,4.572658479985337587e-01,5.194913671939054289e-01,-3.749249633443346458e-03,9.389812266758603906e-03,6.960292508046920373e-03,7.159292697906494141e-02
5.437109399432724643e-01,5.614176701925205348e-01,3.691770603944083406e-01,6.641723038479207218e-03,-2.028905646135482216e-02,-1.484622070225714895e-03,1.877229809761047363e-01
4.737192988490767087e-01,4.986717915581732607e-01,4.790889459186825627e-01,-2.804724769415835057e-03,-3.821080297051417888e-03,-5.776177187167241302e-03,2.617189288139343262e-02
4.626750184874982574e-01,4.828201507884389843e-01,5.299379227062530617e-01,-4.384020975925908420e-03,4.037628203122529675e-04,4.219941929204951321e-03,6.071800738573074341e-02
4.899201603873007960e-01,4.891070406002168136e-01,5.315153249941336755e-01,8.113679493718252422e-03,-3.599345618426594978e-03,5.013970662246118593e-03,4.556776955723762512e-02
5.073277883987421522e-01,4.695898273542045143e-01,5.185082175365903767e-01,-5.089705024125501867e-03,1.131433078603430106e-02,2.832652532213572865e-03,4.956724494695663452e-02
4.876733988213760029e-01,5.245822836028932734e-01,4.944853093263332777e-01,-2.540317579939355163e-04,2.434017921720476110e-03,3.321027278408279337e-03,3.476064652204513550e-02
4.889404081225289245e-01,4.833878431145415822e-01,5.348915289985138877e-01,6.709429422542042415e-03,-1.160738257681191840e-03,3.228011345987458116e-03,5.067380517721176147e-02
4.767758075787282279e-01,5.018071916241289010e-01,5.430084750134911431e-01,2.844302030037085260e-02,1.654259329441211445e-03,3.314137295491814163e-03,7.631263136863708496e-02
4.882090050240759371e-01,5.250871159806390631e-01,4.989691716273436661e-01,-1.335479464939404344e-03,1.697879645349201173e-03,6.235712076106824861e-03,3.477948904037475586e-02
4.871335121407242563e-01,4.898968313107964212e-01,5.422462024334001596e-01,1.176690922780177125e-02,2.121672531364640017e-03,5.426240954099723632e-04,5.764129385352134705e-02
4.599946919442886029e-01,4.988069624150928694e-01,5.528793147308581624e-01,1.971410416607467103e-02,4.269191141551275347e-03,9.210466267374629867e-03,8.946505188941955566e-02
4.828208145401957641e-01,4.835629331827969724e-01,5.173088315605732790e-01,-1.410898866917345692e-03,4.480486137318697749e-03,1.150421011888598175e-03,3.513611480593681335e-02
4.529358413301100561e-01,4.959026622705627330e-01,5.422200946382802478e-01,1.718857089267756405e-02,-2.428140189784394869e-03,5.818997411965648459e-03,8.358933031558990479e-02
4.821582825629811553e-01,4.890102348417629252e-01,5.366619912832584216e-01,6.076554396312699308e-03,5.306939781097839721e-04,3.733553091110509460e-03,5.289218574762344360e-02
6.032254380384390879e-01,3.784533890865729999e-01,5.832341155263385257e-01,-2.583216451192704016e-02,1.018999765088533377e-01,1.742491271590167479e-01,4.131218194961547852e-01
4.874038435987912976e-01,5.249531471927426640e-01,4.916215216317514347e-01,-2.139727422588240564e-04,2.266290393815709008e-03,2.325940669769467183e-03,3.607137128710746765e-02
4.764207408778897146e-01,4.921692287331156934e-01,4.985072248524548000e-01,5.814498584572629081e-02,-4.667912493672139729e-02,3.350889933527327613e-02,1.429541110992431641e-01
4.863141116241636031e-01,5.184546549483566302e-01,5.308877542322658627e-01,3.435127269011385015e-02,3.021008091845141241e-02,-7.198757862998809640e-03,8.955805748701095581e-02
4.878489553283918423e-01,4.840449560677037577e-01,5.150684833920757821e-01,-9.384879380382408348e-03,7.977517935944068717e-03,7.588872818250884562e-03,3.855955600738525391e-02
4.717781437953264545e-01,4.755562341912531465e-01,5.358434055010424801e-01,-1.478249831595168000e-03,1.570823348927359283e-03,1.564327726832359178e-03,6.243306025862693787e-02
5.379015823441315458e-01,4.692584316163444513e-01,4.706339335887124165e-01,-4.791893195257060714e-03,-4.485994610064466918e-03,-1.056675336080641070e-02,7.129925489425659180e-02
5.288620964873105290e-01,4.791591953796220382e-01,4.374775778264635151e-01,-1.122054703183835746e-02,-4.831904559418372450e-03,-1.301564404688404508e-02,8.506114035844802856e-02
5.451098080282299474e-01,4.170568352688531211e-01,4.184424304284504181e-01,-3.793741870048153442e-02,-3.684485704746217477e-02,-1.057975269079417108e-01,2.412297129631042480e-01
3.190360377556319404e-01,6.989341437731364515e-01,4.285003154916025014e-01,-6.183329299582989574e-02,-2.176214048995356587e-01,7.927617786503337802e-03,5.181269645690917969e-01
4.815195567313825253e-01,5.721923063786382713e-01,4.308032956498956123e-01,1.216659918035926935e-02,-4.524498283150000383e-02,2.452982324289679911e-02,1.542167663574218750e-01
3.842083365222976887e-01,6.250414609267793686e-01,5.419312966368318163e-01,1.410256966309815854e-02,-1.010863371024872392e-01,1.771134154127931501e-02,2.776423692703247070e-01
4.892112236357146204e-01,4.866265072574824102e-01,5.371930558871603756e-01,2.512529795783411280e-03,-1.358427404361448130e-03,1.572694289165488995e-03,4.964726418256759644e-02
4.869297879180849997e-01,5.351669402630954142e-01,4.789035876150088411e-01,3.543388552774950125e-03,1.015796027927878820e-02,-6.106716140307978007e-04,5.591727793216705322e-02
4.621075942132086278e-01,5.566838755804238703e-01,4.950580277755454173e-01,1.134683441202234515e-02,7.864345003545904211e-02,1.410097198619134073e-02,1.626382917165756226e-01
4.917544561271369741e-01,4.905648282332120136e-01,5.253011896837949113e-01,5.017747286328953088e-03,-3.111010467575293145e-03,4.023768681898718530e-03,3.632970154285430908e-02
4.419025891717041077e-01,5.945169412748594340e-01,5.119849792272688216e-01,-6.261224705769411793e-03,5.809039607457995580e-02,3.760782460249353920e-02,1.788609474897384644e-01
5.047026150079345630e-01,5.041021402274731278e-01,4.908181681141943198e-01,6.701328855460302741e-03,9.975284895785160953e-04,-2.808784494826006926e-04,1.796514540910720825e-02
4.827845933309711235e-01,4.889061671713301749e-01,5.352287317752594253e-01,2.072109819508510462e-03,-3.736936996126850332e-04,1.347763411154056200e-03,4.985548928380012512e-02
5.019972248214230603e-01,5.410745615971164213e-01,4.743402444556421571e-01,1.542869018129776207e-03,5.262682595872549517e-03,1.766447524146031031e-03,5.892620608210563660e-02
5.052225316721726811e-01,5.138774730957640369e-01,4.862815473065242311e-01,8.184418071738377987e-03,1.565237414444895642e-03,-1.074339902869651548e-03,2.844940498471260071e-02
5.200747988540098676e-01,5.498500839923365913e-01,4.485271664646839906e-01,9.490146878462562760e-03,9.045352572999938723e-03,-2.187531245702713321e-03,9.309125691652297974e-02
4.925060739830308121e-01,5.496138288610049605e-01,4.342205146769527180e-01,1.321946442474346804e-02,4.526225718593072933e-02,-1.362262687674306409e-02,1.312023848295211792e-01
4.855156078463444547e-01,5.023716492398645483e-01,5.140337802035590542e-01,2.115551350961160110e-03,-2.092386350157165748e-03,9.676049998460905036e-03,3.039979562163352966e-02
4.344699390133728856e-01,5.434731222892957847e-01,4.745447720439682771e-01,-9.591500664766754863e-04,-1.851326616493588484e-02,1.461661994330610420e-03,1.007809191942214966e-01
5.616588709645231603e-01,2.573272582561484945e-01,7.579062408877550450e-01,-2.152871409849386186e-01,5.335919004296933027e-02,1.090669447039257708e-02,5.820645689964294434e-01
5.513952628302187797e-01,3.824920648468112527e-01,6.378941288164163836e-01,-8.301588346368860005e-02,2.122394148620270816e-04,-3.433358106534675899e-04,2.670125067234039307e-01
5.146806719705037114e-01,5.457566095915773463e-01,4.511265530176709615e-01,1.421802953066242034e-02,-2.498277003604676416e-02,9.548606914808297971e-03,9.865213930606842041e-02
3.738857682131663251e-01,6.191648703912850937e-01,5.809326375699535028e-01,-1.542017786904781480e-03,-6.970685823062215680e-02,1.513687334606958652e-02,2.598415315151214600e-01
4.873706667062001063e-01,5.510571150674075103e-01,4.523921322148011237e-01,-5.039771966876394234e-03,-2.694605819470417135e-02,-7.998765312562579680e-03,9.976737201213836670e-02
4.300925941080202541e-01,5.506518739827398479e-01,5.017341136860344886e-01,9.594389652225179723e-04,-1.068240856900620067e-02,-2.644935978535178402e-03,1.067524552345275879e-01
4.290411939507087213e-01,5.455677946621134700e-01,5.345805851848989265e-01,5.576392825944411283e-03,-7.922851905431110148e-03,1.114423642493667967e-02,1.143374443054199219e-01
4.645147976340386342e-01,5.239304197653692485e-01,4.691370486867290635e-01,-1.214695014572916842e-02,-2.848293521889775845e-02,-1.922429003337566486e-02,8.521822094917297363e-02
4.342292971540728796e-01,5.684803541558687279e-01,4.608260833066773476e-01,1.506416439504478606e-03,-5.396909732480533600e-02,-1.332284381461292834e-02,1.563246101140975952e-01
3.921179757418847833e-01,6.100592812985996538e-01,3.205800555423124476e-01,4.963248338003048432e-02,-1.997273388952349182e-01,5.470337733786576756e-02,4.519377350807189941e-01
5.399153152303516334e-01,4.794610277171180712e-01,4.887034317356623858e-01,3.258602485451411474e-04,1.212695921554712061e-03,8.402048976804219610e-03,5.829162523150444031e-02
5.441724595531790554e-01,5.903682161209411472e-01,3.793076233603036584e-01,2.351807192776919284e-02,-3.796763693072989498e-02,4.529372560681818594e-02,2.215152531862258911e-01
3.394544365973858335e-01,4.826639153760582390e-01,5.544670266652629298e-01,-9.713530988384258547e-02,-3.081741698396424020e-02,-1.222619019318863312e-02,2.599055767059326172e-01
3.982192391168571932e-01,5.576644845052222133e-01,6.592991428327792391e-01,-8.813889871272517773e-02,1.745027481770247343e-02,2.838589854596785048e-02,2.803457975387573242e-01
4.006847972877070618e-01,5.104747749250029276e-01,5.663781093786448562e-01,-5.660831778810102022e-02,-1.468081132385739423e-02,-2.333499244132646554e-03,1.777443885803222656e-01
4.022645183420475723e-01,4.976048081290528335e-01,5.510519019818930220e-01,-2.407578833416466196e-02,-6.088891430923570186e-04,7.420739306518254553e-04,1.370537132024765015e-01
5.297311294063764553e-01,4.283113651872491601e-01,5.418969047334839528e-01,-8.968663188077570861e-03,1.119144602582068486e-02,4.836746349707046581e-03,1.111533343791961670e-01
5.602843278196879551e-01,4.151822924715437568e-01,5.428530646292553108e-01,2.633168095149230042e-03,2.826624643625807835e-03,9.206453554477961668e-03,1.383046805858612061e-01
5.173665442434138839e-01,4.345394136347141556e-01,5.487953696388754299e-01,-4.006746946778417390e-02,1.534368673881539476e-02,1.182792566300048219e-02,1.280369311571121216e-01
3.809593673638373423e-01,5.266661154777785292e-01,5.681250984460046727e-01,-1.490039046758387560e-02,6.411815611183278862e-03,3.921785603193003039e-03,1.727011799812316895e-01
3.676049060187663864e-01,5.423845559268098970e-01,5.692047840955900551e-01,-2.805911918409610337e-02,8.114632467380400536e-04,8.221367935654025003e-03,1.962691247463226318e-01
3.207173794685752588e-01,5.522967214479703735e-01,5.673156542814228320e-01,-5.655766913609300978e-02,-2.694147836947871719e-03,-1.950023137492066291e-03,2.587704062461853027e-01
5.092739870294473725e-01,4.531525092168537938e-01,5.237589268484219573e-01,-7.699267667760373128e-03,1.544736770180716104e-02,1.029006495583072167e-02,7.337374240159988403e-02
5.630902299384462628e-01,3.973388603808370445e-01,6.144759973782112361e-01,-6.996006545320124226e-02,2.610335799752575014e-02,3.422486304259973744e-02,2.426369488239288330e-01
3.700646062501886102e-01,5.564569492155143626e-01,5.635233259836508468e-01,-2.382161100700387960e-02,-9.058405317192940592e-03,-2.303992777565412164e-03,1.951247155666351318e-01
4.919970864748036132e-01,5.473455607022392755e-01,4.821795132498623015e-01,-1.745864190852534220e-02,9.113027123225767023e-02,3.412582381155332412e-02,1.817292869091033936e-01
4.885246716038050829e-01,4.655835349492509212e-01,5.351201994846623844e-01,-6.293149719584688329e-03,7.271510007505396604e-03,1.725082050166658115e-03,6.366126984357833862e-02
4.913687461451216043e-01,5.123822838170188909e-01,4.861186228809759036e-01,-4.878838527179029522e-03,4.031793313938136433e-03,5.404965087199104130e-03,2.805837616324424744e-02
4.844641039930311366e-01,5.167822297534231391e-01,4.945170736800453271e-01,4.289298125238816262e-03,4.718830265604409373e-03,-5.116688736427144404e-03,3.195572271943092346e-02
4.825396576735096477e-01,5.343994127226225910e-01,4.913401906075836045e-01,1.619208368159343525e-03,6.008048837455203482e-03,-1.571332383307212513e-03,4.933612048625946045e-02
4.643785771524506223e-01,5.388647231535746984e-01,4.942744416624756942e-01,8.331925414863529389e-03,1.410816973647084638e-02,-3.750337760837178271e-03,7.115265727043151855e-02
4.821628899333576523e-01,5.311089448974003480e-01,4.910339658466066348e-01,1.618409128872652040e-03,6.015614746912104939e-03,-1.393382007297494182e-04,4.644014313817024231e-02
5.382089371092954044e-01,4.469135552743673245e-01,5.200316283034793763e-01,-8.832356538195420062e-03,1.136229334872238851e-02,8.909628320352134742e-03,8.868617564439773560e-02
4.660778325851878123e-01,4.779393635213891600e-01,5.388855214255875437e-01,-6.328701389655532611e-03,2.207653144925213282e-03,4.694805782052313345e-03,6.912992894649505615e-02
4.931970845411635662e-01,4.657981360458481879e-01,5.322479659730352530e-01,-6.159858546444500586e-03,6.532866048509421326e-03,1.812872232513750535e-03,5.997793748974800110e-02
6.370050249388937713e-01,3.061108460259788222e-01,6.326542223907132279e-01,-1.330615118376532457e-02,1.361704358906680630e-02,-4.113117646655362405e-03,3.304669559001922607e-01
5.808894930472354723e-01,2.577821651158679339e-01,5.676913484679493305e-01,-7.161693711375337335e-02,2.795725825544794277e-02,1.013146502405092159e-01,3.857899308204650879e-01
4.966569296644682829e-01,5.149889342818629867e-01,4.856034420213486968e-01,-7.760236241260771127e-03,4.007620573468089788e-03,4.158210915993910788e-03,3.068539686501026154e-02
4.693798380600842091e-01,4.709895451127286692e-01,5.377769426167929856e-01,-2.795910296926094364e-03,1.073524542054922178e-03,-3.325895939588268888e-04,6.780778616666793823e-02
4.564244847469619004e-01,5.111634320272240295e-01,5.092199418498670749e-01,-2.458333646034101608e-02,2.386531260856956591e-02,2.348518274432994865e-02,8.983366191387176514e-02
4.995778647616360701e-01,4.171925999924939177e-01,5.530712773737166410e-01,-1.395778833025670268e-02,3.166789200025446442e-03,-1.628747917269089077e-03,1.211546510457992554e-01
5.586453573098404402e-01,4.101983483638970140e-01,5.254934929808730004e-01,-1.552394933332352069e-03,1.252029595701269551e-02,4.801730579473193622e-02,1.600273549556732178e-01
5.775353427757394797e-01,3.628623535229917318e-01,3.564536912516904632e-01,4.034769295791514054e-02,-4.175875455826828092e-02,2.074411989418190605e-01,4.321019351482391357e-01
4.876557106742961389e-01,4.861158675652297867e-01,5.339300762308488713e-01,2.353132861133709879e-03,5.581671911966530576e-04,2.003806638124437742e-03,4.737652838230133057e-02
6.538317918468173895e-01,2.248724218914045503e-01,7.785779533423784482e-01,-2.069035526483519252e-02,1.104429260557941300e-01,9.885302139489844653e-02,5.659255385398864746e-01
6.287635385620834461e-01,3.560311696185356478e-01,6.420874437344676888e-01,7.932570404988901688e-04,3.532120665571402557e-02,4.292581053749752740e-02,2.957479655742645264e-01
4.880337257154125363e-01,4.861335042476155888e-01,5.375609565626314756e-01,1.704672664125448820e-03,1.400687807024865840e-03,9.793870925422130079e-04,5.067693069577217102e-02
5.066332384153968693e-01,4.992448559791785589e-01,4.956904770799073767e-01,3.277553448285033116e-03,1.064651970006377530e-03,-6.817235651586107384e-05,1.136329118162393570e-02
5.633416416617322842e-01,2.406280043171278304e-01,7.103282847741924089e-01,-1.155477952333854447e-01,-3.391495207879679412e-04,7.807659376385753247e-02,4.811713397502899170e-01
5.831444699445791358e-01,3.233604027693950389e-01,5.402062047223122887e-01,4.735627581864112340e-02,-1.003934148511108956e-03,1.311365768947660437e-01,3.413181304931640625e-01
4.875032842731095717e-01,4.984976421213435094e-01,5.094904319109475610e-01,-2.771396655344208343e-03,3.949694422728187645e-03,6.921338747802217688e-03,2.400276996195316315e-02
4.592729304069128604e-01,4.997117492817470530e-01,5.287397754015225049e-01,-5.725736230802905800e-03,7.898698228025856014e-03,1.506954838689842681e-02,6.796012073755264282e-02
4.699765395211466523e-01,4.917079401376657222e-01,5.239118028752580702e-01,-2.061532556563967084e-02,7.201467050149934143e-03,7.965075858484469556e-03,6.188750639557838440e-02
5.485409874251542250e-01,4.116291642324231836e-01,5.500567957719255663e-01,9.363364664747670860e-03,5.376919895636836366e-03,4.317130830137369188e-03,1.391414403915405273e-01
4.879735751216998652e-01,4.915810484520633517e-01,5.256990603654052574e-01,-5.933663904138052232e-03,6.402250737430764845e-03,8.011591635192771843e-03,4.148831963539123535e-02
5.176041594025478920e-01,4.834266755058050924e-01,4.833298597454993573e-01,4.991377816775518714e-04,1.746886096324843946e-03,1.504700762115347105e-04,3.437133878469467163e-02
4.735903463040340711e-01,4.931007875708450783e-01,5.244363453727991509e-01,-2.361746250177202376e-03,3.450018298640183771e-03,8.396460257066577781e-03,4.730632156133651733e-02
4.781813534754060790e-01,4.988740407765823726e-01,5.067098625947950019e-01,-4.819082303272359188e-03,5.430290035496134621e-03,9.184618803830434802e-03,3.260273113846778870e-02
5.052218764767258952e-01,5.056813438348813916e-01,4.919114246683495284e-01,-7.180516225938577378e-03,1.113341264004390728e-02,9.096309380775813996e-03,3.095580078661441803e-02
5.048864494694258465e-01,5.053624635961749822e-01,4.876488360656036081e-01,-7.071536671865113685e-03,3.318590248719570715e-03,2.617398841826227163e-03,2.256498672068119049e-02
5.364392534056450224e-01,5.282363873363574713e-01,4.202120299443230511e-01,1.522810309881380067e-02,-2.671188609479588708e-02,3.234683802316241225e-02,1.363740116357803345e-01
4.875377159479449829e-01,5.153870120092276519e-01,4.952121342867885079e-01,-3.170459950459473750e-03,4.329988252173544092e-03,7.032622964499710659e-03,2.924941107630729675e-02
5.072096475810837779e-01,5.256037754637461479e-01,4.973492119767570774e-01,-8.516234838152969902e-03,1.434790555030372033e-02,1.414064942415286380e-02,4.529885202646255493e-02
4.945624464842698909e-01,5.216759319889285873e-01,4.835486128205218614e-01,-3.567258688373316482e-03,1.239017570396210889e-02,1.053760873196502544e-02,4.457485675811767578e-02
5.029475821211397690e-01,5.157342702734091233e-01,4.811807715466295265e-01,-8.043970665432480932e-03,7.056103928181066930e-03,4.632745433189361731e-03,3.637977689504623413e-02
4.934942845504197151e-01,5.218357492454210877e-01,4.871871938718886907e-01,-4.184290804675029098e-03,4.093553037243145842e-03,3.677658151734634288e-03,3.413417935371398926e-02
4.899858818723999976e-01,4.930597422048356160e-01,5.373284424114064262e-01,3.322768395057833224e-02,1.135002407267894989e-02,-2.700506010873314055e-03,7.632710039615631104e-02
4.714308297448638330e-01,4.858064413015868444e-01,5.728850763432654647e-01,8.548880442275290370e-02,6.522607075574148039e-02,-3.260785658547448590e-02,2.166086286306381226e-01
5.529754516543013976e-01,3.682558043382100355e-01,5.611441404192020199e-01,-7.698033275929809342e-03,7.213982952200130236e-03,-7.421259099749282547e-04,1.898224204778671265e-01
4.887395619287445148e-01,4.253651660736317286e-01,5.548563834173938503e-01,5.069529520652911458e-02,1.110095593911833781e-02,8.813205887149240308e-04,1.437356024980545044e-01
4.918175788498010959e-01,4.201022941255836973e-01,5.487815004210706560e-01,5.451794340250810250e-02,4.895141372125388218e-03,5.986070834855507228e-03,1.468644291162490845e-01
4.749346180834823072e-01,5.013170446348915732e-01,5.163380299530604400e-01,1.306221179298053606e-02,1.013569800749783770e-02,-8.811042446780183862e-03,4.869206622242927551e-02
4.590256086649616152e-01,4.869007699959923552e-01,5.499058604715815202e-01,-2.771720425292747633e-02,5.175846608596144406e-03,5.107227556169552027e-03,9.469050914049148560e-02
4.964900175976032504e-01,4.618593373371066568e-01,5.155582647431133925e-01,1.289579768761032856e-02,1.122457215643947459e-02,-5.287819549459186509e-03,5.642684921622276306e-02
4.908139063244912892e-01,4.684864900919459285e-01,5.353873810865975580e-01,3.361950002158241996e-02,2.455245712699308594e-02,-2.106316470708077121e-02,1.000538393855094910e-01
5.339971266633116720e-01,2.448292698632459630e-01,5.776574778107810282e-01,-1.560742257913787789e-01,-3.492948815234533932e-02,-1.252143781190830085e-01,4.710870981216430664e-01
5.026952834670110892e-01,4.812939206583373708e-01,5.180844174205281316e-01,2.712360865281013972e-03,9.009176342386739436e-03,-3.130591588982966841e-03,3.632025048136711121e-02
4.973829882730957386e-01,4.858094345168098016e-01,5.180041867151911061e-01,6.002887283756593029e-03,5.860926988783810715e-03,-4.695050971207787895e-03,3.278913348913192749e-02
4.658817964175110404e-01,4.575657984507477960e-01,5.421727202868328321e-01,-1.193441374665858007e-01,-2.328937312964075163e-02,-6.098989675315801690e-02,2.490772008895874023e-01
4.664957902883135610e-01,4.592900798490268666e-01,5.366673964294920163e-01,-7.441121904569088230e-03,-1.535462021154807531e-03,-1.041763495630896371e-03,7.522002607583999634e-02
4.795617551632902487e-01,5.077654761392286220e-01,4.703334279916561722e-01,-6.026845914884538212e-03,-2.897881401239176154e-03,-3.166100375505004512e-03,3.612643480300903320e-02
4.937026185136303980e-01,5.044579834247197025e-01,5.013161123898192129e-01,-1.685549950175154214e-03,2.172803222218269454e-03,5.180494884841712819e-03,1.396267488598823547e-02
4.877622567489901528e-01,4.872534415092509286e-01,5.160285770499717373e-01,-3.549085790958182197e-03,3.363920643889639801e-03,6.242409294813125280e-03,3.165857121348381042e-02
6.974557166396073704e-01,2.147113333538629987e-01,7.131451284421450598e-01,-2.845086641459462773e-02,1.108752412231805151e-01,2.837537333310566345e-02,5.315882563591003418e-01
4.599758864639758027e-01,4.680392116497738564e-01,5.406140169055447808e-01,-7.910782168092520689e-03,5.466551074287096489e-04,-7.623225187165398381e-04,7.815174758434295654e-02
4.948629065709779229e-01,4.878164554057529689e-01,5.063498368635727109e-01,-3.658309888923843602e-03,5.715341499374610758e-03,3.784991381597050536e-03,2.106342092156410217e-02
4.733318130478793573e-01,4.666591165829854226e-01,5.377403362403075926e-01,-3.590393373846642328e-03,2.631317886398675584e-03,1.001057250852334856e-03,6.844861060380935669e-02
4.989685727935277981e-01,4.853643752076658435e-01,5.062823613733388184e-01,-2.426175236917610997e-03,7.496179546046722979e-03,2.603585337651510324e-03,2.333745919167995453e-02
4.803979243424272849e-01,4.526078804222963270e-01,5.467169038252530644e-01,-6.501169174065239871e-03,2.212209067511907660e-03,-4.121296313726044913e-04,8.459011465311050415e-02
4.995916337623137471e-01,4.964174309541445340e-01,5.000256858795802950e-01,-2.094341235345368625e-03,2.497620056589281313e-03,7.537586001425260500e-04,6.724529899656772614e-03
5.003515899291408608e-01,4.810052437173356621e-01,5.101295077345417983e-01,-4.079850615818553586e-03,1.303114661656598443e-02,6.748188571136700883e-03,3.681083768606185913e-02
4.402333553989796755e-01,5.131409697404045733e-01,5.225069557688803989e-01,-5.471861937882401689e-02,-6.093466353041843836e-02,-3.327982977683358740e-02,1.718435883522033691e-01
4.801538766672427405e-01,4.518886761940407726e-01,5.399853035462403028e-01,-6.205162225808778104e-03,-6.625710054935104142e-03,-1.482185046030595581e-03,7.952151447534561157e-02
5.378495815676768155e-01,3.430990863648291089e-01,6.441854603397687562e-01,-2.128258492678130609e-01,-7.954172952397987884e-02,-1.407678535218581384e-01,5.331566333770751953e-01
4.717450909305171414e-01,5.129600837066090602e-01,5.117300823069644844e-01,-5.762965494138714423e-03,5.531495731592060358e-03,1.172923398570547074e-02,4.747258499264717102e-02
4.710832073053061730e-01,4.633442040846902921e-01,5.227087348676486833e-01,-7.678373846526987019e-03,-6.418017596469721524e-03,-3.219764465428996952e-03,5.878914147615432739e-02
4.922939665304550960e-01,4.980268713325838870e-01,5.072444762276564489e-01,-5.460933220648548324e-03,7.009912345892460594e-03,7.905638212075469587e-03,2.439371682703495026e-02
4.971640887759061211e-01,5.091813603819123069e-01,4.970479519516822764e-01,-4.875975267883681658e-03,6.695395355726657151e-03,8.656954094151443277e-03,2.400964125990867615e-02
4.856110510709610861e-01,4.890080618963670300e-01,5.332330640969628055e-01,1.771665888015567071e-03,1.910561569207938669e-03,5.626766326093351599e-04,4.624867811799049377e-02
4.989099474441306414e-01,5.116706459654510875e-01,4.983477301573153162e-01,-2.656622139959971974e-03,9.334267822820730212e-03,1.027571676596700234e-02,2.774266526103019714e-02
5.100462769572767785e-01,4.943812474251726430e-01,4.943343720031714295e-01,-4.321368747912574665e-03,3.913266240332224054e-03,4.236672323257200876e-03,2.004847861826419830e-02
5.070044414896972551e-01,4.949364651587838115e-01,4.965019077941114078e-01,-4.923043581012261950e-03,7.009865113123513701e-03,6.808894773542853267e-03,2.209981344640254974e-02
5.090238532807032090e-01,4.894421882258598311e-01,4.946450888805898338e-01,-7.441187574403943829e-03,1.087464555140909422e-02,1.032772698159996512e-02,3.390433266758918762e-02
4.438018874101326561e-01,5.221479000036881590e-01,5.441199393476146007e-01,-3.375131760408109360e-02,1.156419695858596983e-02,1.575226751937973055e-02,1.136016622185707092e-01
3.548779902303681455e-01,4.803762336111311870e-01,6.037306887576798786e-01,-1.347145238688156610e-01,1.155610720839393840e-01,9.084216344850805369e-02,4.070760309696197510e-01
3.681213031131305158e-01,5.328111246741361606e-01,6.605403788504309315e-01,-1.390146517200713527e-01,1.243973811049995382e-01,3.983275239919035343e-02,4.166923165321350098e-01
2.473406815066124809e-01,5.131781361975129574e-01,6.103751325479669365e-01,-1.481558454060749597e-01,3.447432655401039964e-02,4.017820850299046176e-02,4.245164096355438232e-01
5.531765748393846494e-01,3.841638052225714306e-01,5.283137340693232487e-01,-3.121703630572876444e-03,6.710167585438516630e-03,-1.407931850488044340e-02,1.604379415512084961e-01
4.347160983218877894e-01,5.142903763554564911e-01,5.632516329652066389e-01,-4.590239295030086597e-02,1.835300763455533640e-02,1.052428029539636926e-02,1.424401551485061646e-01
4.840290469724814471e-01,4.777844394496199021e-01,5.363599341797764541e-01,9.979734783625050787e-03,1.109099366133428806e-03,1.076269029511475435e-03,5.839737504720687866e-02
5.055143714099989971e-01,4.772505634936332619e-01,4.981369204689931607e-01,6.485801435029198668e-03,1.086641981934190551e-02,-5.818376790275790224e-03,3.502498194575309753e-02
4.935406263083025880e-01,5.154355051913819263e-01,4.929211039581103959e-01,2.064821710807222214e-03,-3.036478247495352019e-04,-9.680519599933077668e-04,2.256573364138603210e-02
3.216494031350184413e-01,4.154463481316673090e-01,7.662766318952275446e-01,-2.112990616881112171e-01,-1.489837246646781924e-02,3.811190453191773408e-02,5.511369109153747559e-01
5.146852776159681619e-01,4.359073414994786289e-01,5.385176326892979759e-01,9.920874221734035311e-03,9.895446854087578889e-03,6.549394973216504396e-04,9.613389521837234497e-02
8.156929484852357692e-01,3.637101517950400154e-01,5.307494663979849259e-01,8.038357771792895012e-02,9.019295874872959584e-02,-2.117733782761724026e-01,5.788129568099975586e-01
3.391584333597194578e-01,5.724257729390440641e-01,3.978954859976070457e-01,3.454250209269243282e-02,1.845989868467892703e-01,-7.132582448901079661e-03,3.874593973159790039e-01
3.898288172991459244e-01,5.362636047577419296e-01,5.617559794075636104e-01,-8.995860241267795987e-02,2.456356903623995239e-02,-2.299598294182996026e-03,2.278806716203689575e-01
5.041609311409582794e-01,5.177114502202805335e-01,4.909134955931907518e-01,-4.071464048471303693e-03,1.081258713378666558e-03,2.642083234165458223e-03,2.475480549037456512e-02
4.897985077874366655e-01,5.259591171093319639e-01,4.905825686468288094e-01,4.157797945930785492e-03,4.069749983094566800e-03,-4.799487389148399119e-03,3.808553516864776611e-02
4.798381812804672908e-01,5.137210177044662096e-01,5.001715109199630360e-01,4.596492661417424935e-03,6.627601351716961436e-03,-8.993869582260345663e-03,3.619899973273277283e-02
5.019248867049551643e-01,4.713349695500813064e-01,5.424146379663723483e-01,6.555628108265230090e-03,5.700996720713580670e-03,-4.653749653336935218e-04,6.356747448444366455e-02
4.823752459338869203e-01,5.049448156416154188e-01,5.006194820864849904e-01,5.290993049016927581e-03,8.534579659691406139e-03,-9.885867013659458552e-03,3.203381225466728210e-02
4.958567118928247641e-01,5.100309515354682910e-01,4.967335617117911717e-01,1.362110117657706421e-03,1.004007282672826238e-03,-2.571256131573255825e-03,1.475376076996326447e-02
5.628949459013971035e-01,3.663474613273435265e-01,5.561592497409083569e-01,-2.762688484411238675e-03,5.565607901072170197e-03,-1.070610695722131259e-02,1.944532990455627441e-01
5.615833924568254254e-01,5.094981632918880177e-01,4.134646481314272481e-01,6.579129156659832209e-03,6.945639732598666606e-03,-2.216760773784761177e-02,1.366968303918838501e-01
5.404652171161706820e-01,4.266867687738759019e-01,5.319937576274004210e-01,3.369811522150605206e-03,1.262469944592103412e-02,-7.766623358742786622e-03,1.129008829593658447e-01
4.974769803506627341e-01,5.110207637594824659e-01,5.008231257394061275e-01,1.080281981058377715e-02,1.290457091575573749e-02,-9.096416489378995190e-03,3.531617671251296997e-02
5.461036618400167963e-01,3.870715562012574940e-01,5.275038523356164744e-01,-8.972712549752709377e-03,-2.590513717377493363e-03,-1.300450591902162570e-02,1.531280875205993652e-01
5.698233985187968198e-01,5.571012572575855248e-01,4.768007108947323047e-01,6.171386131762777311e-02,9.540191089870166119e-02,-3.497474945539642138e-02,2.236776649951934814e-01
5.085086328375000297e-01,4.817930482973679651e-01,4.749963034669013595e-01,-1.849877064495679835e-03,-2.496774230367625799e-03,-2.810785177125805015e-03,3.153040632605552673e-02
5.144140867435069708e-01,5.205871089474030100e-01,4.617426857906808402e-01,2.481878965127006648e-02,2.583094369090917913e-02,-2.047103266444513098e-02,9.079837054014205933e-02
4.910557929803148758e-01,5.228464894991596834e-01,5.074443515185795839e-01,1.303674525609751882e-02,2.047240647568999636e-02,-1.050089075360437045e-02,5.344402790069580078e-02
5.282508288111391614e-01,3.867393307589579443e-01,5.450153281199522359e-01,-1.332163828051566995e-02,-2.950346995507295914e-03,-7.656636350487119012e-03,1.530140638351440430e-01
4.520490449450241810e-01,4.799248755984352743e-01,5.409009871138505954e-01,-6.627952167889137811e-03,-4.424157003488612462e-04,-3.085930345571401105e-03,7.972360402345657349e-02
5.000196835104633308e-01,4.547124309976371959e-01,5.292575188022998756e-01,1.484726975365162176e-02,-1.058502304667219632e-02,1.060794436263313295e-02,7.461448758840560913e-02
5.120276361359893391e-01,4.136174443842486337e-01,5.369492392338438558e-01,2.360209472285336105e-02,1.932040612380482927e-02,-1.322563412938409719e-02,1.267831027507781982e-01
4.974617953086138966e-01,4.596301502670998573e-01,5.283152545996788740e-01,1.256713573221361797e-02,1.107837085637813392e-02,-4.124293493217227706e-03,6.665902584791183472e-02
4.716399244607146213e-01,4.657469610843488761e-01,5.315428203669697593e-01,-1.209463241942040392e-02,-6.487734471541603716e-03,-5.784849763900070697e-03,6.812925636768341064e-02
4.972528022334371522e-01,4.583364617020371234e-01,5.311825956870850352e-01,1.183725324111638624e-02,1.074348423306741192e-02,-4.025797346982712757e-03,6.929203122854232788e-02
5.252257060844941483e-01,5.001052820307682056e-01,4.284508819162192172e-01,-1.327535861761837237e-02,-9.371686318440011071e-03,-8.840706575193025413e-03,9.269327670335769653e-02
4.447357032248033248e-01,4.787073880757936051e-01,5.272434445596270169e-01,-3.355581266434716492e-02,-2.414379621471073392e-02,-2.775475612278000340e-02,1.122336909174919128e-01
4.894450609204721303e-01,4.799835275995354977e-01,5.395872995904423819e-01,7.132872793500228369e-03,2.916744082232385158e-03,4.936715940659755541e-04,5.707078054547309875e-02
4.918545957220348819e-01,5.166680187486266673e-01,4.968625620986564795e-01,-5.965059388828056978e-04,-3.551594467703066945e-06,3.477630787360941854e-03,2.353444509208202362e-02
4.810143697135670360e-01,3.721205054842062765e-01,5.358467594184016525e-01,-9.642396182445354957e-02,-4.268118755727826064e-02,-6.064967483768719803e-02,2.553983628749847412e-01
5.037479377119618018e-01,4.748782076685398867e-01,5.114642184719715434e-01,7.483617216779471677e-03,1.104818307742409800e-02,-4.681184588110264173e-03,4.142113402485847473e-02
5.187440061225147003e-01,5.124797118390015394e-01,5.286218485473077600e-01,3.769687384178073419e-02,2.951030874750504296e-02,-2.587408552237890555e-02,9.530390053987503052e-02
4.791683229883329509e-01,4.580689022011716904e-01,5.229594944553548341e-01,-4.061520679041458366e-03,-7.588684350695401593e-03,-2.638816869238896565e-03,5.941349267959594727e-02
4.878612950652365665e-01,4.910298235323300453e-01,5.239796498056963348e-01,1.289775245429624143e-02,8.975961740640978417e-03,-6.885093345381869054e-03,4.564106091856956482e-02
3.731565384811676989e-01,5.579590039813090430e-01,5.610378808175087162e-01,2.968334337454043431e-03,-1.689425869270962761e-04,5.406655008813310119e-03,1.866671591997146606e-01
4.977146947612060557e-01,5.108936167542990070e-01,4.841382966560268120e-01,-1.221274384637716960e-02,9.378070435225550547e-03,7.271706402331813875e-03,3.750807791948318481e-02
5.080016505747061428e-01,5.045133173949186700e-01,4.902861047163435959e-01,-5.986516971203846398e-03,3.406503016617778729e-03,3.634988301978682532e-03,2.112294174730777740e-02
5.042068528442135156e-01,4.996557395897357479e-01,4.687900263853869709e-01,2.183125751015152147e-02,2.365440216727892828e-02,-1.996926599930477428e-02,7.361111789941787720e-02
4.645179376416939121e-01,4.897091370009155065e-01,5.114777667725104449e-01,-1.819572608668371463e-02,-1.380822517805311428e-02,-1.402725753700928210e-02,6.174458935856819153e-02
4.038252517540410480e-01,5.483494482503575851e-01,5.443243352491604625e-01,-4.983616106197187069e-03,4.968736908839603908e-03,1.298261530789080603e-02,1.448307186365127563e-01
5.152329545305082137e-01,4.944399789749597263e-01,4.895819864028411739e-01,-5.168560709476892161e-03,3.189015945306017397e-03,3.601226458962875857e-03,2.658040821552276611e-02
5.178007380311888674e-01,4.865213531597055718e-01,4.926134524159960781e-01,-9.634544132856956433e-03,1.497617318260457790e-02,1.332314384873403527e-02,4.805003106594085693e-02
5.121626533653864666e-01,4.664897019695284364e-01,4.681489074999131139e-01,-1.267941889240279014e-02,-1.217545224686959922e-02,-1.578164818809728309e-02,6.072231754660606384e-02
5.150584116931578027e-01,5.014828806794008331e-01,4.713550506830982423e-01,-8.872380577828846426e-03,5.217483971297154875e-03,1.406654745339630357e-02,4.911628738045692444e-02
5.210751813326699455e-01,4.963063218315603708e-01,4.970048865864660215e-01,-4.209202480284514845e-03,7.091112215534329209e-03,7.203283930658445702e-03,3.092486783862113953e-02
5.003603580547698604e-01,4.855200786336133500e-01,5.101037280305716903e-01,-1.171930422671278380e-02,1.342695376826519814e-02,1.328931545981830442e-02,4.407328739762306213e-02
3.469394557709684634e-01,5.679434209464908623e-01,5.767697803594123984e-01,-8.769818862827325617e-03,5.129356502419891994e-03,1.172611655259375545e-02,2.271419912576675415e-01
4.538497353646234744e-01,5.226664057237508931e-01,5.221974297807222554e-01,1.506659728992734357e-02,1.107307713291223739e-02,-1.206014182745336095e-02,7.866936177015304565e-02
5.423310299939058110e-01,4.971971930529662242e-01,4.501904753999287911e-01,-8.115283010322976026e-03,1.701233143373358236e-02,4.518313137026797044e-02,1.164416819810867310e-01
5.402499328246864740e-01,4.782325021418378785e-01,4.514170683589239230e-01,2.867713650488128239e-03,2.440738868193186202e-03,-8.959209434276374506e-03,8.069447427988052368e-02
5.504586610990843676e-01,4.107077255498632340e-01,5.031860638737749580e-01,3.255198509238447797e-03,5.505816523590546969e-03,-5.427640767737931110e-02,1.553034037351608276e-01
5.072573161056861402e-01,4.950750119622342460e-01,4.983431455855658609e-01,1.252586924758064589e-03,4.886434056598938907e-04,-1.443589462279343174e-03,1.144337933510541916e-02
5.063490558948327003e-01,4.869910683347641323e-01,5.233823680452377447e-01,1.276180501063456374e-02,1.329680582620279203e-02,-1.021710078747432859e-02,4.823660105466842651e-02
5.196231617138076242e-01,4.603394158217886667e-01,5.288199947583741567e-01,6.684947169451791252e-03,1.077224798142664697e-02,-3.962451493129647874e-03,6.836416572332382202e-02
5.022803203263126459e-01,4.973187427920895964e-01,4.980650109120854929e-01,1.481861993077883497e-03,1.930918919665648541e-03,-4.558019584010544094e-04,6.314099766314029694e-03
5.357767935909648616e-01,4.461128655818681898e-01,5.086547581075862023e-01,8.351363482459848867e-04,1.056921133470277441e-02,-7.852590424001800254e-03,8.285869657993316650e-02
4.358796183249347145e-01,3.741326810712279349e-01,5.835294855145032322e-01,1.780486183096850750e-01,2.965309053459627350e-02,4.011547221028498311e-03,3.640332818031311035e-01
5.357739455141057316e-01,3.990492762308086583e-01,5.391023745091939601e-01,3.708237059484380174e-03,7.548482934589049835e-04,7.482054319820241606e-03,1.391786485910415649e-01
4.981495449753285398e-01,5.093269741456147859e-01,4.944759261292216435e-01,5.187063756283801647e-03,5.318819976950212372e-03,-3.667543537007384846e-03,1.963239908218383789e-02
5.441421006593000209e-01,5.278793959644534350e-01,4.357922669415492112e-01,-8.109043409104324876e-03,9.479173358720980463e-03,1.661356576337118598e-02,1.074102744460105896e-01
5.023185365261281232e-01,5.042466965842554716e-01,4.946033617992603992e-01,4.860511588086225201e-03,1.552289077203725500e-03,-2.113776593859694863e-03,1.302399672567844391e-02
5.117947455977007731e-01,4.865068458630381065e-01,4.907068729560931653e-01,2.849118508423998958e-03,6.212811861559587069e-03,-3.788609920397890789e-03,2.709462121129035950e-02
5.234451770571698637e-01,4.698190804936578924e-01,4.687001471049690449e-01,-4.011216575418861605e-03,-2.193791403180727143e-03,-1.918254059068143051e-03,5.487040430307388306e-02
5.135878298198711667e-01,4.866605757875004934e-01,4.898253882431334860e-01,7.512306360471245580e-03,6.796044733312202844e-03,-7.007660840052639187e-03,3.324241563677787781e-02
5.304579780247018483e-01,5.158344813296991127e-01,4.018777777274762930e-01,-1.241566383115813924e-02,-3.804714183471975819e-02,-5.004405262999520043e-02,1.648782789707183838e-01
4.142933320795593732e-01,5.278867481929611083e-01,5.263311021406987811e-01,-7.638885212669928315e-03,-8.277569146460862781e-03,-1.384038459294977853e-02,1.169805675745010376e-01
5.614208152296792376e-01,2.458542264447380887e-01,7.462099783258435703e-01,-1.047731794145804751e-01,9.534197049829841106e-03,6.988640750917710087e-02,4.897957444190979004e-01
4.815047774003479719e-01,4.966627979849844721e-01,4.952259510914906460e-01,2.283740690126339137e-02,2.710254149231286491e-02,-2.081430501008385212e-02,7.265012711286544800e-02
5.191101007032534742e-01,4.650154302736116407e-01,4.836268914040335876e-01,-3.041301549568698002e-03,-9.307881883602157208e-03,-3.646905118460845932e-03,5.092540755867958069e-02
4.494969176885991735e-01,5.095361020558606402e-01,5.655204261555432099e-01,6.619413808850718728e-02,2.892251427943307376e-02,-1.827831325000040322e-02,1.635757237672805786e-01
4.755944493756443792e-01,4.882795710783115473e-01,4.880673081973797012e-01,-2.395599343198464865e-03,-3.200923572922015434e-03,-1.032806173994393374e-02,2.293961122632026672e-02
5.053440351958894405e-01,4.752516785217086870e-01,5.191604611295554950e-01,2.558550306359493737e-02,2.101680833229135556e-02,-3.620142564535871327e-02,9.344953298568725586e-02
4.720377597223378574e-01,4.745966118252692434e-01,5.168239513757566517e-01,-1.148304226321226248e-03,-1.952948453268072955e-03,-4.323590792586064040e-03,4.437597841024398804e-02
4.833322651961861616e-01,4.899712741497722068e-01,4.872719136789610550e-01,-1.154594932812858746e-03,-1.949072215142972925e-03,-3.291067073254380811e-03,9.018381126224994659e-03
5.736626547295506917e-01,5.323651985150321675e-01,4.911622623186371883e-01,2.353411486207636072e-01,1.455167239129636358e-01,-1.028098281438917239e-01,5.162325501441955566e-01
4.868291771803235357e-01,4.933234142570601111e-01,4.797774521436561912e-01,-4.850483124790555545e-03,-1.974983092271542003e-03,-2.383778789881711279e-03,1.539571210741996765e-02
4.841934239107364979e-01,4.587602446419039026e-01,5.245951913139461631e-01,-2.969916671189454238e-03,-1.028903574108537729e-02,-2.890152394937982490e-03,6.062844023108482361e-02
4.801086818180280158e-01,4.790051239062662614e-01,5.009671853175389211e-01,-8.145753830279405276e-04,-4.323546096848717574e-03,-1.013380589158994084e-03,2.281368337571620941e-02
4.790217104147145855e-01,5.155180595200413718e-01,5.439515470466101954e-01,4.965668063820565664e-02,3.837414891569632114e-02,-1.149145219159641330e-02,1.240540593862533569e-01
4.647051790194721144e-01,4.735480543959748045e-01,5.234871565234198165e-01,-4.849444102968439828e-03,-3.391767506927218043e-03,-7.264163487761762100e-03,5.724581703543663025e-02
4.874659975953350433e-01,4.897293628216394246e-01,5.332527970760037039e-01,1.999175928640066057e-03,9.519604702329434714e-04,9.549865602957693423e-05,4.486265406012535095e-02
4.724831843123645236e-01,5.191941198053099393e-01,5.439473326035204614e-01,8.972581385231123696e-02,6.930879156411712261e-02,-3.535129958114503756e-02,2.150890827178955078e-01
4.200096194442518027e-01,5.127512295255927111e-01,5.041152602275126293e-01,1.439568884096891210e-01,1.484489261788316805e-01,-6.834160290039444086e-02,3.875156939029693604e-01
5.209603410805243584e-01,3.338053069778456061e-01,4.785046616720601831e-01,1.769835223276284841e-01,1.179677010909157275e-01,-1.403880366840234428e-01,4.729997217655181885e-01
5.332902273064792364e-01,4.909670656970861469e-01,4.881184020786575317e-01,5.791551507765843078e-03,-1.383422854020080386e-03,1.133221451010833769e-02,4.910758137702941895e-02
5.187004719858412383e-01,4.697446289559096821e-01,5.094544829785350171e-01,3.074718615123771086e-03,1.227244775799540832e-02,-4.230564743364355340e-03,5.063014104962348938e-02
4.783598131008557908e-01,5.152428894804949033e-01,5.170638310229141998e-01,5.153191644494389823e-03,5.003571671025687333e-03,-7.385724358474659440e-03,4.182414710521697998e-02
5.358300199350908288e-01,4.904070110402197202e-01,4.814138271132441527e-01,3.895938981960772075e-03,-1.738240212113032054e-03,7.762823229572530549e-03,5.280159413814544678e-02
5.023278979693648338e-01,5.015116548777042160e-01,4.964665453825042318e-01,2.761435842928239813e-03,1.448465210027467982e-03,-1.162247197683869858e-03,7.966216653585433960e-03
5.187033026995868656e-01,4.701052043651902101e-01,5.127392018085359382e-01,3.107335656420477134e-03,1.094620786419777878e-02,-3.911299326857891473e-03,5.041648074984550476e-02
5.330654576960812685e-01,4.875685774322849331e-01,4.891597440347704162e-01,1.541486833143425024e-03,-9.746937324936244583e-04,1.512742042629282345e-03,4.491044953465461731e-02
5.507731794259492775e-01,4.907384400476328401e-01,4.505345671067686464e-01,1.856597267219041447e-02,-5.176597490029868041e-03,4.823569161951840600e-02,1.254140138626098633e-01
5.265001203866808144e-01,4.906129341304183988e-01,4.865528864481845628e-01,1.907214412701976718e-03,-8.907283033939168964e-04,1.163221201166737438e-03,3.830704465508460999e-02
5.028087380086714298e-01,5.021540574340958019e-01,4.990791848805702369e-01,2.559813571532942693e-03,2.795452913845776748e-03,-3.367336427756953843e-03,9.434774518013000488e-03
5.106979388849937074e-01,5.197036263324930072e-01,4.912846797148600064e-01,1.218736158779131114e-02,1.354698281596110505e-02,-6.239038670575415210e-03,4.178206622600555420e-02
5.159828349394389724e-01,5.287439536057187972e-01,4.595128826743325456e-01,1.825979791114083067e-02,-2.457706069394106560e-02,2.566107515717502841e-02,9.412837028503417969e-02
5.271232032395742895e-01,4.944080234097645854e-01,4.870274404541566904e-01,3.668647032218172715e-03,-8.686671283540157258e-04,1.546266827976212248e-03,3.763012960553169250e-02
5.129077140084205011e-01,4.699602946699947825e-01,4.792822550169305029e-01,-1.971983489035480149e-03,-5.966407886916580069e-03,-1.312218091508949702e-03,4.067740961909294128e-02
5.398930280596065945e-01,4.461065209193757486e-01,5.046583341989117066e-01,-7.466236393837104161e-05,1.053863977172618538e-02,-8.741985239068470609e-03,8.541268110275268555e-02
7.522739678824708065e-01,1.452533924889628514e-01,6.254450270705044224e-01,6.479703477374661180e-02,1.694996017201077371e-02,-3.343795247689333727e-02,5.695471167564392090e-01
5.192063203158779894e-01,4.990447859475649617e-01,4.791163311489604615e-01,1.014808947412783151e-02,1.910269390048207521e-03,-9.647893047429779989e-04,3.909104689955711365e-02
5.653127138120420669e-01,3.516967859487932224e-01,5.635406686807584720e-01,-1.512148243392341489e-02,2.764382758656233011e-03,-4.699160625099608329e-03,2.145495712757110596e-01
5.649532736818126955e-01,5.464427074674406137e-01,2.972862943643928002e-01,5.282203650871980516e-03,-8.965687010620795871e-03,-4.563626222694623646e-02,2.713050842285156250e-01
5.637141584422672436e-01,5.668608894914881624e-01,3.905930552289094693e-01,7.853110818222406447e-03,1.050533437215585113e-02,-1.292391356063663996e-02,1.776028275489807129e-01
5.681608795693618985e-01,5.530703799648397645e-01,3.644347131068907952e-01,7.233925929560181857e-03,-5.740893613530549666e-03,-7.820821449852638149e-03,1.977298706769943237e-01
5.547101010798720644e-01,5.429494401711486562e-01,3.484213995710819800e-01,2.114310924421917981e-02,3.423347807474293875e-02,-3.195873951186494616e-02,2.195181548595428467e-01
5.564137938727130583e-01,5.500555278125410785e-01,3.872315759687046111e-01,1.794069209193015907e-02,1.908969710256008118e-02,-2.124933610179174232e-02,1.760704517364501953e-01
5.375697390784418550e-01,4.786678705437627523e-01,4.679124598900238352e-01,3.627213758748675659e-03,3.893416312877783381e-03,-7.967431599000943110e-03,6.703736633062362671e-02
5.354315088920159615e-01,4.515324009194828236e-01,4.604200017602302908e-01,-7.622742345654074866e-03,-7.333122637032464183e-03,-2.166709419783462848e-02,9.009117633104324341e-02
5.517096300351173044e-01,5.282828217340519439e-01,3.886946588327028218e-01,1.389421258109212534e-02,2.872758483743039284e-02,-1.075305108133297986e-02,1.634185761213302612e-01
5.577204181449330056e-01,5.194352709956853165e-01,4.168575875394097685e-01,7.430755318661963829e-03,4.699284098060981830e-03,-2.336787518012745091e-02,1.333611905574798584e-01
5.760403627737882282e-01,5.441677154201288724e-01,3.255720077854334926e-01,1.333130396628545017e-02,-1.817264571089635336e-02,-3.817778063303042119e-02,2.483217865228652954e-01
5.463597760486749166e-01,4.814220619287689074e-01,4.341057266981545593e-01,-8.519049428659362239e-03,-3.355938700493336230e-03,-1.415946585070705470e-02,1.018888503313064575e-01
5.392128693012738783e-01,4.545127385954874644e-01,4.828611466713228495e-01,-1.462888117630161983e-03,3.598382904592520477e-03,-5.363535512042378120e-03,7.555261999368667603e-02
5.392596343189450803e-01,4.812335437036125985e-01,4.376307704789108577e-01,-7.895159521716450107e-03,-4.567649211384852345e-03,-1.329315027473254411e-02,9.261772036552429199e-02
5.444415481907954879e-01,4.271019702132045071e-01,5.030983395567685257e-01,-3.499274485821403640e-03,4.719232080959885785e-03,-1.139647831546706722e-02,1.054506078362464905e-01
5.312620028944593509e-01,4.704007754042233147e-01,4.669601410768760563e-01,-3.134347043092951517e-03,-1.494296871166692596e-03,-1.329469997302085756e-03,6.298255175352096558e-02
5.401757730998449913e-01,4.652823359111669110e-01,4.585765097848721883e-01,3.195012865849605993e-04,-6.607690874596482090e-04,-1.086785561004755159e-02,8.069798350334167480e-02
5.025481806649969574e-01,4.552712498982975919e-01,5.055918251729646373e-01,-4.495879752089133527e-03,-1.208987658071308292e-02,-5.155165420002681687e-03,5.447134375572204590e-02
5.162261535527493672e-01,5.342022591501710549e-01,4.479985308626265317e-01,-1.275912632290363349e-02,-2.954393036439029174e-02,-1.911810406333762369e-02,1.020197942852973938e-01
5.252152746580143194e-01,4.587713783320160332e-01,4.835686877280315765e-01,-3.295164946669678577e-03,-1.087847588991584270e-02,-2.012380408276542593e-03,6.149646267294883728e-02
5.240547424522234987e-01,4.300916878283421729e-01,5.004956687247653635e-01,-6.130333213825371434e-03,-1.193995838540008389e-02,-7.524069156084437458e-03,8.877313137054443359e-02
4.714519210168086616e-01,4.620437196734989427e-01,5.311954626970116777e-01,-6.908369426350106403e-03,-6.434775084492648338e-03,-2.542041459754880960e-03,6.713170558214187622e-02
4.817778536463674932e-01,4.832107530684071617e-01,4.885102664226790292e-01,-2.581387894464592329e-03,-2.344106946175410905e-03,-3.632369508674464405e-03,1.066720392554998398e-02
4.859776682372853318e-01,4.861477399526912269e-01,4.837626540959416577e-01,-5.473694902314745793e-03,-5.697425260686082849e-03,-4.966527428185385680e-03,1.632718741893768311e-02
5.236067042192495968e-01,4.695999604855704002e-01,4.753947972460727533e-01,-2.168114895745235863e-03,-4.674091968501868123e-03,-1.156771867108440620e-03,5.216326564550399780e-02
5.391770397444385354e-01,4.834350607531729960e-01,4.354288087068162172e-01,-7.007466563384789730e-03,5.081822959579635098e-03,-2.168199563468565030e-02,9.860450029373168945e-02
5.303578910750119668e-01,4.667947230815550075e-01,4.613778841300005262e-01,-5.267623512614439535e-03,-2.570811491678651022e-03,-6.833755162534613757e-03,6.824295967817306519e-02
4.815225715050094890e-01,4.931931762144051157e-01,4.842720023248823780e-01,-2.549896637063136032e-03,-1.931371721238102747e-03,-4.652365235191138586e-03,1.439808588474988937e-02
4.892637018423358075e-01,4.658200683523129881e-01,5.053708261151650394e-01,-2.246214183154294098e-03,-1.012107645143267738e-02,-2.870510345388457580e-03,3.916398063302040100e-02
4.862972234825546081e-01,4.812119611010310383e-01,4.928253538657842436e-01,-2.475797781821471345e-03,-5.487885126872133965e-03,-2.557360816872214244e-03,1.516684889793395996e-02
5.428608884289171099e-01,4.624026054423880927e-01,4.145621999577143169e-01,-1.014934764155477585e-02,-1.252175518560202407e-02,-5.625951878055747424e-02,1.512818783521652222e-01
5.339411627052782494e-01,4.660307786290215915e-01,4.679724621182006494e-01,-1.324174074247441539e-03,-1.290870151704147676e-03,-1.692291180417694304e-03,6.710126996040344238e-02
4.548778920730209840e-01,5.030530094741276770e-01,4.885914811145149472e-01,-1.696321305020804041e-02,-2.432233668926836109e-02,-2.254860406989449284e-02,7.743765413761138916e-02
5.381306711727001924e-01,4.712849025870344266e-01,4.659950121998893136e-01,-9.939880490201259688e-04,5.020099994496513875e-04,-2.511101592531212422e-03,6.980389356613159180e-02
4.590658156125758116e-01,4.567424554410729476e-01,5.392021702948687212e-01,-2.471319135850625834e-02,3.044019872849180759e-03,3.483063554472740943e-03,9.224878251552581787e-02
4.789691673768236013e-01,4.980559418746458578e-01,4.728193260458833924e-01,-5.074923759470608212e-03,-3.245299099490398659e-03,-9.325349192824829159e-03,2.982034534215927124e-02
5.559741120117944746e-01,4.176562227244326464e-01,5.457281784684699932e-01,-6.229051486412362504e-02,2.822145093353221543e-02,2.239933171945196824e-02,1.826321035623550415e-01
4.965046194098467480e-01,3.944592835756561278e-01,6.155393312450577747e-01,-6.960175323528222657e-02,3.911246121533232256e-02,4.256569871720539827e-02,2.475631833076477051e-01
4.364621502632928807e-01,4.430680837257890969e-01,5.718528815483652217e-01,1.623657521375074519e-01,8.646880130678044618e-02,-2.747556065204551437e-02,3.482285141944885254e-01
5.002813258222673642e-01,4.968379012451989984e-01,5.062970853935070403e-01,7.807001587385498141e-04,1.115830440384162027e-03,-1.129226131619249021e-03,8.840277791023254395e-03
5.073222852069498856e-01,4.918763570131665652e-01,5.048462036078812387e-01,1.142971776422185013e-03,4.228504932412978541e-03,-1.080925728913542097e-03,1.635626517236232758e-02
5.269038910435390743e-01,4.181222092133335400e-01,5.330736178666871661e-01,1.653888731628086819e-02,1.748747919711739901e-02,-1.432941596904987493e-02,1.220520809292793274e-01
4.384477706435171429e-01,5.428382704992610330e-01,5.036049380161751188e-01,-4.221216990068983252e-03,-9.383678982529314316e-03,9.364953584714987662e-04,9.306605905294418335e-02
4.441660431997074276e-01,5.757532273298956449e-01,4.933773384942130580e-01,1.080204913359322783e-02,-8.285059013987565446e-02,-4.156491923989392816e-03,1.850835084915161133e-01
4.996746231319668663e-01,4.992188740720355233e-01,4.979933270172507420e-01,3.213537103571622775e-04,1.606947586980039941e-03,-2.832789061881958053e-04,3.250477137044072151e-03
4.590897802427509333e-01,5.386642345009685640e-01,4.740475062390046568e-01,-5.211722573725713651e-04,-9.404779692518074399e-03,1.000839213992805142e-03,7.506493479013442993e-02
4.752481868986393465e-01,5.317494290599076301e-01,4.759932364509577574e-01,-2.256607399641353054e-02,-4.223830882588377328e-02,-2.186763335047562512e-02,1.070763096213340759e-01
5.062350157533986872e-01,4.942754744174548409e-01,4.916598531503524327e-01,1.229359395808658816e-03,3.560911644280393296e-03,-8.312385758187642920e-04,1.502667181193828583e-02
5.290373865365817219e-01,4.543210695017531053e-01,5.088656013235771658e-01,1.162576925673396502e-02,1.551432728435253074e-02,-6.163372406665868809e-03,7.565571367740631104e-02
3.847152549034845714e-01,6.028091852018674368e-01,4.956008820508055468e-01,-8.660075888721524909e-03,-8.372721203339880680e-02,-2.073583767288116053e-02,2.412939220666885376e-01
5.050505257507343915e-01,4.911843649880376361e-01,5.005303354357228951e-01,1.541008007183823809e-03,6.856561422578468477e-03,-1.985487906171895089e-03,1.760717853903770447e-02
5.197800818883039353e-01,4.821991822530401484e-01,5.010845536568242498e-01,2.300537504961854950e-03,5.952621629221247108e-03,-2.752130360442384908e-03,3.470091149210929871e-02
5.265432833106957755e-01,4.605921050827956331e-01,4.989446895870124354e-01,-3.177676962737568857e-03,1.044899948006580009e-02,1.277370382744911007e-02,6.433055549860000610e-02
5.338047937166522372e-01,4.499644178034344355e-01,4.939751169462274216e-01,-2.759609962323166139e-03,7.612894112069675846e-03,1.755492227346042156e-02,7.998447865247726440e-02
5.181941815214043956e-01,4.837843895027809649e-01,4.832502909091688226e-01,1.663236473093373949e-03,4.236147659313927241e-03,-1.893653212453264532e-03,3.571538627147674561e-02
5.299368145209953918e-01,4.695077664596429279e-01,4.752749432827628739e-01,1.873961942306773569e-03,3.710788647635613995e-03,-3.285239906773394346e-03,5.848631262779235840e-02
5.317239907075397287e-01,4.840989255890061349e-01,4.762167011991476628e-01,4.597823277254966395e-03,1.282119103377203032e-03,-2.310633739056983018e-03,5.282079428434371948e-02
4.057258838180543559e-01,5.596284171272588592e-01,5.068291761333313383e-01,-2.827959249662464862e-03,-2.232109894892705601e-02,-7.816196534046901401e-03,1.415972411632537842e-01
5.356597716770609141e-01,4.540302267863875474e-01,4.817680280767122625e-01,-3.532169160585976850e-04,-3.691654102298223220e-03,-5.752183436197557363e-03,7.286334037780761719e-02
5.376849526438677307e-01,4.749072002109915869e-01,4.690532862342318698e-01,3.512930795553506798e-03,5.673755733642040291e-03,-3.139723874756142601e-03,6.712660193443298340e-02
3.331523878849771414e-01,5.071837003051669068e-01,5.181400595592710046e-01,-1.268869799007836252e-01,1.445797609863410937e-01,9.928372320944743590e-02,4.158080220222473145e-01
5.703381286440807330e-01,6.176572265062511002e-01,3.885975729059891748e-01,4.249815313953178575e-02,7.634093958833403082e-02,-2.939885650254624172e-03,2.584502995014190674e-01
6.826939509511653625e-01,5.896898338295402109e-01,3.286539389089484509e-01,2.705000008932441011e-02,2.118568919191328170e-01,-1.429248722119665083e-02,4.883900880813598633e-01
5.523114221301822502e-01,4.477084524575195013e-01,4.865899876858038597e-01,3.455651148883585703e-03,6.132591732859929597e-03,-2.288536481350193427e-02,1.005301028490066528e-01
5.620507577150835044e-01,5.719118079190388393e-01,3.544338829325295315e-01,1.571823112938028691e-02,3.094918739316874362e-02,-9.540330361992152911e-03,2.216689586639404297e-01
5.328199238999958842e-01,5.623644042614410754e-01,3.887734363573800977e-01,2.809842520034497131e-03,4.939327156428481580e-02,9.784745003382507023e-03,1.830520182847976685e-01
5.381416321893288668e-01,4.660886022614542656e-01,4.683919389888993590e-01,-1.609526026117442097e-04,-7.681103120335193738e-04,-1.306843873114074553e-03,7.097854465246200562e-02
5.358220601292355001e-01,4.665244449124469339e-01,4.708531445652137104e-01,-1.175385927737226813e-03,-3.215458420377034863e-03,-1.935615691909433733e-03,6.758202612400054932e-02
5.452534009827182393e-01,4.551299461089319820e-01,4.828139646246640271e-01,1.549334057463790972e-04,1.180993354044103470e-03,-5.170424073256965451e-03,8.048675954341888428e-02
5.234705015408176454e-01,4.638888642373473759e-01,5.203142633800393879e-01,-6.049721852963151590e-03,1.568139784238883547e-02,5.071988128427467810e-03,6.554823368787765503e-02
5.348042935666315056e-01,4.588022796452010943e-01,4.673150736940437922e-01,-8.561818228327495485e-04,-2.630310145960467957e-03,-8.663991761448389811e-03,7.382366061210632324e-02
5.266448698367258707e-01,5.809398747089266068e-01,3.711293785633781872e-01,9.866446916322062569e-03,1.566362012396172176e-01,1.508058945821505632e-02,3.318971991539001465e-01
5.904953646591393213e-01,5.899884422543086870e-01,3.730373221720799104e-01,-4.923521236191833600e-03,6.949908691311620923e-02,2.543786857366001422e-02,2.523536682128906250e-01
5.227659851733569285e-01,4.579349554731212413e-01,4.779205515057111109e-01,-2.835824639133500275e-03,-7.596579070856965266e-03,-3.336268928493551448e-03,5.947639420628547668e-02
4.633407352224597764e-01,5.096914669668538567e-01,4.843200770689402024e-01,-1.302363267038209212e-02,-2.080749830877413192e-02,-1.542442619540957370e-02,6.432382762432098389e-02
5.544718947021007871e-01,3.519717107295940450e-01,5.548236963197124005e-01,-4.219427803684627082e-03,2.144968147804187807e-04,-3.741831446734331535e-03,2.029118984937667847e-01
5.839806646283886016e-01,3.037093083344182265e-01,5.826644650630686817e-01,-1.274353412388420578e-02,2.163102223317566603e-02,-4.069033895325157441e-02,2.916211187839508057e-01
5.075705988045299266e-01,4.762461433998492200e-01,4.813308395391953098e-01,-2.280357351659226262e-03,-4.853400912246000863e-03,-1.031987613531519044e-03,3.061473369598388672e-02
5.047150515755527422e-01,4.840931363346212546e-01,4.682422527200941209e-01,-1.221831237494844756e-02,-4.623744842998583210e-03,-5.938505204479952240e-03,4.026394709944725037e-02
5.730825457271884193e-01,4.001546629177592518e-01,5.830769191504130422e-01,8.416428325353822112e-03,9.665881410759583764e-03,1.454579164862052944e-02,1.812726706266403198e-01
5.473485634368500108e-01,3.490855226709528303e-01,6.126540298866124390e-01,-4.064920526357319180e-02,3.398863374561796741e-02,3.354974458776933954e-02,2.613813579082489014e-01
5.126184995998604998e-01,4.742897037096872603e-01,4.706926807804805990e-01,-3.856545143503504504e-03,-4.982288429994459391e-04,-1.184144380591130264e-03,4.085920751094818115e-02
5.041162219237380615e-01,5.301168745027822204e-01,4.187083275121429859e-01,-1.643350418433442775e-02,-1.400351222675896498e-02,-9.651592333698029783e-03,1.089455783367156982e-01
5.043265334953189738e-01,4.669256381563411940e-01,4.885615882054230030e-01,-1.982321969206882282e-03,-1.051722454304865155e-02,-2.313747995460338838e-03,3.764867410063743591e-02
5.067780819076745935e-01,4.665638043861795037e-01,4.826009221422653539e-01,-2.598458358610749707e-03,-9.093534371432496211e-03,-3.559438746048739551e-03,3.918926045298576355e-02
4.856807680991760967e-01,4.835340034743596527e-01,4.929905454996721392e-01,6.946402378347170392e-05,-3.621271901711306009e-03,-1.816893414731297028e-03,1.109019480645656586e-02
4.928250762982529509e-01,4.759218796496222925e-01,4.883458079887545433e-01,-2.029955279292225152e-03,-7.095416489684475483e-03,-1.871205279239007702e-03,2.009898424148559570e-02
5.041276968414175608e-01,4.597212368406856098e-01,4.871051585607483192e-01,-5.494206592785673589e-03,-1.305692913066831655e-02,-9.246693450935015296e-03,4.862409830093383789e-02
4.876139547950763542e-01,4.853722942703211363e-01,4.829335689000599507e-01,-5.201548940374963945e-03,-4.030744043707724239e-03,-4.890354813861387540e-03,1.476803794503211975e-02
4.950364839598564992e-01,4.865216546212137172e-01,4.818222056704167811e-01,-8.262214884035496212e-04,-2.146597269429033426e-03,-2.105312977600402782e-03,1.279729418456554413e-02
4.750994017634548872e-01,4.863483807495170286e-01,5.000489545427546645e-01,-1.924331082981120501e-03,-5.017790819985198068e-03,-9.876848925955632186e-03,2.911465242505073547e-02
4.910453453558948911e-01,4.857841602459412877e-01,5.349116315976867320e-01,1.008738373308768789e-03,2.088411065407243077e-03,-2.859742047273957180e-04,4.689458757638931274e-02
5.133062488803437073e-01,4.752670254893606172e-01,4.714304592088737200e-01,-8.601709553984834486e-03,-8.255169444969573042e-03,-1.106451650215325121e-02,4.900330677628517151e-02
5.128535228531605483e-01,4.631434228313796586e-01,4.840741567837934523e-01,-1.978363739922881122e-03,-1.093099533720319830e-02,-4.188721857309835386e-03,4.787022620439529419e-02
4.757132832288613056e-01,5.336987407725756194e-01,4.786213880777134833e-01,-4.203326445229335455e-03,2.428304000591078801e-02,7.630353337875030346e-03,7.210278511047363281e-02
4.210926451049402663e-01,5.433419956955543029e-01,5.252693113584769868e-01,-1.223669795136531242e-02,1.210126933973542512e-02,1.368993733003749311e-02,1.204696148633956909e-01
5.205589553411552606e-01,4.592000591177166635e-01,5.315692201966486508e-01,5.772559873073187554e-03,1.345049613039124223e-02,-4.113947796498240370e-03,7.249280065298080444e-02
5.181188630603983380e-01,4.850667089853298863e-01,4.851528692033444390e-01,6.369597060378268203e-04,1.698454708488050845e-03,9.286653649340683835e-04,3.319733589887619019e-02
4.906410386382631938e-01,5.281477009223880525e-01,4.908269213881160109e-01,1.775352924937538459e-03,1.967070546097176176e-03,-9.146063542095278021e-04,3.772778436541557312e-02
4.058151039410295424e-01,5.883158624298658879e-01,6.062130464446597866e-01,-5.717355290415827851e-02,4.907906388875316051e-02,3.644998869034304229e-02,2.406482845544815063e-01
3.221696130580863349e-01,5.223924798487123988e-01,5.527397126086032175e-01,-6.076642259459874573e-02,6.671386878849362712e-03,1.294033145395944405e-02,2.424869388341903687e-01
4.968976061387911924e-01,5.111112039283701725e-01,4.953502510121512437e-01,2.655972329763572285e-03,8.396229103553738129e-04,-6.476638898350024851e-04,1.584140211343765259e-02
8.267498947382465602e-01,5.951669982893953437e-01,3.034689097790624346e-01,6.513607997680552486e-02,4.302220056266522347e-02,-2.111600309026890887e-01,5.985960364341735840e-01
4.988093879887665061e-01,4.754621512738202438e-01,5.346480745206718677e-01,3.174387792541080375e-03,3.095004836197126023e-03,-1.084117930897772822e-03,5.223727226257324219e-02
4.371249890092305246e-01,5.153375370645079112e-01,6.304030517503292907e-01,-1.121887191619755225e-01,2.860524042718722709e-02,2.826730225500576760e-02,2.663975656032562256e-01
5.709643224820593055e-01,3.845790580084288424e-01,5.639163890361205134e-01,9.368969027681435481e-04,1.952212477161745230e-02,1.756138154443204202e-02,1.885382980108261108e-01
6.245682271904446914e-01,5.628763995865562197e-01,3.171864769391159466e-01,2.792196906154127689e-02,1.972948929048205791e-02,-3.274195838443343803e-02,2.933415472507476807e-01
5.190982499523260074e-01,5.091601523993658507e-01,4.708342239146548480e-01,1.033857068767298458e-02,3.253938441684206626e-03,-3.376311994812363024e-03,4.832339286804199219e-02
4.648280763566551843e-01,5.161119673871822355e-01,5.303817556714692794e-01,-2.358301709818964517e-02,2.460705886691426716e-02,1.618206003576418833e-02,8.852146565914154053e-02
5.517608426605841165e-01,4.188967279713688430e-01,5.196906692764696745e-01,2.367162286290577095e-03,6.654565240587322940e-03,2.287524283017408622e-02,1.270428448915481567e-01
5.486983753613597914e-01,5.319742261994702126e-01,3.901486809355249052e-01,1.759366348621374228e-03,-1.244176797341939051e-03,-1.061356368277025300e-02,1.520459353923797607e-01
5.087901374358102524e-01,4.859403447608327542e-01,4.975016460503363658e-01,4.341120076157976154e-03,6.662976789706609275e-03,-2.088289747820608940e-03,2.438048459589481354e-02
4.956063489041125369e-01,5.102633212226113102e-01,4.982235451202909893e-01,5.129647010336395134e-03,4.978650542795837186e-03,-4.048710316517720523e-03,1.964162103831768036e-02
4.850270611987335667e-01,5.352565700960087991e-01,4.902358945089910214e-01,1.410713439628500992e-03,2.002043361345413452e-03,8.411094804100669115e-04,4.804805666208267212e-02
5.533235410736988547e-01,4.158504356853620076e-01,5.240324403533087594e-01,6.256855178616606283e-03,1.336294818550350788e-02,5.664344333105681556e-02,1.612720489501953125e-01
4.779096592134432497e-01,5.430060353187884381e-01,4.997322895041863000e-01,-1.354578133266774731e-03,4.162798539799164241e-03,1.012990972293529180e-03,5.791166424751281738e-02
5.630588190413478022e-01,4.134744590891883953e-01,5.461432918462089114e-01,2.862634461408415567e-03,8.131717212323511315e-03,7.644391258043586011e-03,1.432814896106719971e-01
4.908202039715283682e-01,5.344973188919309726e-01,4.823913074693715330e-01,-2.088285549584235814e-03,5.465450276054811124e-03,2.247158201931395618e-03,4.964606836438179016e-02
5.625465436033164623e-01,3.911530415179912401e-01,5.621204402880672912e-01,1.084409744936865386e-03,1.145415834488138114e-02,1.272553338386093504e-02,1.737406700849533081e-01
6.033498204594607284e-01,4.711058903720228841e-01,5.543552847965242947e-01,-5.812994356021004708e-04,3.496946729767348716e-02,8.912129957210508657e-02,2.022550702095031738e-01
5.376227140073450705e-01,3.622055376130074444e-01,5.506568074980943139e-01,-4.395491814888329712e-02,9.476466045869985991e-03,7.198518770205659771e-03,1.986163407564163208e-01
7.962216883790211863e-01,5.987072126239499914e-01,3.413550162459045856e-01,1.072824302296719878e-01,8.587072578246485177e-02,-1.943739439723655982e-01,5.710223317146301270e-01
5.761323703091982829e-01,3.531645839544088616e-01,5.597399886312410811e-01,-5.303578955588338084e-02,2.035516454176324735e-02,1.643734535222271531e-02,2.383701205253601074e-01
5.783162612675001313e-01,3.803278589349541328e-01,5.851604675752777318e-01,-5.029027431416982497e-02,2.742307125887678484e-02,4.099459924586323911e-02,2.355555295944213867e-01
5.395233424553186330e-01,4.683056661469342519e-01,4.750860097308569063e-01,3.687436091503038508e-05,1.709096955937329521e-03,-2.669797773675560478e-03,6.830227375030517578e-02
6.236114594153985280e-01,2.352977630784954255e-01,6.320928785618020740e-01,-1.694141576338400179e-01,3.946867535635339985e-02,-3.857535464439377365e-02,4.993935227394104004e-01
4.846532344087889355e-01,4.766627046867672468e-01,5.159439024381422545e-01,-1.827916960322840609e-02,-1.372004189529470869e-02,-1.116392592715487533e-02,5.686814710497856140e-02
5.902658605422604898e-01,6.292415274199674169e-01,3.903084199444236679e-01,-9.567794343131486023e-02,-1.896255938496420046e-01,-1.374529592463743510e-01,4.912350773811340332e-01
4.866237559242352906e-01,4.571191301804437002e-01,5.319965322522699491e-01,-2.616133553078319601e-02,-1.079860943166620520e-02,-1.709254811414699649e-02,8.687612414360046387e-02
4.861169555840336165e-01,5.346967879070008145e-01,4.924867463981743576e-01,5.189324367642072236e-05,1.849951248016858639e-03,3.316555673176547602e-03,4.619961604475975037e-02
4.880869477879570817e-01,5.318129381559257851e-01,4.909290120656303325e-01,2.528016911256546033e-03,1.662035943509877290e-03,-4.674601121834151725e-04,4.270694032311439514e-02
5.001283019552671405e-01,5.415287573630286344e-01,4.714954889789117476e-01,7.286120763004760165e-03,5.143529800318858911e-03,-1.498436946784280441e-03,6.296517699956893921e-02
4.906881478383867679e-01,5.403329512547646596e-01,4.896995965908346182e-01,-1.371273408512097306e-03,9.369203589820785522e-03,4.687362892767239948e-03,5.338128283619880676e-02
4.702371853199553420e-01,4.501639159564592152e-01,5.300299636276103454e-01,-1.154731573472808984e-02,-7.263930671615270382e-03,-3.522216455225168647e-03,7.598606497049331665e-02
4.992422785110751104e-01,5.292372728456211650e-01,4.753968814660106124e-01,-2.075890463804542889e-03,4.120715922847915762e-03,2.331931828552188859e-03,4.757864773273468018e-02
4.647790195742089181e-01,5.255295320240801482e-01,4.997231098977553132e-01,-3.604867209505587672e-03,1.404851359193410275e-02,1.283236662433308306e-02,6.256132572889328003e-02
7.485265371002467472e-01,2.549945427537274600e-01,5.309265044070619055e-01,7.169600084663563244e-02,8.225567364013712870e-03,1.246462336067058890e-01,4.957469105720520020e-01
4.855400216833800076e-01,5.318394409035296366e-01,4.899389879767875877e-01,-1.292563871250765534e-04,1.697278645274386422e-03,1.166052778479228233e-03,4.440820962190628052e-02
4.964812974114352628e-01,5.182531546863803351e-01,4.885373797530705442e-01,-1.400687412856137367e-03,2.904686781532570070e-03,1.970701207352945628e-03,2.743942104279994965e-02
4.762055276139134374e-01,4.357694869127567983e-01,5.328440754666270429e-01,-1.990374086191754391e-02,-1.216372047785843798e-02,-2.337502696581691765e-05,9.362469613552093506e-02
4.707557852256112896e-01,4.708456172893054070e-01,5.319384023033242315e-01,-8.189774961616030219e-03,-7.622418528268198878e-03,-3.491882771893019526e-03,6.441991031169891357e-02
4.621595847808291913e-01,4.877074844241329199e-01,4.981657090993029668e-01,-9.153814295202018780e-03,-6.102945924072526208e-03,-1.435697151019346869e-02,4.484125226736068726e-02
3.733426222819831164e-01,5.301294935411788867e-01,4.752339176526491071e-01,-5.727933330967583531e-02,-8.624497812489913262e-02,-4.556692627097591597e-02,2.395310699939727783e-01
4.938960926621360215e-01,5.186220462001798204e-01,4.972821924097297064e-01,-2.259138105060561758e-03,2.239730552123780829e-03,1.868648829824962965e-03,2.408214658498764038e-02
4.980388263384856740e-01,5.264313666578246398e-01,4.876575137736232080e-01,-4.862286295159229908e-03,6.345237330475399966e-04,2.660390145898026189e-03,3.608360141515731812e-02
5.152771910782263376e-01,4.918734539412333295e-01,4.928839228604056100e-01,-1.010573762775885493e-03,4.365973087630999235e-03,1.874822923711779972e-03,2.441108413040637970e-02
4.996009794737195642e-01,4.936554831155082756e-01,5.041064161599176918e-01,-2.458196175822211556e-03,7.504436298264484037e-03,1.386462578555094005e-03,1.659155450761318207e-02
5.920861401492298892e-01,5.157993689633398882e-01,5.331244169296421864e-01,6.162683147427130276e-02,-1.943232141753138340e-02,9.532767961285239233e-02,2.111556380987167358e-01
4.841047995109067359e-01,5.136823426505189305e-01,5.063903952476539461e-01,-2.489705275991095472e-03,2.343769488510114626e-03,8.247287063896298689e-03,3.084565699100494385e-02
4.575771138271446103e-01,5.082571033104692493e-01,5.202519210226967949e-01,-5.064956692912820670e-03,4.132241499232615356e-03,1.236581638765917035e-02,6.250729411840438843e-02
4.924761095530919008e-01,5.163529551942702689e-01,4.890728183409434604e-01,-3.783150810425274947e-03,3.136684338576604947e-03,2.592662854521653876e-03,2.748753875494003296e-02
4.982731041557468821e-01,5.031743103002080941e-01,5.018610984503759642e-01,-3.222685708308715806e-03,3.783801937711184140e-03,5.231499656213396687e-03,1.324856095016002655e-02
4.990689269153726904e-01,4.990976948011508485e-01,4.994229397134821169e-01,-1.659031417928826576e-03,7.518160152019913445e-04,6.164387924959803750e-04,3.347954014316201210e-03
5.038008436321699257e-01,4.933754002320385745e-01,4.971423533972275655e-01,-1.106965869675824530e-03,3.518363611324060430e-03,2.611647628877414046e-04,1.116355881094932556e-02
4.589712631228157202e-01,4.872669944717503698e-01,5.042418697456422239e-01,-7.633954842620426645e-03,-5.122351233596100610e-03,-1.430558647951932043e-02,4.936201125383377075e-02
5.043739470033062888e-01,4.962733548804940109e-01,4.986444296589839786e-01,-2.748560918072576447e-03,2.026566745981334475e-03,1.551479835158522773e-03,9.707750752568244934e-03
4.993523162445750452e-01,5.026820407666369173e-01,4.986008401739801532e-01,-1.719974513307990930e-03,7.779785680348516022e-04,1.140027192944168726e-03,5.361312068998813629e-03
4.618180913216285433e-01,5.172766306040775808e-01,5.197771466431436727e-01,-4.696614379685523904e-04,5.336025877199329116e-03,1.537721487169138243e-02,6.337219476699829102e-02
4.462105651040517706e-01,4.868601124516001577e-01,5.242851581947979289e-01,-1.689886577664332507e-02,-5.301081269815751361e-03,-1.463612454510607001e-02,7.847291976213455200e-02
4.796412082421131484e-01,5.124398194566377462e-01,4.649331537552373605e-01,-8.124067999060017448e-03,-4.705874821592635586e-03,-3.644516647319391220e-03,4.559346660971641541e-02
4.730379572215838158e-01,5.147668343781660605e-01,4.916536833991150823e-01,-1.578377080505964647e-02,-1.903728153691145938e-02,-1.667118513941422131e-02,6.308290362358093262e-02
4.802247887314040065e-01,5.043274738003191704e-01,4.758290297164325944e-01,-9.377158949595081408e-03,-7.293447976899534134e-03,-5.660581560920916952e-03,3.501020744442939758e-02
4.525112689377453479e-01,5.066750332932379308e-01,4.740676145970645905e-01,-2.505371356307103600e-02,-4.022187168630945997e-02,-3.263526074818623446e-02,1.102835461497306824e-01
4.989189215358256213e-01,4.767286507715364774e-01,4.778873668482379600e-01,-9.598685130954997743e-03,-1.087455980129861492e-02,-9.397510418243092481e-03,3.693440929055213928e-02
6.689044103191644774e-01,7.268752811061612862e-01,4.542967219218244646e-01,1.074976322953742069e-01,1.995797614967600997e-01,-1.023681339864682648e-02,4.651192426681518555e-01
5.084482614632556130e-01,4.844844926036754318e-01,5.001834063450839585e-01,2.933791939752526494e-03,7.082873186598357372e-03,-2.193514573975002217e-03,2.520456723868846893e-02
5.188856448963330426e-01,4.992647069606590549e-01,4.783127153485222660e-01,1.013798008554313637e-02,2.289070815020827123e-03,-1.273500110351007955e-03,3.954726085066795349e-02
3.003768016749230885e-01,5.422803504905109317e-01,5.554900208678565932e-01,-8.995660092318490120e-02,1.094784624682155205e-01,5.236794798395671274e-02,3.610369265079498291e-01
5.072153707533249012e-01,5.046842319677660171e-01,4.924854989084499479e-01,1.003679769491930794e-02,1.027354102384039035e-02,-9.237052586690958772e-03,3.257162496447563171e-02
5.051687662962527359e-01,4.880834199650974092e-01,5.048458572396676836e-01,1.885720073470620664e-03,7.216336324248759197e-03,-1.619842010191879051e-03,2.147701941430568695e-02
4.809777825501389548e-01,5.315183823088233117e-01,5.006380408589378161e-01,1.881205392331319719e-03,5.245725993294323222e-03,-3.400293878484696858e-03,4.555318132042884827e-02
5.175795201006925250e-01,4.723440493124743678e-01,4.988114464094659528e-01,3.144258302794548151e-03,1.088860495065393716e-02,-5.553544620991881717e-03,4.502638801932334900e-02
5.160252915760115133e-01,4.720853514696498610e-01,4.673634619179971028e-01,-7.477146872722031413e-03,-5.035802457355716480e-03,-4.918769670712800322e-03,4.976824298501014709e-02
4.975879201005973806e-01,5.349441436485149470e-01,4.505561381974786395e-01,9.144874816723342487e-03,1.455594748694453121e-02,-1.314558909995933817e-03,7.909552752971649170e-02
5.056692624986445228e-01,4.947149627103467062e-01,4.991935933684301108e-01,9.476677826230035318e-04,5.648443343469316744e-03,1.929449200777808616e-06,1.376239489763975143e-02
4.931257513509325063e-01,5.259662222788737962e-01,4.815404417529596803e-01,6.995540742190789474e-03,4.854292573424982479e-03,-2.141351951114557877e-03,4.271351546049118042e-02
5.287734916687797382e-01,4.873157299379565766e-01,4.816975479923432113e-01,2.956867142925263814e-03,7.321848973363018383e-03,-1.114588497871548192e-02,5.042793974280357361e-02
4.455956772087391049e-01,5.523787494926944985e-01,5.194574795150840307e-01,5.916165593880641580e-05,8.067707628784016524e-03,4.209101912965268304e-03,9.601783007383346558e-02
5.262753608085964929e-01,4.898027413471802705e-01,5.053074817019925780e-01,1.212044721391446894e-02,1.082176673161239222e-02,-1.354092539102639756e-02,4.844861105084419250e-02
5.002533365220988015e-01,5.377215189687848396e-01,4.762132326691027040e-01,9.273586283762472182e-03,3.181626441388093942e-03,-1.890448709455174597e-03,5.640583485364913940e-02
4.761075094672319596e-01,4.741279205705984379e-01,5.075344046344956173e-01,3.591512747514759014e-04,-2.369438918145870283e-03,-1.245187254368418936e-03,3.279728814959526062e-02
5.305388043031815659e-01,4.851070776637974036e-01,4.673866696846105673e-01,4.343391810476764960e-03,1.140616028890487120e-03,-4.070872930577436842e-03,5.738760903477668762e-02
5.134420874840522897e-01,4.862282928065517762e-01,4.887244622255653703e-01,7.624680670628698406e-03,3.531564919019276536e-03,-2.760303021335629853e-03,3.022535704076290131e-02
4.965856325972174967e-01,4.985761410478380951e-01,5.049196343222097649e-01,2.578098791562898583e-03,2.283436808378262999e-03,-3.910552047559712543e-03,1.175959594547748566e-02
5.157615453354740254e-01,5.398516393843991734e-01,4.411876429505875441e-01,-2.208267357569308233e-03,8.799800401660317836e-03,8.668603256939309224e-04,9.048362076282501221e-02
5.145889909034583320e-01,4.994142605044799010e-01,4.871342973083656047e-01,8.132919212921483135e-03,3.264060505625727970e-03,-2.951893543277698574e-03,2.870455570518970490e-02
4.971587995035250396e-01,5.347848178534965191e-01,4.704503211223099446e-01,3.409876750231286002e-03,5.599396054761158689e-03,-1.957191906191488979e-04,5.712311342358589172e-02
5.181858011591484736e-01,4.968787413079682191e-01,4.709174669501102195e-01,1.181211696799542438e-02,3.544501693988981982e-03,-5.067136534083448336e-03,4.705776646733283997e-02
5.285393908263119611e-01,4.869351278742486411e-01,4.547798711293464802e-01,1.033312559174393193e-02,3.864752712597118410e-03,-1.420373127475233442e-02,7.122526317834854126e-02
4.881005290074557079e-01,5.346776477116017556e-01,4.869154809652421756e-01,-7.688807249648792501e-05,1.622914157437145392e-03,1.290115866618329714e-03,4.731744900345802307e-02
5.200294380909891157e-01,5.520119547663107085e-01,4.416351984904338668e-01,5.920740565874125193e-03,8.302524095947389285e-03,2.945333420463210321e-03,1.000688225030899048e-01
5.509196104562655849e-01,4.489694268251062659e-01,5.182833739698819997e-01,7.598665840129611656e-05,5.741602159629029777e-03,6.938265364052190187e-03,9.151517599821090698e-02
5.417383178636705487e-01,4.732994622477797453e-01,4.993109788564059071e-01,1.144454431636971245e-04,5.055170419138748338e-03,4.928986779924745230e-03,6.107262894511222839e-02
5.299811007907339055e-01,4.820236498942220837e-01,4.774766585717441503e-01,5.690844240321191357e-03,4.255706245841294963e-03,-4.384058951985262895e-03,5.241950601339340210e-02
5.099232828126522010e-01,4.995452575123549011e-01,4.923157881184646034e-01,5.293642861246440796e-03,-1.493453987089425443e-03,1.750585935239504579e-03,1.830161362886428833e-02
5.032249888247216640e-01,5.045011340409453204e-01,4.948999721944137287e-01,-4.618334869253708924e-03,2.674217398695577421e-03,2.490218960843001723e-03,1.362363062798976898e-02
3.599874936892435429e-01,5.758675383815591298e-01,5.653299874232566857e-01,6.106490794243038317e-04,-1.159789493002023365e-02,1.067379957502792055e-02,2.125719338655471802e-01
3.749629113785646339e-01,5.599917761911390457e-01,5.627452599754967366e-01,5.887227180505267719e-04,-1.015312412496759652e-02,4.144998090330636632e-03,1.873888373374938965e-01
5.409956183576706268e-01,4.251260869917833363e-01,5.322082523990755432e-01,-1.337932252405696007e-02,1.234774328584250722e-02,1.961782265918673648e-02,1.209701374173164368e-01
3.871088515456401202e-01,5.507248277331990849e-01,5.368627598775419507e-01,1.234554652846592097e-02,-2.095367444072930227e-02,1.907234709919662652e-02,1.660119295120239258e-01
5.036505189037489005e-01,5.107707592311332423e-01,4.928298661557853899e-01,-3.282896360423588535e-03,1.663306862608459301e-03,1.943783932116890109e-03,1.722779311239719391e-02
5.203535000742021133e-01,4.980758477110729943e-01,4.707614697994161879e-01,-8.570454542937535128e-03,8.001507655384605677e-03,1.143367213416559246e-02,5.153141170740127563e-02
4.915058546597837474e-01,4.903089563331083922e-01,5.345725186872635204e-01,-1.086347059802790308e-06,3.092969928305676786e-03,-1.931104554617780415e-03,4.413165897130966187e-02
3.676561641158782034e-01,5.751188296617720797e-01,5.290410391214291908e-01,1.276954424285519979e-03,-2.644354611670063360e-02,2.168713209383706618e-03,1.942196786403656006e-01
5.153520874301100729e-01,4.922206154032054970e-01,4.930026530999370715e-01,-3.146493211209922154e-03,1.910898590549611883e-03,1.749961715861168485e-03,2.382078580558300018e-02
4.891564757717124512e-01,4.853770231692994264e-01,5.329911584120803347e-01,1.004080930741755228e-03,5.719103018771491643e-04,-2.918180066969984824e-04,4.588786512613296509e-02
5.103185746648154497e-01,4.806666646382007912e-01,5.017920165325432391e-01,-2.931794257211644498e-03,1.071761788562844431e-02,3.229881846683964677e-03,3.317821398377418518e-02
5.183181708591017012e-01,5.178073922310971744e-01,4.623068908164753577e-01,-7.076167374864874779e-03,5.670670836979744243e-03,4.724818704433675874e-03,5.850275978446006775e-02
3.785245810176950387e-01,5.475135977546906618e-01,5.665476191878622281e-01,1.077741891754853930e-02,-4.710716383807695903e-03,6.872334969883597822e-03,1.808116137981414795e-01
4.301586770016737615e-01,5.610282873610956678e-01,5.862442941878346359e-01,5.813290086788185096e-02,3.498849957050991638e-02,2.777679735247181626e-03,1.868067085742950439e-01
4.181310174952226899e-01,5.487812870497232876e-01,5.234096355781644450e-01,2.433422500349813333e-02,4.239723971999881380e-02,1.441413437276531937e-03,1.468797922134399414e-01
7.759758009238283405e-01,7.426740554967645735e-01,2.353875808296995165e-01,6.413228804110986114e-02,-1.276526869685426155e-02,-8.322555169387521601e-02,5.558320879936218262e-01
4.965600677575436328e-01,5.070516243624068053e-01,4.961174831971703059e-01,1.865261264183773818e-03,4.381943206392096678e-04,-5.072355393595682702e-04,1.125600095838308334e-02
3.984828887209418413e-01,5.902886815226617845e-01,5.702908736704661585e-01,1.600932475506803773e-02,7.814876298846415437e-02,8.865201830317038720e-03,2.295213192701339722e-01
5.617504626125894296e-01,3.631252081928229014e-01,4.580292480265788502e-01,-1.847582551794976075e-02,-1.700545924761132782e-02,-1.052792616765484413e-01,2.544626295566558838e-01
6.323678651878150703e-01,5.269461361711673675e-01,2.819551590994660573e-01,-3.518493496271283411e-02,-1.606762035427512225e-01,-1.568694672089518405e-01,5.019464492797851562e-01
4.136851604503624658e-01,5.478127580841070099e-01,5.218491325775774792e-01,-2.226019687983656677e-03,4.937132628760861064e-02,1.043825209004052091e-03,1.500419974327087402e-01
4.296361061882992827e-01,5.665980025864320035e-01,5.602913939863232162e-01,1.307161091033700586e-03,2.718025467450689570e-02,1.194036977098850670e-02,1.434702426195144653e-01
5.185806361172042855e-01,5.400095103150623910e-01,4.385940057884718524e-01,7.250518806578138548e-03,8.970456460235413931e-03,-1.040146531221805733e-03,9.472826123237609863e-02
3.749105733051241729e-01,5.577429938826130584e-01,5.566204976001279947e-01,-2.007854151130036326e-03,2.411246120597132503e-02,1.223798318091589427e-02,1.882268786430358887e-01
6.942802706349625597e-01,4.222036657699011486e-01,4.334748886387460587e-01,-8.459377095114882505e-02,-8.300819336559368822e-02,-2.366579424748631311e-01,5.303267240524291992e-01
4.077572723682360567e-01,5.083008500900356719e-01,5.350254792075122001e-01,-3.925849832133099238e-02,-2.666610758833106581e-02,-1.356432141233819381e-02,1.442883014678955078e-01
8.189051169220711301e-01,4.440927897272270997e-01,4.127288327680428415e-01,9.203773872089816843e-02,1.195870412873340782e-01,-2.190866986267689109e-01,6.045961976051330566e-01
5.397174645580216090e-01,4.156124923927966286e-01,4.582847105849490732e-01,-1.972950164154007105e-02,-1.737603590733914280e-02,-5.064375597894144737e-02,1.472923606634140015e-01
5.388992483744320383e-01,4.801336793725204388e-01,4.366520087168669351e-01,-4.292957496405839200e-03,-2.805210099139569639e-03,-9.345019022303073866e-03,9.077531099319458008e-02
2.770820543212517695e-01,4.263867779885779918e-01,6.423480321514173363e-01,-2.054578635175945966e-01,1.334496333614710976e-02,1.125195168693608923e-02,4.782552421092987061e-01
3.665964708283195872e-01,3.861157778337469537e-01,6.218157629315816948e-01,-2.228397704437307114e-01,-1.285393842776395568e-01,-4.726284799862941893e-02,5.155359506607055664e-01
4.619250251089944692e-01,5.960152814326655779e-01,5.589279848085701996e-01,1.749137523689610341e-02,9.128912564797921070e-02,1.485307228747303511e-02,2.023942172527313232e-01
5.417311411749228256e-01,5.298392059748582295e-01,4.242125019152321874e-01,1.209815962479508789e-02,3.785523271916552916e-03,-9.584865850905845489e-03,1.153785958886146545e-01
3.824492489110971061e-01,5.691741790808914070e-01,5.636636854360429494e-01,-6.977434086380948641e-02,-7.817072397486578283e-02,-2.372675475891145372e-02,2.617133259773254395e-01
5.568704034580067574e-01,5.415164109905309386e-01,3.981076171350538817e-01,9.795580426678867497e-03,-5.008270869061617371e-03,7.791435150658748698e-03,1.534566730260848999e-01
3.810129346067015477e-01,5.714550862463028125e-01,6.171116662256820318e-01,-6.951997920793440144e-02,6.023726100175635229e-03,7.450865521000511922e-03,2.486406266689300537e-01
2.739319653963406820e-01,5.573630693497191313e-01,5.438602407701214059e-01,-1.163177567024993864e-01,-1.158738044014425428e-01,-5.174611163441163869e-02,4.069288074970245361e-01
2.660565211644876360e-01,7.591946306744009609e-01,7.493911691330223945e-01,-4.404035898094398743e-02,-2.978687660272122742e-02,5.348484049085956704e-02,5.054791569709777832e-01
5.500360686120527864e-01,5.019376758077150891e-01,4.545380789536110355e-01,9.197613331764506808e-03,1.920946842940927544e-03,1.606631011750059984e-02,8.876518905162811279e-02
3.179034351904593825e-01,5.992186443285935082e-01,5.818450158817347617e-01,-2.948706401190800269e-02,-4.676827111084033012e-02,-5.464468552453383490e-03,2.895038425922393799e-01
3.944947729296149896e-01,5.389929763766959647e-01,5.639516282516217061e-01,-4.625693116045604542e-02,-3.071884581465747499e-02,-1.102618827309687598e-02,1.863435804843902588e-01
5.568992159534220665e-01,5.920469570318124264e-01,4.151355875975006327e-01,3.170975450725917882e-02,-9.190403231080629398e-02,4.787101564741214760e-02,2.480835467576980591e-01
5.376784604212332397e-01,5.790789303570265112e-01,3.046560528581935268e-01,4.761059939286126086e-02,-1.277501181294982135e-01,7.560979165138516367e-02,3.722523152828216553e-01
2.685598773938473460e-01,5.607799681330639663e-01,5.695161644949514601e-01,-2.193718587935625935e-02,2.792403751498806486e-03,1.219463439943229734e-02,2.998917102813720703e-01
3.834825725664985363e-01,5.392081442620944021e-01,5.519668763165836989e-01,-1.855291543603887830e-02,-1.734089961182766829e-02,-4.301870914307320132e-03,1.684944182634353638e-01
3.327863314928322103e-01,5.632158417566197617e-01,5.769618261848651342e-01,-2.647706791636089338e-02,-4.312620477271923713e-02,7.353503533189525466e-03,2.535727322101593018e-01
3.189062252228446748e-01,5.235074990510835136e-01,5.636583148074787442e-01,-6.125218233188049061e-02,1.764370394292405931e-03,8.878512049912965984e-03,2.513761818408966064e-01
3.753622031540060355e-01,5.641740929766945190e-01,5.460478400835312440e-01,1.983578648499184985e-02,3.141342636678022028e-03,1.432838102997339470e-02,1.854236423969268799e-01
5.362872619114456008e-01,5.696972164873435052e-01,3.428973896165248281e-01,-6.035218171546536189e-05,-5.415439646506235716e-02,-2.439189392116743529e-02,2.357117235660552979e-01
5.271971171306568671e-01,3.951776259921177537e-01,5.584277073148298243e-01,-1.123704286876256453e-02,-4.629559336574194835e-03,-4.164494648941509392e-03,1.517322808504104614e-01
3.813869802323101021e-01,5.729952197706289496e-01,5.630899265347479865e-01,6.843935468108446963e-04,2.575195696933519317e-03,8.752467985854264429e-03,1.875233650207519531e-01
5.014161850944368615e-01,5.510872174583492100e-01,4.112038398524562322e-01,4.122901611688742189e-03,-4.915980118759308987e-02,2.883666744704258770e-03,1.497077792882919312e-01
3.804397225974598395e-01,5.458853627783991636e-01,5.593328323134610924e-01,-2.216357051271338960e-02,-8.955188484608827019e-04,6.273365628114039444e-03,1.771216094493865967e-01
5.348594073901535850e-01,4.730718829178653939e-01,5.038695127750744129e-01,-1.600768774181661946e-03,5.975247476335048165e-03,3.696694711298513514e-03,5.494613572955131531e-02
5.347223194101081711e-01,4.852206655407346747e-01,4.901683647581728809e-01,-3.785135390002991184e-04,4.789345683091221799e-04,1.726549803848048854e-03,4.732900857925415039e-02
4.023203555548569010e-01,5.047450449892817437e-01,5.612033383551775501e-01,-2.792063264776184495e-02,9.962685111346654323e-04,-8.038349941687348080e-03,1.483124643564224243e-01
4.974710655842833340e-01,5.058439535100966999e-01,4.953854206222342849e-01,-3.603808021168923830e-03,1.293542378372546575e-03,2.016069883182635206e-03,1.216937601566314697e-02
4.908708723916265781e-01,4.970525505808975342e-01,4.950740000853344203e-01,-5.636612139492599809e-03,9.331068076347964063e-03,6.314315625419923347e-03,2.249509841203689575e-02
5.359361063470597930e-01,4.711224429245949308e-01,4.664972818877045624e-01,-1.018115963851862898e-03,3.496293451273226180e-04,-2.500377016206972204e-03,6.741074472665786743e-02
3.856466353683584702e-01,5.438905714659202362e-01,5.608626547210155966e-01,-2.234578611910929824e-02,1.423393468771140882e-02,1.634862356054636243e-02,1.758481562137603760e-01
3.713057453905478922e-01,5.573741683624590104e-01,5.719423958003495567e-01,-2.367128097158432629e-02,-6.001350372794039692e-04,2.994691075638869580e-03,1.981245875358581543e-01
4.941119482268633289e-01,4.930857992072368301e-01,5.190122450593791514e-01,-1.778479138926137432e-03,1.113440696772315802e-02,1.237752595712597430e-02,3.857009857892990112e-02
5.156538142126263491e-01,4.484562067580162847e-01,5.410137932003483696e-01,8.357409083056486707e-03,-4.748432202100773096e-03,1.258761419254173473e-02,8.726570010185241699e-02
5.220380919300124933e-01,4.477215926603435037e-01,5.386279764423133054e-01,1.526524267074132017e-02,-6.976391886304049439e-03,6.366737163922670494e-03,8.943023532629013062e-02
5.162033988952008379e-01,4.987022624767036283e-01,4.853841276858991693e-01,-6.705601084469750041e-03,3.969257317055322441e-03,4.294400537452517687e-03,3.089062683284282684e-02
5.188254445114549585e-01,4.325926946229953218e-01,5.906488333752517583e-01,-5.477636676561358636e-02,3.013312712410385133e-02,4.853310457267057121e-02,1.938555389642715454e-01
4.996049455514285365e-01,4.392419414802921085e-01,5.759415537582236455e-01,6.820137775080595266e-02,-2.264628343561558496e-02,2.308074796422638145e-02,1.765499562025070190e-01
5.582022435614721889e-01,4.056589530303509883e-01,4.902402083041815795e-01,1.046394435232857051e-01,-4.393527514205482903e-02,1.666746402136772831e-01,3.734991550445556641e-01
5.391303163718941249e-01,4.799389386237390420e-01,4.849334876134023808e-01,-4.936546499610205627e-03,1.328842090049290291e-02,2.085194615308195304e-02,7.169516384601593018e-02
5.117435510770473872e-01,5.141350630486216655e-01,4.750223511142175337e-01,2.592074031595922867e-02,-2.503017923164261097e-02,1.914963617293348117e-02,8.023275434970855713e-02
4.972063042463894522e-01,4.584090183660218809e-01,5.422944983170201461e-01,1.110926534616089346e-02,-3.050505618671631083e-03,7.626828082196650954e-03,7.655157893896102905e-02
5.045672500479848610e-01,4.742893902941334727e-01,5.497128434883739034e-01,3.122024632122065088e-02,-5.640632108023711094e-03,1.637904569004897462e-02,9.025611728429794312e-02
4.878274616357521909e-01,4.917987975248672150e-01,5.260006076093615146e-01,1.429577119102914788e-02,-7.312713500595533107e-03,1.172559395478211738e-02,5.007360130548477173e-02
6.174157475976104203e-01,5.120209058893060439e-01,4.127178662899715911e-01,-1.906137396601446932e-02,-4.667853525473103504e-02,-1.224907212576964999e-01,2.899548113346099854e-01
5.221718555368730641e-01,4.747629443544524319e-01,4.662723228217542926e-01,-2.169483699224754748e-03,-2.157291886640866612e-03,-2.758918233724745681e-03,5.266064032912254333e-02
5.073279546772810900e-01,4.960983754230132714e-01,5.236585034068844680e-01,1.689702666576766224e-02,-9.750748568191509522e-03,1.589050039603103273e-02,4.975398629903793335e-02
5.449801661431834532e-01,5.463699402882692402e-01,4.002988360789858646e-01,8.087415513927260699e-03,6.153816871279018871e-03,-3.914766723523494668e-03,1.465997844934463501e-01
5.709127358113276207e-01,5.637944692856449169e-01,3.616502901598769859e-01,5.057425768027430657e-03,-3.613402063149695042e-03,-3.316867920463650865e-03,2.061571329832077026e-01
5.396149513201324854e-01,5.090978247233745035e-01,4.509929452822481477e-01,1.257013274066095046e-02,2.636948244040109805e-03,-7.584445681646281509e-03,8.214695751667022705e-02
5.045537054169758617e-01,4.835230509050071901e-01,4.665046894760589979e-01,-1.130572413099420470e-02,-2.810825390364889154e-03,-4.286354986853074117e-03,3.939669206738471985e-02
5.462671660324484035e-01,4.854066639078895018e-01,4.557590091403705412e-01,4.711287333832838743e-03,7.153535016942189984e-04,-5.192637927760645165e-03,8.084781467914581299e-02
5.384394930344728047e-01,4.592592403927990286e-01,4.693600890674430870e-01,-4.291777283963524444e-04,1.422385774756655501e-03,-8.356851718349831218e-03,7.607814669609069824e-02
5.233423811372506229e-01,4.798941747685571135e-01,4.525774083210691856e-01,1.819344440298612323e-02,1.833561477436153678e-02,-3.487571167430626035e-02,9.732086956501007080e-02
5.061538217111732907e-01,4.743415665424535188e-01,4.773808160296734715e-01,-5.361095291188897397e-03,-2.024795659760247543e-03,-3.108883311741065907e-03,3.243593871593475342e-02
5.380890182126062404e-01,5.180090791093636682e-01,4.671471575595377290e-01,-2.164764943392475261e-03,4.040446385816708064e-03,6.935604787674460973e-03,6.495217978954315186e-02
5.175924944065224409e-01,5.338642721440953753e-01,4.276863692337830036e-01,-1.396917435105331923e-02,4.564698574978220957e-02,3.048886854799722629e-02,1.394126415252685547e-01
5.222543925657583408e-01,5.502042012172145835e-01,3.392096370828183161e-01,-1.420502430575921668e-02,-6.009420688215878770e-02,-3.026889750748066807e-02,2.314963191747665405e-01
5.389592186862808276e-01,4.658913735762532093e-01,4.684558347115154175e-01,-1.121990863809240482e-04,2.054629369586055861e-03,-2.768992653656441108e-03,7.206810265779495239e-02
5.301557203257361017e-01,4.924147290967439416e-01,4.752189768526676739e-01,8.101750226929615301e-03,2.503223046695617592e-03,-3.817303286308380405e-03,5.126880109310150146e-02
5.324094343614088620e-01,5.625271760449926939e-01,4.043021090916046889e-01,1.140449254096828971e-02,-1.007050315874054476e-02,6.722589025984505515e-03,1.483471691608428955e-01
6.396271742387427128e-01,5.533386987107622446e-01,2.675286452245134727e-01,-2.935163961383352449e-02,-3.078931975423184527e-03,-2.026416500796484887e-01,4.894886314868927002e-01
7.259409337240267934e-01,6.431939301949356480e-01,4.216596981196499838e-01,1.180369594057767979e-01,-4.819550393816850187e-02,2.079636025051430637e-01,5.027613043785095215e-01
5.407726440122260225e-01,4.475570311381337762e-01,5.159219828186905055e-01,-2.063773661313143598e-04,1.079097218884652980e-02,6.990326093223424471e-03,8.652336895465850830e-02
5.629779209781996530e-01,5.074143277057093782e-01,4.035805428187945187e-01,-1.085103210685930747e-03,-4.723510638112239472e-03,-2.391565488986736529e-02,1.463710665702819824e-01
5.561999583465460084e-01,5.359018864390520109e-01,3.366478881719563998e-01,-3.765843815252757285e-03,-1.871263366811907677e-02,-5.115530557522011967e-02,2.304392904043197632e-01
5.512511195301812439e-01,5.489197153637440652e-01,3.661480772511590542e-01,-5.602842795145382285e-04,-1.007146284038696812e-02,-1.325324041607036339e-02,1.861966997385025024e-01
5.641319579812822393e-01,5.320144576090836130e-01,3.946284709258544021e-01,-3.455825192554599315e-05,-5.558553141109676826e-03,-1.157709019262298869e-02,1.575237214565277100e-01
5.461409668451204791e-01,5.600093663753222817e-01,4.000803382027914856e-01,7.331991845288286791e-03,7.941190672633616221e-03,1.628668275684258407e-03,1.546288728713989258e-01
4.887286527393032709e-01,4.782718534284826628e-01,5.418839276993993037e-01,8.644598276975459794e-03,5.464198018899327387e-03,2.654076909741586430e-04,6.168170645833015442e-02
5.003236116133620293e-01,4.853541680575761408e-01,4.770751425057348505e-01,-4.910271473310754212e-03,-6.047095801751663051e-04,-9.540468504053915659e-04,2.219727076590061188e-02
5.453683565835717451e-01,5.758176138058785920e-01,3.469265571051866059e-01,-3.035474073034053269e-02,-5.927418271174170888e-02,-4.864194860874677950e-02,2.583628296852111816e-01
5.506086114839063850e-01,5.547243975731727117e-01,3.723724872688191079e-01,-2.543309170644287871e-03,-1.818458924449127892e-02,-9.735800349807578052e-03,1.838870197534561157e-01
5.327038821832474902e-01,4.653085793873761311e-01,4.954553614721962096e-01,5.193005178132355758e-03,-6.249160100879732650e-03,1.141339896223874349e-02,6.330922991037368774e-02
5.419738482098829246e-01,4.758515933866974690e-01,4.996118465228105432e-01,1.202547399204179036e-03,3.994026870255881594e-03,3.865139655150512041e-03,5.884414911270141602e-02
5.068953803187463691e-01,4.818158852936528236e-01,5.066433181883135406e-01,-1.941243133039305098e-03,9.106101709135274933e-03,3.980455563832998450e-03,3.050120733678340912e-02
5.313794120206485339e-01,4.876670323791515438e-01,4.908245871571572105e-01,-4.804821141456396211e-04,2.167237600583031467e-03,7.874941479347693802e-04,4.241888597607612610e-02
6.161881135270408372e-01,5.187343701470151780e-01,4.902918690938990465e-01,2.861626991909498041e-02,7.546873025943176376e-03,7.905487908066206881e-02,1.856194883584976196e-01
5.464413631372077029e-01,4.215051020945387306e-01,4.778812936157107449e-01,1.290497957215086533e-02,-2.154932538864229037e-04,6.566049933209737455e-02,1.586744189262390137e-01
5.422167843696119593e-01,4.398600184884514652e-01,5.164879884263857690e-01,4.666857747010639927e-03,3.718177727170667024e-03,7.822412978048223081e-03,9.378563612699508667e-02
5.504749306040804813e-01,5.184568555415350888e-01,4.421391683134362482e-01,3.604543726975926489e-03,9.419133901349863343e-04,9.589075140586853646e-03,9.803357720375061035e-02
5.361700918479683775e-01,4.904533456445308581e-01,4.862549207941344043e-01,2.926955214667791537e-03,-4.411747596961798396e-04,1.901532076272518948e-03,4.833961650729179382e-02
5.263860600533752931e-01,4.898701897605182154e-01,4.908292122324435791e-01,-1.936955791388643607e-03,1.715580969855620480e-03,1.504142084184011520e-03,3.641677275300025940e-02
5.297892572253647403e-01,5.002691565478275537e-01,4.841405646400020468e-01,-1.781412646108228564e-03,3.008905357623916678e-03,4.198800205949780595e-03,4.119776934385299683e-02
5.343070745743150329e-01,4.786590335823078246e-01,4.925196791397078999e-01,-2.330162335990152572e-03,4.492836877360659870e-03,7.288530762813555039e-03,5.247588083148002625e-02
5.314629969313968694e-01,4.340636394771849038e-01,4.816274444170650093e-01,-9.079165598767697035e-03,-1.722871739122441848e-02,-1.328005289949975992e-02,9.371832758188247681e-02
5.473426795207996243e-01,4.263469261980751268e-01,4.994470169454680586e-01,-1.004945023007291962e-03,-2.984803814655216832e-03,-9.864110243952978196e-03,1.070535108447074890e-01
5.315265109131409593e-01,4.889817677841111765e-01,4.853511356815564670e-01,-4.000454718581337304e-03,1.932395227815483655e-03,4.271424577958989055e-03,4.573455452919006348e-02
5.780439076636777473e-01,4.093187997946973744e-01,4.531427807823951714e-01,-1.656751649695181183e-01,-1.446798032819537616e-01,-2.169616265091051099e-01,5.561951398849487305e-01
5.702407854845035207e-01,3.733585178479749134e-01,5.106437314382618053e-01,-1.310561228285101777e-02,-7.388862297341245756e-03,-6.797470138821058716e-02,2.124183773994445801e-01
5.322200494835501727e-01,3.833984003501228477e-01,5.495007104450637669e-01,-1.898925763394747335e-02,-1.029537347003399265e-02,-1.934828936188394757e-02,1.659550219774246216e-01
5.298256541602930358e-01,4.140838925914767654e-01,5.440215177208768127e-01,-7.560169582409427373e-03,1.259790560123784722e-02,3.289551434903763977e-03,1.261775940656661987e-01
5.593088618302279880e-01,5.009886134102299327e-01,3.837178439779269090e-01,-6.188074415297596664e-03,-9.803485397317578814e-03,-6.504338613862603591e-02,1.925826370716094971e-01
5.378148547890171383e-01,4.818943674950530998e-01,4.545028807154367634e-01,-1.219440821644828150e-04,-1.110568878641774067e-03,-5.782919860283822558e-03,7.425099611282348633e-02
5.350155223859935916e-01,4.714149963047745140e-01,4.749721597241804427e-01,2.157730225499681059e-03,2.723725426526483594e-03,-2.161598763314659995e-03,6.230315938591957092e-02
5.387017282488155701e-01,4.844093405481627035e-01,4.953318409281399770e-01,-7.418320384951529456e-02,-7.648902895351440689e-02,-1.066143889208263779e-01,2.657724618911743164e-01
5.361666521709919087e-01,4.563125873577114078e-01,4.566537339605521995e-01,-6.130682813716233429e-03,-1.063869945208315015e-02,-2.558686985344467077e-02,9.362644702196121216e-02
5.601853232178549691e-01,3.863969629555714103e-01,5.285983095156139289e-01,-4.440009097868146716e-03,-8.949218262206063822e-04,-1.146925206115331428e-02,1.617617160081863403e-01
5.614079476707152239e-01,5.527179322474784495e-01,3.603953854688707881e-01,4.832801075180337934e-03,-1.710966270358920760e-03,-5.371018045852213492e-03,1.972312331199645996e-01
5.655676849926988270e-01,3.401155097279380257e-01,6.033820001911454067e-01,-8.954867454247106284e-02,-1.577314368968405281e-02,-4.679349385670839717e-02,3.035722076892852783e-01
5.535029314900257180e-01,4.644111717746597368e-01,4.732167622281656105e-01,1.614077965180992207e-03,9.174220973314737041e-04,-5.544621198484757374e-02,1.283104121685028076e-01
5.447398056620634810e-01,4.989740648088098474e-01,4.263434889563260111e-01,3.333763936436370291e-03,-1.515919837230814745e-03,-1.387043584845665603e-02,1.063536480069160461e-01
5.238503772159264216e-01,4.843616095911983388e-01,4.566714911963934975e-01,-8.042641066047642728e-03,-2.715464250488287996e-03,-4.066409207999466605e-03,6.070695817470550537e-02
5.605467497023598478e-01,4.082440380876122266e-01,5.110513414186405035e-01,-6.079149076496805255e-03,-2.567982218699834621e-03,-2.354692362527534971e-02,1.410732120275497437e-01
5.475734313675935105e-01,4.098499482795964211e-01,5.115037431512788890e-01,-2.235723692400234160e-03,-7.363396106070992618e-03,-1.859633549153366303e-02,1.285156160593032837e-01
5.938552163605741452e-01,3.305580447129752297e-01,5.434683683939537380e-01,-6.083277094327468881e-02,-3.422439572755901077e-02,-1.256076324854387694e-01,3.471961319446563721e-01
7.578395468698367887e-01,2.371658292784446509e-01,7.618632870804891155e-01,-9.764468117253678747e-02,3.976169824163044986e-02,-8.322700307431162015e-02,5.721354484558105469e-01
5.115374056836908823e-01,3.895173224366845766e-01,5.511812919571750236e-01,-6.794061831572784094e-02,9.166762350431850379e-03,1.082593749495657474e-02,1.890750229358673096e-01
5.170330231302339152e-01,4.233306678656278965e-01,5.522519792465974131e-01,-4.405666638956520775e-02,7.457446986249043758e-03,5.059325018939136651e-03,1.392379403114318848e-01
5.495634002112089744e-01,5.295158608026422353e-01,3.637389438007521125e-01,-2.870403986798298127e-03,-9.100710511262636096e-03,-9.420873044350507389e-03,1.781761944293975830e-01
5.153427739450608946e-01,4.129421274577928513e-01,5.535285037928266982e-01,-1.770502892890585267e-02,1.306583134067769089e-02,1.132024519574391895e-02,1.330085843801498413e-01
5.205930284215670723e-01,4.090201345915505105e-01,5.540474964734329877e-01,-2.247284208409829065e-02,7.049787464818170132e-03,-1.341364375246937256e-04,1.377118825912475586e-01
5.750258336663937042e-01,3.498846045340352484e-01,6.343598659734364098e-01,-6.055685301759437117e-02,1.929202740642323860e-02,1.487128349774709257e-02,2.834590673446655273e-01
5.371120197608061364e-01,3.696156864543690412e-01,5.914108782675089326e-01,-4.764248277383829888e-02,1.323907622134693277e-02,6.411141671289762034e-03,2.180752009153366089e-01
5.585400656710840517e-01,5.518730500347730494e-01,3.599629505266789264e-01,3.280276374328010367e-03,-8.326187429289966723e-04,-5.189712434187763838e-03,1.956235170364379883e-01
4.871426201035982673e-01,4.917843353631207171e-01,5.118222593969806722e-01,-3.295702298850965422e-03,3.223941139650721675e-03,5.762738199966813829e-03,2.606660872697830200e-02
7.121639545620871425e-01,5.657395121166534091e-01,3.442968824130073768e-01,-1.795610882875920897e-02,-6.814636996642881028e-02,-2.129672845968497152e-01,5.038509964942932129e-01
5.966015790180558831e-01,6.028466769262906810e-01,4.017290603541578964e-01,2.818054188787671652e-02,-3.344101045326580701e-02,2.500427158011366835e-01,4.822164475917816162e-01
4.985691049556810195e-01,4.976261299326134591e-01,5.025437564318407935e-01,-7.054464302800712112e-04,2.353562947765694500e-03,1.077474927071153275e-03,6.482950877398252487e-03
4.972965383446766308e-01,4.996339041629329625e-01,5.105111926238776743e-01,-4.762876982613005808e-03,5.036354295354456868e-03,6.964955046890232253e-03,2.094956487417221069e-02
4.958365017252361895e-01,4.914217563428929791e-01,5.061313827489134498e-01,-3.598109000637346455e-03,4.408347435120234942e-03,1.710801334747672365e-03,1.663863286375999451e-02
5.428930758864625172e-01,4.474441953247841885e-01,4.793861017223471355e-01,4.664632467739108015e-03,-8.052172662891875308e-04,-2.130488703708678655e-02,9.225438535213470459e-02
5.656179261574670880e-01,4.733599478775675773e-01,4.230703659385038895e-01,1.917059602794840556e-03,-3.728969644465646052e-04,-4.406881768902136398e-02,1.466895192861557007e-01
5.349737169391972635e-01,6.029132817694919932e-01,3.978400069214449997e-01,1.582118343484552325e-02,4.416302735262863516e-02,2.245407071472626040e-02,2.021208703517913818e-01
5.511501450189962847e-01,4.113746442674351966e-01,5.080982959567965640e-01,2.797917835967885652e-03,4.022143362126601868e-03,-2.719351522962559081e-02,1.329042464494705200e-01
5.182004996957431109e-01,4.852944419427812628e-01,4.699836737412179111e-01,-1.207303434730434138e-02,-1.127975866744366194e-02,-1.736061318071406914e-02,5.953311175107955933e-02
7.410022897125915220e-01,3.406741243347947146e-01,4.181910380422461104e-01,8.633717203539308105e-02,-6.932893711552005553e-03,-2.115032313573116107e-01,5.403208732604980469e-01
5.358107038657338173e-01,4.886555322002998358e-01,4.872508773394939596e-01,7.400057708249131358e-05,1.155007806617101883e-03,2.049923549238664034e-03,4.804627969861030579e-02
5.935885086267927990e-01,5.532311595280163807e-01,4.168289214105831419e-01,3.964765313281765069e-02,2.023600102007758542e-03,4.726454094346468210e-02,1.927926987409591675e-01
5.115892452943874291e-01,5.415590452575397284e-01,4.448369842526432860e-01,1.054910576045541871e-02,-1.675654341448808149e-02,1.431977855334080028e-02,9.563456475734710693e-02
5.594798417024852144e-01,3.662819270827910034e-01,5.238516281472241909e-01,2.198924057862130035e-02,1.470110392553381461e-02,-6.099387990954539124e-02,2.120641767978668213e-01
5.476418688900700493e-01,5.191595486266753490e-01,4.400752819442166897e-01,1.036572175881650057e-02,-1.847130185426099601e-03,8.562939045040074415e-03,9.935098886489868164e-02
5.531013665955850644e-01,5.065646773032024264e-01,4.293713395149324485e-01,3.344976469714076167e-03,2.058579170753942287e-03,-4.354999526873718635e-02,1.321093589067459106e-01
4.439481197078001817e-01,5.391072451553425848e-01,5.180165759188879449e-01,-4.537008627330923463e-04,8.193714214824284608e-03,5.421682906020899514e-03,8.822311460971832275e-02
5.186504112845699010e-01,4.300453088877511099e-01,5.410760221485948485e-01,-9.756205452671641923e-03,1.422818578679297535e-02,3.487098369417115495e-03,1.061609610915184021e-01
6.330391861310120660e-01,3.992330193394696969e-01,5.288056608277633686e-01,2.539273849170464725e-02,1.719795551757132349e-02,-1.113726664606351918e-01,2.849435210227966309e-01
5.425447904052725923e-01,4.986220143843855812e-01,4.740337023452556031e-01,1.098822642216646999e-03,4.013659899676529281e-04,5.056196825702438495e-03,6.078308448195457458e-02
5.367168014845543622e-01,4.809959838985117808e-01,4.873988233761867850e-01,2.926378119868811045e-04,-2.363625975643554990e-04,5.734502017752738344e-03,5.374116078019142151e-02
6.099801026305058382e-01,6.154136430605902097e-01,8.567391937577673033e-02,2.570152080482747403e-02,-4.280752948614945791e-02,-3.846637978515064955e-03,5.341337919235229492e-01
5.444952993645584272e-01,4.786275871438897545e-01,5.000872311473355536e-01,2.500911023814196901e-03,-9.646462227451986894e-04,5.432165263026154760e-03,5.912406370043754578e-02
5.326139471070399090e-01,4.810645045513551321e-01,4.991320398291773652e-01,3.231266863114094952e-03,-3.259452067219532814e-03,4.306891805435113761e-03,4.659670218825340271e-02
5.760325894648347100e-01,5.635010856399945700e-01,4.022959220996213947e-01,1.195808943660521019e-02,1.370130971782580406e-02,6.556887408330337383e-03,1.711298674345016479e-01
4.769335719930616335e-01,4.063011630868673119e-01,5.508823222297614119e-01,-9.206090498091400176e-02,-7.129642991091056370e-02,-8.194674694395290282e-02,2.765890657901763916e-01
5.600577116491531893e-01,5.608236176393734951e-01,3.896614204678842119e-01,6.305012513642031281e-03,-9.903817440597424519e-04,1.181417997455046004e-03,1.711501628160476685e-01
5.309057161777843703e-01,5.462451354523187863e-01,3.677256140347134883e-01,1.517039186738627227e-02,4.954373029900963760e-02,-1.626140549515937492e-02,1.954829841852188110e-01
5.384999177305113127e-01,4.617393746965207657e-01,4.704670254095499882e-01,-1.431511727147267965e-04,1.323739768125299686e-03,-9.275555924265026925e-03,7.457774132490158081e-02
7.759438653600755353e-01,2.897057355416335911e-01,7.616751865784056053e-01,6.540097133870548252e-02,6.858416255516466831e-02,1.288948403646269780e-01,5.536045432090759277e-01
5.912961121069622017e-01,5.824521024702887795e-01,4.124258184909612157e-01,3.803060280742633081e-02,-4.461729962907183544e-02,6.123665050685851707e-02,2.281485050916671753e-01
4.934418376588171617e-01,4.710333588539348804e-01,4.920598118446962155e-01,-3.169329260400062433e-03,-6.260329892103079150e-03,-3.357685803736888252e-03,2.558538876473903656e-02
5.799725069611727513e-01,6.272991052062335537e-01,3.193138943636667504e-01,1.194010992310976134e-02,-5.135584148977295760e-02,1.831702994778101543e-02,3.030928969383239746e-01
5.385967087303750178e-01,4.712607017752209471e-01,4.763214054978514023e-01,1.959975706996793226e-03,1.213328203242509690e-03,-3.456142174393082162e-03,6.535102427005767822e-02
5.296950193518659145e-01,4.648429868243926233e-01,4.696885591382011782e-01,-3.814224230119800559e-03,-3.653835006374973274e-03,-3.162657490373081692e-03,6.347223371267318726e-02
5.589042981504716012e-01,5.653643071459301117e-01,3.907490638093308877e-01,1.010582089400898290e-02,-1.836373843436636330e-02,1.579932667891187706e-02,1.774010062217712402e-01
5.487253659298625408e-01,5.499916879000983361e-01,3.802384788580209785e-01,-6.236025531779284745e-03,-2.297934352021821502e-02,-1.065750870735267773e-02,1.750552952289581299e-01
5.507123973889758162e-01,5.009510466348303659e-01,4.402158746935469491e-01,-1.845732795739219194e-03,1.419580847472089505e-04,-9.107418720038487972e-03,9.719225019216537476e-02
4.416176862221307675e-01,5.016077044864530876e-01,5.112285527830084941e-01,-7.089478117739793361e-03,-1.328450448395233387e-02,-1.634594367850596836e-02,7.583075761795043945e-02
5.681654994628214661e-01,5.567417922256692187e-01,3.737400404758268180e-01,1.789100151414774534e-02,-6.668770938930837500e-02,3.440364066798690112e-02,2.314379960298538208e-01
6.205249579794376302e-01,5.710917486385194142e-01,3.588852954988684951e-01,2.171099312269145556e-02,1.861503078741837472e-02,2.936759169835832448e-02,2.510105371475219727e-01
5.381310454876278015e-01,6.169767064642929233e-01,4.275028908715433618e-01,5.189110909429123231e-02,-8.846632845472943152e-02,6.673159447358864571e-02,2.685033082962036133e-01
5.125101702947860716e-01,4.313667468541327321e-01,3.236548482181900166e-01,-9.435807687700133173e-02,-1.293949628460463463e-01,-1.919575052666560311e-01,4.630429446697235107e-01
5.379788185685329127e-01,4.716657910312046509e-01,4.666755678458103795e-01,3.347930388618658920e-05,-1.934690579860205185e-03,-4.773060782010619431e-03,6.951845437288284302e-02
4.929781464090129961e-01,4.752943964422358669e-01,4.828380595718537172e-01,-2.985405930337370079e-03,-6.564240805479819828e-03,-4.470140083344940375e-03,2.126437798142433167e-02
5.486247922093691054e-01,4.992708059216407479e-01,5.114506946014686362e-01,4.882872654744024182e-02,-2.573651504998315451e-02,6.622448348149674591e-02,1.558201611042022705e-01
5.287013591124780643e-01,5.298681649755005996e-01,4.185833239639088488e-01,-9.619132507595554854e-03,-7.648355175265692495e-03,-7.201114535994485553e-03,1.134216561913490295e-01
5.007026886684983191e-01,4.546339540959390968e-01,4.999966672948962243e-01,-6.199605718658583557e-03,-1.599815782099564890e-02,-7.089518011309932539e-03,5.589466542005538940e-02
5.091428948212027850e-01,5.460069661860157408e-01,4.384487293694269150e-01,2.626124151259182082e-02,-2.913184360137252918e-02,3.431128141660414604e-02,1.308030635118484497e-01
5.362930470374702718e-01,5.397455151377857918e-01,4.434012682151500240e-01,2.985603768618720968e-02,-7.703924644258353105e-02,5.738542500796279394e-02,1.982928514480590820e-01
3.857755743868947484e-01,5.569526472481928225e-01,5.295606953350407986e-01,-1.770982900779812441e-03,-1.331146131030148602e-02,2.748740900604677590e-03,1.610176861286163330e-01
4.813911738097366722e-01,5.076269532444976917e-01,4.439615064188394689e-01,5.304372120473731245e-02,-6.569758394099708965e-02,5.638884321998969412e-02,1.843904107809066772e-01
5.356027459899102006e-01,4.994536983650530448e-01,5.030769271742432380e-01,9.220398075564840285e-03,-5.501591410399709996e-03,2.164210473442947785e-02,5.422081798315048218e-02
6.079132104019033811e-01,2.068194944924766077e-01,5.569063295598242203e-01,-5.893987007277612378e-02,-1.937463966367289347e-02,-1.316207271519589661e-01,4.544658660888671875e-01
5.543117111746662662e-01,5.061556016284050052e-01,4.343596536000203789e-01,1.872279034502058112e-02,-3.894749691199442254e-02,7.152398121648878559e-02,1.785510331392288208e-01
4.144900409713292433e-01,5.253459959159850756e-01,5.302387250641610317e-01,-9.253051499999869617e-03,-9.817694697100145043e-03,-1.021721054589312151e-02,1.171091869473457336e-01
5.165540077120321927e-01,4.865174644619446598e-01,4.939650788889361488e-01,2.236676202613449224e-02,-1.702742655700974564e-02,2.876148772856551572e-02,7.474119216203689575e-02
5.278982533771567898e-01,5.469863964442474025e-01,3.950212415999126425e-01,-5.957044116577275492e-03,-1.496157059553859109e-02,-1.027674452272314513e-02,1.471457481384277344e-01
4.623415335916828406e-01,5.604700921826913929e-01,4.647121087739505274e-01,2.224854627528730783e-02,-4.296280004700762933e-02,9.648577853015980962e-03,1.292435526847839355e-01
5.240859324226988525e-01,4.930230758635388288e-01,4.805356660952760928e-01,7.750648330085664270e-03,-9.452989453710536338e-03,1.394317948542907193e-02,5.040101706981658936e-02
5.237187176073213601e-01,5.237158473537564252e-01,4.476595203301295678e-01,-1.330963954268389766e-02,9.010032612792932133e-03,1.680712166796210008e-02,8.606510609388351440e-02
4.802498916563245901e-01,5.195132567262280565e-01,4.998582864630168321e-01,1.833731105424512772e-03,-2.480073810671934702e-03,6.078415764059226685e-03,3.599431738257408142e-02
4.799841867699862763e-01,5.397979511669357411e-01,4.409941591554301099e-01,7.708562703775356101e-03,-1.804282321432036651e-02,8.767683048498299200e-03,9.389122575521469116e-02
5.456901076519844462e-01,5.617703203999089290e-01,3.847268380636557628e-01,1.215061173145628136e-02,-1.508030088722450007e-02,5.603948315337957224e-03,1.731341779232025146e-01
6.431472236903248429e-01,7.581917972956647711e-01,2.851969302591857436e-01,9.380721278729903245e-02,1.628821939192100221e-01,1.050761726713440453e-01,5.671491026878356934e-01
5.669116800233142683e-01,5.568602117711329846e-01,3.996404945930737695e-01,7.037093989455025633e-04,1.847092974457631778e-02,1.504394693087449976e-02,1.676404923200607300e-01
5.422821496708088995e-01,5.015420362068490068e-01,4.763824302038785485e-01,7.559105948539758882e-03,-1.492080352636127776e-03,4.197101566758430075e-03,5.957108363509178162e-02
5.440475059513385503e-01,4.917641596941961790e-01,5.138022162727506892e-01,6.818553510900740577e-02,-4.625283874763781722e-02,8.068334646312408376e-02,2.048467397689819336e-01
5.692018077716843871e-01,5.615165634150377505e-01,3.953263219469962952e-01,3.903983125178347047e-03,1.245428501199055508e-02,2.949248492516059854e-03,1.717341393232345581e-01
6.171173371865965596e-01,6.002362665030824829e-01,2.105380306124126633e-01,-5.676801188071983750e-02,-1.423213211778831810e-01,-1.015944201012321524e-01,5.100258588790893555e-01
5.278091921260255059e-01,4.974767283596260303e-01,4.835822047507567500e-01,7.625516131338800664e-03,-2.086630911242249534e-03,7.009282977119375355e-03,4.323735833168029785e-02
5.684344061031419981e-01,5.700067037574347850e-01,3.837836143171531877e-01,1.703508903934898913e-02,1.271084047505301011e-02,2.671233643872623041e-03,1.891174167394638062e-01
6.552329482651454429e-01,6.223739124457796645e-01,1.721269506193898180e-01,1.282616339355467129e-02,-1.118222962019282118e-01,9.752220447327558661e-02,5.339800119400024414e-01
4.832363528180630419e-01,4.702880914742313956e-01,5.044472520377711877e-01,-4.681286800365718793e-03,-1.258031925743929684e-02,-4.482393669790450848e-03,3.863956779241561890e-02
4.818127609270579925e-01,4.881443455522094799e-01,4.840714565851712003e-01,-2.110888093453700941e-03,-2.812894045954456631e-03,-3.182578528346439225e-03,9.918700903654098511e-03
4.889909025410359988e-01,4.874931450987077253e-01,4.818364854943551490e-01,-2.760570551415677393e-03,-5.635255044293194368e-04,-4.843173780637631347e-04,8.199512027204036713e-03
4.858378047680720901e-01,4.851670508686086181e-01,4.849148427470437728e-01,-2.185797441966846975e-03,-6.286387863908803053e-04,-9.859892006251363451e-04,4.372402559965848923e-03
4.884229479522044781e-01,4.750863003125818107e-01,4.965442598844161948e-01,-3.522166137579529552e-03,-9.145581403943494822e-03,-3.841905920004453322e-03,2.616401389241218567e-02
5.286032813376591033e-01,5.497914235158396501e-01,3.954214165878504605e-01,-4.506252388287688114e-03,-1.486893115806050582e-02,-9.745097477638582639e-03,1.483822762966156006e-01
5.174202796085987099e-01,3.990392665087396096e-01,5.778685304972425163e-01,5.108411467095588798e-02,2.807811589010520206e-02,-4.483912805030260129e-02,2.026068270206451416e-01
5.257832615247124419e-01,5.024049088305261312e-01,4.424038272286785478e-01,-1.062160344255134135e-02,-5.906739190729805473e-03,-7.164897322466300990e-03,7.839983701705932617e-02
4.893981620490225337e-01,4.841543568648793983e-01,4.865371885678640429e-01,6.803121173556148375e-05,-2.229655071244977891e-03,-1.571025648364975840e-03,6.558400113135576248e-03
4.949149104959554846e-01,4.857236033640636164e-01,4.815797122460054869e-01,-1.250804555227403442e-03,-1.638835650735096612e-03,-1.426006279559240619e-03,1.259329542517662048e-02
4.934611114709429591e-01,4.804450003225773647e-01,4.809130352964848254e-01,-3.967389855144364159e-03,-1.603885372377408846e-03,-1.214226870504303080e-03,1.493007503449916840e-02
4.262554474898659351e-01,5.446726683896585541e-01,5.129395846503446155e-01,-3.288542449675598001e-02,-4.951883280323372827e-02,-2.129192336925692791e-02,1.524225026369094849e-01
5.183183084788738348e-01,5.605863054481449170e-01,4.207381352392909335e-01,-9.954385905239514915e-03,-4.413004347331137001e-02,-1.494101367177211141e-02,1.491386741399765015e-01
5.306377878214217914e-01,5.620321946796584811e-01,3.871327255395218270e-01,6.617062486484143712e-03,-1.421450777080663676e-02,-1.488895961349949578e-03,1.637947857379913330e-01
5.060475931268252348e-01,5.075973705724088347e-01,4.587174527224923692e-01,-1.113817896102820004e-02,-5.334895146155192204e-03,-5.915314087552041647e-03,5.365098640322685242e-02
4.221297128032828749e-01,5.113902855156067240e-01,5.270135245266908131e-01,-1.503470161873935937e-02,-7.696511343364289756e-03,-1.467813067643675487e-02,1.053956970572471619e-01
4.999199343057435518e-01,4.308127203333891320e-01,5.515525860351520038e-01,-9.968113557934490943e-03,-3.423156704236686443e-03,-2.393570526198020732e-03,1.065849810838699341e-01
4.890028491887908890e-01,4.488694354476313042e-01,5.111802677939826234e-01,-7.198245207522620433e-03,-1.735792095071905447e-02,-1.002652306677588069e-02,6.598116457462310791e-02
4.618913269262233112e-01,4.957401763858025889e-01,4.874485829532190229e-01,-6.755793692226138777e-03,-8.668013764450598763e-03,-1.384208581576991393e-02,4.325471073389053345e-02
4.813423759270732960e-01,4.756752895269389936e-01,4.774572934968850380e-01,-1.182600261635497439e-02,-8.186020624609614479e-03,-1.030515292942809497e-02,3.105442039668560028e-02
4.881400488585006525e-01,4.978605245809992752e-01,4.851948738811434625e-01,-6.522501714406684845e-03,-3.878768489406349967e-03,-6.057013193908090086e-03,2.036212384700775146e-02
5.303489215779969568e-01,5.435572166721927001e-01,4.105800391986390019e-01,1.159913100789146216e-02,-9.974707180552804670e-03,3.320478465281633072e-03,1.297542601823806763e-01
3.718851551076186590e-01,5.187680116551031118e-01,4.488908210492630335e-01,-1.020904790089677272e-01,-1.835372970526561454e-01,-1.041608050427355464e-01,4.255200028419494629e-01
4.474806916355315578e-01,5.582249208253773354e-01,4.627675253660440413e-01,-7.719410509592199154e-02,-1.312717376590029073e-01,-7.839153332883706804e-02,3.143474757671356201e-01
3.831671324507984755e-01,5.742105545127598187e-01,5.829962648505613299e-01,-9.220455972016272650e-02,-8.507087483405484374e-02,-2.812775990910074478e-02,2.963831126689910889e-01
4.119305852682294544e-01,5.024427512622736680e-01,5.128628826945190733e-01,-5.255469340539838108e-02,-4.594989823721398053e-02,-3.136043419163811463e-02,1.637521833181381226e-01
4.603312521011686531e-01,5.347833989471476590e-01,4.678085105734270388e-01,-2.582401130731137948e-03,-6.123066089781140781e-03,-4.959008954465446775e-03,7.244715839624404907e-02
4.246882028104504991e-01,5.219758444100408568e-01,5.171456266716907280e-01,-9.971824809223416020e-02,-6.085205274124136365e-02,-4.902934755138594475e-02,2.391025573015213013e-01
3.209775135932364520e-01,6.849872913471937164e-01,5.455623990124003342e-01,-8.386725869285734103e-02,-2.143914868809636554e-01,-3.965573256509738465e-02,5.146847367286682129e-01
5.484318103933020216e-01,4.220480921689507281e-01,5.274636787205907451e-01,-8.107375132370303952e-03,8.339836364664749563e-03,2.355825236904762754e-02,1.258304268121719360e-01
5.168746683462785985e-01,4.794151644783399280e-01,5.141982638094307889e-01,4.460865303937133763e-03,-7.860574011537420705e-03,4.962813271300298146e-03,4.036177694797515869e-02
5.603858490352633392e-01,3.307303462457369392e-01,5.622488051699235934e-01,3.326660038251843914e-03,1.298837290539734887e-02,2.365602158649622241e-02,2.353530824184417725e-01
5.297350801781358642e-01,4.746367147416960530e-01,4.802114051114155235e-01,6.863348292770339240e-03,6.822845176589435907e-03,-9.658086540777190143e-03,5.762427300214767456e-02
5.866191701699933203e-01,4.450483753300488177e-01,4.671441577169693216e-01,-1.063229578207368353e-02,1.226749094198453099e-02,6.015595652112327996e-02,1.704383343458175659e-01
5.283166032587884864e-01,4.997605296727318791e-01,4.545489976668755094e-01,9.342848886909957754e-03,-5.803572884264228578e-03,1.583061415640376474e-02,7.256260514259338379e-02
5.426639978602900705e-01,4.565571190511349409e-01,5.038220916614447598e-01,1.634930095951904559e-03,-9.838298773053802003e-05,1.263751350250411250e-02,7.788261026144027710e-02
5.270269887792539132e-01,5.034177366208902882e-01,4.678257775497079995e-01,9.672739255259209246e-03,-2.070376090978343422e-03,4.715913714964831659e-03,5.499771237373352051e-02
5.487919378741044074e-01,4.514389853821760834e-01,4.952785347823473461e-01,-4.116969478549146327e-03,4.236257910297695946e-03,1.799662769838244678e-02,9.059754759073257446e-02
5.508406816495667879e-01,4.493431439598386534e-01,5.170921173858644693e-01,-3.851245364636995180e-03,7.614167866347405084e-03,9.310338165985133224e-03,9.216175973415374756e-02
5.082834202926419520e-01,4.865972972776797523e-01,4.966046564805959296e-01,3.597698335355947307e-03,5.698928099708751478e-03,-3.627062405335074440e-03,2.300314605236053467e-02
4.565887535418385323e-01,4.775893110276308029e-01,5.599692657824910658e-01,1.020644123093364386e-01,-4.494488830756107611e-02,5.845557504885787875e-02,2.377398312091827393e-01
5.278373352395082652e-01,4.942879026234482942e-01,4.870293835471820598e-01,4.129138854867446008e-03,-1.062721622367886806e-03,1.718265807780337481e-03,3.853783383965492249e-02
5.005020263085437904e-01,4.872732906434256717e-01,5.258141882600947392e-01,3.145427071769367477e-03,-5.259500447061854836e-03,2.914779043591968297e-03,3.589859232306480408e-02
5.055678338414317796e-01,4.983986418045511235e-01,4.997770180642910343e-01,1.027058372850218112e-03,-2.133058050763280040e-03,1.674050647639429410e-05,7.760836742818355560e-03
5.346866926325342106e-01,4.647689753737467289e-01,4.685738584497479153e-01,3.135225249587157530e-03,5.090363251945432058e-03,-1.006371938416496768e-02,7.104924321174621582e-02
5.024238113907881775e-01,4.795583093607155289e-01,5.256125230895558609e-01,5.782919542167447996e-02,-2.521569278079180063e-02,3.189655865762896364e-02,1.287753134965896606e-01
5.097841172453194680e-01,5.048574438413505616e-01,4.747557323453632794e-01,1.151387897093255654e-02,-5.419181831903160419e-03,8.272107397208725010e-03,4.206876084208488464e-02
4.847385197023274528e-01,5.107770311207926461e-01,4.881768857974722597e-01,2.671600718725320681e-03,-5.021726195809197643e-03,5.218202369286159721e-03,2.791148424148559570e-02
4.794285426839794417e-01,5.194019416934059219e-01,4.923492353988160319e-01,1.668887206593350691e-03,-4.235487472786257646e-03,9.142842587948264710e-03,3.951305150985717773e-02
5.255431809171061674e-01,5.071585058035691373e-01,4.819029931819532320e-01,1.319007344728139082e-02,-8.867017657983432971e-03,1.312329635628312931e-02,5.210201814770698547e-02
4.699599799790962207e-01,5.430730118543881657e-01,4.962225490805092787e-01,8.263231615934155463e-03,-2.403690217113210389e-02,1.291124306503904813e-02,8.095284551382064819e-02
6.122241793413153443e-01,5.828116405516428067e-01,3.127726468736806709e-01,5.364521022225089003e-02,3.183389384186133264e-02,-1.195326030622791830e-01,3.691428303718566895e-01
5.066356619564141850e-01,4.896014170650118680e-01,4.673411962357887917e-01,-7.990598319150561679e-03,-2.830106165388368133e-03,-4.376133969296629005e-03,3.791962563991546631e-02
5.361276681132967070e-01,5.277575181507235813e-01,4.469596203096325993e-01,-7.690667139790950506e-03,7.201918813114214710e-03,1.647742169345253749e-02,9.177259355783462524e-02
4.646495950405231112e-01,5.069463521780660509e-01,4.819905118304237956e-01,-3.705490778927413541e-03,-3.575445362243810047e-03,-8.962966705538028336e-03,4.094882309436798096e-02
5.430060632758153538e-01,4.840970061269242453e-01,4.369452815543227175e-01,1.274856247461574055e-02,9.210333838612968366e-03,-1.686155837359266246e-02,1.003306061029434204e-01
5.170901404077312691e-01,5.804032771442515504e-01,2.847241242640132786e-01,2.966657011944001318e-02,1.156427328006040395e-01,-2.107643750497835075e-02,3.417704403400421143e-01
5.817432545765158780e-01,5.897149701677200095e-01,3.825357373832569685e-01,2.730949958704222483e-02,2.277299018413153284e-02,-2.709642663520789654e-02,2.175571471452713013e-01
4.564388744557608679e-01,5.353807239946699603e-01,4.784863015497354266e-01,-3.692975441723021692e-03,-4.890880468505719690e-03,-2.996227743064562316e-03,7.153354585170745850e-02
5.506078797512122813e-01,5.893081197477665345e-01,3.828201615288913118e-01,2.016925072854007864e-02,5.042880831786686335e-02,9.552020709672294496e-03,2.127608209848403931e-01
5.630247147289264564e-01,5.481676309523761947e-01,3.922818928530616978e-01,5.053176927811459107e-03,8.479359791318301365e-03,-1.649312809802943799e-02,1.671690046787261963e-01
5.447862220029092706e-01,4.851333897918427285e-01,4.623106660938293144e-01,3.906037176667348076e-03,1.461058125123077152e-03,-3.075295208980003900e-03,7.430561631917953491e-02
4.712255873923829608e-01,5.207263854737737008e-01,5.143933243012120959e-01,2.779436870324134088e-03,-4.640558678942894449e-03,1.115520942923753193e-02,5.136186629533767700e-02
5.653028792835781413e-01,5.517356495743330758e-01,3.903974201511995479e-01,7.946405535386729876e-03,7.093431249377798661e-03,-1.677342923468742864e-02,1.720099896192550659e-01
5.027958283302700337e-01,5.239874708135575654e-01,4.360803514241938794e-01,-1.117632288638095023e-02,-9.446189142545587114e-03,-6.627712305977273045e-03,8.419057726860046387e-02
4.762911340296853702e-01,5.083314490565924437e-01,4.743033658769565952e-01,-2.071380265950449433e-03,-2.650012537103120427e-04,-2.056833997466996685e-03,3.346633911132812500e-02
6.131751444399089479e-01,6.196023179954568416e-01,2.271306107111763506e-01,3.344762578890827370e-02,8.439592973351571492e-02,-4.781579920716876541e-04,4.198544919490814209e-01
6.016345376065284078e-01,6.034735583401779069e-01,3.487554541192601221e-01,6.002849770065083954e-03,-1.500787523953527221e-02,-4.568192143302632346e-02,2.673211395740509033e-01
2.188020695727193876e-01,5.977469820310084003e-01,5.296422422741936531e-01,1.169176048953931152e-01,-1.351729192233850352e-01,6.802700455199585383e-02,4.818058907985687256e-01
4.116417203510450706e-01,5.556198802057870090e-01,5.246211714578969953e-01,1.123748398150000057e-02,-4.168398613743294623e-02,7.142710747997408835e-03,1.515653580427169800e-01
5.507997821456429577e-01,5.618282679172326155e-01,3.574799908257181302e-01,6.878015369114087729e-03,-1.197524342831274985e-02,-1.836879445546015042e-03,2.005204707384109497e-01
5.852345822489358751e-01,2.567688822261882109e-01,5.918623663501383358e-01,-8.769174427651225956e-02,3.827790810983455055e-02,7.990585254060572629e-02,3.958921432495117188e-01
4.846757342585861772e-01,5.246995124965189161e-01,4.611054173242393195e-01,-7.603190598817094990e-03,-5.277620091437437710e-03,-2.742983004453295424e-03,5.814114585518836975e-02
5.679880205499857615e-01,3.843752306378688255e-01,5.753037355261052532e-01,3.223594757150241574e-02,6.005595899458379162e-03,-2.784732901140371791e-03,1.958554834127426147e-01
3.167536839961824779e-01,5.252500933902556346e-01,5.440770108025312357e-01,1.412475960457746371e-01,-1.318789988067313457e-01,7.311929759041492505e-02,4.193074107170104980e-01
5.021114787692948500e-01,5.517509487661884648e-01,4.006436006126455895e-01,9.680162768092769260e-04,-2.763127444827708987e-02,-3.021856428228413948e-03,1.418354213237762451e-01
5.288994303664045216e-01,5.204811267144973108e-01,4.699134706219089130e-01,1.176136135234201463e-02,-2.315879191193212592e-03,3.790549244288084381e-03,5.939556285738945007e-02
4.336967235344541538e-01,5.404703465570924736e-01,4.670719375103198900e-01,-2.945567109413635767e-02,-5.166071741810500384e-02,-3.139648009446239368e-02,1.500584334135055542e-01
5.526909696038286857e-01,3.770119855961120425e-01,5.627825000470521033e-01,-8.151205807458376112e-03,1.395998595053780413e-02,1.318459305547954596e-02,1.845082193613052368e-01
5.388685441491275485e-01,4.791031775528704628e-01,4.610378421011792627e-01,-9.112226060809797265e-04,1.321390294718215793e-04,-4.418443541084061434e-03,7.098625600337982178e-02
5.167803985800876188e-01,4.670014358819086775e-01,5.323728961932634451e-01,7.077336758484886921e-03,-3.088746038301943501e-03,5.477808769795402578e-03,6.136901304125785828e-02
5.383567303363812062e-01,4.740525657757044264e-01,4.604358342600209930e-01,1.743518619061487727e-03,-6.604735577375488436e-05,-4.256708401457820652e-03,7.252272218465805054e-02
5.082657739258726881e-01,4.955533221998257298e-01,4.962239822499838193e-01,1.361117045482161019e-03,-2.265446241590023547e-03,1.144428825921214084e-03,1.335718110203742981e-02
5.170033402965642511e-01,4.916554825500827342e-01,5.029608750378734561e-01,2.755126574775377570e-03,-6.350033624684396812e-03,1.841669372170681414e-03,2.525221742689609528e-02
5.386512940402604643e-01,3.885310855591956880e-01,5.633719896796541837e-01,-1.916485810201841097e-02,1.245610794433712684e-02,1.598245550927574962e-02,1.708564311265945435e-01
5.473881997033662739e-01,3.730964201450407414e-01,5.626891931107848022e-01,-8.251607836355000225e-02,3.041583194592456345e-03,8.725286553243592064e-03,2.322960048913955688e-01
5.824152281008188048e-01,3.318319392223118003e-01,6.078400425614631786e-01,-8.673969475142709329e-02,6.750666653468575910e-03,-2.490354429579106146e-02,3.072100877761840820e-01
4.941342796760454514e-01,5.071592249951792919e-01,5.044941627264216688e-01,9.714199787589134936e-04,-1.135729910723950499e-03,4.543211940220104154e-03,1.451421435922384262e-02
5.331328185804972142e-01,3.292481716259233471e-01,5.696173345169953661e-01,-5.553745114243371223e-02,-6.862757954862118122e-04,-4.526444565319346150e-03,2.442433387041091919e-01
5.869285708532668844e-01,3.417944081747856799e-01,6.097311997687848706e-01,-8.025075753225276165e-02,3.002463574431300515e-04,-4.480517241380845006e-02,3.025619983673095703e-01
5.981152323478229338e-01,5.707492124786230914e-01,3.694758263904328599e-01,2.411973167288892009e-02,4.265690367241709025e-02,4.102104576599145680e-02,2.429407835006713867e-01
4.982803707408205995e-01,5.065388889938799988e-01,4.944857967609385119e-01,4.575259058043881256e-03,-1.124397390861397571e-03,1.933569331290184738e-03,1.384728681296110153e-02
5.156075294598430059e-01,5.043802728389269463e-01,4.828237445741721534e-01,7.860328347477284552e-03,-1.964408751652787274e-03,2.145636909058177069e-03,3.230322152376174927e-02
5.855299923709849086e-01,5.814395195760595492e-01,3.535316395362287922e-01,1.490044596876346356e-02,1.765203178219530190e-03,2.909291090129010205e-03,2.314990162849426270e-01
5.070432246599947401e-01,4.928489289177496735e-01,4.979616458566096804e-01,3.239686481283463038e-03,-4.107214178280891442e-03,1.891331292653306321e-03,1.574395783245563507e-02
5.473298225654144034e-01,4.774170298727622441e-01,4.784483481018932949e-01,-1.125282165710500461e-03,-3.107904432222014131e-03,2.925846714152120082e-02,8.612612634897232056e-02
5.494744305867127476e-01,5.345725622330282922e-01,4.169209206182907801e-01,1.049843628484197280e-02,-2.184190461562011184e-03,2.143382154527635058e-02,1.324401497840881348e-01
5.417996698333229499e-01,4.988548028424850123e-01,4.630775505914761503e-01,8.415397920924882601e-04,4.446301666859716478e-03,2.726800472088939872e-02,8.338338136672973633e-02
5.012476793817149945e-01,4.988565154044841132e-01,4.946548795990240444e-01,3.529741573427807710e-03,-2.057950900652638637e-03,2.670812240308624401e-03,1.024210080504417419e-02
5.984002409158943880e-01,5.329285601624542679e-01,4.336561670524025081e-01,1.447454452013500516e-02,3.759194981816885855e-02,4.829660523645681880e-02,1.802963316440582275e-01
4.647351526215004469e-01,5.302459124172695937e-01,4.780304333266293115e-01,-1.455526128893259649e-02,-3.075139011028531905e-02,-1.295112998680125055e-02,8.702382445335388184e-02
5.372417920463711249e-01,4.587308934939813843e-01,4.651710450561669652e-01,-4.528510779405352021e-04,-1.611361901536953771e-03,-7.889779633326184441e-03,7.677868008613586426e-02
6.047560971958272358e-01,5.376383904348390752e-01,4.554651164428987209e-01,-5.961040769343337042e-02,9.742772902637916732e-02,1.863586261245502307e-01,4.001222550868988037e-01
5.962169648092208174e-01,4.375979380237733918e-01,3.380002679908257202e-01,-2.045160907642545618e-03,2.926231766577100032e-02,2.008610978771984412e-01,4.177256524562835693e-01
4.347906981115472469e-01,5.193738609989335675e-01,5.346729814278610160e-01,6.061859669827664859e-03,-1.590430520268768660e-02,1.213552934123843761e-02,9.996657073497772217e-02
4.976336147698714463e-01,4.775252931898154030e-01,4.756056154389653456e-01,-8.765744186216943568e-03,-2.585063410869145421e-03,-3.471920588728869342e-03,2.708055451512336731e-02
4.720969626322662482e-01,4.965703679758902700e-01,4.877728707640504591e-01,-3.481658614943962827e-03,-3.641656216674360805e-03,-9.872237113581656953e-03,2.880230545997619629e-02
4.499484519872624100e-01,4.844054273555535306e-01,5.103524988247711835e-01,-3.166352670232783217e-02,-2.483338120342488617e-02,-2.551850142042776104e-02,9.780593216419219971e-02
4.769778830293259775e-01,5.080448105574075779e-01,4.813500199904632848e-01,-2.101781304656370492e-03,-4.941825084929339770e-04,-4.785568362165171577e-03,3.051443584263324738e-02
5.833596783162069421e-01,4.314429619208653421e-01,2.885899100079272750e-01,-6.125203405707595888e-02,-1.150978062621926395e-01,-2.103797983250928483e-01,4.989632964134216309e-01
4.721652732791978835e-01,4.913828856702580072e-01,5.126266970741848450e-01,-1.830275937736761463e-02,-1.666984837348636436e-02,-1.533194142230966811e-02,6.142231822013854980e-02
4.835768901986126078e-01,4.645007905281663962e-01,5.141037171553549667e-01,-3.249434257616670013e-03,-1.116100714949959556e-02,-2.918664443604367283e-03,4.805261641740798950e-02
5.030473659818027743e-01,4.017197097707704279e-01,4.726391239369399089e-01,-8.134022019286638039e-02,-6.185844239563912522e-02,-9.149831594924799638e-02,2.540761232376098633e-01
5.039513480599731032e-01,4.128939103696181445e-01,5.291053351752146305e-01,-1.996156992429790403e-02,-1.739304799662510712e-02,-9.780396125658908854e-03,1.166385561227798462e-01
5.043133003595586805e-01,4.268921009609909500e-01,5.097131747901695320e-01,-1.635653578920858928e-02,-1.649981391497012950e-02,-1.464307330202563838e-02,9.329450875520706177e-02
4.811862342216017829e-01,4.454141305404292761e-01,5.238869449443772641e-01,-1.108436191135502014e-02,-1.213822500171069137e-02,-5.857085262179418522e-03,7.445806264877319336e-02
4.720419177722701143e-01,5.178447406615805937e-01,4.769991959917271873e-01,-7.202309435359777363e-03,-8.396826478929289919e-03,-8.177272408011658500e-03,4.963022470474243164e-02
4.793594410094379477e-01,4.353284518036187323e-01,5.274668029888796017e-01,-1.416746943782411401e-02,-1.399334026096312085e-02,-1.102544251616006249e-02,8.902546763420104980e-02
4.898079701529318708e-01,4.878779194604599412e-01,5.226237134139581908e-01,1.281701641293066241e-02,1.159641235150291917e-02,-1.176665252994980697e-02,4.955355077981948853e-02
4.861280512723848979e-01,4.854833733447471156e-01,4.863480523826354540e-01,-7.012551959967382826e-04,-1.603509359329488614e-03,-9.495327568003514469e-04,3.535488853231072426e-03
1.716884043602508458e-01,6.113890563582742299e-01,6.307559399322926197e-01,-3.621522926009385340e-03,7.810958200555594491e-03,3.436119224102554548e-02,4.538632333278656006e-01
4.915783141712951609e-01,5.337465681516415650e-01,4.486343215415073971e-01,9.162485967463343539e-03,-6.690871635183319281e-03,1.652427225236379827e-03,7.633852213621139526e-02
3.049100259830225257e-01,5.319975699558130433e-01,5.663389387775230599e-01,1.106053647397760992e-01,1.102462480767822522e-01,-9.825751500105648489e-03,3.660595118999481201e-01
4.558609034468811272e-01,5.369183536688100222e-01,5.703899782043642119e-01,3.777365833658367922e-02,-1.580344589306425292e-03,1.713686626260605902e-02,1.247911900281906128e-01
4.901310031259182298e-01,5.011280439682410659e-01,5.684687840075525189e-01,3.357536268564564885e-02,1.237289037186767478e-02,8.182294535620391468e-03,9.715085476636886597e-02
4.858873712722335814e-01,4.874961755508103178e-01,4.831002017655329772e-01,-2.359213639607940591e-03,-7.819604353795790155e-04,-1.017462805540226981e-03,6.039728410542011261e-03
3.854225076027468777e-01,5.514087613297860013e-01,5.571134869718773475e-01,9.993173932458387573e-03,-7.319661888335840527e-03,2.114235285738374701e-03,1.703074276447296143e-01
4.656649757554516822e-01,5.353344007807092630e-01,4.686652065134924716e-01,-7.381511467602293363e-04,-2.008205551177472473e-03,-1.754256687634443571e-03,6.838692724704742432e-02
4.549229553180219598e-01,5.290136478888538552e-01,5.391950166765505648e-01,1.657012485403482754e-02,1.322540485951779685e-02,-4.041455178784193400e-03,8.800498396158218384e-02
5.765254368047354472e-01,4.647216504721250474e-01,5.672291439276710978e-01,9.548628249873467033e-02,6.205004263950084781e-02,-5.208662634194800856e-02,2.420531213283538818e-01
4.700451149748696711e-01,4.829900931137943720e-01,5.077924694326115818e-01,-3.572868446487683508e-03,-2.504734962552878329e-03,-9.829564820477589351e-03,3.808903694152832031e-02
4.239858055434861384e-01,5.508072176406826337e-01,5.011123350236539320e-01,-1.032785180028609898e-03,-9.706429780545148406e-03,1.785270753603690128e-03,1.120101884007453918e-01
5.229019947248767508e-01,5.363794962175223446e-01,5.298169624460355998e-01,7.370071475682941908e-02,-4.784922921102228305e-02,7.456347669770455044e-02,1.999485790729522705e-01
4.379732852924588249e-01,5.480132595700729636e-01,4.747722058615695406e-01,1.385861060289863764e-03,-2.280891928299399324e-02,-9.299225702122011078e-03,1.060166656970977783e-01
4.163172062700386533e-01,5.552979311547079355e-01,5.138241436912110993e-01,1.178259434041673513e-02,-2.029779474256601657e-02,1.021681707325032551e-02,1.312908977270126343e-01
3.898161500925194645e-01,5.622108234406799632e-01,5.532160955062638275e-01,7.518253184353670265e-03,-9.395009374335442157e-03,1.710365069843833991e-02,1.719364970922470093e-01
4.583653218760352366e-01,5.224788427959597970e-01,5.452274509167878147e-01,2.399167316581856529e-02,-1.462613901846366877e-03,1.022850632403416761e-02,9.018659591674804688e-02
4.634496905475074535e-01,4.828873122307610899e-01,5.136969625939641348e-01,-4.715086227231568040e-03,-8.303355448483068502e-03,-1.239210754026910145e-02,5.157662555575370789e-02
4.994096812609754577e-01,5.190466380939119384e-01,4.796698487736041905e-01,9.469793176881834487e-03,-1.485100891358057942e-03,1.626145100306282008e-03,3.803264349699020386e-02
5.017755633820990546e-01,4.723851962459548193e-01,5.397216802675440794e-01,1.969581454657252581e-02,8.158456952450028263e-03,-2.198349550832441775e-03,6.925970315933227539e-02
4.561595486524833709e-01,3.790177234559317654e-01,5.573504430542880472e-01,-8.494844999005016217e-02,-3.248570786127659427e-02,-2.988731303657606031e-02,2.269161641597747803e-01
5.108313436519956729e-01,4.982561994547910489e-01,4.955159493962418282e-01,5.564258387543577836e-03,-5.769509821532296974e-03,5.591297471897938541e-03,2.205979824066162109e-02
5.439827208529186553e-01,5.390782625142368500e-01,4.224114562675312934e-01,-1.692315818232173127e-02,-3.496916901331284522e-02,-3.504742535753788135e-02,1.497332900762557983e-01
4.985223759456323678e-01,5.016383804887102338e-01,5.015858179439839359e-01,3.088554462298765541e-03,-2.611544820850494712e-03,3.181166976224084238e-03,9.433235973119735718e-03
4.988467357115271561e-01,5.010726785608304867e-01,4.995558508258229891e-01,4.002423758074372877e-04,3.712938280679682775e-04,2.026891419185500830e-04,2.212831750512123108e-03
5.422967152242048616e-01,5.370457049585772857e-01,3.954805199398421789e-01,-1.622025724755279605e-02,-3.148677562050804929e-02,-3.176279491554412360e-02,1.661379039287567139e-01
5.104680510704743268e-01,5.223958706023100751e-01,4.035242459633970324e-01,-2.056613904626728925e-02,-2.197749020082032448e-02,-1.909709775710559734e-02,1.291002780199050903e-01
5.408620801476378137e-01,5.087282203836577255e-01,4.414296600777253277e-01,-1.344838216534129799e-02,-3.621376740484031492e-02,-3.688390384112989751e-02,1.276025027036666870e-01
4.993356177949673236e-01,5.063281623852122770e-01,4.913650395945515226e-01,5.548769453789612061e-03,-5.539724068159745989e-05,1.071432519402096186e-03,1.624746248126029968e-02
4.977625355644937355e-01,5.013939274577586813e-01,4.980657285392420253e-01,8.519893535823524610e-04,-4.279004308428449002e-04,1.785344697365280446e-03,4.946437198668718338e-03
5.263819469700530274e-01,5.041310782790922040e-01,4.023517665631416440e-01,-2.057890789341848548e-02,-1.754885362882776731e-02,-1.962448560051897883e-02,1.283297687768936157e-01
3.395113729068616193e-01,4.213250348046417848e-01,5.243076300881429619e-01,-2.047243364993624193e-01,-1.283804834618759161e-01,-1.195015102496111009e-01,4.937073290348052979e-01
4.707679544335039989e-01,4.701609480614094005e-01,5.149712448790810804e-01,-1.166196771334996295e-02,-1.066977329872825266e-02,-9.470471821437710658e-03,5.476985499262809753e-02
4.527235969110982583e-01,5.447238446306000847e-01,4.710689105586516878e-01,-7.312316799658183375e-02,-8.031940132170428681e-02,-5.361074894190961948e-02,2.261189371347427368e-01
4.288364749046141844e-01,5.034916883185196479e-01,5.381869175835304331e-01,-1.270144724179842477e-01,-8.935058521846835078e-02,-7.125157967067613507e-02,3.113620281219482422e-01
5.381045718935574262e-01,4.735363533517675805e-01,4.684262984886701786e-01,5.101063574002539375e-03,-1.228038893897630919e-03,2.543222148393772808e-02,8.092030137777328491e-02
4.917342940221594016e-01,4.385143503954880284e-01,5.445967543442405967e-01,4.506843616804315916e-02,-1.837551285072335991e-02,3.252489900959462665e-02,1.368218362331390381e-01
4.740173989247076780e-01,5.075204649771765109e-01,4.732324399620142508e-01,-4.979962850887538484e-03,-1.835966647914818875e-03,-2.545307674100903694e-03,3.540223464369773865e-02
4.832013913888408840e-01,4.946241747821253365e-01,4.806594799675547591e-01,-1.487079662349262118e-03,5.102495784026291233e-04,-1.596751089184535177e-03,1.345515251159667969e-02
3.983744704882016818e-01,5.083389492779379903e-01,6.120444330197872818e-01,-1.275929395344565231e-01,-3.551635080328140875e-02,-1.518844072853322083e-02,2.959173917770385742e-01
4.802324095864174969e-01,4.928607735052063510e-01,4.815454657978301412e-01,-4.392205248703721400e-03,-1.295060463231057033e-03,-2.156296229367304917e-03,1.488196011632680893e-02
7.183197997794565914e-01,3.181863316581819978e-01,6.661995365141402115e-01,1.429819461427963012e-01,9.083262573719198818e-02,9.459794883503860885e-02,5.048739910125732422e-01
4.850289443935565381e-01,5.354096510120130992e-01,4.545763056063124030e-01,-4.925860549914332608e-03,-6.963585242686647254e-03,-2.336267294455870655e-03,7.234946638345718384e-02
5.653860933923178234e-01,3.944978297191004679e-01,5.178390225293901805e-01,-1.569284873667233307e-02,1.173761965570509734e-02,3.518934426192417420e-02,1.679442375898361206e-01
5.399601842977868049e-01,5.008548102206716868e-01,4.535170835983561299e-01,8.415984197977866357e-03,-2.162404626877178788e-03,1.535994442372625758e-02,8.096633851528167725e-02
5.908128392502053350e-01,4.888151750119483219e-01,5.040133362332559486e-01,5.256536849199350270e-02,-1.168375328329400486e-03,8.552097280095717624e-02,1.982909291982650757e-01
5.388370473178925035e-01,4.346453442634585218e-01,5.157711988833616479e-01,2.238707321745271941e-02,-8.682545756919223326e-03,4.443720820254112164e-02,1.289898157119750977e-01
5.441327462902413314e-01,4.635933424759356436e-01,5.051082256498842238e-01,8.791199356569634471e-03,2.576757557655201796e-03,1.422689443302514040e-02,7.566693425178527832e-02
4.711268913665360714e-01,5.338215836505497691e-01,4.655361018964693232e-01,-1.876143859509685468e-03,-2.746998648465414673e-03,2.699867163303213942e-04,6.592275947332382202e-02
4.849705083611305367e-01,5.184221469239258528e-01,4.912945014984112513e-01,9.174852219501672315e-04,-3.072159169804369438e-03,7.457908612336403660e-04,3.130440041422843933e-02
5.338637643066624916e-01,5.434045090656813848e-01,4.453508834111625792e-01,1.417804998839224118e-02,-7.455235392818617204e-03,1.834870017948703885e-02,1.027124747633934021e-01
5.496041771251606312e-01,5.451149728216702073e-01,4.093153963666152362e-01,1.361210776858015788e-02,-3.886748285681132162e-03,5.114153998856055781e-03,1.405381113290786743e-01
5.394890503307964158e-01,5.183466593534518108e-01,4.320911184744458677e-01,2.146105063691097770e-02,-8.961605006419542940e-03,1.576349655145111578e-02,1.099035590887069702e-01
5.460174404389763758e-01,5.612360571117066543e-01,3.497241086003998189e-01,1.479843012717350914e-02,-3.776909356359278019e-02,1.527501343913988986e-02,2.176843136548995972e-01
4.937241760448490280e-01,5.247778487418905957e-01,4.532385463045769391e-01,-1.186447862758082707e-02,-1.695628749236643279e-02,-6.080548241895149600e-03,7.250109314918518066e-02
4.368114754251483101e-01,5.518891836487257452e-01,5.837399527401216925e-01,8.886282998986963499e-02,-4.870983486888845471e-02,5.504949864678066601e-02,2.404615581035614014e-01
4.845851775378275383e-01,5.287466759219421331e-01,4.564864746539414320e-01,-7.853733098667655538e-03,-5.505529427778857801e-03,-3.138625870676410232e-03,6.546895951032638550e-02
5.811539350052707942e-01,5.604047742614663985e-01,3.731672469579857543e-01,1.003108323876357455e-02,6.493050370904011881e-02,2.897679002970598994e-02,2.341840714216232300e-01
3.978807657571755696e-01,5.591085514562452730e-01,5.557556140405257583e-01,6.615687274403600493e-02,-7.901376757602392165e-02,2.209135347210691713e-02,2.424641400575637817e-01
5.030061139148676030e-01,5.469677539837112246e-01,3.998952620726695106e-01,-3.562450671489195402e-03,-2.639914020588898791e-02,-1.843247341218854935e-03,1.386953741312026978e-01
5.458141295174494534e-01,5.323334450833812070e-01,3.821496205006164049e-01,1.815774115551331211e-02,-3.114700173102319739e-02,3.011566773990647858e-02,1.771492809057235718e-01
4.904411518036635442e-01,4.745909476428129548e-01,5.340536346084162611e-01,2.133218030769556961e-02,9.235005097401105534e-03,-7.993830178186845867e-03,6.824433803558349609e-02
4.746977465342313018e-01,5.325760158865262550e-01,4.744476343185758949e-01,1.653569645723798349e-04,2.219189782535899017e-07,6.881951043528716739e-04,5.801668390631675720e-02
5.148915832098326373e-01,4.393708289725286043e-01,5.536992383083598757e-01,8.470257722238859130e-03,3.401917194230033494e-03,1.247194951878643262e-03,1.019550040364265442e-01
4.786324242442809851e-01,4.721997080881085163e-01,5.399716753924336254e-01,2.301905482011503898e-02,1.479729063147627475e-03,3.458486673207125228e-03,7.635799795389175415e-02
4.874870685432357575e-01,4.180305852880904505e-01,5.713399758715991261e-01,1.691162939298251899e-01,-3.229563333028198646e-02,8.041681198990298374e-02,3.549791872501373291e-01
5.218971553631543969e-01,4.154301490637461458e-01,5.815647447865294195e-01,6.833196492271072231e-02,3.966153999409762626e-02,7.353294122834112476e-03,2.003426402807235718e-01
5.254293526902747979e-01,4.862808771845780753e-01,4.774403089949958989e-01,6.480266992369053403e-03,3.912468017913259960e-03,-4.368818350297867976e-03,4.675486311316490173e-02
5.266381802346266072e-01,4.636752740763836478e-01,5.562749215968546546e-01,2.364410411899860870e-02,6.888647361828725314e-03,3.321103121901033701e-03,9.252707660198211670e-02
6.341172801702373851e-01,5.055227699207461844e-01,3.968209906180389379e-01,4.558909379100913040e-02,5.271898466877328326e-02,-1.218895557983661754e-01,3.185517787933349609e-01
4.798804137394723779e-01,5.224083033384062658e-01,5.018146543912117563e-01,2.241046789258495375e-02,2.719010851226833989e-02,-2.006009099896589529e-02,7.930151373147964478e-02
4.996725356874543444e-01,4.999259100957522128e-01,5.007339443351057628e-01,1.123484500189410052e-05,-6.374588259686130931e-04,-1.049858303727689432e-04,1.474570832215249538e-03
4.921287730780595782e-01,5.381032446169877748e-01,4.402415853813905766e-01,3.161448339362479126e-02,4.771862962342676706e-02,-2.304971297680923070e-02,1.364364922046661377e-01
4.156960757633345049e-01,5.484799010585388324e-01,5.449503111382071330e-01,6.828427823945857483e-03,7.084436469122646490e-03,-3.833585402312180345e-04,1.321598291397094727e-01
5.157165877988888480e-01,4.896777378204135722e-01,4.882923289634722996e-01,-6.014454983668147611e-03,6.929951282223703775e-03,9.816982241857492505e-03,3.546446934342384338e-02
3.525121907233162988e-01,5.899750696078401857e-01,5.867108751218050866e-01,2.828632324583665175e-02,1.617628405623265930e-01,2.215871655644977012e-02,3.714824020862579346e-01
4.798781847253205113e-01,4.783940851963517371e-01,4.990288016143091809e-01,-4.836169871384804128e-03,-7.129948261742453768e-03,-6.396334814470207471e-03,2.725405432283878326e-02
4.416907331285072624e-01,5.398609006752348449e-01,5.388698338379369623e-01,4.710720517120809553e-03,1.365284412700820856e-02,-3.441126789831498028e-03,1.010067686438560486e-01
5.250917038459054220e-01,4.804385436617120697e-01,4.419008797108947562e-01,1.890221876153651975e-02,1.825568130379735809e-02,-4.249036521764161523e-02,1.126404404640197754e-01
5.317634973011867716e-01,4.715760019057215757e-01,4.927176750331969113e-01,1.646583660041382085e-03,6.006588823456975555e-03,-4.005359026357224565e-03,5.442003533244132996e-02
5.727365366825036830e-01,3.543939595576375279e-01,5.703931362927998627e-01,2.253210493109877866e-02,2.367750341557324154e-02,-3.464777935874113063e-02,2.323223501443862915e-01
5.348123019192290162e-01,4.604548726915846935e-01,4.830805900444968271e-01,-2.954346767908873717e-06,7.753545520333887664e-03,-7.190629668737969979e-03,6.851297616958618164e-02
4.807293729255601167e-01,4.395088168005327756e-01,5.505769048908937258e-01,-2.292577238176970664e-02,-5.653465977054141466e-03,-2.029117117599697762e-03,1.055555567145347595e-01
4.800894470223664445e-01,4.718158076673251156e-01,5.308584708843127054e-01,2.325616122390649840e-02,7.735309899264328909e-03,-4.980460168444065909e-03,7.030262053012847900e-02
4.676799906993133749e-01,5.178131160663692611e-01,4.761297629492434735e-01,-3.216188720860494593e-03,-5.735842648146149275e-03,-8.372518822633671920e-03,5.001143738627433777e-02
5.595263002511527972e-01,4.819517488286821361e-01,5.676687831507926107e-01,9.103937498614859958e-02,4.898711773258256769e-02,-3.155792663205011367e-02,2.043702155351638794e-01
5.113745570659793405e-01,3.711455204998398427e-01,5.986364503201959675e-01,1.583624272420200985e-01,1.995099268109490689e-02,5.090022522008520733e-02,3.517358005046844482e-01
8.246014419050884392e-01,5.362122996541540676e-01,3.259649587997427433e-01,6.735777701893752578e-02,4.257251150605202705e-02,-2.331167525553258790e-01,6.083453297615051270e-01
4.683361651971409412e-01,5.335471406271450334e-01,4.692663734586699498e-01,-6.119033829557241760e-03,-1.162241023222218214e-02,-5.823202728498812902e-03,6.936839967966079712e-02
5.043799203914032248e-01,4.882897825917251189e-01,4.599588829586729322e-01,-1.312460263444679455e-02,-4.472411295750242793e-03,-5.423346067063757221e-03,4.671607166528701782e-02
4.769624841261057013e-01,4.817883103497205832e-01,5.083315128339372935e-01,-1.208111605420067371e-03,-2.365827415562737034e-03,-4.656543187913565751e-03,3.069435246288776398e-02
5.360551797509693905e-01,4.799922160936425652e-01,4.363482981782111358e-01,-5.516200556876586260e-03,-2.077610158410672734e-03,-9.389223440672273338e-03,8.867560327053070068e-02
5.214483137530917523e-01,4.419836433972027523e-01,5.325612203343121909e-01,1.688103501134101750e-02,2.067655861498696179e-02,-2.064736497859516809e-02,1.036225035786628723e-01
4.661313771632066838e-01,5.388734138611677160e-01,4.697326197022654859e-01,-1.179380343891558243e-04,-1.651242476073827093e-03,7.468360764534246084e-04,7.107957452535629272e-02
5.460347363124212761e-01,4.442631643621941517e-01,5.358873026626193026e-01,1.435923940712196742e-02,1.664613053438275536e-02,-2.013088350998251674e-02,1.099695637822151184e-01
4.895174648050525934e-01,4.859146752763179866e-01,5.359060520795640992e-01,2.251035764777118125e-03,2.836653914522541315e-04,9.383315979011399872e-04,4.847776517271995544e-02
4.876922704405830533e-01,5.456096354416276606e-01,4.586581968359036421e-01,5.550773894281795483e-03,-5.049656439240130835e-03,1.484704931786813391e-03,7.781078666448593140e-02
5.188654066700036926e-01,4.555347178009828690e-01,5.442915050664363097e-01,5.838711239844246795e-03,1.149051890854974056e-02,-2.440125541954974407e-03,8.236349374055862427e-02
4.441592561697728647e-01,4.762826503980154280e-01,5.244527640448725103e-01,-3.924247416250783299e-02,1.344283780550330383e-02,1.552482280633071809e-02,1.038497239351272583e-01
6.369833272735599961e-01,4.194894095456618288e-01,4.878160390333452501e-01,2.518706627027571948e-02,-4.676588555367761774e-02,1.905998520737937629e-01,3.931421339511871338e-01
4.638792816144926001e-01,4.873125642002700264e-01,5.352619175737967083e-01,-2.058608313355538705e-02,-1.557359727773468920e-02,-1.341717393871757862e-02,8.069016784429550171e-02
5.071863611757723156e-01,4.032752263352773481e-01,5.511044335972239416e-01,-2.659330829202777302e-02,-1.403520216801981864e-02,-2.098549305058432408e-03,1.414767950773239136e-01
4.839956112791716780e-01,5.181728477158172863e-01,4.823045822322214460e-01,1.055641409702048937e-03,-1.412173857652736014e-03,4.452961583802231456e-03,3.602152317762374878e-02
4.992188296731701613e-01,4.187409462268770755e-01,5.475825662680668948e-01,-1.216751003507557383e-02,-7.518740784550515151e-03,-6.917949272308803604e-03,1.160399317741394043e-01
4.580785865580345728e-01,5.095357165725795667e-01,5.295021810230278181e-01,-5.352596395745796640e-03,8.237506372217342360e-03,1.454368780854084671e-02,7.069646567106246948e-02
4.885733132151133806e-01,4.498112924339834340e-01,5.070130453010753824e-01,-8.213610970725438928e-03,-1.564602817763536408e-02,-9.706763001619626505e-03,6.145508587360382080e-02
4.922710458242224307e-01,4.053025873659376055e-01,5.289098357716104370e-01,-2.546511337281527620e-02,-1.901428735420182536e-02,-1.358359249980503614e-02,1.252035200595855713e-01
4.708104879682127875e-01,5.351398617099549782e-01,4.656333731309303392e-01,-1.472580429790887584e-03,-2.558137254014789495e-03,-2.881655629408539829e-04,6.726439297199249268e-02
4.859623837698709425e-01,4.659722449080023754e-01,4.795033767719264484e-01,-3.553265730931191857e-02,-3.548320734417893807e-02,-4.288544681376837281e-02,1.157349348068237305e-01
4.874584043861733829e-01,4.882778856983244764e-01,4.986363205102439244e-01,-5.278670941781647523e-03,-7.710950049130315537e-03,-8.169667396221271319e-03,2.405529096722602844e-02
4.781081768425507472e-01,4.327494229413398896e-01,5.473981205268131367e-01,-1.932610431063719672e-02,-5.844847489972167243e-03,-3.525660640268860838e-03,1.061211153864860535e-01
5.019191515979088969e-01,4.060361064763826633e-01,5.288779086589612266e-01,-2.192725439989808012e-02,-2.186742502680578612e-02,-1.639837399711790641e-02,1.272356361150741577e-01
5.073319179697584058e-01,4.966873248291674980e-01,4.969380109410644897e-01,7.286928059751399817e-03,-5.832257369514389118e-03,5.410229283998460939e-03,2.144427970051765442e-02
4.806795880115711239e-01,4.870526147615356627e-01,4.990987429976921352e-01,-3.221041640436231399e-03,-7.202927833900044964e-03,-8.793294640899508921e-03,2.610043808817863464e-02
5.000650865133887679e-01,4.760699413447753159e-01,4.770583587374184198e-01,-4.118072542621826343e-03,-8.401553940709825113e-03,-4.246445890264934422e-03,2.949165180325508118e-02
4.898782734748978185e-01,4.857006929564839925e-01,5.334753190034129400e-01,2.299558892008470717e-03,-5.378508058101415766e-04,7.541294170474449480e-04,4.602958261966705322e-02
4.896233911594885524e-01,4.859103666720782644e-01,5.369388224629563222e-01,1.368114867810881451e-03,1.337670586709781024e-03,6.135754198380754306e-04,4.939972236752510071e-02
4.162298398477612404e-01,4.226679527834781291e-01,6.152122163663414911e-01,-1.145219438383489469e-01,3.759698380190191948e-03,1.725196467639544470e-02,2.804202139377593994e-01
4.850595895726629858e-01,5.303858158006325985e-01,4.475919385083540480e-01,5.153176377322760474e-03,-3.710135091831395174e-03,2.989678430593702141e-03,7.283086329698562622e-02
4.676520131006625114e-01,5.340160441907881861e-01,4.850890315423749821e-01,1.672701120174231639e-03,-6.388254711769848250e-03,7.099021719158429486e-03,6.191166862845420837e-02
4.225162679492864837e-01,5.380124524527092333e-01,5.001932385806192594e-01,-1.357111354551056520e-03,-8.337167594915893820e-03,9.110737762176726942e-03,1.042341291904449463e-01
4.682755379264385565e-01,5.370032938884941043e-01,4.622050452668310938e-01,1.561531811403148564e-03,-7.927703896111807508e-03,1.357495640498088173e-03,7.334136217832565308e-02
4.992459232248277479e-01,4.764193400111074728e-01,4.836839443309114417e-01,-3.058995985945005009e-03,-6.730821117111135572e-03,-3.321879508415885151e-03,2.459857985377311707e-02
4.925929167535302855e-01,4.785906069530952989e-01,4.832396765466078215e-01,-2.567015994709819036e-03,-5.936403187151235300e-03,-3.869775408420342896e-03,1.797213591635227203e-02
4.993670622783970003e-01,4.998516062826985351e-01,4.980724833887463787e-01,5.217538508229071538e-04,-3.570236614870811345e-04,1.698429683625684488e-03,3.520094789564609528e-03
4.741715321029517649e-01,5.008459475866271493e-01,4.833217397884609912e-01,-4.962623456326322423e-03,-1.040613251289935386e-03,-8.198803700364449762e-03,2.880914695560932159e-02
5.016484784253423257e-01,4.991739850968165415e-01,4.989620243828999935e-01,3.257881630724674543e-03,-2.989041736294889215e-03,2.879685597971414455e-03,9.498147293925285339e-03
4.968765640890258628e-01,4.986984782130792770e-01,5.056987114473008305e-01,-6.222532356774672542e-04,-9.626337541874627635e-04,1.035329773002337250e-03,8.499044924974441528e-03
5.000501460956680022e-01,4.989905207099427642e-01,5.053354703425554373e-01,1.311760021501418461e-04,-2.078413762437893945e-03,1.204828749918346624e-03,7.212752010673284531e-03
4.919564519054386853e-01,4.842878801987123838e-01,4.826492247761883236e-01,-6.161264075956757874e-03,-7.286548102342907916e-03,-6.446111790875977583e-03,2.172280475497245789e-02
4.802634266833605281e-01,4.934590277188180552e-01,4.882743447069068932e-01,-1.065108687441451577e-03,-1.442869632269446921e-03,-7.496145627276651693e-03,1.762995682656764984e-02
5.671456465632062072e-01,3.934424826152716492e-01,5.678592462553976317e-01,8.328730541094694559e-03,1.242882911985047391e-02,2.276399559120213106e-02,1.803424060344696045e-01
6.108093259487756832e-01,3.156964211881584381e-01,5.318735326725487766e-01,-1.945950254019979120e-02,2.805590548610049917e-02,-1.112923599384882944e-01,3.326903879642486572e-01
5.643284067189733300e-01,3.636196479982556906e-01,5.355313266927501648e-01,-4.468854309615002442e-03,1.056397589237459411e-02,-3.661554943348304531e-02,1.993746459484100342e-01
6.420335321804399031e-01,3.418715018372529002e-01,4.391628815090491966e-01,8.290039774998771149e-02,3.114225592276888624e-02,-1.703889135872181104e-01,4.254218637943267822e-01
5.324921753070899211e-01,3.754391050699229515e-01,5.477348537847914756e-01,-4.515308714848891014e-02,-9.682797019138272496e-03,-4.106575496232194034e-02,1.968470960855484009e-01
4.925822626913309299e-01,4.947864212302735543e-01,5.263160327495501889e-01,1.123483869531789574e-02,-2.706920819167335773e-03,9.115859189031776805e-03,4.145376756787300110e-02
4.999869726303944883e-01,5.433782899252558307e-01,4.227764397332485213e-01,8.905942867112274369e-04,-1.021321503578553717e-02,-2.032340191641706512e-03,1.073416918516159058e-01
4.937284280917356716e-01,4.985336705996286644e-01,5.092299936632318502e-01,6.340604012155440401e-03,-4.595811268058396654e-03,7.022797051968932523e-03,2.282177470624446869e-02
4.946292260667990992e-01,4.975892210360794432e-01,5.085984357596634586e-01,7.284469043718935603e-04,-3.529812200865425106e-04,3.239652825781399407e-03,1.400011964142322540e-02
4.550878159004409507e-01,5.229153329517056692e-01,4.776062960806612412e-01,-1.266837013419401699e-03,-4.511964364577683399e-03,-9.484762091477466975e-03,6.257836520671844482e-02
4.769116955593158957e-01,5.058057650333097621e-01,5.040360344221973543e-01,5.635854298992571190e-03,-5.359013467546620488e-03,1.045784937342696813e-02,3.600569441914558411e-02
5.130039800402838024e-01,4.670064411070560251e-01,4.417781914144458533e-01,-3.372020122056806207e-02,-2.913466449276037873e-02,-3.911252961241541704e-02,1.202484369277954102e-01
4.930542151880396573e-01,4.961298019342107457e-01,5.354264414570298891e-01,1.121964460301140380e-02,-3.257580343427511627e-03,7.488809831580177032e-03,4.745807498693466187e-02
4.889301032675770764e-01,4.985234691669073737e-01,5.154041899702023199e-01,3.014018353553054273e-03,-2.301652507938990299e-03,6.522213131714796851e-03,2.664015442132949829e-02
5.023421416011291107e-01,5.348399284835781975e-01,4.499351295011967955e-01,7.903457636836889663e-03,-8.156423436511295311e-03,2.031996881440914938e-03,7.684449106454849243e-02
4.806268951180290294e-01,4.545756203610796797e-01,5.396951444031080625e-01,-7.111940830249227630e-03,-2.928086240016073739e-03,-2.978243577444509953e-03,7.688042521476745605e-02
5.343119690361547436e-01,4.926800761203825041e-01,4.849849324639788906e-01,5.509949676195796502e-03,-9.617274588290296994e-03,1.993368725373219005e-02,6.060860678553581238e-02
4.809422189825521832e-01,4.967745653203369249e-01,4.773562770371927444e-01,-1.109662289873090783e-02,-8.452387012014178289e-03,-1.097202367886919439e-02,3.556944802403450012e-02
5.490402610922833215e-01,5.207292268596681595e-01,4.552782933622371853e-01,1.017588791343231568e-02,-9.738033028595887916e-03,9.635697634727323144e-03,8.838550001382827759e-02
4.324664045885516783e-01,5.021569459047110495e-01,5.271905027177415937e-01,-8.537457315346021897e-03,-7.018834368357309769e-03,-1.337052284867067987e-02,9.017106890678405762e-02
5.723169134660412993e-01,5.732850381736392942e-01,3.348799505163597701e-01,1.069132205258265661e-02,1.764067465754181468e-02,1.378457808373789381e-02,2.417719066143035889e-01
5.365596154676393059e-01,5.192277962740843300e-01,4.525128293166196802e-01,1.454605019280189732e-02,-5.340286108839885533e-03,9.027560785012348973e-03,8.289981633424758911e-02
5.144154732534786945e-01,4.554633904802223854e-01,4.579926537494142802e-01,-1.752307566530867874e-02,-1.778171124508981168e-02,-2.318303170255595069e-02,8.255144208669662476e-02
4.572203160494670016e-01,5.418601443237355264e-01,4.796471498306338899e-01,-2.469780488830333395e-03,-4.970834532233391403e-03,-6.077448068106386034e-03,7.727802544832229614e-02
5.587688312754813813e-01,5.439582935759083027e-01,3.846176165728865115e-01,4.502380883329802803e-03,8.377207920924142513e-04,3.934555707892236492e-02,1.807646602392196655e-01
5.337226835376422951e-01,5.580687582942162051e-01,3.920122675580703930e-01,2.089446109849786570e-02,-1.581058706341230413e-02,1.549480570130950911e-02,1.640262007713317871e-01
4.762123777816443804e-01,4.796629413569726830e-01,5.399223890474922349e-01,-8.839170476879081723e-03,5.734860268748839633e-03,4.275123908364083201e-03,6.510702520608901978e-02
3.631213680672129573e-01,5.751008336491330031e-01,6.153034096224848648e-01,-1.811194032899325623e-01,-1.694266693018142977e-01,-8.103678530685784476e-02,5.092184543609619141e-01
4.790540192427298893e-01,4.791344658894620134e-01,5.315265148997592171e-01,-7.957001863027540062e-03,6.229519232765952548e-03,5.745414075764689564e-03,5.616528913378715515e-02
5.835516267685462166e-01,3.882008627892349351e-01,4.101644496151618524e-01,1.464750085044334274e-04,3.607873243544539033e-02,1.781964592884362764e-01,3.654049038887023926e-01
5.587154329586709878e-01,3.340537164581868224e-01,6.170034280061785781e-01,-1.763144441849271993e-01,1.063214233070078618e-01,5.680966511147780840e-02,4.514648914337158203e-01
5.170405441069638730e-01,2.947164270192512703e-01,5.759917493049152570e-01,-1.266609295459086293e-01,5.156243921189883339e-02,8.955418537205492302e-02,3.823276162147521973e-01
5.193584015987956493e-01,4.290776897326391559e-01,5.556888361739465987e-01,-3.772801399425144975e-02,9.192755726454495888e-03,1.351309280510616662e-02,1.334990113973617554e-01
4.765579605393289175e-01,5.242867983112282637e-01,4.861906477490564593e-01,2.357361299825345632e-03,-5.554613294149773027e-03,7.596107702598950753e-03,4.683384299278259277e-02
4.996288803818271784e-01,4.808959406966240024e-01,5.270039232983353417e-01,3.002564425087538621e-03,-3.027199212706028087e-03,1.886998626855218965e-03,4.096768796443939209e-02
3.887816656019661976e-01,5.388404449513003458e-01,5.390535308776389645e-01,-4.807398459589966311e-02,-3.910155900627281661e-02,-1.206753492316336995e-02,1.857596635818481445e-01
4.460180523320895207e-01,3.199312831002286139e-01,5.937461304989068989e-01,-1.751530800157596601e-01,5.308837307415126272e-02,6.120194397573779782e-02,4.099707007408142090e-01
4.369615743846542166e-01,3.671763541590060131e-01,6.303679450042557475e-01,-2.523737013162181131e-01,-1.212105007707939275e-02,-4.344995834939857637e-02,5.029461383819580078e-01
4.957092356018002466e-01,5.092020611104252081e-01,4.977684255912863120e-01,8.220104128554617251e-03,-5.866079572868944728e-03,8.960709670760225870e-03,2.655820548534393311e-02
4.842014630613098447e-01,5.086805024420120169e-01,4.991823879987563051e-01,3.880898111997235084e-03,-1.891932308912196419e-03,7.243089254927055458e-03,2.588903531432151794e-02
4.931411101563701327e-01,5.175793011386993214e-01,4.788543053782680636e-01,6.378793335839319685e-03,-2.857755887354391806e-03,1.450965077215505064e-03,3.610214591026306152e-02
4.592981801853516788e-01,7.448364376424849720e-01,4.442241731706041419e-01,3.684808882704564744e-03,-2.227644486080263553e-01,2.758295575907824160e-04,4.847437441349029541e-01
4.678347391340954009e-01,4.184854003988533466e-01,5.914951423330381264e-01,-9.713651490800855048e-02,4.365468944047739414e-02,3.177056761581618233e-02,2.467420101165771484e-01
4.188213582078469943e-01,5.972120337578938898e-01,5.339680086240884416e-01,-8.307893428868397614e-03,4.108910405147241096e-02,2.641218956009194069e-02,1.786217093467712402e-01
4.996329072459610998e-01,4.893681490634436138e-01,5.151665713391807566e-01,3.107069165683621834e-03,-5.168115235011705444e-03,2.358121493861189272e-03,2.513725124299526215e-02
5.619147406097544373e-01,5.215033429062356785e-01,5.149194769303815367e-01,7.067112083368937148e-02,-4.826532046456317310e-02,9.022518814544716603e-02,2.198546975851058960e-01
3.486746348082090941e-01,4.503107849524469741e-01,5.860232548995079060e-01,1.757165005461894247e-01,1.703240868008202430e-02,2.696611061297766315e-02,3.717818856239318848e-01
4.656325060693651818e-01,4.339289268123394105e-01,5.295262578353632232e-01,-4.431320540958600535e-02,-2.456798841159586050e-02,-2.404902236971395366e-02,1.286467760801315308e-01
5.197383749092370220e-01,4.853177208802179066e-01,4.947115061799783886e-01,-3.288632022143046611e-03,7.263164619111231804e-03,3.613041821158465873e-03,3.434461355209350586e-02
4.976809345914293137e-01,5.024195340855197589e-01,4.972747676605931422e-01,-3.317711155887377757e-03,2.149426520757413608e-03,1.918992630715703196e-03,9.081480093300342560e-03
4.764088565350302340e-01,5.075605690634839018e-01,4.974281567536777970e-01,5.322723882144412763e-03,-5.682091683148268214e-03,8.515412463693153300e-03,3.401238471269607544e-02
5.067556636783513424e-01,4.522417117808237297e-01,5.310682873355629940e-01,-7.199932080311565591e-03,1.412756760718768094e-02,8.477556071324950093e-03,7.653848826885223389e-02
4.811301009258293626e-01,5.284392334408939407e-01,4.820494198409398523e-01,4.968093117009196417e-03,-1.247342522839381754e-02,1.042215565479828743e-02,5.533692985773086548e-02
5.182697963214799586e-01,4.618192592344563807e-01,5.187799484093478242e-01,-5.189108594301429685e-03,1.346278302037404173e-02,4.659600586504101215e-03,6.249301880598068237e-02
4.972081155353148540e-01,5.081832742468832542e-01,4.884652092496918341e-01,-6.159615301914006177e-03,6.441304089454995621e-03,4.037138909201246420e-03,2.408394776284694672e-02
3.486606356568834331e-01,4.760711120939343788e-01,5.071542029904692050e-01,-1.332819290575927573e-01,1.525390297261107753e-01,1.109102498780178553e-01,4.256287515163421631e-01
4.817187718709041722e-01,4.964744178368714067e-01,5.155476998152441759e-01,5.765568339482512843e-03,-5.693964402422829578e-03,8.191861809305246017e-03,3.551431372761726379e-02
5.324708670467043214e-01,4.349463029906086020e-01,5.022906315024947554e-01,1.383117822500311844e-01,-6.867307106193426547e-02,1.157403026812487690e-01,3.452599644660949707e-01
4.934011442840980921e-01,5.049175059025784451e-01,4.997516724279432165e-01,1.296289104387787858e-03,-1.990904594065152477e-03,7.327362047404095864e-03,1.666804403066635132e-02
5.043468964861587134e-01,4.996238782476703499e-01,4.986486698430435682e-01,1.982154295095727662e-03,-8.798169687573647538e-04,5.552579797295291398e-04,6.549643818289041519e-03
4.739202942184781442e-01,5.066356890153571602e-01,4.998701243465107913e-01,5.468124808082237831e-03,-8.977033313406502721e-03,1.074840801271920859e-02,3.965827822685241699e-02
4.703875437979574414e-01,5.261753898237997440e-01,4.942193484509977974e-01,3.234480775784950250e-03,-5.474751829134883938e-03,8.452735591423335068e-03,5.183014646172523499e-02
5.041050022663886576e-01,5.048148229249600494e-01,4.910843754477263179e-01,6.908633764799753003e-03,-1.470211674285952291e-03,1.806437882518987289e-03,1.840502023696899414e-02
4.553352983442063850e-01,4.796556434461103358e-01,5.428361438618982682e-01,-6.171195190420813645e-03,-4.140600061022205874e-03,-5.298839531942735152e-03,7.981067895889282227e-02
4.537224112539787191e-01,4.822663025263181358e-01,5.440874755500896276e-01,-6.911895612081079762e-03,-2.260787599453372571e-03,1.393685005519753467e-03,8.102907985448837280e-02
5.809687254821492841e-01,4.078087160189322602e-01,5.274774726013373716e-01,-1.694589717395252604e-01,-1.193573519823836887e-01,-1.997408876730190908e-01,5.216895341873168945e-01
4.236645722261342950e-01,5.405720587799121013e-01,5.001526992698078766e-01,-5.461725181964393813e-03,-1.088354133322449839e-02,-2.838744418083263138e-03,1.050941497087478638e-01
4.893656656135466632e-01,5.111121149080923853e-01,4.914671729533737765e-01,1.985480981143508423e-03,-9.215919886389130648e-04,3.492652361822042549e-03,2.196802943944931030e-02
4.931100818089856341e-01,5.067161896707103041e-01,4.940862975892531539e-01,6.043825720706939722e-04,5.044829715675190358e-04,1.274776507008338559e-03,1.339892484247684479e-02
4.991968966748002723e-01,5.068642425886696889e-01,4.947330887103034702e-01,3.085703608471708752e-03,3.311641521070084692e-04,1.288447163462584470e-03,1.211665477603673935e-02
4.246260896265442453e-01,5.485390857807641574e-01,5.012160711338693453e-01,-4.973285195057598577e-03,-1.088079616937918416e-02,-6.523049552513585612e-03,1.108466908335685730e-01
4.767263930284176277e-01,4.720647218729757677e-01,5.369218328043121602e-01,-2.294797039538945364e-03,2.908466665705166949e-03,2.141378966122473894e-03,6.309331208467483521e-02
5.348946695815970376e-01,4.587136222148297526e-01,4.695500955841619972e-01,-1.965923818336674962e-03,-1.116131558391986536e-03,-5.112013031176598082e-03,7.203594595193862915e-02
5.185505740077007708e-01,5.171734871750712781e-01,4.238936645360216193e-01,-1.743939584550168592e-02,5.779346872237365457e-02,4.984870335973226596e-02,1.649812310934066772e-01
5.133451452586694774e-01,5.479442923750668104e-01,4.271097162299998806e-01,-6.432162080573705643e-03,3.291643216110676229e-02,1.299544430882470028e-02,1.244932115077972412e-01
5.311204805100770976e-01,4.804895899810118776e-01,4.457657414983624555e-01,-1.155075185650971011e-02,-8.313850448608991334e-03,-5.933423161875485408e-03,7.899726927280426025e-02
4.416273049795742534e-01,5.254115062377264778e-01,5.013674734895091634e-01,-5.568721547173556899e-03,-8.052979158645558536e-03,-1.347805355140689089e-02,8.009965717792510986e-02
5.426509255249796215e-01,4.703859678477424477e-01,4.322082798781146651e-01,-1.532909420402509730e-03,-3.739435760051775578e-03,-1.959628812278710330e-02,1.031489819288253784e-01
5.297157470652008593e-01,4.735674590802889106e-01,4.597853190370278509e-01,-8.133399482441327696e-03,-1.802158090397063418e-03,-5.290989440029118460e-03,6.639732420444488525e-02
3.213171430388233607e-01,5.365439923668040567e-01,7.119522533309232681e-01,-2.232235543778178510e-01,-1.132250266092796331e-01,-6.195261986198132009e-02,5.606278777122497559e-01
5.391774618264139063e-01,4.687515308113615609e-01,4.639526020695114439e-01,1.620597664586539109e-03,2.096309160176223877e-04,-2.640723242715510653e-03,7.314192503690719604e-02
5.496311679634660052e-01,4.428678629007702372e-01,4.844464208897226731e-01,-7.647549741861118557e-03,6.164636783303196858e-03,-2.061691862467742234e-02,1.012558713555335999e-01
5.299536133300378760e-01,4.451125310203302710e-01,4.678348127889861430e-01,-6.258771931639445056e-03,-8.515370792534854988e-03,-1.595359278750052220e-02,8.297669142484664917e-02
4.908352521168201643e-01,5.327933393326559353e-01,4.857368624736583818e-01,-5.292079883767666785e-04,2.883781848875309646e-03,3.449056018717878199e-04,4.501709714531898499e-02
4.546085016784260913e-01,5.397154272908618600e-01,5.196494622753548009e-01,-2.866232846604228370e-03,7.325306137638562184e-03,9.682926199703413214e-03,8.003113418817520142e-02
5.347387610371963085e-01,4.595403402591609066e-01,4.827529963992009399e-01,-1.535053170502558668e-03,-3.501413444712316980e-03,-4.264910361477402927e-03,6.742767989635467529e-02
4.891737471887129818e-01,5.348821222790393071e-01,4.857727290619071603e-01,-3.624897518468347003e-04,2.465759828414621716e-03,8.476158582959861720e-04,4.771862179040908813e-02
4.571023267707272630e-01,4.859498573318042913e-01,5.380557793362545915e-01,-2.427091317581853841e-02,2.712532023736465188e-03,7.101054288206737862e-03,8.361168950796127319e-02
5.393294885159701790e-01,4.589907234043706930e-01,4.702326554612225040e-01,6.875141529336527930e-04,1.959996931659096532e-03,-9.914347956294327149e-03,7.736511528491973877e-02
2.088791831855649206e-01,7.796570587781869177e-01,5.865781910783505193e-01,-1.107872967594309126e-03,-1.133888995474748584e-01,9.827205828754480288e-02,5.660465359687805176e-01
4.069693026853020701e-01,5.955609612784148466e-01,4.217193621322207764e-01,-1.663076842660056731e-01,-2.478876914103780305e-01,-1.533071522351622806e-01,6.089593768119812012e-01
3.933512263603875514e-01,5.064547626467287289e-01,5.544901608904631019e-01,-2.234656407757684357e-02,-1.063472162307932747e-02,-8.722798351950887194e-03,1.503277868032455444e-01
4.956538706414720941e-01,5.004944706736166316e-01,5.027273122158102403e-01,-1.659329553617001820e-03,2.088854313038266113e-03,3.960728430392875150e-03,1.037484686821699142e-02
4.964167289248862525e-01,4.996584745293169427e-01,5.013459091532064260e-01,-5.032072079751026376e-03,5.023486824637398047e-03,5.772789755161471942e-03,1.644607633352279663e-02
4.963831708572810641e-01,4.998714060695069739e-01,5.018007497441115961e-01,-4.435497348513894877e-03,4.620719595755525336e-03,5.437999241807035117e-03,1.531044486910104752e-02
4.999518659726809866e-01,5.001531906626187629e-01,4.971315806255554581e-01,-2.195931798659442758e-03,1.049131994923787259e-03,2.397624141240450434e-03,6.601251661777496338e-03
4.989146123866515792e-01,4.993624170278918584e-01,5.000643552848816897e-01,-1.567794678645561364e-03,3.541456072284713272e-04,4.788278556303827635e-04,3.073370084166526794e-03
5.008672180899625959e-01,5.013572091907160244e-01,5.004705835495543154e-01,1.915088539094695662e-07,7.235184721242846886e-04,8.582437158538989063e-04,2.090918831527233124e-03
4.971635642381373454e-01,4.987074340375552417e-01,5.025474483811142035e-01,-5.398306008704174819e-04,1.287464102862719093e-03,2.192196397413335735e-03,6.581933237612247467e-03
4.993082429615383067e-01,5.012569974834475417e-01,5.010568078112344059e-01,-8.649458498662637284e-04,3.458831469065747500e-04,-9.227898377313175107e-08,2.459857612848281860e-03
4.706486020839842910e-01,5.218682894073520817e-01,5.080487852117466785e-01,2.404356528324440041e-03,-5.970704307675066269e-03,1.325557582971742705e-02,5.251691117882728577e-02
3.884466361196993178e-01,6.050623175532565678e-01,6.219125898448225609e-01,5.704996006754550764e-02,-2.793801583695621187e-04,2.639512092444612490e-02,2.504211664199829102e-01
5.141895615890128557e-01,4.422080453063141903e-01,5.430945996087005456e-01,9.137733267424534220e-03,2.756431607455959824e-03,4.299787963560204943e-03,9.179445356130599976e-02
5.594269286651035733e-01,5.417042105508572680e-01,4.230144107162972511e-01,2.473027579922344125e-03,-1.931869865937330859e-03,2.044984286539175064e-02,1.333754211664199829e-01
4.904440023892308043e-01,4.933892196983742373e-01,5.219022423035800662e-01,5.835048088451276916e-04,-5.920100617068998084e-04,3.743805974107389158e-03,3.081825561821460724e-02
5.469905399736580964e-01,5.671466308189215821e-01,4.023069644367089359e-01,9.299889279581067050e-03,6.567238891987771388e-03,-1.353818752061626204e-03,1.570038497447967529e-01
5.741670466564714470e-01,5.752367125367658929e-01,3.845557899380894762e-01,1.187840024994957049e-02,1.395646471335061992e-02,2.321625852533005033e-03,1.928216814994812012e-01
4.643603718538062974e-01,5.185330237798663200e-01,5.310640980705564340e-01,1.060471644045840080e-02,-4.970429421607155604e-03,1.275836607188135519e-02,6.834010034799575806e-02
5.012394534375325117e-01,4.721442197156786591e-01,5.207265280103891003e-01,8.402074111124062036e-03,-1.130532908183820053e-02,9.893535770480344632e-03,5.178920552134513855e-02
4.613668165781013020e-01,5.188024531236764547e-01,5.386016783371260219e-01,1.398138955093801428e-02,-3.823336139285669465e-03,1.654793734967389615e-02,7.924542576074600220e-02
3.497978191082557475e-01,6.182823117965510207e-01,5.958001612512764389e-01,4.297643752172593604e-03,-5.422654258675685401e-02,1.840096611680865427e-02,2.764887213706970215e-01
4.499142898923144673e-01,5.226180147744304838e-01,5.385219818232751532e-01,6.431346049739595366e-03,-3.508379557523966501e-03,8.521955216975020744e-03,8.410665392875671387e-02
4.732400667965427910e-01,5.008651495220990402e-01,5.302367274010937326e-01,4.137141691462609822e-03,-2.278047378315847891e-03,6.925954507260785251e-03,5.145920813083648682e-02
5.055716855102276863e-01,4.973450811042297026e-01,5.524946328571156418e-01,4.287992459256139560e-02,-7.349375640750567193e-03,1.353034199219983746e-02,9.424845129251480103e-02
5.620984745188196685e-01,3.940209573213011018e-01,5.677555639828810730e-01,7.902787563337397569e-02,1.814437163044520587e-02,2.810673098561983219e-02,2.265540063381195068e-01
3.815611959559242483e-01,4.758970565230095096e-01,5.561352415363158830e-01,-8.410375845040500564e-02,2.204288729655954834e-02,1.551150346012553256e-02,2.151896208524703979e-01
4.373865507550065979e-01,4.828646145493764030e-01,5.426492712180707167e-01,-1.313897995628305476e-02,-6.133340358612097466e-05,3.611555787803530978e-03,9.443722665309906006e-02
5.655775313072481936e-01,3.899226370615395121e-01,5.943873158209309615e-01,7.825507609686929711e-02,1.109177012601664063e-02,2.199401967595755389e-02,2.386149317026138306e-01
5.048465426385043697e-01,4.191465108806813888e-01,5.257480145542985372e-01,-1.741520775748892080e-02,-1.496896719053090151e-02,-7.925340455981304266e-03,1.065041571855545044e-01
4.694778576903944067e-01,5.245724844796337827e-01,4.803841516424319780e-01,-1.174727320041045464e-02,-1.887082233416557953e-02,-1.418323694035494159e-02,6.811239570379257202e-02
5.364095678087175134e-01,2.304265324070797205e-01,5.862028567486492481e-01,1.259109386832255872e-01,1.756040176916123449e-02,-1.084530704034775486e-02,4.002243876457214355e-01
4.237690556709573508e-01,5.019254804450725693e-01,5.486921656635779243e-01,-1.079043015220371507e-02,-6.041340023338089352e-03,-6.819595396816496673e-03,1.120222359895706177e-01
4.868738154713235233e-01,4.554301577230235321e-01,5.460254630441965240e-01,-5.290437091264654952e-03,4.440700685279127397e-03,3.143912514412455566e-04,8.056666702032089233e-02
5.299783599191263406e-01,5.283957196420711044e-01,4.735645640658966982e-01,-1.079938008806582972e-02,2.245723454607303354e-02,3.271591034498999573e-02,9.038580209016799927e-02
3.894908335269707256e-01,5.513585504893279143e-01,5.300409043276117504e-01,-9.061305615354994791e-03,-1.437767253983798788e-02,-4.717292969733930842e-03,1.553647071123123169e-01
4.319825746110977360e-01,5.005405856148282817e-01,5.241810726903068929e-01,-8.496583649697502655e-03,-7.130325057350581607e-03,-1.148371754375729012e-02,8.743309229612350464e-02
4.899296044023010999e-01,5.362809969951728428e-01,4.872484224869891301e-01,2.123087021713766700e-03,2.058694750668935234e-03,3.758279179887727845e-05,4.802247509360313416e-02
4.227816481164298756e-01,4.997946637772051059e-01,5.416129871602997081e-01,-1.074858249973827465e-02,-6.347518460223059225e-03,-3.058702413610203761e-03,1.067514345049858093e-01
4.698724678957471035e-01,4.705595804437956442e-01,5.385222636021862463e-01,-1.136329009207689283e-02,-1.735823214109802424e-03,-2.517701254266260617e-03,7.128481566905975342e-02
5.325148096368916839e-01,4.902916589611576170e-01,4.808318399248027175e-01,5.792443671189078692e-03,-9.058145856186966679e-04,7.016514731194150103e-03,5.022468790411949158e-02
4.763963335551343881e-01,4.762138080962540765e-01,5.292076668517646798e-01,-2.857739923408297508e-04,-5.651647408611394570e-05,1.365399043390200066e-03,5.295807123184204102e-02
5.616723846019924249e-01,4.235174338802261129e-01,5.397825332825175737e-01,1.788128554882689649e-03,1.050602134592183538e-02,2.397451329890456714e-02,1.364068090915679932e-01
5.983871470591037856e-01,5.213614403544474252e-01,4.677226270340091863e-01,2.062617419222348078e-02,2.492534715186959723e-02,6.293911317572277453e-02,1.672297269105911255e-01
4.935339782926200791e-01,5.060283807946339696e-01,5.254012804550062254e-01,1.661217653384828435e-02,1.151322248691097512e-02,-8.846864192320629330e-03,4.726340249180793762e-02
6.093910193854183976e-01,4.929947585847865299e-01,5.053328709307546296e-01,1.113466869184489248e-02,1.166362799683456040e-02,7.414448351064015230e-02,1.718618124723434448e-01
5.487198052093362755e-01,5.274581965700879671e-01,4.253783971862113988e-01,1.573553249201163629e-02,-9.539710464432984982e-03,2.385889709368450504e-02,1.255639344453811646e-01
5.384892269113670249e-01,4.419489472541804354e-01,5.230789854266526540e-01,8.293651059705392514e-03,-1.092969239552536026e-02,1.540173908670311453e-02,9.667554497718811035e-02
5.490154012375173531e-01,4.265886223321646020e-01,4.988783853347039665e-01,-8.528486629720657183e-04,1.095133515458460854e-02,6.401725480364481302e-02,1.549855768680572510e-01
4.799194201283598082e-01,5.400740463996039908e-01,4.339957901635558835e-01,-2.724548185838121181e-03,-1.405816205889725071e-02,-1.173255565926107193e-03,9.544303268194198608e-02
5.679267256979694256e-01,4.196458718116201081e-01,5.297902482748508834e-01,3.095908661725645453e-02,1.765599384622012352e-02,-4.714620861694544113e-02,1.681237220764160156e-01
3.733483403728994343e-01,5.535132625804811690e-01,5.593127710414577125e-01,-9.155960756013154303e-03,-9.725619403310521065e-04,6.607828936860231372e-03,1.841825842857360840e-01
5.640001419871415456e-01,3.738149158358242130e-01,5.151018835796001838e-01,-3.377324447253269440e-02,-1.584790746011945431e-02,-6.479323412077091227e-02,2.145497351884841919e-01
3.746061721200923400e-01,5.653040671394307104e-01,5.484957450818148672e-01,-4.535632605195387239e-03,-2.016039082804185756e-02,5.480437753555794482e-04,1.863460093736648560e-01
4.933707221372842233e-01,4.920165444371215613e-01,5.148726822217238874e-01,1.136818721098564050e-03,4.171402301421489600e-03,-1.302567914008432876e-03,2.354685775935649872e-02
6.088250965417867366e-01,3.563560214152960981e-01,5.603011753555069419e-01,5.513531045996043246e-03,-2.233298895435879838e-03,-4.337408716791890662e-02,2.441198676824569702e-01
2.696548200523561367e-01,6.816802709743992050e-01,7.856285404713565512e-01,-1.362294894005699475e-01,-1.457871793871261777e-02,3.812245975429490868e-02,5.329845547676086426e-01
7.082781562746451876e-01,3.024158285100251309e-01,5.283154910398762949e-01,1.355940656599429091e-02,-2.916906783122196617e-02,-1.617849151248611506e-01,4.535392820835113525e-01
4.723086919792402472e-01,4.997066839772162927e-01,5.385703292966607103e-01,4.181442703978946809e-03,7.442842531656172723e-05,4.718944398162263666e-03,5.869492515921592712e-02
4.886740982377435483e-01,5.661642648867157845e-01,5.543803214192055684e-01,-4.555123634574828606e-02,8.302197538997573012e-02,6.043235300367329199e-02,2.075797319412231445e-01
4.191944742865216789e-01,5.485416928615973742e-01,5.295717903908520041e-01,-4.669018840737005661e-03,1.905231301853177114e-02,1.356786910536403323e-02,1.278416514396667480e-01
5.043063692863635206e-01,4.744734134020004435e-01,5.358278042824894394e-01,5.930145132557551255e-03,6.894232855175825257e-03,-6.991242795913453793e-04,5.543952807784080505e-02
4.208806563546336754e-01,5.855019898474035367e-01,5.268859998586130633e-01,1.239467148501706244e-02,4.653870358202629592e-02,-4.051407725697541047e-03,1.670157313346862793e-01
4.320235353089807995e-01,5.291680770349865837e-01,5.607557693725974124e-01,4.297642658066409826e-02,1.952840771334288586e-02,-2.131487669656025388e-02,1.468039005994796753e-01
5.110064704943366731e-01,5.378279657481531695e-01,4.616275994937353300e-01,2.164889519389080058e-02,2.835993410849310670e-02,-1.906302129361203343e-02,9.690798819065093994e-02
6.101475869417946063e-01,2.727018580069366926e-01,5.580245303807185309e-01,1.206600457887948147e-01,1.661278336088606658e-02,-1.639181272991681593e-01,4.734022319316864014e-01
4.851602528845492812e-01,4.889313763495353182e-01,5.333298141696066752e-01,1.678115255711108960e-03,-3.359278226457347062e-04,9.589247544952699681e-04,4.652332887053489685e-02
4.726841528404619464e-01,5.012520131949441682e-01,5.346939932299277221e-01,3.403962959630180401e-03,-1.072146123682162118e-03,6.078849119268374575e-03,5.512640997767448425e-02
4.928837355651081720e-01,4.924478012605083554e-01,5.324024404638453278e-01,1.037487611303685928e-02,-3.794565437772037114e-03,4.753212238083809327e-03,4.486685991287231445e-02
4.885127676498206006e-01,4.796471763856029469e-01,5.348041968369476873e-01,7.752950037981516142e-03,5.393332773309392029e-03,-1.513120993397009144e-03,5.391060560941696167e-02
4.252410863385074902e-01,5.191303356815267778e-01,5.272474188346298885e-01,3.885424856194395933e-03,-5.232846512444298999e-03,1.274194431534923268e-02,1.012802720069885254e-01
4.846740764082846376e-01,4.875934024991119276e-01,5.315261809459214115e-01,4.943990364841705995e-03,2.234899451299309815e-03,-2.307155044790792139e-03,4.659557715058326721e-02
4.745629898261273238e-01,5.459979940464287917e-01,5.109150180084097714e-01,5.062549258953936288e-02,4.982434829573887530e-02,-1.068838989202856166e-02,1.389480680227279663e-01
4.855551976786045554e-01,4.904481065323374467e-01,5.355267104471279627e-01,1.856697711388001276e-03,-4.394636680580185357e-05,2.436711161467980738e-03,4.800778254866600037e-02
5.090414441587693961e-01,5.758645897101484223e-01,5.109930319823892120e-01,4.236972470422756265e-02,7.958695298800010087e-02,-8.901487833359969168e-03,1.701889187097549438e-01
5.792087304488711119e-01,6.970435476520299156e-01,3.125141819156751488e-01,8.529586433643328303e-02,1.076838573323032483e-01,-4.172439514901633839e-02,4.222242236137390137e-01
4.095381542947191256e-01,6.972189382596634122e-01,6.476620635488749000e-01,1.216043432005856073e-02,1.835572750999816816e-01,1.386010842387805642e-01,4.797017574310302734e-01
4.731179274126020573e-01,5.024227842918959075e-01,5.274873617403662562e-01,4.036086245830014692e-03,-2.438733108120772538e-03,7.403184465188748786e-03,4.952428862452507019e-02
4.919009503806980321e-01,5.155246388986064465e-01,4.922430425081497085e-01,-1.578121502107870727e-03,9.065000074026805443e-04,3.838144300925782054e-03,2.458139322698116302e-02
1.046515243544912099e-01,5.880144830992314331e-01,5.882055408744601976e-01,9.183604610958895353e-02,-5.407650098413290668e-02,3.558161820596825176e-02,5.211570262908935547e-01
3.477812274728750985e-01,5.717144931625978144e-01,5.915519830646764898e-01,8.559570707840731194e-03,-5.574287616436209014e-02,2.265670299601477838e-02,2.570281922817230225e-01
4.550036048691861734e-01,4.920344858642932695e-01,5.501383728061846057e-01,1.725110913781824698e-02,-2.289447153385542125e-03,8.958720730073277752e-03,8.971225470304489136e-02
4.684574939149162009e-01,4.585560423041144529e-01,5.372678705429524415e-01,-1.016502982598546830e-02,-1.762042752636333370e-03,-7.931392073342611931e-04,7.638988643884658813e-02
4.904702463916880695e-01,5.275291304574544204e-01,4.873881839626977852e-01,-1.710723846589267587e-03,1.996769780049476202e-03,1.196476517848888256e-03,3.901427239179611206e-02
5.417424933645463847e-01,4.490252090944454322e-01,4.842444346857446846e-01,2.907869192633064440e-02,1.859823030972268532e-02,-3.597676755488829481e-02,1.184433847665786743e-01
4.830874019277895948e-01,5.019830964272095075e-01,5.424050417508228250e-01,2.240201373467719248e-02,1.551974361732209699e-02,-5.077158182070591261e-03,7.113544642925262451e-02
4.806730518737992730e-01,4.825620500036102989e-01,4.933189312034694241e-01,-1.117120119482121771e-03,-2.703576000426638395e-03,-4.973332584622800270e-03,1.547489874064922333e-02
3.191212020700033847e-01,5.571152245594953589e-01,6.346754282485785881e-01,-5.749587007008181289e-02,-1.578617145394433166e-02,9.705313704387659880e-04,3.029576838016510010e-01
5.167639698401638171e-01,5.752578654176692119e-01,2.166278449069361511e-01,-3.690971962702726400e-02,-1.336442394462165062e-01,-9.852719989793405631e-02,4.448050260543823242e-01
5.358946775579883637e-01,6.221582788351213145e-01,3.569040871113844937e-01,8.166307339004653595e-03,-8.449063708646785409e-02,-1.932419123751899157e-02,2.786678373813629150e-01
4.143763059430592977e-01,5.269248088413801545e-01,5.276204881532293722e-01,-9.349003834208374081e-03,-9.962050314892991962e-03,-9.790695352219458761e-03,1.165909916162490845e-01
4.866500944793933359e-01,4.901212830912419771e-01,5.312134618238438799e-01,1.555591039417581660e-03,2.215433631268919079e-04,2.892540254630786810e-03,4.331007227301597595e-02
3.104141452361016684e-01,4.220972895389328294e-01,6.004716642373886248e-01,-2.098883680307548905e-01,-1.018541887558006981e-01,-6.658289408873413473e-02,4.907076656818389893e-01
5.620312707293195764e-01,7.282185974371943038e-01,2.184634009394948451e-01,-3.548408358998936252e-02,-1.446220916824269287e-01,-7.445966408245972834e-02,5.347059369087219238e-01
6.230021178393834180e-01,6.953667575591979677e-01,2.807099710451684271e-01,6.046307560181143903e-02,6.905610682308473136e-02,-5.295209990501511393e-02,4.252713918685913086e-01
3.588106585840328822e-01,5.554469570606653805e-01,5.521650570018772353e-01,-9.016534801812288100e-03,-9.946512543623036579e-03,5.660511101077937918e-04,1.963998973369598389e-01
5.535069182942597976e-01,6.067109976575643104e-01,3.627128492428975948e-01,9.784866807800923078e-03,5.170408217804807471e-02,2.345802895042818637e-02,2.436022907495498657e-01
5.551520211765762491e-01,5.643702776889556461e-01,3.758337451707796650e-01,7.636058003067458869e-03,-1.602965002476482853e-02,-3.036334685189498797e-03,1.867256164550781250e-01
4.704197756052342361e-01,5.038791328827991745e-01,5.422880576838601252e-01,6.068176193477044927e-02,2.576533801777085991e-02,-5.010905499205978164e-03,1.303596049547195435e-01
5.037025855005053954e-01,4.774885959474651220e-01,5.278828333579228538e-01,3.700187896759307617e-03,7.510841795148309914e-03,-9.755309091326817405e-04,4.603135585784912109e-02
5.456964862067538169e-01,5.799869764832215058e-01,3.745173352743192963e-01,5.858144212770738553e-03,-2.581655699414437885e-02,6.479067086355566607e-03,1.964085698127746582e-01
4.498750110107693212e-01,5.092758617592829662e-01,5.357108568571264939e-01,-6.771826267544025016e-03,9.734856208983606743e-04,1.147693597087008459e-02,7.958082109689712524e-02
4.975092165006104183e-01,5.204737151943260587e-01,4.697441886476195760e-01,-6.317420972303048644e-03,1.054873636049893232e-02,3.940206168915804004e-03,4.935592785477638245e-02
5.142646918644546705e-01,4.671904211474400825e-01,5.279941860813522903e-01,-2.992679641091259765e-02,1.627555316911052236e-02,2.315395603891258133e-02,9.022543579339981079e-02
3.029218384120409002e-01,7.956525304129120624e-01,7.939768273321272662e-01,9.174316130581457174e-02,1.202050576404167376e-01,5.070365475886525614e-02,5.641555190086364746e-01
4.708385894251432835e-01,3.879771235281747610e-01,5.351985145045328185e-01,-1.378182710948068768e-01,1.229460173943575790e-01,1.302987943336185450e-01,4.118292033672332764e-01
5.141654572780233190e-01,4.369709364351994640e-01,5.486452759920829036e-01,9.563829925196070184e-03,5.985747344365297158e-03,-1.518330064376452546e-03,1.009866744279861450e-01
4.389168049797954607e-01,4.549194608286485919e-01,5.517243193187458816e-01,6.985042893826406973e-02,1.881183062449601900e-02,-3.179250674447247835e-03,1.640293449163436890e-01
4.645549501331160958e-01,4.278917488969157246e-01,5.732152599574946716e-01,-5.243841896977530226e-02,6.885470004694527191e-03,3.071008734740929193e-03,1.598592251539230347e-01
3.606423890596518467e-01,5.587094503645544386e-01,5.549400376957905889e-01,-4.008598053226070622e-03,-9.046945349483297150e-03,5.419447078528398173e-03,1.971801966428756714e-01
2.029445966691844072e-01,6.127941722027203664e-01,6.262043546312121567e-01,9.523894644890618100e-02,-1.499615487659920754e-01,1.068195553916181408e-02,5.183355808258056641e-01
5.076542252466688110e-01,5.310411793290672477e-01,4.544110208548814422e-01,1.686010484112171123e-02,1.336908756854962577e-02,-6.623312866257380187e-03,7.840648293495178223e-02
4.877254003792065862e-01,4.854545925480445168e-01,5.352963280093310239e-01,2.254939498777451274e-03,2.105863762009926865e-03,-2.916471705980890693e-05,4.903809726238250732e-02
4.549305359697345397e-01,5.017699998280316098e-01,5.370698570330929567e-01,1.021346455872797210e-02,-3.557987919777828422e-03,8.409707973500876038e-03,7.520993053913116455e-02
6.273015417656142567e-01,7.080045581057996529e-01,2.058223085808552066e-01,5.903472256295280718e-02,5.546598495974996990e-02,-7.994518104979801698e-02,5.069820284843444824e-01
4.828091729812543087e-01,7.267719812694536374e-01,4.253852640209145886e-01,1.213878364170308533e-01,1.704083636159162696e-01,-1.094440170468253919e-02,4.566246271133422852e-01
4.909598862290356913e-01,4.856144026505281319e-01,5.334239603943436991e-01,2.609803913427658113e-03,1.558358812927734382e-03,2.023753792846389333e-04,4.567936435341835022e-02
4.507849026480511001e-01,5.503423651843073472e-01,5.182262881529886567e-01,3.726849080123875377e-03,9.388449027854772408e-03,-3.840168769386549837e-04,8.973447233438491821e-02
4.904123776038646354e-01,4.862534148829378844e-01,5.274469552057973187e-01,1.688341291850865410e-03,3.211880335677113566e-03,-7.751648076015530764e-04,3.980182111263275146e-02
5.620181170719408259e-01,6.144534329511137649e-01,4.261977122831206444e-01,-3.297652634984712255e-02,1.216631951056199590e-01,7.778076827480925881e-02,3.068161010742187500e-01
4.980075488734704847e-01,4.926285928814395643e-01,5.160230769127563955e-01,1.601136494052701059e-03,1.865660620812047707e-03,-1.366254025596679196e-03,2.177452854812145233e-02
4.333678759161892491e-01,5.537990528211080843e-01,4.900203537589118419e-01,4.645562687041182299e-04,5.554121523265793253e-02,5.175307497223673343e-03,1.422178745269775391e-01
4.670353311931358942e-01,4.698303544564410572e-01,5.389307043326883040e-01,-3.052490294001404536e-03,-6.304875314087059895e-04,6.180928036157078229e-04,7.075379043817520142e-02
5.593621851785187671e-01,5.549385861854382318e-01,3.735194640679813660e-01,9.931806071100795011e-03,1.381829655574047001e-02,-6.081936147284800268e-03,1.863188594579696655e-01
4.535236579507031518e-01,4.851248136591173599e-01,5.390675758691780839e-01,-6.154095518253110617e-03,-1.065980321097032002e-03,2.250630772606876037e-03,7.579796761274337769e-02
3.478587218135036352e-01,6.221751548633744910e-01,6.151651108155714587e-01,4.244048605488708048e-03,4.635610784843502419e-02,2.613059891783720695e-02,2.862250804901123047e-01
4.962005468338382408e-01,5.558585759828087447e-01,4.897495841254490556e-01,2.531199032679729358e-02,8.903510543045281556e-02,-9.260478224052390295e-03,1.730510294437408447e-01
4.848394013557489890e-01,5.324877345198707479e-01,4.886072615835900801e-01,1.516090517599542919e-04,1.571044555350357887e-03,1.040382139662671037e-03,4.599726945161819458e-02
4.309501486444994311e-01,5.290843989152331783e-01,5.453070257755526784e-01,-9.034935522865213814e-03,4.526924750071294884e-03,1.022165018148335838e-02,1.100241616368293762e-01
4.323638528638150125e-01,5.054639296219305411e-01,5.441472620648803993e-01,-1.065457773952995825e-02,-7.401108160973567801e-04,5.057785764739518644e-03,1.004326790571212769e-01
5.020977233110922588e-01,5.350308551508458077e-01,4.745722299917806142e-01,-2.192541185633441452e-03,5.647732891388252199e-03,6.517291012106384831e-04,5.348019674420356750e-02
5.021047930813358207e-01,5.317478354769740179e-01,4.878601083137755201e-01,-6.012686470087807294e-02,8.302705319734833556e-02,5.538832408027512255e-02,2.055083215236663818e-01
3.273427150805086061e-01,7.118521899094333305e-01,6.728590256422396498e-01,1.071464555157721904e-01,2.217980642787584500e-01,1.135959262081482762e-01,5.959119796752929688e-01
5.412428645473364996e-01,5.441061772185402656e-01,4.290947212437902225e-01,-1.584148456979586346e-04,4.139976954100317574e-02,3.002807740488414034e-02,1.440606564283370972e-01
4.755702068058207388e-01,4.985117786565636533e-01,4.787122596264440366e-01,-8.225236291521078463e-03,-3.023046103318709210e-03,-4.423747890798106729e-03,2.744436450302600861e-02
5.031759434634475170e-01,4.868742319195997204e-01,5.129145940767810830e-01,2.703550847910572361e-03,9.102173611869780398e-03,-2.952175284516843703e-03,2.856511995196342468e-02
4.886531944876915667e-01,4.864829867949089226e-01,4.820957352609520075e-01,-4.217155043483785358e-03,-2.254913059335809586e-03,-2.421055609338914043e-03,1.093940809369087219e-02
4.513543570064958432e-01,5.403056710320449652e-01,5.193663232840894928e-01,7.827685211357634869e-05,7.895476189340965012e-03,8.468521953581099188e-03,8.300838619470596313e-02
4.543095715606524365e-01,5.348218305256206007e-01,5.075942212761194172e-01,2.130491064993982400e-03,-6.756431843545547891e-03,1.012598924337245430e-02,7.409171760082244873e-02
4.843381772053392820e-01,4.940221939924248629e-01,4.796639844288402288e-01,-4.591895339578479403e-03,-8.227646756256106050e-04,-2.303665312222538501e-03,1.555960066616535187e-02
3.986218375899698851e-01,5.266141648348638959e-01,5.543637825090264037e-01,-1.447121677924218495e-02,-2.048637537877942127e-03,5.658663727779810783e-03,1.464264839887619019e-01
4.846971533734761306e-01,4.955569177188139385e-01,4.784186584825126376e-01,-6.586730356705322240e-03,-2.370556687309392351e-03,-2.468318829928731369e-03,1.976937986910343170e-02
4.870533168790243117e-01,5.027410889638712632e-01,4.695740201896064780e-01,-2.012543193349250470e-02,-1.661147064840816021e-02,-1.238133363817551895e-02,5.769451707601547241e-02
5.446523691548925683e-01,4.271533456497839110e-01,5.318532636181910744e-01,2.332237459023351906e-03,1.098225218894668780e-02,-7.903637887407385237e-03,1.141556203365325928e-01
4.055832653238614638e-01,5.293564571078562819e-01,5.030238577181319615e-01,-9.460591128158685886e-03,-1.957020472343093398e-02,-1.477730308430156778e-02,1.217642500996589661e-01
5.495439758746080150e-01,5.260668024121210040e-01,4.317183575159481701e-01,-6.519412102984015883e-03,1.183017391624065044e-02,2.151904125725170869e-02,1.166379675269126892e-01
5.457343761746678013e-01,5.215483037530503907e-01,3.916741266084994288e-01,-6.342620715490471760e-03,3.641515546986926616e-02,4.180077750370488066e-02,1.730150431394577026e-01
3.708268866195479907e-01,5.423664860130933407e-01,5.569116635003598104e-01,2.473369005936599751e-05,-1.014610676742375888e-03,4.788941128589585712e-03,1.794557422399520874e-01
2.768764454369711525e-01,6.942025997914942348e-01,6.850830514357129086e-01,2.031852857038409232e-01,4.810321675344438053e-02,1.188713920204721580e-01,5.861946940422058105e-01
4.753592556820258608e-01,4.997889900309448463e-01,5.360860085650043239e-01,5.209498568736712146e-03,1.468449044774712293e-03,2.744590771313708960e-03,5.395828187465667725e-02
4.931704767790163202e-01,4.932780109838343363e-01,5.136997618393499554e-01,1.821814736645666500e-03,4.521166433871521249e-03,-2.058494121116462901e-03,2.243318036198616028e-02
4.481652314959866379e-01,5.168397405088402952e-01,5.533009354802183033e-01,1.180788220132813343e-02,3.119711036860947726e-03,-3.946088125294183280e-04,9.485517442226409912e-02
5.189471864508499177e-01,5.314780032233578089e-01,4.517638160741110909e-01,1.348099659860134414e-02,4.970008155141935474e-03,-2.501165609126520129e-03,7.842557877302169800e-02
5.158441618050069177e-01,5.365197904244227711e-01,4.377872794003352386e-01,-8.843725676104455605e-03,2.437518264359246623e-02,4.252904989795533788e-03,1.010226607322692871e-01
5.380050448157173149e-01,5.580852024605593709e-01,4.213650010402025803e-01,1.696375522442613096e-02,3.292715771529089452e-02,2.376303693230668364e-03,1.431192010641098022e-01
5.522251941428915067e-01,4.007366319210465266e-01,6.223123796876668390e-01,-7.746811897573362138e-02,2.510462207119467173e-02,4.192222078875634805e-02,2.522805631160736084e-01
5.486162887867741533e-01,5.531968695465763197e-01,4.015757850033215837e-01,-1.734553392428110196e-03,1.636537129528805451e-02,1.621346856641007333e-02,1.546497792005538940e-01
3.517643469590776562e-01,5.689737152367231321e-01,5.579746488733480225e-01,1.152071622393153159e-02,3.418031793295984305e-02,5.013332785612503555e-03,2.211114019155502319e-01
6.076315433868010318e-01,6.012855175237589167e-01,4.255091297201325506e-01,1.536258865976403501e-02,2.751528887854999897e-02,7.165698182744044409e-02,2.245808541774749756e-01
4.925977525091484455e-01,4.815363133738194690e-01,5.271957247928599211e-01,5.921731114385733914e-03,5.655772268249927362e-03,-1.898412825581890107e-03,4.374990612268447876e-02
5.588301319470104778e-01,5.504922256661232138e-01,3.354721091305762348e-01,-4.994434360127408649e-03,-1.546196237705525778e-02,-2.431398984242301095e-02,2.250812053680419922e-01
5.247555370823018261e-01,3.025326576781314225e-01,6.024835167846271933e-01,-1.184599716460680574e-01,4.867148544218149325e-02,7.867519647546286632e-02,3.747959136962890625e-01
4.485365541784822607e-01,5.286878468075921766e-01,6.218354210378298497e-01,1.592093524808884941e-01,8.253813264551662643e-02,-8.032513473588351327e-02,3.720261752605438232e-01
4.809889912331862249e-01,4.838531794445298795e-01,5.253950554473152401e-01,-8.313974980242117094e-04,1.597199451469118918e-03,4.042460075269697049e-03,4.372260347008705139e-02
4.949688328787575919e-01,4.552825390403308359e-01,5.229860221239315266e-01,-1.017522507520273421e-02,1.604080846833808027e-02,1.156524687688995426e-02,7.039642333984375000e-02
5.419460993119612491e-01,5.578881887974292964e-01,4.002029176082471662e-01,2.796842167418841282e-03,9.771771974391482707e-03,4.183575245486061307e-03,1.515499949455261230e-01
5.540311663375692142e-01,5.529569059767139860e-01,4.315694710749971019e-01,5.795118571152925880e-05,2.805203870912269595e-02,1.277761525715591026e-02,1.331053227186203003e-01
5.639581978211447577e-01,5.744028585826935762e-01,3.775963338986095819e-01,1.185590910592701670e-02,1.275764469475052822e-02,4.683741878393730095e-03,1.943247169256210327e-01
4.695916723318169783e-01,4.864989267972884557e-01,5.354998301649993575e-01,-4.875582234935433787e-03,3.653271573421177764e-04,8.169483349339040287e-03,6.154144927859306335e-02
5.363420977111769128e-01,5.728837000841557892e-01,4.252710829758067912e-01,5.287629561549554019e-02,-4.207669154061489947e-02,5.549302982497220788e-02,2.016637176275253296e-01
4.819013707212618236e-01,4.934483205495233671e-01,5.191272893238635389e-01,-3.473078635889490038e-03,2.234516667737938920e-03,9.490968064512363134e-03,3.755870833992958069e-02
4.741074778378384647e-01,5.141653856535880474e-01,3.420968844957119059e-01,9.929002457345104116e-02,-1.262810648979554584e-01,1.562822640927443718e-01,4.183397889137268066e-01
4.596411942103219572e-01,5.304509318025280029e-01,5.197476430418472848e-01,-3.346545390743354588e-03,7.705258156784561448e-03,1.060830542618375512e-02,7.014272361993789673e-02
5.490893714745707088e-01,6.108888998199111242e-01,3.805120655993931011e-01,7.458930831748856322e-03,-7.459892981709823068e-02,2.278411157387076613e-02,2.471330463886260986e-01
4.051744610959529536e-01,5.556741048148373663e-01,5.483156160150973735e-01,-3.608331711303209687e-03,4.319160630582546088e-03,8.334057789943441139e-03,1.479872763156890869e-01
4.520861361359375108e-01,5.505248971676646175e-01,5.158189908653242339e-01,2.074242309635358598e-03,8.762774964185949048e-03,5.789330057887759340e-03,8.844263106584548950e-02
5.392099112639671121e-01,5.541570261630770489e-01,3.754672955925328903e-01,2.347355890516467092e-02,-4.162962600798825186e-02,2.559210534673071399e-02,1.957025974988937378e-01
4.756820378285729345e-01,5.394385958443270734e-01,4.819117491505330308e-01,-9.788994463083892060e-04,2.322574038337803237e-02,3.565026209168776702e-03,7.325183600187301636e-02
5.444468720309786347e-01,5.460860026238758547e-01,4.351085255524246853e-01,2.884509442010101208e-03,7.897206623202536815e-03,6.105460051499866057e-03,1.116273701190948486e-01
3.248018270578830746e-01,5.498682080919060633e-01,7.718396604573549702e-01,-2.227389781309499217e-01,-1.058289943867294150e-02,4.117385045798364201e-02,5.514928102493286133e-01
6.173165085361034254e-01,3.274691313047863872e-01,5.562003368456905905e-01,5.858210404274674654e-02,2.045564071916437798e-02,1.417316267943523889e-01,3.766255080699920654e-01
4.305615969628783235e-01,5.307311840949482384e-01,5.402501264598446040e-01,-8.614726960801108446e-03,5.549822885245731148e-03,1.159727084865674017e-02,1.086121425032615662e-01
5.772759450855872165e-01,2.391227995354318625e-01,6.213216281421591880e-01,-2.134474409591537725e-01,8.681637911391709705e-02,-1.286809301309915603e-02,5.394155979156494141e-01
7.711842657573990678e-01,2.776663683210652267e-01,5.601870536478469331e-01,1.183328738339220476e-02,2.505352341446749620e-02,1.250057107800275347e-01,4.828366637229919434e-01
5.906806983004214695e-01,5.133713354827565967e-01,4.867193946219139367e-01,8.308503825026116721e-04,1.589179334631616106e-02,8.359842416110896401e-02,1.745660752058029175e-01
4.227487328206090966e-01,5.384835424326923636e-01,5.447675863776044736e-01,7.110321146427735564e-03,7.471032849958852279e-03,-7.918195768725686239e-04,1.203425005078315735e-01
4.811230265018681673e-01,5.281128859990783520e-01,4.971685263087599060e-01,2.420548549213202925e-03,4.856593509083084043e-03,-2.557668640204202939e-03,4.265549033880233765e-02
5.628899011315235956e-01,5.575270622278543087e-01,4.503291205792792629e-01,5.584281413433339614e-02,-1.511160524312818963e-02,7.881160374052946505e-02,2.019138187170028687e-01
4.925364895878347471e-01,4.743906204971242713e-01,5.301665955150413057e-01,-3.774258037133816374e-03,7.509965621317197734e-03,2.489543484259284459e-03,5.156215280294418335e-02
6.001294945098690770e-01,3.936332734161360758e-01,5.955072220871011623e-01,1.989006029477220772e-03,3.910697344066785264e-02,8.803388276694346093e-02,2.637373805046081543e-01
6.973215515144449705e-01,4.866752382144924338e-01,6.676406561758723157e-01,-5.198988389961809592e-02,1.404297761499755937e-01,2.385790720682912924e-01,5.263373255729675293e-01
4.752413105377971125e-01,4.996002829543426116e-01,5.190676662445612433e-01,-3.673893605318360664e-03,3.773932252505819880e-03,1.104770976606964279e-02,4.354216158390045166e-02
5.795335622600050751e-01,3.960231746719329315e-01,4.700138325671032180e-01,6.176487896529457566e-02,-1.773466336913486971e-02,1.639019201449159469e-01,3.443143963813781738e-01
4.771303370906977981e-01,4.913064277440718497e-01,5.225466419215787361e-01,2.054645643805787930e-02,-1.636880782762958550e-02,1.196598830964720576e-02,6.418423354625701904e-02
4.415906041962961992e-01,3.552213317994047936e-01,5.091759607561693324e-01,-1.515386485829147423e-01,1.142790110604744308e-01,1.400709734970335130e-01,4.298782646656036377e-01
4.997867519452099394e-01,4.995888862475996728e-01,5.005062332393653834e-01,5.059938006352955207e-05,2.602836889840081259e-04,-4.904378325148584091e-04,1.277370844036340714e-03
5.062070923401773559e-01,4.874979256512232961e-01,5.157064247135336732e-01,2.094514222026811010e-03,6.778156635402528794e-03,-2.400011585984930355e-03,2.804043889045715332e-02
4.786861850686400799e-01,5.103675477464304500e-01,5.163679105408123249e-01,-1.845493200394345834e-01,1.370107640977649976e-01,1.090668846039178630e-01,4.420495033264160156e-01
6.395796636184134520e-01,4.553606899037667133e-01,6.067326386172167130e-01,-2.733192767728919240e-02,1.946199943843963109e-01,2.211425595041918157e-01,5.399523377418518066e-01
4.937888651384866323e-01,4.893659404375688138e-01,5.216757072052363720e-01,8.856408699730234551e-04,3.852618358249950466e-03,-7.636204929258378531e-04,3.113213926553726196e-02
5.186007026893376670e-01,4.614049786482589122e-01,5.513034924058677344e-01,9.593649461119846400e-03,1.010176064345756457e-02,-1.493893241359982825e-02,8.638893812894821167e-02
4.844276801367700114e-01,5.009581802319703625e-01,5.302317421173329270e-01,4.364970487040637122e-03,2.854463079049375344e-03,-5.097679414325683930e-03,4.211492836475372314e-02
4.843642305332905851e-01,4.817357029102019572e-01,5.235106102802328243e-01,1.523608876644100274e-02,9.479378100432320556e-03,-7.372527104919907211e-03,5.264312773942947388e-02
5.462026419587499015e-01,5.301409615664742780e-01,4.711771413539814768e-01,-2.749941869942625419e-02,2.731303284143512394e-02,6.613819614016855364e-02,1.493693739175796509e-01
4.949940064194135458e-01,4.986893637750033359e-01,5.091643201279614228e-01,1.984439990633605263e-03,2.202584859715978147e-03,-4.370262312280366254e-03,1.567656919360160828e-02
4.879396948940336598e-01,4.998633256785445789e-01,5.159016103014573140e-01,3.071330461127350434e-03,2.387882077196506591e-03,-4.200421854615651873e-03,2.624823711812496185e-02
5.932530308561195787e-01,4.187289643236935532e-01,4.342942111368858216e-01,-4.990635537555677265e-02,1.023002325247924088e-01,1.621241900021233584e-01,3.817133903503417969e-01
5.693726348486999322e-01,5.737438118205608895e-01,3.642151256275749649e-01,1.946495192175070905e-03,-3.650947432240348855e-03,-7.541636681069305986e-03,2.079121768474578857e-01
4.952816406605550781e-01,5.114276443805907402e-01,4.995392740641572682e-01,-5.695749183511902673e-03,4.526380235120519395e-03,4.391339279312787489e-03,2.065714634954929352e-02
5.551189603148782847e-01,5.313223853844786237e-01,3.701322366146083120e-01,1.815315220480301708e-02,2.929623158671944630e-02,-4.709236065694284018e-02,2.014964073896408081e-01
4.859371163525438853e-01,5.274469646167754266e-01,4.960937802949930697e-01,-2.297592011521018291e-03,2.254615304263476571e-03,6.252527552827211871e-03,3.940802812576293945e-02
4.765515616020333800e-01,4.903060955213112138e-01,5.244554924267733620e-01,-4.603586845736201347e-03,3.655561176984283012e-03,7.978735175027758600e-03,4.604049026966094971e-02
4.881771595265504970e-01,4.883455654212859320e-01,5.135417438848222105e-01,-3.777702883787626819e-03,6.968381510379364693e-03,3.740384110652416726e-03,2.948861755430698395e-02
4.597467091374580206e-01,5.317304958695162620e-01,5.194165987795215100e-01,-3.053183085465406132e-03,7.808796797025250279e-03,1.022603266126608824e-02,7.050893455743789673e-02
4.815101196029972219e-01,5.114781426213145243e-01,5.020601606711703191e-01,-1.935559486987436812e-03,2.774309669511506541e-03,1.047912756700044960e-02,3.268498554825782776e-02
5.968311457399206876e-01,5.525913531958415170e-01,3.009629763529454438e-01,-2.533626265101072278e-02,-1.221642820631749782e-01,-2.249182448905544807e-01,5.242792963981628418e-01
4.903296655517059288e-01,4.998154318182735367e-01,5.040351782811500758e-01,-1.475638081052058331e-03,2.022969342278296747e-03,7.661655959464495555e-03,1.851286552846431732e-02
5.165659789957873782e-01,4.935317744482542457e-01,4.947881628699118961e-01,-4.850316078801735452e-03,1.932380332184921098e-03,3.553855772544687371e-03,2.495760098099708557e-02
7.763227676230983754e-01,5.595907030247877501e-01,1.894677034443829622e-01,7.612976879483679404e-02,-1.113112638038184048e-02,-1.416074711827503274e-01,5.848916769027709961e-01
4.967765867506503952e-01,4.805016463731381360e-01,5.473614171684043628e-01,-8.485779325549579200e-02,4.027853494754226465e-02,4.343397648706576186e-02,1.891457438468933105e-01
6.144313721070151502e-01,5.249304933393975636e-01,1.658052283575859320e-01,-7.113234311163884119e-03,-4.457796144537259919e-02,-1.539357134302576924e-01,4.963117837905883789e-01
4.704540199483204788e-01,5.404002458435409606e-01,5.004304582054028838e-01,-2.378199966433483292e-05,5.531716786604665842e-03,3.536194665061906037e-03,6.183557212352752686e-02
4.481587869664973578e-01,5.321333170018941461e-01,5.161988501382354100e-01,7.151233955119884120e-03,9.279940673108657764e-03,-3.359971895812827788e-03,8.008233457803726196e-02
5.171363356944224110e-01,5.145008897587701746e-01,4.517872011106094932e-01,3.883600287896044057e-02,5.313384564430793933e-02,-4.297838818426826663e-02,1.504691988229751587e-01
4.878261107506472460e-01,5.403905397406763012e-01,4.813309401259110443e-01,2.768030282269085159e-03,9.479312563412270118e-03,2.418126074764660651e-03,5.879389122128486633e-02
5.853548009725951795e-01,5.352524565322616112e-01,4.454991762461526505e-01,7.783997048617599668e-02,9.004382984523108535e-02,-7.091764712500728263e-02,2.695395052433013916e-01
4.590354141221059669e-01,3.669816115770396792e-01,5.677752416185827267e-01,-9.934592803822271667e-02,8.953042484821331984e-03,3.353552571972067027e-03,2.453389912843704224e-01
5.392936830668151327e-01,3.879413965206509607e-01,5.646386571079712313e-01,-2.154268003913450275e-02,1.331061755909240807e-02,1.086008917010483459e-02,1.722309589385986328e-01
5.360448799927384211e-01,3.816196410221779356e-01,5.639382175954660292e-01,-4.005144268535391211e-02,1.241372241566785807e-02,3.452346348708146273e-02,1.943782269954681396e-01
4.700563066641161858e-01,5.343844251177323201e-01,5.026481338620555350e-01,-1.350296239174909223e-03,4.925009662744932876e-03,5.053893280232229189e-03,5.708437412977218628e-02
4.909327987988476028e-01,5.322751841617420210e-01,4.871333787853007191e-01,-1.552485633761928720e-03,1.911072095186954227e-03,7.379109160446731003e-04,4.359502717852592468e-02
5.098041010633282966e-01,5.436875555407296723e-01,4.231264148187106611e-01,-1.398902147604069853e-03,3.563928350414004992e-02,8.193285162231415605e-03,1.249631345272064209e-01
4.757619341591051154e-01,5.431178666125757726e-01,4.981129596194075471e-01,3.116846367787825308e-03,3.338149486949596421e-03,5.562635345817449565e-04,5.995346605777740479e-02
5.014168993706448196e-01,5.427340669248450489e-01,4.726218303942654186e-01,4.970255916781527242e-03,5.867810217634442799e-03,-1.171256484935559233e-03,6.251011788845062256e-02
5.311051584316609508e-01,3.797795352145330039e-01,5.351862002618837932e-01,-3.984837796344067179e-02,1.459503587210188823e-02,2.908378626239249351e-02,1.774090975522994995e-01
4.820665149858364695e-01,5.339780832529080756e-01,5.001297408455813720e-01,3.656176669912981989e-03,4.338201407365869199e-03,-6.068315509164598845e-03,4.785851016640663147e-02
4.494605954066757114e-01,5.420880389658808696e-01,5.147214843900685954e-01,4.042967073560126481e-03,9.308983698406833943e-03,4.349746515834126970e-03,8.461469411849975586e-02
5.368775398136991228e-01,4.528062849251064392e-01,4.990766906293088723e-01,-8.360090958874230593e-03,1.141398855122732238e-02,1.343471610346096135e-02,8.037973195314407349e-02
4.935636671235129058e-01,5.191007279266376395e-01,4.895774102692154739e-01,3.734211690355585932e-03,1.301562647705534637e-03,-9.631118875739072766e-04,2.862738072872161865e-02
5.052183965604249982e-01,5.126135645160168064e-01,4.737416952542024551e-01,1.137540257782711055e-02,6.536992125802641024e-03,-4.213773706184458651e-03,4.298733174800872803e-02
4.917455836848106387e-01,4.922978915810493072e-01,5.150104030811112343e-01,1.566120427282151556e-03,3.750913891409475565e-03,-4.203913156481774681e-03,2.512553334236145020e-02
5.511653598577177515e-01,4.448669263880230540e-01,4.306258694344813898e-01,-1.042380653007959641e-03,-2.687655519200274085e-03,-5.740196418565928632e-02,1.514128595590591431e-01
4.773142238031239937e-01,5.964433118988357041e-01,4.867816733315496469e-01,6.344887836925172664e-02,9.239170153154560583e-02,-1.811765328067298578e-02,2.276493608951568604e-01
4.971837340976857922e-01,4.963058243100438860e-01,5.042688100681655960e-01,6.134006449078836624e-04,3.155033748506341339e-03,-1.031928370263959348e-03,9.559038095176219940e-03
5.495704056113013269e-01,5.622343828649105646e-01,3.694097559605479253e-01,-1.731020396059979949e-03,-2.041264348738627485e-02,-1.191604598655222370e-02,1.912714838981628418e-01
5.176289332947469068e-01,5.662191442364516991e-01,3.717279488930909093e-01,-3.375508989895001366e-02,-7.044853233073956889e-02,-8.447981650284096256e-02,2.654339671134948730e-01
4.848862235888763972e-01,6.540764497291390311e-01,2.775449438571805372e-01,-8.231106814096605939e-02,-1.922160895582423479e-01,-1.574405077632534677e-01,5.587707757949829102e-01
4.894670127730870179e-01,5.150827878621900835e-01,4.989831308310967994e-01,2.758642998671405940e-03,2.393750204248747300e-03,-5.360156819572067799e-03,2.508338168263435364e-02
4.883877233502439408e-01,5.024679912292328021e-01,5.175326247541063296e-01,2.528312290832332183e-03,2.685870717611332260e-03,-5.885142686810157682e-03,2.796488441526889801e-02
5.059855542312002852e-01,4.958758227580677413e-01,4.926732010099174608e-01,4.586921203880264114e-03,1.723400649611939910e-03,-3.085004294746862032e-03,1.566597260534763336e-02
5.551730209473788591e-01,5.885213738445460585e-01,2.314893715530627061e-01,-2.658827714012143920e-02,-1.092753236095651698e-01,-1.036817997861397556e-01,4.322862327098846436e-01
6.074943498859030067e-01,6.043222748919020448e-01,4.059150706577502321e-02,3.563121518647875685e-02,-3.263462922688411399e-02,6.180586156371831869e-02,5.814244151115417480e-01
5.304321239614492312e-01,4.927301657502319299e-01,4.675568666849614363e-01,9.034095386492829727e-03,8.876950001605410021e-03,-2.408770991257630847e-02,7.229186594486236572e-02
5.559814996637264528e-01,5.463786681971873893e-01,2.738648468153109250e-01,-3.793637920216438170e-02,-1.014685716852476993e-01,-1.248280111927630304e-01,3.986528813838958740e-01
4.945421378276172453e-01,5.018331898675829628e-01,5.050426431443192365e-01,1.672814727312290804e-03,1.975196517844630267e-03,-4.431268691553360076e-03,1.287897024303674698e-02
4.912070605995771944e-01,5.054020811880666209e-01,5.068172452766658287e-01,-1.542970822162779976e-03,2.047972085739268016e-03,4.320045009971945800e-03,1.730036921799182892e-02
4.905089169135338767e-01,5.318437486138790637e-01,4.824119561382408383e-01,-3.924011123306091718e-03,6.248349084245164060e-03,1.802046162793188508e-03,4.776899516582489014e-02
4.956482909774237444e-01,5.048282725714574593e-01,4.966897300302707818e-01,-8.178466041122259582e-04,5.820929684362829721e-04,3.140859479120041136e-03,1.041222270578145981e-02
4.930718351027406632e-01,5.047571123316539898e-01,4.985647258864547293e-01,-1.482120376657284971e-03,2.519716033974346309e-03,4.441087371224007943e-03,1.368715893477201462e-02
4.899074265548653551e-01,4.924544897431261670e-01,5.121258422210626104e-01,-6.032819609119822535e-04,2.291047474394019776e-03,3.683161466002267057e-03,2.238502539694309235e-02
4.861982554359968178e-01,4.820955335349722537e-01,5.177705804336513173e-01,-6.919774163714156011e-03,5.401390751399793785e-03,2.102974814353984929e-03,3.725075721740722656e-02
4.994136155915505082e-01,5.066915404284670910e-01,4.975914326710809688e-01,-7.929894791371039277e-04,1.674586497228492364e-03,1.430935045066679271e-03,9.273197501897811890e-03
5.959865430418689325e-01,3.993128829075978103e-01,7.874481049869743732e-01,-1.581048792737115016e-01,1.047689478458362217e-01,1.273394001144728394e-01,5.191921591758728027e-01
5.741953071677425857e-01,5.982867043556381326e-01,3.354699155546951861e-01,-2.589966549508053179e-03,3.210649958258211117e-02,-1.262822801280378019e-03,2.577573060989379883e-01
5.625003473442790058e-01,5.546232475045370647e-01,3.794591802091551447e-01,7.521213373281323070e-03,1.029125963743315886e-02,-3.542780851565589459e-03,1.806913763284683228e-01
6.065851307708678419e-01,6.007111206037987206e-01,3.343175538661871116e-01,-1.571946784893496615e-03,-3.493605461825536468e-02,-4.848703320376617637e-02,2.885945439338684082e-01
4.900678197875462661e-01,5.232711777344858373e-01,4.866015031074757968e-01,-4.527618104012594291e-03,5.978910109147681819e-03,2.721241578568263288e-03,3.768988326191902161e-02
3.022501182661715413e-01,4.029044777815579126e-01,6.124808189884274334e-01,-2.167609771452184697e-01,4.342949454584697083e-02,4.271449785450309733e-02,4.766930043697357178e-01
4.912078897169563363e-01,5.245372718053171734e-01,4.930990618274510018e-01,-1.339457988456136664e-03,7.681078264142781253e-04,3.543388604155233400e-03,3.310909122228622437e-02
4.119949398175409838e-01,4.149304314880528644e-01,5.704868809052792145e-01,-1.054466100427967207e-01,1.501376513197416433e-02,1.109917558348883296e-02,2.430346459150314331e-01
3.658869851675303764e-01,5.554547517934605994e-01,6.093300295270132061e-01,-2.183103724846137753e-02,5.162007216624785177e-02,4.643560571794792119e-02,2.548410892486572266e-01
4.874153820439404705e-01,5.268219598300381001e-01,4.883031304033228492e-01,-8.094275102265190624e-04,1.724387416451977906e-03,3.141496043466713867e-03,3.948640823364257812e-02
5.016179994929368391e-01,5.012105774651430812e-01,5.034244787649266861e-01,-2.634794688185349617e-03,2.426449893467997297e-03,3.935677411774036148e-03,9.440520778298377991e-03
4.573262592812698535e-01,5.284248945553264853e-01,5.007166838782114437e-01,-4.355161337916096768e-03,4.609609693019442803e-03,7.941110292338390830e-03,6.451803445816040039e-02
3.119551374348242812e-01,5.479547881667946596e-01,6.153805292507377178e-01,-2.106538866092985962e-01,3.674471105720313741e-02,3.536461547859432591e-02,4.659208059310913086e-01
4.919766812218869245e-01,4.642730950156641057e-01,5.483007237611219331e-01,-2.525438341533683614e-02,7.597024054885400876e-03,6.822001125787101501e-03,8.789982646703720093e-02
3.751286623910514151e-01,4.970862724209499373e-01,5.823090210526666866e-01,-1.133731811127289268e-01,-5.160118393060616170e-03,-2.791783571234612502e-02,2.711248099803924561e-01
4.924560801404208044e-01,5.155440305945521162e-01,4.974566956197619683e-01,-1.473159926644701870e-03,1.851566721465615134e-03,1.751572604202919319e-03,2.164728939533233643e-02
4.281569244924314233e-01,5.014072486949758822e-01,5.532659771664841797e-01,-9.078399439113133892e-03,-1.511763050680088767e-04,-9.145591329073043127e-04,1.100156158208847046e-01
4.852215252172041304e-01,5.346531270989652862e-01,4.900380168054509489e-01,-2.667752444290425102e-04,1.813429070946500710e-03,-3.922855666553278875e-04,4.731950536370277405e-02
3.986409803699612620e-01,5.316420481367331030e-01,5.633936961583969616e-01,-3.760650382332799552e-02,3.339817951154736009e-02,1.561380923586678723e-02,1.767509281635284424e-01
4.751831091787208639e-01,5.352794614412030860e-01,5.004210693103446905e-01,1.350392011481865761e-03,2.644843535489479602e-03,2.753015369801950496e-03,5.273528769612312317e-02
4.986847903472138577e-01,5.314141117025679151e-01,4.548173469758854393e-01,1.138171338757725665e-02,1.283436613181808059e-02,-4.594703849974934515e-03,7.333102822303771973e-02
5.128138994120072791e-01,5.459733720731787532e-01,5.169660754209616238e-01,6.739264391754230810e-02,7.232253057067247748e-02,-4.971553843290106578e-02,1.941931098699569702e-01
4.853672839512058190e-01,5.352830130921679697e-01,4.901371030901903181e-01,7.828258134924867117e-04,1.560875906228453803e-03,-9.217933063231721928e-04,4.783240333199501038e-02
4.361361245331374925e-01,5.404975724886501576e-01,5.156522214537609949e-01,-1.404887593889533361e-02,5.421194234364652004e-02,2.926996947725553008e-02,1.445503979921340942e-01
4.902811220692613881e-01,5.286844984326033448e-01,4.936873137385608401e-01,2.014360411079147480e-03,1.590902858963177437e-03,-3.112835046536722387e-03,3.747595474123954773e-02
4.896895028670639194e-01,5.270849762358851276e-01,4.897577414137853635e-01,2.274000638461315046e-03,7.704122214914200899e-04,-9.138399765220520804e-04,3.762543573975563049e-02
1.710058458690492666e-01,6.199130167480753073e-01,6.197572946420999429e-01,-1.174858536480135988e-02,1.233880374112452175e-02,4.206707656518093863e-02,4.556616246700286865e-01
5.332963549646806412e-01,4.921296201934305947e-01,4.742339877079719268e-01,-4.183361368153731483e-03,5.641243286908829806e-03,8.344597963471006574e-03,5.575417354702949524e-02
5.081280047508928144e-01,4.873723336509258042e-01,5.047695583177020939e-01,4.256005922664016575e-04,8.205631945785685569e-03,2.243824204034092305e-03,2.429022639989852905e-02
4.899075792779435390e-01,5.150382217886242397e-01,5.031805857731401765e-01,2.641055195351627895e-03,1.452719210621743456e-03,-7.012620604922139948e-03,2.547449618577957153e-02
4.974618969936844270e-01,5.173316564852378230e-01,4.840889331827283870e-01,7.024277085556003032e-03,5.010907793162273048e-03,-3.181543429767593259e-03,3.306170925498008728e-02
5.017176238621503526e-01,5.489674794239483013e-01,4.556080888679690521e-01,-5.559549378747982197e-03,1.758230852863134838e-02,-6.397296726591374973e-04,8.694063127040863037e-02
5.120981727479790857e-01,4.744326922576805328e-01,5.068853365105451259e-01,-4.266067445900217914e-03,1.202400008344592548e-02,6.019024105283998956e-03,4.297129064798355103e-02
4.946669729350609557e-01,5.154247207240221229e-01,4.971652670499876470e-01,1.679843332820072591e-03,6.172958993680797025e-04,-3.174881641121376965e-03,2.061831764876842499e-02
5.083037159430456864e-01,4.936451908136162969e-01,4.960189154388144894e-01,-4.868693491691801316e-03,4.726285843489148528e-03,5.047042319205534248e-03,2.000638470053672791e-02
4.987657138328774331e-01,4.999758773657823063e-01,5.052853615290188172e-01,4.929354227649591176e-04,1.421919178173205360e-03,-2.162691093226894960e-03,7.543651387095451355e-03
5.019516548994796823e-01,4.968722754139043296e-01,4.963259155538252698e-01,5.213744912092346286e-03,2.212940020226047012e-03,-1.219596724687575231e-03,1.138317771255970001e-02
5.065957330879707898e-01,4.873545406308668615e-01,5.099733214227739619e-01,-9.133588824841066753e-03,1.091729768580730967e-02,1.317191676496579783e-02,3.968561440706253052e-02
4.925983000443620585e-01,4.913797419182143189e-01,5.150029468537813404e-01,1.420075219147633877e-03,2.966140621112251397e-03,-3.249075172668180675e-03,2.438990958034992218e-02
5.233251962951532832e-01,4.862666858402138748e-01,5.015185362258670621e-01,-6.382030396409190537e-03,1.098048458906260641e-02,1.528267589139195234e-02,4.717335850000381470e-02
4.983355622388564998e-01,5.015796887612442578e-01,5.009700178171467844e-01,1.195981478569445831e-03,1.073004018624169496e-03,-2.401801783963661632e-03,5.828317720443010330e-03
4.988355021176142379e-01,5.013183181912113096e-01,4.995043873603115525e-01,8.566025264854037037e-04,8.231809404855120220e-04,-1.565476968448825147e-03,4.066620487719774246e-03
5.463053767137863170e-01,5.304307497233273772e-01,4.164483784811892075e-01,1.281224010494375065e-02,3.096583865900397366e-03,-7.900659727976150695e-03,1.255464106798171997e-01
5.399856885486480351e-01,5.319276278199830399e-01,4.159102889420607796e-01,1.083696994411962981e-02,4.073271445256429653e-03,-8.226687381096003601e-03,1.227393969893455505e-01
3.622986132092270717e-01,5.832694763842385388e-01,6.048240138385162501e-01,3.959495791903541034e-02,1.429668661644976219e-02,4.091849741798855855e-02,2.537618577480316162e-01
5.952607920152126475e-01,5.124501551484582640e-01,3.749612737641377924e-01,5.072939781078517757e-02,5.800203248676598367e-02,-1.015590457056382151e-01,2.930907309055328369e-01
5.569306016535587878e-01,5.573520801290016147e-01,3.633362512722002058e-01,7.074375270349625433e-03,-3.665904999983040161e-03,-9.101671125965854481e-03,1.949346661567687988e-01
4.988522042645252008e-01,3.816612932223385490e-01,5.331329034908987019e-01,-7.273836598917510221e-02,-4.282332531177626689e-02,-4.214846022717703283e-02,2.136114686727523804e-01
6.546620113307580757e-01,5.650022835169404845e-01,3.241214527619210584e-01,-6.708481114912645538e-02,-1.209895205474707247e-01,-2.056415322408386981e-01,5.214802026748657227e-01
5.530246259083134719e-01,5.569763546296454537e-01,3.883630744052700701e-01,1.834404515184733181e-03,1.515514340082870209e-03,2.377064642015532664e-03,1.667743325233459473e-01
5.261076052331195019e-01,4.950651700217249540e-01,4.668214447678669110e-01,-1.070352240666623544e-02,2.268363991828629966e-02,2.450756322980432791e-02,7.954429835081100464e-02
4.940786140193965115e-01,4.939535411584902724e-01,5.150638148091799540e-01,3.134427148644175921e-04,1.984007917252122652e-03,-8.724883880170849733e-04,2.138705924153327942e-02
4.470093373628897249e-01,5.162025085344050801e-01,5.435868227370110883e-01,1.179182180230720078e-02,2.243099448827582873e-03,3.767206465677748039e-03,8.892251551151275635e-02
4.895006067129700211e-01,5.320273849369149266e-01,4.873675497302157877e-01,3.540473733145611639e-03,1.350304939662638369e-03,4.571287091863733142e-04,4.413038119673728943e-02
4.346542624912275166e-01,5.855216667682079379e-01,2.732308254621917953e-01,1.014692028316901105e-02,-2.109681719871119576e-01,1.130946233143741327e-02,4.553979933261871338e-01
6.673494459639668364e-01,5.822973771982026259e-01,5.315286959844688353e-01,2.152485940190465574e-01,1.856710141372020506e-01,-1.393359038183186738e-01,5.610613226890563965e-01
3.877407213766522753e-01,5.444086186136657401e-01,5.531038194760601323e-01,3.663862080764684805e-03,-7.885765437821235305e-03,1.199296166295787600e-02,1.632207632064819336e-01
7.859575445533453220e-01,4.978615951426625941e-01,6.267927302246435461e-01,2.996256928314362106e-02,1.092297883072275572e-01,2.706120148664099556e-01,5.662660598754882812e-01
4.720657837242127619e-01,5.171450411486085974e-01,5.305704740063292846e-01,7.358955410285421446e-03,4.369696503862398156e-03,-4.206942215067968616e-03,5.559164285659790039e-02
5.435973465211910716e-01,5.000662534604194409e-01,4.602756034156327836e-01,-3.858492161172442404e-03,5.909021149019954774e-03,1.291201827934645302e-02,7.655034959316253662e-02
3.698009650039130181e-01,5.608133389361245058e-01,5.703828081624775503e-01,-1.402927020924436764e-04,1.054810804858608302e-04,1.029987039996467513e-02,1.967829912900924683e-01
5.039556825901666537e-01,4.776412285184548634e-01,5.290398091064349995e-01,3.672279768090447229e-03,6.946963870014008328e-03,-7.221626991706785355e-04,4.656760022044181824e-02
5.609532379578104910e-01,5.233457399057559467e-01,3.860446453251887844e-01,-8.710299930195994356e-03,-1.006030683521378678e-02,-6.652888817931575105e-02,1.980883181095123291e-01
4.783419836666358838e-01,5.144411915545241687e-01,5.177021140434068247e-01,5.150427755061183673e-03,5.001290707149538828e-03,-7.320422036060409907e-03,4.179579392075538635e-02
2.858378497537503726e-01,7.203913777499443283e-01,7.866576271595941972e-01,-5.421558047670860941e-02,1.050610780625280960e-01,6.152749217181570363e-02,5.247023701667785645e-01
3.740531857709146202e-01,5.575814736371342839e-01,5.610888783889645959e-01,-7.799502798807743734e-03,-1.451806931603694508e-03,4.177723128921045220e-03,1.859565079212188721e-01
5.441720623850146987e-01,5.284130622517838605e-01,3.927640350550516968e-01,-6.418805497581250158e-03,-8.487148831420932016e-03,-1.287759390150915173e-02,1.470506489276885986e-01
5.061392934335832150e-01,6.190437410236444560e-01,4.168063618414443727e-01,-1.231769308948252040e-01,-2.060207372665150138e-01,-1.405342389444906581e-01,5.127521753311157227e-01
5.549388401981554253e-01,4.860222661857002691e-01,5.067289597399269319e-01,2.682665685747879364e-03,7.366712311599548334e-03,3.152536514312200000e-02,8.316951245069503784e-02
5.428445897672840026e-01,4.719292002414653964e-01,4.306756401184602678e-01,2.706421947941215628e-03,-1.312132257399834228e-03,-2.047295409425296808e-02,1.045988798141479492e-01
3.734572411516858814e-01,7.237990553953085326e-01,7.507505868828699969e-01,1.939589907249634204e-01,-3.897723522372872201e-02,1.050708401563855976e-01,5.323960781097412109e-01
5.567844609804064593e-01,4.521707896823671802e-01,5.417159651732351699e-01,-1.449647137067452615e-02,5.495487215811363513e-02,8.992989723914769640e-02,2.086801975965499878e-01
5.114464135739508199e-01,4.932435202349538250e-01,4.889669763865011065e-01,4.680066870116771256e-03,4.119861261626150267e-03,-5.349621455152846553e-03,2.509908005595207214e-02
3.584451116805095205e-01,5.504082007086481543e-01,5.540979826103069605e-01,-9.562159059699247912e-03,-1.019866162974028025e-02,1.872213831505163727e-03,1.953678578138351440e-01
4.861090836401910642e-01,4.169445048713056323e-01,5.407839398397141784e-01,-6.451885520586839173e-02,4.251491880252315780e-02,4.123011334131353178e-02,1.859166771173477173e-01
4.937452381479257024e-01,4.915970698765004254e-01,5.225028290726906333e-01,1.206464488904807238e-03,4.752638153872161542e-03,-2.591746222363801658e-03,3.139539062976837158e-02
5.079395269060600349e-01,5.199471199363430163e-01,4.683790300554536712e-01,1.004342557996025335e-02,-3.851070257855316800e-03,4.367031639795425357e-03,5.087787285447120667e-02
4.853309663803169194e-01,4.536967064777074898e-01,5.275133993821250478e-01,-1.483098903179444483e-02,9.464097904156970956e-03,4.399887753799439430e-03,7.142236083745956421e-02
5.037236856022728748e-01,4.486466472030835595e-01,5.357729243438863476e-01,-8.311089872938388912e-03,7.166832479748945148e-03,2.379361111457896708e-03,7.876615971326828003e-02
4.860951399469120027e-01,4.927139284007627240e-01,5.186003005896585583e-01,-2.421026515215855823e-03,1.435158069671136011e-03,1.021135258203775473e-03,3.020166046917438507e-02
5.424794525729871308e-01,4.089918989063798249e-01,5.446245199560398875e-01,-8.288720785800675686e-03,1.494969154792268572e-02,4.773088015876273370e-03,1.380391418933868408e-01
5.761779475984933896e-01,3.021323207578137104e-01,5.246802312034629656e-01,9.530953142040447801e-02,-1.526478916348804511e-02,1.458774851257985394e-01,3.942483663558959961e-01
4.376971070971305555e-01,4.811449828219635516e-01,5.522127670915711883e-01,-1.480204433229366165e-02,4.843106531596738109e-04,-3.343078485752633191e-03,1.035259664058685303e-01
5.353080124166824660e-01,4.789308039021692998e-01,4.719242312547921037e-01,4.594513894236149261e-03,2.313767891553095233e-03,-8.975579816294531124e-03,6.279780715703964233e-02
5.527542200406480033e-01,5.193981955040294363e-01,4.616388917631633615e-01,4.466291849209798673e-03,-4.553320985309535483e-04,7.981861630409847405e-03,8.140625059604644775e-02
6.198974586632072237e-01,1.369372129646709291e-01,6.180816836038141027e-01,-9.851079995963590852e-02,3.306338122916703537e-02,-6.582733791912344194e-03,5.146840214729309082e-01
5.738194933483540261e-01,3.757973029141649102e-01,5.635304993028065201e-01,7.833644235986184437e-03,2.802885285616779978e-03,-7.100532864366342067e-03,1.940106153488159180e-01
6.072909167915488959e-01,5.710761704208183742e-01,3.425932876421735607e-01,-3.614706995730142258e-02,5.212566169624324036e-02,1.586105745447135840e-01,3.864368200302124023e-01
5.336217119745211290e-01,4.849809966351166235e-01,4.525820873366585007e-01,9.443852484248961218e-03,2.209863512871145137e-03,-1.185504727211578353e-02,7.546754926443099976e-02
5.321851745129825284e-01,5.253904202678448820e-01,4.049359393983754662e-01,-1.999140001769531688e-02,-4.003848324767132066e-02,-4.575887505849726006e-02,1.663242131471633911e-01
5.372810093367410555e-01,4.654010863616534488e-01,4.776835972289967258e-01,2.074832768315307188e-03,6.311935424367114654e-03,-8.694085794740871037e-03,6.923810392618179321e-02
7.296783289409655149e-01,2.862310062345884143e-01,7.711269479213351818e-01,-7.200657130946706841e-02,1.054073523591248646e-01,1.045694595378251768e-01,5.462921261787414551e-01
4.641087600373643984e-01,5.273681651153784289e-01,5.195742572604142850e-01,-3.983815822429909691e-03,5.937967081967979004e-03,1.028563066090000012e-02,6.356282532215118408e-02
5.494686293680446365e-01,4.917354474297714884e-01,4.707119099260773654e-01,1.056838944146550746e-02,8.489147358640756688e-03,-2.496517369267459846e-02,8.608085662126541138e-02
5.597631689043253145e-01,3.880024265754355994e-01,5.437749032047616282e-01,-1.250179026395145145e-02,6.085942359169106350e-03,4.759689240192459779e-03,1.663105040788650513e-01
6.100713903423168327e-01,6.012419438955403095e-01,3.692085920844646596e-01,8.683377914935327957e-03,4.711503882678749061e-02,3.204123969636215458e-02,2.567718327045440674e-01
5.015726007941661013e-01,5.524718482417083631e-01,4.169155658057014935e-01,6.164193815788983344e-03,-1.242938819674436340e-02,-1.066927195272754630e-03,1.210264563560485840e-01
5.177196602242400969e-01,4.277175489982221190e-01,5.395552444741530396e-01,-1.938866321882403224e-02,1.132044262519587771e-02,1.624932290132848024e-03,1.098296865820884705e-01
6.256864202098393335e-01,1.922734473647300102e-01,5.537191978655815472e-01,-1.491040400184443643e-02,4.305099246492519877e-02,1.218368215037387570e-01,4.610795080661773682e-01
4.879428598057466426e-01,5.034985582657914849e-01,5.050240678335814470e-01,1.476554180489962533e-03,-2.003895531242235427e-03,6.018629150845208886e-03,1.988206245005130768e-02
4.934640064418085448e-01,5.480815083491391571e-01,4.185806566346034208e-01,2.560238669959600741e-02,-6.248388667641326111e-02,3.639508500899296672e-02,1.741651296615600586e-01
5.277669262814242979e-01,3.949488354912353838e-01,5.601745036422800528e-01,-1.367113829382350307e-02,7.446220813770679237e-03,-1.721768349778862164e-03,1.540491580963134766e-01
4.975483462837644311e-01,4.942342833093644749e-01,5.142357731376822061e-01,-1.125311732853939928e-04,3.035867347220270584e-03,-7.259966828203702526e-04,1.933972910046577454e-02
5.272698317757270603e-01,4.701263182380628347e-01,4.669137962756818028e-01,8.135719999940576111e-03,7.128362359304583548e-03,-1.718739088017937414e-02,6.853105872869491577e-02
7.819281407835535491e-01,4.086144740486156723e-01,5.544816257854620067e-01,1.873468181987302320e-02,1.265621295260644374e-01,1.725479324167165651e-01,4.945820271968841553e-01
4.381582295584505737e-01,7.369668005101972508e-01,6.886589670630360871e-01,-7.818976371601144004e-03,2.006896901198095828e-01,1.064126022921982884e-01,4.818389713764190674e-01
4.268683696099258573e-01,5.525221527723707116e-01,5.585389799983712100e-01,-7.610567327553483842e-03,2.233180915655359755e-02,1.616060466355108069e-02,1.379655748605728149e-01
5.163847716472113047e-01,4.569884700541090861e-01,5.333712638257306349e-01,9.411410020191900497e-03,1.245093701275646302e-02,-4.476885409928764437e-03,7.494214922189712524e-02
5.921928895972164986e-01,3.448782169932297359e-01,6.155811352778071122e-01,-5.617224507443936699e-02,3.316252215458634356e-02,3.274744891137845726e-02,2.889259755611419678e-01
3.827118980675350279e-01,5.365011515985853574e-01,5.441435298273177290e-01,-3.048934138027830157e-02,6.723887017458905638e-04,7.584698348569022565e-03,1.668759882450103760e-01
4.023020988275847198e-01,5.983463097821456467e-01,4.645383238144097926e-01,-1.426504300152825651e-02,-1.237084149978807113e-01,-1.466616158646066349e-03,2.768282294273376465e-01
3.761371631726520559e-01,5.467853202441871341e-01,5.686708154755707456e-01,-1.236143610550306284e-02,1.921840480133603628e-03,-1.215880299996306436e-04,1.838587224483489990e-01
2.684558976076856784e-01,7.809889770368549922e-01,7.008620804131847626e-01,8.283616610081485920e-02,2.210130461505646349e-01,6.888236826060643858e-02,6.398460268974304199e-01
4.910253585732972104e-01,4.966209912313267472e-01,4.646618638931085954e-01,-1.078189297794283734e-02,-7.965032594237128616e-03,-5.334139952135095487e-03,3.870784863829612732e-02
5.556366801259896571e-01,3.632636433809233178e-01,5.627628621638424145e-01,-1.575267360848663922e-01,5.265583386822091788e-02,1.592461727559414397e-01,4.441497623920440674e-01
4.944507120197847438e-01,4.912748552510388111e-01,5.214253080472169843e-01,1.124845352552826744e-03,3.278226539434885185e-03,-1.417665571226519672e-03,2.941849455237388611e-02
3.617844562298966893e-01,5.646378130247636795e-01,5.791111643433628497e-01,-6.527497895065442757e-02,2.623692381951573879e-02,-1.940530327593222503e-03,2.432155907154083252e-01
1.948336809324962005e-01,5.992778332284626197e-01,6.090148765381695473e-01,-7.083674642690325485e-02,9.189914267018584959e-04,1.834320470280712337e-02,4.285714030265808105e-01
4.624835567702816341e-01,4.605896135840139016e-01,5.154147089688735361e-01,-2.416190772671955242e-02,-1.755309671501036062e-02,-1.745083380017662528e-02,8.059071749448776245e-02
4.567536182104877107e-01,4.690953336245646810e-01,5.554376119302116832e-01,-6.968829150516472892e-02,-1.251436179048369228e-02,-6.564450341088168446e-03,1.544065922498703003e-01
4.211303699980470938e-01,5.367464410454136914e-01,5.630016509640042299e-01,-2.589507563807637303e-02,3.155750145506206177e-03,1.205703256287180003e-02,1.398913562297821045e-01
7.216432020321694729e-01,7.655131171235246557e-01,2.389121219119602069e-01,3.222358849935312575e-02,-1.254889755690219988e-01,-5.709466811268570918e-02,5.623772740364074707e-01
5.545077933333563136e-01,4.137886895867776693e-01,5.610700112714180898e-01,1.236735002704594279e-02,-1.531260331501219703e-03,1.221550394172789310e-03,1.457351148128509521e-01
3.860229528042264935e-01,5.309788491069933336e-01,5.636807216156400901e-01,-8.671473548971922463e-03,-3.899931428624331051e-03,9.466161986018810717e-03,1.654146015644073486e-01
5.380303574000933065e-01,5.042306795119809726e-01,4.793370547796432790e-01,1.675696456305548207e-03,1.015398212740548090e-02,2.892605720648879636e-02,7.369797676801681519e-02
3.566685564664481278e-01,5.668192134144891536e-01,5.135995431865889582e-01,2.014745579907372894e-02,-6.787508497614241909e-02,1.694041508761779530e-02,2.274010926485061646e-01
4.850405582235959856e-01,5.315805666619458636e-01,4.579296967716428579e-01,-1.160471266250732818e-02,-2.147818992813889730e-02,-1.060215823681697617e-02,7.929611951112747192e-02
4.042427070417041746e-01,5.751629303855565478e-01,5.671660586869191611e-01,1.480761590406253110e-02,1.128661381026136237e-02,3.171108603111300224e-03,1.702379882335662842e-01
3.881624487892231801e-01,5.102769283810172363e-01,5.419858799622417900e-01,8.378397123136592517e-02,-2.291564723540865517e-02,1.947816717250883123e-02,2.087159901857376099e-01
4.857847879980681793e-01,5.458457678002422986e-01,4.739139458115620984e-01,5.866648826872010447e-03,-2.372879317026003586e-03,4.940361123410319175e-03,6.822447478771209717e-02
5.439332091743553921e-01,4.331646679468600936e-01,5.211353010036225974e-01,1.104657123419164159e-02,-3.301805119914582708e-03,2.108506968839971019e-02,1.095292195677757263e-01
4.097815457468063638e-01,5.606143012043809382e-01,5.406245991877340895e-01,1.978216006094674420e-02,-2.720049270486219264e-02,1.231457952177165971e-02,1.548662483692169189e-01
4.730146888169206032e-01,4.258722088646212378e-01,6.427588368655753337e-01,1.140368128028998729e-01,-4.730144972875268555e-02,1.224314895482051524e-01,3.601826131343841553e-01
5.566388286950825215e-01,3.324318238546907223e-01,5.486699530836622873e-01,1.110186159944105133e-01,-1.296927012450004371e-02,9.875990486483320063e-02,3.395381569862365723e-01
4.872465293636579764e-01,5.317596844639146392e-01,4.869938656954891920e-01,5.088763807263993119e-03,1.124547132211308961e-02,-3.056865948233469799e-03,4.977783933281898499e-02
5.281427340012386784e-01,4.221150653801192254e-01,5.534323868934641899e-01,2.329801813094208029e-02,1.763101886291489734e-04,1.862836829869657460e-03,1.272860318422317505e-01
5.171794051691203098e-01,5.167870533451630610e-01,4.777032004752911898e-01,-7.106693951133993478e-03,5.380624230725800962e-03,5.095910306124111673e-03,4.311971366405487061e-02
4.111517338333132154e-01,5.242812647067255361e-01,5.431341345806666165e-01,2.307796660708907530e-02,-4.588696220081356532e-03,1.106622204790378566e-02,1.315859705209732056e-01
4.726094829730627667e-01,5.157705666991595495e-01,5.369222364106998047e-01,7.368157591190687729e-03,4.415792504295551479e-03,-6.185741194653962896e-03,5.966035649180412292e-02
4.223879976700269934e-01,5.454988533004609952e-01,5.345905043599473716e-01,5.457949509839512756e-03,5.237243466369057888e-03,4.857398065976698464e-04,1.187632083892822266e-01
4.946040961435349548e-01,5.048410718706130007e-01,5.026271059920414119e-01,1.092635502393034296e-03,1.487781207860032007e-03,-4.667035172325377859e-03,1.275141909718513489e-02
4.053892144850199664e-01,6.183112478127468226e-01,5.857600467766802543e-01,2.224370907522131222e-02,8.169274779452190272e-02,2.524096250420969703e-02,2.507614195346832275e-01
5.278970432293308424e-01,5.525169871263081456e-01,3.857439931514298759e-01,1.548960730918910083e-03,-1.459987940235081549e-02,-3.284261356174969851e-03,1.580900251865386963e-01
5.416125109167015950e-01,4.323110229843702412e-01,5.905726842306052715e-01,4.716083312485559037e-02,-2.327359706020798013e-03,1.546334890430611786e-02,1.646249145269393921e-01
4.412605846463714121e-01,5.227100365487568068e-01,5.005466397498836706e-01,-5.492548366430988725e-03,-8.074934221654067254e-03,-1.204871121229227245e-02,7.772815227508544922e-02
2.243371946454886801e-01,7.629921002723556445e-01,7.306917509153915136e-01,-2.713945824069046581e-02,-8.056379146975191363e-02,6.882698809462385603e-02,5.564947128295898438e-01
2.685553511408814709e-01,7.772621983877967544e-01,6.482980621444659475e-01,1.120136279427407996e-02,-1.700867523183870467e-01,6.229737258871290845e-02,5.555333495140075684e-01
1.930574881904870144e-01,6.007776640955634351e-01,5.932988315954150771e-01,-5.561383430620517321e-02,-1.213500001472217760e-01,-1.557237913106119956e-03,4.655167460441589355e-01
5.003449972166547077e-01,5.472412866289851907e-01,4.229572673129641247e-01,-5.214915142490702052e-03,-1.069558790635860568e-02,-3.231878194923777734e-03,1.107855066657066345e-01
4.267173030714686011e-01,5.560533471569473196e-01,5.474110157613065741e-01,-1.851395643852699335e-01,-1.755410719083712878e-01,-1.173300909720184221e-01,5.022526979446411133e-01
4.614850742254992810e-01,5.325472434168372349e-01,4.661579494500352472e-01,-2.684780608702755627e-03,-6.648165685379880604e-03,-6.726092772258956791e-03,7.091926783323287964e-02
4.823906061245323285e-01,4.286623180101920561e-01,6.707475823882839139e-01,1.867114515569525957e-01,-6.448794770707248769e-02,5.487098434282508541e-02,4.178244173526763916e-01
4.928690987498942078e-01,5.174351024470109639e-01,4.885347424288365992e-01,8.456861524098580052e-03,9.908152402140298423e-03,-7.630366554052003467e-03,3.758311271667480469e-02
3.779418465280179884e-01,5.681683322982939988e-01,5.595472176002501685e-01,-3.061758166781961433e-03,1.683921337224867504e-02,1.777805941652462265e-02,1.909121572971343994e-01
2.107967952432080461e-01,6.263455398898138959e-01,7.765776548557723480e-01,7.879394186110617870e-03,1.184993648615752238e-01,4.424303893651874986e-02,5.530498027801513672e-01
2.840972398635350782e-01,5.818239857492186751e-01,7.653297622614059215e-01,-2.195746911534312840e-01,-5.740341377506130022e-02,5.383554040828236222e-03,5.758139491081237793e-01
5.440005973406168982e-01,3.818828151480314625e-01,5.463753876484086502e-01,3.231124444672046209e-02,-9.889764978751354810e-03,2.937672488345184629e-02,1.807961761951446533e-01
5.643151445428320478e-01,4.344539980167043680e-01,5.336932385118147160e-01,1.037952698083765592e-02,-3.134984273566541330e-03,1.818389080183817688e-02,1.231652274727821350e-01
4.028666598617625660e-01,5.271893053665221984e-01,5.488831163058477403e-01,-1.073725665057510999e-02,-8.227209157668266548e-03,-2.201456445344251132e-03,1.385180056095123291e-01
4.035668583883896265e-01,5.281557608157256833e-01,5.541269593877058419e-01,-1.074142239316867690e-02,-8.028998484812146022e-03,-4.749767128158152718e-03,1.415621042251586914e-01
5.400517058098988077e-01,5.171364887619397388e-01,4.390099386212721333e-01,6.484845886503568836e-03,-3.359517683518415711e-03,8.330397265014610753e-03,9.374090284109115601e-02
4.776781317233005364e-01,4.939729112844356562e-01,5.455792010916159507e-01,3.249292551804966456e-02,2.771391505702576821e-03,2.008995365047861956e-02,9.039288014173507690e-02
5.623460815026133375e-01,5.631319924978666069e-01,3.617402669646507252e-01,8.229495245893135580e-03,-1.763911732151072576e-03,-5.438469960450807890e-03,2.017478793859481812e-01
5.693770621362659323e-01,3.773610844328587621e-01,5.712964426787829897e-01,1.559011009427009598e-02,8.753393520469434849e-03,3.726927849425732981e-03,1.955583393573760986e-01
5.012473698886512619e-01,5.304114983791796689e-01,4.315381137414679991e-01,-1.274229973696815697e-02,-8.331935404327760891e-03,-7.442920027943504720e-03,9.276039153337478638e-02
5.587189700340791099e-01,5.589319557455633136e-01,3.780639474330355077e-01,3.441240137528529287e-03,6.726518497247222471e-04,2.580991035407311559e-03,1.809188425540924072e-01
4.862609754155794439e-01,5.246769024036900264e-01,4.759271848936069138e-01,6.000692268405864553e-03,-5.273589026214215228e-03,4.083082885758988756e-03,4.712774977087974548e-02
7.207692120045506856e-01,7.485780244081561285e-01,2.603364197738843311e-01,4.777810022961176406e-02,-1.065737783226358565e-01,-6.114448236719952079e-02,5.269856452941894531e-01
5.274960247125921597e-01,5.264356185768268581e-01,4.180597141473413880e-01,-1.152527575935789576e-02,-7.830247856816354227e-03,-7.879954880714783866e-03,1.123837158083915710e-01
4.855118902758931432e-01,5.443625474670756859e-01,4.440835526904262642e-01,3.308854825052482134e-04,-1.896646279657958692e-02,-1.278779130064706254e-02,9.585344791412353516e-02
4.623967519087524014e-01,5.426738945987419349e-01,4.768869479651091092e-01,1.562939935337985531e-02,-3.698523075691442091e-02,9.661715951598481844e-03,1.029939651489257812e-01
4.833239636773011272e-01,5.176045203128417649e-01,4.845432997368985251e-01,8.404527817421460559e-04,3.682941178088132905e-04,8.223988714304385607e-04,3.375498205423355103e-02
5.408458924667376433e-01,5.154906068249569540e-01,4.407320029274078288e-01,-1.481917979450545755e-03,3.775060718704029400e-05,9.424973099037723887e-03,9.165341407060623169e-02
4.679292348516657651e-01,5.391021410985696871e-01,4.710140040405777495e-01,2.295487869857022484e-03,-1.163558331583974814e-02,-2.054221765178956827e-03,7.273358106613159180e-02
3.372331493462740193e-01,7.142175036536316801e-01,5.498940378025065634e-01,-6.130621898654382146e-02,-2.075807686555576348e-01,-2.045752866477629911e-02,4.989711940288543701e-01
5.396018442897337897e-01,5.491380524749742698e-01,3.980509500107383691e-01,1.912757017404449961e-04,7.995286994566495886e-03,1.687256451346555225e-03,1.472340971231460571e-01
4.643831651899584800e-01,5.248735575141764143e-01,4.956054188943934680e-01,9.512039360724932474e-03,-1.497866104326998384e-02,1.178642234178758560e-02,6.408234685659408569e-02
4.726308855690865007e-01,5.192839794316548296e-01,4.980507002452646548e-01,3.083528790699209977e-03,-4.497224676094745480e-03,1.053415613448615250e-02,4.537477344274520874e-02
4.680637828891616725e-01,5.173933254704308204e-01,5.161218872860720008e-01,1.045639489461255324e-02,-8.951167944178941085e-03,1.190442572185828295e-02,5.801573768258094788e-02
6.011966932992462986e-01,5.906012910835520824e-01,5.001551899009740731e-01,2.204329421696672731e-01,-2.846527344206482152e-02,2.806998400267184945e-01,6.275596618652343750e-01
4.261659529004936386e-01,5.198347232174941324e-01,5.349165131848568899e-01,3.853710296490405786e-03,-7.803526154371046193e-03,9.301902015678526967e-03,1.044069230556488037e-01
6.988500730883047130e-01,7.873442482214211280e-01,3.919089353441509438e-01,6.674976955351966112e-02,2.126249065742151778e-01,6.051719428056989702e-02,5.377622246742248535e-01
5.087628698599842014e-01,5.039487335906315257e-01,5.036786314691468203e-01,6.378881652811340015e-03,-6.893884565721845534e-03,1.109145549408917589e-02,2.565653249621391296e-02
4.865972314674913424e-01,5.391623886440042313e-01,4.542894830983305599e-01,6.390568161406488118e-03,-4.659709503166252313e-03,-3.144545469885307639e-03,7.564700394868850708e-02
4.202380189457467496e-01,5.508865289919910868e-01,5.309246774223829179e-01,2.445431038522936657e-03,2.060370431895123394e-02,7.806638960602028336e-04,1.270937770605087280e-01
5.350520552357562742e-01,4.752845108583665934e-01,4.816767034226954736e-01,-5.949853838432800357e-03,7.561669030021137515e-03,2.099968888011516377e-02,6.951023638248443604e-02
3.989795858641676518e-01,5.557567507246891081e-01,5.473728388164068592e-01,-8.845298936953455496e-03,3.564268224030763769e-03,1.063703132423715961e-02,1.547489315271377563e-01
5.703475495707320819e-01,3.405976863998569915e-01,6.296789624849965517e-01,1.917860126425932968e-02,1.485852437386233141e-02,4.883371986468105358e-02,2.808141410350799561e-01
5.298657438571366951e-01,5.193574974016407220e-01,4.663829751303547044e-01,-4.909427802385242512e-03,6.291207854711084943e-03,6.335458825065361059e-03,6.152115017175674438e-02
5.371438314977234896e-01,4.781667181906182895e-01,5.001778962658400829e-01,-1.700953357250804517e-03,6.492531003669058283e-03,3.967463325917634960e-03,5.335725843906402588e-02
5.446470233558994289e-01,4.901751261736046472e-01,4.261167233643207153e-01,1.436617816293789610e-02,-7.623568977375963854e-03,5.256877573404409448e-02,1.401570439338684082e-01
5.363296162951367574e-01,4.790936257818103061e-01,4.888736835881781762e-01,5.526470658575714269e-04,2.975851154051207398e-03,8.376413250697165372e-03,5.522511154413223267e-02
5.470818635266824215e-01,4.182474589522806041e-01,5.376176628361907239e-01,-4.488942164768629402e-03,1.246194389059524996e-02,2.493788257305706857e-02,1.336435824632644653e-01
5.083341538810552951e-01,5.187611005759816818e-01,4.681637651278396373e-01,1.095078866454133812e-02,-4.713923319199343244e-03,3.475790719864157302e-03,5.102844163775444031e-02
5.159470647534322163e-01,4.735340145349564711e-01,4.767253588165519806e-01,-7.821086808651001726e-03,-7.398037977550296455e-03,-8.624857650178556490e-03,4.737681522965431213e-02
5.513630036381859112e-01,4.144139665590866883e-01,5.451926573014675981e-01,1.958952806335012402e-04,5.500341194661206162e-03,8.349364903540936259e-03,1.350855380296707153e-01
4.923128675444974900e-01,4.857679598597379744e-01,4.850859914256756000e-01,-6.640427601350198765e-03,-7.830064430414724122e-03,-4.918109638416193544e-03,2.089361846446990967e-02
5.313960509213792038e-01,5.119548520829135807e-01,4.915260141838255215e-01,4.437306863158452935e-02,-4.457751823973139793e-02,5.110324339427960161e-02,1.445526033639907837e-01
4.658760590449090300e-01,6.502482238401418035e-01,7.150513337653764401e-01,2.530560783173005368e-01,-6.989698288503606860e-02,1.583430598290400948e-01,5.763044953346252441e-01
5.069888701300675482e-01,4.736821966341090429e-01,4.740199130997340138e-01,-5.748227700014564394e-03,-2.431443174371250657e-03,-1.989589114024231404e-03,3.502767160534858704e-02
4.993026333733000532e-01,4.811876124296334822e-01,4.779025000169744297e-01,-4.146187906154326884e-03,-2.127434604831236840e-03,-1.247595381919642610e-03,2.163968235254287720e-02
5.178957224001511372e-01,5.367611563179572887e-01,4.643480459455284759e-01,-2.355927936641011994e-03,6.866830977425423567e-03,4.256532753119666827e-03,6.667776405811309814e-02
4.776841138267448050e-01,5.279189800463195414e-01,5.350998471114384314e-01,-4.319426187431328612e-02,9.174223569296569014e-02,2.869022010077953294e-02,1.904005557298660278e-01
5.078771233630767767e-01,4.755813560722955136e-01,4.744719737973702167e-01,-2.140803270572430930e-03,-2.207770794823486499e-03,-7.573696732682318341e-05,3.329361602663993835e-02
4.616837478522946014e-01,5.414384487781858102e-01,4.748131675089358739e-01,-2.675021473809947956e-03,-1.010434763510001041e-02,1.799956066050858918e-03,7.631213217973709106e-02
4.619965228828938897e-01,4.953459270113421131e-01,5.436419829933734071e-01,-2.483995210610353069e-02,1.979026639397768114e-02,2.590951516433449842e-02,1.004752665758132935e-01
5.196610895956205178e-01,5.300529708187294853e-01,4.638009443264488052e-01,-4.332574473598005925e-03,6.265437704615986654e-03,5.931507558641966812e-03,6.394112855195999146e-02
5.412324651582166579e-01,3.979654545185238312e-01,5.485880862476615327e-01,6.515112552412338949e-03,4.029852567567967776e-04,2.263361765418775429e-02,1.526369154453277588e-01
4.482978993442371940e-01,5.782627191119966703e-01,6.827712517423133454e-01,-2.221069612019384992e-02,2.320640646420465969e-01,9.199425000296221344e-02,4.794009625911712646e-01
5.414318537921498642e-01,4.592374976738901049e-01,4.823472842863102961e-01,-1.590638533803072395e-03,-1.356435585782730718e-03,-4.609602033094736991e-03,7.394143193960189819e-02
5.762865746130827471e-01,4.658272422321877992e-01,4.625877590276725737e-01,-2.215821367747815990e-02,-2.056762163835903351e-02,-6.328606121504011528e-02,1.653088182210922241e-01
4.998391981633957815e-01,4.912188271602137002e-01,4.794427263122271188e-01,-1.253176567402315526e-02,-9.776939717666731713e-03,-1.138229565924140686e-02,3.822398185729980469e-02
5.490213869871073404e-01,5.294416126678671564e-01,3.959312597450521110e-01,-5.857325136418466832e-03,-9.024793473463223192e-03,-1.585579133409483962e-02,1.480674445629119873e-01
4.909081365844857880e-01,4.923098894849349816e-01,5.208067383094677760e-01,7.052286610023410967e-04,2.267741535108737036e-03,-4.261154381741390738e-03,3.041994571685791016e-02
5.445149614352660095e-01,4.136102568535003909e-01,5.372161847245603417e-01,8.064147685565539042e-03,1.443631859121136292e-02,-7.957610750871688121e-03,1.313169896602630615e-01
6.029008818100239919e-01,5.780349834971791889e-01,3.497293892140004301e-01,7.874430796552434227e-04,3.932733130119276527e-02,1.045595170333584768e-02,2.517707943916320801e-01
3.304089037368764803e-01,6.071611744256043552e-01,5.742970442248533924e-01,1.843409904287324208e-02,1.201768681033638514e-01,4.189574764377507199e-02,3.437866866588592529e-01
4.540603827416557770e-01,5.210047700190350017e-01,5.497255240638874163e-01,1.163868020299584083e-02,1.577932296093102283e-03,3.847292779652029988e-03,8.767768740653991699e-02
5.184189423419820475e-01,4.812079630926241469e-01,4.927811472755294631e-01,1.732138672810145524e-03,6.746955275624856932e-03,-1.146885686418088000e-03,3.517751023173332214e-02
4.886670454522133999e-01,4.660933640272336143e-01,4.160812183256297203e-01,-6.497709490757867801e-02,-8.274987998806042355e-02,-9.056315167766393337e-02,2.489045858383178711e-01
5.132990646635782195e-01,4.117216980573885632e-01,5.262548373062911899e-01,2.836957806276184726e-02,1.671523422885413598e-02,-7.001563393935488974e-03,1.232947185635566711e-01
6.915464227084893167e-01,4.484348060696209393e-01,4.150212450205524317e-01,-6.828388827670446581e-02,-7.177382891261263609e-02,-2.232049991011829659e-01,4.972392618656158447e-01
5.233411528002834823e-01,4.303493224841375975e-01,5.036295058594175700e-01,-6.333503711833951902e-03,-1.292924446702640659e-02,-8.168990026203901134e-03,8.958259224891662598e-02
5.985992995164448605e-01,5.106671628934972285e-01,2.801327218803071339e-01,-3.600709460774639131e-02,-7.225733928846771181e-02,-1.466286677650122106e-01,4.064509570598602295e-01
4.732067720497686869e-01,5.358788281548059196e-01,4.736534275098320812e-01,1.309719706279004236e-03,2.385737293682724247e-02,1.031239947693109085e-03,7.493899017572402954e-02
4.798259403352164165e-01,5.164981126604791806e-01,5.161795443651943094e-01,5.492777248940655319e-03,4.560078427994124911e-03,-6.401776071190232176e-03,4.011371359229087830e-02
5.632098783937987685e-01,3.540273607816284973e-01,5.636085338393017619e-01,-4.759784060927346044e-03,8.424022882506475643e-03,-4.102506907536902087e-03,2.101718932390213013e-01
5.482973551156367087e-01,2.970808511077467351e-01,6.326678730470068901e-01,-2.183288976850080720e-01,1.700093588008164819e-02,-4.402359649790976714e-02,4.910266995429992676e-01
6.812964139183264045e-01,6.038248743723521050e-01,2.628919477883166489e-01,-2.908413896514335656e-02,-1.070150467645727688e-01,-2.178106769014217792e-01,5.725980401039123535e-01
5.345399267885510008e-01,4.521136994371380835e-01,4.893157625721971105e-01,2.401029949697667566e-03,7.725478404684994749e-03,-1.283407900813382518e-02,7.617174834012985229e-02
8.199592115665266245e-01,5.620334394605202011e-01,4.284868180583373265e-01,1.033536982060673376e-01,1.241107631804602707e-01,-2.040176550420393364e-01,5.673900842666625977e-01
5.167835811964790471e-01,3.673784852933960066e-01,4.736696950437013220e-01,1.406052084708602212e-01,1.073773405198712727e-01,-1.299883916625447222e-01,4.029011726379394531e-01
5.066582688379146493e-01,4.849783449884024211e-01,4.895363975183859573e-01,9.486932538369496556e-03,9.395048703321097136e-03,-1.282597664939213837e-02,3.768686950206756592e-02
4.978759708958363506e-01,5.398267923622375175e-01,4.724226750333412883e-01,5.779640514518585457e-04,4.199356859497054700e-03,2.113829555930446871e-03,5.952175334095954895e-02
4.815622103550063482e-01,5.376539048562981593e-01,4.356449656340370957e-01,-6.539419048310879043e-03,-1.418709171375480936e-02,-4.264135762675503108e-03,9.282730519771575928e-02
5.173561161845536827e-01,4.870739859103099256e-01,4.796748751104770725e-01,5.530111509380090939e-03,2.641215618312216240e-03,-4.525212313323618597e-03,3.701246157288551331e-02
4.936597364560158518e-01,4.859725662253301381e-01,5.217416283353364381e-01,6.956089506641567610e-03,6.422280611580832681e-03,-3.602478166920951557e-03,3.703225031495094299e-02
7.235046912697424837e-01,4.268223923034081269e-01,6.552561928202083052e-01,1.970951566097902952e-01,1.276371290040589079e-01,-9.617542927428338051e-02,5.153566598892211914e-01
4.787039641170641180e-01,5.388732509776436030e-01,4.993962096629077085e-01,-4.006523553808653593e-05,4.244234183595676363e-03,9.379924399877292073e-04,5.348045751452445984e-02
5.348208017335038811e-01,4.783044542227977702e-01,4.677017226640053371e-01,4.764470882062451541e-03,1.769882493674406658e-03,-4.917145609676366186e-03,6.368497759103775024e-02
3.963574838180997650e-01,5.463982681218424453e-01,5.291555559413954057e-01,-8.318317281910826699e-03,-1.115992905610090069e-02,-5.488324795530696160e-03,1.445476263761520386e-01
4.943302570478494418e-01,4.444537845595708525e-01,5.461726051978147423e-01,5.416994068347077973e-02,2.556928430942053895e-02,-2.574513210739480182e-02,1.432269215583801270e-01
4.801850192432010056e-01,5.046989599912692359e-01,5.176435858797723277e-01,5.359848844783897739e-03,2.355626441536607611e-03,-5.172442036681898156e-03,3.562181442975997925e-02
7.595299790205196633e-01,3.336582745279820239e-01,5.482134382373115011e-01,-4.387562055675132966e-02,2.655807581395018199e-02,-2.342290103370754106e-01,5.554354786872863770e-01
5.047895627883187686e-01,4.309026021963064390e-01,5.333027471763630567e-01,-1.117050842001600201e-02,9.743880799980265961e-03,-4.758471150477404854e-04,9.507305920124053955e-02
4.903868315823921020e-01,4.935316457241671340e-01,5.317219005110538355e-01,7.309560970157182556e-03,-4.192959533125091391e-03,6.221867575913743627e-03,4.379101842641830444e-02
5.558119509665196967e-01,3.624289472538298473e-01,5.286167821326031024e-01,-3.441913092878686516e-03,3.769616883790251425e-03,-3.636750642536727002e-02,1.921547204256057739e-01
5.374170825070109236e-01,4.712156012580487885e-01,4.606941228090190021e-01,9.593638956081352578e-04,-1.645236627094564868e-03,-9.907846797728476693e-03,7.412997633218765259e-02
7.746514870875411685e-01,3.249016119431206162e-01,5.608959617157136535e-01,-5.302880651912913329e-02,8.780666779572308955e-03,-2.058287484448040050e-01,5.362776517868041992e-01
4.673887871756397527e-01,5.311709123100638585e-01,4.705179153746902321e-01,-1.509019013699445556e-03,-1.243754651201028558e-03,-2.486105240356398152e-03,6.251706182956695557e-02
4.602488894075402737e-01,4.029266600541370202e-01,5.732689028517869989e-01,-1.112139928298266772e-01,-4.338594666218252571e-02,-2.596707186869829168e-02,2.594483792781829834e-01
5.722885641868147300e-01,3.691134164488004687e-01,5.667319801734984619e-01,-5.684107797933813516e-02,5.188413314352734174e-03,3.487444977533304957e-02,2.315258532762527466e-01
7.920059847558993393e-01,2.178782269882166833e-01,7.530343470715230580e-01,2.955225000665086948e-02,6.974492248700696340e-02,-1.032997550387775854e-01,5.983246564865112305e-01
5.244934148513512584e-01,5.424629863542000940e-01,5.293972727381783816e-01,-5.057566605976055590e-02,7.519269183291335534e-02,8.616528139899849725e-02,2.171812951564788818e-01
5.141963443470611850e-01,5.368027024509305356e-01,4.339007588179775166e-01,-6.728388137997789488e-03,2.236951470908257397e-02,7.036859290858488679e-03,1.027578264474868774e-01
4.816397589487291242e-01,5.337851508696017655e-01,4.876861604573379250e-01,-9.175082194088911053e-05,6.553150781652909707e-03,3.646258986647811073e-03,5.107985064387321472e-02
5.005912223547753781e-01,5.414033058086449302e-01,4.612560939393909321e-01,-2.583991654878418746e-03,1.360449606613927873e-02,6.782814639916838993e-03,7.437422126531600952e-02
4.415984062736935667e-01,4.823597820909045208e-01,5.363590356974998752e-01,-1.192352587731968991e-02,3.543456344334141445e-03,7.064568097821896653e-03,8.597905188798904419e-02
5.666703839847355706e-01,3.325333476931697785e-01,5.597837137520651485e-01,-1.904825596364645782e-02,1.307652025862407344e-03,-4.106051635882616846e-02,2.437348812818527222e-01
5.295870471251671319e-01,2.778027795424022894e-01,7.373991911772999064e-01,-1.295626865664440130e-01,2.495931150207037971e-02,4.727664433620858836e-02,4.667318761348724365e-01
4.002015733013605248e-01,7.258590803624422882e-01,6.922443206714822272e-01,-8.885725527706582472e-02,1.964881280366549410e-01,1.172327566320357090e-01,5.262851119041442871e-01
5.491977402184016199e-01,2.392189780997241444e-01,7.052657570625276984e-01,-1.380494525943085637e-01,-2.243125203308472468e-02,-1.101736425117148949e-01,5.137304067611694336e-01
5.256254991643287688e-01,5.251617673540400766e-01,4.238871487865215060e-01,-1.300157721936587123e-02,-9.246634762370293734e-03,-8.515752257699536754e-03,1.062304377555847168e-01
4.677675733097981237e-01,4.724173198882297142e-01,5.318471327169432827e-01,-1.268700045615782021e-02,-8.647322469540863477e-03,-7.044254134207022892e-03,6.845384836196899414e-02
5.437587810668650379e-01,5.004349694565148887e-01,4.827109889595505576e-01,-4.922203330507498101e-03,9.093975830631765428e-03,2.614326832065695660e-02,7.300794124603271484e-02
5.613039182182176789e-01,3.863318198680285587e-01,5.806341729356446768e-01,-1.391705143856487295e-03,1.070499868231325827e-02,1.563846585053942778e-02,1.882934868335723877e-01
4.973317350964849282e-01,5.373088470458265986e-01,4.507315133441086030e-01,-4.899139341323212153e-04,1.431794940203704944e-02,4.655681252591673328e-03,7.945721596479415894e-02
5.679191731886449324e-01,3.013017327168463488e-01,7.140342287409395805e-01,-1.884396675573186131e-01,-1.800991598527384649e-02,-7.861197117519548583e-02,5.073779821395874023e-01
6.223125425203699379e-01,1.010552203101446334e-01,6.174411602991264347e-01,8.974113349572260603e-03,2.164899731034051339e-02,-3.159477222785879447e-02,5.232934355735778809e-01
4.148819964759023482e-01,5.435766270307295089e-01,5.449922072973247822e-01,-1.470486264335367499e-02,5.547198313702469095e-03,1.168967849438833605e-02,1.337813436985015869e-01
4.992752576816895660e-01,5.366637043434873133e-01,7.353665028911140489e-01,-1.708065525624449521e-01,1.492198349752658082e-01,1.363961248719069985e-01,5.083757638931274414e-01
5.205854163868962603e-01,4.980837626010441999e-01,4.853921560151107095e-01,7.992460688880558342e-03,-2.576435179587628372e-03,5.170720067456903955e-03,3.528094291687011719e-02
4.672510696290050336e-01,4.737332612608796678e-01,5.368670122546481682e-01,-3.477505507914563799e-03,-8.872030140378004727e-04,-1.340645777262586063e-04,6.690163910388946533e-02
4.793720400053025354e-01,5.068618219553463478e-01,5.177779870262877449e-01,4.870349376621671729e-03,3.700336016342359140e-03,-6.566108418119859236e-03,3.763659670948982239e-02
5.691200666925841922e-01,5.761353747060355968e-01,3.858210687551554829e-01,1.439744056352868992e-02,2.333779985309153079e-02,6.459940551144863208e-03,1.931699961423873901e-01
4.827221433356840841e-01,5.005956929319922422e-01,5.195972539176756388e-01,-1.881432357301524461e-03,2.303440738192109784e-03,6.433822535200632575e-03,3.421794250607490540e-02
3.597342087682244838e-01,5.561773853729109485e-01,5.498037934276365224e-01,-4.023522887679330078e-03,-9.038071142099816241e-03,8.634928389841332874e-03,1.946684569120407104e-01
5.221937288562849000e-01,4.891079935716594052e-01,4.957851447910700537e-01,2.138154584036067087e-03,-6.210192133530725335e-03,4.538100757710573745e-03,3.330960124731063843e-02
4.988934704512437146e-01,4.917157977041017314e-01,5.141187930508447357e-01,3.273149267749314844e-03,5.753652438302821713e-03,-2.544002887046119352e-03,2.331269532442092896e-02
4.999349848505799665e-01,4.982036805225946163e-01,4.998669861619142729e-01,-7.962599615549244498e-04,1.752076656053006606e-03,3.075620353388050098e-04,3.778822952881455421e-03
5.155337853406110060e-01,4.974260905415475720e-01,4.877401946837188196e-01,6.428460184837983885e-03,-2.609078586994905725e-03,5.817025771256124911e-03,2.903454750776290894e-02
5.548537613560899917e-01,5.724214760769121835e-01,3.625190023588019672e-01,2.311262581152271831e-03,-9.115564612465324595e-03,-7.456612006528203808e-03,2.027616202831268311e-01
4.803022534038923208e-01,5.421112372248807487e-01,4.561382570737577691e-01,-1.361877571680569689e-03,-4.645300492701822694e-03,1.227814096304524175e-04,7.725378125905990601e-02
5.536505066897734473e-01,5.521540313823489754e-01,3.668086828578835945e-01,1.789401907221942678e-03,-9.636598471077438902e-03,-1.263228802375783617e-02,1.881473511457443237e-01
5.055489077270503007e-01,4.980032403563802168e-01,5.103831470995239261e-01,1.155129052673726890e-02,-8.378419748137886508e-03,8.646967291222983423e-03,3.085426054894924164e-02
5.145314598102929127e-01,6.646615418283221555e-01,3.607417291717455177e-01,-9.317356767281211039e-02,-2.265978384588151762e-01,-1.340416719535745815e-01,5.506941080093383789e-01
4.943676551288467835e-01,4.937827119601125858e-01,4.770486207390564615e-01,-5.049919265124793583e-03,-2.293082705285700174e-03,-2.235427955769876771e-03,1.993568614125251770e-02
3.019398008000055977e-01,6.171009405420551097e-01,6.130981580046138690e-01,-1.936456594057566621e-02,-3.619772010157996239e-02,8.192399903688295584e-03,3.214625418186187744e-01
5.145739749272647545e-01,5.967881347501874378e-01,4.768965189875072896e-01,6.214929276066708669e-02,1.045585599228955609e-01,-1.261909633565326538e-02,2.369370907545089722e-01
5.197728367635380264e-01,4.896793260837224993e-01,4.844581123829769242e-01,1.136327071664883920e-02,-1.038471794016716451e-02,1.370489103500511022e-02,4.862485080957412720e-02
5.357697628980420124e-01,5.670633183146096545e-01,4.205204711470917900e-01,6.180997746439733515e-03,2.169018733146057046e-02,3.360345085306544206e-03,1.393848210573196411e-01
4.443605488258075553e-01,4.203351417664636935e-01,6.284361092717739572e-01,1.911158495374234989e-01,-3.987244934743994912e-02,1.971472839638227265e-04,3.914445936679840088e-01
3.573252315346885366e-01,6.802857106938996479e-01,6.900747272699023771e-01,1.831221188952240619e-01,-1.119034022614068258e-02,1.520490902784349396e-01,5.271568298339843750e-01
5.106885527767548449e-01,4.977487941953341322e-01,4.923951262914961213e-01,5.620250801694050800e-03,-3.776041242021858230e-03,4.168864460633624550e-03,2.133189328014850616e-02
4.930612973538951449e-01,4.898208614018593199e-01,5.247102823976921293e-01,8.568622527391780985e-03,6.101983916882508345e-03,-4.204211582739774203e-03,3.872606158256530762e-02
3.739906089994090577e-01,5.925389906856390887e-01,3.212817382935073685e-01,-5.877992385640458395e-02,-2.261232216745564794e-01,-6.971136240213945956e-02,4.903064966201782227e-01
3.931937174467097229e-01,5.417899334334111972e-01,5.314707123253088472e-01,2.240514239725953805e-03,-2.503840094550310522e-02,7.459432182008844843e-03,1.507205367088317871e-01
4.489557871581668635e-01,6.073861923535126550e-01,5.604841101155443317e-01,7.854660881942908401e-02,-6.729122615275838493e-02,6.408760472489188897e-02,2.535428702831268311e-01
5.303651149282716526e-01,4.886305860699226566e-01,4.011888516539429683e-01,-1.528115731528065582e-02,-1.144171875739868546e-02,-2.542531836210168428e-02,1.267666667699813843e-01
3.360510394671551992e-01,7.932020749542336713e-01,5.981732388515668131e-01,1.034982261542396059e-01,-1.989377906568793319e-01,1.117934495769254827e-01,5.884075164794921875e-01
4.622578369498479001e-01,5.432057074118603612e-01,4.854063554075251918e-01,4.680783154753223249e-03,-5.304087714560032536e-03,5.108823019821548232e-03,7.377681136131286621e-02
6.250835544715114267e-01,4.253330710110709845e-01,7.044892254695598321e-01,2.300674192762366399e-01,1.454135435130614051e-01,-6.215997001875078753e-02,5.439547300338745117e-01
6.727958143110944755e-01,5.503542969670514040e-01,5.656934715042234441e-01,2.039703374460962171e-01,2.095527113799822982e-01,-1.227692139529340948e-01,5.613507032394409180e-01
5.398108761686960522e-01,4.705059890948455337e-01,4.613724943091007669e-01,-5.891144284380945943e-03,-3.652912106077211164e-03,-2.346648114215898681e-02,8.553221076726913452e-02
5.206591197694345752e-01,5.235521171373299643e-01,4.103906637126442658e-01,-1.457391234972873865e-02,-2.165560407564891959e-02,-2.011393576309992298e-02,1.254763454198837280e-01
5.378060360592329392e-01,4.608400051497457683e-01,4.879763917048324240e-01,2.741934224813221983e-03,4.938660129601978553e-03,-5.901112755403645910e-03,6.907799094915390015e-02
5.340446209977074421e-01,5.064860473155907705e-01,4.126449880353286193e-01,-1.417889380995946205e-02,-1.671146108982403053e-02,-2.254510062778861124e-02,1.229533702135086060e-01
3.260632153669108524e-01,7.109041150565984513e-01,7.389748627867722686e-01,2.173565613780955863e-01,6.167153611713594580e-03,9.860483925136487304e-02,5.750719308853149414e-01
5.047745346305521075e-01,4.642729374006447363e-01,5.185178420421048262e-01,9.042326057328964328e-03,1.520270043568982578e-02,-8.129517958977440159e-03,5.935325101017951965e-02
4.903396164546755531e-01,4.986546137457799066e-01,5.087052075079995239e-01,4.113798682106845073e-03,-1.763218496464104192e-03,6.390080705913346246e-03,2.088828571140766144e-02
5.544412080048174429e-01,3.815792651042462236e-01,5.973617820928254218e-01,4.417858308743473350e-02,1.035067422625176627e-02,-1.779243149147642644e-02,2.151025831699371338e-01
4.973451242546170770e-01,5.034093879330820975e-01,5.875743666042192448e-01,9.752860352675336852e-02,-2.257180335100271787e-02,5.334667184512600219e-02,2.150173634290695190e-01
6.004140081015006958e-01,1.812370870791024102e-01,6.074692729314716821e-01,4.629362710935859548e-02,2.363474425678765978e-02,-3.326530515781717535e-03,4.322670102119445801e-01
4.961928479272079695e-01,5.088808583803186014e-01,4.749517301340797637e-01,1.222595473156058883e-02,-9.400078753328183767e-03,5.829626120144881102e-03,4.119633883237838745e-02
4.414298703044086114e-01,5.549407969133646201e-01,4.928526157011893227e-01,3.824822504564834302e-02,-6.235173518800422171e-02,2.641690372486762278e-02,1.668458580970764160e-01
5.465225895706766757e-01,5.447456059314951249e-01,4.056286618624503904e-01,8.253111526689029670e-03,-2.627999741093899142e-03,6.718430842940799688e-03,1.412952989339828491e-01
5.242380708408566070e-01,4.951687722305384565e-01,4.576891762273058162e-01,1.524346978004449162e-02,1.020042511011981685e-02,-9.439473673554675884e-03,6.793965399265289307e-02
5.358321114132204022e-01,4.980756550683345107e-01,4.753090998000658596e-01,3.611427736199847999e-03,-1.703541792376907617e-03,4.112007708467669935e-03,5.387030541896820068e-02
5.208866374211866823e-01,4.711104474405741760e-01,4.724503815779002025e-01,7.561750711948404639e-03,8.899544001844233651e-03,-1.946804573733184468e-02,6.292001157999038696e-02
5.518305820897767555e-01,4.451214442139095340e-01,5.002030199448637138e-01,-5.491920630479997165e-03,-6.635046040086449480e-04,-2.312070689766046461e-02,1.011860594153404236e-01
7.364762253749024268e-01,6.407404577229744991e-01,5.187967280253334978e-01,1.557384071090927857e-01,-1.907510992463218313e-02,2.613889709280676210e-01,5.608364343643188477e-01
5.145034631503427880e-01,4.677605078360311808e-01,4.930875970885822968e-01,-1.224458235934103127e-02,-1.267749310083165007e-02,-1.670999184060970380e-02,5.841335281729698181e-02
4.017686633578367861e-01,5.719645035755132056e-01,5.111176349300133870e-01,-2.972416207879742533e-02,-1.226212929330113971e-01,5.210937871606142850e-03,2.648642361164093018e-01
5.139169697697849593e-01,5.314201149527640888e-01,4.586129640266888852e-01,1.898341801985224675e-02,-2.090622062231393963e-02,1.842982452065404508e-02,8.800104260444641113e-02
5.485466416490633046e-01,4.028480765494782956e-01,5.423095194020381982e-01,-5.525719208341960120e-03,1.035786767092069030e-02,6.797132236749279036e-03,1.446039229631423950e-01
5.229039844147720384e-01,4.275329598318149960e-01,4.604493097159014225e-01,-1.041916988931883142e-01,-8.044846240579051067e-02,-1.077277014949189204e-01,3.063318729400634766e-01
5.325432782022484490e-01,4.879228807818601910e-01,5.010535448791281210e-01,2.643323482617152779e-03,-5.027138696351543708e-03,3.548489986018324872e-03,4.137694835662841797e-02
5.716596644088840495e-01,6.179356240800158995e-01,6.160133207780636999e-01,-1.045267366557020294e-01,2.066999785350620844e-01,2.049160242667339427e-01,5.375686883926391602e-01
5.414490960817094356e-01,4.453261374525791516e-01,4.984733362846390237e-01,-5.907563385891443156e-03,-6.935864799716893320e-03,-2.126361633357092343e-02,9.252579510211944580e-02
5.159938544703055463e-01,4.823426599223553657e-01,4.498662804964702611e-01,-1.240354555825009392e-02,-7.039239276095959549e-03,-1.015233088343158070e-02,6.480272114276885986e-02
4.324494686790014697e-01,5.453989884237063768e-01,4.785231591091305692e-01,-1.820636081587495483e-03,6.258972032053948531e-02,5.322636234463090817e-03,1.467096805572509766e-01
7.415171375324061120e-01,7.098280787263759883e-01,3.519837945118208244e-01,7.440238951116390220e-02,-1.685300700711649460e-02,1.874669963536359785e-01,5.131152868270874023e-01
5.619259435049178686e-01,4.561692685443065054e-01,4.423061089709861560e-01,-1.632451035151902610e-02,-1.713788213998010401e-02,-4.873336036680751826e-02,1.471332609653472900e-01
5.389263956123399035e-01,5.307360398789894296e-01,4.240014817238575429e-01,1.132078354655735759e-02,3.551701520839290523e-03,-9.492565329181468226e-03,1.141323447227478027e-01
5.004668469740252146e-01,4.284087174983403079e-01,5.465334663914027669e-01,-1.015383300047188048e-02,-8.156851550487327282e-03,-4.359789463819101381e-03,1.058296188712120056e-01
5.702542148857638882e-01,5.631476597888092073e-01,3.830252742539255184e-01,5.370433937677033219e-03,-1.508334198994904169e-03,-1.908844880541761893e-02,1.869788318872451782e-01
4.898887538359030791e-01,4.833444937363359228e-01,4.825710794978156915e-01,-3.346259787915885613e-03,-4.991377972462486372e-03,-4.037599331041100137e-03,1.434320304542779922e-02
5.069837109107516726e-01,4.731717565054065489e-01,4.790522868297336645e-01,-3.793487267106467487e-03,-6.589653495752803396e-03,-9.200770716664340111e-04,3.398497402667999268e-02
4.902175587391534584e-01,5.798552014112877684e-01,4.486315685019829913e-01,5.180646538305496221e-03,4.899352728171230131e-02,1.629477002325798243e-02,1.468677818775177002e-01
5.376400789360857857e-01,5.619852341150035624e-01,4.245191810166000224e-01,6.265821036520236031e-03,4.832928924269142001e-02,3.203557416649165102e-02,1.623168140649795532e-01
5.557726458553945426e-01,4.722236556222664250e-01,3.704711500494723975e-01,-3.470709710690943889e-02,-4.081376217569553794e-02,-8.742925995923801763e-02,2.395370304584503174e-01
5.550525902348195650e-01,5.378721792360561249e-01,3.859977422059491237e-01,1.959034501467515899e-02,1.890234787544201739e-02,-1.995356121400213012e-02,1.714291423559188843e-01
5.122369198520476674e-01,4.672640114481859119e-01,4.704084482210149076e-01,-3.723248657934125766e-03,-8.461124408949133660e-03,-5.065121319414879648e-03,4.716313630342483521e-02
4.448547262692270632e-01,5.569651531585372295e-01,5.488727806567141876e-01,-1.716776065465530077e-01,1.132573795552431206e-01,1.501678286929263029e-01,4.541799426078796387e-01
6.118178563791304425e-01,5.382139766625054778e-01,1.639760389115620387e-01,2.333004784288832817e-02,4.825137764261885898e-02,-1.355209703486519313e-01,4.865513145923614502e-01
5.633271535606148017e-01,7.425780269608356354e-01,3.917704082397788778e-01,9.116774585132958464e-02,1.371145276385667133e-01,-1.035838161356323998e-03,4.167173504829406738e-01
5.422032811320871559e-01,4.817763985678189531e-01,5.043204743446260130e-01,-1.505228990272474733e-02,9.259672635484050840e-03,2.091531997010980665e-02,7.103989273309707642e-02
5.936178054726820585e-01,6.229300806600296392e-01,5.879010587101631824e-01,1.734550234512951816e-01,1.916646049990370360e-01,-1.984376665518516880e-02,4.502295851707458496e-01
4.891332351139220935e-01,5.379148301975897883e-01,4.910080467137437621e-01,6.636095933717380164e-03,1.252343981747599047e-02,-8.567911206448457608e-04,5.381939932703971863e-02
5.201632757695741072e-01,5.518103314033498963e-01,4.430217700387485413e-01,4.395069089264245880e-03,8.978195508259139215e-03,1.627045074741455136e-03,9.849550575017929077e-02
4.316465984994896643e-01,5.557478956413399729e-01,5.340385563975460492e-01,9.407325460367417166e-03,2.593655446631306857e-02,2.938263751722251706e-03,1.244499012827873230e-01
4.898842877790430261e-01,4.892153891805769983e-01,5.354720948806097613e-01,9.924959943518356018e-03,-1.093321199605145309e-03,6.044598056482146202e-03,5.017869174480438232e-02
1.497160410188820845e-01,5.927953858516185059e-01,6.147803790019441550e-01,4.807404375983276995e-02,-6.339313298956058759e-03,3.210312457165703792e-02,4.654991626739501953e-01
6.371530989372744536e-01,6.810192742555173373e-01,5.701310674470030371e-01,1.492195252718594434e-01,2.275739395269888998e-01,-8.030931515986984570e-02,5.008732676506042480e-01
5.166581881721473701e-01,4.756092538064725650e-01,4.712753467605834135e-01,-6.701793520788840164e-03,-7.438759176901333509e-03,-9.659954680889952169e-03,4.962249100208282471e-02
3.622651265256996989e-01,5.597522218738483213e-01,5.321847838065206782e-01,9.458508052618044490e-03,4.122237068620555889e-02,8.902545103225795523e-03,1.998021751642227173e-01
5.506609026528203055e-01,5.250685177832613570e-01,4.279410365448310105e-01,1.128378092251815512e-01,1.230978580753240709e-01,-1.406457321807335070e-01,3.944292962551116943e-01
4.996949738143359743e-01,5.510671793818404662e-01,4.523332623111394057e-01,3.894188879659720749e-03,1.465435846871274324e-02,4.860056988336295368e-03,8.986610174179077148e-02
5.589215486326407634e-01,7.398230174183685337e-01,5.213158144941340000e-01,1.170090425104748089e-01,2.887431709197706975e-01,-5.943585776740516885e-03,5.764023065567016602e-01
5.229553854524768841e-01,4.624874507836984616e-01,4.697875935143103199e-01,-4.439123245999523383e-03,-6.508315228735405376e-03,-7.929108053004051485e-03,6.035762652754783630e-02
5.048821182042440014e-01,4.737678385086275812e-01,5.239660428316050833e-01,9.287989224931129245e-03,-8.285821221241050291e-03,8.160481453584172637e-03,5.089815706014633179e-02
5.077767237319420479e-01,5.396018138308777967e-01,4.483885293406837946e-01,1.201175520161253639e-02,-9.236601078773850823e-03,1.864114840291314877e-03,8.443366736173629761e-02
4.924731113544795202e-01,4.981026645618793491e-01,5.157894030268856955e-01,1.699707989026607744e-03,-1.270772877547403108e-03,1.996256557602112992e-03,2.166905067861080170e-02
7.091715072601993963e-01,3.794460140132162040e-01,7.769478870608981236e-01,2.185147993856623172e-01,4.864103898035530837e-02,1.193487981161615308e-01,5.733554959297180176e-01
7.108814508980333402e-01,3.648133986765266790e-01,6.066889221539937260e-01,1.893772545266870222e-01,1.399461323848623928e-01,-5.651812249162471019e-02,5.200868844985961914e-01
3.598727033830226851e-01,5.160623997769833160e-01,4.785669596585642727e-01,1.672488092051910569e-01,-1.223879497454846838e-01,1.224195232885791074e-01,4.401786923408508301e-01
4.077295825351036629e-01,5.493010677448163515e-01,5.263117085352826408e-01,1.211576170885954144e-02,-1.150711527551543344e-02,1.279849562580378207e-02,1.365480870008468628e-01
6.063382140696782496e-01,3.709398131333780935e-01,4.753050581710703271e-01,1.355769604400350326e-01,1.148861001667360326e-01,-1.333352293100072139e-01,4.356738924980163574e-01
4.841736812789972921e-01,4.636125963823915508e-01,5.191746009596257538e-01,-3.786736758004436744e-03,-9.462854693008821913e-03,-2.673873651137673516e-03,5.196713656187057495e-02
4.411258900349340206e-01,4.984370125627915482e-01,5.263026892545398239e-01,-8.062476009495313234e-03,-4.558891846039339092e-03,-1.410927490787420614e-02,8.070099353790283203e-02
5.168723118220068802e-01,4.693670975334315876e-01,5.246390290068720930e-01,5.669558737572643475e-03,-7.861154512732962396e-03,8.658043078031411877e-03,5.650430917739868164e-02
5.711550394216281523e-01,5.580893045140684627e-01,3.581205617978482358e-01,-7.039304329895608447e-02,-2.139782045993208481e-01,-9.881548561820055476e-02,4.735926687717437744e-01
4.959195248630888231e-01,5.498907012787416226e-01,3.878793163756100171e-01,1.240358182157145182e-02,-6.558929775735071466e-02,1.296866580783530114e-02,1.851718276739120483e-01
3.487215170614683113e-01,6.175070200235401874e-01,4.181991197609957744e-01,-6.863172394882463383e-03,-1.674230373563856678e-01,1.068424295893574509e-02,3.781182467937469482e-01
4.918455313491362224e-01,4.928409562229650875e-01,5.151270756094954439e-01,9.991615306626734552e-04,-1.262760805126000082e-03,4.357382180222109727e-03,2.417819574475288391e-02
4.957062837526062249e-01,5.015186279474797004e-01,5.040796097942512599e-01,1.565186438884819857e-03,-1.361275557222018425e-03,4.105643017033066763e-03,1.089517492800951004e-02
4.430321750709586559e-01,6.337808441147052552e-01,2.956407763509985021e-01,3.736531521338183615e-02,-1.799971372612268194e-01,2.254800561158839742e-02,4.348961114883422852e-01
8.041134416217567971e-01,2.407707916788325297e-01,7.738916086623828239e-01,1.625248599423097457e-03,9.153681512721123514e-02,1.072669573689634948e-01,6.007549762725830078e-01
7.876066056399431137e-01,2.765334163796966949e-01,7.837514019595565040e-01,1.017098128084859693e-01,5.917946511367331436e-02,8.693767461709586697e-02,5.687320232391357422e-01
5.257042003590012280e-01,6.236073260456378442e-01,2.610317318430437350e-01,2.319679474686496545e-02,-1.308406226631138869e-01,1.738643261628181058e-02,3.992840349674224854e-01
5.629886953529055216e-01,3.674885867223196545e-01,5.559168162480345732e-01,1.107658815083809988e-03,6.986700040043434048e-03,4.160143403920666706e-04,1.924536079168319702e-01
5.613801373727630439e-01,3.163909739570767155e-01,5.621626791895373287e-01,-3.619638866086138940e-02,-1.418127763544522503e-02,-5.805887248836660852e-02,2.736025750637054443e-01
7.030577335688299456e-01,2.701849187649550954e-01,7.235848049037176821e-01,-1.303950470981041776e-01,-1.173510266658278579e-03,-1.009616865542441871e-01,5.275209546089172363e-01
5.162857666489594211e-01,4.928587045024194202e-01,4.958341999773570041e-01,2.846918472879173684e-03,-4.707301515694336733e-03,2.766342535872044848e-03,2.453003264963626862e-02
4.878372449417836543e-01,5.680168648428634004e-01,4.736562560282907008e-01,3.585873651841342546e-02,-5.273543427084475405e-02,4.536853365482061695e-02,1.616862267255783081e-01
5.551139610721180784e-01,4.865467032252796531e-01,5.111418681676656028e-01,-1.263662571329682164e-03,1.126578803492115678e-02,2.957441763609119575e-02,8.142144232988357544e-02
5.792372428366323600e-01,3.889059986712041228e-01,6.021924353828402854e-01,5.454181007709296702e-02,2.230197176527044453e-03,3.404356657717767798e-02,2.313833534717559814e-01
5.595517424932706652e-01,3.657957152861768813e-01,5.548819978860384250e-01,-2.872622948025359193e-03,7.491773980187473037e-03,-1.068292038322324507e-02,1.928572654724121094e-01
3.810785988837133709e-01,5.816499403591900430e-01,5.126558871163547915e-01,2.388126632779353359e-02,-4.999431867362803816e-02,2.048503178723840024e-02,2.040072679519653320e-01
3.286393849782620613e-01,5.590236446885904487e-01,5.359179236262209267e-01,-3.401248748140804634e-02,-6.550280004000912093e-02,8.850754597754091841e-04,2.542288899421691895e-01
5.391581688169344577e-01,4.961944323313634553e-01,4.521406400397013359e-01,2.798102866031730064e-03,-4.933585101595901927e-04,1.426932984647860669e-02,7.946316152811050415e-02
4.085744724183068000e-01,5.556644303321021106e-01,5.269385590936074282e-01,1.150992039045623493e-03,-1.151599063011666570e-02,5.275856302039585825e-03,1.368235200643539429e-01
7.502506109797142386e-01,3.228146624561018529e-01,7.425201629080290244e-01,1.380314663951459631e-01,4.619747088754880965e-02,1.125956700937649213e-01,5.301424264907836914e-01
5.332121192440606450e-01,2.638824440257777071e-01,7.048575748736761737e-01,-1.594447034570880273e-01,-4.174230962547346296e-02,-9.394632372535741127e-02,5.061646699905395508e-01
5.572754268520587750e-01,3.209753980663637707e-01,5.916114461543872105e-01,1.157336712243858395e-01,-4.420191496111213272e-03,8.901799195984004542e-02,3.593665659427642822e-01
4.312634435296796021e-01,5.399771643075820249e-01,5.076028577172451151e-01,-3.230158851653424550e-04,-7.431881885143713090e-03,1.547556289182393068e-02,1.011520028114318848e-01
5.263429750897504755e-01,4.989647631170131548e-01,4.672735853911487158e-01,7.611828011167070911e-03,-2.147967235646584035e-03,3.171921940165298333e-03,5.328591912984848022e-02
3.721429080133600853e-01,5.632116356933446477e-01,5.482332922363035710e-01,-1.084467266248561809e-02,1.396145199209435431e-02,1.014694523442367761e-02,1.873931288719177246e-01
4.359960561519219402e-01,5.463014609497103269e-01,5.259462901467922835e-01,2.017520233488523385e-02,4.510034918399306175e-02,1.499470216848057232e-03,1.329146921634674072e-01
4.989308277770770350e-01,5.021830992517817283e-01,5.061780156215502924e-01,3.110248832569928717e-03,-4.882526592818223210e-03,5.042876624583020675e-03,1.470915134996175766e-02
3.946326131084715860e-01,6.092609752457527339e-01,4.875260813824345840e-01,-2.455929766020543276e-02,1.589022856744407297e-01,7.820853512286442266e-02,3.614774942398071289e-01
5.443072056087397970e-01,4.495139834051180006e-01,5.149617797624802540e-01,3.090645613795436203e-02,2.435391404467580553e-02,-3.588065703115986965e-02,1.247893944382667542e-01
4.744605070083002252e-01,5.285958746854922952e-01,4.759609560334926437e-01,-7.317477192662426343e-04,9.653709978204290474e-04,1.901052378143222544e-03,5.354349687695503235e-02
4.848696371273032990e-01,5.029790256358279699e-01,5.032027134068626228e-01,-5.920327711620963947e-03,4.164461494807312689e-03,1.392533864841464034e-02,3.272575512528419495e-02
4.822490489521164547e-01,4.891933951904794409e-01,5.417427706005797372e-01,7.476358898246334740e-03,5.185187815822510116e-05,5.508894076358080739e-04,5.782030895352363586e-02
4.707293472021648051e-01,5.293634442999927137e-01,4.751594979278536690e-01,1.696249653157429768e-03,-6.563368211445345587e-03,5.642711921367097108e-03,5.857654288411140442e-02
4.336599356632742652e-01,5.409863099663171360e-01,5.123363633884480128e-01,2.745061610926002524e-03,-1.098133695792375027e-02,1.329124343236954414e-02,1.008921340107917786e-01
5.158657633535591591e-01,4.613709902703243548e-01,4.613651818604804777e-01,-1.283780379132326045e-02,-1.182779723332441461e-02,-1.905214385554739043e-02,7.051997631788253784e-02
5.328052085316480335e-01,5.127301520983977845e-01,4.479868374986019641e-01,1.683432218725237559e-02,2.714274233551250762e-02,-3.547964554517103741e-02,1.128326877951622009e-01
5.169374801709571976e-01,5.534203432823345814e-01,4.455514805987338955e-01,7.711297830011884513e-03,-3.536678027161058863e-02,1.264408308202772530e-02,1.159386187791824341e-01
5.230908404438622261e-01,4.747548186593939512e-01,4.691830310595295206e-01,-2.151787589091926339e-03,-2.071588929266328892e-03,-2.604505923028418903e-03,5.180587992072105408e-02
4.139532218200479563e-01,5.544583002665689486e-01,5.046181191393532828e-01,3.209823951929315859e-03,-2.664355495929977835e-02,5.484321879419233083e-03,1.321881264448165894e-01
4.944678530423688434e-01,5.001794377428273597e-01,5.113181263265567100e-01,6.387987185936483576e-03,-5.262777656831561963e-03,6.419282423313041851e-03,2.344020828604698181e-02
5.780655990734071548e-01,6.969770208615296836e-01,5.885129583902446448e-01,1.937623257850171477e-01,-1.090072933569169317e-01,2.232711251000597252e-01,5.575267076492309570e-01
4.601968727092629607e-01,5.023888945455796673e-01,5.273615629011219053e-01,1.338695464478465227e-02,-3.782524911795794031e-03,1.261410976888188359e-02,6.719635426998138428e-02
3.753086498801662119e-01,5.371803342890822952e-01,5.400704715739466089e-01,4.974676696781538815e-02,3.751529599370106299e-02,-9.509973428366048920e-03,1.964595615863800049e-01
4.768163489417554524e-01,4.914243666285925682e-01,5.241811066850284861e-01,1.067201836088148281e-02,5.444610620319714767e-03,-9.827583414771481896e-03,4.985238984227180481e-02
5.195458305823085210e-01,4.284634429177434090e-01,6.980485603394402938e-01,1.571903951489575790e-01,2.554013850465763902e-02,-1.359939582638852382e-02,3.647682368755340576e-01
5.408489413034461846e-01,3.935585123593943191e-01,5.487387720598562169e-01,3.596086303018860078e-03,-6.564188178691584413e-04,-4.871369779333412434e-03,1.517567038536071777e-01
4.227555174303825325e-01,5.488437880032646099e-01,5.020107551005251745e-01,-1.260769185119661739e-02,-4.700259016550263624e-02,3.188595027243473442e-04,1.388934403657913208e-01
5.303838149698700821e-01,3.651982027223206195e-01,5.571183360992333355e-01,-2.669038189698022187e-02,-1.024954688395444090e-02,-6.351775403582171631e-03,1.870574802160263062e-01
5.433507683598749471e-01,3.773055462738423294e-01,5.597914146683432568e-01,-1.957723990202537775e-02,7.636593542685873350e-03,-1.595328857716827708e-03,1.786157786846160889e-01
4.498674728745821749e-01,4.699551099599438286e-01,5.425605136854712018e-01,-6.458571989835705518e-02,3.809286375205520048e-02,4.383083273332862712e-02,1.725227534770965576e-01
3.673330518749021167e-01,5.570977881971990175e-01,5.572662724483115060e-01,-5.092836435083330148e-04,-2.095442266364665879e-03,5.612138603251905916e-03,1.901344060897827148e-01
4.668009981901881655e-01,5.296887834738975842e-01,4.725221825102224882e-01,3.726258367156326697e-03,-3.707853455378972481e-03,2.974107096221767239e-03,6.113303825259208679e-02
5.061150710361900229e-01,4.208520055698270479e-01,5.614173660516754705e-01,-5.355774838190190817e-02,-1.619967883858916546e-03,-1.398657451608116033e-02,1.557029932737350464e-01
5.407791065680105369e-01,5.033223931099254367e-01,4.703952712312785001e-01,4.095240796850466679e-03,-2.118843670928019333e-03,2.899209529405284702e-02,7.941000163555145264e-02
5.427085598818430778e-01,5.552736302475853591e-01,4.105501682236330496e-01,3.689776082147718287e-04,9.232484198747871462e-03,2.458002912824780797e-02,1.461265236139297485e-01
4.990612942679631958e-01,5.216671963121128908e-01,5.098616073273604110e-01,-1.222351192881112637e-02,4.168313593436081405e-02,3.232011431678957769e-02,9.580180794000625610e-02
6.800382391916330871e-01,5.461939693307369392e-01,2.818113585347198358e-01,-1.060561811775691601e-02,-1.033976437771809143e-01,-1.436256535551204416e-01,4.663627147674560547e-01
4.771221551107580616e-01,5.294815479290790883e-01,4.827139821939359643e-01,5.499586031070697332e-04,-2.493246655561577856e-03,4.180203097984836456e-04,5.000070482492446899e-02
4.933280766277872154e-01,4.947169689867254583e-01,5.088039306934003525e-01,3.119157535948355146e-03,-4.579200140905822884e-03,2.129098679769145762e-03,1.804523728787899017e-02
5.173121262813356047e-01,5.168070744057127186e-01,4.777199552687748096e-01,-7.045651725608309546e-03,5.359181468124632995e-03,5.094939280013547657e-03,4.313652962446212769e-02
5.225270569841062862e-01,4.680404045336884478e-01,5.063815492823110498e-01,-6.260515207853522071e-03,1.496278695600477410e-02,8.830765829524826402e-03,5.807703733444213867e-02
5.237960357110250653e-01,5.624150566279679797e-01,3.572959173335558680e-01,-4.633830686768185964e-02,1.445460819499570226e-01,1.033695262105920193e-01,3.698945641517639160e-01
3.547450476146716825e-01,5.981165208832525115e-01,7.330943852675901873e-01,-1.790838508537924145e-01,8.986141112292922450e-02,1.006600430846509575e-01,5.110127925872802734e-01
3.880699228132347689e-01,7.190528782537903840e-01,4.603332639330002807e-01,1.227266516327838730e-01,-1.812581558785511526e-01,4.746178493973442214e-02,4.912847280502319336e-01
6.241869036132413617e-01,4.088308289283258401e-01,6.048301586531606988e-01,2.187897346637044521e-02,2.906528464854353164e-02,7.692633929254832914e-02,2.535897493362426758e-01
6.248400267998908131e-01,3.092372705704886093e-01,6.259505003628568209e-01,-2.266397423111897805e-02,2.584160826910449765e-02,-6.303809742815798083e-03,3.219011425971984863e-01
3.671633196461874249e-01,7.300269782267598817e-01,6.540320567408703933e-01,-4.305954857625549081e-02,2.289226313526143697e-01,1.220289475415485686e-01,5.633131861686706543e-01
5.893060531991204387e-01,5.872162273100974827e-01,3.115897249130396562e-01,1.370657837640625390e-02,7.944401715159681021e-02,1.195782741793722931e-01,3.727531433105468750e-01
5.401302447573814725e-01,5.014136297376630136e-01,4.281251388871441521e-01,-6.980813342634821332e-03,-5.102050815963724006e-03,-9.885909522102108091e-03,1.011194512248039246e-01
8.017147432497587767e-01,4.080943495398203780e-01,3.728735573687195215e-01,-7.097493033804649909e-03,1.149539933668494024e-02,-2.126983081777536477e-01,5.534531474113464355e-01
5.170948091134762725e-01,5.551580377890726892e-01,4.470773874411406168e-01,6.066127324046026274e-03,9.844168158173316821e-03,1.127469847734111292e-03,9.706321358680725098e-02
5.944420859542749458e-01,7.323165640199742477e-01,3.052995027377828352e-01,-2.693214993496125670e-02,-1.820958138774456669e-01,-8.073343381707903665e-02,5.135022401809692383e-01
4.209376599819373288e-01,4.227167802917163875e-01,5.688865897192623144e-01,-1.082362316146125714e-01,-1.010390847052870886e-03,1.339153195068403966e-03,2.382908314466476440e-01
5.484365364385078712e-01,1.779475524269478193e-01,6.142786728509873617e-01,-1.075885651137580973e-01,1.160515082666029214e-02,-1.558229511947897307e-02,4.492765665054321289e-01
4.894999878282799699e-01,5.196865852461129975e-01,4.944117905099577603e-01,2.733624292826572922e-03,2.700490757037396581e-03,-5.946994262516800550e-03,3.061833046376705170e-02
4.974749924651194477e-01,3.801292410813837952e-01,5.534727701758952456e-01,-4.988825590584913816e-02,-1.347886034071281436e-02,-2.086277997641146353e-02,1.810916811227798462e-01
6.221251594749246383e-01,3.806919769681375576e-01,6.019116795386822982e-01,1.347650160111203872e-02,1.630984257521953668e-02,6.054115443668204449e-02,2.572098970413208008e-01
5.042494326392978898e-01,4.927498944267305614e-01,5.088292940572796130e-01,1.573888941991124710e-02,-1.354071587553700058e-02,1.179401404235161724e-02,4.377634078264236450e-02
4.668859544837666298e-01,7.486445776025980603e-01,6.442777592416961685e-01,-6.160144077010498882e-03,2.565366605582234394e-01,1.479512784068848508e-01,5.692889094352722168e-01
5.384875361349112932e-01,4.698392158603948432e-01,4.588202197468470023e-01,2.326726966405269397e-05,-9.691743686006305423e-04,-8.478618936079889215e-03,7.621631026268005371e-02
6.925805045560616824e-01,2.236226003557073017e-01,6.257164699391399854e-01,1.056554304144724094e-01,-3.225075936952601779e-02,-2.115826604616196857e-02,4.806125760078430176e-01
4.162170777124676313e-01,5.629760035554243203e-01,5.305775327128127161e-01,-2.197522372334615327e-03,4.842213183330455056e-02,1.240286129083603001e-02,1.591953784227371216e-01
6.753638024583249466e-01,2.540430392418405736e-01,7.092517989048069404e-01,-1.359642574806245174e-01,-1.844568714902468723e-02,-1.042074637793587860e-01,5.310314893722534180e-01
6.819124173633720476e-01,2.938344131465819298e-01,5.610282706371336747e-01,-1.042480853693485421e-01,-3.987255972598735543e-02,-2.153701355270312146e-01,5.429828763008117676e-01
5.841276734454401431e-01,3.844539082659751972e-01,4.194947286269155029e-01,-1.491002562293925193e-01,-1.512023943284764582e-01,-1.849744858603571962e-01,5.215616822242736816e-01
5.103073050423230228e-01,4.072751431858272486e-01,5.448547825346199414e-01,-2.447658148809019052e-02,-7.523469518810615639e-03,-6.049863312656863015e-03,1.320817023515701294e-01
4.231820611113517039e-01,6.878350833043811452e-01,7.566867891534941881e-01,2.029807249877316477e-01,6.953629617344751768e-02,6.619740994627747177e-02,4.942259490489959717e-01
4.687555129301994583e-01,5.510748729431275139e-01,5.829573725638247383e-01,8.752284128973147892e-02,3.848493679159840919e-02,-9.176963003481492659e-03,1.951773166656494141e-01
5.235012228015264446e-01,4.993336092706414098e-01,4.969368415730835431e-01,7.946217468934146932e-03,-6.411852922076189711e-03,5.224111241592479561e-03,3.228589147329330444e-02
3.130092937338854742e-01,4.805858919937578966e-01,5.188038867970191648e-01,1.709638914798520259e-01,1.136486578863017544e-01,-5.475816398266405288e-02,4.139762818813323975e-01
3.107955729664204636e-01,3.921074456901739724e-01,5.955131720953312779e-01,-2.198222655034715589e-01,5.562663487285908481e-02,5.766091730786920139e-02,4.782756567001342773e-01
4.080443546403947908e-01,5.282141818408960798e-01,5.615974684385494076e-01,-1.219339068454544130e-02,1.447130310842476009e-02,1.501023657638088198e-02,1.460037976503372192e-01
5.034080299076445497e-01,4.458045233491939041e-01,5.249361155314409277e-01,-7.367702792913235349e-03,-1.249680785529959891e-02,-5.774128298734283737e-03,7.584917545318603516e-02
6.136774169949047453e-01,5.372264825336932059e-01,6.798761411576738078e-01,2.155939841595680140e-01,1.452199378563658605e-01,-5.245193599143072039e-02,4.756578505039215088e-01
3.559013061770414099e-01,5.906775624730419283e-01,6.064394077447218256e-01,-5.371845218562006086e-02,4.123690955113374496e-02,4.199649866122553976e-02,2.794967293739318848e-01
4.650814186693950081e-01,5.289802061139471379e-01,5.396030176810459045e-01,-2.369293056232847638e-02,2.460521269386303431e-02,2.502635653497917168e-02,1.012618094682693481e-01
4.438636819825304003e-01,5.200371407580107741e-01,5.284662807389335359e-01,-3.362110568806579713e-02,1.272352328349649064e-02,1.895885825939009825e-02,1.071010679006576538e-01
4.841393755417521816e-01,5.330989504153698100e-01,4.774544395673212538e-01,4.959983924472208261e-03,-1.263512204993086580e-03,1.040960495652381614e-03,5.339348688721656799e-02
6.265148549532100208e-01,7.973373398599059581e-01,3.167677842001908606e-01,6.907314687698368205e-02,-1.714133140861897886e-01,4.570101141206494438e-02,5.355015993118286133e-01
5.935267491564715225e-01,7.603081244279126238e-01,3.467092674221867732e-01,1.107937661741644347e-01,-1.816146995832776112e-01,9.022101206434703091e-02,5.386059880256652832e-01
4.385922731401709074e-01,5.134758896455833277e-01,5.236593882310069947e-01,-1.195265365373857254e-02,1.502331915945037677e-02,1.940765635485109178e-02,9.332473576068878174e-02
5.365591144127656031e-01,4.916990998174035621e-01,4.879723317941750960e-01,3.671889932807453905e-03,-1.589984701441051742e-03,1.225546693470869371e-02,5.188558995723724365e-02
5.217200250661895300e-01,5.000584646631838215e-01,4.636870333041214765e-01,1.244370573183801662e-02,-4.808568877267814859e-03,1.229092370938184367e-02,5.972496047616004944e-02
5.336262133918122652e-01,4.859289864056899333e-01,4.890394211614780273e-01,8.092036799675961017e-04,-2.085383471365247134e-04,2.100484536463934591e-03,4.638611897826194763e-02
5.722956412838595686e-01,5.223646840489362120e-01,4.416882718722604517e-01,1.128451637435801125e-02,-6.259394652405889450e-03,6.148066464349557364e-02,1.576997488737106323e-01
5.484858865261300620e-01,5.253693375857290127e-01,4.171413174786605671e-01,1.535487547730138291e-02,-1.791912127667951923e-02,3.826224521977713428e-02,1.442641168832778931e-01
5.340900336960003880e-01,4.923552301857699875e-01,4.910195944379485700e-01,7.760784213786994790e-03,-2.569617088768573390e-03,8.729228281998086675e-03,4.720610752701759338e-02
5.537455210017012686e-01,4.473136238295137845e-01,5.183769223686744976e-01,-2.599543038122868310e-03,4.961193370402773584e-03,6.709755361653711725e-03,9.509740024805068970e-02
5.505689890945735243e-01,5.184103990880275514e-01,4.416778933468962776e-01,6.784867657525679718e-03,1.574756514733114494e-03,8.588786511651156502e-03,9.877502918243408203e-02
6.138429733741777028e-01,3.430009953332683326e-01,6.040002852737027528e-01,5.087046096689736702e-02,2.770236545815292148e-02,-1.461186693491105422e-02,2.854691445827484131e-01
5.766601536774792480e-01,4.317508197992943053e-01,5.509691955140694208e-01,2.184251543296037920e-02,-7.552678538821386116e-03,4.192002904196433233e-02,1.575124263763427734e-01
5.017841206444958457e-01,5.377704477809491790e-01,4.759490329090539373e-01,9.247021569994830215e-03,2.420736486298566414e-02,1.314138234074547357e-03,7.008473575115203857e-02
4.802427516806709318e-01,5.242224032815748780e-01,4.825166028171486432e-01,2.382069796167832296e-03,-8.449953750294031179e-04,3.558525200470598771e-03,4.354918003082275391e-02
5.150295763851696629e-01,4.864454919734254590e-01,4.958030780791184422e-01,-3.324806254432650758e-03,8.107749558297414408e-03,5.036087805747773913e-03,3.071795217692852020e-02
7.719692184328900142e-01,2.169199783238683343e-01,6.200188647202202752e-01,-7.124715608721955001e-03,3.209702942556171001e-02,-1.955477286603533524e-02,5.012172460556030273e-01
5.736224328021028995e-01,4.922889699608831160e-01,3.795998073461810396e-01,-5.475681125738216318e-03,3.212701411242185195e-02,1.664665035351071687e-01,3.388200998306274414e-01
4.947461757771364765e-01,4.880058126177218569e-01,5.276845534955820760e-01,6.753770577111029407e-04,3.890362722586989015e-03,-1.178246484383919023e-03,3.746096417307853699e-02
7.658096389734395659e-01,7.616584817186466960e-01,2.957990115108868889e-01,9.211265105887883609e-02,1.248203358471161040e-01,1.549655634142523275e-01,6.026721000671386719e-01
8.008903359288024326e-01,7.307120844489292111e-01,3.588242357035400509e-01,1.087620261357978430e-01,3.855770429214818579e-02,1.989345431251924035e-01,5.727097988128662109e-01
6.429223751358545957e-01,2.868677719668039083e-01,7.953994281600733629e-01,-1.560999491793267635e-01,6.134654472829367128e-02,2.087478596976435549e-02,5.385288596153259277e-01
5.296704163505104868e-01,2.213463979862226316e-01,5.887349016332441565e-01,-1.773701158234243791e-01,-1.628309288412539690e-02,-4.183870078411203869e-02,4.660371541976928711e-01
7.342738352135612656e-01,4.993484304928155204e-01,6.152278904639619794e-01,-3.760006742605937619e-02,1.428574142834570238e-01,2.229709510100250924e-01,5.059734582901000977e-01
6.067029632656435467e-01,3.465919619952403385e-01,5.947504201434761217e-01,4.315998877869292594e-02,1.834575372775032118e-02,-3.542377574735831175e-02,2.739602029323577881e-01
5.753781434325770938e-01,4.173921904298381058e-01,5.083468976493316083e-01,-5.246849680833705863e-03,-1.851970426050291493e-03,-5.073681058927921594e-02,1.633349359035491943e-01
5.939303893522092093e-01,5.553252714157961289e-01,6.604432962856940925e-01,2.387536077659839773e-01,1.629741475042927601e-01,-6.354892433180465983e-02,5.208541154861450195e-01
5.426632950597994887e-01,5.001715578073290258e-01,4.250348299782660266e-01,3.752421228186253021e-04,-2.128804592424929192e-03,-1.096969346789078426e-02,1.049704030156135559e-01
5.548594722698575454e-01,4.279035484699389436e-01,5.003131182035877034e-01,-2.992034356378583948e-03,1.625612121886391842e-03,-1.120049386934911240e-02,1.121573299169540405e-01
6.109272475955871418e-01,2.531049682280642754e-01,5.796571342865128873e-01,-1.836350375681507913e-02,-2.188290157000290226e-02,-1.811103222349823294e-01,4.676286280155181885e-01
6.368483517156732221e-01,2.479512328071427074e-01,7.285123607429890846e-01,8.851289438178375213e-02,9.092660549500443390e-02,-6.577559660952599085e-02,5.065342783927917480e-01
4.883553181727079417e-01,5.370886642619023821e-01,4.831237495676940497e-01,6.696517808836003303e-03,7.520997799154110694e-03,-2.919277136015387391e-03,5.465393885970115662e-02
6.099901107458984839e-01,6.930291131049659548e-01,5.293376338024821104e-01,1.594812852694059147e-01,2.294979251816435251e-01,-7.337758419173665003e-02,5.201548933982849121e-01
3.621422231684512383e-01,5.675686955027795522e-01,6.442118582278429928e-01,1.383423883658615461e-01,5.289877131984605657e-02,-4.785852856848021863e-02,3.694600760936737061e-01
6.912769054634333443e-01,7.034241610953186896e-01,3.720881755786663581e-01,1.217744686999404635e-01,2.028278661034703112e-01,-1.019009563321932044e-01,5.522338151931762695e-01
4.929571622659595920e-01,5.209733766841052605e-01,4.847235655039643931e-01,6.095256081999162086e-03,5.751622784393675518e-03,-1.427895411742968485e-03,3.605816513299942017e-02
5.412236488626886999e-01,4.543243824934556918e-01,4.793198136015908717e-01,-2.528883093603088821e-03,-4.932945315334452338e-03,-6.880846183566811415e-03,7.898351550102233887e-02
3.597796200458781568e-01,5.021187822744518359e-01,5.502643782066599654e-01,-7.698564445659468458e-02,-2.298021925384508002e-02,-1.565976195584353747e-02,2.225573211908340454e-01
5.472869856107389630e-01,5.414268798980075292e-01,3.858694960889906822e-01,2.718279937469805438e-03,-6.742346038257080853e-04,3.092845632264736976e-03,1.587332636117935181e-01
4.906500174855024099e-01,5.261104220200957249e-01,4.928677170730747514e-01,1.498073856887929475e-03,2.243938996901677970e-03,-9.100558051556809514e-04,3.475688397884368896e-02
5.005286624129575701e-01,5.180043924021725532e-01,4.640243297084659102e-01,1.290439011107707631e-02,1.130125977486431087e-02,-5.861803428400462306e-03,5.711142346262931824e-02
4.997354389925020568e-01,5.281930877561225035e-01,4.612686695828424055e-01,1.243844114465265764e-02,9.118410286453682359e-03,-5.639384090264126792e-03,6.475486606359481812e-02
5.026937243770803754e-01,4.933402959454004644e-01,5.096124828510169014e-01,3.040693774603654351e-03,-6.010601857496834788e-03,1.409711982229350062e-03,1.849733106791973114e-02
5.475368780384652911e-01,5.195171991864253602e-01,4.123049978929892445e-01,2.040265810338687258e-02,1.059328219949608706e-02,-2.267347806683455216e-02,1.356883496046066284e-01
5.013625615200865138e-01,5.077263968207209599e-01,4.908808647754104859e-01,5.776635706942744378e-03,3.310916053973059648e-03,-3.391775107467187144e-03,1.961060054600238800e-02
4.941135434336464960e-01,4.979613324800581942e-01,4.930904220874303689e-01,8.194249570900770038e-03,1.048966531673001072e-02,-5.952782398881507030e-03,2.564434148371219635e-02
5.306042245071043162e-01,4.722492857834614810e-01,4.926753030912996434e-01,1.787142132611328630e-03,4.233948463632800085e-03,-5.220702306438063101e-03,5.268481746315956116e-02
4.796648048339773873e-01,5.500192417231289932e-01,4.451139789772633470e-01,1.600238518499465593e-02,5.451257463757538252e-02,-1.588532222374431160e-02,1.378928273916244507e-01
5.728508268337436649e-01,5.696558215307688799e-01,3.311600933896979293e-01,6.064746729738400115e-03,4.665183010298317584e-03,8.998048742157089067e-03,2.409791350364685059e-01
6.748323197403974794e-01,7.503278571173284117e-01,3.800699682470355389e-01,9.852269466099737236e-03,2.308090338385523355e-01,1.172388948314333490e-01,5.623008012771606445e-01
4.830861397283356951e-01,5.144228802853209048e-01,5.057953979723088800e-01,4.584839392405498995e-03,5.833272194825078402e-03,-8.556716128006231284e-03,3.421787917613983154e-02
3.851573221387732948e-01,5.298561850437801812e-01,5.517879303704481542e-01,-8.654983927070685618e-03,2.280240181877040903e-02,7.775178790246111381e-03,1.629668623208999634e-01
3.573171795486645430e-01,6.872663332055904961e-01,7.188548809070078871e-01,9.266380840279285491e-02,1.455046783678576594e-01,9.150929900598821221e-02,4.844412505626678467e-01
2.665205780701025429e-01,6.557244235817362155e-01,5.622648330737078926e-01,-8.029685484543998275e-02,9.308698832667752776e-02,2.611716135535745859e-02,4.137923717498779297e-01
4.949325388827042205e-01,5.268019448554071005e-01,4.881874194552059398e-01,4.326785142320005266e-03,2.398492859304184890e-04,-3.770978963916873429e-04,3.650864213705062866e-02
5.308499308374765580e-01,4.806344520783691343e-01,4.576012009885295773e-01,-8.086377913915461166e-03,-1.855562838558769568e-03,-3.960830802784728703e-03,6.680054962635040283e-02
4.059673914761703362e-01,5.214866148689200065e-01,4.369956876757840614e-01,-1.438579401139768177e-01,-2.399698337015944150e-01,-1.394159277468305369e-01,5.512489080429077148e-01
4.935125996309717711e-01,4.900605895539363877e-01,5.217916243274993704e-01,3.477539306035616964e-03,-4.316071326121142561e-03,2.496705565674164733e-03,3.193908184766769409e-02
4.754179996755493187e-01,5.015355594721772059e-01,5.161723324660237866e-01,2.949773377567695143e-03,-5.265802023952601170e-03,1.054094754148285351e-02,4.148810729384422302e-02
5.132182349932784549e-01,5.577774863930219373e-01,2.736339095961458634e-01,-4.783349558586693501e-02,-1.568393385437469312e-01,-1.219222449285355392e-01,4.419466555118560791e-01
5.114722029187935837e-01,5.531779815683002255e-01,4.146203931349398686e-01,-8.126904502703499386e-03,-1.992953848679037548e-02,-1.493585879167213908e-02,1.312168538570404053e-01
5.298600242987216991e-01,5.516846058039207579e-01,4.010182742761426722e-01,-6.845739447286926238e-03,-1.164660258411657351e-02,-1.986588599117676546e-02,1.470371037721633911e-01
6.856853834191614094e-01,5.323743795236736132e-01,2.406101838643764645e-01,-4.527473661931889076e-02,-8.709697493123715051e-02,-1.119640917626839038e-01,4.689095914363861084e-01
5.474248611640535334e-01,4.245488142232316520e-01,5.020477410152475173e-01,-4.258895345202766067e-03,-8.101748753719408697e-03,-1.075827455170313106e-02,1.103648319840431213e-01
4.290877144517382669e-01,5.581721042862459736e-01,3.370302846954409404e-01,-8.068359451480802691e-02,-1.881055752932154490e-01,-1.008572881570097557e-01,4.395654201507568359e-01
5.680913632266086921e-01,5.727924727621060974e-01,3.292813200466330192e-01,-2.840309984938149766e-03,-4.330688478952155612e-02,-7.268129387090059568e-03,2.529508769512176514e-01
5.203303077470272653e-01,5.641765177579537438e-01,4.040838589787018043e-01,8.775306577894118434e-05,-2.052741205932737123e-02,-2.238370255720106058e-03,1.476884186267852783e-01
5.363244178044725974e-01,5.262645156988386974e-01,4.126150394981246139e-01,-1.868670822109564505e-02,-1.583238176852020188e-02,-2.113664142180282993e-02,1.315315663814544678e-01
5.017617296663432480e-01,5.410372052874274917e-01,4.550090153507556634e-01,6.591336491359659280e-03,1.280379717389056905e-02,-2.720788787891989958e-03,7.879702746868133545e-02
5.410013903891891518e-01,5.096379248336104784e-01,4.468504165528484062e-01,1.297179700325513593e-02,2.505426752923270439e-03,-8.522525755016026675e-03,8.738824725151062012e-02
7.930967641030016724e-01,4.024987436710948940e-01,4.548773246616238941e-01,3.373496524039201749e-02,2.540886624559094559e-02,-2.396883264041643757e-01,5.590651035308837891e-01
5.085318084059385901e-01,4.885016311055699334e-01,5.016177819011595762e-01,1.066924590220515862e-02,9.195084787592707268e-03,-1.097330052524434808e-02,3.559367731213569641e-02
4.667761350040248169e-01,5.246223977319810494e-01,5.003162465314802132e-01,4.619724285702875820e-03,1.137979829544695336e-02,-8.826256262944108533e-03,5.672030150890350342e-02
5.200144421213944712e-01,5.566592995020079870e-01,4.583421861317166224e-01,4.635751956242268983e-03,1.992206418683428390e-02,3.833705856933970177e-05,9.306677430868148804e-02
5.632794982362366865e-01,4.408585607468146206e-01,4.958905318898642056e-01,2.095521642845009011e-02,2.927631438611951603e-02,-9.293162658912788865e-02,2.026718258857727051e-01
7.375828422649426397e-01,2.969629080896886708e-01,5.852507597329316136e-01,-7.122146852367172709e-02,-1.122959262102908411e-02,-1.799515682144098572e-01,5.128098726272583008e-01
4.891021886271739172e-01,5.354566157725375586e-01,4.831084438576011553e-01,-1.836509172330554182e-03,7.565701868633170797e-03,3.117711942650704896e-03,5.170582979917526245e-02
4.645075635889711618e-01,5.227092626398142095e-01,5.082895669148858042e-01,1.190787630877251230e-02,-1.872407880753656356e-02,1.244684895298062317e-02,6.854233890771865845e-02
5.551158939293960870e-01,5.600095904783567446e-01,3.279308845162471897e-01,8.307352171887563697e-03,-4.515071796447717167e-02,-6.182378885344190847e-03,2.432821691036224365e-01
4.981211858815748905e-01,5.398143858931807593e-01,4.536828721776645090e-01,1.289704537238656960e-04,1.616720869463283625e-02,1.338269597975864358e-03,7.972089201211929321e-02
6.144003661464401134e-01,6.151801625923177808e-01,3.517212913223786153e-01,1.623875360039597066e-02,-1.557836489893561251e-02,-4.583192540810810539e-02,2.775366306304931641e-01
5.355156318904131796e-01,5.450445625624118495e-01,4.113028856980190384e-01,-8.391689888022527827e-03,6.587016032664649856e-02,4.272870907124676210e-02,1.881710588932037354e-01
4.598062290584830070e-01,5.291965346611980925e-01,4.676860479203472920e-01,-4.053953001876491914e-03,-6.579097278583052356e-03,-4.212154419778459460e-03,6.754781305789947510e-02
5.311273121087616289e-01,5.632318705114880419e-01,3.835612928201899696e-01,3.905834972310874131e-03,-1.172313159099760450e-02,-4.946455368598490047e-03,1.675572693347930908e-01
6.764194843074973207e-01,6.302787046446446384e-01,5.408744743984611469e-01,1.704502894196686935e-01,-6.810015884362136118e-02,2.450944129336921351e-01,5.436303019523620605e-01
5.432261907363656883e-01,5.533000611303411365e-01,4.187222364128438401e-01,1.232417326311486053e-02,2.785643905875796397e-02,-4.995048534465367993e-03,1.404115557670593262e-01
4.747182576144863830e-01,5.064049627641479256e-01,5.133458524665389655e-01,4.799648089672032061e-03,-4.294943909460472060e-03,1.192294210680863893e-02,4.269749671220779419e-02
5.516523798968875347e-01,5.586296665200363165e-01,3.401134615716477905e-01,-5.669118366859858538e-02,-1.648472699474545500e-01,-1.896351296938010855e-01,4.953012764453887939e-01
8.179155420989399072e-01,6.889769246901747968e-01,2.379287971929914813e-01,7.671981680314379770e-02,4.915971321124756876e-02,-8.584261693904922386e-02,5.702997446060180664e-01
5.554544557188078047e-01,5.578911607208116852e-01,3.691633603055867185e-01,1.131635933016928927e-02,-6.249238499899469751e-03,1.484246316416174341e-02,1.905950754880905151e-01
7.479904212070278557e-01,7.577218881166976061e-01,2.604020513413878857e-01,6.941014472072734587e-02,3.953163257149054644e-02,1.039216907808125229e-01,5.423308610916137695e-01
6.056338578359744540e-01,3.286349611718620833e-01,5.809892219863193041e-01,-4.873770764077588191e-02,9.690160301533709206e-03,-6.516654698542875823e-02,3.010930716991424561e-01
5.858203412059963533e-01,5.625763874155660371e-01,3.122226505850281830e-01,6.322220542774013158e-03,2.611080424247635978e-02,-4.174813943178684594e-02,2.764605581760406494e-01
4.873867926975737896e-01,5.246832004937517224e-01,5.060785771240650099e-01,-9.358477057650107372e-03,1.336323975645999779e-02,1.481612784160586845e-02,5.000293254852294922e-02
5.025292435539348013e-01,5.752867518465920593e-01,5.119462086149072499e-01,-1.105196409975945163e-02,1.053838290356030327e-01,2.656246531125119881e-02,2.012400627136230469e-01
5.983764284330023164e-01,3.902788819693335243e-01,5.837522207721322909e-01,-2.301791257980714475e-02,2.334872122797672020e-02,7.613631263931829041e-02,2.471646666526794434e-01
6.075836616430522197e-01,4.048870503520263231e-01,5.310173191136795534e-01,-2.739008604633266439e-03,2.331718034179041873e-02,4.404566538598350678e-02,1.972364634275436401e-01
5.772454981359469439e-01,6.792897328013438596e-01,3.535539937255766096e-01,-5.595046290999342725e-02,-2.026019450274417211e-01,-1.060385426555016108e-01,4.995436668395996094e-01
5.320888568504738014e-01,5.407804321711698892e-01,4.376730708152494209e-01,1.075070183389320068e-02,-7.511425891782118162e-03,3.351002054268407103e-03,1.017850264906883240e-01
5.532740050381891317e-01,3.173117315271750671e-01,5.411902488300126546e-01,-6.971256902894482077e-02,6.580027575567559683e-02,1.361914579195008246e-01,3.690336048603057861e-01
5.191716782393545060e-01,4.810222126268671738e-01,5.002016570720833055e-01,-6.061452053073289326e-02,7.772216529639970617e-02,4.346214075352711204e-02,1.894808262586593628e-01
6.178608693812920327e-01,3.106193276965308891e-01,4.345225414778794981e-01,3.207531284866473043e-02,1.106786700049119596e-02,1.920763969613711042e-01,4.310628175735473633e-01
6.110622944653398836e-01,4.564427199745153541e-01,6.402743342914321012e-01,-2.284070471302404592e-02,8.956378616919578872e-02,2.665581454434661213e-01,5.177519917488098145e-01
4.862515601980578195e-01,4.574615520498437893e-01,4.930016266594602348e-01,-2.616304202810151511e-02,-2.667074999191979684e-02,-2.261352753893387454e-02,8.240374922752380371e-02
5.683955957966904116e-01,3.413004077820312454e-01,5.476878071874287102e-01,1.101944589612509871e-02,1.618305306726064083e-02,-4.307992295348890555e-02,2.324134111404418945e-01
7.501706225308015785e-01,7.099868292408547665e-01,3.582884134368473639e-01,8.548632152259154349e-02,6.315662209859264353e-02,1.793143367117089604e-01,5.194131135940551758e-01
8.109524053217019857e-01,5.387105377869997325e-01,3.483212025094712949e-01,1.289026407639386196e-01,3.642751202100569241e-02,1.828849892744055516e-01,5.624633431434631348e-01
3.745744359379656885e-01,5.707369582375285688e-01,5.721486158895493501e-01,-2.772148493261191761e-03,6.854756941462817471e-03,6.055761270804460236e-03,1.975668966770172119e-01
3.751854674188550565e-01,5.653419982682447165e-01,5.701234759038690258e-01,-1.069089365152534575e-02,1.046766574526579105e-02,8.812540840278345819e-03,1.949260979890823364e-01
4.653167346558078621e-01,5.029308481622619675e-01,5.312177436402161224e-01,9.609132093118189638e-03,4.016766229287967692e-03,-3.552370462003291100e-03,6.035083904862403870e-02
3.801181493377125409e-01,6.239128877534978468e-01,5.723064704344573705e-01,3.093512744506266010e-02,3.061624262837295621e-02,5.625493454416308041e-03,2.351503223180770874e-01
3.242216125659953541e-01,7.703762147680439654e-01,6.464720383191168152e-01,6.277050229495126366e-02,-1.751593472129825413e-01,9.286790457330477977e-02,5.374587178230285645e-01
4.659763282577282228e-01,5.202456233947191366e-01,5.021618675677937960e-01,6.422719096691455534e-03,-1.158137458594046647e-02,1.578315191664281594e-02,5.970132723450660706e-02
3.691775292494458016e-01,5.758733434349665448e-01,5.555967377210264679e-01,-5.179799604772375747e-04,-1.083044157079350069e-02,9.099300221546098577e-03,1.988575011491775513e-01
4.221097079646688455e-01,3.920826798609440278e-01,5.803190528932855585e-01,1.601534182844021048e-01,-1.408901391798624177e-02,4.622753157789193101e-02,3.385796546936035156e-01
6.156473529701044223e-01,7.442238253756867650e-01,1.925594530227267565e-01,4.002788484517240397e-02,-2.575176896572515736e-02,8.936830835132306139e-02,5.298025012016296387e-01
2.948577116308774282e-01,5.634213065276234556e-01,5.617373043430087254e-01,-4.966092791849541742e-03,-2.438767642526464691e-02,7.511839272092015775e-03,2.714857757091522217e-01
3.588301460445162960e-01,5.539529899982386096e-01,5.230221695783050517e-01,-2.272838167094773029e-03,-5.793216903203661505e-02,1.322719867829001694e-02,2.088135778903961182e-01
5.022053333719379564e-01,5.599838141759700960e-01,3.912746975532019889e-01,-9.867113320550329608e-03,-5.905905342594990753e-02,-2.416288423656916609e-02,1.859056055545806885e-01
4.977963809104971604e-01,4.429804542007614865e-01,6.201798502934637858e-01,-1.077345380058212093e-01,-2.621711202757827028e-02,-3.381008789887607335e-02,2.549561262130737305e-01
3.872926917011700887e-01,5.597525959787464922e-01,5.661555744966444426e-01,5.378111464690786374e-04,1.046969577145273958e-02,6.873760166371653026e-03,1.770851016044616699e-01
3.971185888515694762e-01,5.577164655378410441e-01,5.668140713458992286e-01,1.392714038760609410e-02,1.096756642870544418e-02,9.458026179069578196e-03,1.689574569463729858e-01
3.853690166638107373e-01,5.635292020894583365e-01,5.669658788167362129e-01,4.057481107132121512e-02,2.794946634597321802e-02,1.228077879872382060e-02,2.002499848604202271e-01
3.705913672602592079e-01,5.827179083412817873e-01,5.673383695194502696e-01,1.413844717273192442e-02,3.213402334282440542e-02,1.412756605403705373e-02,2.151000499725341797e-01
3.755977523596805701e-01,5.543670583905124793e-01,5.580697636299302156e-01,1.366871343280372762e-02,2.586799456798331669e-03,1.044087283048922808e-02,1.831439733505249023e-01
6.070031652330554195e-01,6.961504032274238307e-01,5.592739563643509548e-01,2.101644992189925509e-01,-1.137933466869969351e-01,2.033632947852928030e-01,5.566904544830322266e-01
4.519026486906498885e-01,5.221107830894013979e-01,5.638451065560597941e-01,1.098093462855686750e-02,1.962172084337310968e-02,1.086499457322769036e-02,1.071071773767471313e-01
4.977441239726777544e-01,4.941591510773681306e-01,5.123810838624008879e-01,6.079133815004948531e-03,7.366802814887058425e-03,-4.762635772185049715e-03,2.492570504546165466e-02
4.539855868077924961e-01,5.207825665839815876e-01,5.284853716616179087e-01,5.564100867540407343e-03,-4.260164848017139461e-03,1.127482487468552293e-02,7.459479570388793945e-02
4.821087831319775252e-01,5.071172686587995804e-01,5.382427028486409526e-01,2.498025796057203388e-02,8.080089137049733042e-03,-4.280908160570217648e-03,6.704848259687423706e-02
4.459788339762967291e-01,5.421958951750400768e-01,4.999496938030096316e-01,-2.457356398473680868e-04,-6.898965876843006148e-03,1.756132965418602412e-04,8.438435941934585571e-02
4.773715471388411125e-01,4.824886034124269973e-01,4.992165783123322931e-01,-2.213458241226827754e-03,-2.590405105584466135e-03,-5.482906590007529876e-03,2.272934094071388245e-02
4.792055758421476241e-01,4.810882738682382698e-01,4.988611057102204649e-01,-1.413854899751426988e-03,-2.090141488615403567e-03,-4.323021035590185121e-03,2.068931050598621368e-02
4.741874760806740197e-01,4.746887561026699176e-01,5.077533053783923611e-01,-2.072874241646751377e-03,-4.154204165593256004e-03,-2.199807835791748548e-03,3.448580205440521240e-02
4.660090689794161856e-01,5.242996995570533558e-01,5.569635072547979293e-01,2.678311880590787675e-02,5.864940266435176783e-03,1.418114793073894583e-02,9.605847299098968506e-02
5.508141646738988761e-01,3.494921050975718924e-01,6.322817534390376970e-01,1.912434119429311519e-01,-7.760181190807852181e-02,9.466805856261426011e-02,4.671649932861328125e-01
5.264967669845036502e-01,4.923600597536340051e-01,4.858056895980010226e-01,-3.791961493979982513e-04,2.579732270869135227e-03,3.655450717342581361e-03,3.863292187452316284e-02
5.925589814251428500e-01,5.953757586002245139e-01,6.852295413098020704e-01,2.237940471719960800e-01,-6.045478981643678112e-02,1.610538420193534659e-01,4.973584413528442383e-01
4.808172112839598777e-01,4.753981255661703931e-01,5.080953627182895893e-01,-1.911019922103625356e-03,-1.332762711735260494e-03,-2.205067953595804108e-03,3.085706382989883423e-02
3.742817399862399252e-01,5.524520447571811266e-01,5.419708316991659336e-01,-7.468649029795346693e-03,-1.989248289681164530e-02,-3.829291620545309874e-03,1.771596372127532959e-01
4.624927284054590193e-01,5.308205537466698098e-01,4.594811196291896938e-01,-1.242700216596042545e-02,-1.710195443460905615e-02,-1.352492949449891381e-02,8.229842782020568848e-02
4.538603654699627232e-01,5.190914641290798048e-01,5.290524867130463882e-01,5.829690865472256581e-03,-4.373660652465235187e-03,1.082025837986759671e-02,7.426077872514724731e-02
4.910154774660781540e-01,4.898175996271615373e-01,5.303828843472901955e-01,-6.933094610245648647e-08,1.148842215808969182e-03,1.271497439142474459e-03,4.008983075618743896e-02
5.264502230011843809e-01,7.390980783663307907e-01,3.151215012285885075e-01,1.284287247782377739e-01,-1.573022164956523195e-01,5.823529064141501344e-02,5.183680057525634766e-01
4.684902766972687260e-01,5.190209684856939010e-01,5.128157330300731065e-01,3.717100543306439860e-03,-5.227371592753877853e-03,1.196499828766470035e-02,5.320912599563598633e-02
4.249600135464909334e-01,5.620227989315079720e-01,5.081115674322425058e-01,-1.360705640587297691e-02,-4.627002675854379604e-02,-7.209010174289753707e-03,1.464155614376068115e-01
3.624988466500812523e-01,5.738859049016422631e-01,5.374020906277038323e-01,-3.536438460214356896e-03,-5.686220804211231106e-02,-1.173841442150929705e-03,2.191915512084960938e-01
4.279897548111256667e-01,7.739696430403935068e-01,5.959698124983088263e-01,1.432840318253288669e-01,-1.665060347598109891e-01,1.430499921091999416e-01,5.440177321434020996e-01
5.166320114064362201e-01,4.778051653686368194e-01,5.164776227596540314e-01,5.139934759326326291e-03,-7.604496070498734106e-03,4.857721444244066621e-03,4.272104427218437195e-02
4.938479778450076130e-01,5.518486477552605463e-01,4.445879589291358291e-01,-4.033356050028713558e-02,-6.736614479709582270e-02,-3.423606311167452787e-02,1.750972419977188110e-01
5.224444300703080524e-01,4.541231258892182154e-01,5.224053626946829620e-01,1.305749253668193541e-02,-9.620658971859244804e-03,1.153792940373934463e-02,7.650928199291229248e-02
7.260562786322443118e-01,6.898310804043730204e-01,4.258035352323572553e-01,1.248720271903846074e-01,-5.734410863233704858e-02,2.013308184058324457e-01,5.087569952011108398e-01
3.894935924217264311e-01,5.522751465490246536e-01,5.424196331322429510e-01,8.042945824460254536e-03,-1.830864585503358399e-02,7.772121630648463030e-03,1.623932719230651855e-01
5.299643303329339972e-01,4.113920189524825632e-01,5.659673847286194048e-01,-8.850901340538624637e-03,1.438907723904980090e-02,9.558920240236929572e-03,1.440654397010803223e-01
3.756820768786350295e-01,5.166222057696516767e-01,5.565350232970087685e-01,-6.718619450021483253e-02,-7.838881985163133337e-02,-3.431717992816504803e-02,2.501836419105529785e-01
3.322622768119611880e-01,5.663680698123150226e-01,5.680519844805963503e-01,-3.907304004998050223e-02,-6.143173758034130294e-02,-1.761640345660995047e-02,2.683938741683959961e-01
5.050361718161437974e-01,4.906883656673938776e-01,5.076491077675271413e-01,9.736174698260350799e-03,-7.584283871759654738e-03,1.198217929055751287e-02,3.373185545206069946e-02
5.061589240456797478e-01,4.952686528547872724e-01,5.060869188309466971e-01,1.566626320959999463e-03,-3.567283383040837849e-03,1.121952233881852749e-03,1.292806491255760193e-02
4.479961622499080143e-01,5.507668652576479529e-01,5.505215883796796827e-01,-2.043426740088163385e-01,-1.791971396017051354e-01,-1.359078331668749084e-01,5.362388491630554199e-01
4.402095671783762265e-01,5.164689100144251865e-01,6.113589865134054779e-01,-1.001948097427892703e-01,3.805258409100722300e-02,3.707702887193992797e-02,2.462539076805114746e-01
5.054832419747662398e-01,4.981562805857546739e-01,5.002504874204293239e-01,1.190439729389512714e-03,-6.106637728216682097e-04,7.017032545349934786e-04,7.040825672447681427e-03
7.705990300454835795e-01,4.704953603313184463e-01,6.501157530303836030e-01,5.816026984269594136e-02,7.120706918411690012e-02,2.194376571271655085e-01,4.880971312522888184e-01
5.282293269479083619e-01,4.000298536359439550e-01,5.538774536545109095e-01,-1.145716841747368951e-02,8.969220904835581432e-03,-8.015392273066512417e-04,1.449761241674423218e-01
5.610789399686025858e-01,3.477128777849831653e-01,5.460676619567349510e-01,-6.223423680507679523e-02,-3.595354587384772677e-02,-1.181479742615593603e-01,3.161038160324096680e-01
5.239509371324641007e-01,5.034304059949200605e-01,4.827609574535065007e-01,9.700491969821350285e-03,-2.134160855047114672e-03,3.410890877994067396e-03,4.004162177443504333e-02
5.234009112536990305e-01,4.964261829566861683e-01,4.902792201153025053e-01,6.230413758918204072e-03,-4.342949820255934817e-03,7.036336052704770042e-03,3.539493680000305176e-02
4.860893966800455823e-01,5.248484902609531488e-01,4.941020295325456724e-01,-1.687211529735469125e-03,4.309419351282007052e-03,6.814379203355004459e-03,3.820298239588737488e-02
6.496118774011596653e-01,5.020340922804285011e-01,6.324089225905885625e-01,-7.084040442520689318e-02,1.462945735704308803e-01,2.017962223620042572e-01,4.700669348239898682e-01
4.902496790695312634e-01,5.172409425826334228e-01,4.893543102659365651e-01,7.807684790658635417e-03,-6.691565674770007244e-03,6.470697761399691640e-03,3.458783030509948730e-02
5.266403578539482488e-01,4.995861366270313852e-01,4.837308660257627069e-01,-3.306828178848192704e-03,3.011175672871539786e-03,4.201968352943307762e-03,3.905443474650382996e-02
5.537569676845643940e-01,3.586781830712468810e-01,5.536155318012718762e-01,-1.039015697124015189e-02,8.389107966941155214e-04,-9.627604037688627936e-03,1.965507864952087402e-01
6.215938942007437351e-01,1.984891182341543825e-01,6.707736523689120656e-01,4.959007166743878425e-02,-3.834130058418978165e-02,3.975631525869954136e-02,4.677326977252960205e-01
5.160607839083971582e-01,4.939586788524818473e-01,4.972088274513059014e-01,2.639439484391800476e-03,-4.381518461562278893e-04,2.365310931702929893e-03,2.157524786889553070e-02
5.133994119150201429e-01,4.978571929046089473e-01,4.973450250164287989e-01,3.322874387396759169e-03,-2.951770511092512324e-03,-1.542350624391725928e-06,1.757971756160259247e-02
5.925717627824559353e-01,4.343044861432685533e-01,5.683666982641929488e-01,8.560900518672906467e-02,-8.351362081285597372e-02,1.538820549216703693e-01,3.684465885162353516e-01
7.586788082865572047e-01,3.332152626348100499e-01,7.696148948695952230e-01,1.535039267202169266e-01,3.978564688699775392e-02,7.347432960499053478e-02,5.267126560211181641e-01
6.169060537937363087e-01,3.351345158553615255e-01,5.634475169726618216e-01,1.711789530973401117e-03,6.825183301028456793e-04,2.741776693893587316e-02,2.635437548160552979e-01
5.675979420368453265e-01,3.694536197450400961e-01,5.641106287369167527e-01,-2.814960961935243297e-03,5.271590613013531906e-03,-1.176716197763200524e-03,1.967069804668426514e-01
5.553137704700492616e-01,4.005937880154065711e-01,5.084438925308929491e-01,1.746747168644002812e-02,1.023537733361476465e-02,-3.918626680499751741e-02,1.572248935699462891e-01
8.188132114923925009e-01,3.053346435801790881e-01,5.979561164999279699e-01,6.909209832413371055e-02,7.675919095140772141e-02,-1.754160875376168105e-01,5.686318874359130859e-01
7.910917854484373901e-01,5.405284000416834544e-01,4.231724704341730536e-01,1.273652394223961093e-01,1.048600715310973319e-01,-2.079780092489702525e-01,5.633619427680969238e-01
5.703628469745073426e-01,2.738431642355859674e-01,5.018621073326458015e-01,-1.164508253642290991e-01,-6.588876511499976163e-02,-1.717727074642026730e-01,4.631721377372741699e-01
5.557539858744953154e-01,4.921230253722281844e-01,4.855826267407509222e-01,3.270238593955248491e-02,3.553591820460529072e-02,-4.600944418375958050e-02,1.336233466863632202e-01
5.038409142081841097e-01,2.936273547529166805e-01,5.449727580632072188e-01,-1.636082266033008770e-01,-6.631421744413046326e-02,-1.274927181183301284e-01,4.436067044734954834e-01
6.927742431796825029e-01,4.024618757206993580e-01,7.529441636924250059e-01,1.802617218073853389e-01,1.065882997985224956e-01,-3.699414028583770248e-02,4.909597933292388916e-01
4.996457191406000753e-01,4.713320262323521526e-01,4.751967879032209519e-01,-1.226490501795680747e-02,-1.196360028565971595e-02,-1.374744906485717705e-02,4.642003774642944336e-02
7.657921662350770653e-01,2.092190668995126401e-01,7.606424159066915713e-01,-4.750884731329244048e-02,5.005502574614641847e-02,-8.945679415858723282e-02,5.875621438026428223e-01
5.167272901723432010e-01,4.604974942446025676e-01,5.331838519009917121e-01,7.400635650310878090e-03,1.017877771693849291e-02,-2.964415931308156220e-03,6.970976293087005615e-02
5.864583227104498420e-01,3.899622635165015394e-01,5.976136578573982838e-01,4.350898072210263728e-02,2.876889805916855308e-02,4.307924222369948625e-02,2.337875664234161377e-01
5.446106521340099427e-01,4.114687216614203447e-01,5.488845445025021252e-01,6.193882083468997719e-03,1.327638804529621651e-02,-7.023173179954295131e-03,1.382241994142532349e-01
5.748294502289560404e-01,4.351975816066017133e-01,4.401013684247740421e-01,-7.077024138742228111e-04,1.138982080992496232e-02,-8.547967943119293144e-02,2.028482109308242798e-01
5.234997168262097711e-01,4.489555714601661807e-01,4.713736462306671871e-01,2.001956858421770347e-02,1.913525741514766551e-02,-4.652043053235378062e-02,1.148108839988708496e-01
6.083364267145626725e-01,2.427609755946971148e-01,4.041482226770639619e-01,-1.025457731434253374e-02,-1.950080220422171010e-02,-2.323464764182890108e-01,5.139095187187194824e-01
5.784249939765419013e-01,3.226573713590488168e-01,5.287072999670752171e-01,-1.018127161147393267e-01,-7.715218093924552933e-02,-2.038122196387634477e-01,4.782738387584686279e-01
5.827901200544167715e-01,3.200649191826907547e-01,3.968610546027733776e-01,-9.433087283599320139e-02,-7.249233603609607501e-02,-2.067416136343590283e-01,4.747973680496215820e-01
3.566251588734076217e-01,5.530532383186277379e-01,5.063960497844155473e-01,-1.911182943625177547e-03,-5.590922231384495150e-02,1.211564721314387083e-02,2.035312056541442871e-01
8.199747689243326310e-01,2.610775337620349079e-01,7.753219873481705937e-01,6.400718484003979636e-02,8.836900323737897911e-02,-4.885448905168274236e-02,5.764390230178833008e-01
5.214177602352211283e-01,4.596743977879944043e-01,3.858160542036382923e-01,1.109299740923881117e-01,1.502593273263236329e-01,-1.405590022721308896e-01,4.216017425060272217e-01
8.070637232798829608e-01,2.999677678925661839e-01,6.254025313969596711e-01,2.891091296778367306e-02,5.872445379693145423e-02,-1.540613942123518765e-01,5.311171412467956543e-01
5.085051322740220536e-01,4.947432764267598038e-01,4.920621131269480864e-01,6.728062463360803651e-03,7.126360678062514109e-03,-6.236390600585201005e-03,2.526476420462131500e-02
5.100829245094080644e-01,5.448701543479457232e-01,4.028735525166248221e-01,-7.882567534712812268e-03,-2.192555561135612133e-02,-5.286432092812082435e-03,1.347069144248962402e-01
5.252882905010650694e-01,4.783266335696503280e-01,4.833882879599927240e-01,5.427753776983137123e-03,5.445398617903064384e-03,-2.492906812171407412e-03,4.678991809487342834e-02
6.588162201185182587e-01,5.868526211553819483e-01,3.967967969845954124e-01,1.965824202031661028e-01,-4.599827942582148527e-02,1.873701411654823124e-01,5.315837264060974121e-01
5.123429511128371194e-01,5.524296714159617760e-01,4.130701219302186922e-01,9.187938446080973903e-03,-1.754943468169326351e-02,9.381275525864107151e-03,1.299337893724441528e-01
6.286313929429273584e-01,7.651085168972503459e-01,2.878460516773459488e-01,8.821880286810337979e-02,-1.706979875002190838e-01,4.009903872203707254e-02,5.448439717292785645e-01
6.325470948246993963e-01,7.605434517779903203e-01,3.395827021611964591e-01,9.098818352343500393e-02,-1.729889735610605772e-01,6.409472749501489430e-02,5.163778662681579590e-01
4.568898985749365038e-01,4.992957311987523128e-01,5.448841998953306565e-01,1.753313605533140390e-02,2.796560237185016437e-03,-3.784916005240507395e-03,8.245272189378738403e-02
5.208729054379844792e-01,4.945657682336079275e-01,4.887481719468738661e-01,-4.365785339074135588e-03,2.364672428548549900e-03,2.668570329783735793e-03,3.121335059404373169e-02
4.094271123800437562e-01,6.013603678902079697e-01,5.140048116195410355e-01,-1.959423058389423572e-02,-1.156732393850609802e-01,-2.237309507838288608e-02,2.655132710933685303e-01
5.883920963983885200e-01,6.005941170506032822e-01,6.085264163198147447e-01,-7.658251820082152828e-02,1.855491950018174352e-01,2.156876284643011732e-01,5.106390118598937988e-01
5.055910807711732069e-01,4.326186687818601717e-01,5.585706849226088622e-01,-3.621200639826189366e-02,2.200096004938900673e-02,2.052285082156960622e-02,1.365557760000228882e-01
4.055436344019303641e-01,5.264829578393550591e-01,4.154178136181452263e-01,-1.459350071211070188e-01,-2.506403325219667688e-01,-1.024564135198339776e-01,5.453204512596130371e-01
3.697147662504034482e-01,5.629608922468520849e-01,5.487670743619672553e-01,-5.937370630626222874e-04,2.034470472485642306e-02,1.072249839937289284e-02,1.907624751329421997e-01
4.981460089620125542e-01,4.541456369403413795e-01,5.541796864340184925e-01,-2.436007491813814430e-02,7.970297312770349002e-03,8.972818610823371510e-03,9.876061975955963135e-02
4.992756357124068511e-01,4.747060019509791173e-01,5.179610279955552121e-01,-6.939899023537758789e-03,9.865646872685606555e-03,2.853980234116005547e-03,4.327608272433280945e-02
5.355162581795036569e-01,4.996954660546042426e-01,4.734029442066119420e-01,-1.270262494401646659e-03,4.018083698384801797e-04,5.061776611214652277e-03,5.475796386599540710e-02
5.984673827199669116e-01,3.195586680827993131e-01,6.318947869665543227e-01,8.504118927471871620e-03,5.149738307243842406e-02,-7.831613249322178644e-03,3.107853829860687256e-01
4.805016542963604365e-01,4.178590873011768236e-01,5.760676883893298683e-01,-1.219158182353569653e-01,-3.487169301228330506e-03,-7.019027721708849532e-03,2.526225149631500244e-01
4.577653565166647232e-01,4.625649604172866747e-01,5.371399232272999757e-01,-2.357436077735077309e-02,4.660216683127812141e-03,3.999690191294892443e-03,8.787939697504043579e-02
4.580141833408860053e-01,3.941871772069526214e-01,6.851479006709310093e-01,-2.333061924222028238e-01,-4.841463470344455761e-02,-7.870596861744330597e-02,5.089911818504333496e-01
5.294538648607255427e-01,4.661508211899990095e-01,4.938167571568111147e-01,-1.650138477528152736e-02,1.224313303356722171e-02,2.890973420114321263e-02,8.243317902088165283e-02
6.477850322097793434e-01,2.862634282713479306e-01,7.262136731166308756e-01,-1.444343904784599897e-01,6.399669159039592450e-03,-8.723303880755460538e-02,5.007376074790954590e-01
5.387890743549125228e-01,3.664076313371256721e-01,5.531470037576994292e-01,-1.839394087298558758e-02,-3.624299191285160118e-03,-7.922371810817153970e-03,1.834100931882858276e-01
5.384008753991821328e-01,3.856282718624066685e-01,5.307177125974481546e-01,-1.953217658892409184e-02,-1.520221654475168403e-02,-1.711810419515008216e-02,1.579292565584182739e-01
3.724447218856338782e-01,5.586373031406461909e-01,5.546575679613600096e-01,-1.945634750808914182e-01,-1.515533148887114878e-01,-8.477246479329079987e-02,4.878234267234802246e-01
5.105900518957222634e-01,5.613078874792739592e-01,3.807206320307409131e-01,-1.464355638077772018e-04,-5.508637825525224130e-02,-8.644391008443750440e-03,1.880234777927398682e-01
5.648091630925380358e-01,4.690832268533891014e-01,5.784137029086761084e-01,-4.378959340324631300e-02,6.769155578310065424e-02,7.553142698243579811e-02,2.174048274755477905e-01
5.365406867670408086e-01,7.161253115359249577e-01,6.178856821198346339e-01,-6.014546256818872894e-02,2.268402859914874503e-01,1.478348014558407419e-01,5.050214529037475586e-01
5.191044299730691591e-01,5.421503271489216402e-01,4.330443482174110570e-01,1.812065807724528438e-02,3.693062729760877849e-02,-1.346285546023935110e-02,1.246644183993339539e-01
4.779247886128744627e-01,4.795656713005160277e-01,5.311603910427771247e-01,-4.269137366599049833e-03,5.046253750349804536e-03,6.261349923901876266e-03,5.475447699427604675e-02
4.873724539417452206e-01,5.549274582605849826e-01,4.402920804959294943e-01,5.057683917248047799e-03,4.858362683957892503e-02,5.068158775652479436e-03,1.311322301626205444e-01
4.910505504276398980e-01,4.877655206200115501e-01,5.260144598063204446e-01,-9.205607869600960017e-03,1.442991644277358265e-02,1.389598325078679301e-02,5.297467485070228577e-02
5.383827278120700832e-01,4.536374207115491108e-01,4.624998356737970995e-01,-1.050773516542458617e-02,2.124974599523870092e-02,6.272242704654167056e-02,1.414123773574829102e-01
5.328205533721276366e-01,4.850794992174125020e-01,4.906926312011768987e-01,4.320998216307431894e-05,1.025822568923587729e-03,1.885996268976128289e-03,4.534944519400596619e-02
5.541760190902950134e-01,4.710662987901687027e-01,5.562374056189075544e-01,-5.748181752452966031e-03,3.192927355954348206e-02,8.337492436594268197e-02,1.763363033533096313e-01
5.150907916876198422e-01,6.024463538963292786e-01,5.044120362363616605e-01,-1.317282766094785831e-03,7.943168313127647873e-02,7.934200960271600711e-03,1.667336672544479370e-01
5.787124495527068424e-01,3.326247546596957649e-01,8.089134877043021588e-01,-1.741897665390296779e-01,7.856609046613918790e-02,5.658901064835023670e-02,5.379148721694946289e-01
4.433309971788996773e-01,4.865257434286802130e-01,5.368016988664958689e-01,-1.489998942861299643e-02,6.361055050989875524e-03,1.127642614005522695e-02,8.794319629669189453e-02
3.610943001266621044e-01,5.328636566502135130e-01,5.338666097732406302e-01,-3.691753983701661496e-02,3.784576659518416181e-02,2.012864801297221257e-02,1.981895565986633301e-01
7.561868804604529037e-01,2.332341648127907452e-01,7.196499426505034158e-01,-1.943904204231459640e-02,7.838065191870127735e-02,2.123559073073468251e-01,6.407470107078552246e-01
7.468174267678511224e-01,2.881437882403182216e-01,7.829741385586546087e-01,-6.648069645520908455e-02,6.417524153504879092e-02,7.968250928196636551e-02,5.224320888519287109e-01
3.985788154445853437e-01,6.058691192932884606e-01,6.115615153260893777e-01,1.758642632831446118e-02,2.204331534084118527e-01,6.689690108672264636e-03,4.370538592338562012e-01
6.125430531409837842e-01,2.634497405569549699e-01,7.114362463650573121e-01,3.453116106679451208e-02,6.878723331928464357e-02,2.185243936151050892e-01,5.720139145851135254e-01
7.520322406418316064e-01,3.752224844871838716e-01,7.066313621829548586e-01,1.354571327183223817e-01,4.544315705387075299e-02,1.675174787351995653e-01,5.218877196311950684e-01
6.438505728093883995e-01,4.619093426963483684e-01,7.676971501641396411e-01,2.147187812254779116e-01,3.560215812214567732e-02,7.477105190140161117e-02,4.794377088546752930e-01
7.815956928195960662e-01,2.487974302247855096e-01,7.510273847269552938e-01,-8.247253599298000511e-04,6.291661937793149861e-02,1.142189507641875809e-02,5.298967957496643066e-01
5.372693961106549398e-01,3.896240098159211018e-01,5.108027988732404268e-01,-2.054402518552145285e-02,-1.630334148754035428e-02,-1.827350562440494680e-02,1.471641957759857178e-01
8.205776302996307114e-01,2.517240643999000271e-01,7.398336335825796972e-01,7.833839559899451188e-02,9.506965440137747636e-02,-7.287049272454636240e-02,5.879100561141967773e-01
5.969385000556366450e-01,5.839943007414449827e-01,5.049166335233128411e-01,8.676734410018897836e-02,2.886086295620148290e-01,-2.708302124319551113e-02,5.311453938484191895e-01
5.187595028401146280e-01,4.827285757578613223e-01,4.901338337236791354e-01,2.422226357891284296e-03,5.729238388391329727e-03,-1.922137289282408986e-03,3.483396396040916443e-02
5.153388417662271292e-01,5.143914391536766884e-01,4.616107676709786944e-01,-9.658352692192848435e-03,4.858090140755946633e-03,3.758930111532066305e-03,5.683084204792976379e-02
5.185671641182859615e-01,4.847388598583647346e-01,4.919198961449308127e-01,1.552289146484340816e-03,6.083936599346136164e-04,-3.508973933735316363e-03,3.159552440047264099e-02
4.236575808913011221e-01,5.030703576843691405e-01,5.399511267707517437e-01,-2.586103387401890441e-02,2.915009654247420218e-03,1.686440222768781708e-02,1.161054670810699463e-01
4.711804992909461309e-01,5.837396556821121685e-01,5.551571655548136475e-01,4.343638522394507179e-02,9.402903440150364722e-02,4.510467497261344723e-03,2.061913460493087769e-01
3.871339005968584823e-01,5.529827003092337989e-01,5.459732427970779289e-01,-2.669098584978612382e-03,8.883881295208326907e-04,1.369490120352784106e-02,1.642523556947708130e-01
4.687921375120417955e-01,4.591900530776708012e-01,5.360373210143860589e-01,-8.018016821732230209e-03,-3.147865841123111824e-03,-1.505960237772003673e-03,7.408916950225830078e-02
3.617062602878464150e-01,5.466136693951837433e-01,5.176402170451410711e-01,2.132756183742650496e-02,5.062827606703480116e-02,-3.281201243597103943e-03,1.968739777803421021e-01
4.272843037826741242e-01,7.277107176618794471e-01,6.809487411339761875e-01,4.720403340557467395e-03,2.022901278146680137e-01,8.668477007353622699e-02,4.730408787727355957e-01
2.467595409471192713e-01,7.350923708035401738e-01,6.696557872494662833e-01,1.944337777738194134e-02,-1.224268167974605914e-01,1.467363973872890526e-01,5.670008063316345215e-01
4.621514589922415261e-01,4.645684028196688797e-01,5.099430620854733531e-01,-2.051971800878599206e-02,-1.269208477598382859e-02,-1.258500602293612623e-02,6.630203872919082642e-02
3.605109367628833716e-01,5.519082945631952342e-01,5.507868171449588068e-01,-9.455327171269838071e-03,-8.032814171166528100e-03,4.927423192050851136e-04,1.920470595359802246e-01
3.878699677832021520e-01,5.551487630756150038e-01,5.530731212602180147e-01,-8.188558633122211203e-03,6.637715589435549610e-03,9.939479477550210509e-03,1.681338995695114136e-01
2.280734739481503626e-01,5.787552665752556669e-01,7.247115292804341413e-01,-5.295032261036913823e-02,-1.226304789350644159e-01,1.618363110145893194e-02,4.997767508029937744e-01
2.533239983282761787e-01,5.147072887922565787e-01,6.145097823540357496e-01,-1.702836230448546151e-01,-4.188793678084890698e-02,-1.594567255992221724e-02,4.442798495292663574e-01
3.328652336613074358e-01,5.457531479871523539e-01,5.808613493887373469e-01,-2.234210588915795381e-01,-1.757806206685112449e-01,-1.246574163401623636e-01,5.857420563697814941e-01
4.777542227634875016e-01,4.797840058247828665e-01,5.129873156442380511e-01,-8.152205189493973506e-03,-8.199495311688160745e-03,-7.855309102858575379e-03,4.195430129766464233e-02
4.589828858007949375e-01,4.645707973302037885e-01,5.303064967313444455e-01,-9.000000042480809856e-03,-2.266021018938120177e-03,-5.650553243109733732e-03,7.123147696256637573e-02
4.766697168194793388e-01,4.680435407393869762e-01,5.165066930272692591e-01,-5.313629294632955455e-03,-7.298688114970799598e-03,-3.113851677320468320e-03,4.773511365056037903e-02
4.754087729484474112e-01,4.694662184519886039e-01,5.236653430476541082e-01,-1.378101400344907464e-03,-4.465567618407361057e-03,-2.340904413045395618e-03,5.227560177445411682e-02
4.236570567862288916e-01,5.478417670446604770e-01,5.394197010248364954e-01,2.074121489312404087e-02,-1.209454691536506095e-02,1.621637412150368079e-02,1.302506178617477417e-01
4.668853858237681509e-01,4.692703454819674991e-01,5.314378175219992562e-01,-1.079848294457540388e-03,-1.288065854626238614e-03,-3.519006368692284038e-03,6.375245004892349243e-02
3.085266256681076791e-01,5.646307657175558825e-01,5.833004598433424448e-01,-1.060287863880449155e-02,3.054439570704304500e-03,7.848859668471376907e-03,2.669631838798522949e-01
3.187308106631391302e-01,7.373822132339908908e-01,7.430739594722919339e-01,1.495149863644828492e-01,-1.433548136666918521e-02,9.205471256745476061e-02,5.203721523284912109e-01
4.218290599478399794e-01,5.352272609520568603e-01,5.612053677369053251e-01,2.616577369351109211e-02,6.046846027539705577e-03,6.548611351037725119e-03,1.370115876197814941e-01
5.128371969918642526e-01,4.929903991350761960e-01,4.904150664838470841e-01,3.629976660875519276e-03,1.539969798989733723e-03,-1.509445510609494024e-03,2.247487008571624756e-02
7.989455624415171542e-01,4.244197000027300493e-01,4.383871921206617395e-01,5.758928125721487871e-03,3.355486968588007948e-03,-2.408621342935327592e-01,5.562468171119689941e-01
4.701608776955611968e-01,4.688238684936199552e-01,5.227034113790803849e-01,-8.467142350176200954e-04,-1.953255021300886497e-03,-2.388698907188970075e-03,5.351139605045318604e-02
5.308570889979185026e-01,4.842599432961184891e-01,4.669441407757959905e-01,4.071279221612945573e-03,9.572064385114977805e-04,-4.509164653917816998e-03,5.823633074760437012e-02
4.667564431766650923e-01,4.899907173725157050e-01,4.723709478884436375e-01,-2.024040140952827749e-02,-1.452368991070487718e-02,-1.666135141005787787e-02,5.599590390920639038e-02
5.835764532643394897e-01,5.407600036393479526e-01,4.183586881087105191e-01,1.753361288645683136e-01,1.120441585876336965e-01,-1.918763427418779255e-01,5.122457146644592285e-01
4.898451622307017916e-01,5.085714148840286830e-01,4.951265050591672767e-01,-2.746455575460875643e-03,5.097269389316662867e-03,6.511664225382808244e-03,2.252656593918800354e-02
5.116681613756492997e-01,4.968594019237148052e-01,4.970473080821752876e-01,-2.274360097167303293e-03,2.476994451928987012e-03,1.308808218483983573e-03,1.598798297345638275e-02
4.796864647592039566e-01,4.988182367822283081e-01,4.728552589379051985e-01,-6.819092938092165268e-03,-4.371869512096057848e-03,-2.647934016864682619e-03,2.759089693427085876e-02
5.389086080385004918e-01,4.444905191504945341e-01,4.701443887479290762e-01,-5.597899988147653910e-03,-4.713990772162302348e-03,-1.639305477173839953e-02,9.009760618209838867e-02
4.813169528615083292e-01,4.963739177308708062e-01,4.789985142153412312e-01,-1.116698930842350071e-02,-9.060316536712180457e-03,-1.049518985050931254e-02,3.489721938967704773e-02
5.164683700884190598e-01,4.913851990653861357e-01,5.009547467443673519e-01,2.983976683196886814e-03,-6.667373562573981199e-03,3.749034386787417246e-03,2.613325230777263641e-02
4.778280188849925447e-01,4.965803849908515533e-01,4.814051331576962300e-01,-5.488445054691074368e-03,-7.644140385850345387e-03,-6.078488021381931762e-03,2.595918811857700348e-02
4.794798878780561213e-01,4.996220525636552168e-01,4.807779183523732125e-01,-1.578771412026523224e-03,-1.278255184036460176e-03,-3.659395170552695413e-03,2.082785218954086304e-02
5.040819002729080012e-01,4.950343511531775098e-01,5.038594797201755293e-01,1.200815814719934354e-03,6.868222309096607033e-03,-5.786660227878430429e-04,1.505799219012260437e-02
4.810321522783861936e-01,5.087530276688189135e-01,4.740687357312154959e-01,-1.640293609303908025e-03,-2.782632903805404810e-03,-2.610604947310567105e-03,3.258396312594413757e-02
4.744606224739995604e-01,5.157353549566486839e-01,4.697598011431869947e-01,-4.156172161074911733e-03,-1.019623916933119377e-03,-6.898615759446561713e-04,4.445328190922737122e-02
4.233736268751422394e-01,5.687122111871033558e-01,6.787691137203621938e-01,1.582100963427205409e-01,1.240876362578842776e-02,-1.088225506406236779e-03,3.532536327838897705e-01
4.163216793423354933e-01,5.384825853000825280e-01,5.321296744420924707e-01,-3.434101894892895718e-02,-3.252657132768105308e-02,-1.452781840013031914e-02,1.467398852109909058e-01
5.156751705571269717e-01,5.038481238175400723e-01,4.827742272718003602e-01,7.674741320951729284e-03,-1.992911117452379408e-03,2.266564281487663899e-03,3.220655396580696106e-02
4.593046597412767107e-01,4.961766507365703016e-01,5.389451679280523599e-01,1.471105695354970981e-02,9.575724192878127400e-03,-6.770643878396770052e-03,7.633809000253677368e-02
4.811668534368697125e-01,5.012449002236302187e-01,5.269011371947394107e-01,4.422431952797934405e-03,2.202106893464550290e-03,-5.861208486511730771e-03,4.186622053384780884e-02
5.062928406003948112e-01,4.836820044810358765e-01,5.327045415665482286e-01,1.508313131552621762e-02,1.185155171757439237e-02,-5.006879847911897483e-03,5.463611707091331482e-02
4.916171867871150791e-01,4.920905820667037522e-01,5.387934379754648617e-01,2.629963235424461268e-02,9.858451228956462142e-03,1.133921031479814172e-03,6.763080507516860962e-02
5.289856965076165096e-01,4.502287440709553668e-01,5.105796897651573296e-01,2.570723732858127067e-02,1.832245249941441903e-02,-2.263402738462733793e-02,9.807373583316802979e-02
5.545223000906639443e-01,3.390832697942882112e-01,5.529760886431694944e-01,1.590771049399544723e-02,1.277513732245941745e-02,-4.417727429830524410e-02,2.306229025125503540e-01
5.237763845010772190e-01,3.991711709810920605e-01,4.707172362718508030e-01,1.567486135947707970e-01,1.239921548134519935e-01,-1.338491651942828320e-01,4.304760396480560303e-01
3.870633559258006562e-01,7.069512429947515386e-01,4.489692488512012636e-01,-1.983832813043767684e-02,-2.444462573399871497e-01,-1.957401121347595099e-02,5.176385641098022461e-01
5.175433711344513688e-01,4.913742333790637185e-01,4.773401792474992744e-01,6.445352837930175445e-03,2.182749837238334972e-03,-3.007932069216921744e-03,3.761783242225646973e-02
4.838227333728503110e-01,4.817560178742080201e-01,5.301211118122430843e-01,1.407064694549154879e-02,9.322573474810896127e-03,-5.520185968425898003e-03,5.647649616003036499e-02
4.405168182542573696e-01,4.659446164527961121e-01,5.149714647020673386e-01,-7.586022864165414825e-02,-5.416592198974497924e-02,-4.084327246472682638e-02,1.880625784397125244e-01
3.649736812933130348e-01,5.913980990206222366e-01,5.598659640435439400e-01,4.996647806595483354e-02,-3.940360887380797705e-02,6.600858527538609397e-05,2.393126338720321655e-01
5.169654040116284932e-01,4.639528889549597301e-01,5.312817986980548080e-01,6.547660382996499384e-03,-5.843487773776165177e-03,3.745092661794016502e-03,6.361891329288482666e-02
5.239857127219906818e-01,4.681887889939367331e-01,5.172746060422190872e-01,1.018946052885581592e-02,-9.314570442819289364e-03,6.194844839452364089e-03,5.891318991780281067e-02
4.018800800114409877e-01,5.505034918391031873e-01,5.093139616358232091e-01,3.870307503348247762e-04,-2.663666604696327683e-02,4.237084988963636147e-03,1.408780068159103394e-01
2.904023520317033924e-01,5.860515242370721856e-01,5.949668742773088770e-01,-3.042380245563307446e-03,-2.782512704856785271e-02,-1.424772221866932656e-02,3.050954043865203857e-01
3.593013459212115457e-01,6.264189961306563248e-01,6.234493687190726385e-01,3.637911836644133062e-02,2.435957174867476455e-02,2.138652563294374254e-02,2.787293493747711182e-01
1.885755069264989925e-01,6.152917431627313860e-01,6.187055533444512090e-01,3.319754601629366832e-03,-2.145027703038258210e-02,1.720189429560436273e-02,4.311104714870452881e-01
4.957845393690109015e-01,5.180538673587684606e-01,4.960729826054882108e-01,6.566542979211212848e-03,6.160764243375958273e-03,-4.801823748414290813e-03,2.831923030316829681e-02
2.341960751944201502e-01,6.591851680847418127e-01,7.295322441325273743e-01,-2.993984015068532414e-02,-7.031216064771125818e-02,7.651296600242009360e-02,5.005441904067993164e-01
5.317424986653603858e-01,5.432644246571983748e-01,4.379135664347322265e-01,1.161407150938832678e-02,-7.512360663479906477e-03,3.365890940801061042e-03,1.030808761715888977e-01
4.243678733864983399e-01,5.486357244600128524e-01,5.285697124541370862e-01,2.653238287118047257e-03,2.324235152403977475e-02,1.204244669820506500e-03,1.224649921059608459e-01
4.799660376455447963e-01,5.403232913835840368e-01,4.545223358525396495e-01,-4.999953192075756031e-03,-8.088224605108265339e-03,-1.236324773220897266e-03,7.811488211154937744e-02
1.974552767777192352e-01,6.213155813858659560e-01,5.289072946649352458e-01,-3.078541607088780552e-02,-1.443546159791626871e-01,1.186597412035536939e-02,4.634749591350555420e-01
3.412962960707153215e-01,6.034931051190729479e-01,5.920891126440190888e-01,-1.215988007056505171e-02,-3.608079843155383853e-02,2.675483682825092677e-02,2.690421044826507568e-01
5.060538189747728621e-01,4.955183397934668776e-01,4.921554924353984117e-01,9.923317146368541928e-04,6.529510046746751740e-04,1.173760338833833641e-03,1.288800314068794250e-02
5.058878931642338816e-01,4.962886439548737649e-01,4.997602030909293891e-01,1.004811103964340811e-03,3.610962825595082863e-03,1.067983214371803725e-03,1.079077366739511490e-02
4.981232755316812866e-01,5.064370686556264323e-01,4.922943395144924184e-01,5.034468732870559654e-03,3.462853558569169328e-03,-2.357476920286067246e-03,1.674040034413337708e-02
4.995640188575037888e-01,5.037311678759834876e-01,4.960998505746054832e-01,4.573944340177678487e-03,2.290671951008950175e-03,-1.911770409782169488e-03,1.154427696019411087e-02
5.460174699696255241e-01,4.833247535014003060e-01,4.970261473663868390e-01,3.610580847349087463e-02,-1.222313892955458926e-02,7.856424893276083010e-02,1.616640239953994751e-01
5.059729938224117873e-01,5.055526855790604124e-01,4.757823908237808208e-01,1.106700860196290631e-02,7.849172367925701804e-03,-3.999060466418096448e-03,3.871952742338180542e-02
5.041793995797001493e-01,5.068760318632632433e-01,4.905612052757398200e-01,7.928241594401573902e-03,2.682780608674505823e-03,-9.123309387321087982e-04,2.102641947567462921e-02
4.982824228135928069e-01,4.950768314659969027e-01,5.004829505933230394e-01,1.708081397514805977e-03,2.776263511345133939e-03,-3.302773023899081232e-03,9.315181523561477661e-03
5.131193881885318664e-01,4.962553741332511037e-01,4.892179109846203633e-01,5.624079486261928870e-03,2.477193499929513515e-03,-2.207411297809453148e-03,2.409396134316921234e-02
4.854286281256587898e-01,4.862435551988379401e-01,4.876922578891101923e-01,-7.915880209860769688e-05,-9.346383767820243141e-04,-1.410404766200581365e-04,2.577315550297498703e-03
5.062040743579340196e-01,4.976312910582579296e-01,4.935344078862292649e-01,4.012705145141972317e-03,2.071963609939210266e-03,-2.698901985661787510e-04,1.366754528135061264e-02
5.045000366340743891e-01,4.942336146611837622e-01,5.019413067220847013e-01,-2.318701479415217429e-03,4.757140672718185824e-03,2.844594420572197496e-03,1.392741780728101730e-02
5.132077487220564338e-01,3.150202503121323772e-01,5.144604203289026012e-01,-1.494765561887310135e-01,-8.192572437713986633e-02,-1.490275868245067303e-01,4.396828114986419678e-01
4.879976398928431713e-01,4.986445351958551098e-01,5.242166297381962714e-01,3.226551692438469222e-03,3.230614391262786201e-03,-9.028400199124169204e-03,3.669646382331848145e-02
4.998182950190790397e-01,4.991871057218242869e-01,5.038448170118824399e-01,5.721877709053307167e-04,1.980765660751783366e-03,1.223334045216676507e-04,5.652448162436485291e-03
5.095448467902787826e-01,3.968398438080772417e-01,4.313341300979325332e-01,-1.410095599634496877e-01,-1.175990479909940212e-01,-1.866617987487552976e-01,4.644051790237426758e-01
4.988153665259564273e-01,3.823552001102450970e-01,5.904674060264988311e-01,-1.014581869196741065e-01,-1.462373441528230268e-02,-7.106074138242313154e-02,2.816178500652313232e-01
5.783451441711451313e-01,3.961954186916996634e-01,6.572174341866933167e-01,2.115800911994424605e-01,1.944656829652237628e-01,-2.818638506504252822e-02,5.512698292732238770e-01
5.033035983756843912e-01,4.137647453703087175e-01,5.563144443338232659e-01,-3.608678301683516249e-02,-1.294069370239557364e-02,-1.127442066960290118e-02,1.427038013935089111e-01
4.943866768242622389e-01,5.159509586051934660e-01,4.964749118032428243e-01,2.067616241573828201e-03,1.182941783324395002e-03,-9.507016694198349707e-04,2.107326127588748932e-02
5.061652676714645249e-01,5.119778478540244482e-01,4.636411009162044183e-01,1.306724075609076025e-02,8.170821654792980240e-03,-9.437905405309912274e-03,5.539885908365249634e-02
5.064820007309893679e-01,5.115250670764545093e-01,4.751308253486894451e-01,1.087992502670584623e-02,7.691725992237752850e-03,-3.657793819633185870e-03,4.170347005128860474e-02
4.068621770830348483e-01,5.085120475513922322e-01,5.452114926707282150e-01,-2.087169707884321476e-02,-6.403989142632659712e-03,-8.698576068807127928e-03,1.306405365467071533e-01
4.951113390451712948e-01,5.160633751994406770e-01,4.877072890625062107e-01,1.106940471414347843e-02,1.078999249638187483e-02,-8.771144760625992562e-03,3.995752334594726562e-02
4.922323293303761949e-01,5.103472546705254409e-01,4.974234521277571819e-01,2.739618506483215265e-03,2.414641342574336443e-03,-4.047151590628141581e-03,1.871383935213088989e-02
4.971615160005539158e-01,5.149643406647236299e-01,4.940825858340416876e-01,3.142643919375497693e-03,4.959282512454459696e-04,-8.259966944743849654e-04,2.033832110464572906e-02
2.255722618187129269e-01,6.100392314212871314e-01,4.612167482139627461e-01,9.304562088524145208e-03,-1.972897233687495311e-01,1.534122495279557560e-02,4.800845086574554443e-01
5.924965074106476326e-01,3.913621878033070045e-01,5.223007486645486752e-01,5.307730435245156669e-02,3.324865341832023563e-02,-6.014006241938552044e-02,2.321253567934036255e-01
4.493957597598904896e-01,5.692162388351827973e-01,3.970336379972387864e-01,3.534900843242082930e-04,-1.077253871972243676e-01,-7.714091548725173983e-03,2.415904998779296875e-01
5.731802240479164645e-01,3.625721966578350219e-01,5.682958709895618021e-01,-4.500620001344204577e-04,4.985865500910197784e-03,-1.209887823564148937e-02,2.094403207302093506e-01
4.597253018078630293e-01,5.484422067830918568e-01,4.587091845773006993e-01,1.584798293628778736e-03,-2.322985277604372109e-02,2.924049972120362252e-03,9.805066138505935669e-02
4.861833645050429586e-01,4.845348152714115675e-01,4.816282162853287030e-01,-5.124792060151241169e-03,-1.672869662950475771e-03,-1.524185188072547936e-03,1.049347780644893646e-02
4.799544632469583960e-01,4.725714173574556143e-01,5.080972383804281955e-01,-2.369998019830461822e-03,-6.919619258678574338e-03,-3.920806294244469706e-03,3.550938889384269714e-02
4.282163507515727718e-01,4.787085563465042215e-01,6.095610762381665770e-01,-1.246692980381618604e-01,-3.413883400309943722e-02,-3.511076989539657633e-02,2.830209434032440186e-01
5.002036009026621377e-01,4.960628106099975176e-01,5.033828815477832119e-01,-1.275244806209745911e-03,3.571053716939296806e-03,2.041072899287676122e-03,9.800645522773265839e-03
5.649308313316272478e-01,3.542810204454059919e-01,5.196061404941323403e-01,-2.562542981019900416e-03,1.706345630866809701e-03,-6.220783220371573635e-02,2.202678173780441284e-01
5.485437802545002350e-01,4.002699312066054782e-01,5.162135728415694347e-01,-8.014204444890048878e-03,-1.658520963492715605e-02,-3.087390995062958346e-02,1.487082242965698242e-01
5.725776968721517646e-01,4.330201633796537664e-01,5.135955196458900085e-01,-7.103805854728891325e-03,-3.347930518521375406e-03,-5.208649157819528197e-02,1.518150866031646729e-01
5.430446062675086116e-01,3.992302567888317832e-01,5.273413894955941705e-01,2.052637333410767262e-02,1.986811506106466937e-02,-3.246121936008899284e-02,1.558211296796798706e-01
5.021782836953155860e-01,4.748111358553099848e-01,5.411682159771857847e-01,6.478761253871735681e-03,5.616741888349589817e-03,4.306691874763841953e-04,5.964345484972000122e-02
5.010022282699632123e-01,4.682117055598560840e-01,5.365178851114479341e-01,8.793824132515958708e-03,2.321160436289400938e-03,2.815661543284204635e-03,6.142555177211761475e-02
1.269282644115207748e-01,6.775282688653034846e-01,6.191252489531746672e-01,3.594710150222996115e-02,-3.107926068006186624e-03,-1.859378644359584859e-02,5.285426378250122070e-01
5.618236594333574363e-01,3.200062344688591187e-01,5.557722190323072242e-01,-2.993941287549921684e-02,-1.419982228973689373e-03,-4.733333832241878869e-02,2.578088939189910889e-01
4.145394422629101738e-01,5.517133654021507683e-01,5.085925122957666300e-01,2.174106233427548079e-02,-4.411847181336720630e-02,6.991158119446955720e-03,1.488791704177856445e-01
4.858866689013641715e-01,4.782369072822694189e-01,5.254323175273886148e-01,-5.302734460317030073e-03,5.357137412220277541e-03,3.016565186846757816e-03,4.607217013835906982e-02
4.700204733099417331e-01,4.934944478286575342e-01,5.322103498040198222e-01,-3.227001301001005112e-03,1.271788154135608832e-03,6.657594046174595583e-03,5.592698976397514343e-02
3.068808954833657232e-01,7.144746203062586343e-01,5.953880656967505125e-01,7.705352069009248350e-02,-1.832448581283857569e-01,1.508157639134894701e-01,5.644105672836303711e-01
4.887102821372314443e-01,4.900718984860458760e-01,5.373903500721325388e-01,1.029117256981444684e-02,7.550870205440320679e-04,3.651289366247663544e-03,5.162122100591659546e-02
2.122908335486964615e-01,6.199370673428357126e-01,5.342034224090250749e-01,-5.351369081193125057e-03,-1.511432242690709249e-01,1.996716329203435808e-02,4.564991891384124756e-01
4.823189440643562143e-01,4.809218002727165264e-01,4.939958546117007021e-01,6.766934264317078914e-04,-1.280613883892194136e-03,-1.245214519119582737e-03,1.286708656698465347e-02
1.872974744287606574e-01,5.965342537563091962e-01,5.864490362904666299e-01,2.499676661514611820e-02,-6.900443110073295472e-02,3.143737679442999006e-02,4.272861778736114502e-01
3.030401149094401614e-01,6.221541053762142948e-01,4.476074780065197323e-01,3.195999212130676975e-02,-1.742512243546275874e-01,5.213135419033117918e-02,4.229749739170074463e-01
5.582596454131709685e-01,5.326184983941165685e-01,5.161088628312099358e-01,8.522951558388237869e-02,9.337509686053135916e-02,-6.006732585498283927e-02,2.452071607112884521e-01
5.408230798072872769e-01,5.415073569006009224e-01,4.494665822333691052e-01,2.244789358776300842e-02,2.861854140293433948e-02,-2.046400264852693551e-02,1.167651638388633728e-01
5.597686727960061726e-01,5.570099658410059273e-01,5.066149142691455109e-01,6.867666257668793295e-02,9.692975970966095922e-02,-5.218774837550786000e-02,2.306351363658905029e-01
5.468638059236489157e-01,5.000579753035298003e-01,3.945798664228343244e-01,2.052102808651152382e-02,2.482430074521331520e-02,-6.127011986373390173e-02,1.806310266256332397e-01
5.342485472589881823e-01,5.229987562914746313e-01,4.439206519429917952e-01,1.714713415757494058e-02,1.721813456790622504e-02,-1.368840714593807205e-02,9.799540042877197266e-02
5.523483179575360280e-01,5.194133050257186968e-01,4.360478417432713805e-01,1.881961671304123104e-02,2.007072807540654855e-02,-3.601218581649474199e-02,1.301607787609100342e-01
5.172732549465829388e-01,5.653172941570343557e-01,4.277759008127539619e-01,-1.396251726578569968e-02,5.432645644459023482e-02,2.872216775349500581e-02,1.628854125738143921e-01
3.741204272753766991e-01,7.506598601868911258e-01,7.547706468965298399e-01,1.448746622444498089e-01,1.277608457105687545e-01,4.373832025590002059e-02,5.109015107154846191e-01
3.677675887568744306e-01,5.590150977636294538e-01,5.590387439571100625e-01,-5.514116260840388030e-04,-2.132687992136545960e-03,7.144964681451392886e-03,1.916972696781158447e-01
4.547789983363969002e-01,5.203149327527776258e-01,5.387248190487978761e-01,8.354102668894842695e-03,4.655695286292901337e-03,-2.077454033337177049e-03,7.827987521886825562e-02
4.827959048455239266e-01,4.858981594647278079e-01,4.938430674086420891e-01,9.949483278178137494e-04,-1.235580986793722268e-03,-3.188068862775208113e-03,1.163760200142860413e-02
4.789846432875133897e-01,5.000908905517870151e-01,5.367344186432966291e-01,4.175750342386422807e-03,4.474530096050288383e-03,-2.366648291919627202e-03,5.187299102544784546e-02
5.587944765856537321e-01,5.280582465677756687e-01,3.834474532613442177e-01,3.333724806520999440e-03,-5.501719589386640588e-04,-1.515814619579931508e-02,1.643938720226287842e-01
3.407191707332922759e-01,8.070832523688518112e-01,5.744766922095980721e-01,6.704927175083494340e-02,1.794359635966697453e-01,1.412254569709453234e-01,5.770913362503051758e-01
4.517153212060794898e-01,4.787798992053970970e-01,5.347621353088449769e-01,4.881696102602285647e-02,2.190279730732446958e-02,-1.522958876623231768e-02,1.211030259728431702e-01
4.849887491253960237e-01,5.203805632230927847e-01,4.892686419318686974e-01,2.284409723965230045e-03,6.183864748174462342e-03,-5.038574954580847184e-03,3.641377016901969910e-02
4.861051971961256601e-01,5.250995694987042883e-01,4.781590481708429818e-01,5.958124921208116272e-03,-3.461320903102831168e-03,2.809796466693679183e-03,4.538372159004211426e-02
3.231685805085492413e-01,5.998751710749314903e-01,5.669981206707093158e-01,-3.007587205300271682e-02,-2.921457126157018733e-02,1.421573972604357403e-02,2.728196382522583008e-01
5.040908351098065676e-01,4.549968932692415868e-01,5.393862134680564857e-01,1.479959019140879468e-02,7.634822343646676529e-03,-1.322711187587182619e-03,7.890482991933822632e-02
4.947102636535205544e-01,4.889767375612795175e-01,4.835512669009464082e-01,-1.167822687805320780e-01,-1.186242681727930903e-01,-1.147568862033327142e-01,3.503288328647613525e-01
4.702849752110361825e-01,4.837323437972405049e-01,5.062368894508718631e-01,-3.423916694082639826e-03,-3.196183963592774593e-03,-1.117410930731800416e-02,3.781946375966072083e-02
5.321864602778064723e-01,4.810686249237327017e-01,4.550917343107229729e-01,-2.559069924216555297e-02,-2.637846075258797399e-02,-4.888996694116474334e-02,1.258511841297149658e-01
4.550358823072443992e-01,6.815312142758711556e-01,4.230785996955038764e-01,-7.345594641400626790e-02,-2.305383549220907380e-01,-8.867537910569812942e-02,5.087049007415771484e-01
5.029417898035809520e-01,5.035536933540775140e-01,4.436349404476311320e-01,-1.402046877460208507e-02,-6.187296851674544372e-03,-5.985888010605800932e-03,6.607592850923538208e-02
5.334228711675518264e-01,4.166059736071845987e-01,5.107997270419332159e-01,-2.411873715999568370e-03,-9.142103409654335142e-03,-1.739065713169038116e-02,1.126530915498733521e-01
4.361183208799609967e-01,5.463567834244061894e-01,4.736320091539980570e-01,-1.105096742370243043e-03,-1.789657035823449469e-02,-6.388607415325371457e-03,1.025246903300285339e-01
5.790533873478629356e-01,6.565113667625397387e-01,3.392289211576362540e-01,-4.248822039164295477e-04,8.678590969160011881e-02,9.408922623915783046e-02,3.622790277004241943e-01
5.086278390792835502e-01,5.351153522192448886e-01,4.605792315943761928e-01,1.469329979985186177e-02,-6.866579606405664657e-03,6.050958116671339634e-03,7.198552787303924561e-02
5.029261848857230488e-01,5.030484076364706292e-01,4.946271609709899097e-01,-5.758333273640325704e-03,1.814381902406988004e-03,1.651395700763860731e-03,1.369071006774902344e-02
5.000057034574924009e-01,5.027668575269631512e-01,4.973860352710249288e-01,-3.367324297446126855e-03,2.225377737763204865e-03,1.323088803746328866e-03,8.708912879228591919e-03
4.758333249296669565e-01,4.315915591437707866e-01,5.444323961089697628e-01,-2.040912085686746175e-02,1.838445828726386309e-03,-6.641921438637391449e-04,1.046860590577125549e-01
6.683820847374400964e-01,5.455282097620074433e-01,4.638221566580311150e-01,7.123682568004310878e-02,2.296525991003328382e-01,-2.922598559362240070e-02,4.558665752410888672e-01
5.452367475826696008e-01,5.455524956221532440e-01,4.274369540889287888e-01,1.605706373497786318e-02,2.633050867080865415e-02,-1.187978576821330234e-02,1.311138719320297241e-01
5.375973165062216674e-01,5.500392272014710260e-01,4.280237851896914192e-01,3.010104083776130122e-03,2.068093118125062871e-02,2.542329643096239312e-03,1.218775585293769836e-01
4.863503760793262964e-01,4.846167212941351332e-01,4.894943000336383077e-01,-9.372811573625984159e-04,-1.865461174619905023e-03,-2.288014607377574015e-04,5.618956405669450760e-03
5.015579061274866302e-01,5.193261401521684917e-01,4.816076045357445268e-01,1.670712676458000270e-02,2.113192610103774641e-02,-1.129149335157238372e-02,6.023088097572326660e-02
1.905584659138990777e-01,5.523062930447493191e-01,5.907372815153977275e-01,-1.221054971262733879e-01,5.742765111183456561e-02,4.902169747256505949e-02,4.561504125595092773e-01
3.314254116397689631e-01,5.746271875782625882e-01,3.986136512041940083e-01,4.080202286179985399e-02,1.824565873461579668e-01,-8.968500006131897850e-03,3.904202878475189209e-01
4.706998291455638528e-01,4.513514338656713365e-01,5.160956056004216697e-01,-6.697340594162852490e-02,5.990279700588030387e-02,6.115700137649102142e-02,1.968638002872467041e-01
4.155889245572308432e-01,7.752907671679556412e-01,4.642558474013926961e-01,4.333609282395403488e-03,1.991333802107977669e-01,2.295366235532187715e-01,6.255622506141662598e-01
4.792442277285476893e-01,4.742451185107232625e-01,4.975385675565023869e-01,-2.976270801094515420e-03,-6.565560769580980338e-03,-3.852101570577817768e-03,2.552527748048305511e-02
4.932912972637703564e-01,5.409899160272872987e-01,4.657755294651578781e-01,-1.434434623116207820e-02,2.952434102469616087e-02,1.851685788762622367e-02,9.276692569255828857e-02
4.626711428742669718e-01,5.345129278783046223e-01,5.084952517412111295e-01,-2.934750117908920333e-02,6.040304623475617474e-02,3.810958353844227237e-02,1.478358507156372070e-01
5.359614528149880819e-01,5.875219267053537475e-01,4.977942176168517197e-01,-1.212297231654635432e-02,9.720107596002353079e-02,5.633301967960514106e-02,2.106855809688568115e-01
4.799600329371016549e-01,4.826269443437364859e-01,4.918905948632803504e-01,-1.353275914381250325e-03,-4.267695221353932748e-03,-2.081531595509646115e-03,1.381177175790071487e-02
4.799919315780066253e-01,4.775384707690680797e-01,4.974040582788405440e-01,-6.498466372307071508e-04,-3.556304070999838970e-03,-2.004210685208213712e-03,2.007936686277389526e-02
5.864452469117756861e-01,4.700613224244425403e-01,4.686425297555489866e-01,4.124486787903702822e-02,5.354103131854543590e-02,-1.222469763463878700e-01,2.687911391258239746e-01
5.416746200572352121e-01,4.781968823216227737e-01,4.676772534862621566e-01,2.452605870818054014e-03,4.872060480481383085e-03,-2.855772556824678551e-02,8.569560199975967407e-02
5.043545227394727881e-01,5.054693341658283989e-01,4.936484666189368542e-01,6.726772731583549603e-03,1.488944257696104981e-03,-2.463412882028563470e-04,1.644320599734783173e-02
4.969556616979539654e-01,4.975210105664852889e-01,5.051481935205412999e-01,5.130031552274815942e-12,1.438827434039384240e-03,-1.590605338307656989e-03,8.752502501010894775e-03
4.425368220991797719e-01,5.626324312684827245e-01,5.256355967307584365e-01,1.532387292006703872e-01,1.389268180730220126e-01,-5.951511727346276565e-02,3.877151310443878174e-01
5.641398595386639681e-01,5.122627825589058936e-01,3.752614475482824452e-01,1.353684812527546251e-02,8.143199013570842637e-03,-6.631488670368604343e-02,2.061783075332641602e-01
4.867549842449281350e-01,4.835728625839240680e-01,4.946799257068258959e-01,-2.692073055929962606e-03,-4.030177094083267674e-04,-2.504045663421527231e-03,1.179781742393970490e-02
5.041629853118314575e-01,4.911415144196674687e-01,5.373575636163528957e-01,1.844159580835338236e-02,1.667336244585018029e-02,-1.495496129152530489e-02,6.503009796142578125e-02
4.559969900852621771e-01,5.412658105446404022e-01,4.820327207015278614e-01,-4.718145943204618553e-03,-2.996845173935980614e-02,-3.737262680156772793e-03,9.236668050289154053e-02
4.498937263239102258e-01,5.452199031814471963e-01,4.787517427401363768e-01,-1.099314874939253967e-03,-7.622787265052035667e-03,1.251304764436617263e-03,8.574137836694717407e-02
4.497552088596868947e-01,5.386197155679226523e-01,4.836338090547011026e-01,-2.186351346526981161e-03,-8.473728548778331621e-03,1.927232173095913981e-03,7.921458035707473755e-02
3.512115998233755754e-01,7.971297730657351810e-01,5.547067087864289148e-01,1.138966301512221307e-01,-1.975689602954654733e-01,1.129815868177125038e-01,5.863645672798156738e-01
5.317180248872360737e-01,4.785486581840137643e-01,5.231576550241665569e-01,6.817588246937730800e-02,2.843899521078431872e-02,-6.024975504551739053e-02,1.723525226116180420e-01
3.741758155395749075e-01,5.633967995556814490e-01,5.812009025840845222e-01,-5.260052613535824706e-02,1.368562445823309770e-02,3.531205785011427845e-02,2.282402962446212769e-01
4.663781287875597426e-01,5.367665107510701805e-01,4.739746122410921636e-01,-1.358894699004020061e-03,-3.813003268048293336e-03,-1.242207527672463776e-04,6.728097796440124512e-02
5.699705050039539644e-01,3.879234233857775105e-01,5.284763172981011836e-01,1.582178016305899743e-02,7.661520748228957747e-03,-2.123738364774059237e-02,1.720150411128997803e-01
4.587366515061742089e-01,5.380360455422366073e-01,4.678341018762629533e-01,-5.333507122545618970e-04,-7.475031037203089604e-03,2.363969716638427947e-05,7.627724856138229370e-02
4.357295920790819621e-01,5.466501396397507317e-01,5.101453428734262774e-01,-2.419648985398289379e-03,-1.835988962993984411e-02,6.490846995881168098e-03,1.036438643932342529e-01
4.884784310445738909e-01,5.043562717443383914e-01,5.027222785033101937e-01,2.389238613279023610e-03,2.100463432160306568e-03,-5.352370338227966859e-03,1.857784390449523926e-02
5.395662881007285971e-01,4.580827221716955999e-01,4.639785485876821158e-01,4.492901549266990931e-03,4.733103648316977149e-03,-2.013489220034139424e-02,8.682122826576232910e-02
5.593450135545415813e-01,3.779265707519924300e-01,5.496078245739161039e-01,1.287703438798010365e-02,1.626340780013163512e-02,-5.052198203537280712e-03,1.805781871080398560e-01
4.841486018669857727e-01,5.476613496063056363e-01,4.341512177991102006e-01,-7.350801151266698509e-03,-1.311803529998874229e-02,-2.318240774696347060e-03,1.019978076219558716e-01
4.956896753454496651e-01,4.935407147788745674e-01,5.089032417456959001e-01,2.476569390372448855e-03,4.043556117268782592e-03,-2.180348820084954727e-03,1.700955070555210114e-02
5.439997352857693924e-01,4.186939789971709236e-01,5.296236723416927195e-01,5.713034346343476982e-03,1.058307791166881486e-02,-6.636661533269874735e-03,1.211315691471099854e-01
5.423319792761597258e-01,4.406372921487123895e-01,5.115618069020028136e-01,1.510303870194984639e-02,1.192220017442661116e-02,-1.732650259882262747e-02,1.008503586053848267e-01
4.923765600939064013e-01,5.215756533618089996e-01,4.925827511923773772e-01,5.320232000127515445e-04,7.220730824448110116e-04,-2.515015691014164077e-03,2.946180850267410278e-02
5.014894069167500357e-01,4.680746512769268786e-01,4.888568626602579625e-01,2.121398491238667139e-02,2.058403546001037754e-02,-2.375808109116383376e-02,7.189270108938217163e-02
4.926779377734102350e-01,5.064232790064546741e-01,4.980116661488472873e-01,2.205136566976700300e-03,3.199538975649121857e-03,-4.510729708617866422e-03,1.582429185509681702e-02
4.981430721728364874e-01,4.932858213896394450e-01,5.051290942142637741e-01,3.165164533267941348e-03,5.859991775380951444e-03,-2.891912423719463117e-03,1.626324094831943512e-02
4.596550390219824034e-01,5.416761888992981389e-01,4.694067377538014285e-01,-1.960808693412611700e-03,-6.776380324902137563e-03,-1.827252821607005650e-03,7.862587273120880127e-02
4.799111444138024485e-01,5.047160184417837092e-01,5.150470103757560647e-01,5.590962259568971020e-03,4.349962691722055689e-04,-6.207112007974107358e-03,3.447026386857032776e-02
4.937643142745835600e-01,4.942356473312202736e-01,5.133495001293308935e-01,3.384748053800646153e-03,4.347459411102852847e-03,-4.105944933974887273e-03,2.272042259573936462e-02
5.073212809150329239e-01,5.278283824928290402e-01,4.425054076707443662e-01,1.618412913727599808e-02,-1.501580950573749157e-02,1.099023020691708950e-02,8.817812055349349976e-02
4.995652768915886943e-01,5.050874960994787832e-01,4.947095639333494166e-01,4.232472992174542321e-03,1.835233688357865416e-03,-1.492122962805779137e-03,1.230496633797883987e-02
4.952153332562435617e-01,4.941270850894796673e-01,5.121827173286135348e-01,2.905044995056982413e-03,3.564214077723440108e-03,-4.612643483524616651e-03,2.085184119641780853e-02
4.956309169122990466e-01,5.032498598409317347e-01,4.971799266201252787e-01,1.873492750649353045e-03,4.163358017628325698e-03,-2.814009058421984826e-03,1.161604188382625580e-02
4.947633533377079340e-01,5.098645086258128956e-01,4.922989883635469077e-01,5.174352532389054835e-03,3.498518897938260146e-03,-2.264813452039294954e-03,2.009381912648677826e-02
5.265928401366936074e-01,5.003419435955047678e-01,4.866822639864731292e-01,-4.342780044914293716e-03,3.198001398920261203e-03,1.163131849398802136e-03,3.640871867537498474e-02
4.976058622934476650e-01,5.650903652179299907e-01,3.863118639737575521e-01,1.303119350707454549e-02,-6.295450555002002346e-02,1.344481080727870717e-02,1.933718323707580566e-01
6.101204946263757423e-01,4.235452244995310811e-01,5.147055232074055908e-01,-6.021929388275059497e-02,-3.699228517461232435e-02,-1.161088666818027859e-01,2.855528891086578369e-01
5.033445970121497304e-01,5.376922880317437370e-01,3.509755918990120072e-01,-2.422279846634364797e-02,-8.334158292637976195e-02,-3.637535555006420063e-02,2.370586246252059937e-01
5.298057856046102243e-01,4.995767721401845329e-01,4.720675387933740974e-01,-6.406720730962614518e-03,4.138118633010841318e-03,1.665432170586808938e-02,5.923460051417350769e-02
6.179815872587159920e-01,4.262720917612932148e-01,4.075975394349391490e-01,-1.843916353589891352e-02,-7.364703257576123152e-02,-2.205729349411507945e-01,4.515863955020904541e-01
5.253675849851341395e-01,4.893083121523123524e-01,4.853597816377291929e-01,-2.049386481725089335e-03,2.379289743279618986e-03,2.917814202830823229e-03,3.890201821923255920e-02
5.328133794249100275e-01,4.978989773939654917e-01,4.802185281719492105e-01,-5.782257050921665170e-03,6.568461004704849622e-03,3.438067125628226951e-03,4.913363978266716003e-02
5.206925924507675996e-01,4.885240920521708996e-01,4.938017435105147568e-01,-1.659167501170349761e-04,4.143922103647164172e-03,2.016361403251318990e-03,3.093037195503711700e-02
4.772754589443299333e-01,5.497604460619108790e-01,4.323407644774966974e-01,4.729096717601213168e-03,-5.767711752526742675e-02,-1.115493509194469615e-02,1.447433233261108398e-01
4.345778166583371127e-01,5.537884488639287506e-01,5.025227839529028406e-01,-6.075627657786070515e-03,-1.257851007510494244e-02,4.402603152449671535e-03,1.066371202468872070e-01
4.949874686051187189e-01,5.303404916091529753e-01,4.625059416578760629e-01,1.384865069610117377e-02,-9.901426837640541628e-03,6.438903700434628861e-03,6.668624281883239746e-02
5.088835271884988298e-01,5.422998596148426165e-01,4.514577483612076669e-01,1.354242019644926603e-02,-7.180120958562993642e-03,3.161908806800338943e-03,8.407244831323623657e-02
5.300679608937479692e-01,6.387249749739437599e-01,4.078644335882450900e-01,1.570267555345390004e-02,-1.148030205373394008e-01,7.785155385227456905e-03,2.836883366107940674e-01
4.426197782459220798e-01,7.049819469831770657e-01,3.420868610191311054e-01,1.978836574250326247e-02,-2.078538392621239184e-01,-5.279307610657378580e-02,4.944315254688262939e-01
5.002000168150848580e-01,4.454468956619934694e-01,5.247921816779209658e-01,-7.001034991435345009e-03,-1.113705568210021125e-02,-5.757263577394240370e-03,7.461742311716079712e-02
5.242421579357032790e-01,3.600305229964420595e-01,5.556609733624702230e-01,-7.824762561349049572e-02,-5.729244920898607894e-03,-2.566002593624882103e-02,2.314169257879257202e-01
5.023666443733022513e-01,5.301110286273713612e-01,4.781974183052682958e-01,9.729492906280013884e-03,1.401411107094920365e-03,-3.000682022913471643e-03,4.838755726814270020e-02
4.757437561643658719e-01,5.456931150107316997e-01,5.055996704169919420e-01,1.910979837257839598e-02,2.808671628572696061e-02,2.375373223612650599e-03,8.470512181520462036e-02
2.532711038868988296e-01,6.782917724677726135e-01,7.913095416251130221e-01,-9.482820664955360357e-02,1.778253057690364070e-02,6.025734431516629325e-02,5.294045209884643555e-01
3.937849810015761620e-01,7.829946249569388339e-01,6.186533898689985378e-01,6.206147466760199988e-02,2.659057002422484106e-01,6.788201148034363197e-02,5.933172106742858887e-01
4.002710326813829211e-01,5.650377358717780796e-01,5.491257150908420703e-01,-1.980486468650208103e-03,4.712659237990664621e-03,8.219364280345281548e-03,1.583052575588226318e-01
4.636046619333895613e-01,5.481600376081443571e-01,5.568228581455935133e-01,8.127901823618657873e-02,1.085507520186495319e-03,3.133286319612599291e-02,1.752848029136657715e-01
4.142508873256762203e-01,5.449656247171777990e-01,5.607897026293873211e-01,5.404609477637095996e-03,-2.343941555678013904e-04,8.259855774771389381e-03,1.403483301401138306e-01
4.459696067848199497e-01,5.362767933769958528e-01,5.393562459818711519e-01,8.481707548195303176e-03,1.004824581687214710e-02,-3.808647401557663497e-03,9.489575773477554321e-02
5.537957377567658268e-01,4.008852070696392600e-01,4.052619384977945716e-01,-4.510414535836877736e-02,-4.102770305031756826e-02,-1.163210681216627490e-01,2.729034125804901123e-01
4.830225531738514544e-01,4.930253239544600263e-01,4.799664876598631613e-01,-1.818367330410517943e-03,-2.364856378167590808e-03,-4.599929658026058986e-03,1.517033763229846954e-02
4.859381251414446323e-01,4.953809241847193512e-01,4.817372911678429737e-01,-1.127772615907342247e-03,-9.671933343219691779e-04,-1.529398900157491904e-03,1.265386398881673813e-02
4.847568807042049177e-01,4.904077951188732798e-01,4.861877842796920590e-01,-4.223915051730012921e-04,-1.113758551632633952e-03,-2.618376441351302243e-03,7.121706847101449966e-03
4.921513035724701113e-01,4.807972464917470989e-01,4.809715366489958899e-01,-4.299905041449826777e-03,-1.832840195811592278e-03,-1.354557920086255389e-03,1.407181657850742340e-02
5.420628295525800056e-01,4.449296777646986056e-01,4.689865397185636331e-01,-4.693618303216436430e-03,-2.835239322786729018e-03,-1.617472672490614938e-02,9.247666597366333008e-02
4.931887392738372178e-01,4.820433749605161355e-01,4.859851090166170673e-01,-1.426232940037682612e-03,-3.415457549049182636e-03,-2.570912391738060677e-04,1.170987263321876526e-02
5.009770401168507359e-01,4.734344240818419425e-01,4.888865053998640575e-01,-3.601806783659225551e-03,-9.702075680384336653e-03,-3.056997931530119200e-03,3.034991398453712463e-02
4.756822538947446111e-01,4.741433574910247639e-01,4.997584479239082778e-01,-6.080367573210385991e-03,-8.267648178477946669e-03,-2.862462957226463538e-03,3.097802214324474335e-02
4.888650567183265849e-01,4.704720041779680284e-01,4.963465288938308517e-01,-2.979243370873587825e-03,-9.284512603828308508e-03,-2.006265033402847894e-03,2.879571914672851562e-02
5.214618124408647581e-01,4.494108659265507733e-01,4.746248455363395458e-01,-7.175911267720694320e-02,-6.059032436789419523e-02,-9.302684900132669743e-02,2.375585138797760010e-01
4.944479833526902457e-01,4.816332618699898371e-01,4.805886098933159767e-01,-1.235856242865997299e-03,-1.748235629974358813e-03,3.196113575382077804e-04,1.388354320079088211e-02
5.670801426845522020e-01,5.450310456833473705e-01,4.041319381801509181e-01,2.864653597927289269e-03,-5.464167740799249010e-03,-2.224984894948821984e-02,1.582554131746292114e-01
5.308681783487272376e-01,4.723101784100308675e-01,4.779950865717385033e-01,1.638429939252779776e-03,5.156657612947253971e-03,-7.143664905421153073e-03,5.804638937115669250e-02
6.432771328219983875e-01,3.996772482879635269e-01,4.127969024482948668e-01,-3.552972855714999455e-03,3.481316981490255313e-02,-2.311970049121855053e-01,4.694113135337829590e-01
5.114043802263810168e-01,4.897443417149377476e-01,4.694007054239895949e-01,-1.312979478728149539e-02,-1.359830544205247599e-02,-1.618697167874599829e-02,5.640598386526107788e-02
5.371127246603601968e-01,4.715591793527711406e-01,4.564659947204778301e-01,-4.712378032927484230e-03,-3.034396841465594220e-03,-1.112218452860184656e-02,7.732938975095748901e-02
5.407931104185760285e-01,4.995247916627711948e-01,4.389883796878037980e-01,-6.445747062446024848e-03,-2.809765668626504950e-03,-9.236695014695171790e-03,9.094088524580001831e-02
5.080382938303038554e-01,4.723952808843429607e-01,4.910340720900108757e-01,-3.313331607067903847e-03,-7.339608648013428577e-03,-2.750725413262367774e-03,3.421592712402343750e-02
8.011928581362128821e-01,2.037446757344555381e-01,6.729977336961276979e-01,3.857711309401400807e-02,7.279565806592991350e-02,-1.238086234208072151e-01,6.026079058647155762e-01
4.932414515544580325e-01,4.915225035654407493e-01,5.147428391163465511e-01,4.222653761336310659e-03,-4.365269033870440053e-03,2.761859857535683277e-03,2.521442063152790070e-02
5.002435436709150585e-01,5.625468201866949958e-01,3.995621448212225979e-01,-1.099911748628224287e-02,-2.149030164047346231e-02,-4.099406480250750509e-03,1.486273109912872314e-01
5.490655009527019015e-01,5.346325956436317473e-01,4.209812713812223772e-01,9.379622061808591885e-03,-2.451072873135315671e-03,2.095187556176647189e-02,1.279224306344985962e-01
5.584110415077506717e-01,5.262285089443906605e-01,4.291003585321377933e-01,-7.959499578114115695e-03,-1.128808741443240726e-02,5.874442038398738214e-02,1.565901190042495728e-01
5.152793220172556810e-01,5.156314196405329398e-01,4.685737248193708737e-01,1.247069623670370511e-02,-4.675878977985221084e-03,3.454763109971305951e-03,5.259215086698532104e-02
5.048634959947655432e-01,5.042164239506111700e-01,4.917198586221310230e-01,6.904425017912948527e-03,-1.064489437104890537e-03,1.549546015463774962e-03,1.784054376184940338e-02
5.541256356070449751e-01,5.452397336877294887e-01,4.065631149562407010e-01,1.154989657474039463e-02,-3.814174765918013944e-03,6.749316456862845294e-03,1.453373134136199951e-01
5.717127396398328232e-01,5.769527866018392404e-01,3.553306671030028174e-01,-1.361354577387599574e-02,6.640081067312605077e-03,5.842163966808470998e-02,2.427138984203338623e-01
5.457707933852214977e-01,5.048906212595299925e-01,4.762203673776964630e-01,1.615621954547829045e-02,-7.301353807799836580e-03,2.899388204250920309e-02,8.444022387266159058e-02
5.283498969086667385e-01,4.872932822302299405e-01,4.993671040940332317e-01,1.727047927877502047e-03,-2.696521584675314574e-03,3.826701339558922707e-03,3.755536302924156189e-02
5.209628050799803844e-01,4.970864747072180068e-01,4.854719165232286859e-01,8.184403707171872960e-03,-3.833327289546630684e-03,6.519923774587236751e-03,3.680835291743278503e-02
2.600839043554265539e-01,7.078785076727743819e-01,5.704185449148893028e-01,-6.217826998125861038e-02,9.591987528989989742e-02,7.678420863684615183e-02,4.634103477001190186e-01
4.619462342891128559e-01,4.144999106882682471e-01,7.205609279338183182e-01,-2.337573247459406034e-01,-4.982900077947497591e-02,-4.642056506689391793e-02,5.091599822044372559e-01
4.378489754912213705e-01,5.058270417037906697e-01,5.418767709070648753e-01,-7.965283461114292668e-03,4.762151002444777945e-03,1.143216452525799669e-02,9.498234838247299194e-02
4.546798378627256998e-01,4.814321467809771216e-01,5.344387690270147040e-01,-5.725080036093960732e-03,-2.682986332647264386e-03,-2.642290776351556222e-03,7.130432873964309692e-02
4.554773229846615368e-01,4.777910711417290845e-01,5.232428105037961741e-01,-5.352590183649951969e-03,-4.027609809615956445e-03,-8.223047979804450069e-03,6.257342547178268433e-02
4.834073133723251203e-01,4.611795734586470741e-01,5.126914744425729031e-01,-4.146330903649300681e-02,-3.245153828723557066e-02,-3.911471569685606026e-02,1.221038997173309326e-01
5.769545769624748743e-01,5.175601512807109783e-01,2.951882371779845915e-01,-5.685035156987422456e-02,-1.011815057512129995e-01,-1.432892604838225947e-01,4.101085662841796875e-01
2.074443767528426907e-01,5.215722928194064245e-01,6.278836760503205827e-01,-1.470485437144340712e-01,-3.762803824180753487e-02,-1.670825951601301470e-04,4.609678387641906738e-01
4.527819138795420306e-01,4.851239981661105150e-01,5.303814409101597072e-01,-2.406828368092577691e-02,-9.719736610625464776e-03,-1.011277504942883348e-02,8.298215270042419434e-02
4.541484157178763970e-01,4.504822089154927323e-01,5.350240035533866401e-01,-2.514363501586231245e-02,-6.816039867877653723e-03,-8.477863342587122278e-03,9.540656954050064087e-02
4.159982962255363015e-01,5.073188342186394362e-01,5.319888738646626480e-01,-1.337559491788791431e-02,-7.168826122368333886e-03,-1.648260985958868718e-02,1.127246990799903870e-01
4.631311814422105488e-01,5.132706996416960266e-01,4.832610481899831667e-01,-3.619223143067747811e-02,-4.472518123695707476e-02,-2.968384703679618694e-02,1.203492060303688049e-01
3.259788074941606384e-01,5.111224858795534454e-01,5.932788898095373575e-01,-2.242676460606926880e-01,-7.271856019581697528e-02,-7.171930912044729989e-02,4.882842004299163818e-01
4.889589776916458685e-01,4.660561075301682954e-01,5.391221630086453498e-01,-4.172120659151263601e-03,2.992396938762286254e-03,8.355534857622881964e-04,6.535246968269348145e-02
5.021360775851956282e-01,4.273997420959943505e-01,5.510347175472201098e-01,-1.100766859554110078e-02,1.002385926517983770e-02,4.120065906579855469e-03,1.111169010400772095e-01
5.064956947815180133e-01,4.111673487923765413e-01,5.116124868009300775e-01,-4.917325755906414020e-02,-3.362308557751414462e-02,-3.948653263431099736e-02,1.578751802444458008e-01
5.289025868635514049e-01,4.065387634014869245e-01,5.541071000020270088e-01,-1.055885288472315810e-02,1.242937188002013991e-02,1.053688404475133095e-02,1.407952606678009033e-01
6.165267556042999253e-01,4.136750362166489725e-01,3.254647683483414822e-01,-2.768678132819676202e-02,-5.118879464432690707e-02,-2.044371417690930559e-01,4.498529434204101562e-01
5.794960913501986388e-01,2.476014064555652483e-01,4.873874337621685870e-01,7.974590442389790923e-02,5.731484442547730290e-02,-1.938113878045349125e-01,4.792593121528625488e-01
7.831637607835479908e-01,2.312431903460228644e-01,5.998652059311201379e-01,4.542161403146637022e-02,4.056591808202968108e-02,-1.196464192862161796e-01,5.395557284355163574e-01
6.264446184827279218e-01,3.836489780906504055e-01,6.217142840725760067e-01,7.382980469661576395e-02,2.626801794120492417e-02,2.663585962343510694e-02,2.799545526504516602e-01
5.335223346846669212e-01,3.995335025542455232e-01,5.960721998425827506e-01,4.770099569014996099e-02,1.276545674464988137e-02,2.239633583085230001e-02,1.976519376039505005e-01
4.132896365614319723e-01,5.521209382560510193e-01,5.611957773675742001e-01,5.538197190806865705e-02,-1.929191511917750443e-02,3.884750008496824628e-04,1.758829951286315918e-01
6.513540016367340701e-01,3.857004766878145974e-01,5.174145928482299928e-01,1.793703686010281878e-02,1.822342104080838451e-02,-1.080200701609100727e-01,2.998275756835937500e-01
6.030520615387445771e-01,3.233097074524077796e-01,5.960844948424668388e-01,-6.690571459934757659e-02,2.379310714156800469e-03,-6.165183470173347252e-02,3.181260228157043457e-01
5.246710455906170578e-01,4.313270641582784282e-01,4.954534987503162458e-01,1.106905345385261752e-01,-6.295967597479382172e-02,1.495195094466165164e-01,3.500809669494628906e-01
5.673880523015701893e-01,3.351159521414391884e-01,5.597653436766872881e-01,-1.622146792488097372e-02,1.863350205476124732e-02,2.526038910453379943e-02,2.366076558828353882e-01
5.048885461363068483e-01,4.597718895529839811e-01,5.494849536240872245e-01,1.660175690298770768e-02,6.279440098246364885e-03,6.314016203175650335e-03,8.426827937364578247e-02
2.637789278847294527e-01,6.398715582241407684e-01,6.327943418220357552e-01,-1.521567923778169296e-01,-1.746018873027278262e-01,-5.818355981476724254e-02,5.566889643669128418e-01
3.947502459833905353e-01,5.926802512886147900e-01,5.842535233738106459e-01,-2.225028739909384878e-02,7.589743101046821094e-02,3.184572451216268613e-02,2.436972111463546753e-01
4.088520561628521399e-01,5.097086341603629389e-01,5.328007630018120055e-01,-1.817470430164112166e-02,-1.350241583200164491e-02,-1.616140241173859293e-02,1.239183917641639709e-01
4.952378260249752917e-01,5.021413102019772756e-01,4.985149165485958100e-01,-1.455387516637352734e-03,2.887245401361672285e-03,4.031030486713532875e-03,1.076497603207826614e-02
3.889587135222325465e-01,5.475812443795673445e-01,5.290856074383532004e-01,-9.332652038240409412e-03,-1.434763072504221734e-02,-2.759303892747234487e-03,1.532027125358581543e-01
3.724743769044143726e-01,5.382297051912392494e-01,5.520437531286982447e-01,-2.211352674281657701e-02,-7.834644227488309423e-03,-4.580618298926896099e-03,1.779593378305435181e-01
4.072290939930698350e-01,5.078572393189235701e-01,5.476730466552797161e-01,-1.970467213709205939e-02,-6.731316676353450018e-03,-7.912364342552500110e-03,1.311734914779663086e-01
3.029472690925963940e-01,4.403400402417647630e-01,6.739827034628300684e-01,-2.223080005802555159e-01,-1.149703682482454553e-01,-1.357018075176580074e-01,5.905324220657348633e-01
5.565605903253996178e-01,5.078137633143208207e-01,4.481729577273555476e-01,-5.210174841448119570e-02,-7.151392612631236878e-02,-1.086074274220342889e-01,2.602187693119049072e-01
3.993596464268994728e-01,5.278003746186290535e-01,5.596448963343096938e-01,-1.432420671614005082e-02,-3.056191242681596375e-03,3.003617260250994892e-03,1.492376029491424561e-01
5.474743778927815274e-01,3.824590913362605482e-01,5.720538388205305136e-01,4.312516497740779761e-03,1.216187457361824625e-02,1.412926448745022330e-02,1.816276907920837402e-01
4.849730945500848045e-01,4.883709648246614132e-01,5.374672692552593389e-01,1.299822833826114708e-02,1.072143060008625467e-03,1.071941762012970385e-03,5.570074543356895447e-02
4.887819311995257321e-01,4.880416435327484259e-01,5.315662610340303740e-01,1.549964792336255229e-03,-2.799840255087301163e-03,1.199602950830316742e-03,4.356330260634422302e-02
5.298025756085975591e-01,3.374486150247661964e-01,5.929193354393200721e-01,1.382309691108834226e-01,1.160483229215659388e-03,7.399085324727446011e-02,3.561964631080627441e-01
5.675432532622333159e-01,4.266348743196408111e-01,6.048258405492417111e-01,7.931938044542494182e-02,1.397286962358698127e-02,-3.507381536051540024e-04,2.143813818693161011e-01
4.825511882530971186e-01,4.934387457062838211e-01,5.275461468633305673e-01,6.931328865554634532e-03,-2.716468915418429522e-03,7.014231294398952377e-03,4.435161501169204712e-02
4.828195828368815334e-01,4.905021059272698380e-01,5.338840770980015638e-01,2.252384572902980334e-03,-2.157738736661763193e-04,1.244880411622698892e-03,4.789893701672554016e-02
4.914540586534851263e-01,4.838697201011424864e-01,5.314151737798882280e-01,5.225163165447835670e-03,-3.915631476682995306e-03,1.713305249692908313e-03,4.576244577765464783e-02
5.458879730868151370e-01,2.936625227068819788e-01,7.728468032081352579e-01,1.248884169448045284e-01,4.014008657920990070e-02,7.405445134211566249e-02,4.903570115566253662e-01
5.028891725367985455e-01,5.018182980119431091e-01,4.577737666061211796e-01,-1.477338504260116391e-02,-5.850950857877231653e-03,-7.009735777866401077e-03,5.378756672143936157e-02
5.116309279303781210e-01,7.210175797696797284e-01,3.376612665277831660e-01,-2.840088787962279787e-02,-2.383074561383760059e-01,-5.386709871233749669e-02,5.403991937637329102e-01
4.970153604883882914e-01,5.254451374495658911e-01,4.356027860840822608e-01,-1.295130317146879484e-02,-9.579183586718276189e-03,-6.590954514457160462e-03,8.505595475435256958e-02
4.701257622567315830e-01,5.232140300652007303e-01,4.658604143332825687e-01,-4.007095928888388531e-03,-2.301454274571628107e-03,-2.304246813365063047e-03,5.606234446167945862e-02
4.896971683677585063e-01,4.702421183931184689e-01,4.939927204753321033e-01,-2.045150792245355176e-03,-9.526983725277713907e-03,-7.572002747495609667e-04,2.769619412720203400e-02
5.340871802758333509e-01,3.900127204480038356e-01,5.266698040231079236e-01,-1.663077856158458323e-02,-1.248144643053617983e-02,-1.061312271132354088e-02,1.462150365114212036e-01
3.909865058959155482e-01,5.778891833635207975e-01,4.488423182670063238e-01,-1.131942480973808646e-01,-2.016396670751774423e-01,-1.471079642786779773e-01,5.027953982353210449e-01
5.032789187977391165e-01,4.503558436172266366e-01,5.087702403537083251e-01,-2.895822054957782055e-02,-1.924498820884816205e-02,-2.490097942032629824e-02,9.278278052806854248e-02
4.856862485098223936e-01,5.419920270809417406e-01,4.492542028075396932e-01,-2.108895256719582612e-03,-2.912190593662656105e-02,-3.788521768110359161e-03,9.565368294715881348e-02
4.278230811920089582e-01,5.086128478655795870e-01,5.342419726223779364e-01,-3.981237537104020952e-02,-2.492306783515065363e-02,-1.442304050319878281e-02,1.284407824277877808e-01
5.067732802470776843e-01,6.135820865721529627e-01,4.349503830473065991e-01,-2.598479628248038034e-02,-1.170793350824176349e-01,-3.262325258515538784e-02,2.656673491001129150e-01
5.564052630349110018e-01,4.591018252785892262e-01,4.651204858337000259e-01,3.325762155715724505e-03,2.761523204519493891e-03,-1.912719841072460514e-02,1.003601327538490295e-01
6.419573369603667201e-01,5.875299162490121851e-01,3.248359295908557209e-01,-5.770406823524443229e-02,-1.456755745421816628e-01,-2.003200162597016387e-01,5.294392704963684082e-01
6.252710563924986920e-01,6.320541838042674776e-01,2.977532072366037008e-01,2.326454361573857682e-02,-1.862211955389731985e-02,-1.049849653604387201e-02,3.354553282260894775e-01
5.012607797850630043e-01,4.756151173997358317e-01,4.941510925144327881e-01,-1.438423030626579356e-02,-1.638755734896988475e-02,-1.271835409128291294e-02,4.937164112925529480e-02
4.893477161328537162e-01,4.833365033785215759e-01,4.861041107097510139e-01,-1.307405718268117491e-03,-3.791743777853103306e-03,-2.106751063708868065e-03,9.419806301593780518e-03
3.924330958449373519e-01,5.291619777891041210e-01,5.284728678152847969e-01,-2.106414034922026585e-02,-1.268258389594150402e-02,-1.431947046160632862e-02,1.450166255235671997e-01
4.612811789383081118e-01,5.505556761085754758e-01,4.822787551334574152e-01,1.241240531570488373e-03,-2.730263858641719665e-02,2.110176167649741811e-03,9.375803172588348389e-02
5.481098146445542163e-01,5.089380422878488908e-01,4.267001479937795883e-01,8.881499528818335640e-03,-2.164961316846301768e-03,-1.306216884119966795e-02,1.108217835426330566e-01
5.520743269866926761e-01,4.433341141126602158e-01,4.553423874141395711e-01,-1.248997496460915596e-01,-8.061268625168561963e-02,-1.934764872780546097e-01,4.350371956825256348e-01
5.226962551482902120e-01,4.728830292620907483e-01,4.772705396734829297e-01,1.087983956988447954e-03,3.985538135434100841e-03,-7.773344677260931972e-03,5.014510080218315125e-02
5.655166385262342388e-01,5.567212420687536190e-01,3.805922794517145880e-01,3.105975809423398154e-02,7.640875422271808937e-02,-5.239531691409054538e-03,2.305195629596710205e-01
4.878353920935042942e-01,5.328083372108796123e-01,4.862610130764180583e-01,7.992979289896357887e-04,1.602279277748507643e-03,-1.840212274800890246e-04,4.588647931814193726e-02
4.813992284355210205e-01,5.356195388922220246e-01,4.875290933022721207e-01,1.500309337365617353e-05,6.006698251169783308e-03,2.862165629120192421e-03,5.270552262663841248e-02
5.202740290165076553e-01,5.480537490333722284e-01,4.396727452738592445e-01,1.117108246751705343e-02,8.786244333685242977e-03,-2.609506991080617466e-03,1.006665900349617004e-01
4.856346866379747662e-01,5.363461250615300102e-01,4.904150397998452982e-01,7.820811557046203214e-04,1.737542875059925034e-03,1.234922986881186640e-03,4.865748062729835510e-02
4.634404785912625835e-01,5.283089012317088162e-01,5.480279247110420027e-01,7.249393550348925963e-02,1.083526359946243023e-01,-3.475001605839170282e-02,2.459381520748138428e-01
3.631957143674513500e-01,5.912387838669471707e-01,4.062428556208119712e-01,1.324913766660052762e-02,1.832907844516880325e-01,-1.165109000141736038e-02,3.817859292030334473e-01
4.913263552395327194e-01,5.358470735145942632e-01,4.869595424167995068e-01,3.397524848908606461e-03,1.923218758708808212e-03,9.186567125320636872e-05,4.734266921877861023e-02
5.122591632913199300e-01,4.428044166347975263e-01,5.163516783336199456e-01,-3.536312831024369246e-02,-2.437619935250673678e-02,-3.338544855193915917e-02,1.183341443538665771e-01
6.510364043336427375e-01,4.795038979763583953e-01,4.234201408087786001e-01,-9.625401652673654107e-02,-1.058605599876005360e-01,-2.338654241085068031e-01,5.173798799514770508e-01
5.968164797756103646e-01,5.352446119682802150e-01,3.999360365044301591e-01,2.030205980465766419e-02,2.278219351356799288e-02,-6.707339683075280723e-02,2.161500304937362671e-01
5.580893378659306237e-01,4.847943023595643330e-01,4.346594469320724796e-01,2.549925148331692870e-02,1.340604953984810173e-02,-4.764158771389501168e-02,1.444273740053176880e-01
6.349653642508378271e-01,4.746790525487682988e-01,4.499630955782853992e-01,-1.152432509547012332e-02,-1.604838036995235098e-02,-1.457451512037421792e-01,3.084805309772491455e-01
4.745437993388985642e-01,4.972026278255191056e-01,4.901304180282107237e-01,-1.010481570669677538e-02,-1.691437959227826138e-02,-1.438168059705385686e-02,4.677926376461982727e-02
5.504304696998496560e-01,4.554047798426887339e-01,4.876042082439930869e-01,-7.760077047836570416e-03,-1.624455797354847856e-03,-2.893855670231524485e-02,9.852819144725799561e-02
4.837303983645223071e-01,4.975926224003455189e-01,5.271116023662221206e-01,5.030147731549143748e-03,2.252791107737465732e-03,-2.517778830352272647e-03,3.978542611002922058e-02
6.885336400459463047e-01,2.090130024794914498e-01,5.680984414487590950e-01,-1.324877842838555198e-01,7.641295570550771764e-03,-1.678298346595486212e-01,5.692348480224609375e-01
4.909793996514103531e-01,4.929712319199979764e-01,5.155177056866611096e-01,4.896973405704879191e-03,2.591464843115932892e-03,-3.797941149272494529e-03,2.631693147122859955e-02
5.407781346121535160e-01,4.328534880469761537e-01,5.033729369227941675e-01,6.175752964460173682e-03,1.235194213240063850e-02,-1.019805318595100492e-02,9.946892410516738892e-02
5.404095051880101197e-01,4.460880601391224443e-01,4.864255106281551999e-01,6.181825504270583790e-03,1.096643232976826643e-02,-2.306694094748276344e-02,9.375842660665512085e-02
5.461136260440284662e-01,4.796670500901031309e-01,4.807244204752593175e-01,4.213968133991697479e-02,2.934842155711051351e-02,-3.583551059989736193e-02,1.269244104623794556e-01
5.181480266336119245e-01,4.858626295456371924e-01,4.807112925346886945e-01,6.001876442439374806e-03,2.202302116538353352e-03,-4.392016998020165965e-03,3.762556985020637512e-02
4.488647438197098105e-01,5.384894360625746002e-01,5.162694078059402170e-01,5.908271872860808467e-03,9.150065322143808785e-03,-5.954255044153981130e-03,8.364870399236679077e-02
4.399030508025285058e-01,5.281570453828150491e-01,5.347379912910051880e-01,2.052035828868574094e-02,2.998128204973268904e-03,-4.469703422389878500e-03,9.880803525447845459e-02
3.679743409570386259e-01,5.480173965112716816e-01,5.570930661135886641e-01,3.757213233880442316e-02,9.049875556359452192e-03,5.591043788790810848e-03,1.967393159866333008e-01
5.311374654423340891e-01,4.697046409612807838e-01,4.668936616195555334e-01,5.367535286081216717e-02,6.867409347134204034e-02,-1.043187756419340362e-01,2.437074631452560425e-01
5.049618240204751807e-01,5.028198668953617334e-01,4.903825204147406747e-01,-6.615511012574045238e-03,2.756717991430525892e-03,2.482357326904272021e-03,1.893397979438304901e-02
5.639928781603772423e-01,5.133966884694023403e-01,4.346340674100808710e-01,1.575033775380776241e-02,1.220019423434749728e-02,-3.954122053233102146e-02,1.364913582801818848e-01
4.860089717542093735e-01,4.879451760649566872e-01,5.263883430011299103e-01,6.026271101390884115e-03,2.100214971933325910e-03,-2.841915609908652208e-03,4.126099497079849243e-02
5.645662936378916807e-01,2.255846990240064354e-01,5.417629566805053365e-01,7.993815828339223550e-02,5.372904660171679697e-02,-1.152081987345281444e-01,4.187459349632263184e-01
5.122151985365624993e-01,5.369721558672638784e-01,4.832997179816358457e-01,1.478756009226755812e-02,1.938535703745341079e-02,-1.425243512931812818e-02,6.751043349504470825e-02
4.070486962853542279e-01,5.119804381992699716e-01,4.959840300131433399e-01,1.535857902634956973e-01,1.376934999958700778e-01,-5.325973147273611874e-02,3.817618489265441895e-01
6.209838324191352399e-01,4.568345208351007880e-01,4.996265300812243737e-01,4.349275891056721133e-02,2.825346825851762084e-02,-9.452659831812038060e-02,2.379650026559829712e-01
4.178969469272382775e-01,5.190561212590122375e-01,5.344634578048265139e-01,3.440526884752124342e-02,3.381772391870185857e-02,-7.570303394035804434e-03,1.385033130645751953e-01
4.510884287331903830e-01,5.492469677565822161e-01,5.155855084490257312e-01,1.189356752139366985e-03,8.456952769105074985e-03,5.433325089390282636e-03,8.815554529428482056e-02
6.049863409215975318e-01,5.848254266496467624e-01,3.188543584772832729e-01,2.377955671568175722e-02,3.057342131157800291e-02,-3.631739793994022414e-02,2.914905846118927002e-01
4.961864967373174062e-01,5.109871016701351687e-01,4.959613801208339612e-01,-2.769664397235300449e-03,7.758985238500475589e-04,1.078439284041756959e-03,1.583504676818847656e-02
5.636322942906808464e-01,5.580741783876457252e-01,3.654994891501071042e-01,4.576560214889643756e-03,-6.231377411276586321e-03,-8.063852804012399886e-03,1.963686794042587280e-01
5.583938263724292916e-01,5.461232419481313327e-01,3.936051840071723151e-01,4.141881267483341067e-03,-5.705002870386552578e-03,4.897442690438544993e-03,1.597024500370025635e-01
6.188830883571750929e-01,6.170100338514676874e-01,1.144947453378699076e-01,3.157037724783689353e-02,-1.324791511949721190e-03,5.172755846804136595e-04,5.064212679862976074e-01
6.173732705254388886e-01,6.447818581651374448e-01,3.603623437919071248e-01,7.267771522409027796e-02,2.404143687978575472e-01,1.133411018481858684e-01,5.492104291915893555e-01
5.420634823895711385e-01,5.424369785663163412e-01,4.278294683004814081e-01,1.572226227431041540e-02,-1.208869697539012751e-02,1.943715419135434719e-02,1.241193115711212158e-01
3.832594331753229611e-01,5.999827560199220144e-01,3.860902338655957666e-01,9.066883505869177684e-02,-1.709660276198412543e-01,9.084869824493631285e-02,4.283393919467926025e-01
4.588499638498771960e-01,5.405872630259479505e-01,4.939742168347098228e-01,2.652345653739096674e-03,1.390867018525916710e-02,-3.013527714129229929e-03,7.531560212373733521e-02
4.809332219969415512e-01,5.535639285708603419e-01,4.798372720479719966e-01,6.327965354569543496e-03,2.424550151415096055e-02,-1.109908427745491012e-02,8.723102509975433350e-02
4.808095545287797146e-01,5.349597139691282255e-01,4.914712651169413360e-01,1.490425514420909816e-03,5.848794899915315051e-03,6.724148871692949263e-04,5.078606307506561279e-02
4.793980211162974236e-01,5.352822170226899656e-01,4.744842463581875336e-01,5.664749971486424465e-03,2.277698723538782929e-02,2.836363739419889523e-04,7.123674452304840088e-02
5.212250067395899356e-01,4.922521242198210079e-01,4.898729248063715125e-01,-2.381642899519745803e-03,2.456242546134382917e-03,1.810552221572663423e-03,3.096725977957248688e-02
6.576277602941491551e-01,5.627245152683211238e-01,6.209578659418368840e-01,-4.646259854757356367e-02,1.856115554336740248e-01,2.309717887912132173e-01,5.260668992996215820e-01
5.172286479821609495e-01,4.922763051450050886e-01,4.939750851834082135e-01,-2.253061419391961043e-03,2.011255021023271652e-03,1.698923222385553301e-03,2.488252520561218262e-02
5.103427642576381373e-01,4.959463778116066091e-01,4.964167247185632403e-01,-2.422504807158610152e-03,8.287128135142862121e-04,3.750851507155545024e-04,1.485913246870040894e-02
6.001838061699882321e-01,4.607681466204100462e-01,5.568556368455668260e-01,-8.396489068324065191e-03,3.434468396653124478e-02,8.541811244518611457e-02,2.022680640220642090e-01
5.159723597773171466e-01,4.988165756522997540e-01,4.824543555551241703e-01,-7.133533568734246391e-03,6.196214475817718795e-03,4.723378374217736958e-03,3.431503847241401672e-02
5.240740692379225463e-01,5.165742549537786221e-01,4.690778580822366761e-01,-8.728444729389682466e-03,7.931370536750080233e-03,6.345379331897419220e-03,5.662541463971138000e-02
5.347928072093658391e-01,3.788216277257492326e-01,5.955740604832832075e-01,7.574927744493592519e-02,-2.005300673978946228e-03,4.710920134647166718e-02,2.477604597806930542e-01
4.803290240932296395e-01,4.975878708576406129e-01,5.211489368772115327e-01,2.222028419194780474e-02,-1.389336535410981913e-02,1.498869187861233583e-02,6.319739669561386108e-02
4.870960035609091521e-01,5.067236191057554739e-01,4.668547346701347189e-01,2.332825815102709116e-02,-2.957902833274954693e-02,2.265375147108503184e-02,8.360141515731811523e-02
4.682055054591235943e-01,5.197209173212520295e-01,5.094690751636343773e-01,3.707437352152754498e-03,-5.192739688787712665e-03,1.090782352401144586e-02,5.205651372671127319e-02
4.652441426322510010e-01,5.361597820610294329e-01,4.946612791008060950e-01,2.390626179526933112e-03,-5.090196848565485196e-03,9.014353070167433618e-03,6.439652293920516968e-02
5.935667191312086199e-01,5.748586189305544547e-01,3.162178558795857297e-01,7.259682928625807441e-02,-1.529572509094211281e-02,1.731215484558157325e-01,4.225040972232818604e-01
4.764264654710158586e-01,5.133020589129702049e-01,3.762573758694879311e-01,1.027874450417396723e-01,-1.333951266413448411e-01,1.501279789207093096e-01,4.096110761165618896e-01
5.582407761846165384e-01,4.247185177917164323e-01,5.416757964806468983e-01,1.549173802386409962e-02,2.863436662716710196e-04,5.929697566713464617e-03,1.292923390865325928e-01
4.479214087932952282e-01,5.421039761565760173e-01,4.805067247514436812e-01,-3.119714489003120542e-03,-5.961949870670073606e-03,-1.713258826681391365e-03,8.371277153491973877e-02
4.809791783735013482e-01,5.135918627547643167e-01,4.778503903556315935e-01,1.181005447344810402e-02,-1.539982548551408620e-02,1.030794726501101446e-02,5.122569575905799866e-02
5.047879891798100482e-01,5.047167490984225680e-01,4.949473917334736850e-01,-8.040591753023695193e-03,1.442427360992196497e-02,1.199528766032683692e-02,3.668697923421859741e-02
5.407174263011252924e-01,5.220697453729753468e-01,4.325480787140904004e-01,1.304246039894071431e-02,2.521456396644673748e-03,-1.581869657040461258e-02,1.063546910881996155e-01
5.359698284016911618e-01,5.430884181970481173e-01,3.716018749152037448e-01,2.098157726919098326e-02,3.952726508797489713e-02,-3.638699821676266016e-02,1.954929679632186890e-01
5.308191495145706540e-01,4.918321346641482683e-01,4.754769954837262391e-01,8.759422882859970241e-03,2.765245717512213215e-03,-3.857744662708886656e-03,5.218126997351646423e-02
5.500880710419123742e-01,5.318947497821826520e-01,4.062719802600071040e-01,1.563154079486708467e-02,5.322238767386439084e-03,-1.223474813261377601e-02,1.402307152748107910e-01
5.527970668446389180e-01,5.031873960072891228e-01,4.300021063715133707e-01,5.218054471008749980e-03,1.243351178734110373e-03,-1.113189283198352114e-02,1.091145426034927368e-01
4.975294973311852331e-01,5.101544780891359432e-01,4.947862444482690192e-01,3.001054188461195395e-03,8.105940032039014300e-04,-1.073524493905518443e-03,1.529694814234972000e-02
4.942054909191249124e-01,5.154838451364563978e-01,4.927396311861751976e-01,1.588610795973466674e-03,-1.174612670319209544e-04,-1.438664288440274792e-03,2.235911227762699127e-02
4.876470472645819676e-01,5.335069778038060706e-01,5.521187630159460902e-01,5.801171243994005661e-02,2.921389929776551861e-02,-2.711696666204528247e-02,1.347794085741043091e-01
5.223633985463540519e-01,4.494872706610532065e-01,5.365571898149313901e-01,1.177877688152786408e-02,-6.459046464710740780e-03,5.673045593576690228e-03,8.476266264915466309e-02
5.365408666361863865e-01,4.294488406926720292e-01,5.491371208031348150e-01,2.262406689040664942e-02,1.040015903712501050e-02,1.952671043169039531e-03,1.218515485525131226e-01
5.677799287947102869e-01,3.953282271749953281e-01,5.524646697940635010e-01,7.631875201679533954e-03,2.176607394824875159e-03,1.136133956530088404e-02,1.670604497194290161e-01
5.027322314911223389e-01,4.906834744458866693e-01,5.045835569511110119e-01,3.053605152962720649e-03,-6.979580352758251414e-03,2.943414261257541742e-03,1.926173269748687744e-02
5.622533342064014450e-01,3.799027636286236853e-01,5.629757332119820212e-01,1.273509262093473239e-02,1.048779117880192444e-02,-4.377333141736495549e-03,1.850891560316085815e-01
5.578377858823923008e-01,3.815114645661339399e-01,5.450817844138772239e-01,-1.027539868786571603e-03,8.125976425528579419e-03,1.840674905426134544e-02,1.738452017307281494e-01
7.610189063365863094e-01,4.628926378485481719e-01,6.724010825708472971e-01,1.285129198102136217e-01,4.083959094557182423e-02,2.539119715941014488e-01,5.641607046127319336e-01
5.371451024998254997e-01,4.279446108723535813e-01,5.500259765360452358e-01,2.264192524056376360e-02,3.566024483487803716e-03,2.046420394434640688e-02,1.277878433465957642e-01
5.510686977508088003e-01,4.261771874548336281e-01,5.323709367039402007e-01,1.271526783039731183e-03,3.573851849466024282e-03,2.434483901516231591e-02,1.242315769195556641e-01
6.384659627569989615e-01,1.846317313968516283e-01,6.833781905890859987e-01,9.660222355850738019e-02,8.102485055964309124e-02,-1.069158626822955954e-01,5.570901036262512207e-01
5.628597331167762841e-01,3.063570823242767194e-01,5.736888545444607246e-01,1.497947475964137541e-02,1.004543816578059787e-02,1.378768738454261289e-02,2.650184333324432373e-01
5.469314705851896496e-01,4.067788517127214343e-01,5.061402441178366463e-01,-5.788172772233297556e-03,-9.318373098050610620e-03,-2.522859011169542587e-02,1.336418092250823975e-01
5.657747405694079079e-01,3.970793736651315742e-01,5.264408220404648286e-01,-2.578227070650405007e-03,6.820588126765893613e-03,-1.644267705236792179e-02,1.560141742229461670e-01
5.917224850603454156e-01,3.044286981775812251e-01,7.073573450266917861e-01,-1.762307111690458727e-01,-3.202511533690911155e-02,-9.550299908881286493e-02,5.027339458465576172e-01
5.931945233315678578e-01,2.526005501303834611e-01,5.182007896312145201e-01,-5.274014396213530520e-02,-1.629716511373876728e-02,-1.641488155980807273e-01,4.313487708568572998e-01
4.866230348776040548e-01,5.193164061697096434e-01,4.196537891954352228e-01,1.089253024500123901e-01,9.977698154224708127e-02,-1.222084538304773760e-01,3.435235321521759033e-01
5.416994172648575967e-01,3.538979381289358850e-01,4.416692750850900184e-01,-1.086126818465140559e-01,-8.694347850362554864e-02,-1.760784899896123967e-01,4.213883876800537109e-01
4.842766572115609347e-01,4.773019309483610972e-01,5.316024602809900079e-01,-1.070117402971953536e-03,4.068786481567391450e-03,1.199629321932580437e-03,5.172891542315483093e-02
4.775754349125303500e-01,4.715238314021088506e-01,5.369363052255154978e-01,-1.237203260464100375e-02,3.440679038044778138e-03,2.814024243457802568e-03,6.661858409643173218e-02
4.766679152157614063e-01,4.838527023298944685e-01,5.299532353726685852e-01,-3.343358292680725843e-03,5.290017191952732945e-04,7.683082034230639739e-04,5.044053494930267334e-02
4.544954775577007000e-01,5.013161025240508994e-01,4.522788987447658449e-01,-4.624882798907314213e-02,-6.605916610516179843e-02,-4.845739213907420545e-02,1.698632538318634033e-01
5.138048825723070534e-01,5.130528576785793327e-01,4.498639860060219542e-01,-1.766662372943314518e-02,-2.487271820242235865e-02,-2.177018392334034366e-02,9.085717797279357910e-02
4.929655934806525530e-01,5.209622973788683442e-01,4.430835061635344796e-01,-2.010106403911465431e-02,-2.336965424794403001e-02,-1.252633157071515388e-02,8.938612788915634155e-02
5.339240848625149694e-01,4.645189251604782688e-01,4.702412307117394552e-01,1.824394872815073487e-03,2.363235260556120505e-03,-8.920659778639407345e-03,6.868870556354522705e-02
5.973154950690073850e-01,5.170554180212758588e-01,3.759369565855125161e-01,4.346273065780030184e-03,-3.857668029799578291e-02,-8.854377682361314061e-02,2.563658058643341064e-01
5.169561164349021354e-01,4.817183323390136773e-01,4.594134290831214384e-01,-1.909157079744524393e-02,-1.746579587159595090e-02,-2.344596601162836358e-02,7.863175123929977417e-02
4.972769224107769226e-01,4.888248839790400035e-01,4.627885901325954898e-01,-1.315568452277346423e-02,-4.837291646155292106e-03,-7.066415749175058297e-03,4.133524373173713684e-02
4.997075660511281492e-01,5.783694849421487927e-01,2.870249113206679858e-01,-3.711998065195444563e-02,-1.790880031275225992e-01,-1.103137356147368547e-01,4.527805447578430176e-01
5.799565190778851465e-01,5.100301855580515742e-01,4.266987760117391115e-01,6.712808729396207291e-03,-5.672176460234326255e-04,-4.480635252923159673e-02,1.543368250131607056e-01
5.242789528513216446e-01,5.450858716483507616e-01,4.151856628649317482e-01,2.963415301923392683e-02,-5.090560196972779977e-02,1.639557412630633648e-02,1.606838554143905640e-01
4.881790997868329374e-01,5.353614318025686769e-01,4.848045868367394373e-01,-1.373824956249448601e-03,1.474125409195083287e-02,6.196740694120019335e-03,5.629877373576164246e-02
6.254946536947880720e-01,6.006115942596859103e-01,3.661656101365459159e-01,-4.135899101330132999e-02,1.121079599165489826e-01,1.483312911740480577e-01,4.126264750957489014e-01
7.683899427941182081e-01,7.744410158066438177e-01,2.931406247525056297e-01,6.510845720122374058e-02,1.229694940555759175e-01,1.046750266376627186e-01,5.654438138008117676e-01
5.419629257976154024e-01,4.912587955124667061e-01,4.897151502011262703e-01,3.859942250050236914e-03,8.409662044783785769e-05,1.012631602773965238e-02,5.480790510773658752e-02
4.613867984808395217e-01,4.218882885262066340e-01,5.584722831808881516e-01,-8.037116388459199234e-02,2.995805109543766415e-02,5.373890792627028512e-02,2.134363949298858643e-01
5.572204615479394718e-01,5.427401494297076079e-01,3.759582379365228322e-01,7.035446365271974013e-03,-1.152565326247366153e-04,4.205217690523661497e-03,1.750500649213790894e-01
5.266008041339920176e-01,5.752083961378875454e-01,4.117970023491029918e-01,3.634486343113888136e-03,6.225496694824814159e-02,-1.192120263389315031e-02,1.822524666786193848e-01
4.733654698161760543e-01,5.457615474871654326e-01,5.113680841441832214e-01,-1.534385080069339963e-02,3.297247786256584517e-02,2.112963104966647174e-02,9.613214433193206787e-02
4.790417395700558023e-01,4.924991836623961450e-01,5.162299588819166951e-01,-9.277690441018043160e-03,5.965544929166373758e-03,1.089343203991173341e-02,4.224450886249542236e-02
5.401052536807060545e-01,4.967374397780583983e-01,4.508249015231609591e-01,4.397355256405409310e-04,1.070727050883341861e-03,1.493787203740964617e-02,8.156772702932357788e-02
5.334340933142323049e-01,5.612737363016900849e-01,4.299297186268527526e-01,-1.026630519121436713e-01,1.067692181881037816e-01,1.698630209593022244e-01,4.083480834960937500e-01
2.745254604622471284e-01,5.853325935962359061e-01,4.506899029605621609e-01,-7.158663912954249531e-02,-1.943193352953316022e-01,-4.945442789441076292e-02,4.570262432098388672e-01
4.439777675310391247e-01,6.074246174138264731e-01,5.521994644322856249e-01,1.063198371684871690e-01,-1.482940789214500232e-01,2.023444655635678324e-01,4.934098422527313232e-01
4.254769958241853556e-01,5.563450435546789530e-01,5.997321350161357589e-01,6.516174192887326522e-02,3.347494812680994886e-02,3.820755184755154910e-02,2.125234007835388184e-01
5.262891210842925993e-01,5.668328295814688556e-01,3.877268655862670110e-01,-4.749986138053081258e-02,-6.036625445945753565e-02,-6.285299840788710624e-02,2.366718798875808716e-01
4.921818063210403604e-01,5.176399576987027462e-01,4.716325228606287334e-01,6.315654132364041141e-03,-4.845533577125237315e-03,1.845557929800270471e-03,4.235393181443214417e-02
4.621499477495915054e-01,5.657678331577211672e-01,6.458029389608784809e-01,2.014311222064283646e-01,-1.411040717286965972e-02,1.790311146271972020e-01,4.938750565052032471e-01
4.290891139538210441e-01,5.063491424516917139e-01,5.061019043052282784e-01,-1.353636842830868367e-02,-1.354206153543734657e-02,-1.827356813170181657e-02,8.973128348588943481e-02
4.215728787956327661e-01,5.073166071115464693e-01,5.252520861468128466e-01,-1.399737977109856597e-02,-6.992009128963222464e-03,-1.696240119028081042e-02,1.039669960737228394e-01
5.448972777020116842e-01,5.618961319870923177e-01,3.609137449462919145e-01,6.733673335259257771e-03,-7.268173200724220573e-02,-5.509970642273664260e-03,2.309576123952865601e-01
4.291853580754959596e-01,5.468482209263652027e-01,4.986315989987169517e-01,-4.530458690286954561e-03,-1.102375740663539064e-02,-3.311002528373211459e-03,1.046667024493217468e-01
4.401971779919539585e-01,5.868488337058969107e-01,5.126699809148592690e-01,3.290285639311730376e-02,-6.973394702045440652e-02,1.176216190277348458e-02,1.854240298271179199e-01
4.802813439988280475e-01,4.850471110523792428e-01,4.928792990599669688e-01,-3.357632561478464134e-03,-3.231568531799053345e-03,-7.112206640073580333e-03,1.839246414601802826e-02
4.739451021466050684e-01,4.743035344238221707e-01,5.312587916075399708e-01,-2.586532633812141553e-03,4.092161807886491622e-03,1.141277718251929724e-03,5.778113752603530884e-02
4.811090668356290401e-01,4.844012198323246476e-01,5.261912229913874306e-01,-1.749978045612415444e-03,2.591822775243447265e-03,4.041251470731614323e-03,4.442022740840911865e-02
4.691980034844251413e-01,4.774964445653778755e-01,5.300539652325839679e-01,-7.564101782351558695e-03,9.068116299107538631e-04,3.442109156647017026e-03,5.896575748920440674e-02
4.832162329991743221e-01,4.751790151460224543e-01,5.300611744174447137e-01,-3.801975602940121414e-03,8.304902127957477370e-04,8.549631523592171817e-04,5.179937556385993958e-02
4.729881926967381967e-01,4.739081522086376341e-01,5.427474277780282019e-01,-1.013026768228185263e-02,2.365354292495333143e-03,2.189005022771796545e-03,7.170807570219039917e-02
4.739657492463925093e-01,4.744984117560184789e-01,5.244486096892122529e-01,-7.767076111713930135e-03,4.599910646591805728e-03,2.820302529272888763e-03,5.282267555594444275e-02
4.659007569079721134e-01,4.700626781602599835e-01,5.382723510139874046e-01,-1.496471030854285575e-03,-8.434800193021548128e-05,3.457324069228802279e-04,7.043339312076568604e-02
4.563872956431992978e-01,5.055044350168984568e-01,4.876465356420983110e-01,-4.192484158845627418e-03,-6.293700589093008911e-03,-1.279356998992456189e-02,5.016829818487167358e-02
4.480371057303531579e-01,4.797681583136546579e-01,5.003870803403788203e-01,-3.062905806661959246e-02,-1.772771366540117771e-02,-2.272294734503419594e-02,8.597958832979202271e-02
5.578198973589881815e-01,5.577898943526048425e-01,3.673269933658882547e-01,2.969702684559096320e-03,-7.171039483022016194e-03,-9.401746415719263589e-03,1.916448324918746948e-01
5.232659498009510912e-01,4.879296418050120265e-01,4.502822473016353522e-01,-1.126523522599771204e-02,-5.392236281917370429e-03,-6.364189269802767064e-03,6.771820038557052612e-02
5.344941181034181810e-01,4.618099041415675288e-01,4.765226593918486242e-01,-8.723647630629453864e-02,-9.142330336734989793e-02,-1.254350866989970281e-01,3.154952228069305420e-01
4.897746024292237710e-01,4.969527336345160862e-01,4.720897306078815636e-01,-9.538341410415757463e-03,-4.278528253135157125e-03,-4.938912782478533520e-03,2.987072989344596863e-02
4.851427725740655728e-01,5.279073517203751731e-01,4.634716747473499598e-01,-1.042467366864675005e-01,-1.332420372248049878e-01,-1.001241582669931685e-01,3.451988101005554199e-01
4.923962326475818108e-01,4.648342729607474189e-01,5.091007654731838361e-01,-1.688915344104039915e-02,-1.477155435815072186e-02,-1.382383125784530063e-02,5.985594913363456726e-02
4.810787430549438026e-01,4.519813376488606149e-01,5.529873777179025174e-01,-1.112312762471743960e-01,-7.553147888925001996e-02,-9.519624939303632238e-02,2.992140352725982666e-01
4.758318923826710400e-01,5.312154080359067221e-01,4.437819640037950486e-01,-2.010521819339539801e-02,-3.104545191850738295e-02,-1.839749516895175518e-02,1.048288717865943909e-01
5.239249920586595000e-01,4.432712104544419551e-01,4.850440536172756500e-01,-5.211000268388443768e-03,-1.294950311821291625e-02,-7.995036722275345939e-03,7.521408796310424805e-02
5.321782588336624320e-01,4.245470002784498820e-01,5.006769882880752753e-01,-5.688468374764459393e-03,-1.395972150033795468e-02,-9.323898230279204294e-03,1.006419360637664795e-01
5.516948290527149412e-01,4.062964052091483924e-01,5.071823394679318975e-01,-1.735482018564118642e-02,-4.936180292384105724e-03,-4.307949360329047656e-02,1.522964686155319214e-01
4.745403432268605615e-01,5.222499165390640519e-01,4.686230325207648706e-01,-1.841857894036626545e-03,-3.053219840227932181e-03,-2.087264455088673476e-03,5.142707750201225281e-02
6.301815271214922243e-01,4.284343794115452742e-01,4.486195109053499053e-01,-1.928995026713749630e-02,-1.681915093244976123e-02,-1.431255062571808734e-01,3.169491291046142578e-01
5.063296924522462383e-01,5.001782625638753199e-01,5.804064382798004296e-01,7.495840858290754583e-02,2.934209868136899643e-02,-1.398043241994261811e-02,1.612650156021118164e-01
5.061502879822105117e-01,5.007801395891955387e-01,5.029532155636134982e-01,-4.850117742248709687e-03,5.558224042389355544e-03,5.489876991741702086e-03,1.659999229013919830e-02
3.925533446759885692e-01,5.540171231005056596e-01,6.277153907920697273e-01,-8.890351518742407866e-02,1.175364883995410475e-02,2.750789523104568354e-02,2.641923427581787109e-01
4.725825683061738447e-01,4.672796021395749233e-01,5.414003570378697061e-01,-7.299692117530372573e-03,2.519217025255104242e-03,3.245292103557147981e-03,7.307147234678268433e-02
3.972222393683458863e-01,3.148398115250269358e-01,6.235763364881922177e-01,-2.155798253250257035e-01,-1.715538813912888434e-03,-1.920187604564261089e-02,4.660575091838836670e-01
4.789314710485088611e-01,5.098099124217518874e-01,5.065902681851592870e-01,-4.115846543317897878e-03,6.424683403048302675e-03,1.166365918784095269e-02,3.804207965731620789e-02
4.256448141562251264e-01,5.106034921074662503e-01,5.233001992081676157e-01,-7.309463603484475658e-02,-6.863346483956189736e-02,-5.837816525656125410e-02,2.210023552179336548e-01
4.811058201388943578e-01,4.533168715153305106e-01,5.053502441998313222e-01,-3.095713762713266440e-02,-2.549323785258072322e-02,-2.424324415646064018e-02,9.285309910774230957e-02
4.634072678946262736e-01,4.700118498173962989e-01,5.355555495178266900e-01,-9.629209645523193611e-03,1.696350867093642661e-03,2.747759048246260077e-03,7.128768414258956909e-02
4.406019926549733512e-01,4.780128303280808399e-01,5.334753885659216932e-01,-1.736150869799764004e-02,-8.473768161063878826e-03,-8.586993266770757624e-03,8.883386850357055664e-02
3.901802084130498449e-01,5.488053418416103391e-01,5.389978731648596977e-01,-4.664219359238699902e-02,-3.816804899183071087e-02,-6.691416069661487026e-03,1.863695681095123291e-01
5.288912122857067910e-01,3.996848970320963645e-01,5.373721714523331805e-01,-8.228132980120279188e-03,-9.391848727534322233e-03,-1.060469001800508695e-02,1.366275846958160400e-01
5.435348347496427035e-01,4.156923817030732105e-01,5.073249129357145781e-01,7.954348552342829434e-03,1.112302629128405877e-02,-1.959108614983539123e-02,1.214005723595619202e-01
4.927936400172140408e-01,6.330711336986718507e-01,7.393986126828533401e-01,2.225119325344236676e-01,-1.191547010746906582e-02,1.212642364527610067e-01,4.888499975204467773e-01
5.158141936948418271e-01,4.476307549384187512e-01,5.533327632253488559e-01,3.284071075485823360e-02,1.790417811493670228e-02,-5.425415154433286744e-03,1.135794445872306824e-01
5.259391605476166909e-01,4.497138939325387996e-01,5.619823453496173293e-01,3.060000111200557663e-02,1.018077956504894084e-02,-2.940190603691809294e-03,1.140296608209609985e-01
4.902639994171465454e-01,4.893465184128312773e-01,5.266315909064895884e-01,1.843609269075373921e-03,2.549593749705072066e-03,-1.258006536900149871e-03,3.729953989386558533e-02
5.179391339410991391e-01,4.463831892194916051e-01,5.488433684333394735e-01,5.950801349611154617e-03,4.845075838470139576e-03,1.772273571299633893e-03,9.204775840044021606e-02
5.566891565675790021e-01,4.569936893619570006e-01,4.842346612054240218e-01,9.718125656174234073e-04,3.042406206009310408e-03,-2.280300482548036287e-02,9.775473922491073608e-02
4.904127714236610758e-01,4.969830470124461663e-01,4.980673187185861162e-01,-8.116693991574296108e-03,8.386701680250385413e-03,8.115276171112776118e-03,2.564553916454315186e-02
5.029791461129917707e-01,5.047665793744153806e-01,6.006097498120473999e-01,7.788102512310556003e-02,1.375981611609462980e-02,1.823488266697000787e-02,1.706526130437850952e-01
4.049335941921523574e-01,5.706864000214012522e-01,5.673823327128210137e-01,7.167031990961601762e-02,-6.944225384149541047e-02,3.715923242732317722e-02,2.468932121992111206e-01
5.639379166791901321e-01,4.172471616929345206e-01,5.884197191789858339e-01,4.144542889341151781e-02,2.190047917024628282e-02,-4.496925840678284853e-02,1.958763748407363892e-01
4.808642818428662813e-01,5.039476374725957442e-01,5.532626009106014209e-01,2.718925431086901406e-02,6.342020600468891919e-03,1.006579527804540592e-03,8.027846366167068481e-02
5.010959597177290226e-01,4.583834495522031705e-01,5.346804814382380977e-01,1.264126711383067175e-02,-6.604733483841039067e-03,4.786834449611680579e-03,7.117423415184020996e-02
4.858062475510849798e-01,4.585974942158681511e-01,5.394017642174561145e-01,1.775923441593859828e-02,1.956350438666076916e-03,2.769433819740410932e-03,7.779283821582794189e-02
4.956519111647006981e-01,4.684765681358641354e-01,5.304874043577445519e-01,1.042941600241153836e-02,-7.006022447306243899e-03,4.346298509718079552e-03,5.855697765946388245e-02
4.765623212575922918e-01,4.805650809306427074e-01,4.998346039822151865e-01,-7.923476454532514535e-03,-7.960278158808726037e-03,-8.390868194397337748e-03,3.246737271547317505e-02
4.894790977909106999e-01,4.570062938334438218e-01,5.301780918997511804e-01,1.773428804301329861e-02,1.719270722211504662e-02,-7.412111216112431643e-03,7.763763517141342163e-02
4.984658473126281075e-01,4.672378085377004719e-01,5.327309684470133977e-01,2.521060840866096511e-02,1.353035219913876694e-02,-1.158241880196595776e-02,7.795969396829605103e-02
4.903915904525556479e-01,4.432609035083292515e-01,5.520890855185869306e-01,1.589021536829293146e-01,-5.154201694403282713e-02,1.048219399024637871e-01,3.544263839721679688e-01
7.781214736150213751e-01,6.248095974936710428e-01,2.755577270625721442e-01,5.732997591208870147e-02,1.079219162949468860e-02,-1.955144891792288120e-01,5.691336989402770996e-01
5.486672856872000237e-01,5.086997303628969513e-01,4.457814958531062244e-01,1.063189120832801204e-02,5.769468297910185922e-03,-1.810380486494446092e-02,9.743209183216094971e-02
5.191095978088398066e-01,5.123662093651857319e-01,4.711795227069870973e-01,1.162209228617092950e-02,3.253755614782295486e-03,-3.392031146772466789e-03,4.991043731570243835e-02
5.492969712824187223e-01,5.011234906477006756e-01,4.246006814577003574e-01,6.301636181093034014e-03,-1.505231461576565051e-03,-1.009242325821126628e-02,1.108796373009681702e-01
5.735027100004506107e-01,4.166708499785223285e-01,4.936757996066491461e-01,8.994840837562363689e-03,9.057036865516414695e-03,-4.985953909770712844e-02,1.624681353569030762e-01
5.193955183800249564e-01,5.310124733734674640e-01,4.563682519001825422e-01,1.180346700891771877e-02,5.861053742013476453e-03,-5.959181268593623064e-03,7.394005358219146729e-02
5.867434762289956973e-01,4.806798304454573678e-01,4.392815913307357989e-01,5.728576053600133861e-02,1.151933384952021772e-01,-1.474352359242708799e-01,3.636194467544555664e-01
5.288545185617712363e-01,5.392582223976420952e-01,4.124574852677558301e-01,2.411619716962648194e-02,3.495709083113350546e-02,-3.148647191728017047e-02,1.524874716997146606e-01
6.749513990612402425e-01,3.095623762801003598e-01,5.124797046695043212e-01,-1.020421510087856851e-02,7.385464366163631278e-02,-2.546938476158228659e-01,5.584116578102111816e-01
5.686903191426768700e-01,3.997036364143686238e-01,4.608689664321055091e-01,2.323719155170185860e-02,2.513370271162572445e-02,-9.737803775311928978e-02,2.322154790163040161e-01
5.490273050670704258e-01,4.287612539902967423e-01,4.997928419389799370e-01,-1.261969122018671364e-03,-3.508717712140609242e-03,-1.033255385851014098e-02,1.064364463090896606e-01
6.017525250076055654e-01,4.700422643641802289e-01,4.857795521032444719e-01,1.776753747564012789e-02,1.679183931600745222e-02,-1.196429816225402787e-01,2.454766333103179932e-01
4.798973375132091213e-01,5.049728896293796954e-01,2.636518624248557208e-01,-1.154881481540045995e-01,-1.856715753860749551e-01,-1.691599165582013398e-01,5.311242341995239258e-01
4.858666289200058719e-01,5.485616258137169243e-01,5.030698410117467878e-01,-1.946900756204739992e-03,3.393966297096420032e-02,1.177333344629912133e-02,8.385085314512252808e-02
5.581105886962974827e-01,4.796576430897985244e-01,4.698506606837860589e-01,2.914117274524849390e-03,1.793812824944932558e-03,-2.817979545358042029e-02,9.714864939451217651e-02
5.312490510670190291e-01,4.715864817150364763e-01,5.359149896848985906e-01,3.130204410268268983e-02,2.055040825888555453e-02,-2.273375383616205864e-02,9.806455671787261963e-02
5.258270562015640026e-01,4.531976081469062390e-01,5.071654428019334304e-01,1.119026998539543634e-02,1.338697631114522078e-02,-7.447823396905499903e-03,7.312741875648498535e-02
5.032472122175981610e-01,4.768944620828470815e-01,5.040402557819511076e-01,7.726476511016874132e-03,1.093432980253062139e-02,-5.917045682541751533e-03,3.686195239424705505e-02
5.762143664362517903e-01,4.599838124978202769e-01,4.323121092954127498e-01,8.407808181281112639e-03,-1.075697056190208327e-03,-5.438138187142668722e-02,1.630310118198394775e-01
5.488235826615931456e-01,5.518273103935376067e-01,3.855136615223685448e-01,-5.623530771051015419e-03,-2.550118988271776049e-02,-2.055263857657346413e-02,1.745930314064025879e-01
5.639803010120387761e-01,5.464633975446233638e-01,3.761621646851990297e-01,2.334966088503062469e-03,-6.365701612150170483e-03,-1.715577653534918270e-02,1.825195550918579102e-01
5.464091136032536156e-01,4.053246169867007476e-01,5.110484302571766113e-01,-4.656849531727099215e-03,-8.743772531699469525e-03,-1.979566923779149321e-02,1.328020840883255005e-01
6.207141165924860982e-01,4.045320304107797305e-01,4.538533074378059973e-01,-5.786586589676381322e-03,-3.251662732278605417e-02,-1.251456083326651925e-01,2.979288995265960693e-01
5.514417861077746119e-01,5.059951887651680247e-01,4.074292780231473232e-01,2.070803942894368019e-03,7.032833152616025990e-04,-2.609463484127111377e-02,1.353412568569183350e-01
5.568750536473067170e-01,5.456689523907154449e-01,3.728655037228381097e-01,4.507926322102406153e-03,-2.606287679802058062e-03,-1.807773867058672795e-02,1.816172301769256592e-01
7.770310071960999654e-01,5.709974066058627340e-01,2.076940101805785366e-01,1.740700869446757879e-02,3.690880406565157784e-02,-1.107519183861334355e-01,5.395235419273376465e-01
6.289321998762592569e-01,7.566984534140458463e-01,1.708213135446114972e-01,5.138382131993468604e-02,-6.047679599828908320e-02,-1.056713277558725267e-01,5.806146860122680664e-01
6.469642265869326447e-01,5.407490876173552952e-01,2.844535087334148504e-01,-1.787414394648701582e-02,-7.963861825144399886e-03,-1.441339479851711791e-01,4.094680249691009521e-01
5.987444341804689651e-01,4.666185009517138105e-01,4.413108483560541084e-01,5.261970613559514148e-02,4.567571960435749812e-02,-7.592325556526195729e-02,2.308676540851593018e-01
5.549721253671415777e-01,4.672766250425601231e-01,3.690653045143324484e-01,-2.913021825512062193e-02,-4.300671337766207025e-02,-9.043424171644684484e-02,2.420292347669601440e-01
5.308000384898581281e-01,4.784446957746264495e-01,4.721261628879487304e-01,3.873676277395749108e-03,1.061781388621047375e-03,-8.052385163073683474e-03,5.792007967829704285e-02
6.031958392722684970e-01,5.194755827308216167e-01,3.861014257764361357e-01,3.405196872021912236e-02,7.017418606139054493e-02,-1.088848005933091972e-01,2.996388077735900879e-01
7.204529198441860238e-01,3.860435757634477216e-01,4.822953633026853537e-01,1.955151327963968507e-03,9.415491728439570607e-02,-1.970084193163460229e-01,4.816122651100158691e-01
5.794106949139382623e-01,5.768425540573361987e-01,3.518925266614640335e-01,2.050924965521454257e-02,-5.866064773969825730e-02,-3.391986055080255247e-02,2.573394477367401123e-01
5.313045730529866173e-01,4.644974800154635930e-01,4.174977548388773552e-01,-1.188843854299752312e-01,-1.306287620444966657e-01,-2.471881431732151080e-01,5.354532003402709961e-01
5.294359888409878589e-01,5.228358912239414735e-01,4.451283819253699647e-01,1.888222326287897213e-02,1.340696059922996328e-02,-1.028518061582457850e-02,9.230983257293701172e-02
5.288494381748983786e-01,5.092089751957284971e-01,4.538648475293768358e-01,1.680842146251300753e-02,1.269855317313993599e-02,-7.294846533132116374e-03,7.763168215751647949e-02
5.536647667166001430e-01,7.029391884115717692e-01,3.303548893915086992e-01,1.798163188407108093e-01,1.458094369566504400e-01,-9.834489131169434073e-02,5.433991551399230957e-01
5.450316702113731093e-01,4.840734132403733403e-01,4.673195316538030220e-01,7.219942636113346052e-03,5.071624048659463882e-03,-2.162951272930352387e-02,8.157783746719360352e-02
5.554920005986858644e-01,4.021193264269700141e-01,5.302827573006608786e-01,1.043445082127282889e-02,1.361428001847705092e-02,-1.004653960869336844e-02,1.465529054403305054e-01
5.363129870467422400e-01,4.676775248418742481e-01,4.830628800771245013e-01,6.771085013998435695e-03,8.000790409245464585e-03,-1.140473399736395207e-02,6.790684163570404053e-02
5.385935542759592298e-01,4.766553968391577523e-01,4.570517617662780419e-01,3.741021703613109373e-03,1.739614162682834655e-03,-1.060115338177937058e-02,7.630903273820877075e-02
5.025738951333306170e-01,5.041359124630276911e-01,4.279095026226838461e-01,-1.875070861325379284e-02,-1.636815361838479810e-02,-1.333948504844792091e-02,8.992319554090499878e-02
5.043610487881418081e-01,5.234499366778444518e-01,4.253597675630153008e-01,-1.624440996656205047e-02,-1.512808845554348795e-02,-7.817174456651790684e-03,9.886950254440307617e-02
4.632460768941107920e-01,5.251167967644670975e-01,4.798523127965619306e-01,-2.961193741219644675e-03,-5.384908870964957156e-03,-9.033257176086708848e-03,5.860384181141853333e-02
4.716447659977870965e-01,5.137469847781530596e-01,4.741755414890521103e-01,-3.463418184683038836e-04,-8.825362088507063231e-04,-4.179141230298479871e-03,4.156371578574180603e-02
4.841758185431144779e-01,4.917320800044039930e-01,4.691084970253422970e-01,-1.606374663086633861e-02,-1.469868951369967744e-02,-1.608600275812342370e-02,5.095624178647994995e-02
5.154772440563133440e-01,4.742624654429623554e-01,4.716204624943688417e-01,-4.368326262465168155e-03,-1.239191374814850545e-03,-9.091647033053632324e-04,4.334583133459091187e-02
5.461921567762689778e-01,4.335763551614214562e-01,4.796300386662022408e-01,-1.308005125756873986e-03,-4.373197795188178000e-03,-1.615611905735543294e-02,1.022861450910568237e-01
5.306689710229454127e-01,4.728616330447891203e-01,4.620415438984923351e-01,-7.222939327471325499e-03,-2.618287731453641538e-03,-6.947036619396587155e-03,6.637850403785705566e-02
5.444553688178864759e-01,3.292636486542523944e-01,5.929245494469851385e-01,-8.202294125154507842e-02,-1.428736205927628317e-02,-3.730909325379688172e-03,2.827089428901672363e-01
5.155334645851273878e-01,4.687584169420974667e-01,4.757938898852142051e-01,-3.076011878567118385e-03,-7.639732170273891981e-03,-5.181545542927173779e-03,4.682249203324317932e-02
4.931021077330817737e-01,4.986908864144165010e-01,4.843386247680604439e-01,-1.067613739075346652e-02,-5.633151948577825099e-03,-8.822128950090605409e-03,2.876868098974227905e-02
4.699863282218174620e-01,5.426874013998359558e-01,4.780356008495998954e-01,3.824623268673078662e-03,-9.151705856959867214e-03,3.156622785722721682e-03,7.134482264518737793e-02
4.190811728595254526e-01,5.469600379781595079e-01,4.580707050343431064e-01,-1.318034137786093345e-02,-5.474517707952192280e-02,-1.417322956766437457e-02,1.516646295785903931e-01
5.079386228201723252e-01,5.005645491863086605e-01,4.990158369986395503e-01,5.366835554723198287e-03,-3.672316968716479550e-03,2.931393919096991676e-03,1.486073713749647141e-02
5.061076083276460080e-01,5.136477599972102404e-01,5.152520711331515235e-01,3.323755605568574911e-02,-1.707068987140095487e-02,2.110627654536029879e-02,7.480895519256591797e-02
4.847571595078105089e-01,5.261854109484459530e-01,4.782025846441110839e-01,6.001755814092861810e-03,-8.205082647980659408e-03,7.149386070866238854e-03,4.994178190827369690e-02
4.843057276617188101e-01,5.324472425679013243e-01,4.704958841505606504e-01,5.934665409688140610e-03,-6.807139203425450341e-03,1.559400330329714169e-03,5.852445214986801147e-02
5.786684733317427609e-01,2.854193174863933757e-01,4.862817258744492332e-01,-8.997197782519160414e-02,-7.058946040188079918e-02,-1.545539315449825368e-01,4.222940802574157715e-01
4.327935970502863605e-01,3.794199560459061704e-01,5.273551228489118392e-01,-1.970121886837719327e-01,-1.042166775042818044e-01,-1.257176687698118855e-01,4.618195295333862305e-01
5.011390796136070414e-01,4.474167693331829732e-01,5.125009465833333389e-01,-5.802320880492325451e-03,-1.539931062821751559e-02,-9.732157914217356293e-03,6.871772557497024536e-02
4.619529183924543370e-01,4.595560465383833337e-01,5.435745991575777758e-01,-2.197504700594130403e-02,-6.389501064158636424e-03,-1.459077522692077584e-03,9.187520295381546021e-02
5.363911823366912524e-01,4.133409143776679562e-01,5.683391489033359223e-01,-1.038537312135802276e-01,-4.588258441676063698e-02,-8.598309505510642881e-02,2.845082581043243408e-01
4.993919223741463131e-01,4.262157032057248274e-01,5.257911356189229890e-01,-7.301250312878830584e-02,-4.951657997158435964e-02,-6.351181592638407980e-02,2.084055542945861816e-01
4.292084673758350677e-01,5.744725828590383498e-01,4.398150081004587042e-01,-1.656906095276150237e-01,-1.989789167020455940e-01,-1.064036784780663381e-01,5.047540068626403809e-01
4.039958705935433603e-01,5.495125873475660283e-01,5.078376599483735987e-01,-5.503995610672023824e-04,-2.654186894767156940e-02,2.757002169167511313e-03,1.377847641706466675e-01
4.858112923739201228e-01,4.923756001582249020e-01,5.408289629762528250e-01,1.261169071611816482e-02,7.290612144284559261e-04,3.987004338943380029e-03,5.687994882464408875e-02
5.680537476814075948e-01,5.709837996043610753e-01,4.922590150588316282e-01,5.854315088911278553e-02,9.519951844948046360e-02,-4.732996775750946544e-02,2.239790856838226318e-01
4.747867395324374407e-01,5.001724945698039493e-01,5.233207641926148623e-01,8.702070657100302239e-03,6.848575176201754551e-03,-1.019593264421956788e-02,4.947396740317344666e-02
4.872341722049957635e-01,5.007075169187631403e-01,5.248553878847281862e-01,3.801706863165223507e-03,1.933016346641510709e-03,-5.682140771088911926e-03,3.523395955562591553e-02
6.993599403751546983e-01,3.874463789168247629e-01,7.205899441005739758e-01,1.975679817755683076e-01,1.149461571358612044e-01,-5.696569241489757990e-02,5.204182267189025879e-01
4.872739138288655347e-01,4.815191730639435952e-01,5.189869227813708186e-01,1.549651141188642355e-02,9.645626105956053853e-03,-7.944875696192895548e-03,4.909414425492286682e-02
4.773315839762532486e-01,4.951556830860650016e-01,5.191000485545536058e-01,2.717810076214549966e-02,2.155882252381596462e-02,-1.899713187868761963e-02,7.752926647663116455e-02
5.289136611612599292e-01,4.626155416998821712e-01,4.981313185537521449e-01,1.270262862926092168e-02,1.336595307638901997e-02,-1.476033231484900725e-02,7.053935527801513672e-02
5.277864787369950239e-01,5.183603509020271449e-01,4.263615188210401197e-01,2.713662296731543869e-02,3.730337889111857985e-02,-4.512236069480612954e-02,1.480261087417602539e-01
5.074544760429551271e-01,4.815311061521537761e-01,3.659553583759767581e-01,-5.045591806238964444e-02,-7.064151207330915394e-02,-7.988941107507317729e-02,2.424477487802505493e-01
5.131347431131644266e-01,4.760149070935665305e-01,4.668984550762356189e-01,-7.676542919057382890e-03,-3.020769392341460940e-03,-2.976123259422037027e-03,4.505694285035133362e-02
5.077583065498326720e-01,4.763684402851494082e-01,4.802454823014977170e-01,-1.930914134306155978e-03,-1.675533000420138417e-03,-8.534732762451802601e-04,3.000746667385101318e-02
6.036066332414199431e-01,3.380902158762116860e-01,5.102685125778174680e-01,-5.759137709214610934e-02,-3.577309806918404361e-02,-1.184533406086398510e-01,3.321312963962554932e-01
5.275994684568861004e-01,4.953065308442604064e-01,4.189001979159282518e-01,-3.933790351823263781e-02,-9.548671247633605530e-02,-9.731560308093877010e-02,2.641111016273498535e-01
4.445360171457903853e-01,4.592075706180039907e-01,4.731787184478747910e-01,-8.028340607177053556e-02,-7.979008764071855719e-02,-6.890461411856139973e-02,2.308562546968460083e-01
5.299720985261959783e-01,4.675409136825297018e-01,4.955055897631375772e-01,4.324311439089546794e-03,-6.267319884363093535e-03,1.184532230217620261e-02,5.940269306302070618e-02
3.547223894935845889e-01,4.914819389454425647e-01,5.133800057963751051e-01,1.737947316522636121e-01,-1.178906569161447676e-01,1.194770390066671739e-01,4.441961348056793213e-01
4.431429029715306389e-01,5.224445546190122913e-01,5.441947024649667064e-01,5.395528273958324038e-03,2.993535146826210337e-03,1.098143797372973240e-02,9.467121213674545288e-02
4.439967675615044129e-01,5.472657047550854026e-01,5.178981558809305774e-01,1.396363982738651859e-02,-1.314142349494497840e-02,1.661525749878222172e-02,1.021049097180366516e-01
4.816689348670099569e-01,5.185377358596586772e-01,4.884104599623501630e-01,1.909034759847935215e-03,-2.157978395818826133e-03,5.949977581018567850e-03,3.587917611002922058e-02
5.054086663168477767e-01,4.709239186388154974e-01,5.357871667042402031e-01,2.641529348542424188e-02,-7.367321207056288374e-03,7.099497699029138145e-03,7.461226731538772583e-02
5.376879476063179952e-01,4.181294247213392379e-01,5.453502443135836986e-01,4.871291003344951215e-02,-1.114935177372509750e-03,3.427809693904750044e-02,1.609862744808197021e-01
5.146920202047799986e-01,4.704743787859617665e-01,5.220400725381930673e-01,5.846962112936109936e-03,-9.880809600221071576e-03,9.708306254082803288e-03,5.488454177975654602e-02
6.297491332800740915e-01,6.132463421611669130e-01,5.912725717779058199e-01,2.336897048604234250e-01,-7.281652619038443686e-02,2.489098762897453687e-01,6.055787205696105957e-01
6.289332833703584758e-01,3.934030893948132768e-01,5.621057392607194947e-01,2.239991464206285421e-01,9.570122372887405332e-03,-1.310291874865287046e-02,4.421732127666473389e-01
6.028808299384635916e-01,4.787446346071554393e-01,4.808787615954743244e-01,5.302346113349261369e-02,4.529138866048526557e-02,-1.032344087886849920e-01,2.484146654605865479e-01
6.668378358223214786e-01,3.528400668140839747e-01,5.650615924628663578e-01,8.010802611921567784e-02,-4.712815032818763739e-02,1.113043021408133271e-01,3.742679655551910400e-01
6.308140434989177869e-01,1.623074584264095344e-01,5.696838633787170147e-01,-5.386699897642933943e-03,2.660071913828119736e-02,-1.142267235967623362e-01,4.857453107833862305e-01
5.507423275366574167e-01,3.962014591897328186e-01,5.294064270382482507e-01,5.233117394729670802e-02,4.017746339705619701e-02,-4.569005625324923381e-02,2.009027600288391113e-01
5.503966525548084077e-01,4.252268217833988229e-01,5.706940244180439548e-01,2.604881116263483079e-02,1.658578259675235617e-02,3.227845430183737176e-03,1.466704905033111572e-01
5.391983169290277544e-01,4.526067962090934427e-01,5.259121815215902496e-01,2.355487666112688477e-02,2.886721440985950612e-02,-2.642025286480075702e-02,1.130605190992355347e-01
4.139623544440967917e-01,5.318921993973388940e-01,5.415577170002792151e-01,-1.118840227007023708e-02,4.459157173046005528e-03,1.187621895478090280e-02,1.264873594045639038e-01
4.429847743911812796e-01,5.456699659796082624e-01,5.191334174542550084e-01,-1.773928380573117644e-03,9.020367445724566252e-03,7.590010822221301794e-03,9.460387378931045532e-02
4.549356356260169099e-01,5.572289241706531726e-01,5.224380780378655720e-01,6.548639821944233358e-03,1.381101838074007618e-02,6.546556559391829115e-03,9.457752853631973267e-02
3.651970722706099903e-01,5.692926319593220041e-01,5.596138742213307982e-01,-2.688910828309644917e-03,-1.830441871050589439e-03,6.795009037472285116e-03,1.998588144779205322e-01
3.087444362273049636e-01,5.087948110832035686e-01,5.450746354149540451e-01,-1.397783229311647391e-01,-1.082285792975179739e-01,-5.572319881047670120e-02,3.894401192665100098e-01
4.890415867738200917e-01,5.254321879525292172e-01,4.865819124013930908e-01,-2.390443728495400631e-03,1.989838983659919860e-03,1.820808879159019388e-03,3.819426521658897400e-02
2.969396225341772722e-01,6.251032149389056380e-01,7.988676978217718050e-01,-2.068850604965002393e-01,7.480706502420779447e-02,1.031037475587083113e-01,6.099117398262023926e-01
3.611074997186892732e-01,5.541502012428842772e-01,5.578037836021565443e-01,-7.799116202625520564e-03,-3.045333999762939430e-03,4.678523658299100531e-03,1.956018805503845215e-01
5.085287502967261730e-01,4.812309368004790144e-01,5.044755273647995031e-01,3.303410573555436332e-03,7.380272321220430684e-03,-1.820835979016420915e-03,2.927531860768795013e-02
5.058877029399437841e-01,4.571218528154663008e-01,5.424917916877139978e-01,2.770242812963550141e-02,2.426610292301476998e-02,-1.694292238235843226e-02,1.021420061588287354e-01
5.188667162994808901e-01,4.636997269226023621e-01,5.175040710221018303e-01,4.827863147762118459e-03,1.491955530445865374e-02,-6.242718826252474824e-03,6.184415146708488464e-02
7.285455361096830895e-01,2.804315771765170107e-01,5.750856573215494816e-01,2.674735251312532203e-02,1.117444070295096625e-01,-1.551591362081311820e-01,5.171250700950622559e-01
5.038824105549304377e-01,4.751058948307493313e-01,5.309720778807111019e-01,5.227087584734178664e-03,8.520242639302122445e-03,-9.625456537967933771e-04,5.141998082399368286e-02
5.032231916840345098e-01,4.627024488240368272e-01,5.302555702301535723e-01,1.089317513348043130e-02,1.208819724600813245e-02,-3.743205583897062962e-03,6.560826301574707031e-02
5.557898483274814616e-01,5.304646271185157191e-01,5.288507578470601489e-01,8.831228658128636999e-02,9.282346573067111473e-02,-6.111072778753230683e-02,2.472532540559768677e-01
4.774436341477117929e-01,4.735181928946453622e-01,5.385047131494915540e-01,2.287305493002443277e-02,-4.053033823604638937e-05,4.326322882955335215e-03,7.489487528800964355e-02
4.668518747531973934e-01,4.735682755126479071e-01,5.164983292492507649e-01,-5.908227486157937962e-03,-3.302138512965207672e-03,-7.426539620868338742e-03,4.979286342859268188e-02
5.409461990262324216e-01,4.563567628676844512e-01,4.303594576327833821e-01,5.348203988901333375e-03,5.638964164326170508e-03,-5.351416374786499563e-02,1.371234208345413208e-01
4.739121534841835293e-01,4.500012182108075187e-01,5.141900725178667475e-01,-3.973626927683419213e-02,-3.157160782201255678e-02,-2.860079858684015999e-02,1.154918000102043152e-01
5.325732550140650501e-01,4.713587641600922029e-01,4.666677291886076051e-01,-7.575263923081759082e-03,-9.128613907447872752e-03,-1.460088207555873888e-02,7.154079526662826538e-02
5.554454968936088921e-01,5.274605198772318593e-01,4.243645687212327378e-01,1.182557900114941662e-02,9.002623136850683092e-03,-4.487277621181984949e-02,1.449152976274490356e-01
6.308758679173206430e-01,3.902071414674089245e-01,2.507149300760865285e-01,1.796898866880836543e-03,5.180016252188406403e-03,-2.261045719236137730e-01,5.142090320587158203e-01
5.252189296689987463e-01,4.031414837666512652e-01,5.312756566489155174e-01,-1.222669658895263710e-02,-1.455252497964895468e-02,-1.719256811344444316e-02,1.328515559434890747e-01
5.535812032784157566e-01,3.876444412653538008e-01,5.252328675917697920e-01,-7.983745302135462907e-03,-4.745765314867659602e-03,-1.261428080095902161e-02,1.561113446950912476e-01
5.019179936439220890e-01,4.465749135730270880e-01,5.079136854157277892e-01,-6.769250212913179368e-03,-1.532481120259978312e-02,-9.705303197182378258e-03,6.749238073825836182e-02
5.504282024255539030e-01,3.762142542172105530e-01,5.542843835248555395e-01,4.472801728582469910e-02,8.498570808241777755e-03,-1.901427126976773171e-02,1.958066970109939575e-01
5.076332310952110793e-01,4.389996127096063017e-01,5.030604069068138617e-01,-1.315640526366305615e-02,-1.525103117361030491e-02,-7.114273777503589240e-03,7.606923580169677734e-02
5.207643298640001195e-01,3.559305835498341453e-01,5.599045351034522833e-01,-7.331955972711651226e-02,-9.924106813095712534e-03,-1.325910271073110075e-02,2.282627820968627930e-01
5.424177243603117704e-01,5.323437475773502570e-01,3.947406033556463689e-01,2.278405989106200777e-02,2.900453417532042333e-02,-6.591323012183034069e-02,1.937449723482131958e-01
4.758771677370707831e-01,4.694427911288229227e-01,5.070996067947204367e-01,-5.607481656532770087e-03,-7.982872329688736612e-03,-3.563942914515296455e-03,3.925244137644767761e-02
5.438234509998450816e-01,5.022582912148999545e-01,4.288568773496608255e-01,1.226224150733350171e-02,9.614189844071179686e-03,-1.115134845298704387e-02,1.061499640345573425e-01
5.376626381463224247e-01,4.847145157360897016e-01,4.649528437844810402e-01,2.716188458015693103e-03,1.815654564040297637e-03,-3.821150955935208749e-03,6.569777429103851318e-02
5.462811966809701936e-01,5.425323988625168070e-01,3.854791528275333667e-01,1.845918908988482612e-02,1.219525260555104178e-02,-2.023762604218531935e-02,1.672292351722717285e-01
5.343236962942218282e-01,5.308254267246678149e-01,4.311542551226395514e-01,1.945994426845261416e-02,2.043741968513953719e-02,-5.408162155959542368e-03,1.130138710141181946e-01
5.511759193652717714e-01,5.052530805476959097e-01,4.017904685777998752e-01,2.815484829355580348e-03,-2.362716372795514459e-03,-2.525321894102971337e-02,1.397083401679992676e-01
5.033336759732829346e-01,4.263836511554151554e-01,5.679014520912011310e-01,-2.205309517911709094e-02,1.344082941522900705e-02,1.687244300622888979e-02,1.338425129652023315e-01
4.974186692410740851e-01,4.812236612576760164e-01,5.259209816201673160e-01,-1.719681348626301426e-02,1.309415257241060976e-02,1.346242627047404203e-02,5.900447070598602295e-02
5.038527374663576142e-01,4.396014910123481334e-01,5.470882587284608967e-01,-9.721549844200011448e-03,9.002081990050363192e-03,3.721826240370356125e-03,9.666262567043304443e-02
1.780792738947107046e-01,5.123878072576855125e-01,5.854243194953491214e-01,-1.785934262285885088e-01,-1.038973281356562750e-01,-3.981636783687998726e-02,5.237748622894287109e-01
3.383722192178634236e-01,6.183854555688658161e-01,5.981675245928869122e-01,-8.013277875940330586e-02,1.733758062691517221e-01,5.564895553621240255e-03,4.274214506149291992e-01
4.325838062611216395e-01,3.742381546792638569e-01,6.004641875862213318e-01,-1.584527597103222163e-01,9.680209354981242353e-02,8.872629400062595484e-02,4.104070663452148438e-01
5.392841278204875133e-01,4.184263766936586748e-01,5.379906170119644893e-01,-3.613351019387115066e-03,1.781910673625094685e-02,2.207704142384889559e-02,1.300225257873535156e-01
4.751662678785927296e-01,4.802369534633796344e-01,4.998321956907560426e-01,-3.902732492096523589e-03,-3.535335067647951603e-03,-8.431832336029910710e-03,2.838175185024738312e-02
5.452824650485176283e-01,5.203295085191794733e-01,4.439227650701126349e-01,1.149596981485113446e-02,-4.668495899969515514e-03,6.295746797819996854e-02,1.439444273710250854e-01
5.535479899342993226e-01,4.456722595993500846e-01,5.140092701243101914e-01,4.998893533711795158e-03,5.398664392060592392e-03,1.091614596442532469e-02,9.723736345767974854e-02
4.961858233390499251e-01,4.887468124685278026e-01,5.122954912478997480e-01,-3.352184687738559918e-03,4.683930883194295687e-03,2.707318386015708771e-03,2.358427457511425018e-02
5.463633431855940970e-01,3.459985026245521178e-01,6.043050651353174541e-01,-6.781012422957549690e-02,1.541253067698535907e-02,-2.837236659675695938e-02,2.683934569358825684e-01
5.335091487121851328e-01,4.840987300765213219e-01,4.436166657497884191e-01,-1.319260508143678574e-02,2.130716151298386873e-02,5.043942608222369561e-02,1.248877495527267456e-01
5.555788631116688192e-01,4.617378766075288521e-01,4.864559961762702778e-01,-3.327342768150297336e-02,6.751090946120930081e-02,7.760238564915472592e-02,2.053252756595611572e-01
5.452005013514881204e-01,5.116398878588122034e-01,4.373926996328619810e-01,1.237015210658957629e-02,1.860902434453214072e-02,-3.674820652789220765e-02,1.211609765887260437e-01
5.805467206995769125e-01,3.957404981882149397e-01,3.734828637440792964e-01,9.706173997295786116e-02,9.087042235739868634e-02,-1.816252012725146914e-01,4.367613494396209717e-01
5.943602725012192556e-01,5.015919867305554947e-01,3.962649511638267619e-01,1.426293797917883507e-02,2.235607738238002892e-02,-6.319104067131559033e-02,2.087097167968750000e-01
5.633885977642831833e-01,5.131437338202907705e-01,4.318991785497746094e-01,9.839606170127435450e-03,5.791576391196826337e-03,-4.061970940123519475e-02,1.361921727657318115e-01
5.426275897516670277e-01,5.075871876122868276e-01,4.111517027076287412e-01,1.271988530856645039e-02,9.801866178778028196e-03,-2.226735591846379370e-02,1.271530240774154663e-01
5.351098892527241802e-01,4.531971106604612554e-01,4.940371822387746303e-01,9.478750236366897605e-04,1.027358119062019189e-02,-1.518170964376355271e-02,7.773724198341369629e-02
5.191050351506228955e-01,4.739868299153505160e-01,4.842626803892999265e-01,6.714553575994700561e-03,1.004587616586714513e-02,-7.809927828517387871e-03,4.794389382004737854e-02
5.924912162335346233e-01,5.160503169106218646e-01,3.584470742493267581e-01,1.720328269253059220e-02,1.629407285412809436e-02,-9.934030312606194346e-02,2.720646262168884277e-01
5.239482727492246195e-01,5.029082686263388613e-01,4.266796103082978187e-01,-1.667078386444603710e-02,-8.422028511421314825e-03,-1.674005432605240457e-02,9.871456772089004517e-02
5.070906939527669577e-01,4.880162354163719018e-01,4.625892871867244294e-01,-1.201189697866137523e-02,-1.198019300237621911e-02,-1.071421963908701473e-02,5.199216678738594055e-02
5.082604529448278008e-01,4.687481123821968798e-01,4.917388727988596386e-01,-1.541782372114888951e-02,-1.361233286414189128e-02,-1.742216099690750697e-02,5.797405540943145752e-02
4.539611752888483287e-01,4.816528105448974473e-01,5.370898837685056382e-01,-6.304381630441800721e-02,-4.555821302407011414e-02,-3.348769086532759481e-02,1.639809012413024902e-01
5.349694784656701119e-01,4.679196724175400668e-01,4.593768024529308325e-01,-3.161155196266327971e-03,-2.123750703567790169e-03,-7.331057313510963916e-03,7.311769574880599976e-02
5.479579055238134044e-01,5.007778617827333134e-01,4.264204802048815468e-01,-4.587722095224246698e-03,-3.957760724888068245e-03,-9.482854506271558293e-03,1.079030483961105347e-01
5.300936215204250512e-01,4.623461372487114862e-01,4.716779431943792233e-01,-2.846707134104167411e-03,-6.960159591978569947e-03,-6.381545781367918037e-03,6.585144251585006714e-02
5.442401115963418912e-01,5.288151999313606133e-01,3.970129556785891300e-01,-1.132332114759372448e-02,-1.221530660966057245e-02,-1.048277106050609156e-02,1.442385464906692505e-01
5.573734622201277356e-01,5.768813805770374170e-01,3.463536605208629160e-01,8.215512255943767383e-03,-1.112225800320616916e-02,3.932686265907437578e-04,2.227117717266082764e-01
6.215056114676400512e-01,3.767580481496909384e-01,3.296476508388411775e-01,-5.101869160792593672e-02,-5.390523580591660008e-02,-2.398687699675074447e-01,5.126285552978515625e-01
5.203869166871853968e-01,4.764014230203136857e-01,4.879357984557735617e-01,1.853606235568563618e-02,1.961457899830448826e-02,-2.553986431118831016e-02,7.551308721303939819e-02
5.078076641629178933e-01,5.283530403216455396e-01,4.637830609324732345e-01,1.114418362941888008e-02,8.282193803648432717e-03,-3.632913130081475307e-03,6.231161206960678101e-02
5.006520710360733428e-01,5.336025870333930277e-01,4.741265591335439566e-01,8.607725845065750114e-03,4.224203294541716697e-03,-1.790935356306650860e-03,5.430286750197410583e-02
4.369770522282465097e-01,5.391632990574836137e-01,4.973531800053677676e-01,2.532911480138112445e-02,5.046938067957817270e-02,-1.348066959112598912e-02,1.342722922563552856e-01
5.012021918714123503e-01,5.358543815093601559e-01,4.718617208590411560e-01,2.146414940633270194e-03,5.888091533799618034e-03,-1.324341157864147465e-03,5.658127740025520325e-02
4.837926845964480305e-01,5.370787414126050319e-01,4.919789405175500341e-01,2.914329361583764891e-03,6.079000033387092772e-03,1.400007635080759670e-03,5.111191794276237488e-02
4.665695408120235088e-01,5.226221764516988388e-01,4.997580416037160078e-01,1.225828186909227492e-02,7.550410915501108537e-03,-8.084153054381036305e-03,5.657698214054107666e-02
4.931053195968980174e-01,5.271293527925513533e-01,4.836785199912108646e-01,7.077815639166125730e-03,5.705134443264573210e-03,-2.429015379569856962e-03,4.281202703714370728e-02
3.056073259136223852e-01,6.351061203603006744e-01,5.722422393789030615e-01,1.056450776903641309e-01,1.157518743726098920e-01,1.330937762519579515e-02,4.074522256851196289e-01
4.255548301767693720e-01,5.273739439374099947e-01,4.685143385214010636e-01,1.339598619419143377e-01,1.506715157291768914e-01,-6.849951085117990390e-02,3.792842626571655273e-01
3.035012214801722230e-01,7.133077945535015729e-01,7.770982385524063396e-01,1.754203905195898527e-01,7.698929993260292259e-02,7.645850578220841909e-02,5.707793831825256348e-01
4.855328365807017876e-01,4.831918268500987601e-01,4.831736809986259540e-01,-2.476194818340456735e-03,-5.922618623993643368e-03,-3.015865751298415359e-03,1.250745076686143875e-02
4.143840506462264650e-01,5.496831282711277522e-01,5.367366467291833088e-01,2.954705660660735672e-02,3.546760939678452601e-02,-2.448000422418272759e-03,1.520944535732269287e-01
4.807340725562165296e-01,5.409045940541175046e-01,4.910830203721970877e-01,1.993866765393111692e-03,8.063573048600218562e-03,9.397505812331491144e-04,5.757195875048637390e-02
4.261112636356475525e-01,5.424114009192519958e-01,5.284459310043526648e-01,4.639172684735221215e-03,2.251930353301526827e-02,2.283292837448208678e-04,1.169728562235832214e-01
3.731223448911137885e-01,5.601651396625703105e-01,5.585410743796169752e-01,2.408196545006133140e-03,-7.895893391366783131e-04,5.526507864014334852e-03,1.865335702896118164e-01
5.726136379946933364e-01,3.662272916288464297e-01,5.569159456588212986e-01,-1.008086819294690085e-03,6.561598737077509137e-04,-9.614634938211170587e-03,1.997088342905044556e-01
5.353596943357383786e-01,4.215973634688230387e-01,5.490424240214216711e-01,2.272034260761698204e-02,1.644879584424932539e-02,-6.080640093057548649e-03,1.309844106435775757e-01
5.433519363423381376e-01,4.117817320985452390e-01,5.342537925843903190e-01,5.981656858024265479e-03,1.501927265725211576e-02,-1.367014632716663861e-02,1.324429959058761597e-01
5.975725889105474309e-01,2.078574264991177589e-01,5.912921030996902694e-01,1.124797232513202599e-01,3.497530488647364322e-02,-2.166841671199862956e-02,4.387518465518951416e-01
5.598981733475363320e-01,3.924915496966984718e-01,5.569943469585122431e-01,1.360106458178252271e-02,1.277732697795774114e-02,-1.685328748714254657e-02,1.715929359197616577e-01
5.372141816943502013e-01,4.243447525530076314e-01,5.537404383968241861e-01,4.802847199825108215e-02,-6.090632482839476204e-04,6.087023079057149282e-03,1.480216383934020996e-01
5.036014898004589346e-01,4.711377569294698531e-01,5.395606084954051029e-01,3.062311286676888678e-02,-4.105992979402924362e-03,2.034674630374761622e-02,8.729371428489685059e-02
5.640236153056719104e-01,2.708021919844485481e-01,4.707984169686169618e-01,1.266431814425841851e-01,7.473351529807684135e-02,-1.675996797110182457e-01,4.652675092220306396e-01
5.445954903571830208e-01,3.849603957132256560e-01,5.639572617605774774e-01,-1.842258776296195125e-02,5.884087599850085053e-03,4.537813315440738550e-03,1.735882461071014404e-01
5.974460065085642757e-01,3.594992249286986241e-01,5.738809357564885749e-01,4.870551319531729595e-02,-2.985694183590072940e-03,1.858239413094847636e-03,2.423232048749923706e-01
6.045734849410604461e-01,1.529604770205858499e-01,5.804969972974702852e-01,1.800200415426545658e-02,1.589131788216400359e-02,8.823497673655041063e-02,4.677037298679351807e-01
4.830220416952262230e-01,5.081902168936663911e-01,5.142756681612140612e-01,-1.131492628352842415e-02,1.014357002536492650e-02,7.473547365480053863e-03,4.103595763444900513e-02
4.931876654527546644e-01,4.921396528841535667e-01,5.056811131020291228e-01,-7.779452863356948935e-04,1.164048714739993311e-03,3.966344137848264173e-03,1.494503766298294067e-02
4.988171469768953314e-01,4.720453694986763704e-01,5.182770592963911183e-01,-3.930442385612169937e-03,1.070847983127824581e-02,2.774230732764955843e-03,4.505376145243644714e-02
5.048434437955601206e-01,4.767675659545899114e-01,5.071364100928398289e-01,-4.316983265189686114e-03,1.180933789072993734e-02,7.384385166707239413e-03,3.867515176534652710e-02
4.837685160807690954e-01,4.883999655978630838e-01,5.071638522547657901e-01,-1.447390890897045680e-02,8.000949264999812280e-03,9.640614399590683933e-03,3.949417546391487122e-02
4.886957091907341844e-01,5.100553372386681383e-01,5.049012710335726295e-01,-1.776327799776895172e-03,2.357668643781386103e-03,8.353847760525142177e-03,2.466194145381450653e-02
4.940656099615416963e-01,4.988844807825357774e-01,5.074032957790577392e-01,-1.893349183551527610e-03,1.326602338190926511e-03,5.891812925130072336e-04,1.240637432783842087e-02
5.001127870605813763e-01,4.968339838599825642e-01,5.026469851515369403e-01,-1.248589699180173212e-03,2.757807965626561490e-03,1.233109098782227868e-03,7.585312239825725555e-03
4.961744070181837163e-01,5.066044659917662285e-01,4.999807401951810726e-01,-1.082201619830797448e-03,1.164389327001451790e-03,1.124129163896569680e-03,9.744019247591495514e-03
4.996381942484758865e-01,4.845776633346308149e-01,5.140383279882727585e-01,-2.879094397623217783e-03,8.183666548748008002e-03,2.517709894100479337e-03,2.993089519441127777e-02
5.607353781296265938e-01,4.883160028674304320e-01,5.102589574881839507e-01,6.026586482411207951e-02,-4.756586524447681263e-02,7.489540624314115769e-02,1.965919286012649536e-01
4.354888623577077844e-01,5.426995194419251822e-01,4.589929645118031587e-01,4.781830359045423536e-03,-4.834343554067982440e-02,5.659134090806288396e-03,1.292386054992675781e-01
4.106463963106433690e-01,5.403644985185934724e-01,4.113229402213912089e-01,1.305119918902599707e-01,-1.443537594459070317e-01,1.256952483896626449e-01,4.216058850288391113e-01
4.088237158993931475e-01,5.618871745425765285e-01,5.618976724747746232e-01,1.199994050194666539e-01,-1.546722848483880475e-01,1.624452697642836951e-01,4.664392173290252686e-01
4.489284250536593190e-01,6.301934635605592749e-01,5.918315465344113901e-01,2.600575093115656822e-01,-4.559816695205919090e-02,1.997605836687028069e-01,5.968376398086547852e-01
3.731275517234809991e-01,6.175727290237025269e-01,5.597878008274111972e-01,8.616772133345176887e-02,-1.708749454774058374e-01,1.292395784469164421e-01,4.571053087711334229e-01
4.081931138019042615e-01,5.417715348798485264e-01,4.752951403593382862e-01,6.711161131517037054e-03,-4.608939860744134392e-02,1.276416807496823930e-02,1.427553296089172363e-01
5.036940463796002465e-01,5.064249041376427396e-01,5.758337726924952493e-01,8.779910883945765687e-02,-4.000627979521157590e-02,5.355140827830065509e-02,2.038269191980361938e-01
5.432618891778330239e-01,5.239940188599777615e-01,4.549500366389760408e-01,1.872036462581223859e-02,-1.863793844598694155e-02,2.341578989983196177e-02,1.010298207402229309e-01
5.180172386990876676e-01,4.187489111103893658e-01,5.320683419780178891e-01,1.277124981443310547e-01,-4.360346409012254981e-02,1.311855676523165093e-01,3.430898785591125488e-01
4.921492539618247952e-01,4.708848636658913844e-01,4.946826617826841632e-01,-1.273460876859535545e-02,-1.169873237844244566e-02,-1.393831706591075296e-02,4.463614895939826965e-02
5.484485913475312113e-01,4.176177161345595579e-01,5.249228701010045794e-01,-4.817952038671972220e-03,1.192857846404622550e-02,2.074234249926685397e-02,1.279825419187545776e-01
5.158270366877315549e-01,4.820531429597775808e-01,5.009426828130747467e-01,4.401612805353637137e-03,-8.017865255326252216e-03,6.433045424215214254e-03,3.513759374618530273e-02
5.284401219871943667e-01,4.238135754182069670e-01,5.494300844786076388e-01,2.431398986997326817e-02,-1.539596239801095873e-04,2.399952437852612142e-03,1.239929869771003723e-01
5.417525375288843037e-01,4.437688357349806045e-01,4.951520058217304676e-01,1.587877967015060773e-02,-7.439207751340559845e-03,4.856355167651240506e-02,1.233045458793640137e-01
6.190113253587706810e-01,2.392460053630807715e-01,5.682824057994736444e-01,-3.868645171285216983e-02,4.453269627594031582e-02,1.371973593017761783e-01,4.409521520137786865e-01
4.835950496814319655e-01,4.935329066496728090e-01,4.857197927891641620e-01,-1.692578970962875127e-03,-1.447417673268197212e-04,-3.194778483464192406e-03,1.101985853165388107e-02
4.865599498276110824e-01,4.951153573835936350e-01,4.823948396256142468e-01,-9.304092165873206581e-04,-1.722021473711663007e-03,-2.264010066091142435e-03,1.237124204635620117e-02
4.804726643409175102e-01,4.996248934336733338e-01,4.773393488222645864e-01,-3.886739012633143829e-03,-7.612458295060521921e-04,-8.596737149710673024e-04,2.204339765012264252e-02
5.062485523910666974e-01,4.303955024224676018e-01,5.489746163786891620e-01,-1.195660876593619137e-01,-7.550206359131651779e-02,-8.457857985377599530e-02,3.037606775760650635e-01
4.701441679457433742e-01,4.932173726335173369e-01,4.882181764539997304e-01,-1.872131339551310475e-02,-1.971203634031328325e-02,-2.115232354943866189e-02,6.325689703226089478e-02
4.984385859016811082e-01,4.742159042674550795e-01,4.795028060891414201e-01,-4.414217219417267135e-03,-6.216341383060067401e-03,-2.255842658667428415e-03,2.600534260272979736e-02
4.981014936491882650e-01,4.892308813526660694e-01,4.718364579420252780e-01,-9.455706772405078619e-03,-1.450543899622083310e-03,-2.977723404591150775e-03,2.892571315169334412e-02
4.300505970394578603e-01,5.085608606575996449e-01,5.144914063800990478e-01,-7.172424746508708482e-02,-4.556577697782444869e-02,-3.382213991306545764e-02,1.782085150480270386e-01
4.867879445071616185e-01,4.625738028826625881e-01,4.868485596769373536e-01,-7.842674359037769133e-03,-1.343657297686867529e-02,-7.207178116388753518e-03,3.833762556314468384e-02
4.904564749255846956e-01,4.765250053354835313e-01,4.905512011046048726e-01,-1.326100947429592440e-02,-1.152793974557790591e-02,-1.299597872073623463e-02,4.035274684429168701e-02
4.691849658120887945e-01,5.067776563321481076e-01,4.756061667821331329e-01,-4.240898550151076495e-03,-6.667049611251093556e-03,-7.898702976939109971e-03,3.984375670552253723e-02
5.156904104939701305e-01,5.379132673297131184e-01,3.785236764835512302e-01,-4.188596895837356365e-02,-8.489743865418987456e-02,-9.914152968013774381e-02,2.805885970592498779e-01
7.035977204772593252e-01,3.068885560134337886e-01,4.041237035269547029e-01,-8.442407713829586102e-02,-8.700622885712398780e-02,-2.009514957295621962e-01,5.417525172233581543e-01
5.446799253826148934e-01,5.302009257899382710e-01,2.914581398832801762e-01,-6.672938782452261797e-02,-1.344929200043884221e-01,-1.300550466576142483e-01,4.231204688549041748e-01
5.319293389835934027e-01,5.189874160031198169e-01,4.416556801954016898e-01,-1.346888236414039812e-02,-2.390364639573663158e-02,-3.337222656050233688e-02,1.129071041941642761e-01
5.383067172567360670e-01,4.196674609999585526e-01,4.259449715565301053e-01,-1.863363612046999296e-01,-1.442273010286150292e-01,-1.842519448121121561e-01,5.308337807655334473e-01
5.160165766705889778e-01,3.703231847618674299e-01,5.333493153110538953e-01,-1.451496482651587205e-01,-7.797691659908415063e-02,-1.847971829822656065e-01,4.560139477252960205e-01
5.664313537933987064e-01,4.421128047546673545e-01,3.229531530991144317e-01,-7.277178914144502575e-02,-1.171801507621257621e-01,-1.848301772592924053e-01,4.517025947570800781e-01
6.717149307855940776e-01,5.551778386817983746e-01,1.916978768437520020e-01,1.484123519255359236e-02,-6.537649361552508309e-02,-2.706683834266913058e-01,6.490952372550964355e-01
4.662836909340611902e-01,4.882571796750463378e-01,4.966415984064157518e-01,-8.258142169199456095e-03,-1.182887163547643485e-02,-1.031322831283735392e-02,4.099772125482559204e-02
6.192900421309099901e-01,1.952807962199540337e-01,5.445061386882772414e-01,-4.173160190746606768e-02,7.348084042607266192e-03,-1.428970911498488594e-01,4.693748056888580322e-01
5.621800717543533610e-01,4.079547950368385689e-01,5.613726598196139284e-01,-9.531277791029052482e-02,-4.548157834579540787e-02,-9.409725288676058785e-02,2.892814278602600098e-01
4.315934622851573810e-01,5.025544881913041051e-01,5.507282634056807069e-01,-9.659754030469917818e-03,9.671248655916065079e-04,3.665565980452610562e-03,1.053455621004104614e-01
5.138751793330937900e-01,4.656318887551780805e-01,4.834831190418520941e-01,-3.454233055387882778e-02,-3.133824354395160772e-02,-4.105428196474687763e-02,1.156158149242401123e-01
5.372101927551085065e-01,4.628670066505235492e-01,4.698811512640568844e-01,-3.286080347377065298e-03,-4.563306238422937255e-03,-6.252318556891534387e-03,7.257268577814102173e-02
4.354978202675622856e-01,3.859956730472186570e-01,4.118219046980214904e-01,-1.690196170161931410e-01,-1.521059921128037618e-01,-1.845427831165866728e-01,5.090370178222656250e-01
5.129484347830949309e-01,4.184825745677018261e-01,4.207310007056159207e-01,-1.020740227361540270e-01,-1.133510421470401291e-01,-1.725356820582921169e-01,4.096643030643463135e-01
3.434634016983629801e-01,5.463892846368326728e-01,5.217480703699770572e-01,-1.717073338707681696e-01,-1.393968754284526934e-01,-1.260407925070865243e-01,4.808214902877807617e-01
4.958696156935641919e-01,5.139376684559289199e-01,4.048281891509937225e-01,-1.087778571237938696e-01,-2.106291472546171217e-01,-1.736943909997831770e-01,5.189999341964721680e-01
4.935912199287385005e-01,3.321623460019185736e-01,5.075576528863947612e-01,-1.497188221557969878e-01,-8.429934226775856465e-02,-1.434784901606961371e-01,4.228870570659637451e-01
5.495113453453834840e-01,1.965020277396685444e-01,5.930007304634731247e-01,-1.427661639615733502e-01,-1.189409562604554389e-02,-5.620916440118414736e-02,4.614199995994567871e-01
4.790535233058108022e-01,4.929619509180394044e-01,4.832598018713243904e-01,-3.087021871927461778e-03,-3.522058221082546153e-03,-6.220065268899485460e-03,1.828950084745883942e-02
4.839651773139586610e-01,4.595135700962171277e-01,5.234469293906874876e-01,-5.662145837245701960e-03,-8.383234521499385167e-03,-3.742304282929431736e-03,5.891614407300949097e-02
4.693001820295338855e-01,4.612999951514187846e-01,5.309355193553204622e-01,-6.232213688182257176e-03,-7.688921853066142502e-03,-3.224715204084791127e-03,6.841848045587539673e-02
4.045787292064711438e-01,4.083642171750431205e-01,5.426738293282064030e-01,-1.517643715105642110e-01,-5.842865479067242684e-02,-7.565415220431848109e-02,3.392218649387359619e-01
4.852215599840488669e-01,4.860500723396805056e-01,4.840511196697306340e-01,-5.548895076343661296e-03,-4.943503402096234914e-03,-5.940560246695584211e-03,1.657052338123321533e-02
5.051522928893271702e-01,2.699771484906089425e-01,5.564999210344934166e-01,-1.527991349941215382e-01,-5.699831480510782894e-02,-1.209642263577116322e-01,4.401202201843261719e-01
5.607938320592273929e-01,3.204022369081728216e-01,5.559850848910792287e-01,-2.953288231225863897e-02,-2.119069792344613866e-03,-4.642084630837171183e-02,2.564176023006439209e-01
4.484748925287337373e-01,6.028629529536766452e-01,5.676485612700691297e-01,-1.381736935466761941e-02,7.157303605147677383e-02,3.769208830890974360e-02,1.996045708656311035e-01
5.279075388991142370e-01,3.635424688066368759e-01,5.512440599464849544e-01,-2.568071777342870524e-02,-7.252947148466350365e-03,-8.190471507671555351e-03,1.836674809455871582e-01
5.535111190192203434e-01,3.754965523169602193e-01,5.527266634225178610e-01,-9.623281500220013870e-03,-3.571239643102878600e-03,-1.775396576455686576e-02,1.811404228210449219e-01
5.438629380990048778e-01,3.701634995027741626e-01,5.744688309324914588e-01,-2.277001796314106347e-02,3.600932654272070814e-03,-7.261448511079406001e-04,1.949880570173263550e-01
4.996705641808476539e-01,3.886767243691903184e-01,5.855534472668691981e-01,-9.743515968055839471e-02,-1.972417414161721592e-03,-4.281547662246969893e-02,2.514358162879943848e-01
5.625277419725169814e-01,3.212107926795320645e-01,5.744983056982114755e-01,-7.760643833976696437e-02,-1.761311282192999650e-02,-4.685431904362022219e-03,2.834266424179077148e-01
4.997560039296146672e-01,4.004528273527641069e-01,5.527447205455836565e-01,-2.946440256445896980e-02,2.725670017938126161e-03,-2.451876147286456004e-03,1.434421390295028687e-01
3.134616012868739476e-01,3.844304324457314959e-01,5.894921240017851893e-01,-2.241385759172699055e-01,-7.353197051280038754e-02,-6.181820395329322426e-02,4.899382591247558594e-01
3.766204655508731958e-01,5.019997336622087358e-01,6.175061824350326356e-01,-6.502685931764858041e-02,1.310319916501391600e-03,1.668530643163887266e-03,2.371556311845779419e-01
5.074668680121267039e-01,4.033409164678623537e-01,5.484510851618773497e-01,-6.084794576449320536e-02,-2.980211163486403900e-02,-3.446529869823123510e-02,1.847293376922607422e-01
3.804428644652888547e-01,5.436272307545603200e-01,5.419470968757181817e-01,-1.619008549699719676e-02,-1.906492675660413291e-02,-4.918224167617183708e-03,1.682472229003906250e-01
3.798826546982551067e-01,5.576043701745183601e-01,5.459599397328088743e-01,-1.464512573608178075e-02,3.551386157312213295e-03,7.483783172838431863e-03,1.746437251567840576e-01
4.297905262730588039e-01,5.010901129033606960e-01,5.488981697656553083e-01,-8.785032186586784128e-03,-2.579398145961103121e-03,-3.011862778341385834e-03,1.051505580544471741e-01
2.379680792980020387e-01,5.170524721459036632e-01,5.885128016133166495e-01,-1.501189617882305316e-01,4.695896545471982264e-02,3.844730383213070674e-02,4.261399507522583008e-01
3.977211063026124815e-01,5.461045383730983582e-01,5.009926980238608163e-01,-7.086839931797873395e-03,-2.584904473467287966e-02,-9.445006387144350146e-03,1.406473815441131592e-01
4.427436374921388529e-01,4.893370793637455418e-01,5.408804782387890420e-01,-1.097642701095850881e-02,4.535738880102149241e-03,1.178617293273265254e-02,8.982851356267929077e-02
5.594280734331513738e-01,3.725049166809716872e-01,5.457451229739325171e-01,-2.304300682945053819e-03,5.534917780671496507e-03,-2.098056691264031659e-02,1.843860596418380737e-01
5.348414800844689676e-01,4.332654898886094119e-01,4.740871385182937603e-01,-4.070166631299973296e-03,-1.037208315067252723e-02,-1.586252765741832244e-02,9.468308836221694946e-02
5.270553019462603794e-01,5.251409456871167780e-01,3.836108647871172006e-01,-3.093701262514596609e-02,-7.376580937689294903e-02,-7.404752424258793930e-02,2.365374267101287842e-01
5.848292045031586728e-01,4.014890513153411278e-01,5.840580230430391095e-01,4.865295257748829955e-02,2.941266128778936492e-02,-6.452701799942445193e-02,2.359251379966735840e-01
4.448407263218279173e-01,4.302904429564547995e-01,5.445381333150052239e-01,-2.110996145782965683e-01,-1.639680500535171948e-01,-1.111635056419271045e-01,5.128543376922607422e-01
2.176228010756615650e-01,5.914439571056329115e-01,6.039882859537852866e-01,-8.935761114015668138e-02,-1.066011246200807283e-01,-2.064872713579749344e-02,4.515681564807891846e-01
4.560751785561615868e-01,4.865891509217858402e-01,5.420291413635192068e-01,-2.479094743012533880e-02,-2.849866539597785669e-03,1.130090130163185829e-03,8.699631690979003906e-02
4.140386043770380442e-01,4.974392448129741351e-01,5.596389808513626551e-01,-2.607189802710253509e-02,1.548058604550027299e-02,1.283975056189875542e-02,1.387974321842193604e-01
4.177158263791115878e-01,5.017764533914289560e-01,3.815251616053518813e-01,-1.413038996386800084e-01,-1.780371648622906533e-01,-1.656968638327145360e-01,4.987750947475433350e-01
5.165870661435366662e-01,5.153421820223872407e-01,3.728649999091100398e-01,-3.455164348084700104e-02,-6.491326258662834248e-02,-6.381926380821409395e-02,2.211786657571792603e-01
5.283258916256668991e-01,4.198274032834928837e-01,4.918525880339673639e-01,-5.962732372723472674e-02,-7.901726827981149504e-02,-1.059584353542287471e-01,2.687451243400573730e-01
5.264269364989424549e-01,5.067465034128734169e-01,4.247731145792464358e-01,-1.332397845358015455e-02,-7.060943837952909398e-03,-1.303074978957426827e-02,9.955795109272003174e-02
2.692254077713338578e-01,5.645034669249811010e-01,5.729469179174869753e-01,-1.044726831140815743e-01,-1.204805854249466762e-01,-4.959322996339608075e-02,4.164401590824127197e-01
3.534821950772484289e-01,6.135298318653286120e-01,5.419408734969144437e-01,2.477398211937584249e-03,-4.924367156625852199e-02,9.376390810282998756e-03,2.483751028776168823e-01
5.021002241179837178e-01,5.091947323716127238e-01,4.427279126882746052e-01,-1.619774266730812651e-02,-7.080476769968958861e-03,-1.113137140108004172e-02,7.284121960401535034e-02
4.690932249357381290e-01,4.704303446134259215e-01,4.973311400600798349e-01,-1.232557466969085372e-02,-1.215674418794624595e-02,-1.122391465057101523e-02,4.514928162097930908e-02
4.320425609980524939e-01,4.622418571379097174e-01,5.220433877831741620e-01,-8.126309361198982839e-02,-7.671195726676395543e-02,-6.573303938533672786e-02,2.381636500358581543e-01
4.970054929469193694e-01,5.350451373834541613e-01,4.269358119572918553e-01,-1.301796750821112778e-02,-9.593196447826702819e-03,-8.527433236300301436e-03,1.001241356134414673e-01
5.151526334232433557e-01,5.261726694833186446e-01,4.266226283390516238e-01,-1.362503766784879319e-02,-1.452555986077229237e-02,-6.892605072722527218e-03,1.013263612985610962e-01
4.412486885162343886e-01,5.291110154468784410e-01,5.173816861941610279e-01,-1.468529269103972454e-02,8.963966874781242530e-03,1.401578376372415030e-02,9.112714976072311401e-02
5.772096677166657086e-01,5.606624746967628914e-01,3.374658697920708827e-01,5.338645308137278216e-03,1.408293755323337115e-01,1.136545769526394745e-01,3.900258243083953857e-01
5.247095003970531080e-01,4.935322360637949823e-01,4.962083012716071440e-01,-2.336972112782199212e-02,3.811335821163398807e-02,2.469047953225299991e-02,9.338589757680892944e-02
4.591129730431242062e-01,5.400916751670881144e-01,4.582470421674673111e-01,3.807744987705231898e-03,-2.237625505948109134e-02,2.060482355032589464e-03,9.048064053058624268e-02
4.398049275875350883e-01,5.193351694461182388e-01,5.139117776680480754e-01,3.187993852652960033e-03,-1.757585888486611417e-02,1.421959464154907635e-02,8.652722835540771484e-02
4.650656775099339946e-01,5.297764447129795773e-01,5.135928554397648504e-01,1.627183862680318255e-02,-2.134418803029803496e-02,1.522037557033815644e-02,7.910853624343872070e-02
4.985399322070489525e-01,4.991213457484484639e-01,5.098055577638364033e-01,4.407390339120745119e-03,6.626576165139297543e-03,-4.305533198760497053e-03,1.913961954414844513e-02
5.081672974901957351e-01,4.986867558626302821e-01,4.841740574848610867e-01,-1.202157280557572538e-02,7.242127565688778919e-03,8.927586271625662442e-03,3.561028838157653809e-02
4.695487765720194329e-01,5.065639378574187113e-01,5.180972443101677927e-01,6.341996239680677133e-03,-4.771060353061868514e-03,1.387877760615540725e-02,5.193129926919937134e-02
5.024035543608666998e-01,5.087526226694351061e-01,5.310204201772479315e-01,3.809957831528813788e-02,-2.233132591774161096e-02,2.858025773556572766e-02,9.475672245025634766e-02
4.906552465466723634e-01,5.802053920532648235e-01,3.501437703038028371e-01,9.586440426476121324e-02,-1.345570420706324322e-01,1.272440582084484739e-01,4.132861196994781494e-01
5.066196643348593875e-01,5.389046109001661700e-01,4.408750269994002324e-01,2.024717463751472130e-02,-5.053126633483352725e-02,2.207790248939374422e-02,1.335649937391281128e-01
2.472508173704033863e-01,7.245664413579402385e-01,5.812451799596103363e-01,1.786715171735536734e-02,-1.876028657761443785e-01,1.266358310393018161e-01,5.784581303596496582e-01
4.067086642256470541e-01,6.433187202173655805e-01,4.334065740549717383e-01,2.075609081625064828e-02,-2.178765244627052511e-01,1.317819369018412845e-01,4.961678385734558105e-01
6.043759851785157622e-01,3.463286449587895666e-01,5.231255343402317903e-01,-3.160271681575608973e-03,-9.730285288302787869e-03,-6.676748653437146463e-02,2.567319571971893311e-01
3.862156254116013709e-01,5.399165327830083294e-01,5.589898086250959519e-01,-1.343416187226261112e-02,9.372830345653256632e-04,7.868339723562198240e-03,1.662802994251251221e-01
5.885318551831089096e-01,4.701804127113264342e-01,4.988606832358143950e-01,-4.337094059952319863e-02,5.063222780509348681e-02,8.405043552777420601e-02,2.143890857696533203e-01
4.445735457816392122e-01,4.758061750999392769e-01,5.400370562920387973e-01,-4.077536973509724577e-02,1.136793959903268161e-02,1.634629343085524864e-02,1.152578368782997131e-01
4.323318876528311483e-01,2.702134623041586581e-01,5.872606926423917795e-01,-2.112684582297897906e-01,-4.489566444782916443e-02,-7.667402269481501942e-02,4.826891422271728516e-01
4.250794299341965621e-01,2.666950205816552844e-01,5.875201089022572543e-01,-2.165338451711333045e-01,-6.393457774620918410e-02,-9.999652262612344911e-02,5.100217461585998535e-01
5.132519722520905159e-01,4.371512979908862562e-01,5.493999472828947628e-01,-1.923540128613866057e-02,8.309308771570442578e-03,1.058906389347423482e-02,1.072492152452468872e-01
5.528807266247003360e-01,5.549770303781376146e-01,4.305734760778225922e-01,5.747610895269403969e-03,2.750661562606729164e-03,2.413020855487978469e-02,1.307228207588195801e-01
5.262372491999427471e-01,3.269147964940769535e-01,5.560214222545670770e-01,-5.787624898410442809e-02,7.952642940814045810e-03,1.217267282020062833e-04,2.383106201887130737e-01
5.020408176844738390e-01,5.150056226124206660e-01,4.895792932659795427e-01,7.793561043193190409e-03,2.651921650461534254e-03,-8.117583063867169846e-04,2.627224102616310120e-02
4.954954753219077968e-01,5.064666628380050106e-01,4.956151805985332670e-01,1.524274302538571827e-03,9.228462044758109105e-04,-3.096122608045725078e-03,1.254396606236696243e-02
4.964911723669523380e-01,5.011959249440821607e-01,5.066023084651414266e-01,4.819198089330673299e-03,3.538597030556444624e-03,-6.956732955215177115e-03,1.814460754394531250e-02
5.036129877533652710e-01,4.585584257394598184e-01,4.893985814376389243e-01,-4.195941833723572725e-03,-1.304479363555145766e-02,-5.890193966030425089e-03,4.752830788493156433e-02
4.909289274256068425e-01,4.843436145529670944e-01,4.725430971793698753e-01,-6.768828137160173147e-03,-6.508108916849702358e-03,-4.106890820393958690e-03,2.398845180869102478e-02
5.128349253410100506e-01,4.786382329159404869e-01,4.666728075973842760e-01,-8.338190953156583707e-03,-3.809871232538331737e-03,-5.230526359390747296e-03,4.534269496798515320e-02
5.148129642983508836e-01,4.725577113780620175e-01,4.665564337644319548e-01,-7.750405547083710073e-03,-2.807448691237585982e-03,-5.909756590412076384e-03,4.882350564002990723e-02
5.002166504697777016e-01,4.629245443266747362e-01,4.900361153502881262e-01,-6.255075052647399159e-03,-1.280165078362023416e-02,-7.394769632676316540e-03,4.344839975237846375e-02
5.391938984971499371e-01,4.322508357150015024e-01,4.787655580230817387e-01,-3.735048663416098459e-03,-6.252649078600115012e-03,-1.642752112528384975e-02,9.795274585485458374e-02
5.183714788789631767e-01,4.689693367222328435e-01,4.723088789765202966e-01,-4.041963484621982280e-03,-7.087723898589542819e-03,-5.817687490772429845e-03,5.087238922715187073e-02
5.072241050892580816e-01,4.474626382986356399e-01,4.884561518788202994e-01,-1.108108593390088464e-02,-1.301990121206425717e-02,-7.829671537457316352e-03,6.215227022767066956e-02
4.939564307547692490e-01,5.325858287791757073e-01,4.824208916239264844e-01,7.677909525454873312e-03,4.950454562097643570e-03,-3.309920355452409093e-04,4.818309471011161804e-02
4.862759590336686588e-01,5.345215118240599361e-01,4.785144828994001287e-01,3.696939151702379172e-03,1.044784933243561934e-02,-3.449533169804507601e-05,5.595363304018974304e-02
4.872886000229147418e-01,5.389950156380619584e-01,4.915606022954314702e-01,2.010380135161671331e-03,1.130284125826737200e-02,2.687121750219222463e-04,5.353986844420433044e-02
4.594030896996030844e-01,5.365108486203652438e-01,4.936779862637786787e-01,3.277582478268094204e-03,1.416616733276369715e-02,-2.497183348246284282e-03,7.162744551897048950e-02
4.856019685412248377e-01,5.351509818060293799e-01,4.785277029928224346e-01,1.972480903867239281e-03,9.388932214884907618e-03,1.672549733245947583e-04,5.596324801445007324e-02
1.978970317181277250e-01,6.752517830352752215e-01,6.354217490340234864e-01,-1.477746909051265156e-01,-9.254378471660193450e-02,4.192032216199680777e-02,5.540018081665039062e-01
5.102989735387983838e-01,4.038160550108202407e-01,5.491495992918603575e-01,-2.366046853984577619e-02,-6.532884677361273061e-03,-6.706176942719437560e-03,1.375765949487686157e-01
4.052676398408101566e-01,6.105268620476163033e-01,5.347339253081714316e-01,-4.112861667533832671e-02,-1.072244304337651305e-01,-2.118827830668195897e-02,2.706131339073181152e-01
4.521087246883994104e-01,5.420774705727887666e-01,4.786717428606405700e-01,-2.464574383508730173e-03,-5.226270186372531865e-03,-3.327264099411197506e-03,8.089192956686019897e-02
4.399840023694087110e-01,5.391523717185271458e-01,4.747418091765880366e-01,4.254771884193451277e-04,-1.932550388067998809e-02,1.958152682805987428e-03,9.342412650585174561e-02
5.015484486893234672e-01,4.812850672742199909e-01,5.196231315638302206e-01,2.483815264147279378e-02,-1.633048207894685633e-02,2.309163847489720256e-02,7.317157834768295288e-02
4.506680241676015441e-01,5.480680318850441601e-01,5.033240925385311648e-01,4.975938300724886895e-03,-1.864022288877596745e-02,1.142729206992779828e-02,9.294688701629638672e-02
3.163896836543838020e-01,6.126215136082620027e-01,6.465166682435257162e-01,-5.770057144800158633e-02,-1.757806617631782128e-02,2.081213111664689808e-02,3.334028720855712891e-01
3.591027407612004674e-01,5.340866376463903054e-01,5.557760902547325133e-01,-3.819822429656927198e-02,2.728093168808267896e-02,1.341475047823009227e-02,2.050244659185409546e-01
4.635795452095498037e-01,5.345350082707186479e-01,4.942082733091159863e-01,1.513216662983280641e-02,-3.332363913513970710e-02,2.588188063921951360e-02,9.913364052772521973e-02
4.850838580251799481e-01,4.698666858891816234e-01,3.587408433683718645e-01,1.286847579885968818e-01,-1.348665571923785278e-01,1.841413694755297537e-01,4.692994058132171631e-01
5.291843135942827514e-01,5.309064717234401876e-01,3.842333031533913257e-01,2.359456470747125709e-02,-3.532402236481956004e-02,3.445051288020424540e-02,1.738889664411544800e-01
5.094626301245048783e-01,5.393648243844683110e-01,4.203347637908598777e-01,1.243042910777525552e-02,-1.721997993573875022e-02,1.783215260170610853e-03,1.134270951151847839e-01
5.087385943607685146e-01,5.313515649304543231e-01,4.601407025139176432e-01,1.415270788536514279e-02,-6.752339215452260630e-03,6.010443265877135274e-03,6.941253691911697388e-02
4.616843849507583641e-01,5.173025809340910941e-01,5.324492452284296240e-01,-2.945825414594740663e-02,3.143490373342370386e-02,1.358384279716935185e-02,1.014229953289031982e-01
5.248806521766925526e-01,5.166524237827828658e-01,4.693272109783924173e-01,1.364898033400592861e-02,-2.099765679702037240e-03,4.238166806998459185e-03,5.764355510473251343e-02
5.465365369574194387e-01,3.799683093990963156e-01,5.387692346988659509e-01,-1.633653490380314044e-01,7.805858740735061030e-02,1.188190333147994410e-01,4.089126288890838623e-01
5.895324325252820907e-01,5.690489912487394220e-01,3.476708267756815629e-01,-5.667738317892890253e-03,9.188002174272677514e-02,1.653321578387302593e-01,4.017322659492492676e-01
5.396106908206913522e-01,3.502085615788015915e-01,5.411689284038215808e-01,-9.408708047846137124e-02,8.461029052424155761e-02,1.380277213364300426e-01,3.759780824184417725e-01
6.551503389717474590e-01,7.634503554903389055e-01,5.141092352982944425e-01,-4.660751680863777988e-03,2.859539809687746681e-01,1.860723551713905077e-01,6.293959021568298340e-01
3.825717104577008865e-01,4.812978886123090994e-01,5.632505372759828433e-01,-7.329223933233075527e-02,2.041930293112407049e-02,2.065756807528409608e-02,2.078467607498168945e-01
5.005781652607671495e-01,5.277010116651538185e-01,4.791247033790703158e-01,-3.986809204992470927e-03,4.314124565961586534e-03,2.373007720860863083e-03,4.356823489069938660e-02
2.439084510851672882e-01,6.639178016278466377e-01,6.210166077649970084e-01,-9.004343139068554658e-02,4.786817027486488935e-02,4.469610052034220238e-02,4.443199634552001953e-01
3.700818521069034750e-01,5.405847175901239421e-01,5.507537597099194659e-01,-2.192452043724124264e-02,-7.129425881539988574e-03,-2.234589366820881762e-03,1.803275048732757568e-01
3.676779611056327224e-01,5.085912561624474915e-01,5.041364935120233870e-01,-6.568021051178558889e-02,-7.017842837114338095e-02,-4.762304084380503816e-02,2.318819463253021240e-01
3.676457337373008061e-01,5.701143772311633162e-01,5.633091620774556274e-01,-2.813061098604152654e-02,2.302679589229282911e-02,-2.874981572504703778e-03,2.089294344186782837e-01
5.266314553790715225e-01,5.706924787487769324e-01,4.058588896776621491e-01,7.849455376678575458e-02,1.555473005504585116e-01,-4.850037544213793572e-02,3.463736176490783691e-01
3.394794436398743676e-01,5.743784448543850507e-01,6.118172667448710245e-01,-4.092973343389214730e-02,2.877132055746929248e-02,1.998886329443491650e-02,2.721788287162780762e-01
5.030615809087748413e-01,5.288317140776784830e-01,4.675369587793271053e-01,-6.129766906027081519e-03,8.059188057222110846e-03,5.095746748319573798e-03,5.680709704756736755e-02
3.384239496614531717e-01,5.784584735038150738e-01,5.915828112114727144e-01,-1.738372713889005383e-01,1.441471067962161179e-01,2.349478408943795824e-02,4.643150568008422852e-01
2.357990427946852208e-01,5.629647098497972957e-01,7.832911898440571008e-01,-1.236447512392174486e-01,1.766845424718716667e-02,6.402383532604827288e-02,5.355017781257629395e-01
2.657108755117905119e-01,6.474293323076746320e-01,7.881960515014257984e-01,-1.949975272847294661e-01,5.546078499107652202e-03,6.524979519496382219e-02,5.883829593658447266e-01
4.300690948433567584e-01,5.011299128486350618e-01,5.366608173053345476e-01,-9.596028094300908598e-03,7.991765404066384151e-03,1.111564938260716125e-02,9.836396574974060059e-02
5.073632303827760870e-01,4.137308650475334248e-01,5.891520275225338166e-01,-1.223764972847888183e-01,-1.818592535815627062e-02,-3.459246291372278931e-02,2.694895565509796143e-01
3.589680077410982162e-01,5.430922580334662797e-01,5.482840771026105120e-01,4.717518639280451204e-02,-3.489231205970830946e-02,2.530986844506634414e-02,2.171066999435424805e-01
4.034338939718223882e-01,4.991836797970047868e-01,5.525390562391819804e-01,-2.619565497480212321e-02,-1.557444092338964659e-03,3.661250626871124028e-03,1.386712342500686646e-01
3.452977228348864669e-01,5.557430712730369038e-01,5.722147889839216406e-01,-9.265723812792751521e-03,5.073814276073407466e-03,5.706013651295423206e-03,2.201304733753204346e-01
3.750759839631871428e-01,5.630250555979192661e-01,5.987516062587834309e-01,-1.023552002795557331e-01,-7.874614216378668374e-02,-2.738996041724100702e-02,3.091913163661956787e-01
2.230892998536405103e-01,6.960546868925429065e-01,7.024062099464525311e-01,-1.315879059912206106e-01,-1.163138379411516321e-01,6.897106956965620532e-03,5.651692152023315430e-01
5.124412332816804527e-01,5.458041618037318132e-01,4.187290765459863451e-01,1.880996329910624570e-02,-1.984812432239695112e-02,2.369903968183853429e-03,1.236191838979721069e-01
5.033028885852693923e-01,5.608466790645452171e-01,4.132998907641124431e-01,8.340803683610609892e-03,-4.526951658440540177e-02,7.495230673198451272e-03,1.520400345325469971e-01
6.763936198527464860e-01,7.881785608921916264e-01,2.034584697988734980e-01,6.795903689096734202e-02,-1.633075647799343555e-01,7.107971565389977278e-03,6.189066767692565918e-01
4.728829685609779454e-01,5.661373168928257593e-01,3.875219495136513759e-01,1.889759026793701863e-02,-8.960890358818809909e-02,2.519735447583954652e-02,2.258506268262863159e-01
5.536828453833240182e-01,5.651660780690741515e-01,3.847767485657759834e-01,1.387727016460183968e-02,-5.610993716346846308e-03,1.131111639815072893e-02,1.779233813285827637e-01
5.291646493361799042e-01,5.629081064505824239e-01,3.900168256853531190e-01,-2.471202521458525266e-03,-1.323046319962758142e-02,-8.696219369564639132e-03,1.611409187316894531e-01
4.307906221737872743e-01,6.238027681084569176e-01,2.744410310849326740e-01,1.893489576468958269e-02,-2.131285600393831858e-01,1.021346492811084535e-02,4.790993034839630127e-01
4.777496777282602136e-01,4.992480526232918048e-01,5.311282321204194856e-01,3.943205762159046786e-03,-9.065976482435612405e-04,7.956559055743724074e-03,4.901969805359840393e-02
5.080247492366611883e-01,4.970965180031064468e-01,5.201984381304322058e-01,1.828293655990794950e-02,-1.229144013412674687e-02,1.822154937098837899e-02,5.341134965419769287e-02
4.279597469694976786e-01,5.596831115194199624e-01,5.938722692976031725e-01,-5.961685190039631155e-02,5.226007418726122400e-02,4.480805921585926527e-02,2.188666164875030518e-01
4.976880421585113679e-01,4.895636906053458248e-01,5.559632748135748814e-01,8.174355819471805507e-02,2.022429224257086752e-02,1.203019695051570358e-04,1.587721407413482666e-01
5.158847053347758171e-01,4.501561362031268887e-01,5.305491600365914717e-01,1.072551822710997999e-02,-7.526531618856033626e-03,1.138443419427355267e-02,8.001898229122161865e-02
5.301084264584187133e-01,3.694475698115380902e-01,6.055529250374285244e-01,8.379070149847801796e-02,1.602963578108956757e-03,3.097925972836445066e-02,2.599504888057708740e-01
4.482282580511150472e-01,3.322005804256999983e-01,6.143821898027111983e-01,-2.324904355656793042e-01,-3.455358202181155192e-02,-1.397214218839676614e-01,5.335274338722229004e-01
3.436304609134806509e-01,5.191144515482688515e-01,5.876631685099759084e-01,-1.671352032732766613e-01,-1.663760629706922678e-01,-9.636162886600760369e-02,4.921635389328002930e-01
5.145461151422432433e-01,4.131548982258735903e-01,5.509401863907792407e-01,-2.395052719897196661e-02,1.180421006309233592e-02,3.572246937487375332e-03,1.321814358234405518e-01
4.702991141646904460e-01,4.511218282640809263e-01,5.412660694584767729e-01,-1.736028050263882516e-02,4.834594055256745578e-03,2.519160199635064011e-03,8.808136731386184692e-02
4.521031570334893557e-01,3.093289973869195464e-01,7.803559363422464257e-01,-1.848198195724259085e-01,3.365787541756620760e-02,5.632567699897048086e-02,5.388801097869873047e-01
5.784230408173500759e-01,1.464307365446491094e-01,6.085031148221241581e-01,-9.422426033548793323e-02,1.609868680028250093e-02,-2.812556293113744471e-02,4.798977077007293701e-01
5.406433573301387963e-01,3.743734198366063248e-01,5.607281664590759718e-01,-1.252776850517262237e-02,8.038811463549667274e-03,-1.114606261641271122e-03,1.790447533130645752e-01
4.086274400706401133e-01,5.405499812777345703e-01,5.679776591828500365e-01,5.964686852838362724e-02,3.799530418014618761e-03,-1.420365447834910123e-02,1.819229274988174438e-01
4.258658027321150508e-01,5.406004977493106267e-01,5.566994403865459518e-01,6.645569574829605398e-03,1.638107248269148400e-02,9.658569910205585477e-04,1.273210197687149048e-01
4.458547915066357059e-01,5.215258442459616006e-01,5.379563723842925027e-01,1.507059437239112454e-02,9.331381098691512999e-03,-1.064235121245402267e-02,9.231336414813995361e-02
3.673534649863471335e-01,5.319438205297917222e-01,5.362559925801105853e-01,3.836630976063759579e-02,4.198942852061163244e-02,-4.368816987378580131e-03,1.938577741384506226e-01
3.802224331236558896e-01,5.561943137852271013e-01,5.584030856490329597e-01,1.599981359376606224e-02,-9.035997478721668032e-04,9.098293155569855961e-03,1.799400746822357178e-01
5.093156621624251867e-01,5.044748932618012827e-01,4.963665720744204757e-01,-8.821424625826589788e-03,1.077053301251529663e-02,1.564821015704480345e-02,3.800649568438529968e-02
2.687724315440371825e-01,6.108352807040533516e-01,6.156075837216673508e-01,-4.298589971458369879e-02,2.234228242346366147e-02,2.648458388852180725e-02,3.575015962123870850e-01
4.898241042214519503e-01,4.930989511765333511e-01,5.272772406587956651e-01,1.923520783777017858e-03,1.966127976036370021e-03,-2.546789017516797298e-03,3.650977835059165955e-02
4.881871597472721702e-01,4.797500544920513255e-01,5.312312477554386181e-01,7.884965357314012435e-03,5.742059249965019915e-03,-9.893426829670486262e-04,5.074952170252799988e-02
4.892565820888550854e-01,4.933983012797725776e-01,5.217443433479825865e-01,4.380708506615950230e-03,2.444796460776316790e-03,-4.566058997814446095e-03,3.280400857329368591e-02
4.820372311064280435e-01,4.985158253670494144e-01,5.379134808530857681e-01,4.562273197329608752e-03,3.298975314193155432e-03,-1.433779587181447388e-03,5.073654651641845703e-02
4.893316478372065625e-01,4.894185320662417515e-01,5.263601230043467583e-01,1.556402138392974947e-03,2.020921141338263751e-03,-7.164329819106910217e-04,3.726872429251670837e-02
4.908765328775137604e-01,4.861311095042714636e-01,5.320819676082980676e-01,1.586753494034957249e-03,3.061903628453817132e-03,1.925105362399542810e-04,4.417843744158744812e-02
4.736232654017701327e-01,5.146466164049174896e-01,5.246724524819906810e-01,6.453277784820352254e-03,6.538575299575763965e-03,-9.331457903803946213e-03,5.204947292804718018e-02
4.889193759835476771e-01,4.972281604920940068e-01,5.619098894692263757e-01,3.203175027458012025e-02,1.110732398865935978e-02,3.558867333952785844e-03,9.097473323345184326e-02
5.253244501494662710e-01,5.137676820341137152e-01,4.484340852754211681e-01,1.813737560519487410e-02,1.179489332152095470e-02,-9.767344244071010650e-03,8.274985104799270630e-02
5.094387550816762422e-01,5.071579341962101362e-01,4.882224415581514765e-01,1.066345550366546401e-02,1.322547700961202756e-02,-5.641830711173836423e-03,3.699056431651115417e-02
5.266123663273416522e-01,5.182596768133437282e-01,4.455757067963184714e-01,1.561603679165995094e-02,1.735496999861662129e-02,-2.842025223330144415e-02,1.000906229019165039e-01
4.858320523991697670e-01,5.606707378368066541e-01,5.091053171853900938e-01,9.546058727074405517e-03,3.030390418829157287e-02,-8.874197637623035869e-04,8.620589971542358398e-02
5.373181352745812767e-01,5.079184570884019978e-01,4.284697589429045661e-01,1.333168987017454600e-02,3.108322228491702723e-03,-2.140071496696573095e-02,1.069970130920410156e-01
5.252494213143333868e-01,5.082165169493801926e-01,4.557391078983610289e-01,1.499761150206650913e-02,9.888040960351283590e-03,-6.826435737448199349e-03,7.103341817855834961e-02
4.988169205258373706e-01,5.071286711348437226e-01,4.983934050565228535e-01,5.034116547586349466e-03,4.271443789871257578e-03,-3.808452545977701349e-03,1.571815274655818939e-02
4.842733233884606858e-01,5.122761512628242198e-01,4.907480780016006405e-01,1.927713995909224876e-02,2.553595334684075763e-02,-1.790989158521522073e-02,6.839694082736968994e-02
4.662832606637518640e-01,5.707852803269735098e-01,4.813953077260879065e-01,-2.035402195558892735e-02,7.902760388241758527e-02,2.159029247689879180e-02,1.759180873632431030e-01
4.355607757726706608e-01,5.440308389865583516e-01,5.292123361948150029e-01,3.017444848693471779e-02,3.852766424969814724e-02,-1.465601556550109679e-04,1.325242519378662109e-01
4.752733288623537389e-01,4.854586183778379360e-01,5.256658744815458917e-01,-8.251483352835120924e-03,4.497265277880350964e-03,5.498087691700942643e-03,4.985488951206207275e-02
5.197832055822552144e-01,5.382712602542362168e-01,5.491224815463432440e-01,6.680010828722378335e-02,8.312407069021690575e-02,-4.395292094560476065e-02,2.014233022928237915e-01
1.535882957425721007e-01,5.940231541915644842e-01,5.745038082947775404e-01,7.193025059672013277e-02,-9.573213304821900915e-02,3.887365054092883215e-02,4.830281138420104980e-01
5.485480429982508843e-01,3.519035959968053739e-01,5.632077336261720468e-01,4.060322622032259271e-02,1.585265724156311937e-02,7.277578805099304757e-03,2.182323634624481201e-01
4.016157039819266972e-01,5.480600518709283220e-01,5.531215479416131675e-01,5.793888326265292203e-03,-3.472278045537647087e-03,9.594166358194667829e-03,1.504188030958175659e-01
4.892734866140173167e-01,4.885510479290778862e-01,5.321665042813464863e-01,8.792885433545078594e-03,5.716914272769138029e-03,-2.087372626174205468e-03,4.705725982785224915e-02
4.891327004572511572e-01,4.890086763920677426e-01,5.379844432134566201e-01,1.079120551835405575e-02,6.931578854510096234e-03,8.711629579782449945e-04,5.374322831630706787e-02
5.287336359721808154e-01,4.358986226791424223e-01,5.318445771276543166e-01,1.374002898594629991e-02,1.465171218365583609e-02,-6.975154510164442712e-03,1.013566181063652039e-01
4.736647559369503435e-01,4.969778927197853746e-01,5.234339539067496272e-01,1.080052416064375929e-02,3.961114069435893621e-03,-8.097190551326164179e-03,4.953703656792640686e-02
5.117605514944068013e-01,5.089476023982121289e-01,4.854237727265474089e-01,1.631514489297363618e-02,1.449529831460688242e-02,-1.028180093668703068e-02,4.871851578354835510e-02
5.310629656981104008e-01,4.875264487742501096e-01,4.801542824532808451e-01,5.552945773088619266e-03,-2.606791946628070865e-03,7.896088787495718700e-03,5.070179328322410583e-02
5.520648313742688718e-01,4.763251560819813379e-01,5.172123940271259324e-01,4.684926065411942897e-02,-1.394853817872612756e-02,4.450279999808352815e-02,1.319894790649414062e-01
5.320171809044497158e-01,5.001668457575434434e-01,4.732993849839425837e-01,8.446178413470551566e-03,2.536206281525124010e-03,3.937461630478120839e-03,5.358977243304252625e-02
5.300420554486838798e-01,5.177624656257022728e-01,4.426743274172091902e-01,1.615999657821395527e-02,-1.401366022891592511e-02,7.660594454807573284e-03,9.088292717933654785e-02
5.150183016546769910e-01,5.175809159638294910e-01,4.421079661094816093e-01,1.656308578517918031e-02,-1.482833206982224830e-02,1.211412386062442684e-02,8.621036261320114136e-02
5.523030682014179460e-01,4.938543268716021895e-01,4.387144383142829729e-01,2.434643009521031062e-02,-1.893649043290875078e-02,4.652022289070195660e-02,1.379345208406448364e-01
5.312802355127321796e-01,5.187838207227277731e-01,4.423012360546582644e-01,1.525266756378902515e-02,-7.525510309941056339e-03,9.998871860791777588e-03,9.016245603561401367e-02
5.487982796202547364e-01,7.193120939699291227e-01,3.120334309037555709e-01,1.787236657831862974e-01,-1.594058699914012167e-01,5.250054791271823590e-02,5.530192255973815918e-01
5.756838184036388029e-01,4.322783882294049529e-01,4.821190682626325663e-01,1.051924853468565318e-01,-4.033463990853118630e-02,1.464304588945305186e-01,3.439541459083557129e-01
6.477228443852158790e-01,5.592117506988434350e-01,3.591104084139328800e-01,1.524357768682881899e-02,-1.044700505365286913e-01,1.536533588986553345e-01,4.121323525905609131e-01
6.695109579172310310e-01,6.394444982968594537e-01,4.592826579618041194e-01,1.305269808506839546e-01,6.639143073146060517e-03,1.887681096233636557e-01,4.437605440616607666e-01
5.734952144956563247e-01,3.853086023990390796e-01,3.901850948206206371e-01,-2.224927246807003461e-03,2.163653104405536057e-02,1.769332063422802692e-01,3.603548705577850342e-01
4.761866424831094902e-01,5.369117865587891281e-01,4.386422632577890446e-01,2.158399165863414404e-02,-4.454086802632292036e-02,2.337227237806746225e-02,1.279260516166687012e-01
4.866019021198940142e-01,5.158241545138436690e-01,4.624729190061300232e-01,-1.885446361377767638e-02,4.233127028355355981e-02,2.329219604181949344e-02,1.010500490665435791e-01
7.195676659530804153e-01,3.257101996256802634e-01,6.149783256953742505e-01,4.928802844910349073e-04,1.840665731095179614e-01,1.798818076871379346e-01,5.688444375991821289e-01
5.519302344220532452e-01,5.066821920708026727e-01,4.722907869470175934e-01,9.457616778694695817e-03,-4.451633647110191908e-04,2.990696501024120435e-02,8.796881139278411865e-02
5.148299564869602829e-01,5.235912532072117820e-01,4.520949655036009540e-01,1.739841461346104332e-02,-1.887170505880219479e-02,2.441506049627210906e-02,9.125186502933502197e-02
3.378690286630632311e-01,6.057021872391640249e-01,6.090687522433545498e-01,-3.493643306363459350e-02,-7.385814930362256080e-03,6.888969150351209776e-03,2.767947018146514893e-01
3.675729965701275970e-01,5.697091885138777512e-01,5.753853489899166673e-01,-2.896308945272199706e-03,-4.101243534941919830e-03,7.382347155645652657e-03,2.056155204772949219e-01
2.432835802983094320e-01,7.678138351808716511e-01,6.605149765781954674e-01,1.403444785977979448e-02,-1.472417548588833003e-01,7.068082201854571089e-02,5.576577782630920410e-01
4.598309397804106746e-01,4.705235076815166839e-01,5.383341490106071658e-01,-9.922884315276421160e-03,-4.493071840013635973e-04,1.014376335841033795e-03,7.574144750833511353e-02
4.717679587820455267e-01,5.481000084860280230e-01,5.478809946216177673e-01,8.120486724993473959e-02,-2.233495232378628070e-02,3.124955748714742035e-02,1.732592284679412842e-01
4.127967275781796452e-01,5.477499949803554813e-01,5.056593057923957080e-01,1.104010774319408306e-02,-2.572819411375184412e-02,1.063320923299102341e-02,1.303625851869583130e-01
5.284868612350882566e-01,4.161686843461168683e-01,5.139737529248453729e-01,-7.399634794880277470e-03,-1.625613503475316704e-02,-1.479077272489963055e-02,1.131780371069908142e-01
5.194256028592940666e-01,4.283807567366533786e-01,5.098675449086633726e-01,-1.197474808455039827e-02,-2.238153060996763213e-02,-1.878269329225407819e-02,1.024776026606559753e-01
5.192883909698809974e-01,4.450544231260038508e-01,5.007596737132281595e-01,-1.025978371773601620e-02,-1.673904002323151410e-02,-7.460517857540713629e-03,7.617013156414031982e-02
5.183486739583719194e-01,4.525210546728299366e-01,5.092949755489929453e-01,-2.399549319235556866e-02,-2.502581076420304015e-02,-2.901321372875102084e-02,9.975362569093704224e-02
5.088705278679925836e-01,4.102873307400945468e-01,4.994846283833845324e-01,-4.323921505718426872e-02,-2.971118558580071109e-02,-4.563662533896297585e-02,1.529271304607391357e-01
5.539812593825129694e-01,3.569854613000296162e-01,5.280983893318558220e-01,-3.724712732287959599e-02,-3.946035771045403734e-02,-9.469605338558766128e-02,2.647902667522430420e-01
4.985968670481384368e-01,4.111211110408618530e-01,5.390385296544393245e-01,-4.699836549488527193e-02,-1.257049974508771782e-02,-2.948448452399054717e-02,1.501126140356063843e-01
4.654497082182023071e-01,4.888720946637627462e-01,4.690700075753045373e-01,-6.043868540970412373e-02,-5.254792155639892437e-02,-5.806720591272778592e-02,1.727271676063537598e-01
4.650643478069955705e-01,5.380675374157580793e-01,4.590514838730882508e-01,-2.706104424551222711e-03,-7.649785865875816451e-03,-4.486101897830926727e-04,7.747714966535568237e-02
5.057966570564457198e-01,5.924149029270363576e-01,3.784274392447046220e-01,3.071533935709770680e-02,-6.773653388643374740e-02,1.784941011195348773e-02,2.287115007638931274e-01
2.881347408214787187e-01,6.683753613844685137e-01,4.488976755497773308e-01,-1.171671353678503669e-01,-2.068824264495437160e-01,-4.352860057030969593e-02,5.334498286247253418e-01
4.052627457763768870e-01,5.295461615209362538e-01,5.058353413777515462e-01,-1.373309294167470059e-02,-1.545459185137975332e-02,-1.609205445897204934e-02,1.229670643806457520e-01
4.046450573450986465e-01,5.452361255212372360e-01,5.059178027103324871e-01,-7.690648709346715496e-03,-2.118412403486288551e-02,-7.275225180459901110e-03,1.321608871221542358e-01
4.239288911007706995e-01,5.643032453331856546e-01,4.658658823543822547e-01,-9.543745148130847178e-02,-1.464825333183515099e-01,-9.651802255546441944e-02,3.677231371402740479e-01
4.557613301756225366e-01,5.924426381206870929e-01,3.111874326150443348e-01,-5.208091491965927133e-02,-1.798744180838164064e-01,-9.110829293628983083e-02,4.352560043334960938e-01
4.712275953443544330e-01,5.297220802930183714e-01,4.451632929107548486e-01,-2.276548502192007190e-02,-3.385391252774992005e-02,-2.165412100760481448e-02,1.096600964665412903e-01
3.473165566084580602e-01,6.817721375782109794e-01,4.482066724184903261e-01,1.841027858028145350e-02,-1.985201173850899281e-01,-3.478200961416816339e-02,4.595355987548828125e-01
3.969164989714452085e-01,6.904237502581044295e-01,5.195329442719570645e-01,1.137292269715286935e-01,-1.952412033799241220e-01,6.047464474887208341e-02,4.788782894611358643e-01
4.396163089714412719e-01,5.286213309603716715e-01,4.719306241152406711e-01,-2.258408613396482509e-02,-3.868126193390525325e-02,-2.246167657894307390e-02,1.167150214314460754e-01
4.803283902045039078e-01,4.719471179798943039e-01,4.989542097369599194e-01,-8.385312040647725784e-02,-5.527692881528060292e-02,-5.357521837214401783e-02,1.986072510480880737e-01
4.585650606757101788e-01,5.289876552251727704e-01,4.558526522924927771e-01,-1.000716978711287120e-02,-2.155596585290239092e-02,-8.248068457018259067e-03,8.400128036737442017e-02
4.316807526203744194e-01,5.311188847253927037e-01,4.980301723858048257e-01,-7.813705206386974134e-03,-8.144797998620893070e-03,-1.195680275508786278e-02,9.221494197845458984e-02
4.817129470196390151e-01,5.216137486610655793e-01,4.449747491386529807e-01,-1.298382594027658321e-02,-9.691742590007417640e-03,-5.539723726190841704e-03,7.271345704793930054e-02
4.749317253618753898e-01,5.164623037458664356e-01,4.676879950153474685e-01,-7.877454560531698194e-03,-4.153631522772527167e-03,-2.867457534302184866e-03,4.838062450289726257e-02
3.940445813672966979e-01,5.389990238317556859e-01,5.283128129362685277e-01,-5.235332285635431633e-03,-8.957300841855621309e-03,-1.346967860341754218e-02,1.429831981658935547e-01
4.185820581098778081e-01,5.454343911745324069e-01,5.609553529296613661e-01,6.234884893336701053e-03,-2.053311110331506022e-03,7.375437274328580130e-03,1.363588869571685791e-01
3.898841773869183847e-01,5.607737794006081300e-01,5.546567689657794231e-01,2.254690365886801925e-03,-6.718114332144381300e-03,5.945079025808654508e-03,1.686772704124450684e-01
3.994250977962938709e-01,5.291502367521352390e-01,5.309060117635924225e-01,-3.692658969168082644e-02,2.653375547618776545e-02,1.245770015331652998e-02,1.540385782718658447e-01
4.546289305804978031e-01,4.897412014520416412e-01,5.343785406070543642e-01,-9.509539558829700409e-03,1.820356736793877399e-03,9.657006033140271006e-03,7.316891849040985107e-02
4.638563281232684909e-01,5.168607500523652032e-01,5.188609466856732855e-01,-5.588481496762972948e-03,5.962524490772158452e-03,1.422322049171947586e-02,6.104701012372970581e-02
4.232138970563883440e-01,5.078559027098069611e-01,5.409190729277705278e-01,-1.387970278775274742e-02,9.244221002252465957e-03,1.673028270389312691e-02,1.128272488713264465e-01
3.046097672332863660e-01,5.532026007744458296e-01,5.845507787115569176e-01,-1.119096212348106578e-01,-1.787335678878267387e-01,-8.989060851250238460e-02,4.777272939682006836e-01
4.562992989788614007e-01,5.391485248547179809e-01,5.018879508851137317e-01,-1.437849319503554197e-03,1.117538729702282144e-02,5.100050326546917180e-03,7.499490678310394287e-02
4.905222639511735427e-01,5.368758669078300683e-01,4.948890811183024874e-01,-2.253882174978268549e-04,1.122892095656291903e-02,-9.769867109197188189e-05,4.841234162449836731e-02
4.893445744885760451e-01,5.359348698418869850e-01,4.863423630490812388e-01,5.322692670682425574e-04,1.996981054614779382e-03,2.337611052498482251e-04,4.829617589712142944e-02
4.661561366308530907e-01,5.360015359415606362e-01,5.023870480582111053e-01,2.312369847368456535e-03,3.976240383772350513e-03,7.193717745280480205e-03,6.228336691856384277e-02
4.613645132219901246e-01,5.458760804169540126e-01,5.021434763735577178e-01,1.126231777574767182e-02,6.301336148550902572e-02,-2.792289996628987900e-02,1.413876563310623169e-01
4.825968556502513995e-01,5.312926695851097891e-01,4.867820277742244683e-01,2.343201743215844388e-03,5.506892997314192378e-03,-2.993934950816777487e-03,4.815950617194175720e-02
4.381171378966567387e-01,5.072252493008959640e-01,5.269520571415868826e-01,-1.515199310630088898e-02,1.197110201875155495e-02,1.827260596031891199e-02,9.299836307764053345e-02
4.296324757975489850e-01,5.622504927370909344e-01,3.566485213774901464e-01,-3.492851712891293509e-02,2.000249468024459243e-01,9.370425198724229021e-02,4.273459911346435547e-01
4.797854080908362517e-01,5.575662363658027143e-01,5.118296468752047135e-01,5.066951056445390990e-03,3.978194197881199101e-02,8.618932209990336907e-03,9.814250469207763672e-02
4.685663209014325203e-01,5.227514557745870372e-01,4.990573898194137215e-01,-8.057657481534582361e-03,1.000745453473480748e-02,1.197321989016934818e-02,5.602562427520751953e-02
5.671391853636138514e-01,5.935566694162852652e-01,4.475456873313537476e-01,4.125260906887696227e-02,7.318188336581116227e-02,-2.278103752687507533e-02,2.022099643945693970e-01
5.902726128497881586e-01,5.931795556718790774e-01,4.270801323540794892e-01,2.796966239369907264e-02,2.099078887177090735e-01,-7.499067409273408452e-03,4.022613763809204102e-01
4.166890608160744858e-01,5.874991921955976526e-01,4.618593959785020076e-01,-7.884418127197749537e-02,-1.573317918990487785e-01,-5.302646617386480576e-02,3.533347249031066895e-01
4.999933747173389009e-01,4.808270176073515256e-01,3.624285250879418219e-01,-1.213237765798034634e-01,-1.622713099942256765e-01,-1.630977441667783856e-01,4.686275124549865723e-01
4.232980137457204584e-01,4.248487004271531142e-01,4.079063061806577073e-01,-1.851071156828129061e-01,-1.818574758929373536e-01,-1.831482150655731056e-01,5.503665804862976074e-01
4.016618341700914363e-01,4.230085965041858742e-01,4.943933307340658834e-01,-1.969000634485913170e-01,-1.464540200130131087e-01,-1.682784664940935315e-01,5.221910476684570312e-01
3.483815352129036591e-01,6.351601211907106359e-01,5.499645646555052503e-01,-2.838244945728255440e-03,-5.620758601068704535e-02,2.066198311519409914e-02,2.754102051258087158e-01
4.443155137543354782e-01,4.859524075018764599e-01,5.561652464670923113e-01,-2.907957898709530309e-02,-2.363567645906704869e-03,-1.714257118058851170e-03,1.102241352200508118e-01
4.907452410530905307e-01,5.166837745348740185e-01,4.831759875470222343e-01,-5.953352792469396304e-02,-7.425823030452695372e-02,-5.941507625507992663e-02,1.967040151357650757e-01
4.081694295160498420e-01,5.076128373825556928e-01,5.561125370867148199e-01,-4.641831687647408194e-02,-1.530432052190373697e-02,-7.460335475701415989e-03,1.561979651451110840e-01
4.617720389956089244e-01,4.499954760106019691e-01,5.074890383188515042e-01,-1.512445667394919924e-01,-9.899861108927754394e-02,-1.042675650665794429e-01,3.652522861957550049e-01
5.233108224464275704e-01,4.691560716368882167e-01,4.657972971396806550e-01,-3.988014753923923954e-03,-2.384245239126617059e-03,-2.014533088071834323e-03,5.659376084804534912e-02
5.124922328649210712e-01,4.727943087592956783e-01,4.744849660935264168e-01,-9.781682592847544370e-04,-4.383022860917039354e-03,-1.282438267589398450e-03,3.971277922391891479e-02
5.227149993309165854e-01,4.715567082661138998e-01,4.753586012491433088e-01,-2.387071794025719899e-03,-1.836617855696624476e-03,-2.922384539917017438e-03,4.989951476454734802e-02
5.178245730323628448e-01,4.542630814019372743e-01,4.838814502939247641e-01,-9.150565949619065068e-03,-1.326286692595574947e-02,-1.149485149819191865e-02,6.488472223281860352e-02
5.264348134749762265e-01,4.390765835014245888e-01,4.823528124103979020e-01,-6.663564165575759993e-03,-1.129777939982101395e-02,-1.513047386929070037e-02,8.322668075561523438e-02
5.502883389944123183e-01,4.928118836546139803e-01,4.031030009554673610e-01,-1.136693113000876443e-02,-5.209729147401588080e-03,-2.735488013006090804e-02,1.386408656835556030e-01
5.169675122173684745e-01,4.631416301418938564e-01,4.862589047291121513e-01,-1.453011889480889697e-02,-1.420413545903323471e-02,-2.163694643685528524e-02,6.950139254331588745e-02
5.363357207947224703e-01,4.566212724332148754e-01,4.403390672484764901e-01,-2.083556004541646176e-02,-1.483903219452004270e-02,-4.700420931548519865e-02,1.284856796264648438e-01
4.897503669796948733e-01,4.711135121120438862e-01,5.473635278049244768e-01,-2.628078736310419938e-02,9.830527400816807190e-03,9.880359513301840285e-03,8.599510788917541504e-02
5.324117547491438174e-01,4.344534551117490984e-01,5.496601366851333603e-01,-1.040772400181060389e-02,9.284494355517907554e-03,1.426840949330976903e-02,1.130366623401641846e-01
5.398068074353071788e-01,2.834030996699318239e-01,5.968393105613970517e-01,-1.821317033911894201e-01,-9.647275111243537593e-02,-9.907664170574104201e-02,4.904123842716217041e-01
5.392757776224538224e-01,3.769070686687127636e-01,5.832092269081565750e-01,-1.033982613973025433e-01,-3.586883124776508308e-02,-6.977992540435959401e-02,2.932033240795135498e-01
5.143041471148662724e-01,2.355359072335931059e-01,6.214146631724873915e-01,-1.423760007700904107e-01,-8.068598000799766246e-03,-2.548831769570340799e-02,4.266151189804077148e-01
4.815330313560515219e-01,2.901618615504963916e-01,7.193274568627212595e-01,-1.876898615596636066e-01,3.449779760804795592e-02,-7.719987577082032537e-02,5.155659914016723633e-01
5.298795865496711555e-01,2.474205875815566613e-01,5.883934184445773763e-01,-1.331904795783560302e-01,-4.288969744156426178e-02,-1.311719799591659075e-01,4.583564996719360352e-01
4.648650984959385446e-01,5.339173232195614238e-01,4.869150132783017781e-01,-1.384336206245479449e-02,-2.042471290288228741e-02,-1.324067178568791997e-02,7.800116389989852905e-02
4.562995815203229610e-01,5.305704293622859335e-01,4.796487698695561797e-01,-3.813697678437433843e-03,-3.824258543717702023e-03,-7.414763141490070091e-03,6.767291575670242310e-02
4.467978229167314241e-01,5.238763284426746214e-01,4.828439016310215881e-01,-5.606486749428242489e-03,-1.119363007369957204e-02,-1.186320606117839335e-02,7.317400723695755005e-02
5.174864208640226337e-01,3.852777658489731638e-01,4.726567800467896818e-01,-7.367869775055511938e-02,-5.911375476711119847e-02,-9.094118430042540113e-02,2.552289366722106934e-01
4.821968733269533791e-01,5.080748457837590548e-01,4.776585474840608914e-01,-1.582245646733244351e-03,-2.348484063359339118e-03,-2.265299769738286697e-03,2.910601161420345306e-02
4.814303647704346045e-01,5.292510787588691201e-01,4.377593583028374091e-01,-1.216275465714644621e-02,-1.141833580510057296e-02,-7.241919803827188279e-03,8.529141545295715332e-02
4.638579395989588239e-01,5.093841158433543015e-01,4.634932284491883880e-01,-9.885696239939905858e-03,-1.914732964102585158e-02,-1.167322727467164610e-02,6.237951666116714478e-02
4.879139212692943928e-01,4.897844811390914543e-01,5.206784903871448655e-01,5.320250052501451429e-03,3.208776179377070045e-03,-3.797537249559168170e-03,3.427529335021972656e-02
4.613647357387254955e-01,5.459502437859679036e-01,5.435796879148562244e-01,8.609326254271906786e-02,5.636548492588415449e-02,-6.311527158692201676e-03,1.970955878496170044e-01
4.902682703093727556e-01,4.873227222266768299e-01,5.257654871478575354e-01,1.426491231428935152e-04,1.343016007044830259e-03,-1.359479204522761600e-03,3.720623627305030823e-02
5.215200959555540416e-01,4.382631144856105609e-01,5.157068654916024952e-01,1.608387214923110223e-02,1.957330293181273190e-02,-1.433793410912964639e-02,9.499300271272659302e-02
4.653488097994037953e-01,5.062007789617425368e-01,5.293801515813828518e-01,1.146329686445408773e-02,4.871173717841128029e-03,-5.279637269262778092e-03,6.084504723548889160e-02
5.355902339426360514e-01,4.595864607707825789e-01,4.644479957080344112e-01,3.762259105866984019e-03,4.430281273083156238e-03,-2.128733405949557317e-02,8.301512151956558228e-02
5.508691007764578984e-01,4.152630665646801500e-01,5.129809136659543300e-01,2.011227662394772259e-03,5.698887116786555823e-03,-1.444351877732199738e-02,1.241855770349502563e-01
5.779346725591024692e-01,4.132589983107660681e-01,4.481884579088870613e-01,1.148438325002777288e-01,8.638318642962899974e-02,-1.468495267069809540e-01,3.863081037998199463e-01
5.082019471594392268e-01,4.921453609952755048e-01,5.220275873101174469e-01,1.160449768882696603e-02,1.454434139161387557e-02,-1.170068606717455766e-02,4.604649543762207031e-02
4.589336432157987700e-01,4.856222882932816343e-01,5.382466531101582907e-01,-3.760103863492132714e-03,3.562659076062129389e-03,7.070240461664712740e-03,7.152998447418212891e-02
4.715891277582518470e-01,4.939580310679971276e-01,5.440620232601266482e-01,-2.104300463364878679e-02,7.821266093197505598e-03,1.141569942763992658e-02,7.768169045448303223e-02
4.615153144646433336e-01,4.713138168798080008e-01,5.411504713129360322e-01,-9.166541765516724935e-03,-2.173663285461013058e-03,6.709341447141996999e-05,7.696575671434402466e-02
4.707792517214568484e-01,4.665329418198332356e-01,5.451716194975094743e-01,-2.002234176176499042e-02,1.165188321894695088e-02,9.498080369440525805e-03,8.802710473537445068e-02
4.791796394869763387e-01,4.819686909109715534e-01,5.296114356289607361e-01,-9.846160693967539318e-03,5.124586598243721473e-03,5.424148927345016045e-03,5.355723202228546143e-02
4.808355617448120678e-01,4.650109561058672347e-01,5.363744890002979382e-01,-2.075520399961382125e-03,-5.153991656428885335e-03,-3.375897867584003436e-03,6.588380783796310425e-02
4.680337879725823824e-01,5.162081994143045138e-01,5.256071448506745014e-01,7.186359855422593673e-03,6.812742650743688205e-03,-8.364020396902779528e-03,5.801676586270332336e-02
5.753267173455033356e-01,4.474463107668233963e-01,4.864615909211831291e-01,1.146597338602460027e-02,1.312951073983800558e-02,-6.754406391051676062e-02,1.657843738794326782e-01
4.608766223912463822e-01,5.409586031912210213e-01,5.180076874259654796e-01,8.327580355895383701e-03,8.983016059423688110e-03,-1.635303657818355837e-03,7.456585019826889038e-02
4.677509223620469614e-01,5.330324063729677819e-01,4.962413091253202735e-01,4.796510802135840745e-03,9.704210428500488136e-03,-5.144081224611012082e-03,6.036885827779769897e-02
4.085620367972866429e-01,5.481479329978263815e-01,5.421258056464507424e-01,3.413521098356007283e-02,5.873485143067119080e-02,-1.661073381278585503e-02,1.826269924640655518e-01
5.216033002769726590e-01,5.397263986424454263e-01,5.186934715846800437e-01,5.671990930361957978e-02,6.171459933396546832e-02,-1.246212864285881940e-02,1.480982154607772827e-01
3.187333218631518972e-01,6.146690324811219241e-01,4.880969812814270337e-01,4.424734361555048012e-02,1.818812235263793931e-01,2.132278681942536419e-02,4.154768884181976318e-01
5.166064284889382296e-01,5.694166194063521313e-01,4.532686872253014476e-01,4.966581382780858173e-02,9.193570591213726106e-02,-3.386188267575920147e-02,2.152718007564544678e-01
4.328012041775071705e-01,5.083161394108155484e-01,5.384574386176022021e-01,-1.443312072921696353e-02,4.501014240201726795e-03,1.567312255198248863e-02,1.015371084213256836e-01
4.051132394657050440e-01,4.172861858446641481e-01,7.550332583638577066e-01,-1.859352778225634717e-01,2.134140673325954016e-02,1.556129208950370046e-01,5.441148281097412109e-01
4.878626613958718661e-01,5.263179515549403220e-01,4.929246219549066055e-01,-5.927261232979739525e-04,2.711719348799275509e-03,1.496244825821231150e-03,3.660060092806816101e-02
4.557197131678805135e-01,4.761416883371683562e-01,5.789483367408574388e-01,-6.330689492484123382e-02,1.536664358859875061e-02,1.210504845479616447e-02,1.620403230190277100e-01
4.311529194624804107e-01,3.143625364577686265e-01,7.262578756828190762e-01,-1.981223898358992208e-01,-6.042418107216260270e-02,-2.251739806671511010e-02,5.151932835578918457e-01
4.456877967269644580e-01,4.668481822870510500e-01,5.256934703479384519e-01,-6.341681333126786280e-02,4.534370655091668478e-02,3.947022938506590528e-02,1.675190925598144531e-01
5.713795148410791835e-01,5.956533561548839062e-01,4.475496550610974511e-01,3.540144240669369780e-02,7.445950335999168557e-02,-2.179922493768890121e-02,2.018587142229080200e-01
6.089622599207618059e-01,5.362356492236292071e-01,3.967166285615798538e-01,1.381925226656709194e-02,1.985350163552386527e-02,-6.110917667004683168e-02,2.187689542770385742e-01
5.630201335244016114e-01,5.331538623337226390e-01,4.079028669327300349e-01,6.880724991547093085e-03,7.977530011782208927e-03,-1.216288810207034714e-02,1.452492624521255493e-01
6.067864481111440167e-01,5.694323128324413341e-01,2.667307207064313346e-01,2.528926906181497292e-02,5.926138026983775869e-02,-7.253244606847787657e-02,3.640988767147064209e-01
5.260291503802496660e-01,5.236915936608732558e-01,3.956603148985036733e-01,-1.616378197746787260e-02,-1.353947401604618794e-02,-1.949245478189252229e-02,1.384571194648742676e-01
6.317990509666314702e-01,6.289883703542481497e-01,3.337089402795589965e-01,3.441886038792666552e-02,2.152801612923787439e-02,-1.435191617056810059e-02,3.059249222278594971e-01
5.398884008177815552e-01,5.161187524152771600e-01,3.318866342667315950e-01,-1.351531525805997058e-01,-1.273436075807700407e-01,-1.867676499154159453e-01,4.969711899757385254e-01
5.084114689806770171e-01,5.637655289207939013e-01,3.706171285791575731e-01,-1.196324935126057316e-02,-1.276301239178796731e-01,-8.199504613704143574e-02,3.148747384548187256e-01
5.114788350260441874e-01,5.364968106509814261e-01,4.211489531291089383e-01,-1.464926846595796840e-02,-3.769059324514295595e-02,-3.628718090060997770e-02,1.410712003707885742e-01
6.903092656135350058e-01,4.336559169716044382e-01,3.313596639816234202e-01,-7.812934780652984468e-02,-5.223720627450267884e-02,-2.063932795211176896e-01,5.068367123603820801e-01
5.463510761794163617e-01,4.921632229200299524e-01,3.996860031032815064e-01,-8.735550707579000512e-03,-8.317044996198862117e-03,-2.565712868197812455e-02,1.375166028738021851e-01
5.608544137431841214e-01,5.076181011354526929e-01,4.207872122343545018e-01,-4.226501025393764044e-03,-8.117341627858473685e-03,-4.846055661078675636e-02,1.493077576160430908e-01
5.631977903322955559e-01,5.324758378688720928e-01,3.831877694729691197e-01,-2.249148516254561095e-03,4.407133896935129178e-03,-8.832614978580588874e-03,1.677041351795196533e-01
4.779685684202482632e-01,4.745522597444947199e-01,5.176003317771460388e-01,-8.871041228415648891e-03,-6.842798799414945461e-03,-7.545831785536832002e-03,4.759326204657554626e-02
4.743230773814795520e-01,4.737377584924334362e-01,5.080361915931785877e-01,-3.885421666289944780e-04,-2.150295191160185321e-03,-1.928158513017854889e-03,3.438207507133483887e-02
4.803211541547169339e-01,4.743388769383370396e-01,5.079689420726400950e-01,-5.921210220105117177e-04,-4.548226924741507159e-03,-1.949296055962911490e-03,3.225050121545791626e-02
4.483933172168764192e-01,4.818384894061827906e-01,5.109872478410066865e-01,-9.474186365499088353e-03,-5.897643496294232429e-03,-1.220612511754399707e-02,6.134908646345138550e-02
4.570027400929321804e-01,4.881799656971202994e-01,5.053930103499232329e-01,-7.256923932336568385e-03,-4.357832930027396960e-03,-1.242131415054439046e-02,4.982761666178703308e-02
4.774567457826814354e-01,4.609793206717013869e-01,5.122769231054177252e-01,-9.054720090901485774e-02,-6.811836720582288562e-02,-6.393043904341311201e-02,2.298602312803268433e-01
4.899680819190352921e-01,4.628300027349745993e-01,4.936451874842483489e-01,-7.191734857886830125e-03,-1.270954835354694105e-02,-5.807201361600014371e-03,3.988380357623100281e-02
5.752449878589420695e-01,4.372470414323775811e-01,5.230142468328861094e-01,1.187160352335414476e-01,1.657678705082090143e-01,-1.713095852617146364e-01,4.767830967903137207e-01
5.549372688539867537e-01,4.163091587377684144e-01,5.159960120893717361e-01,8.922687005255973067e-03,1.054374125566291676e-02,-2.231860428284880224e-02,1.319186687469482422e-01
6.771625891526600327e-01,3.770202238221700974e-01,6.515645227351672952e-01,1.774808133011308298e-01,1.449699982158314526e-01,-1.427854467597469007e-02,4.911379516124725342e-01
6.295313457753863862e-01,4.800580959637370526e-01,3.216206142362585396e-01,5.368234479250065527e-02,4.155047116156811160e-02,-2.095815912495896105e-01,4.655372202396392822e-01
5.886955488393343927e-01,3.750020874014499128e-01,5.829838741429919091e-01,4.096094933526939208e-02,3.663144761974563429e-02,-2.006470191331787348e-02,2.339737862348556519e-01
5.906038616567793609e-01,3.992687434891692977e-01,5.764191304517892744e-01,3.873494877721073842e-02,3.911916590161928359e-02,-6.010976508220965825e-02,2.324391603469848633e-01
5.272847415299914964e-01,4.404344673790716591e-01,5.140858131441655710e-01,1.414127683417071117e-02,1.674052450826856581e-02,-1.230866665601451637e-02,9.201099723577499390e-02
6.164893319876147970e-01,2.340159110733046333e-01,4.490202553969355193e-01,-1.280445487447927355e-02,1.084221343114194838e-02,-2.043700989423453962e-01,4.862358272075653076e-01
6.304833424877070991e-01,4.653913291251460249e-01,3.927477531793586163e-01,4.178744890899053349e-02,5.356693273545556216e-02,-1.176274888962816900e-01,3.160392940044403076e-01
6.350517035548259859e-01,4.662218290092298156e-01,2.860103350727059568e-01,6.543660017901374581e-02,1.289731096954781220e-01,-1.716893670568911123e-01,4.925287365913391113e-01
5.537078356536383472e-01,4.248191974262247594e-01,3.936675853964685667e-01,1.302888109539176720e-01,1.300483727530106215e-01,-1.574195652480513685e-01,4.445264935493469238e-01
5.475185555818106176e-01,4.747246506960129397e-01,4.956531531454228534e-01,1.282486952852734084e-02,1.083242068434519742e-02,-2.154341572885020567e-02,8.031998574733734131e-02
5.290043074890355967e-01,4.212486276025721454e-01,6.029835726475567537e-01,1.522407335193802502e-01,5.625423823181190108e-02,-1.803585231083457488e-02,3.241251707077026367e-01
5.137407373363396257e-01,4.759792999771241262e-01,4.938795832231664962e-01,7.136087351126174649e-02,6.156865157324064447e-02,-5.400760652589999683e-02,1.909714341163635254e-01
4.847306260615149576e-01,5.077233177384491425e-01,5.378046146523025595e-01,2.387462817041073951e-02,1.056690674196839388e-02,-6.226277759144394595e-03,6.547114253044128418e-02
5.198304119984321625e-01,4.631052665580406291e-01,5.199144462724157867e-01,5.620886168352017508e-03,1.383090149982058731e-02,-7.274512235093174434e-03,6.363911181688308716e-02
5.332080134444704411e-01,4.063228057100455315e-01,6.618327845381648533e-01,1.431793686252271491e-01,1.342318305087328023e-01,-7.495871596370329293e-02,4.258834719657897949e-01
5.038195830909693029e-01,4.721539214224512171e-01,5.331231582181048534e-01,2.217273648754800389e-02,1.064046554013886418e-02,-4.103606882690168448e-03,6.822315603494644165e-02
3.723115873327648151e-01,4.162501714448885171e-01,5.707476719267837728e-01,1.639713713652872218e-01,5.467510190910569723e-02,-2.570480043329533351e-02,3.524182438850402832e-01
5.842856753326980401e-01,4.099020571607371877e-01,5.147097732272027937e-01,7.669849957240912341e-02,7.541207406879078812e-02,-9.819797085107291601e-02,2.945420145988464355e-01
5.247337507445403171e-01,4.597784101944643043e-01,4.879285076710287439e-01,1.059910100307906791e-02,1.376651097706453261e-02,-1.165413832444541636e-02,6.705337762832641602e-02
5.592455389396450149e-01,5.573317274996545390e-01,3.472129603678120735e-01,1.231339050146494987e-02,2.682513967878079331e-02,-2.651240829254553760e-02,2.219865620136260986e-01
5.012649040213152940e-01,5.020593788956866366e-01,4.999089920176242319e-01,4.279140247771070875e-03,2.683318681020309231e-03,-1.865542073279027359e-03,9.514273144304752350e-03
4.922172688518503536e-01,5.107083754756015503e-01,4.990843927317193951e-01,-1.485012439573120705e-03,2.487296853970038732e-03,4.536345536919008173e-03,1.868177391588687897e-02
5.162034444004861555e-01,5.030639772063900672e-01,4.802140900043210814e-01,-8.421959790710743105e-03,4.789991681115381497e-03,6.777874762115443374e-03,3.760900720953941345e-02
4.756013910350486706e-01,5.112807856074305102e-01,5.061091050014978610e-01,-2.554171288522854959e-03,4.848336644488784354e-03,1.130822041110094399e-02,3.986177593469619751e-02
4.834613317064871407e-01,5.279805506788894931e-01,5.039340685786805052e-01,-3.006228019637707371e-04,2.485189100767845518e-03,9.192042036645895614e-03,4.197551682591438293e-02
4.965492622866488071e-01,4.622495916176508346e-01,6.196875001197205135e-01,-9.825520384466732149e-02,5.744818170126318735e-02,4.473370722946445194e-02,2.557919919490814209e-01
5.055199143962895159e-01,5.072543082890618171e-01,4.943591578740444414e-01,-8.820812359784399245e-03,9.276742764287717463e-03,1.065304097984968480e-02,3.128871321678161621e-02
4.923865625336623086e-01,5.153445654025601286e-01,4.927354999734881447e-01,-2.986777645631041173e-03,1.179038025048871488e-03,1.984526653438845479e-03,2.370503544807434082e-02
4.614966706793056095e-01,5.163148028962262215e-01,4.627937818784303436e-01,-1.213811601315850468e-02,-1.670252570001773407e-02,-1.280875091298425313e-02,6.860554963350296021e-02
3.667666084888467903e-01,5.483662942655027628e-01,4.899470930196773155e-01,-3.178341028447523309e-02,-8.541773247931844226e-02,-2.349765294575930849e-02,2.288184463977813721e-01
4.219309380742150561e-01,5.231473388319657358e-01,5.471489313615361949e-01,5.464572510202966166e-02,1.383322456236226600e-02,3.425628006402271948e-03,1.510560661554336548e-01
4.647529948985959503e-01,5.035092645786153343e-01,5.362700950125752763e-01,9.634803169473698040e-03,4.504196127815502347e-03,-4.358409739698830554e-03,6.512562185525894165e-02
4.692264213806295325e-01,4.706120529449044909e-01,5.276002425015999808e-01,-1.830308180926655190e-02,7.280912353874325303e-03,7.581889964272915498e-03,6.830107420682907104e-02
3.922501671849923932e-01,5.429589626298858551e-01,5.309301359752851557e-01,3.553117314858309731e-03,-2.656367744331328273e-02,1.272044588916822379e-02,1.538998782634735107e-01
5.014105115938373158e-01,4.766069188684933788e-01,5.333744702243304880e-01,2.999979134423913247e-03,7.109583422268456361e-03,-4.521582275028472120e-04,5.107822641730308533e-02
4.354339152297976856e-01,5.258916081471501913e-01,5.278618514539964446e-01,1.076907751574694184e-02,-8.434416182999006709e-03,1.512289213582377126e-02,9.804153442382812500e-02
5.197113446482960475e-01,4.665153260025767246e-01,4.768676641362897817e-01,2.387244380149905129e-02,-1.872287763329519295e-02,3.583343614313817815e-02,9.486679732799530029e-02
4.801413924570103187e-01,4.884579106436629514e-01,5.348019627106528340e-01,6.645770897119071367e-03,-1.014624731517023816e-03,4.336246156280882530e-03,5.286164209246635437e-02
4.587219873993981789e-01,5.280504641872121319e-01,5.387925075471224901e-01,2.121138383352804552e-02,-6.619383988814212319e-03,1.443827203322078923e-02,8.816556632518768311e-02
3.687545796830636879e-01,5.301455810322505124e-01,5.579109718712396138e-01,3.150761482773781208e-02,-3.434141263479964339e-03,9.720128971764725734e-03,1.860001832246780396e-01
4.752492857319882691e-01,5.014018531152628633e-01,5.425272801973357595e-01,5.558357024041778865e-03,-1.716149437610574497e-04,2.302266985608206022e-03,5.966128408908843994e-02
4.823493493538745791e-01,5.000986853416911071e-01,5.197009294124979029e-01,3.490304153026025508e-02,-1.453334952852846154e-02,2.314272319161026631e-02,8.332041651010513306e-02
5.438245517309550081e-01,4.957062597760565348e-01,4.410287990032706329e-01,2.743947762375304952e-02,-1.583388124181846907e-02,4.657567708495680137e-02,1.321165114641189575e-01
5.571377150123373312e-01,4.657962148551052506e-01,5.321496641587721843e-01,4.411758746257782131e-03,5.891426194796907725e-03,3.235421186326537663e-02,9.994062781333923340e-02
5.437519712055991494e-01,4.904505906193076803e-01,4.906572443078489054e-01,1.117540327665455949e-03,3.994626797639682855e-03,1.268432543673317717e-02,5.800309404730796814e-02
5.935038274561527105e-01,6.072972350977116074e-01,2.744949169578453363e-01,-2.647752785075869336e-02,-1.772316687463384444e-01,-3.102721998225005731e-02,4.534110724925994873e-01
5.622746168019182589e-01,2.977650858415851198e-01,5.882412718003922070e-01,1.065865080901328005e-01,-9.278654714716396204e-03,1.382222085576887416e-01,4.112960696220397949e-01
5.362917285124313427e-01,4.976070387871331380e-01,4.742138848542649110e-01,-1.514049281571115549e-03,1.615511283069280719e-03,5.517448278135137635e-03,5.526965856552124023e-02
5.324454368003009863e-01,5.229026716883264925e-01,4.212210140631290622e-01,1.929189757510225978e-02,-1.351762907206436291e-02,1.758770975823557500e-02,1.182930320501327515e-01
5.342445094619162616e-01,5.417681326561074595e-01,4.206373356068749958e-01,1.552355709293366283e-02,-1.363802463217383271e-02,7.040799982291568761e-03,1.234810948371887207e-01
5.282039069728213798e-01,5.256162237474358845e-01,4.805840557535287494e-01,-1.831641563002190526e-02,8.868972362789734332e-02,5.829878559745663158e-02,1.922275722026824951e-01
5.164396592699844746e-01,4.946098622406003287e-01,4.926005652733624895e-01,1.980034293121096713e-03,-1.271263155657325694e-03,-1.173328281639840666e-04,2.326136454939842224e-02
5.333091998839479819e-01,4.967462532916201989e-01,4.815125219116042632e-01,9.356217325035590462e-03,-2.208054677940326366e-03,8.845509226411736245e-03,5.136027559638023376e-02
5.486842333022552420e-01,4.533920803475661732e-01,5.043678779701646908e-01,8.749368227833232304e-04,-2.243456339675193364e-03,1.427624781892994875e-02,8.631548285484313965e-02
5.317761641695732955e-01,4.857404301334573571e-01,4.897178909507582389e-01,3.643882973697152184e-04,-1.146614736734491999e-03,2.025655168246970513e-03,4.436954110860824585e-02
5.273511433572362073e-01,4.860956436857739038e-01,4.893007269136797621e-01,1.672496881151849064e-03,-1.321834787217153256e-03,2.179809483602350439e-03,4.009924829006195068e-02
5.208749861200654419e-01,4.707989644700935616e-01,5.016842377655879037e-01,8.981636244099183014e-03,-1.172049434008869823e-02,7.478738325315564817e-03,5.231453105807304382e-02
5.642988291708002091e-01,5.670903871280528197e-01,4.425877746787090783e-01,5.078359265528820804e-02,-3.614793362155781231e-02,1.024639212399538063e-01,2.414842545986175537e-01
5.351852441413154082e-01,4.881402152556785223e-01,4.785064103760429677e-01,4.381318428574777595e-03,-1.400538038787705903e-03,7.315003284628860888e-03,5.461929738521575928e-02
5.161796386852199880e-01,4.983197977792335198e-01,4.932456855998279543e-01,3.793919494231593782e-03,-1.373879770042700987e-03,6.506673385081585253e-04,2.203310281038284302e-02
4.729210875952734594e-01,4.712286869266905098e-01,5.417591675677057017e-01,-1.346176087663345129e-02,2.372484178271371848e-03,2.805363894546445986e-03,7.377126812934875488e-02
1.992057485595239708e-01,5.050363434595270817e-01,5.691997417225878042e-01,-1.856219179632077332e-01,-1.287332679224261200e-01,-5.240618288781156986e-02,5.278208851814270020e-01
3.194621492278680308e-01,6.086259891702822111e-01,5.764792999726593425e-01,-6.139289341496892427e-02,-1.021297183001814053e-02,1.915433055571530777e-02,2.967731654644012451e-01
2.814213219689781775e-01,7.792846867294966895e-01,6.575783683269795787e-01,9.194764795171265007e-03,-1.786716869495822424e-01,6.397182351828883951e-02,5.571254491806030273e-01
3.684341901344315162e-01,5.118523713484071092e-01,5.896033078277203021e-01,-1.079403372774720010e-01,-7.928581238619834826e-02,-1.155819800471297697e-02,3.032782971858978271e-01
3.098330890439664476e-01,5.638179713103869117e-01,5.573021138212539416e-01,1.844867716739516036e-02,-2.569622926789220246e-02,1.485942455247218734e-02,2.579926550388336182e-01
2.129286428577515933e-01,6.347032927440134920e-01,6.635990392225126211e-01,-1.062829852750651061e-01,4.413634474704825755e-02,-2.024913637071421718e-02,4.815378189086914062e-01
2.377870591522705246e-01,6.580074369465607198e-01,5.330252054108046700e-01,1.877432623386486371e-03,-1.861729740310008874e-01,-3.814892301006145986e-02,4.980395138263702393e-01
3.189159936198713297e-01,5.784850975896866920e-01,5.647295973012090853e-01,4.753584461600122643e-03,-1.898585406985309199e-02,6.005391296316929875e-03,2.554450929164886475e-01
5.011200906579637016e-01,5.012224951796739880e-01,4.998526125278787702e-01,4.027994905447743056e-07,1.201613158550098644e-03,1.086825613798411000e-03,3.101930953562259674e-03
5.010059172178965570e-01,4.990457987686860997e-01,5.009197938817878670e-01,-1.139835358214647898e-03,-1.969447732416885875e-07,5.602003738899634334e-04,2.918872516602277756e-03
4.958407977120970478e-01,5.067155462765490226e-01,4.962579050844105333e-01,-4.282393277363559752e-04,8.100021974994574226e-05,2.233605931503625155e-03,1.137695182114839554e-02
4.959813806822006566e-01,5.057550798477612464e-01,4.960031217761636801e-01,-2.828284031233981467e-03,8.969270084790518247e-04,1.643431178417748342e-03,1.139415521174669266e-02
4.975569700945316476e-01,4.946545578757839956e-01,5.072061083885402999e-01,-2.102020650485812801e-03,2.162515536899296397e-04,1.373209487907883167e-03,1.218968909233808517e-02
4.899068304925121575e-01,4.935206911062364199e-01,5.138446217383488834e-01,-1.335090211896048382e-03,1.173669088692934955e-03,3.855171971271847357e-03,2.352949045598506927e-02
4.077665282304644978e-01,5.451000611195201406e-01,5.017579505088386460e-01,1.026599127776657225e-02,-4.014321323859983137e-02,1.959161945072363312e-02,1.452198773622512817e-01
4.799653683338633847e-01,4.393030265964192327e-01,5.382394637816536598e-01,-2.236137338791570686e-02,-7.421820963438503435e-03,-4.909436143006348612e-03,9.568964689970016479e-02
3.923230126656714334e-01,5.664169189854152409e-01,5.508665537548256275e-01,1.236300697543279287e-02,-1.803919060386243930e-02,4.092730311038992458e-03,1.712550669908523560e-01
3.822955823807735465e-01,5.498826544267731986e-01,5.302602788570421888e-01,2.065150045306589008e-02,-7.442624578630431878e-03,1.085932314336197739e-02,1.642602086067199707e-01
4.259588029320413027e-01,5.401318140472808338e-01,5.208808803734658044e-01,3.397632925743326870e-03,-2.964632601989386322e-03,1.880982532655057007e-02,1.110430806875228882e-01
4.668212994382103798e-01,5.270718868721320227e-01,5.275120946811278078e-01,1.924943864424929693e-02,-1.799351152615166760e-02,2.078387579805166321e-02,8.387896418571472168e-02
4.862653178523414499e-01,4.844347881293781799e-01,5.353661236053800510e-01,7.646704775234360908e-03,-3.807680652512253350e-03,4.359703132671755889e-03,5.272620916366577148e-02
4.842977309792623197e-01,4.780699937879180350e-01,5.358752537228803625e-01,1.099619132409907635e-02,-2.497414523113093308e-04,1.061337873429985760e-03,5.819408968091011047e-02
3.583819378463539707e-01,6.285954215146478674e-01,6.271832752533357258e-01,3.727979911325515067e-02,1.080230028487369834e-02,1.277566046622407789e-02,2.786481976509094238e-01
4.512801561743021717e-01,4.884542512107019063e-01,5.414433764761393819e-01,2.089847597597678866e-02,1.713849087366465986e-03,1.765332874328294759e-03,8.653313666582107544e-02
5.458130486910276469e-01,4.732932725424716658e-01,5.980463384705647645e-01,8.249060573653813067e-02,4.006801185056683284e-02,-1.849386095049034354e-02,1.950176507234573364e-01
4.074386418270701249e-01,4.850794408169931127e-01,5.528114519622687739e-01,-6.604616711318117561e-02,3.927776055335309435e-02,2.457766478533315521e-02,1.881520301103591919e-01
4.747632534002357296e-01,4.731049504698502384e-01,5.351214282182295001e-01,-1.085875363361456930e-02,4.409619081691096634e-03,-3.541385775200743958e-04,6.448565423488616943e-02
4.199840117427754427e-01,5.548954924312461401e-01,5.830864137021728455e-01,-7.852033521695289675e-02,7.826573195479197276e-02,5.185273796461271900e-02,2.602654993534088135e-01
4.669193672662537153e-01,5.208230506736079013e-01,5.100397812217567495e-01,-6.692624980475716558e-03,1.007418313794577851e-02,1.700638695451330007e-02,6.121373176574707031e-02
5.168358796159935320e-01,5.347627751183933187e-01,4.455411054814967242e-01,-6.710112504417534499e-03,1.733615849707955542e-02,7.550333669192286004e-03,8.882645517587661743e-02
4.891404968936562403e-01,4.799134546903751630e-01,5.636279091047460277e-01,-4.121152628664905698e-02,2.512472234657380996e-02,3.325540142420427975e-02,1.289476752281188965e-01
4.569321601052011572e-01,5.054235997827715154e-01,5.186983750081515243e-01,5.620242003884511756e-02,-4.831779495659465490e-02,5.125417948394453416e-02,1.659285724163055420e-01
4.878678218068322470e-01,5.196678743570899428e-01,4.848522881222899761e-01,8.847014402113355033e-03,-7.475937882923581676e-03,1.081189602386015830e-02,4.323656111955642700e-02
4.959017501542277162e-01,5.093845482616705667e-01,4.996407465858483388e-01,8.848716841729912727e-03,-6.506060056277802872e-03,8.168809021535560627e-03,2.659751847386360168e-02
4.734268553389467393e-01,5.244216009386558630e-01,4.872901451217258595e-01,6.612652407584212154e-03,-5.438118058998177469e-03,1.320104342267353591e-02,5.318273603916168213e-02
5.354105027609160627e-01,4.791689402076265702e-01,4.770233490494639184e-01,-1.835704299305379594e-03,8.236111298774441772e-03,2.336115532021952948e-02,7.168841361999511719e-02
4.981204696209004523e-01,4.976271593825813411e-01,5.049993071472060890e-01,1.492187415910742982e-03,-3.608706615059563763e-03,2.052477405384952637e-03,1.045663934201002121e-02
4.972768770518228298e-01,5.177893800304061989e-01,5.677326027142960418e-01,9.672530465123259369e-02,-4.673493452483478555e-02,6.223986514492117761e-02,2.240106463432312012e-01
4.668701439792116714e-01,5.152851366689240598e-01,5.159609679512382474e-01,2.579799299989091882e-02,-1.080306674034629474e-02,1.117562598176029959e-02,7.140448689460754395e-02
4.391818892416455289e-01,5.244279493146689619e-01,5.152857441879017397e-01,7.957313149708364342e-03,-1.320041595087929551e-02,1.673415794657875585e-02,9.013289958238601685e-02
4.575828125743107710e-01,5.246112107931575341e-01,5.069569764440042814e-01,7.217767358465119500e-03,-5.828253015219293960e-03,1.315851593663824003e-02,6.632327288389205933e-02
5.090339414119067207e-01,4.927556575591187649e-01,4.951007144387800096e-01,1.857079037505375519e-03,-3.759471315342997715e-03,3.272362800093003583e-03,1.780956238508224487e-02
5.109659899990700582e-01,5.006969017723307269e-01,4.961138297861713564e-01,4.649041451852679863e-03,-3.765867136721362529e-03,3.372651885836877323e-03,1.774916984140872955e-02
5.208374832208636507e-01,4.893067694213675822e-01,4.924931214752682473e-01,2.699602388325178168e-03,-4.409798237164952971e-03,2.783302934335105897e-03,3.173820301890373230e-02
5.223427901375958804e-01,4.886186936828035288e-01,5.000742753208208269e-01,1.498998629025026378e-03,-6.035887135512555367e-03,2.984844489674688770e-03,3.201531618833541870e-02
5.194004944741995589e-01,4.935251475109583286e-01,4.879987885415084103e-01,4.188882856075520043e-03,-1.907510221111151155e-03,1.698670971329800878e-03,3.025364689528942108e-02
5.089092652312200427e-01,5.042647473307149131e-01,4.751259779289730423e-01,1.240014543460795683e-02,-7.236805195795111695e-03,8.161254826386962064e-03,4.271063208580017090e-02
5.144916700653785480e-01,5.044905722478242316e-01,4.715386335353142777e-01,1.112494739488767252e-02,-5.181443039218677771e-03,6.572251519149836275e-03,4.579111933708190918e-02
5.210071109867742134e-01,5.035787151153193753e-01,4.751110179849717396e-01,1.117475667885661945e-02,-8.032910587347582773e-03,3.986735515986641366e-03,4.718257859349250793e-02
4.773316876141147080e-01,4.334634917600003190e-01,5.431968345446362978e-01,-1.782123159538320442e-02,2.717345755996644109e-03,-1.408538789572577653e-03,1.006623730063438416e-01
5.123495688244654733e-01,5.044648092207728585e-01,4.723052498297644064e-01,1.145080654419135952e-02,-4.176942821040369701e-03,7.196323351792918710e-03,4.417059943079948425e-02
5.213338280142197911e-01,4.855436134156592143e-01,5.008332666670948230e-01,3.378289365438990732e-03,-6.354984411925517288e-03,3.424927754918912458e-03,3.403056412935256958e-02
5.925571861546305996e-01,5.772415757937963132e-01,3.008368036192710093e-01,3.280951604099225510e-02,-1.590821879576684583e-01,1.140547314580753618e-01,4.461431801319122314e-01
5.243844238054516937e-01,6.060663427843153706e-01,5.224423851920942941e-01,1.480056338026528584e-01,-7.211426555479380496e-02,2.509407263488893647e-01,5.263710618019104004e-01
4.399799016797556472e-01,6.179894006587256516e-01,2.834308902703586153e-01,3.401048541519148538e-02,-1.838583976973535150e-01,1.108241902742520754e-02,4.351005852222442627e-01
3.711499158090546535e-01,5.895971464115129512e-01,3.509268609705000208e-01,-1.856581410361169554e-02,-2.018193015807782931e-01,-3.448026831311902518e-02,4.234851300716400146e-01
5.423103177151110676e-01,4.954343950089434290e-01,4.649672392512421149e-01,-4.078618310776864313e-03,6.253422453709489050e-03,1.219444712567602576e-02,7.188262045383453369e-02
5.209993771627395853e-01,4.537529757152516940e-01,5.225551968641406475e-01,1.244527840226562418e-02,-8.901812857017039199e-03,1.212909814609806382e-02,7.597927004098892212e-02
5.146387807429873007e-01,4.919946140077353647e-01,4.943386596325856086e-01,3.438104996455981083e-03,-5.251587807263920042e-03,2.008526997603120399e-03,2.440236881375312805e-02
5.101462211693963411e-01,5.014120620925253125e-01,4.468834222317512594e-01,-1.348833100644307101e-02,-8.375170757259057033e-03,-5.828339440446621972e-03,6.621226668357849121e-02
5.775005930205255877e-01,3.256611987149150567e-01,4.990673036807936613e-01,-7.701815700816419530e-02,-1.885250595068366924e-02,-9.935255137401177716e-02,3.135230541229248047e-01
5.275197561577543715e-01,4.608362439142180134e-01,4.309441965273535513e-01,-2.485690659676301900e-02,-2.375847740846312450e-02,-4.771001696999744440e-02,1.330761462450027466e-01
5.147490782544206223e-01,4.944733890674012922e-01,4.989248571155320278e-01,2.017254734521860965e-02,2.729139400273643615e-02,-2.899707489514887979e-02,7.948841899633407593e-02
7.014466236275428423e-01,6.376703529468854548e-01,1.443762665526139299e-01,-7.533309209005894375e-03,5.022391781942339706e-02,-7.111250634739522828e-04,5.353559851646423340e-01
4.327994922902864694e-01,4.981099968008806944e-01,5.320194224791316984e-01,-6.978758353779219298e-03,-6.153601745311907539e-03,-1.296311992759247543e-02,9.161762893199920654e-02
4.614761163772710395e-01,4.277973611631542550e-01,5.487616846923086822e-01,-5.030785501450167618e-02,-2.283704027613191884e-02,-2.622077548499554545e-02,1.513688117265701294e-01
4.153922154907997433e-01,5.406897329300631716e-01,5.609415790931729928e-01,-9.205396830805198660e-02,-6.993087415340727697e-02,-4.210771326447760449e-02,2.530989348888397217e-01
4.733231693626105963e-01,4.656128469164173000e-01,5.337402506933700552e-01,-5.644869294749523675e-03,3.896507394789082944e-03,3.661505067601522265e-03,6.600658595561981201e-02
4.652897525200679896e-01,4.209219476600394860e-01,5.730185875346449631e-01,-5.467337919916306216e-02,4.549904878744640002e-03,-3.727150742743363162e-03,1.656049787998199463e-01
4.157446633525747615e-01,5.143576951909476502e-01,5.595880677007784021e-01,-1.954467188963320348e-02,5.445756616981259866e-03,5.675167150722999244e-03,1.325224339962005615e-01
4.228978292782739068e-01,4.672704383652029336e-01,5.734676043573380122e-01,-8.658113515521619064e-02,-1.212067459821508826e-02,-1.117026887514669742e-03,2.022186070680618286e-01
3.086344484693219758e-01,4.863711661785074525e-01,5.917831601983531975e-01,-1.639499666088702623e-01,-7.509692919182885118e-02,-5.564363298607732239e-02,4.102239310741424561e-01
5.120274187080284811e-01,4.392018878591650299e-01,5.353338982334318041e-01,-3.882178024191133142e-02,-1.768672295371107386e-02,-3.021210932094473001e-02,1.254680156707763672e-01
4.764445127686268711e-01,5.176233865746908691e-01,5.215882459697189777e-01,2.757589109267353025e-02,2.206893899612616741e-02,-1.598260313777637165e-02,7.989632338285446167e-02
5.034553263025840497e-01,5.013847750230663314e-01,5.367197589023845472e-01,5.183010651520766204e-02,3.978605102719696279e-02,-2.063457569696013766e-02,1.235512495040893555e-01
4.018586316215043697e-01,4.445767732457732713e-01,5.771099178869334434e-01,1.545233602856668498e-01,7.993870893426227586e-02,-3.677110937205227414e-02,3.462813794612884521e-01
5.376870767180869093e-01,4.652645959496701789e-01,4.723050438074073432e-01,2.486873893310170749e-03,1.264958682123905375e-03,-1.006673178487763054e-02,7.149872928857803345e-02
5.352506951281222891e-01,4.640395165798145705e-01,4.825846412427986509e-01,4.487238626866169380e-03,8.090621687732777942e-03,-1.145680218989814612e-02,6.888315081596374512e-02
5.412180193194155997e-01,4.778949409332434728e-01,4.706423161544612821e-01,1.266813799381929454e-03,5.708753914607018164e-03,-1.591817921781889245e-02,7.337861508131027222e-02
5.394224421338753572e-01,4.675085745305730400e-01,4.645402865553193150e-01,-2.500184731538403985e-03,-2.990576708327057163e-03,-1.378854347018360071e-02,7.752310484647750854e-02
3.248459412523626577e-01,5.592879596458643077e-01,5.402259020195774308e-01,7.725627749342613149e-02,1.387482137791378467e-01,-5.583480724433902836e-02,3.686039149761199951e-01
3.768974383790872906e-01,6.098881836130780609e-01,5.431728797978062628e-01,4.732745543837027502e-02,6.660734745286708836e-02,-1.128523187466313506e-02,2.521961927413940430e-01
4.936056630418358404e-01,5.414694748128112689e-01,4.473518473396579931e-01,1.403492059268747309e-02,5.886962885505729604e-02,-1.596421593311166121e-02,1.356342434883117676e-01
3.906556301848129742e-01,5.504507919335136501e-01,5.541395735726339922e-01,1.932015909759618108e-02,1.784413731737049744e-02,2.008005547919098320e-03,1.680020540952682495e-01
4.235068867466081355e-01,5.542245387379317600e-01,5.187049398315652926e-01,1.458735530214853686e-02,1.518243172328277366e-02,3.293329261843950823e-03,1.227523386478424072e-01
3.951474968774010832e-01,6.047939493716150139e-01,5.695802599226567065e-01,-1.101651282610521289e-02,7.261834344563068699e-02,3.094632522408024763e-02,2.384671866893768311e-01
5.216080508847273922e-01,5.197548628822986627e-01,4.634812977301097647e-01,1.383247633210281206e-02,-5.933486284740466417e-03,5.463636289163875150e-03,6.358945369720458984e-02
5.302807383612145875e-01,5.265268071706370456e-01,4.387601659356152872e-01,1.559983910168244448e-02,-6.963748435634052776e-03,1.186902842163529807e-02,9.666805714368820190e-02
5.387276597819885549e-01,5.446693073318256140e-01,5.290888378809487369e-01,7.915859134933689312e-02,-4.794687467391924723e-02,7.742438153935930767e-02,2.094374448060989380e-01
5.220172806141220034e-01,4.838718031149531473e-01,4.827491272662359778e-01,9.210484366423531827e-03,-6.756400227215270983e-03,1.420030244348060612e-02,4.995552450418472290e-02
5.263740332769542007e-01,5.235003108454627796e-01,4.428597590004194617e-01,2.399112497307798533e-02,-3.731532244329724413e-02,3.360459425290453217e-02,1.266282945871353149e-01
5.549829555802814340e-01,5.575868463809433573e-01,3.794846781184185724e-01,8.477164553641860362e-03,-1.685146975076193612e-02,-2.461420380076492168e-03,1.798585057258605957e-01
5.225830081103176594e-01,5.721719090608918812e-01,4.477284494587044916e-01,4.419571987781550915e-02,5.652033708212820390e-02,-2.656153382044298267e-02,1.712722778320312500e-01
4.726263897680887949e-01,5.288690402791753620e-01,4.664242265534671028e-01,-7.875049507614721375e-03,-1.189608567492710448e-02,-8.115491053949834901e-03,6.602054089307785034e-02
4.837410357068693267e-01,5.485787700659526811e-01,3.514854816937613702e-01,-2.009599560308734587e-02,-8.847826115977226735e-02,-2.837431447051698419e-02,2.395468056201934814e-01
4.677542786103235928e-01,5.213531848917573042e-01,4.705722871395685014e-01,-4.228360472992476367e-03,-5.967363340702205865e-03,-7.446039311628364389e-03,5.528596416115760803e-02
3.917368430666841039e-01,5.767100630619211854e-01,3.227846040886557244e-01,-8.872530020820608432e-02,-2.193164805373808701e-01,-9.017458905308035899e-02,4.939978718757629395e-01
5.576956660634084795e-01,5.807217783011637824e-01,3.328700510649443278e-01,-5.727193235604796651e-02,-2.238789354626620487e-01,-8.049939298870854854e-02,4.856950044631958008e-01
4.810691498657207466e-01,4.883227831932906993e-01,2.694524174086868618e-01,-1.147834913587993666e-01,-1.895930269876228980e-01,-1.626753184550355225e-01,5.226101279258728027e-01
4.045767133323351916e-01,2.846476192795411864e-01,6.149493394340579400e-01,-2.195400980800178981e-01,2.521564703481513417e-02,2.119265329508676632e-02,4.813708066940307617e-01
5.316900274070905930e-01,2.887430176454675035e-01,5.946727169023837689e-01,-1.159205892072014826e-01,4.821109429160155835e-02,6.900496330641886500e-02,3.739816248416900635e-01
5.138164941115967999e-01,4.332669429080401313e-01,5.472288314930900954e-01,-4.154188974851188987e-02,1.222385431271942602e-02,1.074015715190245086e-02,1.275439858436584473e-01
5.328519965340955400e-01,4.823665908113227152e-01,4.919963373956267594e-01,-1.242734880965981050e-03,5.012005057493649531e-03,5.067224190788978747e-03,4.808711633086204529e-02
5.451042340797503938e-01,4.684541891594750651e-01,5.279610756980760433e-01,2.143894645963236034e-02,-8.030871705546343761e-03,3.259464696694786695e-02,9.805455803871154785e-02
4.873272101558636660e-01,4.630812144010093001e-01,5.422250049287715701e-01,-5.135945791346029771e-03,4.591123099832683692e-03,1.984689891199389010e-03,7.132232189178466797e-02
5.167619119705011421e-01,4.224290795405139520e-01,5.465803313768533567e-01,-1.621958849206193640e-02,1.191396683029872193e-02,5.817964754247424188e-03,1.179715096950531006e-01
4.775394261573413512e-01,3.902295551633060411e-01,6.274156504406838142e-01,-2.175898282845302456e-01,1.266033991908619150e-01,3.767479737585868044e-02,4.873920381069183350e-01
4.902131320852454177e-01,3.428124901030458194e-01,5.101873135918488789e-01,-1.394721618182555023e-01,1.064076696860676574e-01,1.435561176417007589e-01,4.233443439006805420e-01
3.489948431531158524e-01,5.154926624722361295e-01,5.004667403437474960e-01,1.865350924935455790e-01,-1.197470761495568192e-01,9.170154596003840530e-02,4.450585842132568359e-01
4.073576539301778099e-01,7.270493598347734787e-01,5.671508791770261126e-01,1.060163078718826812e-01,-1.462401441979316041e-01,1.735306455859651209e-01,5.146529674530029297e-01
4.363821029922204664e-01,4.997063158815610029e-01,4.686531992304944771e-01,1.471577693361407202e-01,-1.120491997612357571e-01,1.236809305669668985e-01,3.892686069011688232e-01
4.674054061186161957e-01,5.472060668060780841e-01,6.031482877197911208e-01,8.442635078856573771e-02,1.100420448733549668e-02,2.704390047586171381e-02,1.946862190961837769e-01
3.218858874874759302e-01,5.345273422978207289e-01,7.512350398527567474e-01,1.265868708458988134e-01,-2.653210844001050242e-02,1.303683724287350298e-01,4.893178641796112061e-01
3.981378524894837456e-01,5.570657754800866224e-01,5.547283338283321985e-01,4.034447557385952704e-02,-4.789025144543586354e-02,4.441335250589208486e-03,1.916107982397079468e-01
4.125213838164191182e-01,5.950313124535628884e-01,4.730215445116518480e-01,7.932951745135945198e-02,-9.903553059035281880e-02,7.285527964808531654e-02,3.002591729164123535e-01
3.910941395474651916e-01,5.815128711036277043e-01,5.452788010355852366e-01,2.012092481922503340e-01,-1.534498807359532258e-01,6.268425468333603534e-02,4.843104183673858643e-01
5.364677897434737552e-01,3.783470897072500616e-01,5.949414444259987222e-01,1.569789265106074083e-01,-3.527172145761405669e-02,9.641815677487297620e-02,3.784389495849609375e-01
5.264574600282043715e-01,4.480997294982982382e-01,6.233363921225238968e-01,-9.859665176393707375e-02,4.283804268899577689e-02,3.541820722340865979e-02,2.480911463499069214e-01
5.070739162420101476e-01,4.344023287972949565e-01,5.213557215645053811e-01,-1.914198749938408189e-02,1.924475701126346708e-02,1.349221337444229257e-02,9.632994979619979858e-02
5.001172220007250591e-01,4.765625376959740644e-01,5.127683531023216057e-01,-6.345497451800892995e-03,1.018902770606100287e-02,4.800563382042970922e-03,3.891335055232048035e-02
5.004535684465368783e-01,5.027985444116580549e-01,4.991678858828405563e-01,-3.286604105947031357e-03,4.409355124225536326e-03,3.976627278111192869e-03,1.217949204146862030e-02
4.775082984464577018e-01,4.393430422463044938e-01,5.391462217591822537e-01,-1.844521999689975253e-02,3.277879094591561182e-03,6.224415949184994995e-04,9.307159483432769775e-02
4.727127310498818180e-01,4.812237050551829709e-01,5.313116703971622057e-01,-4.131382649597374439e-03,1.592857002444982625e-03,6.027678433407904039e-03,5.635027587413787842e-02
4.789229302864586035e-01,4.780027714209740819e-01,5.292172743877771035e-01,-5.311739418006728407e-03,5.096596949341597634e-03,3.705627103935262706e-03,5.272960290312767029e-02
4.850803633557775885e-01,4.835556786369001880e-01,5.181613141465267747e-01,-1.482151910317690714e-03,1.496787792087992709e-03,4.868128816660676796e-03,3.509301319718360901e-02
4.660208826643540969e-01,5.606034417636904799e-01,5.688154581011608535e-01,1.151995746489516970e-01,-4.424693697951444238e-02,7.416969749882448837e-02,2.682902216911315918e-01
4.804454456696176656e-01,5.157543398198172202e-01,4.709060018768947975e-01,5.008783428837249030e-02,-5.102917931953834807e-02,4.778279509962803789e-02,1.544747203588485718e-01
4.474510251679540973e-01,5.096813130480377652e-01,5.525912773768071329e-01,4.714503882748596192e-02,-1.209767105888975153e-02,2.905386131661200771e-02,1.342519223690032959e-01
4.640652664356068602e-01,5.457663512026410535e-01,5.101223536841066331e-01,1.878766931449854863e-02,5.449174649599297648e-02,-4.829826134813015523e-03,1.227614432573318481e-01
4.215824535935948636e-01,5.234626893575782258e-01,5.379088786394597976e-01,1.563940804606412521e-02,-1.080786655903912680e-02,1.669459246842645850e-02,1.182386875152587891e-01
4.359766822197261305e-01,5.224099947929184973e-01,5.064319376901617042e-01,2.158654255062411251e-02,-7.538390022057488496e-03,1.429181413347890145e-02,9.233723580837249756e-02
4.915752883051180411e-01,4.885553174932932285e-01,5.431794088111275842e-01,2.342220758550204660e-02,5.368387617595227418e-04,1.388551603374920881e-02,7.108470052480697632e-02
4.799350088567510553e-01,4.862478727104811438e-01,5.337443277182822854e-01,1.491764412309701596e-02,-5.604373397236605756e-03,1.035426189703404255e-02,6.065535172820091248e-02
5.122709072024425048e-01,4.376650599216463378e-01,5.433553740071643823e-01,4.735821489607214968e-02,-1.182643167669370290e-02,3.707797475863149061e-02,1.418579667806625366e-01
3.880220639461365306e-01,5.281044634275481320e-01,4.473063672939479596e-01,-1.237377369062765686e-01,-1.822664863175531003e-01,-9.605963644603061902e-02,4.337184429168701172e-01
4.558356089309350545e-01,5.357387868063616665e-01,4.150117350811591277e-01,-2.161259481621823075e-02,-5.188168003462767519e-02,-2.060509651376260173e-02,1.485369056463241577e-01
3.492650923065857560e-01,5.777877854164873428e-01,5.349847407315779790e-01,-1.239565024693603246e-01,-2.177024850845185600e-01,-1.293711375995187755e-02,4.827567934989929199e-01
3.327278529739852719e-01,4.948716088408454672e-01,5.101964842597925820e-01,-1.375698605159369758e-01,-1.486294465632669315e-01,-1.003812691387389044e-01,4.269520044326782227e-01
4.724974896081847175e-01,5.094067784089633122e-01,4.729247688029450947e-01,-1.149931791295432520e-02,-1.473226463419015191e-02,-1.448190830934982173e-02,5.498823896050453186e-02
4.316229687825205441e-01,5.377242510533958297e-01,4.547109016066230303e-01,-2.479938196773461348e-02,-5.515220547861406086e-02,-2.205903686067660352e-02,1.475500017404556274e-01
5.104030114158306652e-01,5.153344247193776262e-01,4.899325245233400183e-01,1.244788701957544493e-02,1.313828872944836773e-02,-1.181597215330150094e-02,4.411182552576065063e-02
4.272709446532238498e-01,5.292143989451075781e-01,4.997338489093793301e-01,-1.140516637472919689e-02,-9.152688819090459491e-03,-1.353989617249746515e-02,9.719957411289215088e-02
5.132854630953863628e-01,5.323858918891717362e-01,4.209286274203611344e-01,-1.387087030863676934e-02,-4.568053768490068500e-02,-2.789028857003909151e-02,1.408176422119140625e-01
4.618176109147337227e-01,5.407488388108150357e-01,4.818430293759357053e-01,2.508193154987292672e-03,-2.814570092437843757e-02,1.055602385225955188e-03,8.630922436714172363e-02
4.111573103902459447e-01,5.525943379220823459e-01,5.161440249209801046e-01,-1.552560603779473691e-02,-5.413502925680514083e-02,-3.753805850558926925e-03,1.604208350181579590e-01
4.887501213703357439e-01,5.509317650823339907e-01,4.576683981685559233e-01,9.460245696976303867e-04,-2.618237615050774889e-02,3.017373442535384916e-03,9.408449381589889526e-02
5.236895047239695788e-01,4.808437027707797573e-01,4.536435440946556819e-01,1.869221313816968322e-02,1.752682929666098122e-02,-3.574362490490885780e-02,9.769140183925628662e-02
5.180124936177873396e-01,5.128296686531533810e-01,4.599276825946850278e-01,1.405438905193981923e-02,5.032504023867520083e-03,-9.557307535840295007e-03,6.357865780591964722e-02
2.315845293938874894e-01,5.903853584185533299e-01,5.551230513723761639e-01,-1.882470647459862784e-02,8.821578295094041622e-02,3.374545763589693187e-02,3.809918165206909180e-01
2.476575913601653245e-01,5.475097336968930417e-01,6.137434889543288419e-01,-1.087698905546365807e-01,3.694555678178421121e-02,2.348359735211584184e-02,3.942087888717651367e-01
4.751909229103792320e-01,5.372565907391084750e-01,4.700187982804753251e-01,-1.159934582233584097e-03,2.311075947173136733e-02,4.448174349550618537e-03,7.658737897872924805e-02
4.250645952561108998e-01,5.306147092869180071e-01,5.508194447860996767e-01,-5.364274972784111029e-02,6.289996842758133200e-02,1.607872061479314815e-02,1.869735270738601685e-01
3.852189544260268828e-01,3.738708340315040624e-01,5.822817028686050334e-01,-1.944706080856410668e-01,8.106556974467678256e-02,8.276738217067997061e-02,4.414990842342376709e-01
4.301460251254058398e-01,5.078064188011962576e-01,5.258530275571057233e-01,-1.541882487690831097e-02,1.930826417794730826e-02,1.759547587806041188e-02,1.025610715150833130e-01
4.263799850692693294e-01,5.303019789123379901e-01,5.274983610331388517e-01,-9.299019310787659878e-03,1.892677158166408344e-02,1.881044916495913655e-02,1.136303916573524475e-01
4.935650341054072521e-01,5.139162285004073016e-01,4.946367577777768254e-01,-4.091476404503600027e-03,7.122972087652814678e-03,7.173406004480382438e-03,2.739183977246284485e-02
4.271107342575203303e-01,4.049970892977046155e-01,5.331663808688005268e-01,-1.589627904435961248e-01,1.203845503278069551e-01,1.272100764686288077e-01,4.265139102935791016e-01
5.081708223745725617e-01,4.943032978533195565e-01,4.949126452016606725e-01,-8.513511860842324155e-03,1.129501831848441461e-02,1.040504937748498206e-02,3.330460190773010254e-02
5.104632425507112936e-01,5.213129784770120789e-01,4.790495506551082361e-01,1.216039611552494418e-02,2.015872404909518911e-02,-8.623712261862261433e-03,5.771672725677490234e-02
5.435708865758740460e-01,5.495525197653480243e-01,4.245433496412708285e-01,1.329594484553029907e-02,2.892921998074956397e-02,-3.837266320692373899e-03,1.341660618782043457e-01
4.497880563667387421e-01,5.430545547714353827e-01,5.174125706863882401e-01,2.633389837990880548e-03,8.706604773547626727e-03,-2.751968648979571941e-03,8.506204932928085327e-02
5.268970671917049264e-01,5.125701144923958674e-01,4.302600083023340183e-01,2.012115550917943640e-02,1.923790995764316364e-02,-3.264417126235873157e-02,1.169669553637504578e-01
5.332854980530027378e-01,5.390490942274197561e-01,4.596154702591461749e-01,2.836303092004853477e-02,3.750831443358138007e-02,-2.074498812761749189e-02,1.175166592001914978e-01
5.521060876197603218e-01,4.304386614495515628e-01,5.236404659107113391e-01,3.300610641850608429e-02,2.192954051871729218e-02,-4.206950680266945131e-02,1.488971710205078125e-01
5.037742495666561737e-01,4.529688850778088027e-01,5.144355655840316954e-01,2.794677211265779448e-02,2.159411745006828073e-02,-2.260563994081154007e-02,9.225795418024063110e-02
5.187092044931025381e-01,5.222105275670040347e-01,4.581311000554211810e-01,1.392515427405505504e-02,4.790510833482250659e-03,-9.050937307115187666e-03,6.921274960041046143e-02
2.918850444174946324e-01,5.364358087675195064e-01,5.494221139502777351e-01,-1.384641809929076928e-01,-1.504753741691870483e-01,-6.145997950471583648e-02,4.471319913864135742e-01
2.529107037752428844e-01,5.481724109356151953e-01,6.221832308538575163e-01,-1.376649006454092050e-01,-1.769898792607044469e-01,-9.198627654671760745e-02,5.391893982887268066e-01
5.295552861214360973e-01,4.967826484713008250e-01,3.509980813201440952e-01,-5.684600530561084025e-02,-1.072887366114474855e-01,-9.980881919154029058e-02,3.181467652320861816e-01
5.511642440136530485e-01,5.424296756263153885e-01,3.741775492021444660e-01,-2.742646009388248485e-03,-8.160416373633506276e-03,-2.162938706906678693e-02,1.774274855852127075e-01
4.718520089857887734e-01,5.519025086499265154e-01,4.357684438972756480e-01,-8.438563806315850513e-02,-1.005908929762004272e-01,-9.503094927722197105e-02,2.990144491195678711e-01
5.113174310572502490e-01,4.830220617285578277e-01,3.982498026136907510e-01,-5.984079207198866879e-02,-7.677844120431233377e-02,-1.037977125530213096e-01,2.667115926742553711e-01
4.360497362511306929e-01,5.808452784031020721e-01,3.467166283979561392e-01,-7.878304724741611031e-02,-1.787156749053032956e-01,-8.881700874991700634e-02,4.242461025714874268e-01
5.486222838506280564e-01,5.239743164809188558e-01,4.019066509211537963e-01,-1.571936442648318166e-01,-1.961041489783293401e-01,-1.237896041902217525e-01,5.039725899696350098e-01
4.266318911245174372e-01,6.717161151675127284e-01,3.322105054421732317e-01,-6.742786221586959117e-02,-1.979456813744789601e-01,-1.083294919561972880e-01,5.084444284439086914e-01
4.823823590681577955e-01,5.339369142349599251e-01,4.552964189578063148e-01,-1.020674274347968882e-02,-2.406106244093028992e-02,-7.810411264395519110e-03,8.378703892230987549e-02
5.397685941470860005e-01,5.372363672832185522e-01,4.488063870699455227e-01,-2.209792976522935350e-03,2.024287923233058714e-02,7.855390942719656100e-03,9.736165404319763184e-02
4.979714062636344529e-01,5.389475217449196665e-01,4.470710106715094501e-01,6.972006084054843157e-03,1.620565998740662941e-02,-1.148367160684184022e-03,8.540049940347671509e-02
5.388600883970442457e-01,5.488980389341070465e-01,4.398070537422464343e-01,-4.377064138631123463e-04,1.708015661857112399e-02,9.597037905305277894e-03,1.098118051886558533e-01
5.412540398028962141e-01,5.555864010359163885e-01,4.091503970050599515e-01,3.850043883409054690e-05,7.916494904767200011e-03,1.439494235671431345e-02,1.426877975463867188e-01
7.325865025962118304e-01,7.117527917948803795e-01,2.569203645424326665e-01,1.263103957099988295e-01,1.060280889233607554e-01,1.857379785037393816e-01,6.339298486709594727e-01
5.318878334055821000e-01,5.470424192073957137e-01,4.317019612473623202e-01,5.386862586349593085e-03,2.274450187788999017e-02,-1.275033042732867487e-02,1.179485097527503967e-01
5.643107160929662358e-01,3.285343543040648573e-01,6.255590224467975080e-01,-2.641920950218354727e-02,1.175837111927730862e-02,3.085007389475885251e-02,2.813301086425781250e-01
4.777685950845649843e-01,5.051816694710568045e-01,5.242708388303060074e-01,4.119210552281953736e-02,-2.213697359620886429e-02,1.860888105100337239e-02,9.611734002828598022e-02
5.310688731485048164e-01,4.981470953748552977e-01,4.631656330791242837e-01,-6.003234411757964184e-03,9.680929305527313095e-03,1.397605255007368374e-02,6.659178435802459717e-02
4.737533144586317801e-01,4.142379622018425578e-01,5.509966574949487494e-01,6.648566173513695277e-02,2.417040170352190154e-02,-1.169932029521852067e-02,1.718431115150451660e-01
5.374979680723062092e-01,4.560555663647368196e-01,5.168358356757228877e-01,6.058824315716111221e-03,-5.383409784859126065e-03,9.237524840296751014e-03,7.635497301816940308e-02
5.453807274402024952e-01,5.890303219983347160e-01,4.555447350105819027e-01,4.536842085799930313e-02,-5.832046336247049406e-02,8.685956464231636698e-02,2.300207763910293579e-01
5.363011306326309624e-01,4.599288861689114216e-01,4.991776219563889283e-01,4.854613088640327527e-03,-8.264561982195555920e-03,1.332019274180695594e-02,7.199695706367492676e-02
4.414478904484934740e-01,4.851760246420286915e-01,5.904212369487117362e-01,5.478931483444589301e-02,1.365583928143056843e-03,1.192325120597925205e-02,1.644036918878555298e-01
5.277886099130179032e-01,4.686015367916385177e-01,5.288552424617395387e-01,2.883286529882963384e-02,-1.744852801841162079e-02,3.056723201692058620e-02,9.888276457786560059e-02
5.917033570713007284e-01,5.260792903630493456e-01,4.431401807067718024e-01,1.915789825745821059e-02,-5.888547459111814590e-03,5.987907255680812585e-02,1.690852642059326172e-01
5.934855970435465311e-01,5.104966038544002105e-01,4.565045001553175164e-01,1.219491493358259085e-02,3.149140675384382720e-02,1.110767605622552806e-01,2.339198291301727295e-01
5.277490137677984805e-01,4.853396066184879620e-01,4.898764269485744172e-01,2.744105000761852108e-03,-3.237272431093740806e-03,4.972709225638038272e-03,4.189212620258331299e-02
5.224019248556395212e-01,4.874924331288535972e-01,4.893705523497715593e-01,3.093337974340496996e-03,-4.246852240090373543e-03,5.332906382729812357e-03,3.639737516641616821e-02
5.419053391146531062e-01,5.545219949344646349e-01,4.560956859517099060e-01,5.591329239212793067e-02,-5.271046580274719312e-02,8.191323148799842246e-02,2.155191600322723389e-01
6.746936228348342501e-01,7.413323499505899417e-01,2.385047481798065472e-01,1.073978261807829321e-01,5.930339855723717329e-02,9.765401091676931267e-02,5.454640388488769531e-01
6.244038014284724047e-01,6.133979313892831131e-01,2.380849280585629058e-01,1.527556059145430273e-02,-2.588288882555125903e-02,-3.144246644027067633e-02,3.883134126663208008e-01
5.169929105566657412e-01,4.933723205971548564e-01,4.905082195531168532e-01,-3.731805049670143364e-03,3.465344712995639936e-03,2.667976730464243634e-03,2.707298099994659424e-02
5.756145370723698695e-01,5.604470937119165885e-01,3.727291795345405445e-01,7.397326154901242082e-03,9.245843814856186116e-03,6.016737438714348787e-04,1.968171000480651855e-01
4.979612686519213627e-01,5.051842777372013149e-01,4.935527351285122211e-01,-4.727856957890563643e-03,3.115778731864806642e-03,2.544299933148232596e-03,1.480041909962892532e-02
5.357749460093246263e-01,5.387188224859660313e-01,4.332371955582556833e-01,-3.596538764216915696e-03,9.431177700962214278e-03,7.359067435989106315e-03,1.062667816877365112e-01
4.440842809228152666e-01,4.814426905740441520e-01,5.464576874755805447e-01,5.303219188141310853e-02,-3.908090099142730832e-03,1.832836688476442363e-02,1.324473619461059570e-01
5.267829666912364761e-01,5.999289914023401282e-01,4.012311452116059662e-01,1.557685716711139715e-02,-1.163291941481699870e-01,1.620015365321374190e-02,2.690908908843994141e-01
5.689154544818083581e-01,5.795718708928505603e-01,4.832420730985979573e-01,5.476173467026493324e-02,-5.019664583272078623e-02,8.560020194721140729e-02,2.165739983320236206e-01
5.285143095553997972e-01,5.663193763903204836e-01,4.311452225797861582e-01,1.723202822694812342e-01,-1.690749587057466252e-01,1.118859250149932955e-01,4.764328300952911377e-01
4.906150091376745848e-01,5.058765495193862094e-01,3.292829043497760289e-01,1.145415767917642574e-01,-1.347665794258491589e-01,1.719532470487446785e-01,4.596436619758605957e-01
5.483233391483377517e-01,6.520117966607252846e-01,3.628625651018003162e-01,3.945322855547834379e-02,-1.314516537095970217e-01,1.267606767038865490e-01,4.112058281898498535e-01
3.060427769859749292e-01,5.634639645856591716e-01,5.142392489134816058e-01,1.419549961345872580e-01,-1.314013967997826604e-01,9.331682373188314450e-02,4.409013390541076660e-01
4.991338457402009210e-01,6.539436210836335750e-01,2.684368466204058445e-01,-4.564411238417896699e-02,-2.289601756159822810e-01,2.179079870576598656e-03,5.257699489593505859e-01
5.807862944004708039e-01,6.894738959714106219e-01,3.020616712955224159e-01,1.276458834564578315e-01,-1.766948054932706846e-01,4.359699001583718786e-02,5.177257657051086426e-01
1.757594959361012399e-01,6.416389472638868163e-01,6.777388609086811844e-01,2.540150372695660838e-02,2.196948439063350911e-02,-1.860331425197399302e-02,4.894762635231018066e-01
4.016587744206067123e-01,5.281068275232068121e-01,4.843063406294389472e-01,7.532690785837115044e-02,-9.338946111707949194e-02,6.130066385705244120e-02,2.585142552852630615e-01
3.756670120515265276e-01,7.483713877966849948e-01,7.310149387055959735e-01,1.463024529847820054e-01,1.389649747681700465e-01,4.706105621259518840e-02,5.114021897315979004e-01
4.885669849316005009e-01,4.905029028350168518e-01,5.278499923460286958e-01,1.410033588615338318e-03,-7.910225446992841074e-04,2.742871190624227799e-03,3.874616697430610657e-02
3.836619971113192085e-01,6.055155623867863879e-01,5.842801363900202993e-01,-1.189643968935506432e-02,3.373563291205776415e-02,2.147200246157363046e-02,2.240106910467147827e-01
3.687011199325481159e-01,5.662352584799753563e-01,5.795015991353799079e-01,8.805644017981558574e-03,3.687678347406945362e-02,1.892507097552940595e-02,2.172626852989196777e-01
3.751701278671082940e-01,5.801733931528983979e-01,5.238266205377642981e-01,5.994726599464890449e-02,5.563704019244310184e-02,8.984135604487455615e-03,2.322921305894851685e-01
4.405005073303656093e-01,5.630785676226066627e-01,5.296654620257622570e-01,-4.086308763573882376e-03,7.186251743999329256e-02,-8.777304273236682941e-03,1.667932420969009399e-01
5.962495422685493152e-01,5.457895898877455076e-01,5.094703833217110178e-01,-8.633440317225574145e-02,2.508623140947368602e-01,9.025873716251679724e-02,4.912173151969909668e-01
5.648363453043198090e-01,5.474495394016865024e-01,6.105895089074669935e-01,-3.064293217133536029e-02,1.999393814866433916e-01,2.305416334828135350e-01,5.342131853103637695e-01
5.320301021369078232e-01,3.482905167352697284e-01,5.447750824652191071e-01,-9.982125864817524563e-02,7.272990372681027715e-02,1.269206369221156372e-01,3.610439598560333252e-01
5.796795254771455186e-01,4.794992192591925884e-01,5.470286805001023378e-01,-3.367508584837437119e-02,6.027060303729625534e-02,8.278333463591977526e-02,2.066158503293991089e-01
7.760346211030825225e-01,4.634212613244849122e-01,6.913827420728320128e-01,1.777995486373523323e-02,1.129068633519387244e-01,2.282884874203529590e-01,5.234203934669494629e-01
6.124224407098360912e-01,5.513216955710769085e-01,3.427431683794717743e-01,3.170534216412521089e-02,1.060057069711748366e-02,-4.443998106790091746e-02,2.631732225418090820e-01
4.995549403388911958e-01,4.990274583675500808e-01,5.004886326730871859e-01,5.772716797383908686e-04,-1.306831392518825871e-03,4.104486170057277034e-04,2.875948790460824966e-03
4.983548968740191265e-01,5.005664779498438799e-01,5.060411240725724014e-01,6.908502473959895595e-04,-8.229520920849305596e-04,1.187678727473321988e-03,7.393631152808666229e-03
4.968918384796240373e-01,4.961141685314516270e-01,5.084541192399542053e-01,1.158313189198846268e-03,-2.618961973218937242e-03,7.689864731729857510e-04,1.302531082183122635e-02
4.753356136338466320e-01,5.229855342090781178e-01,4.745794143583312308e-01,2.663182402619118216e-03,-5.824072411724280987e-03,3.987053873663143518e-03,4.977797344326972961e-02
5.023318672016815478e-01,4.830843971462514541e-01,5.085324707975383829e-01,7.247741714375192934e-03,-9.386414670485161357e-03,4.759139222599709403e-03,3.190784156322479248e-02
4.858455948430935312e-01,5.118174255633320957e-01,4.865145865190450003e-01,5.024633852864118441e-03,-5.238097832781805907e-03,2.023246573011843515e-03,2.877399884164333344e-02
4.982969401312460356e-01,4.953424641506537496e-01,5.086443052503752948e-01,1.655456233294824242e-03,-3.978990579662430860e-03,1.408886955114414460e-03,1.442364510148763657e-02
5.064584603813093722e-01,4.976304932906877032e-01,4.962170585692461944e-01,1.724137574143581571e-03,-4.387732446187501099e-04,-2.219306525077023140e-04,1.010207086801528931e-02
5.244352206404996330e-01,4.881605493669499141e-01,5.099602574710379033e-01,-9.827031604745285059e-03,1.463773259566573774e-02,1.457570799137432316e-02,5.069671571254730225e-02
3.717192339071526686e-01,5.377103630539066259e-01,4.775028593856068815e-01,-8.125553612285472960e-02,1.821484995676716234e-01,1.118214154444245323e-01,4.219452440738677979e-01
4.822719290992393271e-01,5.373713619951359100e-01,4.410600624155058269e-01,2.599911877990890297e-02,4.791839292781525927e-02,-2.551750955056801898e-02,1.336971372365951538e-01
4.850876668176786199e-01,5.329121186240352026e-01,4.898432687342751946e-01,1.300590644226846471e-03,1.557577050692212457e-03,1.376924681912261540e-04,4.576865211129188538e-02
4.795847990263276128e-01,5.235819614130261535e-01,4.764518380762604588e-01,1.076474305196435492e-02,1.879063413842956345e-02,-8.173354921637936837e-03,6.075130775570869446e-02
4.657377296591292404e-01,5.497809014783922033e-01,4.996325103285086389e-01,-2.143449627068511228e-03,2.809969520807740345e-02,1.138550711923555590e-03,8.803372085094451904e-02
4.583737331828258710e-01,5.042949489104953109e-01,6.136608326726817886e-01,-1.089092725611506829e-01,4.519480642446890156e-02,4.865223349079920989e-02,2.605847120285034180e-01
6.284603177464194168e-01,7.436769088774195513e-01,4.630875676437131716e-01,8.228907966149690001e-02,2.245997123645353255e-01,3.280937826937220525e-02,4.843094348907470703e-01
5.994671656520480507e-01,5.792042382180365712e-01,2.706452772312663013e-01,2.687233192703209622e-02,5.102664548565261776e-02,-8.138947221464368220e-02,3.629349768161773682e-01
5.580870377553004413e-01,7.428752940429226292e-01,2.594140855915970656e-01,-8.620960591049437252e-03,1.266864428604346504e-01,7.871137586953819154e-02,4.954808354377746582e-01
5.508079048087666241e-01,4.991903597290819894e-01,4.554849090332031558e-01,7.318363927058862441e-03,5.146918980911638700e-03,1.637736432018135208e-02,8.874292671680450439e-02
4.815988578849240143e-01,5.388877018668385421e-01,5.323753399052512103e-01,-3.847936990499574439e-02,5.822023731843374572e-02,8.431613968629633749e-02,1.972048282623291016e-01
3.151028683435926903e-01,5.224884986642357454e-01,5.714827247860996273e-01,-1.228521586962895568e-01,8.712844395972844935e-02,6.049402892816418270e-02,3.668794929981231689e-01
4.887673649376862439e-01,4.936810236041899169e-01,5.264644736744542586e-01,1.753910197219889309e-03,-6.100492583992712589e-04,2.026048539980946153e-03,3.581403568387031555e-02
3.657208831159944884e-01,5.766420169180288546e-01,6.107528765654270941e-01,-6.538713855118026552e-02,2.156246967874838119e-02,1.539163928981566835e-02,2.603419721126556396e-01
4.713340716554951237e-01,5.466272626701693671e-01,5.381557422877601971e-01,-1.786149781142821677e-02,3.507639030765291599e-02,2.323431533178237432e-02,1.066332161426544189e-01
4.567198957036833762e-01,5.388304685814223616e-01,5.016149450568573309e-01,-7.710491310752735699e-04,1.364465870949450703e-02,4.886987764015575386e-03,7.552029192447662354e-02
3.520760533917430823e-01,5.780784890399821574e-01,5.663764365890151531e-01,3.544087436595007995e-03,-7.740479270475129903e-03,9.792864967491630296e-03,2.215275913476943970e-01
3.772821102736440002e-01,5.538328552659828041e-01,5.584650371600361485e-01,-8.241789149902615727e-03,1.315504277998298839e-02,1.367342707938426147e-02,1.824644356966018677e-01
3.845715872702475391e-01,5.404173677696071376e-01,5.585438074212876192e-01,-2.048300996330263898e-02,1.638437333291698286e-02,1.386973850039079255e-02,1.734431236982345581e-01
4.360065586820343619e-01,5.299818455045786081e-01,5.260837659045415338e-01,-7.623797544359693472e-03,1.475056092980504482e-02,1.500595559320300892e-02,9.991429746150970459e-02
4.589857574654203631e-01,5.380181887817560016e-01,5.020860697855614729e-01,-3.858085605619519191e-03,1.080452363553929124e-02,5.796990183883458936e-03,7.206332683563232422e-02
4.209501906330638810e-01,5.468600796142546461e-01,5.282125391186915930e-01,4.978304421654120709e-03,2.083263458933800813e-02,4.384389316915007079e-03,1.236411631107330322e-01
5.032520693178282878e-01,4.803289507026889393e-01,5.204499857034540211e-01,2.839752086219686847e-03,9.251787750182637396e-03,-2.569870589237396429e-03,3.893917798995971680e-02
5.277109325765396708e-01,4.403788500186520682e-01,5.135803440723532010e-01,1.375481153770635560e-02,1.671621930493410665e-02,-1.272226988530744500e-02,9.210842102766036987e-02
5.049275026621372620e-01,4.822912542061242869e-01,5.207999029339143160e-01,1.511251191141995548e-02,1.215271380357245239e-02,-7.280624275860727787e-03,4.910067468881607056e-02
5.001560716395219153e-01,4.948066350295985960e-01,4.923938878302004940e-01,7.105989794420895442e-03,5.855397666375462655e-03,-7.204848898975811135e-03,2.138729766011238098e-02
4.898126544521280712e-01,4.857623338495055676e-01,5.101987040391841033e-01,1.251668292327920082e-02,1.134318877523355501e-02,-8.622436081822401968e-03,3.992006182670593262e-02
6.185786818275527121e-01,3.493402288412738033e-01,5.628835483980189069e-01,-1.882521221349325868e-02,9.730691642343160946e-03,-9.541061183574832405e-02,2.987520694732666016e-01
6.821733175894326706e-01,2.970353224582764629e-01,5.270528923091052365e-01,-1.016655835665309093e-01,-1.160684629721326147e-02,-1.638379061454956209e-01,4.739105999469757080e-01
4.696929335247436166e-01,5.066420256808999989e-01,5.277124659952853181e-01,2.348908978202012346e-02,-2.124159707986803675e-02,2.112550433294782884e-02,8.327917754650115967e-02
4.712694481121383894e-01,4.911528684855788196e-01,5.286989194051071594e-01,1.935097023519360623e-02,-1.184145913092220226e-02,1.194920356507553870e-02,6.726062297821044922e-02
4.774319104527133262e-01,4.861356006619333425e-01,5.259998968319923307e-01,-4.736943447779755519e-03,3.247792252866974969e-03,5.356026237088334918e-03,4.687114432454109192e-02
4.667697918323632789e-01,4.710907418625362997e-01,5.590382454532693002e-01,-6.645195404397610806e-02,1.234801301575577659e-02,6.019921339668904241e-03,1.481457948684692383e-01
5.250772763088714656e-01,4.845528854319886558e-01,5.231910960530168353e-01,2.822932564768266400e-02,-1.108425485276330787e-02,2.423719321609201990e-02,7.804446667432785034e-02
5.336959564110974608e-01,5.254771005361091873e-01,4.345113420981179253e-01,-9.312983006968646518e-03,2.161525237780267950e-02,3.767322476498326939e-02,1.225137561559677124e-01
5.001178403374160197e-01,4.840620837502490614e-01,5.190496225648960626e-01,-3.078381708963261187e-03,5.905362407222072840e-03,2.008897644488442588e-03,3.263923898339271545e-02
4.934652925685490410e-01,4.746249383636806374e-01,5.255421106220566907e-01,-4.107264452195465328e-03,8.744462673700992283e-03,3.223775197944664470e-03,4.795209690928459167e-02
4.972707279403851266e-01,5.111212381768782675e-01,4.927345549306264005e-01,-3.903361905538477693e-03,2.391459462249272572e-03,2.778515121861977605e-03,1.900705695152282715e-02
4.974178101209680292e-01,4.972468526968698010e-01,5.032311976556189670e-01,-4.771725318497066276e-04,2.130123402647238727e-03,1.351683396472602803e-03,7.388846017420291901e-03
5.090041749309205388e-01,4.859371851606993920e-01,4.767195048001157121e-01,-1.966826645788338074e-02,2.452855260603304180e-02,3.249141756903674988e-02,8.343994617462158203e-02
4.605621715289345275e-01,6.153821648956745438e-01,3.807789838126596216e-01,-2.811643984436280538e-02,1.939452027891842290e-01,5.797172206669127387e-02,4.098592698574066162e-01
5.990185220231903918e-01,1.897452129584352165e-01,5.951179664680632531e-01,5.085605078353638842e-02,1.911998914858348969e-02,2.281224438437488497e-02,4.199290275573730469e-01
5.501353772917135787e-01,4.218641760065486301e-01,5.235293940273799684e-01,2.736595846260600094e-04,5.692985498870021047e-03,2.604276592129058099e-02,1.260187625885009766e-01
5.615450174564048380e-01,3.759053435028404389e-01,5.705383868986124707e-01,1.776543983042903896e-02,9.016302351842028079e-03,3.773531562096981481e-03,1.935095041990280151e-01
5.440428552058327316e-01,4.021577313347180493e-01,5.576892122996089940e-01,3.414150052067974842e-03,3.186370913833904382e-03,5.111579972888980958e-03,1.496584117412567139e-01
5.574671047333055185e-01,3.186810530031937150e-01,5.663112772276086559e-01,1.177919104852998868e-02,7.885349154007962463e-03,8.562962693698782796e-03,2.450135052204132080e-01
5.385770791581492301e-01,4.763564238098570991e-01,4.682483952974191843e-01,3.628492601300061914e-03,-4.004751164838007038e-04,-2.352721929367107036e-03,6.706878542900085449e-02
5.362235348543353819e-01,4.688067730172676972e-01,4.671984438463462341e-01,-3.701538976190848194e-04,-4.833817192871332178e-05,-7.553926447776146760e-04,6.825074553489685059e-02
5.394220880895799208e-01,4.627579862099896468e-01,4.710586242739399632e-01,1.555403964486223216e-03,1.190248941034340816e-03,-4.032601928893177895e-03,7.328177243471145630e-02
4.939407081600730720e-01,4.945686653186815995e-01,5.225432477043876478e-01,9.548876819312017081e-03,-4.213017632246987727e-03,7.749121820637649288e-03,3.615904971957206726e-02
5.536299738800529724e-01,4.828372896921847013e-01,4.784700169994549057e-01,3.007980258397083967e-02,2.450274216091110485e-02,-4.646469746916263854e-02,1.277978420257568359e-01
5.105242712578298425e-01,4.902261506202060803e-01,4.663362998330841669e-01,2.095935593336120326e-02,2.243711971693976640e-02,-2.556851406130370222e-02,7.910158485174179077e-02
5.418942070346405293e-01,4.977089307613353220e-01,4.504978902888752135e-01,6.561811659973553965e-03,-1.773968845847971208e-03,1.572463286985259501e-02,8.454383164644241333e-02
4.655137995775456838e-01,5.454304417749695766e-01,4.992191787573240780e-01,-1.653551021116111963e-02,2.636974230501152108e-02,2.581954104295263591e-02,9.866816550493240356e-02
5.170603951941162846e-01,5.252945340400125840e-01,4.684550328056272805e-01,-8.299295594155271794e-03,6.353116249969191845e-03,6.933095290572204548e-03,5.746677517890930176e-02
5.382152412919161133e-01,4.990379877174721535e-01,4.747193097921889038e-01,-1.500595250639683194e-02,1.508556204008293551e-02,2.776099701288265234e-02,8.215395361185073853e-02
5.364742177844536997e-01,5.014332159217149698e-01,4.760523806889211396e-01,6.468351602989966774e-03,-5.863280333413407571e-04,4.518903663769817218e-03,5.430690571665763855e-02
5.043843481447194410e-01,5.003320611883395053e-01,5.003642077420871193e-01,-1.322802552230103491e-02,1.084535025590363869e-02,6.929500875346911171e-03,3.222037479281425476e-02
4.962761641532028589e-01,5.110206832877123295e-01,4.936475270027530504e-01,-3.608480308742805908e-03,1.287446606828896193e-03,3.016497849470318234e-03,1.828666962683200836e-02
4.925630623184996670e-01,5.149580371209951934e-01,4.966049623667635471e-01,-2.979278903894473727e-03,6.538020807533142208e-03,9.697520844150094715e-03,2.939974144101142883e-02
4.995601419977529489e-01,5.058791935935265105e-01,5.012444254545187494e-01,-8.586236710144462894e-03,1.098730008442981229e-02,1.265741910905393217e-02,3.310721367597579956e-02
4.976864009366331887e-01,5.026832600862655154e-01,4.994005385415624665e-01,-5.375729731505728701e-04,4.478346795486987607e-04,2.343670907893251418e-03,6.106436718255281448e-03
4.950134227120844832e-01,5.028089672777731334e-01,5.014619732078295922e-01,-1.842907699310347659e-03,2.650724381441694772e-03,5.247390521404549958e-03,1.288245432078838348e-02
5.107585399237208890e-01,4.997135458874881198e-01,4.757266376415352771e-01,1.059549250757018703e-02,4.772240080560603837e-03,-7.007125868258636328e-03,3.891933336853981018e-02
5.180380840970726375e-01,4.730971338119116520e-01,4.963829182582596977e-01,3.230614690372717902e-03,1.116734173139352117e-02,-5.790456841470204528e-03,4.496063664555549622e-02
5.187057977756136529e-01,4.943341997277043154e-01,4.861917473294735670e-01,4.574602500590939022e-03,1.694983831641089927e-03,9.267623823134235692e-04,3.054006211459636688e-02
5.231767763358494694e-01,4.808765813606719064e-01,4.823493810604321252e-01,1.985577737254482378e-03,3.525954272932317352e-03,-1.524161953907652743e-03,4.225245118141174316e-02
5.180271271810406031e-01,4.868261319496105521e-01,4.824552439516228697e-01,1.655136621467219243e-03,6.811030792160220485e-04,1.300572954150502804e-03,3.381815180182456970e-02
5.314579913134352962e-01,4.855112193658017716e-01,4.766190843247056774e-01,4.713528393433332603e-03,1.060994771715082245e-03,-1.520400129345888694e-03,5.172721669077873230e-02
5.074108646662442990e-01,4.852997340290637340e-01,4.990011954090713964e-01,9.095809352092724606e-03,9.577114831686907997e-03,-1.312434094161655899e-02,3.760035708546638489e-02
5.298394988679063777e-01,4.762557892018687844e-01,4.754612089704308708e-01,3.466201513319244342e-04,1.216444825710927052e-03,6.132664541705225942e-04,5.404026061296463013e-02
5.348883245262603392e-01,4.762398767202568051e-01,4.705760783740600695e-01,3.438781783858417540e-03,1.164392328009674965e-03,-2.445872007978098193e-03,6.214001774787902832e-02
4.967481242272180353e-01,5.034528894828458334e-01,5.002753999254465622e-01,3.577880468427926518e-03,1.258473957567563624e-03,-3.498176204246808245e-03,1.065892446786165237e-02
5.403050416731138839e-01,3.768412384996568387e-01,5.641622760518851809e-01,4.345261454719551511e-03,-1.310294457260630444e-02,6.833581453197719313e-02,2.139402478933334351e-01
5.259226369796524692e-01,4.487220542729722927e-01,4.868736105661183311e-01,-1.045990558788293182e-02,1.502220789209121089e-02,2.051754988358384449e-02,8.208706974983215332e-02
4.901132766797084983e-01,4.313502184971489961e-01,5.553226659785098773e-01,-3.822181285005742113e-02,2.691475149291309293e-02,2.099810068179773503e-02,1.393411606550216675e-01
5.270002281806841493e-01,4.853599349784181727e-01,4.939734319849187760e-01,-2.861827502775176040e-03,5.210868249416731636e-03,2.389749827642826275e-03,3.965602442622184753e-02
5.234624251428556807e-01,4.099082624650422502e-01,5.168785096313268657e-01,-4.584373833378377339e-02,2.434852715152309444e-02,4.248721297928685636e-02,1.602786630392074585e-01
5.157516799104600036e-01,4.506096760017730962e-01,5.349154825752066023e-01,-2.329730311263336975e-02,1.941553591725182423e-02,1.973182952243826907e-02,9.892582148313522339e-02
4.866783500211185887e-01,3.869533475956385971e-01,5.795893378529068940e-01,-7.489046986874398071e-02,6.848771191010083643e-03,1.524932014620687323e-02,2.133240848779678345e-01
5.516736441809443336e-01,2.334421068761720341e-01,5.887850259779937589e-01,-1.038034530849023668e-01,2.914124681000286599e-02,8.123517901897647775e-02,4.112531542778015137e-01
4.802048134603477125e-01,4.937827138920858339e-01,5.344295740984046361e-01,7.592140039166719173e-03,-1.810306860383757103e-03,7.457040893770239959e-03,5.232591554522514343e-02
5.675688618678011998e-01,5.644516165081022718e-01,4.906978999327815671e-01,2.269661436033237334e-01,-8.441178627877160556e-02,1.372643069914785685e-01,4.879760742187500000e-01
4.134608370221461437e-01,5.336546178185581635e-01,4.904222704143119671e-01,2.266807005888380605e-02,-4.519994728064066769e-02,2.223713987494160133e-02,1.423847675323486328e-01
5.995191510910398147e-01,4.235919676265221812e-01,5.608168515655227448e-01,6.090505784306101539e-02,2.806130885608582558e-03,4.219855685972894593e-02,2.052644938230514526e-01
5.375969881169756492e-01,4.380098504229499867e-01,5.551633343758048955e-01,5.092750298333297704e-02,7.633293890929280200e-03,3.436079497639848296e-02,1.532095968723297119e-01
5.321872897526772617e-01,4.840830291104186722e-01,5.597355670033739017e-01,1.012164235170600335e-01,-2.899722061872938086e-02,6.235294498131944280e-02,2.220779061317443848e-01
5.240862850268653839e-01,4.657388197591618706e-01,5.162981269146663665e-01,3.033878177006234592e-02,-1.167242063574644266e-02,2.670980810254501223e-02,9.121932834386825562e-02
5.752963239101472892e-01,4.213324625141883217e-01,5.082754634954379513e-01,4.291041213086865119e-02,-2.790729856792796559e-02,6.597472140602793356e-02,1.969675868749618530e-01
4.929234301550602937e-01,4.999264828630198831e-01,5.064384416399293487e-01,-2.658179091679884051e-04,1.567405276710629250e-03,4.835668373036857912e-03,1.465555373579263687e-02
4.701490650670648863e-01,4.736581273554206217e-01,5.222481538852834504e-01,-2.012423380386144794e-02,6.986757331702159353e-03,8.608630415427654878e-03,6.424588710069656372e-02
4.988013926393215502e-01,5.058103719360150796e-01,4.993288394141425779e-01,-4.612541772725662487e-03,4.516935721789698023e-03,4.382012466524734876e-03,1.511118747293949127e-02
4.895032052765982966e-01,5.042636714029222755e-01,4.927119251053644344e-01,-8.804276166578490354e-03,1.076776926410745287e-02,8.303983314590685991e-03,3.111356310546398163e-02
5.029174798235368504e-01,5.056004786461136824e-01,4.920142687999846109e-01,-6.266721125866216158e-03,2.282928422714079059e-03,1.860492337617432974e-03,1.729643717408180237e-02
5.017501015886728366e-01,5.021247722511448242e-01,4.836554216504199699e-01,-9.327169728936872406e-03,6.791818376648986987e-03,5.949381712584917402e-03,2.898098528385162354e-02
4.920769509839818534e-01,5.091246357198450090e-01,4.952242991344673606e-01,-2.244181868161606447e-03,3.418039712493562733e-03,6.494075254556445562e-03,2.058036625385284424e-02
4.772738513875131039e-01,5.035521271803049537e-01,5.302280555192668832e-01,-1.368029014699583511e-02,1.252314303888274472e-02,1.480705001557111079e-02,6.158599629998207092e-02
5.027334027484696710e-01,4.828831728801476486e-01,5.135570216331154514e-01,-1.265115599257506454e-02,9.817936142182097023e-03,7.722524936085653144e-03,4.091792553663253784e-02
5.221770327108214982e-01,4.700349784967964295e-01,5.137492846021999293e-01,8.851692059776677945e-03,-1.025915690672872006e-02,6.607286766381170739e-03,5.506503209471702576e-02
5.568049230652496462e-01,3.521290590697850886e-01,5.320542695503976960e-01,-1.168639902304935280e-01,-1.216015173110089470e-01,-1.683977770981196775e-01,4.558999240398406982e-01
5.867736157988530099e-01,2.745719970384669084e-01,4.228050659918807241e-01,-9.917511340573775813e-02,-6.322927857157301101e-02,-2.182502725118178610e-01,5.075083971023559570e-01
4.953133156108741053e-01,4.981055522383766032e-01,5.172530321317937441e-01,6.449140225021497870e-03,-7.119179622626408549e-03,8.066840109065337092e-03,2.999885007739067078e-02
5.384883158451491125e-01,5.316944663120362069e-01,4.290368867407664544e-01,2.411498473153969244e-02,2.275589701804507647e-02,-6.890105838301139110e-03,1.213370785117149353e-01
6.682925770322571957e-01,2.510647304851543193e-01,6.001738546362660465e-01,-1.331738811647493748e-01,-1.078575423217821398e-02,-1.222055598435212581e-01,4.986538290977478027e-01
5.395185896169738538e-01,3.861973575573758310e-01,5.147976993167268089e-01,-3.670519736572286362e-02,-9.529959871499573201e-03,-3.924046243653363936e-02,1.710613965988159180e-01
5.848327684499774470e-01,3.175280299494636083e-01,5.148215593878748830e-01,-8.186618140299246893e-02,-3.060894214861688625e-02,-8.031038107240909274e-02,3.160779476165771484e-01
5.670912281773184960e-01,4.333706846260464429e-01,5.070614021826367335e-01,-7.454169777764932392e-02,-5.437356489285930655e-02,-1.149178271992171430e-01,2.803831398487091064e-01
5.158381459290694027e-01,4.938581387296330782e-01,4.865688788560094680e-01,1.191744944996118126e-02,-1.231829402125474149e-02,1.062084181693933281e-02,4.377415776252746582e-02
5.444586785117331296e-01,4.507117314463657820e-01,5.176910813112235443e-01,1.395727983761145367e-02,-1.030844303876684610e-03,7.542991684799900572e-03,8.805628120899200439e-02
5.455936638377434367e-01,5.412777960993183646e-01,3.997523582997636882e-01,1.408642502469583183e-02,3.713791444105611367e-03,-2.003975617995383540e-02,1.500010490417480469e-01
5.525281300874110846e-01,5.049962924304516321e-01,4.739276812707488573e-01,1.847921011393948570e-02,-5.167943836840912901e-03,3.144181807143465318e-02,9.365689009428024292e-02
5.392489430985507592e-01,4.490956721564731136e-01,5.229001669822249676e-01,4.876963276307701330e-03,-3.647413157423244102e-03,1.744475177586779502e-02,8.913597464561462402e-02
5.258496445454915458e-01,4.830583320117606272e-01,5.211088771160428124e-01,2.274503001749845696e-02,-1.072879776791332840e-02,3.000374245961022132e-02,7.904879748821258545e-02
5.234612881760360992e-01,5.033778194204553413e-01,4.757309487152259764e-01,-7.556030996636136504e-03,8.484654562572989389e-03,1.243110113992309737e-02,5.073249340057373047e-02
5.520294232070719342e-01,5.055282487621167720e-01,3.905822873876378387e-01,-3.026743007557633133e-02,1.470101755477051797e-01,1.597368141550036813e-01,4.060196280479431152e-01
5.180495010427543789e-01,5.308679917457871378e-01,4.464724140516871942e-01,1.607434166110537771e-02,8.719655384131358433e-03,-4.250287658917040017e-03,8.522059023380279541e-02
5.037625010323758534e-01,4.900231208149479767e-01,4.950164844942932518e-01,-1.003708299845730914e-02,9.206442328781519815e-03,1.284454757200585544e-02,3.459119051694869995e-02
4.901372328621560470e-01,5.109762523546748092e-01,5.085955225881882980e-01,-8.974224573677603081e-03,1.041087021964741573e-02,1.121539298022095066e-02,3.653004765510559082e-02
5.134086450652395328e-01,5.217068480636696259e-01,4.405975457121978911e-01,-1.031760821063418439e-02,2.056246164625271863e-02,1.003515953788480623e-02,8.868164569139480591e-02
5.074248448672873391e-01,4.886022411102112772e-01,5.043804256403608965e-01,-2.980168685846247903e-03,8.758707645200760131e-03,2.350592360079740203e-03,2.407529763877391815e-02
5.209666321458031879e-01,4.908924436685785375e-01,4.933644777350837396e-01,1.537487974564689616e-04,2.734469643206843912e-03,5.738007302525679034e-04,2.932087890803813934e-02
5.101293976388210361e-01,4.930280930046616605e-01,4.977524980955105871e-01,4.889473064312692407e-04,4.136423230639641249e-03,7.405305597386087476e-04,1.696093939244747162e-02
5.154751329403445270e-01,4.924631142062151357e-01,4.982432277704227919e-01,-9.668980485591720892e-04,2.150908252602775489e-03,2.430277116849030236e-03,2.154885791242122650e-02
4.922512311076897573e-01,4.671323750679175490e-01,5.368923362137031363e-01,-1.753007662858127244e-02,3.165644420572525600e-03,1.237143805891092151e-02,7.180704176425933838e-02
5.160183222205829701e-01,4.888789986437546142e-01,5.124123147847025050e-01,-4.225914974604427776e-02,3.711975130003929146e-02,4.684359724396810337e-02,1.293282061815261841e-01
5.243242975111450654e-01,4.995158421825547368e-01,4.852979603478586590e-01,-4.483850919088634354e-03,2.719048171195760644e-03,3.034866652154964792e-03,3.578347340226173401e-02
5.475009999595163990e-01,5.376247338778915585e-01,4.096117936634749435e-01,1.500312982002032121e-02,5.896316504155316857e-02,-6.419344953287721423e-02,2.030191719532012939e-01
3.492866586932142359e-01,6.883642675871975980e-01,6.121181318647448411e-01,6.385660347594566966e-02,1.572081769035059973e-01,-2.628786965095314399e-02,4.282325506210327148e-01
4.235460545386952602e-01,5.631515151722064072e-01,5.313485964652594484e-01,2.177245384483899541e-03,1.987116191274806640e-02,1.453630853767488851e-02,1.337683498859405518e-01
4.631978088416164874e-01,5.322201766606358131e-01,5.013816471647956075e-01,4.245269134929873997e-03,1.128220998217242810e-02,-6.693228990640542539e-03,6.447389721870422363e-02
3.125648697977798651e-01,5.529926322888578660e-01,5.840886184341076426e-01,-5.449898336348726197e-02,-2.335791752796301940e-02,1.217357311493205523e-02,2.779219150543212891e-01
4.038060610858369981e-01,5.265809506751417679e-01,5.355793008810959543e-01,-9.761455444967682971e-03,-1.262265109908440944e-02,-1.033455641241774747e-02,1.316953897476196289e-01
4.206852018760520728e-01,5.237834125569190702e-01,5.052328111143673528e-01,-7.335582138296834268e-03,-1.727287002027813601e-02,-1.572414447881555558e-02,1.042068451642990112e-01
3.762340079892572686e-01,5.517576542350268731e-01,5.506971102603401835e-01,-7.308946166842609365e-03,-2.097566489732473685e-02,-1.657988796251766558e-03,1.791981309652328491e-01
3.885436052170049837e-01,5.651860791229597059e-01,5.305102232219388592e-01,-5.090549136744420243e-03,-1.211756370024958188e-02,2.831498750707051428e-04,1.637016683816909790e-01
4.040612053550026728e-01,5.649992512652198817e-01,5.113503960982196395e-01,-2.574186104661403251e-03,-2.588624727847313456e-02,1.605240235542233253e-03,1.489396393299102783e-01
5.226879305888579852e-01,4.732764220508017816e-01,4.619400982324214366e-01,-2.862999400750673717e-02,-4.957281954510352195e-02,-5.491800573332322744e-02,1.483561247587203979e-01
5.446885664053430220e-01,4.489290940062571345e-01,4.809168689091455895e-01,1.399217641980013936e-02,8.420515337144428639e-03,-3.682749879532237758e-02,1.095390990376472473e-01
5.489777820006207509e-01,4.882042069404823881e-01,4.544128336092744247e-01,-7.381012356224922119e-03,-9.167970649247998358e-03,-2.951499363595431677e-02,9.958867728710174561e-02
5.661397412245703364e-01,4.711164499388465488e-01,4.819657133139999550e-01,1.430635087152185361e-02,1.313290199804188763e-02,-5.007877759589460243e-02,1.295039951801300049e-01
5.428348970609560009e-01,4.226530755806071071e-01,5.127453803896341311e-01,5.613151854618009425e-03,1.736087614610502469e-02,-1.695557940602620411e-02,1.165934577584266663e-01
5.309689514902407037e-01,4.612579375307161444e-01,4.834759901902704882e-01,-1.386419465963798121e-02,-1.186784614896638050e-02,-2.476510856998708279e-02,8.150792121887207031e-02
5.532568739605072672e-01,4.040525715060072076e-01,5.075346943022205348e-01,-1.616113922446114470e-03,3.908034404667270513e-03,-2.662386640438962893e-02,1.403945833444595337e-01
3.073165595736419009e-01,6.382539519323843225e-01,5.302562063488758248e-01,-1.641772756883645712e-01,-1.473997100683256123e-01,-5.002474449735869189e-02,4.888686537742614746e-01
3.588190592290991798e-01,5.793758801820789728e-01,5.198979601596238620e-01,-1.718461304911221565e-02,-8.735438276241849764e-02,-2.627704880623962444e-02,2.547830939292907715e-01
3.882402865650124157e-01,6.081514845068890507e-01,5.210020927860541384e-01,-4.198528935590958161e-02,-9.551024105126205976e-02,-2.050600899985495496e-02,2.659083008766174316e-01
3.249248810607008320e-01,5.556333832869732037e-01,5.585624947984889621e-01,-5.870522979420182696e-02,-6.633176293656688205e-02,-3.312718964237722219e-02,2.841506898403167725e-01
3.762253536000113585e-01,5.500051669663936771e-01,5.740874701450511264e-01,-7.012014991222843829e-02,-7.046535178048955739e-02,-2.798064596225013217e-03,2.542331516742706299e-01
3.608232537173639565e-01,5.630235722527817677e-01,5.552892873857008249e-01,-4.437169118792796269e-03,-8.434042011828984942e-03,3.957518772916849593e-03,1.992495059967041016e-01
3.136956225174084567e-01,6.397988333543218609e-01,6.051489950792937611e-01,-3.482710255273183120e-02,-4.099868419685960552e-02,2.701234964960442381e-02,3.272842168807983398e-01
2.363915704468585455e-01,5.763669546705456614e-01,7.266574840755182230e-01,-6.950316329268749205e-02,-5.758664662959517289e-02,-2.275158795949185422e-02,4.639603793621063232e-01
2.260862507485131845e-01,5.994836196941903950e-01,6.285528048347961416e-01,-7.802459844836091840e-02,-4.458965098063700366e-02,1.400380562130628358e-02,4.194538295269012451e-01
5.608836250233435461e-01,5.405302306478494412e-01,3.673073657675225978e-01,1.103838854133307526e-02,1.896948882491874405e-02,-4.358105238297447365e-02,2.027044147253036499e-01
5.185196958372879639e-01,5.481151008412441517e-01,4.693632019818133605e-01,-4.158741510903399968e-04,1.054713535717111475e-02,1.426549123247427935e-02,7.544410228729248047e-02
5.144779632185567664e-01,4.926620900737521680e-01,4.780182583088097292e-01,-1.571564864751357621e-02,2.521115200418190191e-02,2.627523131596921219e-02,7.568854838609695435e-02
