sxx,syy,szz,sxy,sxz,syz,smises
-2.531658011505841244e-02,-2.531658011505841244e-02,-1.100068397698834438e-01,-1.290257782653536836e-52,-6.368564411255350936e-53,-6.368564411255350936e-53,8.469025790691375732e-02
