sxx,syy,szz,sxy,sxz,syz,smises
0.000000000000000000e+00,0.000000000000000000e+00,0.000000000000000000e+00,2.072704397004130770e-67,-3.133537356100733075e-67,-5.222562260167888020e-67,0.000000000000000000e+00
