sxx,syy,szz,sxy,sxz,syz,smises
4.894255398321296219e-03,4.894255398321296219e-03,-3.978851079663907331e-02,-3.303950523414529631e-52,-1.653457684050708715e-52,-1.653457684050708715e-52,4.468276724219322205e-02
