sxx,syy,szz,sxy,sxz,syz,smises
6.329303740087940944e-02,6.329303740087940944e-02,-5.465860748017592474e-01,-9.652484787668806098e-52,-4.488405426265930511e-52,-4.488405426265930511e-52,6.098791360855102539e-01
