sxx,syy,szz,sxy,sxz,syz,smises
1.217279999999874504e-03,1.217279999999874504e-03,-2.434559999999710411e-03,3.612959999999996227e-03,-1.210799999999996879e-01,-1.210799999999996879e-01,2.966727018356323242e-01
