sxx,syy,szz,sxy,sxz,syz,smises
1.133333333333333762e-02,1.133333333333333762e-02,-2.266666666666671687e-02,1.000000000000000194e-02,2.200000000000000011e-01,2.200000000000000011e-01,5.402370095252990723e-01
