sxx,syy,szz,sxy,sxz,syz,smises
-4.283863910906822448e-02,-4.283863910906822448e-02,-1.977527217818635386e-01,2.349726828276547853e-52,1.147816748917988619e-52,1.147816748917988619e-52,1.549140810966491699e-01
