sxx,syy,szz,sxy,sxz,syz,smises
-2.191544298782824307e-02,-2.191544298782824307e-02,2.838308859756575320e-01,1.370214688952730087e-85,0.000000000000000000e+00,0.000000000000000000e+00,3.057463169097900391e-01
