sxx,syy,szz,sxy,sxz,syz,smises
0.000000000000000000e+00,0.000000000000000000e+00,0.000000000000000000e+00,4.161729301071286373e-67,2.089024904067155603e-67,2.089024904067155603e-67,0.000000000000000000e+00
